
units lj                  # Use reduced LJ style units
atom_style atomic         # Uncharged point particles
atom_modify map hash      # Needed for indexing of clusters etc
                          # Used to be able to find where atoms are in relation to each other.

lattice fcc 1.0 spacing 1 1 1
Lattice spacing in x,y,z = 1.5874011 1.5874011 1.5874011
region box block 0 10 0 10 0 10 units lattice
create_box 2 box
Created orthogonal box = (0.0000000 0.0000000 0.0000000) to (15.874011 15.874011 15.874011)
  3 by 4 by 4 MPI processor grid
create_atoms 1 box
Created 4000 atoms
  using lattice units in orthogonal box = (0.0000000 0.0000000 0.0000000) to (15.874011 15.874011 15.874011)
  create_atoms CPU = 0.014 seconds
set type 1 type/fraction 2 0.6 78393
Setting atom values ...
  2421 settings made for type/fraction
mass 1 1.0
mass 2 1.0
pair_style lj/cut  3.5
pair_modify tail  yes
pair_coeff 1  1  1.0  1.0   # Intearaction between 1 and 1 set with epsilon = 1 and sigma = 1
pair_coeff 1  2  1.5  0.8
pair_coeff 2  2  0.5  0.88

write_data data.0
System init for write_data ...
Neighbor list info ...
  update every 1 steps, delay 10 steps, check yes
  max neighbors/atom: 2000, page size: 100000
  master list distance cutoff = 3.8
  ghost atom cutoff = 3.8
  binsize = 1.9, bins = 9 9 9
  1 neighbor lists, perpetual/occasional/extra = 1 0 0
  (1) pair lj/cut, perpetual
      attributes: half, newton on
      pair build: half/bin/atomonly/newton
      stencil: half/bin/3d
      bin: standard
WARNING: Not all mixed pair coeffs generated from mixing. Use write_data with 'pair ij' option to store all pair coeffs. (../write_data.cpp:312)


#############################
#   M E L T   S Y S T E M   #
#############################

velocity all create 2.4 6583654 mom yes dist gaussian # Assign velocities
                                                    # Temperature 2.4, random number seed, zero linear momentum
                                                                                # Gaussian distribution

timestep 0.002   # simulation timestep
thermo 1000       # output thermodynamic data every 1000 steps bf 100

# Define a fix  in this case with index 1 applied to all
# particles in the simulation. This fix is for simulations
# in the anisotropic NPT ensemble. Note that we use the MTK
# correction.
fix 1 all npt temp 2.4 2.4 0.1 iso 5.68 5.68 0.5 mtk yes tchain 5 pchain 5 # Use NPT ensemble
                                                                         # Set temperature and pressure and damping
                                                                         # Numbers of thermostats in chain and in barostat
run 10000          # run for 10000 steps
Per MPI rank memory allocation (min/avg/max) = 3.642 | 3.644 | 3.648 Mbytes
Step Temp E_pair E_mol TotEng Press Volume 
       0          2.4   -4.7127585            0   -1.1136585   -4.0555291         4000 
    1000    2.3784957   -4.4464756            0  -0.87962401    5.8607996    3594.8098 
    2000    2.3652791   -4.4549075            0  -0.90787589    5.7754182    3601.5889 
    3000    2.4134191   -4.4656974            0   -0.8464738    5.7263725    3606.9125 
    4000    2.4440585   -4.4573806            0  -0.79220947    5.7116995    3612.0859 
    5000    2.4128304   -4.4636935            0  -0.84535273    6.0603264    3584.7021 
    6000    2.3676162   -4.4867309            0   -0.9361945    5.5182031    3606.3314 
    7000    2.4117513    -4.412591            0  -0.79586851    5.7013196    3643.0662 
    8000    2.4287914   -4.4905811            0  -0.84830475    5.5461092    3610.9154 
    9000    2.4227208   -4.4643046            0  -0.83113196    5.4858377    3633.7526 
   10000    2.4485931   -4.4353045            0   -0.7633331    5.7392293    3616.6835 
Loop time of 2.63553 on 48 procs for 10000 steps with 4000 atoms

Performance: 655656.664 tau/day, 3794.309 timesteps/s
99.6% CPU use with 48 MPI tasks x no OpenMP threads

MPI task timing breakdown:
Section |  min time  |  avg time  |  max time  |%varavg| %total
---------------------------------------------------------------
Pair    | 1.1988     | 1.2665     | 1.3205     |   2.7 | 48.05
Neigh   | 0.21775    | 0.22279    | 0.22985    |   0.6 |  8.45
Comm    | 0.81751    | 0.88149    | 0.94897    |   3.5 | 33.45
Output  | 0.0002521  | 0.00025872 | 0.00040774 |   0.0 |  0.01
Modify  | 0.22868    | 0.24893    | 0.26871    |   2.0 |  9.45
Other   |            | 0.01558    |            |       |  0.59

Nlocal:        83.3333 ave          95 max          77 min
Histogram: 5 5 15 8 3 4 3 4 0 1
Nghost:        1759.98 ave        1786 max        1738 min
Histogram: 1 1 10 7 10 9 4 5 0 1
Neighs:        10557.2 ave       12025 max        9593 min
Histogram: 6 5 5 11 6 6 2 3 2 2

Total # of neighbors = 506745
Ave neighs/atom = 126.68625
Neighbor list builds = 903
Dangerous builds = 198

# Equilibrate just above the melting temperature to avoid step fn in T

fix 1 all npt temp 1.25 1.25 0.1 iso 5.68 5.68 0.5 mtk yes tchain 5 pchain 5
run 2000
Per MPI rank memory allocation (min/avg/max) = 3.644 | 3.646 | 3.650 Mbytes
Step Temp E_pair E_mol TotEng Press Volume 
   10000    2.4485931   -4.4353045            0   -0.7633331    5.7392293    3616.6835 
   11000    1.2489869   -6.5292215            0   -4.6562096    5.4535004     2778.323 
   12000    1.2481945   -6.5964587            0   -4.7246351    5.2953777    2761.1455 
Loop time of 0.651056 on 48 procs for 2000 steps with 4000 atoms

Performance: 530829.809 tau/day, 3071.932 timesteps/s
99.6% CPU use with 48 MPI tasks x no OpenMP threads

MPI task timing breakdown:
Section |  min time  |  avg time  |  max time  |%varavg| %total
---------------------------------------------------------------
Pair    | 0.29592    | 0.32305    | 0.348      |   2.1 | 49.62
Neigh   | 0.040325   | 0.043128   | 0.045301   |   0.5 |  6.62
Comm    | 0.2079     | 0.23498    | 0.26814    |   2.8 | 36.09
Output  | 5.1147e-05 | 5.3044e-05 | 6.9405e-05 |   0.0 |  0.01
Modify  | 0.041343   | 0.044946   | 0.048809   |   1.0 |  6.90
Other   |            | 0.004901   |            |       |  0.75

Nlocal:        83.3333 ave          91 max          75 min
Histogram: 2 4 0 6 7 14 7 2 5 1
Nghost:        2115.15 ave        2137 max        2096 min
Histogram: 1 5 9 8 2 8 6 4 3 2
Neighs:        13816.9 ave       15517 max       12227 min
Histogram: 4 3 6 6 2 10 9 3 1 4

Total # of neighbors = 663210
Ave neighs/atom = 165.80250
Neighbor list builds = 142
Dangerous builds = 11

#############################
# L I N E A R  Q U E N C H  #
#############################

# Define solid atoms. This closely follows ten Wolde  Ruiz-Montero and Frenkel  Faraday Discuss  1996  104  93-110
# Compute components of the per-atom q6 vector
compute q6 all orientorder/atom degrees 1 6 components 6 nnn NULL cutoff 1.3 # compute the Q6 parameter.
                                                                             # Use all neighbours within 1.3 unit cell.

# get number of connections
compute coord_number all coord/atom orientorder q6 0.5

# An atom is solid if it has 8 or more connections (of a possible 14)
variable is_solid atom c_coord_number>=8
group solid dynamic all var is_solid    # Must be dynamic to update
dynamic group solid defined

# do clustering
compute cluster solid cluster/atom 1.3 # Create a cluster where all atoms within are solid and max 1.3 units from another member

# define chunks one chunk per cluster
compute clus_chunks solid chunk/atom c_cluster nchunk every compress yes  # Says which atoms are in which chunk

# count the size of each chunk
compute size_chunks solid property/chunk clus_chunks count


# Find the maximum entry in the vector of chunk sizes
variable max_n equal max(c_size_chunks)


# Thermo style which includes this variable
# thermo_style custom step temp pe vol v_max_n

thermo ${N}  # Print the thermo information every 100 steps
thermo 1000  

# Reset the npt fix at a lower temperature (below freezing)
fix 1  all npt temp  ${temp} ${temp}  0.1  iso  5.68  5.68  0.5  mtk yes tchain  5  pchain  5
fix 1  all npt temp  0.45 ${temp}  0.1  iso  5.68  5.68  0.5  mtk yes tchain  5  pchain  5
fix 1  all npt temp  0.45 0.45  0.1  iso  5.68  5.68  0.5  mtk yes tchain  5  pchain  5

dump dmp2 all dcd ${N} traj.dcd
dump dmp2 all dcd 1000 traj.dcd


compute msd all msd com yes
variable twopoint equal c_msd[4]/6/(step*dt+1.0e-6)
fix 9 all vector 10 c_msd[4]
variable fit equal slope(f_9)/6/(10*dt)
thermo_style custom step temp pe c_msd[4] v_twopoint v_fit v_max_n

fix 1 all npt temp 1.25 ${temp} 0.1 iso 5.68 5.68 0.5 mtk yes tchain 5 pchain 5
fix 1 all npt temp 1.25 0.45 0.1 iso 5.68 5.68 0.5 mtk yes tchain 5 pchain 5
run 5000000 # 5000000  # Run for this many steps
Neighbor list info ...
  update every 1 steps, delay 10 steps, check yes
  max neighbors/atom: 2000, page size: 100000
  master list distance cutoff = 3.8
  ghost atom cutoff = 3.8
  binsize = 1.9, bins = 8 8 8
  4 neighbor lists, perpetual/occasional/extra = 1 3 0
  (1) pair lj/cut, perpetual
      attributes: half, newton on
      pair build: half/bin/atomonly/newton
      stencil: half/bin/3d
      bin: standard
  (2) compute orientorder/atom, occasional
      attributes: full, newton on
      pair build: full/bin/atomonly
      stencil: full/bin/3d
      bin: standard
  (3) compute coord/atom, occasional
      attributes: full, newton on
      pair build: full/bin/atomonly
      stencil: full/bin/3d
      bin: standard
  (4) compute cluster/atom, occasional
      attributes: full, newton on
      pair build: full/bin/atomonly
      stencil: full/bin/3d
      bin: standard
Per MPI rank memory allocation (min/avg/max) = 9.848 | 9.852 | 9.856 Mbytes
Step Temp PotEng c_msd[4] v_twopoint v_fit v_max_n 
   12000    1.2481945   -6.5964587 1.7918975e-30 1.2443732e-32 8.3333333e+20            1 
   13000    1.2463031   -6.6081007   0.50218264 0.0032191194  0.041537134            4 
   14000    1.2871846   -6.5828387    0.9227828 0.0054927546  0.037523125            2 
   15000    1.2456541   -6.6460174     1.371383 0.0076187944  0.036613201            5 
   16000    1.2398096   -6.6274954    1.7816836 0.0092796016  0.036377631            1 
   17000    1.2427209   -6.6509534     2.166308  0.010619157  0.035467407            1 
   18000    1.2327699   -6.5966316    2.5755786  0.011923974  0.034957854            2 
   19000     1.243824   -6.6022516    3.0412378  0.013338762  0.034946106            1 
   20000    1.2375442    -6.658058    3.4652233   0.01443843  0.035257837            3 
   21000    1.2501875   -6.6094616    3.9745956  0.015772204  0.035516177            2 
   22000    1.2347221   -6.5425212    4.4209203   0.01674591  0.035864815            1 
   23000    1.2651104   -6.5996951    4.7909643  0.017358566  0.036069098            2 
   24000    1.2458902   -6.6288827    5.1732909  0.017962815  0.035962684            2 
   25000    1.2589395   -6.5924235    5.6069773  0.018689924  0.035831163            3 
   26000    1.2707408   -6.6266007    5.9826887  0.019175284  0.035667884            2 
   27000    1.2097939   -6.6425056    6.4722164  0.019975976   0.03560922            2 
   28000    1.2306449   -6.6134425    6.9901954  0.020804152  0.035717552            3 
   29000    1.2557853   -6.6258051     7.368128  0.021172781  0.035798151            3 
   30000    1.2351384   -6.5765382    7.8726294  0.021868415  0.035912717            2 
   31000    1.2242543   -6.6061789    8.2949995  0.022298385  0.035994156            2 
   32000    1.2374236   -6.6237915     8.756167  0.022802518  0.036083616            2 
   33000    1.2574183    -6.596081    9.1529809  0.023113588  0.036109823            3 
   34000    1.2703787    -6.662215    9.6018565  0.023533962  0.036114965            1 
   35000    1.2326986     -6.61144    10.206342  0.024300813  0.036236444            2 
   36000    1.2313739   -6.6164328    10.689195  0.024743507  0.036417241            4 
   37000    1.2512622   -6.6595431    11.166483  0.025149737  0.036567787            5 
   38000    1.2539385   -6.6213755    11.601444  0.025441763  0.036702485            2 
   39000    1.2305957    -6.614426    12.054298  0.025757048  0.036809254            3 
   40000    1.2407199     -6.62921    12.394589  0.025822059  0.036881238            1 
   41000    1.2481024   -6.6277674    12.948345  0.026317773  0.036942158            3 
   42000    1.2569533   -6.5962404    13.342337   0.02647289  0.036992192            2 
   43000    1.2410133   -6.6315673     13.87326  0.026886162  0.037062214            2 
   44000    1.2558539   -6.6307013    14.388363  0.027250687  0.037143932            2 
   45000     1.254584   -6.6217151    14.934356  0.027656215   0.03724545            2 
   46000    1.2765739   -6.6341593     15.43158  0.027955761  0.037340688            2 
   47000    1.2434142   -6.6390753    15.914593  0.028217362  0.037473091            2 
   48000    1.2319452   -6.6096585    16.207034  0.028137212  0.037554403            2 
   49000    1.2649031   -6.6552756    16.546925  0.028141028  0.037582166            2 
   50000     1.252472   -6.5995218    16.986673  0.028311122  0.037600168            3 
   51000    1.2250511   -6.5862883    17.498227  0.028591874   0.03759346            2 
   52000    1.2426264   -6.6392458    17.930405  0.028734624  0.037609134            3 
   53000    1.2436881   -6.6238065    18.350682  0.028853273  0.037613148            3 
   54000    1.2658088   -6.6640708     18.78408  0.028987778  0.037610302            3 
   55000    1.2567422   -6.6160205    19.174035  0.029051568   0.03758913            2 
   56000    1.2554157    -6.587701    19.693343   0.02930557  0.037568817            4 
   57000      1.26398   -6.6039492    20.111735  0.029403121  0.037564407            2 
   58000    1.2471832   -6.6486426    20.448571   0.02938013   0.03754525            3 
   59000    1.2494688   -6.6406916    20.736684  0.029289102  0.037489997            2 
   60000    1.2683452   -6.6338253    21.081323  0.029279615  0.037425707            4 
   61000    1.2656086   -6.6344951    21.433644  0.029280934  0.037344375            1 
   62000    1.2580159   -6.6586653     21.96158  0.029518253  0.037274005            3 
   63000    1.2605475   -6.6620431    22.358811  0.029575147  0.037212288            2 
   64000    1.2515329   -6.6892342    22.677588   0.02952811  0.037138558            4 
   65000    1.2374767   -6.6472381    23.250236  0.029807995  0.037071213            3 
   66000    1.2520353    -6.636479    23.554782  0.029740886  0.037022702            4 
   67000    1.2438688   -6.6353494    24.061349  0.029927051  0.036964481            2 
   68000     1.215774   -6.6513457    24.528714  0.030059698  0.036917443            1 
   69000    1.2601035     -6.66518    24.937105  0.030117276  0.036875611            2 
   70000    1.2412136   -6.6966716    25.393008  0.030229771  0.036833507            7 
   71000    1.2374671   -6.6558377     25.82079  0.030306092  0.036798241            3 
   72000    1.2500821   -6.6967999    26.089111   0.03019573  0.036759356            3 
   73000    1.2406507   -6.6800039    26.575547  0.030337382  0.036711325            5 
   74000     1.215179   -6.6974844    26.939276  0.030337022  0.036672706            2 
   75000    1.2166989   -6.6389845    27.373612  0.030415125  0.036634678            2 
   76000     1.251148   -6.6408769    27.815842  0.030499826  0.036590406            3 
   77000    1.2545436   -6.6463187    28.305024  0.030633143  0.036548894            3 
   78000    1.2458137   -6.6353377    28.816201  0.030786539  0.036523986            2 
   79000    1.2469067    -6.620836    29.372585  0.030983739  0.036518699            3 
   80000    1.2618921   -6.5950857    30.205505  0.031464068  0.036528084            1 
   81000    1.1829913   -6.6378703    30.660956  0.031544193  0.036556326            2 
   82000    1.2278072    -6.651255    31.016086  0.031520413  0.036583494            2 
   83000    1.2567385   -6.6579235    31.140953  0.031266017  0.036590987            4 
   84000      1.23867   -6.6803925    31.392843  0.031143693  0.036582255            3 
   85000    1.2242836   -6.6797071    31.708131  0.031086403  0.036552785            5 
   86000    1.2395215   -6.6456033    32.146412  0.031149624  0.036518237            1 
   87000    1.2591197   -6.6695872    32.479515  0.031110647  0.036483034            1 
   88000    1.2580301   -6.6414582    32.946386  0.031199229  0.036443384            1 
   89000    1.2010005   -6.6201067    33.276239  0.031157527  0.036403026            4 
   90000    1.2178268   -6.5953473    33.565493   0.03107916  0.036349449            3 
   91000    1.2293519   -6.5936229    33.898372  0.031042465  0.036295441            3 
   92000    1.2401558   -6.6422263    34.331415  0.031097296  0.036239805            4 
   93000    1.2289451   -6.6470059    34.663211  0.031060224   0.03617826            2 
   94000    1.2314625   -6.6339973    34.934737  0.030970511  0.036120085            5 
   95000    1.2261889   -6.6242172     35.34163   0.03100143  0.036059257            4 
   96000    1.2092934    -6.670434    35.588791  0.030893047   0.03599181            2 
   97000    1.2568668   -6.6152275    35.965379  0.030898092  0.035921196            3 
   98000     1.250266   -6.6829975    36.011552  0.030622068  0.035842589            4 
   99000     1.221535   -6.6500227    36.273214  0.030533008  0.035755682            1 
  100000    1.2395834   -6.5920618    36.966053  0.030805044  0.035673626            1 
  101000     1.240159   -6.6000306    37.432732  0.030885092  0.035597394            2 
  102000    1.2094317   -6.6512421    37.653332  0.030762526  0.035531342            2 
  103000    1.2288111   -6.6878961    38.104901  0.030829208  0.035464332            1 
  104000    1.2458566   -6.6220784    38.675383   0.03098989  0.035399952            1 
  105000    1.2319915   -6.7036594    39.068581   0.03100681  0.035344132            3 
  106000    1.2340479   -6.6535635    39.291498  0.030889542  0.035286905            2 
  107000    1.2473916     -6.61442      39.6963  0.030916122  0.035232043            1 
  108000    1.2341903   -6.6907994    39.933227  0.030812675  0.035179216            3 
  109000    1.2428015   -6.6036517    40.881544  0.031255003  0.035129941            5 
  110000     1.239349   -6.6599124    41.019377  0.031075286  0.035087016            1 
  111000    1.2450587   -6.6561305    41.457239  0.031124053  0.035044139            2 
  112000    1.2218341   -6.6609182    41.750179  0.031064121  0.035006026            1 
  113000    1.2277363    -6.624076    42.284773  0.031183461  0.034966077            1 
  114000    1.2081845    -6.707293    42.738588  0.031241658   0.03493015            2 
  115000    1.2470634   -6.6644906    43.068768  0.031209252  0.034892373            4 
  116000    1.2371874   -6.6364814    43.511322  0.031258133  0.034862067            1 
  117000    1.2456723   -6.6360931    44.169771  0.031459951  0.034836415            2 
  118000    1.2492648   -6.6751382    44.640652  0.031525884  0.034818074            3 
  119000    1.2549139   -6.6453549    44.961999  0.031485994  0.034798608            1 
  120000    1.2122149   -6.6816065    45.192066  0.031383379  0.034776757            2 
  121000    1.2121281   -6.6344571    45.896509  0.031609166  0.034759228            2 
  122000    1.2312454   -6.6482082    46.387178  0.031685231  0.034747957            2 
  123000    1.2593943   -6.6988608    46.733279  0.031662113  0.034741194            1 
  124000    1.2379415   -6.6087381    47.439819  0.031881598  0.034740075            4 
  125000    1.2479717   -6.6341221    48.032249  0.032021499  0.034743051            2 
  126000    1.2280663   -6.6538169    48.512469  0.032084966  0.034746681            4 
  127000    1.2437402   -6.6809695    48.959724  0.032125803  0.034753579            1 
  128000    1.2186547   -6.6304165    49.530404  0.032246356  0.034766668            1 
  129000    1.2415897   -6.6380471    49.954814  0.032270552  0.034776375            2 
  130000    1.2561182   -6.6522487    50.308829  0.032249249  0.034787309            3 
  131000     1.208991   -6.6735886     50.75345   0.03228591  0.034799504            3 
  132000    1.2049934   -6.6635761    51.246255  0.032352434  0.034813235            2 
  133000    1.2414244   -6.6622108    51.709779  0.032399611  0.034829768            5 
  134000    1.2009852    -6.671108    52.276888  0.032510502  0.034846221            2 
  135000    1.1993569   -6.6931441    52.217188  0.032232832  0.034857097            2 
  136000    1.2096864   -6.6299128    53.131729  0.032556206  0.034869831            2 
  137000    1.2292256   -6.7086878    53.084721  0.032289976    0.0348807            2 
  138000    1.2336482   -6.7075005     53.52434  0.032321461  0.034889383            5 
  139000    1.2276676   -6.6679511    53.975397  0.032359351  0.034896309            9 
  140000    1.2173954   -6.6910499    54.386484  0.032372907  0.034901785            2 
  141000    1.2218901   -6.6762951    55.049621  0.032535237  0.034909602            3 
  142000    1.2221177   -6.6800764    55.533063  0.032589826  0.034920205            2 
  143000    1.2352893   -6.6605312    56.047617  0.032661782  0.034935207            2 
  144000    1.2338453   -6.6243316     56.80429  0.032872853  0.034953887            2 
  145000    1.2193147   -6.6671961    57.089864  0.032810266  0.034970488            2 
  146000    1.2524582   -6.6792385    57.357315  0.032738193  0.034987032            4 
  147000    1.2284433   -6.6881177    57.838637  0.032788343  0.035000372            3 
  148000     1.236358   -6.6939476    58.458666  0.032915916  0.035017304            3 
  149000    1.2163789   -6.6681776    59.070595  0.033037246  0.035036044            1 
  150000    1.2210577   -6.6631517    59.494662   0.03305259  0.035056906            3 
  151000    1.2476083    -6.666897    59.748942   0.03297403  0.035079432            3 
  152000    1.2051489    -6.590236    60.847816  0.033359548  0.035104756            3 
  153000    1.2478559   -6.7002909    60.607685  0.033010721  0.035129686            5 
  154000    1.2059972   -6.6686109    61.150189  0.033089929  0.035148564            2 
  155000    1.2050428   -6.7035165    61.564063  0.033098958  0.035166234            2 
  156000    1.2423582   -6.7000394    61.905838  0.033069358  0.035183465            2 
  157000    1.2211697   -6.6625892    62.100232  0.032961907  0.035202023            3 
  158000    1.2265197    -6.666363    62.860161  0.033154093  0.035214958            1 
  159000    1.2262696   -6.6806432    63.079587   0.03306058  0.035230461            2 
  160000    1.2110639    -6.652163     63.52092  0.033083812  0.035242667            7 
  161000    1.2430595   -6.6730398    64.045458  0.033149823  0.035252297            2 
  162000    1.2402242   -6.6464279    64.423946   0.03313989  0.035261162            2 
  163000    1.2218728    -6.628554    65.034545  0.033248745  0.035273387            2 
  164000    1.2389807   -6.6670979    65.041661  0.033049625  0.035280107            3 
  165000    1.2058816   -6.6485315    65.648409  0.033155762  0.035282617            3 
  166000    1.2425852   -6.7067321    65.586265  0.032924832  0.035281353            2 
  167000    1.2079953   -6.6513062    66.178654   0.03302328  0.035281283            3 
  168000     1.251188   -6.7175119    66.433262  0.032953007  0.035280664            3 
  169000    1.2510756   -6.7016394    66.834299  0.032955769  0.035276688            2 
  170000    1.2514494   -6.6808226    67.192581  0.032937539  0.035276351            2 
  171000     1.233008   -6.6769725    67.642449  0.032964156  0.035274554            2 
  172000    1.2194253   -6.6780135    67.904046  0.032899247  0.035273276            3 
  173000    1.2053738   -6.6699172    68.746726  0.033114993  0.035275632            3 
  174000    1.2027343   -6.6447138    69.292018  0.033185832  0.035276815            2 
  175000     1.217906   -6.6930142    69.284187   0.03299247  0.035278342            2 
  176000    1.2161075   -6.6835557    69.840168  0.033068261  0.035278045            1 
  177000    1.2164682   -6.6690047    70.190784  0.033046508  0.035276748            2 
  178000    1.2419875   -6.6548635    70.652513  0.033077019   0.03527858            2 
  179000    1.2129056   -6.6759793    70.598385  0.032867032  0.035276041            3 
  180000    1.2372518    -6.717148    70.827717  0.032790609  0.035269478            3 
  181000    1.2458585   -6.6865772    71.278093  0.032816802   0.03525908            3 
  182000    1.2029044   -6.6765797    71.600951  0.032784318  0.035247843            2 
  183000    1.2347844   -6.7750666    71.761082  0.032678088  0.035231195            4 
  184000    1.2074357   -6.6503536    72.616251  0.032887795  0.035216942            2 
  185000    1.2321675   -6.7171859    72.726871  0.032759852  0.035201522            3 
  186000    1.2185554   -6.6576735    73.301725  0.032841274  0.035189701            3 
  187000    1.2019145   -6.7000259    73.719131  0.032851662  0.035177568            2 
  188000    1.1952259   -6.6404601    74.166003  0.032875001  0.035166511            2 
  189000    1.2123049   -6.6487292    74.593866  0.032889711  0.035156199            3 
  190000      1.21662   -6.7026521    74.744585  0.032782713     0.035146            3 
  191000    1.2327009   -6.6993378    75.503193  0.032942056  0.035134762            3 
  192000    1.2394501   -6.6954991    75.452168  0.032748337  0.035123458            2 
  193000    1.2295198   -6.6919567    76.232707  0.032915677  0.035111006            4 
  194000    1.2142645   -6.6445555    76.634017  0.032918392   0.03509848            2 
  195000    1.2188499   -6.6687914    76.841145  0.032838096  0.035085591            3 
  196000    1.2168034   -6.7093848     76.93923  0.032712257  0.035073237            3 
  197000    1.2031044   -6.6969902    77.939055  0.032969143  0.035064199            2 
  198000    1.2364706   -6.6837257    78.057783  0.032852602  0.035052885            2 
  199000    1.2446154   -6.7008788    78.301674  0.032789645  0.035042241            2 
  200000    1.2301086   -6.7063042    78.659923  0.032774968  0.035031018            3 
  201000    1.2341187   -6.6838272    79.397879   0.03291786   0.03501973            3 
  202000    1.2023408   -6.7471696    79.576137  0.032828439  0.035009756            2 
  203000    1.2446144   -6.7087809     80.32049  0.032972286  0.035000787            2 
  204000    1.2236068   -6.7399251    80.712017  0.032970595  0.034991871            2 
  205000    1.1786304   -6.6949558     81.37925  0.033080996  0.034985207            2 
  206000    1.1857425   -6.7148351    81.439365  0.032944727   0.03497986            3 
  207000    1.2272245   -6.7247905    81.868255  0.032958235  0.034972651            2 
  208000    1.2225627   -6.7649354    82.029104  0.032864224  0.034964805            2 
  209000    1.2225265   -6.6668789    82.635884  0.032948917  0.034955972            2 
  210000    1.2288246   -6.7299387    82.940233  0.032912791  0.034946701            3 
  211000    1.2155732   -6.7142076      83.3351  0.032912756  0.034938512            2 
  212000    1.2323697   -6.7207736    83.870404  0.032967926  0.034927665            3 
  213000     1.211521   -6.6931312    83.859696  0.032808958  0.034916769            2 
  214000    1.2100174   -6.6857108    84.730979   0.03299493  0.034907455            4 
  215000    1.2304124   -6.6862661    84.926527  0.032917259  0.034898128            3 
  216000    1.2142017   -6.7482833    85.016488  0.032799571  0.034886223            2 
  217000    1.2123458   -6.7050595    85.231278  0.032730906  0.034874054            9 
  218000    1.2130825    -6.707802    85.809418  0.032801765  0.034862385            3 
  219000    1.2110822   -6.6413897    86.918612  0.033074053  0.034852182            3 
  220000    1.2132094   -6.7149948    87.040349  0.032969829  0.034844717            2 
  221000    1.2130504    -6.751896    87.649555   0.03305036  0.034837118            3 
  222000    1.2100702   -6.6699657    88.329451  0.033156701  0.034832348            3 
  223000    1.2384863   -6.6159011     89.12282  0.033304492  0.034827387            1 
  224000    1.1961697    -6.716842     88.93007  0.033084103  0.034823648            2 
  225000    1.1966289   -6.6815985    89.423429  0.033119789  0.034818874            2 
  226000    1.2162257   -6.6965714    89.583421  0.033032235  0.034813385            3 
  227000    1.2114775   -6.7058038    89.727142  0.032939479  0.034806523            1 
  228000    1.2147342   -6.6881761    90.652221  0.033133122   0.03479993            2 
  229000    1.2330454   -6.6861375    91.039275  0.033129285  0.034795096            2 
  230000    1.2004294   -6.7476405     91.19541  0.033041815  0.034790374            1 
  231000    1.2028967   -6.6982627    92.061016  0.033211045   0.03478708            2 
  232000    1.2271205   -6.7176718    92.249723  0.033135676  0.034784302            2 
  233000    1.2403438    -6.699393     92.30531  0.033013344  0.034779087            2 
  234000    1.2162812   -6.7219574     92.47212  0.032931666  0.034771809            3 
  235000     1.206115   -6.7044003    93.325034  0.033093984   0.03476363            1 
  236000    1.1934593    -6.702145    93.684859  0.033080812  0.034756696            2 
  237000    1.1829551   -6.6994477     93.91667  0.033022739  0.034749961            1 
  238000    1.2355216   -6.7012766    94.068038  0.032936988  0.034742911            6 
  239000    1.2042636   -6.7247005    94.435148  0.032927178  0.034735236            2 
  240000    1.2193959   -6.7135806    94.561653  0.032833907  0.034724852            1 
  241000    1.2173777   -6.7438553    94.911664  0.032818694  0.034714272            4 
  242000    1.2262295   -6.7627089    95.485829  0.032880795   0.03470244            2 
  243000    1.2231441    -6.725207    96.037383  0.032934631  0.034691121            3 
  244000     1.222543   -6.6862572    96.535515  0.032969779  0.034681946            1 
  245000    1.2132283   -6.7445062    96.811591  0.032929113  0.034672406            2 
  246000    1.2060468   -6.7365383    96.809331  0.032794489  0.034663248            2 
  247000    1.2018339   -6.7435762    97.267347  0.032816244  0.034651991            3 
  248000    1.2012189   -6.6947407    97.946256  0.032912048  0.034641483            2 
  249000    1.2230062   -6.7126481    98.156141  0.032850114    0.0346323            3 
  250000    1.1958077   -6.7122506    98.803444  0.032934481  0.034623855            3 
  251000    1.1930266   -6.6575115    99.311492  0.032971943  0.034614782            2 
  252000     1.224299   -6.7619766    99.669278  0.032959417  0.034606962            5 
  253000      1.22629   -6.7217057    100.48505  0.033097844   0.03459903            2 
  254000    1.2042594   -6.7014899    100.74656  0.033053334  0.034589785            2 
  255000    1.2031709   -6.7105459    100.84429  0.032955649  0.034583663            7 
  256000    1.2379403    -6.656913    102.22377  0.033275966  0.034579898            3 
  257000    1.2072617    -6.700323    102.18981  0.033135477  0.034577364            3 
  258000    1.1961285   -6.6694488    102.96841  0.033258532  0.034574434            4 
  259000     1.226368   -6.7321543     102.9363  0.033119786  0.034570688            2 
  260000    1.2382597    -6.713152    103.29344  0.033106871  0.034566533            4 
  261000    1.2178269   -6.7204346    103.73432  0.033120791  0.034562822            3 
  262000    1.2163505   -6.7275364    104.06834  0.033100618  0.034558695            3 
  263000     1.215441   -6.7338171    104.36846  0.033069855  0.034553248            2 
  264000    1.1948397   -6.6621957    105.10928  0.033178434  0.034547662            3 
  265000    1.2282417   -6.7147037    105.36363  0.033133216  0.034543645            2 
  266000    1.2123603   -6.7382855    105.74039   0.03312669  0.034540121            4 
  267000    1.2244395    -6.676136    106.48469  0.033234921  0.034536557            1 
  268000    1.2372339   -6.7300664    106.05893  0.032978522  0.034532249            3 
  269000    1.2234831   -6.7100885    107.01593  0.033152395  0.034527731            2 
  270000    1.2511206   -6.7321262     106.8411  0.032975649  0.034521736            2 
  271000    1.2371518   -6.7364914    107.93846   0.03319141  0.034514858            2 
  272000    1.2062355   -6.7449979    108.00243  0.033088979  0.034509903            3 
  273000    1.2212852   -6.7063349    108.20079  0.033028325  0.034505071            4 
  274000    1.2071964   -6.7087379    108.41118  0.032971769  0.034498941            3 
  275000    1.1974259   -6.7377543    108.78394   0.03296483  0.034491514            6 
  276000    1.2164175   -6.6809099    109.75361  0.033138166  0.034484734            1 
  277000    1.2354948   -6.7161682    109.97494  0.033085119  0.034479019            1 
  278000    1.2424508   -6.7085202    110.60325  0.033154453  0.034474822            3 
  279000    1.2126641   -6.7191328    110.81776  0.033099689  0.034469679            5 
  280000    1.2261542   -6.7514826    110.87359  0.032998093  0.034463927            3 
  281000    1.1713459   -6.7200761    111.37468  0.033029263  0.034457634            6 
  282000    1.2042641   -6.6972311    111.99617  0.033095795  0.034450789            2 
  283000    1.1895748   -6.6963618    112.61267  0.033160385  0.034444626            1 
  284000    1.1983381   -6.7279792    112.96358  0.033146589  0.034438961            1 
  285000    1.2010407     -6.74822    112.90404  0.033012877  0.034432273            2 
  286000    1.2349218   -6.7544163    113.40249  0.033042683  0.034427425            2 
  287000    1.2060221   -6.6927363     113.9621  0.033090041  0.034420242            2 
  288000    1.1843219   -6.7415306     113.8281  0.032936371  0.034411695            4 
  289000    1.2073151   -6.7577109    114.04891  0.032886076  0.034403675            1 
  290000    1.2100801   -6.7553402    114.65879  0.032947927  0.034395566            4 
  291000    1.2083798   -6.6978937    115.65481  0.033119935  0.034388315            5 
  292000    1.2165813   -6.7059467    115.42678  0.032941432  0.034381213            2 
  293000    1.2300235   -6.7159249    116.05985  0.033009058  0.034373697            3 
  294000    1.2462346   -6.7180806    116.12386  0.032914926  0.034365067            3 
  295000    1.2029548   -6.7008519    116.50512  0.032911051  0.034355143            2 
  296000    1.2052321   -6.7151705    116.80184    0.0328834  0.034345942            2 
  297000     1.176756   -6.6880525    117.61308  0.033000304  0.034337091            2 
  298000    1.2133808   -6.7437016    117.86318  0.032959502  0.034328787            2 
  299000    1.1950139   -6.7037251    118.13396  0.032924737  0.034320149            2 
  300000    1.1978814   -6.7342062    119.06027  0.033072297  0.034312796            1 
  301000    1.1887044   -6.6907432    119.41853  0.033061608  0.034305119            2 
  302000    1.1967252    -6.756609    119.23568  0.032901676  0.034297133            2 
  303000     1.216451   -6.7769728    119.28615  0.032806972  0.034288205            2 
  304000    1.1784437   -6.7042234    120.09924  0.032921941  0.034278791            4 
  305000    1.2120446   -6.7569617    120.52386  0.032930017   0.03426995            4 
  306000    1.1707908   -6.7191603    120.94432  0.032936905  0.034262729            2 
  307000    1.2044539   -6.7191165    121.34433  0.032938199  0.034255823            3 
  308000    1.2129333   -6.7476772    121.69401  0.032925869  0.034247849            3 
  309000    1.1947709   -6.7381998    122.30098  0.032983003  0.034240166            2 
  310000    1.2182319   -6.7480094    122.16414  0.032839823  0.034232749            3 
  311000    1.1936491   -6.7362185    123.00595  0.032959795  0.034226026            6 
  312000    1.1948364   -6.7440356    123.16008  0.032895319  0.034219775            2 
  313000    1.2072941   -6.7536733    123.86387  0.032977601  0.034214928            1 
  314000    1.2087385   -6.7356445    124.41786  0.033019601  0.034209601            2 
  315000    1.2071386   -6.7526394    125.12563  0.033102019   0.03420437            4 
  316000    1.2254049   -6.7099036    125.79493  0.033173769  0.034200315            2 
  317000    1.2162418   -6.7268035     125.9067    0.0330985  0.034196745            3 
  318000    1.2105796   -6.7216882    125.89504  0.032991363  0.034191185            2 
  319000     1.178076   -6.6873959     126.8261  0.033131166  0.034185664            4 
  320000    1.1988482   -6.7761981    126.49318  0.032940932  0.034180058            3 
  321000    1.2007345   -6.7483799    127.06829  0.032987613  0.034174066            2 
  322000    1.2060996   -6.7253068    127.85509   0.03308879  0.034168336            3 
  323000    1.2106561   -6.7741932    127.88269  0.032993469  0.034162917            5 
  324000    1.2051232   -6.7115186    128.20731   0.03297513  0.034155877            2 
  325000    1.2026006   -6.7422646    127.79628  0.032768278  0.034147775            3 
  326000    1.2112633   -6.7662783     128.8339  0.032933002  0.034140649            4 
  327000    1.1798353   -6.7216322     129.1861  0.032922044  0.034132879            3 
  328000    1.1975861   -6.7887986    129.15768  0.032814451  0.034125815            2 
  329000    1.2098082   -6.7435187    129.75699  0.032866512  0.034117238            1 
  330000     1.205592   -6.7343473    130.76837  0.033022315  0.034110564            4 
  331000    1.1918175   -6.7548012    130.81135  0.032933372  0.034103463            3 
  332000    1.1961747   -6.7542023    130.94534  0.032867805  0.034096369            3 
  333000    1.2122093   -6.6922064    131.59479  0.032931629  0.034089454            3 
  334000    1.1931321   -6.7955639    131.42955  0.032791805  0.034082312            3 
  335000    1.1939044   -6.7405645    132.07596  0.032854717  0.034076112            3 
  336000     1.205882   -6.7693501    132.67665  0.032905916  0.034068764            3 
  337000    1.2085096   -6.7464024    132.68617  0.032810626  0.034061401            3 
  338000    1.1831872   -6.7103905    133.67335  0.032956941  0.034054191            3 
  339000    1.1898618   -6.7067491    134.21026  0.032991707  0.034048726            2 
  340000    1.2042792   -6.7556239    133.84261  0.032804562  0.034041698            2 
  341000     1.190903   -6.7945723    133.98788  0.032743862  0.034033917            3 
  342000    1.1920684   -6.7441716    134.82821  0.032852878  0.034027439            2 
  343000    1.2175079   -6.7378929    135.41797  0.032900381  0.034020504            3 
  344000    1.2010783   -6.7495185    135.53385  0.032832813  0.034013457            2 
  345000    1.2146821   -6.7951051    135.93752  0.032835149  0.034005543            4 
  346000    1.1810996   -6.7226139    136.91813  0.032976427  0.033998336            2 
  347000      1.20822   -6.7677911    136.46694  0.032773039  0.033991947            1 
  348000    1.1882634   -6.7202069     137.7633  0.032989296  0.033985438            1 
  349000    1.1918273   -6.7463763    137.63813  0.032864884  0.033979194            3 
  350000    1.2127561   -6.7076288    138.21116  0.032907419  0.033972741            2 
  351000    1.1948338   -6.7723076    137.95604  0.032753096  0.033965264            2 
  352000    1.2020632   -6.7567095    138.97067  0.032900254  0.033958714            3 
  353000    1.1649312     -6.76543     138.8588  0.032780642   0.03395198            3 
  354000    1.1878254   -6.7217981    139.64162  0.032872321  0.033943578            6 
  355000    1.1848874   -6.7661149    139.60501   0.03277113  0.033934921            4 
  356000    1.2093413   -6.7234215     139.9967  0.032770764  0.033926568            4 
  357000     1.182473    -6.738536    140.32557  0.032755735   0.03391862            3 
  358000    1.2332701   -6.7898318    140.38623  0.032678359   0.03391028            2 
  359000    1.1852447   -6.7331429    141.22886  0.032782929  0.033901544            2 
  360000    1.1768214   -6.7249607    142.47674  0.032980728  0.033893725            4 
  361000    1.2141688   -6.7279162    142.63714  0.032926394  0.033887434            1 
  362000    1.2014031    -6.742221    142.56411  0.032818626  0.033881425            2 
  363000    1.1962863   -6.7713621    142.76043  0.032773285  0.033875679            2 
  364000    1.2091986   -6.7694141    143.05869  0.032751531  0.033868239            2 
  365000    1.1924548   -6.7495662     143.6025  0.032785958  0.033859173            4 
  366000    1.1867612   -6.7970541    143.47891   0.03266824  0.033849945            4 
  367000    1.2019283   -6.7219292    144.32652   0.03277169  0.033841357            4 
  368000    1.1936656   -6.7381354    144.51621  0.032725591  0.033832498            2 
  369000    1.2018665   -6.7869538    143.97871  0.032515516  0.033822968            7 
  370000     1.213975   -6.7713906    144.77219  0.032606349  0.033813876            1 
  371000    1.1829303   -6.7517314    145.60438  0.032705386  0.033804628            1 
  372000    1.2034889   -6.8070202    144.79391  0.032435912  0.033795291            2 
  373000    1.1932567   -6.7366402     145.4697  0.032499933  0.033785103            4 
  374000    1.1959103   -6.7154918    146.00343  0.032531959  0.033775413            3 
  375000    1.1950026    -6.767132     146.2984  0.032510755  0.033765128            3 
  376000    1.1769114   -6.7446231      146.821  0.032540116  0.033754454            1 
  377000    1.1690137   -6.7608428    146.94165  0.032480471  0.033744196            5 
  378000     1.183124   -6.7199035    147.57682  0.032534573  0.033733279            3 
  379000    1.2015914   -6.7113871    148.56273  0.032665507  0.033723219            6 
  380000    1.1826124   -6.7725434    148.18462  0.032496628  0.033713586            3 
  381000     1.178503   -6.7080048    149.25019  0.032644398  0.033704698            8 
  382000    1.1903991    -6.761026    149.28961  0.032567542  0.033694843            5 
  383000    1.1699938   -6.7721321    149.55406  0.032540048  0.033685819            1 
  384000    1.2123376   -6.7444819    149.89531  0.032529364  0.033676542            3 
  385000     1.174798   -6.7461607    150.53022  0.032582298  0.033667621            3 
  386000    1.1967317   -6.7928763    150.39691  0.032469109  0.033658155            1 
  387000    1.1808338   -6.7536006    150.99966  0.032514999  0.033648407            2 
  388000    1.1919678   -6.7728651     150.9843    0.0324279  0.033638896            2 
  389000    1.1983897   -6.7812272    151.47382  0.032449405  0.033628859            2 
  390000    1.2153582   -6.7059866    152.72424  0.032633385  0.033619284            2 
  391000    1.1957267   -6.7598218    151.98212  0.032391756  0.033609637            2 
  392000    1.1699873   -6.7242366    152.78511  0.032479829  0.033600974            3 
  393000    1.2086131   -6.7499324    153.34902  0.032516756  0.033591722            3 
  394000    1.1895933   -6.7670291    154.10931  0.032595032  0.033583032            2 
  395000    1.1759058   -6.7183504    154.77339  0.032652614  0.033574739            2 
  396000    1.1998367   -6.7675712    154.43836  0.032499655  0.033566296            3 
  397000    1.2121658   -6.7330736    155.26721  0.032591774  0.033558511            2 
  398000    1.1887834   -6.7828006    155.33298  0.032523655   0.03354985            1 
  399000    1.1500053   -6.7855759    155.66992  0.032512515  0.033540579            3 
  400000    1.1903001   -6.7950466    156.31934   0.03256653   0.03353375            3 
  401000    1.1695769   -6.7875245    157.27824  0.032684589  0.033528735            2 
  402000    1.1985618   -6.7690207    158.35354  0.032826191  0.033525075            1 
  403000    1.1736582   -6.7972833     158.3164  0.032737056  0.033521077            6 
  404000    1.1715054   -6.7825453    158.62284  0.032719234  0.033516173            4 
  405000    1.1897665   -6.7762816     158.7026  0.032654856  0.033511187            5 
  406000    1.1675201   -6.7205373    159.64028  0.032766888   0.03350679            1 
  407000    1.1807652   -6.7085959    160.46143  0.032854511  0.033502611            2 
  408000    1.2033977   -6.7925128    159.92006  0.032663411  0.033498262            2 
  409000     1.147611   -6.8125195    160.12385  0.032625071  0.033492787            2 
  410000    1.1670918   -6.8334276    160.45428  0.032612658   0.03348666            5 
  411000     1.209582   -6.7911286    160.61452  0.032565799  0.033480662            4 
  412000    1.1807504   -6.7777055    161.18753  0.032602655  0.033473466            4 
  413000    1.1927663   -6.7271335    162.19791  0.032727584  0.033467676            2 
  414000     1.216847   -6.7719612    161.74909  0.032558191  0.033461255            3 
  415000    1.1609704   -6.7652803    162.61384  0.032653381  0.033455027            1 
  416000     1.203027   -6.7656441    162.50719  0.032553523  0.033447602            1 
  417000    1.1845505   -6.8112411     162.5586  0.032485731  0.033440613            2 
  418000     1.190623   -6.7667617    163.10295  0.032516537  0.033433437            5 
  419000    1.1908052   -6.7591502    163.40246    0.0324985  0.033426404            2 
  420000    1.2109683    -6.769403    163.89984  0.032519809  0.033418598            2 
  421000    1.1789475   -6.8093723    164.14702  0.032491491  0.033411729            3 
  422000    1.1675953   -6.7512641    164.85435  0.032554177  0.033404316            1 
  423000    1.2073978   -6.7959515    164.42951  0.032393521  0.033396819            1 
  424000    1.1712978   -6.7255384      165.731  0.032572916  0.033389087            5 
  425000    1.1602954   -6.8076581       165.54  0.032458823  0.033382219            2 
  426000    1.1791135   -6.8061214    166.08275  0.032488801  0.033375015            3 
  427000    1.1648736   -6.7624854    166.14352  0.032424575  0.033367931            2 
  428000    1.1900875   -6.8155789    166.15585  0.032351216  0.033360265            2 
  429000    1.2154057   -6.7750698     166.4395  0.032330906   0.03335147            2 
  430000    1.1757453   -6.7854463    166.35238  0.032238834  0.033342929            3 
  431000    1.1641252   -6.7763266    167.16376  0.032320913  0.033334794            2 
  432000    1.1675139   -6.7480849    167.74957  0.032359099  0.033326323            3 
  433000    1.1743288   -6.8026886    167.83283  0.032300391  0.033318658            3 
  434000    1.1630776   -6.7709439    167.87131  0.032233355  0.033310328            2 
  435000    1.1637588   -6.7792376    168.60523  0.032299852  0.033300465            7 
  436000    1.1890948   -6.8109545    168.53939  0.032213186  0.033290024            3 
  437000    1.1847464   -6.7864706    169.26229  0.032277324  0.033279075            2 
  438000    1.1847649   -6.7685781    169.78149  0.032302414  0.033269438            2 
  439000    1.1799894   -6.8181611    169.59827  0.032194054  0.033259781            4 
  440000    1.2065721   -6.8436206     168.8651  0.031982026  0.033248351            4 
  441000    1.1898353   -6.8153965    169.64573  0.032057016  0.033237694            2 
  442000    1.1889498   -6.7975065    170.43006  0.032132364  0.033226849            2 
  443000     1.188873   -6.8112597    171.23447   0.03221115  0.033215617            3 
  444000    1.1945469   -6.7688029    171.16386   0.03212535  0.033204676            1 
  445000    1.2072794   -6.7984888    170.96728  0.032016345  0.033193529            2 
  446000    1.1665703   -6.7996717    171.67869  0.032077484  0.033181907            2 
  447000    1.1884374   -6.8182457    171.39712  0.031953229  0.033169911            2 
  448000    1.1843568   -6.7585468    171.71781  0.031941558  0.033157491            3 
  449000    1.1747962   -6.7874773    172.52776  0.032020742  0.033146098            4 
  450000     1.156906   -6.8158967    173.38906  0.032109085  0.033135688            2 
  451000    1.1385142   -6.8006024    172.96341  0.031959241  0.033126051            1 
  452000    1.1699999   -6.8065987    173.36824  0.031963171  0.033116206            3 
  453000    1.1907302   -6.7787997    175.19557  0.032228766  0.033106306            2 
  454000    1.1807026   -6.7299069    175.49862  0.032213404  0.033097471            3 
  455000    1.1706901   -6.8018653    175.19155  0.032086365  0.033088172            3 
  456000    1.1759799   -6.8131906    175.19699  0.032016993  0.033078057            1 
  457000    1.1993395   -6.8203752       175.26  0.031958425  0.033068148            2 
  458000    1.1831765   -6.7611176    177.33558  0.032266299   0.03305903            2 
  459000    1.1623962   -6.7941995    177.19541  0.032170553  0.033051533            5 
  460000    1.1774351   -6.8675291    177.03714  0.032071945  0.033043773            2 
  461000    1.2160496    -6.818383     178.1778  0.032208569  0.033035008            2 
  462000     1.184417   -6.7929941    178.58526  0.032212349  0.033026765            7 
  463000    1.1469021   -6.7877989    179.13779  0.032242222  0.033018289            4 
  464000     1.166564   -6.7820544    179.16472  0.032177572  0.033010362            3 
  465000    1.1801602   -6.7566258    180.02769  0.032263026  0.033002608            2 
  466000    1.1608849   -6.7815187    180.20861  0.032226146  0.032995503            1 
  467000    1.1643871    -6.783841    180.50316    0.0322097  0.032988594            5 
  468000    1.1690602   -6.8044939    180.62457  0.032162495  0.032981027            6 
  469000     1.178083     -6.79137     181.1029  0.032178909  0.032973727            2 
  470000    1.1898167   -6.8235195    181.39985  0.032163095  0.032965957            1 
  471000    1.1570145   -6.8287068     182.1909  0.032234766   0.03295886            3 
  472000    1.1672398   -6.7881354    181.79506  0.032096585  0.032952273            3 
  473000    1.1799003    -6.844255    181.80106  0.032029786  0.032944072            3 
  474000    1.1802965   -6.8345852    182.34248  0.032057399  0.032936013            7 
  475000    1.1990477   -6.8424967    182.54025  0.032024606  0.032927952            3 
  476000    1.1704142   -6.8137519    182.74619  0.031993381  0.032920541            3 
  477000    1.1854505   -6.8272321    183.77602  0.032106223  0.032913255            6 
  478000    1.1746002   -6.7985581    183.69476  0.032024889  0.032905285            3 
  479000    1.1590657   -6.7853813    184.54478  0.032105911  0.032897324            2 
  480000    1.1784713   -6.8226453    184.70966  0.032067649  0.032890057            4 
  481000    1.1699041    -6.796444    185.88895  0.032205292  0.032883012            4 
  482000    1.1538542   -6.7337518    186.46567  0.032238187  0.032876492            3 
  483000    1.1704614   -6.7796697    186.64691   0.03220271  0.032870386            2 
  484000    1.1918582   -6.8267958    186.40776     0.032095  0.032864006            3 
  485000    1.1547647   -6.8251879    187.09543  0.032146981   0.03285772            3 
  486000    1.1912501   -6.8206118    187.38904   0.03213118  0.032851448            3 
  487000    1.1926221   -6.8028035     188.0792  0.032183298  0.032844924            1 
  488000    1.1793323   -6.8104338    188.15309  0.032129967  0.032838401            3 
  489000    1.1564112    -6.779265    188.40589  0.032107343  0.032832326            2 
  490000    1.1727937     -6.82015    189.07486  0.032155588   0.03282605            2 
  491000    1.1893864   -6.7977106    189.21128  0.032113252  0.032820054            1 
  492000    1.1599487   -6.8371122    189.55882  0.032106847  0.032813865            2 
  493000    1.1609464   -6.8338071    189.74958  0.032073965   0.03280771            2 
  494000    1.1421869   -6.8324792    190.33855  0.032108393  0.032801894            4 
  495000    1.1508023   -6.7524703    191.68856  0.032270801  0.032795359            7 
  496000    1.1833969   -6.8043246      191.245  0.032131216  0.032789383            2 
  497000    1.1538618   -6.7787389    191.76131  0.032153137  0.032783536            3 
  498000    1.1960984   -6.8215319    192.34097  0.032185571  0.032778298            2 
  499000     1.181238   -6.7868107    193.10485  0.032248638  0.032773368            2 
  500000    1.1757792   -6.8019042    192.97246  0.032162077  0.032767789            3 
  501000    1.1507228   -6.8125562    193.43284  0.032174458  0.032762074            6 
  502000    1.1624888   -6.8389812    192.84973  0.032013568  0.032756126            1 
  503000    1.1544413   -6.8581903    193.23978  0.032014542   0.03274959            7 
  504000    1.1927627   -6.8416209    193.58335  0.032007828  0.032743277            4 
  505000     1.153223    -6.814196    194.03545  0.032019051  0.032736985            2 
  506000    1.1670609   -6.8421741    194.89305  0.032097011  0.032731207            2 
  507000    1.1862723   -6.7854154    195.15105   0.03207611   0.03272505            1 
  508000    1.1644571   -6.8238946    195.40004  0.032053812  0.032718336            4 
  509000    1.1763274   -6.8194254    195.52902  0.032011955  0.032711272            3 
  510000    1.1545261   -6.8008152    195.86452  0.032004007  0.032703954            2 
  511000    1.1643073   -6.8487149    195.47679  0.031878146  0.032696874            4 
  512000    1.1858285   -6.7814048     196.4749  0.031978336  0.032689711            4 
  513000    1.1507363   -6.8139368    197.13035  0.032022474  0.032682859            4 
  514000    1.1601412    -6.833835    197.02365  0.031942875  0.032675954            2 
  515000    1.1856903   -6.7633941    198.79674  0.032167758  0.032669353            4 
  516000    1.1789983   -6.8317045    197.58017  0.031908942  0.032662556            3 
  517000    1.1713773    -6.802407    198.58156  0.032008634  0.032655249            2 
  518000    1.1612723   -6.8085045    198.59956  0.031949736  0.032647913            2 
  519000    1.1736648    -6.835652    197.93674   0.03178175  0.032640132            2 
  520000     1.161787   -6.8399035    198.93562  0.031880708   0.03263214            5 
  521000    1.1818185   -6.8787584    198.45327  0.031742366  0.032623815            2 
  522000     1.170924   -6.8360974    199.75464   0.03188931  0.032616166            5 
  523000     1.155088   -6.8118943    200.15793  0.031892595  0.032608293            4 
  524000    1.1527176    -6.791432    200.51154  0.031887967  0.032601416            3 
  525000    1.1561585   -6.8155776    200.97103  0.031900163   0.03259393            4 
  526000    1.1864606   -6.8162135    200.82744  0.031816769  0.032585753            4 
  527000    1.1744775   -6.8080062    201.25335  0.031823742   0.03257658            2 
  528000    1.1584556   -6.8014604    201.47717  0.031798795  0.032567741            2 
  529000    1.1755645   -6.8046461    201.07345  0.031675086  0.032558794            5 
  530000    1.1794105   -6.8599591    200.89286  0.031586928  0.032549666            3 
  531000    1.1597429   -6.8581099    201.46233  0.031616813  0.032540286            5 
  532000    1.1652326   -6.7672494    203.01659  0.031800845  0.032531726            2 
  533000    1.1739176   -6.8347907    202.60976  0.031677574  0.032522499            2 
  534000    1.1829538   -6.8529296    202.82074  0.031651177  0.032513225            3 
  535000    1.1910366   -6.8632195     202.7445   0.03158014  0.032504104            1 
  536000     1.174388   -6.8181269    203.18812  0.031590193  0.032494605            5 
  537000    1.1631369   -6.8537426    202.99202  0.031500934  0.032484975            2 
  538000    1.1853632   -6.8305416    203.80425  0.031568192   0.03247491            1 
  539000    1.1711143   -6.8064842    204.77412  0.031659573  0.032465245            3 
  540000    1.1612322   -6.7781198    205.01488  0.031638099  0.032455921            2 
  541000    1.1679323   -6.8340771    205.08655  0.031590658  0.032446874            4 
  542000    1.1540417     -6.88369     205.4633  0.031590299   0.03243721            1 
  543000    1.1439032   -6.8444192    204.97753  0.031457571  0.032427122            3 
  544000    1.1442857   -6.8388252    205.78429  0.031523328  0.032417164            5 
  545000    1.1472306    -6.810553    206.85796  0.031629657  0.032407551            2 
  546000    1.1729047   -6.8879312    206.14515  0.031462935  0.032397502            3 
  547000    1.1915339   -6.8076598    207.15064  0.031558598  0.032388015            4 
  548000    1.1834819   -6.8271945    207.19002  0.031506999  0.032378556            5 
  549000     1.165656   -6.8206799    208.02018  0.031575619  0.032369501            3 
  550000     1.161747   -6.8785986    207.53307  0.031444404  0.032359914            2 
  551000    1.1824312   -6.8392695    207.97365   0.03145397  0.032350227           13 
  552000    1.1671378   -6.8621918    208.29273  0.031445159  0.032340015            2 
  553000    1.1616165   -6.8236971    209.51794  0.031572926  0.032330096            3 
  554000    1.1486284   -6.8533963    209.35399  0.031491274  0.032321251            2 
  555000    1.1560183   -6.8445684    209.28322  0.031423907   0.03231185            2 
  556000    1.1692918   -6.8275686    210.00304  0.031475276  0.032302468            5 
  557000    1.1768339    -6.866966    210.35219  0.031471004  0.032292846            4 
  558000    1.1729361   -6.8241546    210.61436  0.031453757   0.03228336            4 
  559000    1.1510089   -6.8497481    211.07756  0.031466542   0.03227367            2 
  560000    1.1354233   -6.8714577    210.70468  0.031354863  0.032264165            2 
  561000    1.1456978   -6.8665432    211.35757  0.031395955  0.032254671            4 
  562000    1.1561618   -6.8367969    212.40975  0.031496108  0.032245903            4 
  563000    1.1606862   -6.8545325    212.60048  0.031468396  0.032237656            3 
  564000     1.139147   -6.8130768    213.12569  0.031490202  0.032228579            3 
  565000    1.1650729   -6.8615872    213.32996  0.031464595  0.032219833            3 
  566000    1.1729512   -6.8398306    213.31118  0.031406239  0.032210685            8 
  567000    1.1578596   -6.8145559    214.53782  0.031531132  0.032201943            3 
  568000    1.1741853   -6.8446682    214.36445  0.031450183  0.032193044            7 
  569000    1.1489614   -6.8292761    214.52944  0.031419074  0.032184167            4 
  570000    1.1833318   -6.8067067    215.70193   0.03153537  0.032175736            4 
  571000    1.1759204   -6.8372744    215.36568  0.031431068  0.032167171            3 
  572000    1.1541159   -6.8733624    214.70151  0.031279357  0.032158135            3 
  573000    1.1318554   -6.8192655    215.89967  0.031399021  0.032149034            2 
  574000    1.1880181   -6.7928614    217.04496  0.031510592  0.032140469            3 
  575000    1.1746793   -6.8288577     216.2022  0.031333653  0.032131311            3 
  576000    1.1750363   -6.8267275    216.91763  0.031382759  0.032122202            2 
  577000    1.1645328   -6.8691865    216.91324  0.031327736  0.032112925            3 
  578000    1.1815679   -6.8406784    216.85586  0.031265262  0.032103668            2 
  579000    1.1859835   -6.8678151    216.45479  0.031153538  0.032094075            3 
  580000    1.1655794   -6.8862555    216.70899   0.03113635  0.032084562            4 
  581000    1.1758104   -6.8514067    217.80243  0.031239591  0.032074138            3 
  582000    1.1555348   -6.8483508    218.71451   0.03131651  0.032064461            5 
  583000    1.1711821    -6.847182    219.42987  0.031365047  0.032054964            4 
  584000    1.1447391   -6.8305381    219.34375  0.031299051  0.032046171            2 
  585000     1.137945   -6.8152598    219.81788  0.031313088  0.032037115            5 
  586000    1.1253488   -6.8824413     219.3676   0.03119562  0.032027811            2 
  587000    1.1597343   -6.8930532    220.14409   0.03125271  0.032018345            5 
  588000    1.1595388   -6.8817954    220.03867  0.031184618  0.032008807            2 
  589000    1.1697763   -6.8402748    220.66226  0.031219901  0.031999722            3 
  590000    1.1614774   -6.8215324    221.67506  0.031310037  0.031990644            3 
  591000     1.138042   -6.8015267    221.36556  0.031213418   0.03198155            3 
  592000    1.1375493   -6.8761492     221.6169  0.031196073    0.0319725            6 
  593000    1.1487332   -6.8669765    221.87591  0.031179863  0.031962961            1 
  594000    1.1489454   -6.8484534    222.19746  0.031172483  0.031953601            4 
  595000    1.1414669   -6.8599176    222.36473   0.03114352  0.031944175            4 
  596000     1.140997   -6.9379071    222.25148  0.031075431  0.031934297            2 
  597000    1.1397018   -6.8709982    223.21556  0.031157951  0.031924179            2 
  598000    1.1409779    -6.778306    224.81103  0.031328181  0.031915023            3 
  599000    1.1520601   -6.8316911    223.95255  0.031156449  0.031906357            6 
  600000    1.1501304   -6.8413412    224.00408  0.031111677  0.031897135            3 
  601000      1.15969    -6.850458    224.32852  0.031104897  0.031887786            3 
  602000    1.1637774   -6.8866203    224.91557  0.031134493  0.031878123            2 
  603000    1.1292192   -6.8328724    225.41518  0.031151904  0.031868724            5 
  604000    1.1393121    -6.836961    225.63714  0.031130952  0.031859091            3 
  605000    1.1462231    -6.831665    226.50534  0.031199083  0.031850019            2 
  606000    1.1653206   -6.8546593    225.77661  0.031047388  0.031841014            2 
  607000    1.1635145   -6.8598254    226.27953  0.031065284  0.031832064            7 
  608000     1.134178   -6.8310781    227.30863   0.03115524  0.031823004            3 
  609000    1.1612422   -6.8589135    226.96696  0.031057329  0.031813873            3 
  610000    1.1404689   -6.8780586    227.43222  0.031069975  0.031804321            2 
  611000    1.1433898   -6.8373434    227.45887  0.031022759  0.031795146            3 
  612000    1.1628428   -6.8368476    229.04637  0.031188231  0.031786224            2 
  613000    1.1473469   -6.8827459    228.37715  0.031046378  0.031777374            5 
  614000     1.173701   -6.8669082    228.98329  0.031078079  0.031768268            3 
  615000    1.1475688   -6.8800517    228.98786  0.031028166  0.031758879            1 
  616000    1.1477976   -6.8484141    229.70639  0.031074999  0.031749623            3 
  617000     1.147669   -6.8604325    229.94321   0.03105662  0.031741051            8 
  618000     1.151519   -6.8230011    230.77493  0.031118519  0.031732393            2 
  619000    1.1340054   -6.8730026    230.58441  0.031042597  0.031723588            5 
  620000    1.1655313    -6.846976    230.74056  0.031013516  0.031714947            2 
  621000    1.1447678   -6.8646635    231.14309  0.031017592  0.031706667            4 
  622000    1.1349408   -6.8361894    231.78963  0.031054345  0.031698034            2 
  623000    1.1274237   -6.8411583    232.22303  0.031062471   0.03169004            2 
  624000    1.1569877   -6.8859423    231.54625  0.030922309  0.031681934            6 
  625000    1.1469036   -6.8688385    232.05132  0.030940176  0.031673111            3 
  626000    1.1630364   -6.8766373    232.01039  0.030885303  0.031664504            2 
  627000    1.1452539   -6.8725029    232.64946  0.030920981  0.031655659            1 
  628000    1.1441543   -6.8043702    233.93406  0.031042205  0.031647016            3 
  629000    1.1580945   -6.8432869    233.85699  0.030982643  0.031638499            2 
  630000    1.1602081   -6.8490568     235.3987  0.031137395  0.031630351            1 
  631000    1.1505268   -6.8762375    234.64897  0.030989035    0.0316228            4 
  632000    1.1321632   -6.8367449    234.94134  0.030978552  0.031614576            4 
  633000    1.1386545    -6.858528    235.96345  0.031064171  0.031606679            8 
  634000    1.1642704   -6.8876732     236.1699   0.03104231  0.031599218            2 
  635000      1.17209    -6.887555    236.43716  0.031028499   0.03159161            4 
  636000    1.1261995   -6.9109737    236.88532  0.031038433  0.031584078            1 
  637000    1.1262202   -6.8869346      237.064  0.031013082  0.031576274            4 
  638000    1.1475752   -6.8636581    237.98381  0.031084614   0.03156917            2 
  639000    1.1671021   -6.8603001    238.61009  0.031117643  0.031562047            4 
  640000    1.1267272   -6.8622186    238.78777  0.031092157  0.031555082            3 
  641000    1.1365217   -6.8369791    239.71647  0.031164388  0.031548525            2 
  642000    1.1448778   -6.8970042    239.57661  0.031097691  0.031541518            2 
  643000    1.1485456   -6.8834255    239.64382  0.031058038  0.031534653            5 
  644000    1.1382423   -6.8863446    240.10282  0.031069205  0.031527684            3 
  645000    1.1710691   -6.8421034    240.81117  0.031112555  0.031520793            5 
  646000    1.1469242   -6.8917851    240.48646  0.031022505  0.031513931            3 
  647000    1.1421611   -6.8829602    240.74294  0.031007592  0.031506927            2 
  648000    1.1408341   -6.8545422    241.21217  0.031020083   0.03149966            2 
  649000    1.1528862   -6.9292161      240.672  0.030902928   0.03149231            8 
  650000    1.1474379   -6.8698157    241.71607   0.03098924  0.031485202            6 
  651000    1.1531789   -6.8799956    242.30676   0.03101725  0.031478135            3 
  652000    1.1190927   -6.8485249    242.25035  0.030962468   0.03147083            2 
  653000    1.1311981   -6.8883395    242.56028  0.030954604  0.031463441            3 
  654000    1.1133272    -6.888622    242.38555  0.030885009    0.0314555            3 
  655000    1.1429096   -6.8725119    243.75741  0.031012393  0.031448779            2 
  656000     1.125719   -6.8613318    244.46587  0.031055115   0.03144198            3 
  657000    1.1645534   -6.8365711    245.04323  0.031081079  0.031434873            4 
  658000    1.1426792   -6.8771613    244.59226   0.03097673  0.031427828            3 
  659000    1.1506924   -6.8329133    245.23842  0.031011434  0.031420943            2 
  660000    1.1440224   -6.9064666    244.34568  0.030851727  0.031414115            3 
  661000    1.1325871   -6.8870082    245.07518  0.030897022  0.031406833            4 
  662000    1.1736463   -6.9088436     245.7122  0.030930539  0.031399352            4 
  663000     1.141627   -6.8767908    245.98292  0.030917913  0.031391665            2 
  664000    1.1471782   -6.9073442     244.4454  0.030678389  0.031383986            2 
  665000    1.1490598   -6.8833992    245.93764  0.030819253  0.031375758            2 
  666000    1.1322914   -6.9034474    245.95442  0.030775077  0.031367843            2 
  667000    1.1633848   -6.8414401    247.46931  0.030918204  0.031359568            4 
  668000    1.1470999   -6.8664675    246.89513   0.03080029  0.031351583            4 
  669000     1.156037   -6.9158365    245.95767  0.030637477  0.031342605            7 
  670000    1.1487442    -6.840132    246.90368  0.030709413  0.031333828            6 
  671000    1.1412441   -6.9283255    246.46683  0.030609393  0.031325053            6 
  672000    1.1544003   -6.9307292    246.52766  0.030571386  0.031315538            3 
  673000    1.1324044   -6.8314966    248.37791  0.030755066  0.031306947            2 
  674000    1.1428087   -6.8829012    248.24518  0.030693024  0.031298191            7 
  675000     1.147617    -6.938555    247.29922  0.030530768  0.031289318            3 
  676000      1.12494   -6.9088205    248.47673   0.03063076  0.031280696            4 
  677000    1.1490184   -6.8685364    249.68982  0.030734837  0.031272204            2 
  678000    1.1461694   -6.8787121    249.60087  0.030678573  0.031263765            2 
  679000    1.1535872    -6.889043    249.79544  0.030657271  0.031255359            3 
  680000    1.1203976   -6.8984471     249.5697  0.030584522  0.031246503            2 
  681000    1.1310504    -6.894657    248.94308  0.030462932  0.031237281            3 
  682000    1.1467838   -6.9643913     249.8891  0.030533859  0.031228033            6 
  683000      1.13321   -6.9419087    249.53351  0.030445767   0.03121846            2 
  684000    1.1232377   -6.8694222    250.35343  0.030501149  0.031208737            2 
  685000    1.1577259   -6.9091012    251.09239   0.03054652   0.03119958            4 
  686000    1.1506891   -6.8540719    252.28913  0.030647368   0.03119085            2 
  687000     1.140292   -6.9017205    250.95351  0.030440746  0.031181632            3 
  688000    1.1286536   -6.9151483    252.02306  0.030526049  0.031172786            5 
  689000    1.1319827     -6.86477    252.95074  0.030593945  0.031163655            3 
  690000    1.1292036   -6.9148938    252.96285  0.030551068  0.031155121            3 
  691000    1.1380941   -6.8976557    253.55848  0.030578687  0.031146379            5 
  692000    1.1345868   -6.8901391    253.34319  0.030508573   0.03113801            3 
  693000    1.1430859   -6.8997715     253.6574  0.030502333   0.03112942            4 
  694000    1.1326504   -6.8416692    255.23898  0.030648293  0.031121048            5 
  695000    1.1170365   -6.9026878    254.26342  0.030487221  0.031112728            4 
  696000     1.145236   -6.8698231    256.10398  0.030663791  0.031104282            2 
  697000    1.1786824   -6.9248272    254.83963  0.030468631  0.031095417            3 
  698000    1.1580532   -6.8598976    255.11389  0.030457723  0.031086161            2 
  699000    1.1568152   -6.9374937    254.34673  0.030322691  0.031076731            4 
  700000    1.1369642   -6.9051397    256.29883  0.030511766  0.031067599            2 
  701000    1.1191008   -6.8705033    256.02721   0.03043595  0.031058684            4 
  702000    1.1266386   -6.8391782    257.36151  0.030550987  0.031050218            2 
  703000    1.1266661   -6.9293141    256.71374  0.030430742  0.031041474            6 
  704000    1.1360368   -6.8986656    256.96114  0.030416801  0.031032631            2 
  705000    1.1354378   -6.9307949    257.06404   0.03038582  0.031024025            2 
  706000    1.1642533   -6.9077306    257.94957  0.030447305  0.031015224            4 
  707000    1.1391685   -6.9413084    257.85992  0.030393673  0.031006266            2 
  708000    1.1307405   -6.9340639    258.24045  0.030395533  0.030998077           14 
  709000    1.1226808   -6.9558674     258.3001  0.030359673  0.030989386            3 
  710000    1.1222295   -6.8983124    259.21256  0.030424009  0.030981073            3 
  711000      1.14011   -6.8655875    259.94378  0.030466922  0.030972593            6 
  712000    1.1564614    -6.845591    260.12307  0.030445116  0.030964078            2 
  713000    1.1372391   -6.8839483    259.76864  0.030360992  0.030955365           10 
  714000     1.126772   -6.8827008    260.33334  0.030384377  0.030946948            2 
  715000    1.1422935   -6.8943096    261.14141  0.030436062  0.030938829            2 
  716000    1.1413872   -6.9128482    261.32242   0.03041462  0.030930696            2 
  717000    1.1379182   -6.8816343    261.81388  0.030429321  0.030922502            4 
  718000    1.1261188   -6.9031478    261.55239  0.030356591   0.03091395            2 
  719000    1.1431523   -6.8783736     262.2712  0.030397681  0.030905724            2 
  720000    1.1275709   -6.9433377    261.62505  0.030280677  0.030897261            5 
  721000    1.1382473   -6.9397618     262.6944  0.030362275  0.030888536            3 
  722000    1.1376247   -6.9002251    263.70711  0.030437109   0.03088027            4 
  723000    1.1371821   -6.9549672    263.67047  0.030390787  0.030872399            3 
  724000    1.1357615   -6.8912155    264.21801  0.030411834  0.030864094            4 
  725000     1.122686   -6.9527577      263.998  0.030344598  0.030855935            5 
  726000    1.1489506   -6.9162493    264.18912  0.030324738  0.030847747            4 
  727000    1.1534087     -6.90523    264.64905  0.030335746  0.030839807            4 
  728000    1.1341812   -6.9160068    264.72693  0.030302992  0.030831355            2 
  729000     1.127576   -6.8783482    265.58458  0.030359462  0.030822764            3 
  730000    1.1476501   -6.9013692    265.19678  0.030273605  0.030814391            3 
  731000    1.1277309   -6.9314756    265.33477  0.030247922  0.030806074            2 
  732000    1.1541826   -6.8955511     265.9431  0.030275854  0.030797409            5 
  733000     1.157189   -6.9120469      265.298   0.03016121  0.030788377            4 
  734000    1.1334732   -6.9210082    264.97276  0.030083193  0.030778726            3 
  735000    1.1072074   -6.9285617    265.04705  0.030050686  0.030769055            3 
  736000    1.1598048   -6.8837885    265.04115  0.030009188  0.030759366            2 
  737000    1.1399825   -6.9087569    265.64013  0.030036197  0.030749439            1 
  738000    1.1553247   -6.9223287    266.47389  0.030089644  0.030739804            2 
  739000    1.1448958   -6.9152474    267.12105  0.030121904  0.030730573            3 
  740000    1.1371747   -6.9449348    266.44863  0.030005477  0.030720663            2 
  741000    1.1372284   -6.9321504    266.95908  0.030022389  0.030710725            2 
  742000    1.1477155   -6.9025127    267.54574  0.030047815  0.030700994            2 
  743000    1.1235007   -6.9178953    266.45123  0.029884615  0.030691187            4 
  744000    1.1255751    -6.895818    267.40652  0.029951447  0.030680874            5 
  745000     1.149999   -6.9077954    268.26251  0.030006992  0.030670733            3 
  746000    1.1360734   -6.9370988    268.10942  0.029949668   0.03066062            2 
  747000     1.154746   -6.9056834    268.91557  0.029999506  0.030650923            4 
  748000    1.1474499   -6.8968424    269.57625  0.030033005  0.030641461            3 
  749000    1.1223108   -6.9695282    268.75291  0.029901302  0.030631691            4 
  750000    1.1332643   -6.8953835    270.24421  0.030027135  0.030621899            4 
  751000    1.1388287   -6.9384875    270.10431  0.029971627  0.030612332            3 
  752000    1.1259714   -6.9319896    270.33882  0.029957759  0.030602581            2 
  753000    1.1317427   -6.8527995    271.29545  0.030023843   0.03059347            3 
  754000    1.1328004   -6.8965505    271.46882  0.030003185  0.030583987            3 
  755000    1.1350518   -6.8887521    271.10154  0.029922907   0.03057491            2 
  756000    1.1429227    -6.902401    270.98758  0.029870765  0.030565377            4 
  757000    1.1546015    -6.905194    271.47941  0.029885448  0.030555335            4 
  758000    1.1201677   -6.9803774    271.62918  0.029862487  0.030545299            5 
  759000    1.1077301   -6.9308219    271.36251  0.029793864  0.030535146            3 
  760000    1.1407519   -6.8705462    273.01761  0.029936141  0.030525676            2 
  761000    1.1601834   -6.9120262     273.2142  0.029918331  0.030516277            2 
  762000    1.1124398   -6.9335081    272.60755  0.029812724  0.030506578            4 
  763000    1.1517466   -6.9243275     272.4586  0.029757383  0.030496988            4 
  764000    1.1378252   -6.9537367    272.83611  0.029759611  0.030486965            3 
  765000    1.1253532   -6.9307508    273.22025  0.029762555  0.030476636            3 
  766000    1.1209763   -6.9274581    272.87732  0.029686393  0.030466375            3 
  767000    1.1151724    -6.927108     272.7434  0.029633137   0.03045583            2 
  768000    1.1294949   -6.9275616    273.52394  0.029679247  0.030445432            4 
  769000     1.124551   -6.9219194    273.88697  0.029679993  0.030435411            3 
  770000    1.1264086   -6.9498208    274.11861  0.029666516  0.030425299            2 
  771000    1.1435422    -6.896145    275.57273  0.029785206  0.030415168            4 
  772000    1.1385857   -6.9426862    275.45051  0.029733431  0.030405233            4 
  773000    1.0953274   -6.9154694    275.61506  0.029712705  0.030395014            6 
  774000    1.1320174   -6.9046332    275.76932  0.029690926  0.030385106            3 
  775000    1.1311285   -6.9233665    276.24296  0.029703544  0.030375194            1 
  776000    1.1068225   -6.9173158    276.05883  0.029645492  0.030365207            3 
  777000    1.1386517   -6.9266209    276.95542  0.029703499  0.030355196            2 
  778000    1.1395942   -6.9455653    277.72048  0.029747267  0.030345352            6 
  779000    1.0997578   -6.9134763    278.17142  0.029757319  0.030335592            4 
  780000    1.1365361   -6.9076391    278.52887  0.029757358  0.030325937            2 
  781000     1.118602   -6.9344126    278.03093  0.029666125   0.03031609            2 
  782000    1.1350074   -6.9243816    278.35035  0.029662229  0.030306149            6 
  783000    1.1409496   -6.9475404    278.42009  0.029631768  0.030296276            4 
  784000    1.1168605   -6.9442886    278.65492  0.029618933  0.030286762            2 
  785000    1.1288084   -6.9279207    279.17993  0.029636936  0.030277133            2 
  786000    1.1398237   -6.9402808    279.51865  0.029635141  0.030267487            1 
  787000    1.1027614   -6.9636534    279.71546  0.029618325  0.030257586            5 
  788000     1.121669   -6.9225829    280.30221  0.029642789  0.030247641            2 
  789000    1.1334599   -6.9975438    279.43429  0.029513549  0.030237551            3 
  790000    1.1080674   -6.9303763    280.29211  0.029566678  0.030227884            4 
  791000    1.1453022   -6.9281708    280.92729  0.029596217  0.030218111            3 
  792000    1.1161459   -6.9539719    280.98985   0.02956543  0.030208194            6 
  793000    1.1057507   -6.9241784    282.22005  0.029657424  0.030198506            1 
  794000    1.1271614   -6.9469579    281.36876  0.029530727  0.030188901            3 
  795000    1.1152033   -6.9402815    281.58182  0.029515914  0.030179273            4 
  796000    1.1109297   -6.9338603     282.5108  0.029576089  0.030169692            1 
  797000    1.1208932   -6.9149084    282.55363  0.029543458  0.030159807            4 
  798000    1.1162435   -6.9766276    281.98778  0.029447345  0.030149681            2 
  799000    1.1147751   -6.9544109    282.47293   0.02946109   0.03013909            2 
  800000    1.1242315   -6.9697094    282.27132  0.029403262  0.030128403            3 
  801000    1.1226584    -6.952737    282.21511  0.029360707  0.030117641            4 
  802000    1.1284057   -6.9790869    282.75708  0.029380412  0.030106996            3 
  803000     1.099598   -6.9784161    282.88335  0.029356927  0.030096096            4 
  804000    1.1521979   -6.9586115    283.19015  0.029352213  0.030085677            3 
  805000    1.1606268   -6.9582303    283.49539  0.029347349  0.030075023            3 
  806000    1.1013547   -6.9258445    284.39833  0.029404293  0.030064689            3 
  807000    1.1035015   -6.9324495     283.9931  0.029326012  0.030054389            2 
  808000    1.1312692   -6.9585306    284.60306  0.029352626  0.030043818            4 
  809000    1.1039191   -6.9169882    285.36042  0.029394357  0.030033506            4 
  810000    1.1332845   -6.9223432    286.32213   0.02945701  0.030023205            2 
  811000    1.1078399   -6.9563831    285.79372  0.029366391  0.030012808            4 
  812000    1.1375266   -6.9598563    285.82353  0.029333285  0.030002624            2 
  813000    1.0970692   -6.9177676    286.07242  0.029322716  0.029992504            3 
  814000    1.1393083   -6.9428267    285.61809  0.029240181  0.029982051            3 
  815000    1.1294137   -6.9210505    286.91288  0.029336695  0.029971821            1 
  816000     1.114811   -6.9472523    285.60082  0.029166751  0.029961509            4 
  817000    1.1276338   -6.9530663    288.26717  0.029403016  0.029951013            2 
  818000    1.1091653   -6.9752543      287.315  0.029270069   0.02994052            2 
  819000    1.1050825   -6.9868186     287.8808  0.029291901  0.029930247            3 
  820000    1.0948958   -6.9784489    287.26073  0.029193163  0.029920056            3 
  821000    1.1277265   -6.9561298    288.89971  0.029323966  0.029909958            2 
  822000    1.1456208   -6.9362665    289.00436  0.029298901  0.029899855            3 
  823000    1.1456719   -6.9855893    288.58415  0.029220752  0.029889915            3 
  824000    1.1008734   -6.9526697    289.53474  0.029281426  0.029879884            3 
  825000    1.1098436   -6.9708484      289.109  0.029202929  0.029869855            2 
  826000    1.1259154   -6.9301494    290.46843  0.029304725  0.029859817            6 
  827000    1.1189424   -6.9126279    289.98466  0.029220542  0.029849909            2 
  828000     1.121774   -6.9814216    290.64597  0.029251808  0.029839893            5 
  829000    1.1222015   -6.9215142    291.29752  0.029282018  0.029830349            3 
  830000    1.1294144   -6.9229845    292.07576  0.029324876  0.029820847            2 
  831000    1.1483067   -6.9637415    292.40283  0.029322385  0.029811313            3 
  832000    1.1102774   -6.9823575    291.86448  0.029233222  0.029801759            3 
  833000    1.1325189   -6.9554166      291.894   0.02920108  0.029792067            2 
  834000    1.1347083     -6.91759    293.32629  0.029309181  0.029782662            3 
  835000    1.1402734   -6.8948069    293.27264  0.029268727  0.029773219            2 
  836000    1.1110582   -7.0045723    292.48209  0.029154913   0.02976379            5 
  837000    1.1163345   -6.9590993    292.43545  0.029115437   0.02975382            5 
  838000    1.1407437    -6.968625    293.24307  0.029161005  0.029743491            4 
  839000    1.1130288   -6.9481526    293.63745   0.02916542  0.029733356            3 
  840000    1.1170909   -6.9381967    293.19707  0.029087011  0.029723708            4 
  841000    1.1052885   -6.9174801    295.04975  0.029236004  0.029714121            2 
  842000    1.1318754   -6.9443673    294.81677  0.029178224  0.029704778            2 
  843000    1.1074252   -6.9454235    294.97526  0.029159279  0.029695249            3 
  844000    1.1181382   -6.9168017    295.48057  0.029174622  0.029685889            3 
  845000    1.1127733   -6.9226221    295.96575  0.029187944  0.029676333            3 
  846000     1.142291   -6.9715196    295.42701  0.029100375  0.029666909            3 
  847000    1.1246119   -6.9374305    295.50959  0.029074143  0.029657383            2 
  848000    1.1206539   -6.9928765    295.58949   0.02904771  0.029648039            3 
  849000    1.1158784   -6.9475302    297.65855  0.029216583  0.029638489            5 
  850000    1.1388866   -6.9848755    297.26655  0.029143779  0.029629293            3 
  851000    1.1421977   -6.9766553    297.29961   0.02911277  0.029619965            5 
  852000    1.1209314   -6.9583364    298.11146  0.029158006  0.029610897            6 
  853000    1.1189875   -6.9382151    298.73431  0.029184673  0.029601602            2 
  854000    1.0809273   -6.9519267    298.22972  0.029101261  0.029592545            3 
  855000     1.113192   -6.9912279    298.17531  0.029061921  0.029583301            2 
  856000    1.0993841   -6.9476352    300.12813  0.029218081  0.029573837            3 
  857000    1.1147294   -6.9920054    298.68307  0.029043472  0.029564375            2 
  858000    1.1154345   -6.9687877    299.63095  0.029101685  0.029554717            2 
  859000    1.1416726   -6.9648026    299.45094  0.029050343  0.029545584            3 
  860000     1.122571   -6.9811616    300.21567  0.029090666  0.029536253            2 
  861000    1.1124111   -7.0125322    299.18563  0.028957185  0.029527036            2 
  862000    1.1167542   -6.9914758    299.84193  0.028987039  0.029517629            2 
  863000    1.1108917   -6.9958466    300.71471  0.029037728  0.029508309            6 
  864000    1.1070784   -6.9715242    301.42248  0.029072384  0.029499306            4 
  865000    1.0894477   -6.9977319    300.03451  0.028905059  0.029490179            3 
  866000    1.1200087   -7.0028811    301.38694  0.029001823  0.029481052            3 
  867000    1.1027113   -6.9217577    302.29542  0.029055692  0.029471935            4 
  868000    1.1010931   -6.9704141     301.6598  0.028961195   0.02946302            3 
  869000    1.1113673   -6.9523925    302.63962  0.029021827  0.029454323            3 
  870000    1.1033313   -6.9783195    303.10558  0.029033102  0.029445767            3 
  871000    1.1276938   -6.9591676    303.78634  0.029064901  0.029437356            2 
  872000    1.1100197   -7.0219427    302.39904  0.028898991  0.029428639            3 
  873000    1.1049814   -6.9905705    303.22619  0.028944844  0.029420017            2 
  874000    1.1109785   -6.9578659    303.70278  0.028957168  0.029411139            6 
  875000    1.1070781   -6.9787015    303.91372  0.028944163  0.029402357            3 
  876000    1.1070665   -6.9870192    305.51145  0.029063113  0.029393397            3 
  877000    1.1099602   -7.0124318    303.75696  0.028863261  0.029384539            6 
  878000    1.0890552   -6.9675967    304.69635  0.028919547  0.029375435            3 
  879000    1.1006819   -6.9701326    304.36156  0.028854907  0.029366457            6 
  880000    1.1009615   -6.9611163    306.19473  0.028995713  0.029357116            3 
  881000    1.0998216   -6.9443132    305.87971  0.028933004  0.029348176            5 
  882000    1.1113001   -6.9979424     305.2715  0.028842735  0.029339241            4 
  883000    1.1022508    -6.971776    305.21498  0.028804735  0.029330359            3 
  884000      1.12652   -6.9755924      306.502  0.028893477  0.029320992            4 
  885000    1.1385309   -6.9721481    306.18762  0.028831226   0.02931187            5 
  886000    1.1097943   -6.9858708    306.15122  0.028795262  0.029302685            5 
  887000    1.1204485   -6.9432703    308.05038  0.028941223  0.029293464            5 
  888000    1.0937022   -6.9819086    307.61346   0.02886763  0.029284633            3 
  889000    1.1114154   -6.9851978    307.71862  0.028845015  0.029275786            3 
  890000    1.1054554   -6.9781008    308.87798  0.028921159  0.029266883            4 
  891000    1.1279208   -6.9098377    310.33008  0.029024512  0.029258611            4 
  892000    1.0920253   -6.9652347    309.04127  0.028871568   0.02925005            5 
  893000    1.0869596   -6.9760364    309.34484  0.028867566  0.029241433            3 
  894000    1.0949649   -6.9292639    310.54275  0.028946938  0.029233602            2 
  895000    1.1182668   -6.9856112    310.97427  0.028954774  0.029225966            2 
  896000    1.1025721    -6.971866    311.59174  0.028979887  0.029217978            7 
  897000    1.1172107   -7.0218224    311.13467  0.028905116  0.029209696            5 
  898000    1.1335871   -6.9527261    311.37761  0.028895472  0.029201571            4 
  899000    1.0974753   -6.9840866    311.75919  0.028898701  0.029193693            6 
  900000    1.0928224   -6.9593256    311.50665  0.028843209  0.029185685            3 
  901000    1.1156153   -6.9509275    312.76538  0.028927616  0.029177717            3 
  902000    1.0970015    -6.979829    312.65616  0.028885454  0.029169863            4 
  903000    1.1090349   -7.0046672    313.00292  0.028885467  0.029161986            3 
  904000    1.0876235   -7.0524456    312.48449  0.028805723   0.02915358            3 
  905000    1.1077445   -6.9371261    313.89331   0.02890362  0.029145356            2 
  906000    1.0987337   -6.9957068      312.862  0.028776858  0.029137163            3 
  907000    1.1030792   -6.9567346    314.68257  0.028912401  0.029128999            5 
  908000    1.0966932   -6.9403778    314.04956  0.028822463  0.029120757            5 
  909000     1.083724   -6.9809348    313.67586  0.028756496   0.02911257            2 
  910000    1.1201025    -6.952955    314.95773  0.028842283  0.029104476            2 
  911000    1.0990323   -6.9910853    314.93084  0.028808164  0.029096442            3 
  912000     1.127771   -7.0176589    315.30161  0.028810454  0.029088187            5 
  913000    1.1006043   -6.9677477    315.42344  0.028790018  0.029080014            4 
  914000    1.1171253   -7.0106303    315.28677  0.028746059  0.029071577            3 
  915000    1.0710978   -7.0130674    315.47988   0.02873223  0.029062863            2 
  916000    1.1161673   -6.9840549    316.28846  0.028774423  0.029054414            2 
  917000    1.0970949   -7.0225888    315.57745   0.02867843  0.029046231            4 
  918000    1.0970469   -6.9637367    316.28815  0.028711706  0.029038047            3 
  919000    1.0955421   -6.9752726    316.67747  0.028715767  0.029030025            4 
  920000    1.0982314   -7.0185373    315.52236  0.028579924  0.029021731            6 
  921000    1.0864599   -7.0319625     316.2263  0.028612586  0.029013375            5 
  922000    1.1033834   -6.9819556    318.00266  0.028742106  0.029004923            3 
  923000    1.0819757   -7.0043698     318.3729  0.028744393  0.028996697            5 
  924000    1.1011735    -6.987531    317.40028  0.028625566  0.028988487            3 
  925000    1.0657271   -6.9921976    317.82173  0.028632589  0.028980145            5 
  926000    1.0881337   -7.0256249    318.69705   0.02868044  0.028972055            5 
  927000    1.0991145   -7.0249911    318.39434  0.028622288  0.028964023            4 
  928000    1.1053433   -6.9959331    319.10148  0.028654946  0.028955909            2 
  929000    1.1283272     -7.02388    319.68145  0.028676126  0.028947709            2 
  930000    1.1209428   -7.0082065    319.18555  0.028600856  0.028939598            3 
  931000    1.0950075   -6.9867496    321.21147  0.028751475  0.028931412            2 
  932000    1.1271769   -7.0149194    320.00512  0.028612761  0.028923328            1 
  933000    1.1064379   -7.0389987    320.84348  0.028656974  0.028915341            2 
  934000    1.1032394   -6.9742523    321.41286  0.028677093  0.028907789            3 
  935000    1.0920362   -7.0447309     321.1832  0.028625954  0.028899935            3 
  936000    1.0856836      -7.0258    320.91467  0.028571462  0.028891883            2 
  937000    1.1005273   -6.9989014    321.19291  0.028565716  0.028883844            5 
  938000    1.0746787   -6.9992605    321.78395  0.028587771  0.028875777            4 
  939000    1.0971238   -6.9972901    322.74931  0.028642998  0.028868042            2 
  940000    1.1159262   -6.9911019    323.95708  0.028719599  0.028860395            3 
  941000    1.1091739   -6.9507631    324.21925  0.028712296  0.028852837            5 
  942000    1.0874078   -7.0063442    324.08645  0.028670068  0.028845193            5 
  943000    1.0994168   -7.0061086    323.78464  0.028612994  0.028837781            3 
  944000    1.1152747   -6.9720079    323.69569  0.028574832  0.028830043            2 
  945000    1.1051618   -6.9417764    325.32977  0.028688692  0.028822556            4 
  946000    1.1103938   -6.9799048     325.4216  0.028666455  0.028815162            1 
  947000    1.1145948   -7.0246512     324.9264  0.028592608  0.028807585            3 
  948000    1.0748916   -7.0057219    325.16891  0.028583765  0.028800013            7 
  949000    1.1309145   -6.9937264    326.08068  0.028633709   0.02879246            3 
  950000    1.1084265   -7.0140544    325.95579  0.028592613  0.028785207            3 
  951000    1.0934753   -6.9778424    326.68717  0.028626636  0.028777779            5 
  952000    1.0983916   -7.0402949    325.97933  0.028534605  0.028770536            5 
  953000    1.0984302   -7.0303054    326.13675  0.028518428  0.028763021            8 
  954000    1.0966822    -7.037624    325.92007  0.028469608  0.028755312            3 
  955000    1.1160468   -7.0446539    325.26027  0.028382223  0.028747603            4 
  956000    1.1169587   -6.9789501    327.38066  0.028537366  0.028740103            5 
  957000    1.1007181   -6.9751092    327.03694  0.028477616  0.028732611            3 
  958000    1.0890703   -6.9755762    327.33167  0.028473528  0.028724799            4 
  959000     1.115462   -6.9921997    327.21553  0.028433744  0.028717115            3 
  960000    1.1185646   -6.9606754    328.81203  0.028542711  0.028709804            2 
  961000    1.1098976    -6.972777    328.65221  0.028499151  0.028702254            5 
  962000    1.0879419   -7.0145226     328.0698  0.028419075   0.02869446            6 
  963000    1.0976754   -7.0464562    327.52738  0.028342625   0.02868654            8 
  964000    1.1030202   -7.0159901    328.07523  0.028360584  0.028678488            3 
  965000    1.1040948   -7.0494692    327.63928  0.028293548  0.028670475            3 
  966000    1.1058342   -7.0090674    328.73023   0.02835837  0.028662462            4 
  967000    1.1231899   -7.0172316    329.93384  0.028432768  0.028654781            3 
  968000    1.0609461   -7.0453108    329.48496  0.028364752  0.028646576            3 
  969000    1.1109748   -7.0561273    329.24673  0.028314992  0.028638101            6 
  970000    1.1007102    -7.007445    329.92767  0.028344301  0.028629915            2 
  971000    1.0821532   -7.0311585    328.98747   0.02823442  0.028621575            3 
  972000    1.0994011   -7.0257216    330.39578  0.028326113  0.028613305            3 
  973000    1.0794291   -7.0329658    329.97136  0.028260651  0.028604766            4 
  974000    1.0735096   -6.9770608    330.05868  0.028239107  0.028596004            4 
  975000    1.1099021   -6.9978878    330.17844   0.02822038  0.028587234            4 
  976000    1.0793966   -7.0062049    330.74231   0.02823961   0.02857862            4 
  977000    1.0814978   -7.0046465    330.47537  0.028187937  0.028569967            1 
  978000    1.1144782   -7.0318195    331.12697  0.028214636  0.028561282            4 
  979000    1.0894631   -7.0184059    331.88638  0.028250458  0.028552881            2 
  980000    1.0939207   -7.0443172     330.7413   0.02812426  0.028544316            2 
  981000    1.0999864   -7.0300678    331.38001  0.028149848  0.028535739            3 
  982000    1.1005431    -6.996471    332.59733  0.028224485  0.028527134            9 
  983000    1.0781318   -6.9617441    333.28643   0.02825419  0.028518689            2 
  984000    1.0906712   -7.0347214    332.74505  0.028179628  0.028510226            1 
  985000    1.0695236   -7.0103594    332.58112  0.028137151  0.028501474            2 
  986000    1.0805083   -7.0110036    332.96574  0.028141121  0.028493039            4 
  987000    1.0861945   -6.9750708    334.37345  0.028231463  0.028484755            3 
  988000    1.0833742   -7.0256093    333.59136  0.028136923  0.028476277            2 
  989000    1.0989316   -7.0466823      333.439  0.028095635  0.028467714            4 
  990000    1.0772557   -7.0103882    334.82996   0.02818434   0.02845932            3 
  991000    1.0977124   -7.0291509    335.05893  0.028175153  0.028450896            3 
  992000    1.0804784   -7.0799407    333.86893  0.028046785  0.028442434            3 
  993000     1.070772   -7.0205045    334.70767  0.028088928  0.028433847            4 
  994000    1.1079759   -7.0303229    334.81372  0.028069561  0.028425437            2 
  995000    1.0786483   -7.0103058    335.95541  0.028136969  0.028416859            6 
  996000    1.0821131    -6.998706    335.86843  0.028101442  0.028408382            2 
  997000    1.0643516   -7.0306597    336.20558  0.028101436  0.028399929            3 
  998000    1.1025376   -6.9927448    336.23913   0.02807608  0.028391359            5 
  999000    1.0852473   -7.0106893    336.03473  0.028030925  0.028382949            3 
 1000000    1.0894393   -7.0283002    335.96704  0.027997254  0.028374298            6 
 1001000    1.1111846   -7.0346265    337.30132  0.028080363  0.028365512            4 
 1002000    1.0972296   -6.9526507    337.37231  0.028058242  0.028357041            1 
 1003000    1.0858985   -7.0200143    337.08597  0.028006478  0.028348333            3 
 1004000    1.0974082   -7.0371523    336.21154  0.027906004   0.02833924            4 
 1005000    1.1074954   -6.9761261    337.92406  0.028020237  0.028330704            3 
 1006000    1.1177168   -7.0473085    336.99376  0.027915322  0.028321985            3 
 1007000    1.1165782   -7.0496241    337.86232  0.027959477   0.02831317            3 
 1008000    1.0947331   -7.0384646    337.18758  0.027875958  0.028304323            4 
 1009000    1.1030402   -7.0211923    338.67645  0.027971296  0.028295676            3 
 1010000    1.0661348   -7.0334159    338.46625  0.027926258  0.028286807            5 
 1011000    1.0907681   -7.0329349    339.51044  0.027984705  0.028278269            2 
 1012000     1.095212   -7.0258253    338.82818  0.027900871  0.028269924            6 
 1013000    1.0920651   -7.0059986    339.13101   0.02789824  0.028261539            2 
 1014000    1.0939737   -7.0017947    339.42738  0.027895084  0.028252987            3 
 1015000    1.0932621   -7.0489567    340.42352  0.027949386  0.028244577            8 
 1016000    1.0830862   -7.0179118    340.52217  0.027929968  0.028236056            3 
 1017000    1.0562186   -7.0253397    340.86832  0.027930869  0.028227775            3 
 1018000    1.0782873     -7.03188    340.33464  0.027859744  0.028219222            3 
 1019000    1.0855322   -7.0376496    342.03184  0.027971201  0.028210934            5 
 1020000    1.1035166   -7.0703139    340.42004  0.027812095  0.028202561            4 
 1021000    1.0805201   -7.0949422    340.39338  0.027782679  0.028194033            6 
 1022000    1.0770929   -7.0280839    342.13426  0.027897444  0.028185513            8 
 1023000    1.1048398   -7.0732809    341.68578  0.027833641  0.028177116            5 
 1024000    1.0918985   -7.0066563    342.18819  0.027847347  0.028168702            3 
 1025000    1.1044806   -7.0601972    342.51719  0.027846926  0.028160259            8 
 1026000    1.0733008    -7.044242    342.44679  0.027814067  0.028151764            3 
 1027000    1.0828835   -7.0421627    343.02547  0.027833939  0.028143162            5 
 1028000    1.0370887   -7.0317758    343.53669  0.027848305  0.028134593            5 
 1029000    1.0891076   -7.0522456    343.11353  0.027786972  0.028125973            5 
 1030000    1.0649049   -7.0352178    344.25208   0.02785211  0.028117258            5 
 1031000    1.0834243    -7.027477    343.77348  0.027786411  0.028108696            3 
 1032000    1.0954263   -7.0513927    342.93944  0.027692139  0.028099942            2 
 1033000    1.0945616   -7.0516995    345.14656  0.027843382  0.028091248            3 
 1034000    1.0737305   -7.0673336    345.15993  0.027817531   0.02808301            4 
 1035000    1.0945436   -7.0714262    344.45198  0.027733654  0.028074686            3 
 1036000    1.0698586   -7.0537442    344.07057  0.027676204  0.028066189            4 
 1037000    1.0844657   -7.0361931    346.17088  0.027818297  0.028057728            3 
 1038000    1.0882726   -6.9869481    347.52655  0.027900333  0.028049723            4 
 1039000    1.0588603   -7.0421928    345.90531  0.027743448  0.028041505            5 
 1040000    1.0817487   -7.0475788    346.40823   0.02775707  0.028033475            3 
 1041000    1.0778876   -7.0667198    346.30431  0.027722087  0.028025206            3 
 1042000    1.0757032   -7.0042285    348.45858  0.027867769  0.028017133            5 
 1043000    1.0603044    -7.059921     347.4182  0.027757926  0.028009012            2 
 1044000    1.0946562   -7.0629724    347.36012  0.027726701  0.028001058            6 
 1045000    1.0674781   -7.0314156    348.01733  0.027752578  0.027993028            2 
 1046000    1.0783898   -7.0420797    348.66674  0.027777784  0.027984967            5 
 1047000     1.069872   -7.0586191    348.61918  0.027747467  0.027976719            5 
 1048000    1.0488142   -7.0141935    348.85542  0.027739776   0.02796865            4 
 1049000    1.0975257   -7.0573095    349.60905  0.027773201   0.02796064            4 
 1050000    1.0753496    -7.041816    349.68534  0.027752805  0.027952406            5 
 1051000    1.0720513   -7.0700707    349.27664  0.027693993  0.027944272            5 
 1052000    1.0551556   -7.0430418    349.45574  0.027681855   0.02793632            4 
 1053000    1.0932519   -7.0293852    349.88506  0.027689542  0.027928292            4 
 1054000    1.0697244   -7.0601756    350.54438    0.0277154  0.027920096            3 
 1055000    1.1020029   -7.0377657    350.63985   0.02769667  0.027912011            4 
 1056000    1.0579465   -7.0932061    350.32324  0.027645458  0.027903899            4 
 1057000    1.1015432   -7.0682303    350.74086  0.027652228  0.027896044            2 
 1058000    1.1050355   -7.0693425    350.90541  0.027639052  0.027888074            5 
 1059000    1.0536396   -7.0731234     351.3544  0.027648285  0.027880105            3 
 1060000    1.0771225   -7.0500977     352.3099  0.027697319  0.027872139            9 
 1061000     1.072394   -7.0496906    351.17991  0.027582463  0.027864179            3 
 1062000    1.0792027   -7.1062218    351.43634  0.027576612  0.027855962            1 
 1063000    1.0730511   -7.0623362    351.82233  0.027580929  0.027847853            5 
 1064000    1.0825624   -7.0586805    353.20751  0.027663495  0.027839832            5 
 1065000    1.0811778   -7.0530978    352.15199  0.027554929  0.027831613            5 
 1066000    1.0697466   -6.9936056    352.90208  0.027587718  0.027823425            4 
 1067000    1.0770818   -7.0772792    351.83061  0.027478179  0.027815195            3 
 1068000    1.0903675   -7.0733768    353.05069  0.027547651  0.027806902            3 
 1069000    1.0884171    -7.042219    353.10161   0.02752585  0.027798753            3 
 1070000    1.0751242   -7.0409243    353.39614  0.027523064  0.027790514            2 
 1071000    1.0703162   -7.0713292    354.31802  0.027569096   0.02778232            2 
 1072000     1.092246   -7.0434693    353.96184   0.02751569   0.02777407            6 
 1073000    1.0940041   -7.0332663    355.38901  0.027600886  0.027765875            5 
 1074000    1.0753078   -7.0400589     354.6967  0.027521469  0.027757877            5 
 1075000    1.0599283   -7.0226432    355.79249  0.027580814  0.027749678            8 
 1076000    1.1080821   -7.0967008    354.11404  0.027425189    0.0277416            4 
 1077000    1.0919814   -7.0829198     355.2129   0.02748475  0.027733501            3 
 1078000    1.0685414   -7.0697598    354.87421  0.027433071   0.02772543            6 
 1079000    1.0859331   -7.0608576    355.41019  0.027449042  0.027717142            2 
 1080000    1.1080135    -7.100244    354.01602  0.027316051  0.027708722            3 
 1081000    1.0936833    -7.076863    354.64566   0.02733932  0.027700329            2 
 1082000    1.0997799   -7.0621626    355.46249  0.027376963  0.027691861            2 
 1083000    1.0832852   -7.0631129    355.33624   0.02734197  0.027683347            3 
 1084000    1.0751363   -7.0769984     356.6123  0.027414845  0.027674928            3 
 1085000    1.1014174   -7.0962373    355.96434  0.027339811  0.027666403            3 
 1086000    1.0931207   -7.0456202     357.4991  0.027432405  0.027657991            3 
 1087000    1.0444455   -7.0623326     356.7551   0.02735013  0.027649793            2 
 1088000     1.111559   -7.0460911    357.85981  0.027409605  0.027641497            3 
 1089000    1.0685849   -7.0472106    358.04642  0.027398716  0.027633235            4 
 1090000    1.0588397   -7.0647082    357.47137  0.027329616  0.027624825            5 
 1091000    1.0519288   -7.0420617    357.07452  0.027274253  0.027616304            2 
 1092000    1.0723188   -7.0871263    358.23233  0.027337632  0.027607863            3 
 1093000    1.0820187   -7.0755501    357.50606  0.027257247  0.027599489            3 
 1094000    1.0534825   -7.0569213    358.72045  0.027324836  0.027590994            4 
 1095000    1.0759617   -7.0886015     357.4968  0.027206758  0.027582594            2 
 1096000    1.0653272   -7.0638602    359.10799   0.02730444  0.027574169            5 
 1097000     1.071379   -7.0475073    359.18148  0.027285132  0.027565904            6 
 1098000    1.0713619   -7.0885382    360.49009    0.0273596  0.027557523            2 
 1099000    1.0642868   -7.0921771      358.962  0.027218835  0.027549278            4 
 1100000     1.078742   -7.0838437    359.70444  0.027250336  0.027540753            4 
 1101000    1.0792209   -7.0849629    359.41251   0.02720349  0.027532074            4 
 1102000    1.0724073   -7.0520751    361.40462  0.027329448  0.027523744            3 
 1103000    1.0897613   -7.0172642    361.41184  0.027305216  0.027515699            2 
 1104000    1.0761928   -7.0212672    361.59367  0.027294208  0.027507595            3 
 1105000    1.0915767   -7.0877935    361.38919  0.027254086  0.027499448            3 
 1106000    1.0593905   -7.0548022    362.38901  0.027304778  0.027491163            3 
 1107000    1.0791684   -7.0506112    361.75728  0.027232557  0.027483046            5 
 1108000    1.0398731   -7.0404961    362.07929  0.027232197  0.027474991            2 
 1109000    1.0690728   -7.0744132    361.26398  0.027146377  0.027466754            4 
 1110000    1.0747836   -7.0864281     362.3341   0.02720226  0.027458459            3 
 1111000    1.0691452   -7.1084128    362.25705  0.027171996  0.027450087            6 
 1112000    1.0641982   -7.1403794    361.31994  0.027077334  0.027441843            3 
 1113000    1.0792142   -7.0978683    362.73568  0.027159006  0.027433509            5 
 1114000    1.0959685    -7.033998    364.79318  0.027288538  0.027425386            3 
 1115000    1.0748453   -7.0987219    364.06791  0.027209859  0.027417297            5 
 1116000    1.0893315   -7.0786432      364.268  0.027200418  0.027409116            2 
 1117000    1.0846778   -7.0710387    365.43196  0.027262904  0.027401235            3 
 1118000    1.0589445    -7.060495    365.16656  0.027218736  0.027393526            4 
 1119000    1.0737328   -7.0915033    365.19712  0.027196688  0.027385646            6 
 1120000    1.0835338   -7.0928064    366.07992   0.02723809  0.027377641            2 
 1121000    1.0811319   -7.0960816    366.70201  0.027260036  0.027369722            3 
 1122000    1.0867834   -7.0838291     364.7673  0.027092045   0.02736173            3 
 1123000    1.0750446   -7.0746477    366.15394  0.027170818  0.027353582            2 
 1124000    1.0813086   -7.0365089    366.40564  0.027165305  0.027345655            2 
 1125000    1.0577114   -7.1300416    366.45621  0.027144905  0.027337784            4 
 1126000    1.0905851   -7.0555469    367.49045  0.027197339  0.027330049            5 
 1127000     1.049757   -7.0599863    369.03301  0.027287268  0.027322272            2 
 1128000    1.0857977   -7.0953944    367.19526  0.027127309   0.02731453           10 
 1129000    1.0667462   -7.0635836    368.21671  0.027178676  0.027306907            4 
 1130000    1.0641099   -7.1125421    367.90908  0.027131938   0.02729921            3 
 1131000    1.0533086   -7.1142041     367.2084  0.027056321  0.027291434            6 
 1132000    1.0529758   -7.0481915    369.13762  0.027174442  0.027283647            4 
 1133000    1.0723562    -7.069807    369.77001  0.027196971  0.027276029            3 
 1134000    1.0640725    -7.092628    368.91763  0.027110349   0.02726836            3 
 1135000    1.0740048   -7.1010714    368.72774  0.027072521  0.027260648            2 
 1136000    1.0506064   -7.0847356    369.21189  0.027084205    0.0272529            3 
 1137000    1.0651258   -7.1025981    369.27538  0.027065038  0.027245216            7 
 1138000    1.0617625   -7.0920906    371.15331  0.027178772  0.027237653            7 
 1139000    1.0654803   -7.0450162      371.417  0.027174202  0.027229966            3 
 1140000    1.0625055   -7.0872893    370.55838  0.027087601  0.027222482            4 
 1141000    1.0604281   -7.0814901     371.6209  0.027141462  0.027214975            3 
 1142000    1.0458236   -7.0676807    371.69047  0.027122772  0.027207441           13 
 1143000    1.0716816   -7.1000061    371.56377  0.027089805  0.027199975            4 
 1144000     1.051856   -7.0736384    372.28055  0.027118338  0.027192398            5 
 1145000    1.0567832   -7.0733588    372.54735  0.027114072  0.027184772            7 
 1146000    1.0777369   -7.1061329    372.30516  0.027072801  0.027177307            6 
 1147000    1.0917065   -7.0712783    372.55743  0.027067526  0.027169904            4 
 1148000      1.06603   -7.0690357    372.43333   0.02703494  0.027162478            3 
 1149000    1.0755203   -7.0872902    373.32714  0.027076236  0.027155042            5 
 1150000    1.0697327   -7.1094112     372.3826  0.026984247  0.027147709            5 
 1151000    1.0730245   -7.1222629    372.66704  0.026981396  0.027140116            2 
 1152000    1.0828756   -7.0728798    374.04902  0.027057944  0.027132836            4 
 1153000    1.0607859   -7.0686315    374.62122  0.027075833  0.027125379            8 
 1154000    1.0574028   -7.1222281    373.54044  0.026974324  0.027117733            3 
 1155000    1.0845265   -7.1150986    374.25732  0.027002693  0.027110167            2 
 1156000      1.06086   -7.1217519    373.70371  0.026939426   0.02710251            4 
 1157000    1.0658227    -7.081238    375.33079  0.027033333  0.027095182            3 
 1158000    1.0248003    -7.082317    375.65565  0.027033365  0.027088009            1 
 1159000    1.0673046   -7.1047474       374.99   0.02696218  0.027080514            5 
 1160000    1.0998851   -7.1181417    375.68371  0.026988772  0.027072987            2 
 1161000    1.0662529   -7.1076604    375.16737  0.026928465   0.02706539            6 
 1162000    1.0866972   -7.0585976    376.57686  0.027006373  0.027058036            2 
 1163000    1.0691239   -7.1105262    375.30163  0.026891776  0.027050565            3 
 1164000    1.0406302   -7.0833001    377.24425   0.02700775   0.02704292            4 
 1165000     1.075572   -7.1422005    375.13799  0.026833905  0.027035216            3 
 1166000    1.0589845    -7.133994    376.75376  0.026926369  0.027027578            3 
 1167000    1.0618619    -7.159533    376.09135  0.026855995  0.027019844            2 
 1168000    1.0797255   -7.1050317    377.81968  0.026956313  0.027012485            5 
 1169000    1.0736662   -7.0881498    378.05791  0.026950236  0.027005172            1 
 1170000    1.0379813   -7.0919903    377.50057  0.026887505  0.026997809            5 
 1171000    1.0785232   -7.1139526    377.96299  0.026897452  0.026990523            4 
 1172000    1.0468085   -7.1410011    377.50391   0.02684186  0.026983151            1 
 1173000    1.0674088   -7.1790789     377.4873  0.026817796  0.026975686            3 
 1174000    1.0590031    -7.099648    380.52034  0.027010246  0.026968334            2 
 1175000    1.0630619   -7.1005689    380.01651  0.026951526  0.026960934            1 
 1176000    1.0614304   -7.1359829    379.57521  0.026897336  0.026953377            2 
 1177000    1.0858501    -7.171659    378.77654  0.026817936  0.026945985            4 
 1178000    1.0506135   -7.1459039    380.08524   0.02688775   0.02693859            3 
 1179000     1.066211   -7.1629254    379.15694  0.026799331  0.026930963            7 
 1180000    1.0606654   -7.1141652    380.22244  0.026851867  0.026923562            2 
 1181000    1.0292109   -7.1129129    379.85627  0.026803293  0.026916128            4 
 1182000    1.0606698   -7.1302503    379.98818  0.026789917  0.026908827            3 
 1183000    1.0448428   -7.1270984    380.87181  0.026829516  0.026901506            3 
 1184000    1.0538292    -7.129395    380.77131  0.026799782  0.026894245            3 
 1185000    1.0706498   -7.1398156    380.42282   0.02675266  0.026886735            2 
 1186000    1.0415615   -7.0990382    382.00944  0.026841585  0.026879246            5 
 1187000    1.0586833   -7.0830809    382.06563  0.026822917  0.026872109            7 
 1188000    1.0810268   -7.0909564    383.07439  0.026871099  0.026865061            4 
 1189000    1.0597692   -7.1374773    381.86319   0.02676361  0.026857851            3 
 1190000    1.0459564   -7.0937062    382.80419  0.026807016   0.02685057            4 
 1191000    1.0704296   -7.1638885    381.78181  0.026712973  0.026843081            3 
 1192000    1.0540479   -7.1203713    381.51081  0.026671617   0.02683555            5 
 1193000    1.0650655   -7.1250756     381.3583  0.026638607  0.026827931            5 
 1194000    1.0417739   -7.1235397    382.23123  0.026677221  0.026820483            4 
 1195000      1.03743   -7.1198846    382.27491  0.026657943  0.026812944            3 
 1196000    1.0835399    -7.134599    383.23651  0.026702655  0.026805649            6 
 1197000    1.0747691   -7.1535623     382.5172   0.02663027  0.026798195            4 
 1198000    1.0445244   -7.0790979    382.14286  0.026582002  0.026790626            3 
 1199000     1.078646   -7.1116595    383.65974  0.026665259  0.026783113            5 
 1200000    1.0563685   -7.1287766     384.4497  0.026697896  0.026775428            3 
 1201000    1.0606263   -7.0973419    384.39867  0.026672125  0.026767828            4 
 1202000    1.0360425   -7.1327295    383.23235  0.026569076  0.026760369            4 
 1203000    1.0559632    -7.125962     384.0245  0.026601863  0.026752666            4 
 1204000    1.0551295   -7.1699195     383.5866   0.02654946  0.026745105            3 
 1205000    1.0414524   -7.0865304    385.50528  0.026660116  0.026737511            3 
 1206000    1.0832077   -7.1295945    385.68768  0.026650613  0.026729938            6 
 1207000    1.0487019   -7.1182617    386.77205  0.026703401  0.026722402            5 
 1208000    1.0518469   -7.0887297    386.76773  0.026680997  0.026715001            1 
 1209000    1.0637696   -7.1238854    386.40835  0.026634157  0.026707411            3 
 1210000    1.0386802   -7.0970174    387.76478  0.026705563  0.026699831            1 
 1211000    1.0739098   -7.1280621    385.96921  0.026559951  0.026692214            3 
 1212000    1.0404203    -7.121426    386.53057  0.026576634  0.026684511            4 
 1213000    1.0730345   -7.1316971    387.90408  0.026649085   0.02667684            2 
 1214000    1.0552419   -7.0874048    387.20899   0.02657942  0.026669454            5 
 1215000    1.0764651   -7.1468226    386.23055  0.026490435  0.026661831            5 
 1216000    1.0433986   -7.1423476    385.50519  0.026418941  0.026654067            5 
 1217000    1.0680128    -7.151167    387.89061  0.026560573  0.026646461            6 
 1218000    1.0464907   -7.1360341    386.68817  0.026456498  0.026638886            4 
 1219000    1.0578564   -7.1845993     386.1238  0.026396213  0.026631086            2 
 1220000    1.0664616   -7.1396041    387.95736   0.02649982  0.026623183            9 
 1221000    1.0382918   -7.1239291    388.61357  0.026522903  0.026615462            2 
 1222000    1.0490592   -7.1567514    387.90337  0.026452767  0.026607705            4 
 1223000    1.0593844   -7.1443091    388.44581  0.026468098  0.026599802            5 
 1224000    1.0564467   -7.1430276     388.5335  0.026452444  0.026591979            2 
 1225000    1.0627546   -7.1540933     388.7449  0.026445231  0.026584359            3 
 1226000    1.0577261   -7.1176388    389.43432  0.026470522  0.026576495            3 
 1227000    1.0207975   -7.1223596    389.81167  0.026474577  0.026568702            7 
 1228000    1.0633344   -7.1440562    388.33212  0.026352614  0.026560814            3 
 1229000    1.0531702   -7.1152991    388.69065  0.026355482  0.026552901            4 
 1230000    1.0654551   -7.1572625    388.90297   0.02634844  0.026544862            7 
 1231000    1.0293801   -7.1609592    388.33847  0.026288822  0.026536617            3 
 1232000    1.0503034   -7.1592735    390.02227  0.026381376  0.026528306            4 
 1233000    1.0612252    -7.151293     389.6106  0.026332157  0.026520292            4 
 1234000    1.0623687   -7.1600911    389.58967  0.026309405  0.026512284            1 
 1235000    1.0532664   -7.1255873    390.79066   0.02636914   0.02650432            5 
 1236000    1.0531523   -7.0636623    392.09407  0.026435685  0.026496476            6 
 1237000    1.0626833   -7.1215869    390.70563  0.026320778  0.026488623            3 
 1238000    1.0637584   -7.1751321    392.24329  0.026403022  0.026480857            1 
 1239000    1.0565128   -7.1107071    392.25664   0.02638261  0.026473186            3 
 1240000     1.060781   -7.1528934    392.39085  0.026370353  0.026465476            5 
 1241000    1.0788975   -7.1058438    393.18774  0.026402615  0.026457805            2 
 1242000     1.070769   -7.0969311    392.08569  0.026307414  0.026450316            2 
 1243000    1.0394375   -7.1152114    393.34828  0.026370896   0.02644275            4 
 1244000    1.0673967   -7.1418326    391.91922  0.026253967  0.026435222            2 
 1245000    1.0387721   -7.0916034    393.97153   0.02637025  0.026427551            3 
 1246000     1.083899   -7.1689382    392.88433  0.026276373  0.026420015            5 
 1247000    1.0277141   -7.1310613    392.93874  0.026258938  0.026412198            7 
 1248000    1.0543359   -7.1518433    392.76902  0.026226564  0.026404464            4 
 1249000    1.0306511   -7.1508878    393.07818  0.026226193  0.026396577            6 
 1250000    1.0497767   -7.1723235    393.44277  0.026229518  0.026388668            8 
 1251000    1.0523294   -7.1614825    393.23443  0.026194673  0.026380717            5 
 1252000    1.0576827   -7.1628468    394.51253  0.026258821  0.026372844            5 
 1253000    1.0586395   -7.1821758    393.56569  0.026174893  0.026365036            2 
 1254000    1.0499655    -7.123258    394.48384  0.026215034  0.026357174            7 
 1255000    1.0464168   -7.1551119    395.31213  0.026249146  0.026349505            3 
 1256000    1.0605834   -7.1488791    394.53558  0.026176724  0.026341819            5 
 1257000    1.0560721   -7.1308397    395.03405  0.026188945  0.026334147            3 
 1258000    1.0543447   -7.1405423    395.75297  0.026215751  0.026326408            1 
 1259000    1.0392659   -7.1379514    394.82957  0.026133808  0.026318552            1 
 1260000    1.0516195   -7.1293816    397.49996   0.02628968  0.026310782            2 
 1261000    1.0474254    -7.158729    395.19502  0.026116509  0.026302836            9 
 1262000     1.048476   -7.1336589    394.62929  0.026058458  0.026294737            2 
 1263000    1.0587873    -7.130852    395.73908  0.026111051  0.026286767            3 
 1264000     1.053077   -7.1493252    396.09566  0.026113902  0.026278854            2 
 1265000    1.0447822    -7.115515    396.39973  0.026113289  0.026270964            2 
 1266000     1.072279   -7.1544877    395.99111  0.026065765  0.026263205            3 
 1267000    1.0426741   -7.1472437    397.14716  0.026121229  0.026255313            4 
 1268000    1.0200778   -7.1468322    396.11647  0.026032891  0.026247507            3 
 1269000    1.0428408   -7.1425136    397.95543  0.026133138  0.026239653            2 
 1270000    1.0354569   -7.1833838    397.39153  0.026075559  0.026231878            5 
 1271000     1.053591   -7.1560671    397.55722  0.026065907  0.026224074            6 
 1272000    1.0489331   -7.1523549    397.85217  0.026064739  0.026216218            6 
 1273000    1.0496259   -7.1481963     397.6104  0.026028437  0.026208365            4 
 1274000    1.0547052   -7.1471098    398.16015  0.026043966  0.026200462            3 
 1275000     1.062164   -7.1452538    398.77483  0.026063714  0.026192694            6 
 1276000    1.0626609   -7.1705556    397.95462  0.025989722  0.026184603            3 
 1277000    1.0380964   -7.1643929    398.34672  0.025994957  0.026176485            5 
 1278000    1.0469787   -7.2243929     397.7131    0.0259333  0.026168327            7 
 1279000    1.0595463   -7.1389892     397.9333  0.025927372  0.026160123            5 
 1280000    1.0281738   -7.1753802    396.54616  0.025816808   0.02615204            4 
 1281000    1.0631463   -7.1795021    398.93057  0.025951768  0.026144263            1 
 1282000    1.0720651   -7.1442959    399.21607  0.025950082   0.02613623            5 
 1283000    1.0376504   -7.1387567     399.6022  0.025954936  0.026128301            6 
 1284000    1.0058991   -7.1402033     400.3244  0.025981594  0.026120204            3 
 1285000    1.0476627   -7.1603301     399.6336  0.025916576  0.026112242           11 
 1286000    1.0364201   -7.1374708    400.49547  0.025952273  0.026104274            3 
 1287000    1.0453064    -7.203899    400.30642  0.025919867  0.026096179            8 
 1288000    1.0404753   -7.1484492    400.52559  0.025913923  0.026088119            6 
 1289000    1.0387877   -7.1660873    400.43506  0.025887966  0.026080236            3 
 1290000    1.0493952   -7.1388314     402.0224  0.025970439  0.026072447            4 
 1291000    1.0502854   -7.2082216    400.17508   0.02583108  0.026064485            3 
 1292000    1.0592351   -7.1793556    400.84031  0.025853993  0.026056543            4 
 1293000    1.0370719   -7.1492444    402.32117  0.025929439  0.026048506            3 
 1294000    1.0287043   -7.1740298    401.61004  0.025863603  0.026040565            8 
 1295000    1.0247953   -7.1539567    402.52263  0.025902357  0.026032596            9 
 1296000      1.02069   -7.1364088    403.35521  0.025935906  0.026024729            5 
 1297000    1.0460197   -7.1709549    403.23699  0.025908314   0.02601678            5 
 1298000    1.0547252   -7.1387437     402.9514  0.025870018  0.026008826            5 
 1299000    1.0520701    -7.183058    401.12307  0.025732812  0.026000868            2 
 1300000     1.042649   -7.1950587    402.10331  0.025775853  0.025992694            4 
 1301000    1.0557041   -7.2060013     402.0546  0.025752921   0.02598439            4 
 1302000    1.0373229    -7.187013    402.43242  0.025757323  0.025976298           12 
 1303000    1.0331771   -7.1990512    401.64893  0.025687447  0.025968137            6 
 1304000    1.0520686   -7.1770162     403.1314  0.025762487  0.025960118            2 
 1305000    1.0538986   -7.1550227    402.97407  0.025732699  0.025952227            3 
 1306000    1.0571906   -7.1184474    405.11782  0.025849784   0.02594439            3 
 1307000    1.0523593   -7.1651321    403.45227  0.025723812  0.025936542            6 
 1308000    1.0378147   -7.1904685    403.61382  0.025714438  0.025928594            4 
 1309000     1.058973   -7.1831646    403.97862  0.025718018  0.025920523            4 
 1310000    1.0404438   -7.1617401    404.04322  0.025702495  0.025912365            8 
 1311000     1.047045   -7.1496878    405.38974  0.025768481  0.025904248            6 
 1312000    1.0342351   -7.1526085    404.45387  0.025689397  0.025896126            6 
 1313000    1.0432251   -7.1949661    403.58396   0.02561462  0.025888094            3 
 1314000    1.0326365   -7.1508736    405.55447  0.025720096  0.025879981            2 
 1315000    1.0433336   -7.1594632    406.48431  0.025759462  0.025872136            2 
 1316000    1.0483757   -7.1533138     405.5188  0.025678749  0.025864122            2 
 1317000    1.0548263   -7.1722432    404.75046  0.025610634  0.025856011            4 
 1318000    1.0544185   -7.1578549    406.73058    0.0257164  0.025847921            4 
 1319000    1.0103414    -7.137238    406.56059  0.025686163  0.025839954            5 
 1320000    1.0465289   -7.1494042    406.72651  0.025677179  0.025831872            3 
 1321000    1.0375783   -7.1850616    405.04535  0.025551687  0.025823712            7 
 1322000    1.0211977    -7.204902    405.44305  0.025557429  0.025815523            6 
 1323000    1.0438218   -7.1172527    408.11091  0.025706154  0.025807428            6 
 1324000    1.0693566   -7.1673676      406.669  0.025595984  0.025799435            5 
 1325000    1.0402777   -7.1804002    407.16631  0.025607944  0.025791292            1 
 1326000    1.0382226   -7.1527673    407.78136  0.025627285  0.025783032            4 
 1327000    1.0402286   -7.1440692    407.43293  0.025586092  0.025774779            2 
 1328000    1.0179146    -7.184189    407.14238  0.025548593  0.025766488            3 
 1329000    1.0312353   -7.1417503    407.38505  0.025544586  0.025758291            3 
 1330000    1.0355707   -7.1592782    406.79114  0.025488166  0.025750105            4 
 1331000    1.0429064   -7.1333921    407.28383  0.025499864  0.025741918            2 
 1332000     1.047414   -7.1541844    406.98266  0.025461878  0.025733738            4 
 1333000     1.035998   -7.1833358    408.17706  0.025517446  0.025725459            8 
 1334000    1.0230143   -7.1731907    407.04508  0.025427603  0.025717087            6 
 1335000    1.0375207   -7.1874421    407.03183   0.02540773   0.02570873            5 
 1336000    1.0226543   -7.1930659    408.05992  0.025452839  0.025700288            2 
 1337000    1.0402346   -7.1713529    407.57868  0.025403807  0.025691854            7 
 1338000    1.0488475   -7.1353101    409.08097  0.025478386   0.02568334           10 
 1339000    1.0330166   -7.1479454     408.9914  0.025453784   0.02567493            2 
 1340000    1.0217189   -7.1510377    408.39896  0.025397945  0.025666702            3 
 1341000    1.0399647   -7.1629138    410.48786  0.025508815  0.025658414            2 
 1342000     1.024556   -7.1892355    408.84149  0.025387574  0.025650079            2 
 1343000    1.0378474   -7.1421003    409.49435   0.02540918  0.025641892            2 
 1344000    1.0325909   -7.1629801    410.11065  0.025428488  0.025633593            3 
 1345000    1.0184313   -7.1887745     408.8579  0.025331964   0.02562523            5 
 1346000    1.0390471   -7.2344767    407.74274  0.025244102  0.025616708            8 
 1347000     1.026923   -7.1568475    410.20701  0.025377815  0.025608295            2 
 1348000    1.0325283   -7.2064036    409.98947  0.025345541  0.025599758            6 
 1349000    1.0174572   -7.1950782    410.41608  0.025353106  0.025591186            6 
 1350000    1.0408602   -7.2149367    408.68942  0.025227742  0.025582626           11 
 1351000    1.0326362    -7.253244    409.45334  0.025256189  0.025574167            3 
 1352000    1.0276294   -7.2201385    408.83976  0.025199689  0.025565572            3 
 1353000     1.037819   -7.2341348    409.77315  0.025238553  0.025556791            3 
 1354000     1.043525   -7.1885638    411.21509  0.025308659  0.025548313            4 
 1355000    1.0386267   -7.2248027    410.90098  0.025270663  0.025539919            3 
 1356000    1.0311363   -7.2096561    410.22346  0.025210389  0.025531546            6 
 1357000    1.0453513   -7.1769384    411.35574  0.025261345  0.025523196            3 
 1358000    1.0325114   -7.1507831    412.40055  0.025306858  0.025514802            3 
 1359000    1.0301309   -7.1543847    411.97559  0.025262178  0.025506495            6 
 1360000    1.0561983   -7.1879173    412.26411  0.025261281    0.0254981            5 
 1361000    1.0642114   -7.2053578    411.35024  0.025186764  0.025489777            3 
 1362000    1.0198729   -7.1973468    411.31867  0.025166341  0.025481485            6 
 1363000     1.017591   -7.1840253    412.26265  0.025205591  0.025472987            6 
 1364000    1.0521327   -7.2117986    413.09735  0.025238108  0.025464573            8 
 1365000    1.0353487   -7.2041885    413.11512  0.025220703  0.025456254            5 
 1366000    1.0249265    -7.215033    412.56846  0.025168891  0.025447926            6 
 1367000    1.0512381   -7.1868107     414.5574  0.025271726  0.025439697            6 
 1368000    1.0577764   -7.1700167    414.07284  0.025223736  0.025431432            7 
 1369000    1.0156556    -7.155832    413.74121  0.025185123    0.0254232            6 
 1370000    1.0355147   -7.2102996    413.75697  0.025167699  0.025414835            2 
 1371000    1.0377406   -7.2196491    414.48156  0.025193384  0.025406633            3 
 1372000    1.0394339   -7.1979433    414.96209  0.025204209  0.025398416            5 
 1373000    1.0359981   -7.2132167    415.07772  0.025192869  0.025390199            7 
 1374000    1.0430456   -7.1459166    416.31358  0.025249489  0.025382064            5 
 1375000    1.0163373   -7.1965621    415.66387  0.025191749  0.025374062            2 
 1376000    1.0567282   -7.2587072    415.31199  0.025152131  0.025365908            5 
 1377000    1.0382201   -7.2289517     414.7916  0.025102373   0.02535786            3 
 1378000     1.059652   -7.1755431    417.74609  0.025262826  0.025349744            5 
 1379000    1.0206719   -7.2297449    416.81777  0.025188408  0.025341623            5 
 1380000    1.0149642   -7.2079004    415.12375   0.02506786   0.02533344            6 
 1381000    1.0280747   -7.1779613    417.65471  0.025202432  0.025325242            4 
 1382000    1.0526428   -7.2144067    416.76809  0.025130734  0.025317292            4 
 1383000    1.0390757   -7.1859412    417.84386  0.025177384  0.025309222            7 
 1384000    1.0414377   -7.2266675    417.11981  0.025115595  0.025301227            4 
 1385000    1.0367226   -7.1442434    418.79352  0.025198166  0.025293279            3 
 1386000    1.0530393   -7.1934789    417.05155   0.02507525  0.025285288            9 
 1387000    1.0388257   -7.2029495    418.06106  0.025117824  0.025277301            6 
 1388000    1.0255085    -7.195519    418.15733  0.025105507  0.025269364            4 
 1389000    1.0294364   -7.2168867    418.56674  0.025111995  0.025261364            3 
 1390000    1.0345192    -7.202642    419.99131  0.025179335  0.025253385            7 
 1391000    1.0195427   -7.1910197    418.35348  0.025063113  0.025245357            4 
 1392000     1.019289   -7.2148991     420.7548  0.025188865  0.025237437            4 
 1393000     1.015974   -7.2283336    420.11939   0.02513277  0.025229727            3 
 1394000    1.0450559    -7.144784    421.18352  0.025178355  0.025222002            5 
 1395000    1.0409876   -7.2078636    420.74659  0.025134205  0.025214233            3 
 1396000    1.0129021   -7.1744777    421.16956  0.025141449  0.025206525            5 
 1397000    1.0265103   -7.1702642     421.4535   0.02514039  0.025199041            4 
 1398000    1.0158068   -7.2029044    421.92422  0.025150466  0.025191513            4 
 1399000    1.0207027   -7.2144899    421.45012  0.025104248  0.025183925            4 
 1400000     1.018058   -7.1735049    423.07289   0.02518291  0.025176478            6 
 1401000    1.0324782   -7.2312092    421.91981  0.025096348  0.025168942            4 
 1402000    1.0401157   -7.1804941    423.88129  0.025195036  0.025161386            3 
 1403000    1.0216851   -7.2162671    420.70898  0.024988654  0.025153802            7 
 1404000    1.0155905   -7.1861315    422.63534  0.025085194  0.025146086            4 
 1405000    1.0218828   -7.2196293    421.39578  0.024993819  0.025138282            5 
 1406000    1.0072703   -7.2289881    419.99631  0.024893096  0.025130508            5 
 1407000    1.0543151   -7.2251431     421.5315  0.024966329  0.025122532            6 
 1408000    1.0247543   -7.2389833    420.96129  0.024914849  0.025114417            4 
 1409000    1.0093527   -7.2008127    422.19122  0.024969909  0.025106529            6 
 1410000    1.0163377   -7.1987755     422.2183    0.0249538  0.025098667            3 
 1411000    1.0170962   -7.2272825    422.93763  0.024978599  0.025090756            4 
 1412000    1.0059571   -7.2222306    421.80738  0.024894203  0.025082779            5 
 1413000    1.0480675   -7.2163296    421.13965  0.024837205   0.02507469            6 
 1414000    1.0251361   -7.2361793     422.3673  0.024891991  0.025066498            4 
 1415000    1.0323537   -7.2211899     422.7323  0.024895895  0.025058364            4 
 1416000    1.0240364   -7.1939629    423.63609  0.024931502  0.025050429            2 
 1417000    1.0167073   -7.1954681    425.06896  0.024998175  0.025042593            4 
 1418000    1.0208924   -7.2147148    423.69931  0.024900054  0.025034878            6 
 1419000    1.0609579   -7.2021375    424.96843  0.024957037  0.025027025            2 
 1420000     1.032791   -7.2051804    424.56299  0.024915669  0.025019257            8 
 1421000    1.0131639    -7.188957    424.12967  0.024872723  0.025011536            4 
 1422000    1.0245603   -7.2064869    425.28878  0.024923159  0.025003786            5 
 1423000    1.0161488   -7.2230026     424.7735  0.024875468  0.024995967            4 
 1424000    1.0014061   -7.2070949    425.49678  0.024900326   0.02498814            8 
 1425000    1.0263011   -7.2600786    425.67746  0.024893418  0.024980205            4 
 1426000    1.0130314   -7.2405496    426.06662  0.024898704  0.024972358            4 
 1427000    1.0336109   -7.2313387    425.24402  0.024833218  0.024964594            6 
 1428000    1.0333157   -7.2750618    425.63262  0.024838505   0.02495682            4 
 1429000    1.0283653    -7.238515    426.60655  0.024877919   0.02494901            5 
 1430000    1.0189557   -7.2305743    426.52128  0.024855552  0.024941462            6 
 1431000    1.0137228   -7.2155202    426.73036  0.024850359  0.024933735            3 
 1432000    1.0212672   -7.1991806    427.55075  0.024880747  0.024926004            4 
 1433000    1.0341086   -7.2085743    427.17962  0.024841801   0.02491827            3 
 1434000    1.0390617   -7.2166512    427.61807  0.024849957  0.024910541            2 
 1435000    1.0134716   -7.2246316    426.02908  0.024740365  0.024902953            4 
 1436000    1.0298058   -7.1759878    428.03192  0.024839364   0.02489542            6 
 1437000    1.0115182   -7.2304335    427.70691  0.024803231  0.024887848            2 
 1438000    1.0238244   -7.2055478    428.38265  0.024825142  0.024880129            6 
 1439000    1.0180324   -7.2405665    428.59994  0.024820474  0.024872476            4 
 1440000    1.0339545   -7.2553892    428.64108  0.024805618  0.024864786            4 
 1441000    1.0339499   -7.2964491    426.72135  0.024677385  0.024857033            2 
 1442000   0.99579608    -7.220964    428.12769  0.024741545  0.024849149           10 
 1443000    1.0229901   -7.2456626     428.3892  0.024739501  0.024841422            2 
 1444000     1.006699   -7.2330336    429.10647  0.024763762  0.024833614            2 
 1445000   0.99549897    -7.224738    429.50835  0.024769801  0.024825931            3 
 1446000    1.0227364     -7.24641    429.54808  0.024754961  0.024818297           10 
 1447000    1.0238007   -7.2164784    429.58581  0.024740026  0.024810623            4 
 1448000    1.0290448   -7.2302979    429.08688  0.024694226  0.024802973           11 
 1449000    1.0153394    -7.254673    429.43787   0.02469737  0.024795193            3 
 1450000    1.0295701   -7.2470194    431.00931   0.02477065  0.024787501            5 
 1451000    1.0306809   -7.2675842    429.02663   0.02463971  0.024779694            2 
 1452000    1.0325411   -7.2080904    430.14026  0.024686654  0.024772053            3 
 1453000    1.0131232   -7.2297827    430.94354  0.024715734  0.024764561            6 
 1454000    1.0157984   -7.2052114    431.43353  0.024726819   0.02475706            5 
 1455000    1.0316472   -7.2378193    432.24262  0.024756164  0.024749593            4 
 1456000    1.0169598   -7.2603282    430.61511  0.024646011  0.024741951            3 
 1457000    1.0002209   -7.1837391    432.68919  0.024747723  0.024734448            3 
 1458000    1.0400765   -7.2391618     431.6791  0.024673017  0.024727016            8 
 1459000    1.0058058   -7.1797937    432.48565  0.024702174   0.02471966            6 
 1460000   0.98840211   -7.2202458    433.47198  0.024741551  0.024712252            3 
 1461000    1.0239395   -7.2616688    432.95516  0.024695138  0.024704726            5 
 1462000    1.0159873   -7.2073872    434.16769   0.02474736  0.024697189            3 
 1463000    1.0195225   -7.2305725    431.90649  0.024601646  0.024689682            5 
 1464000    1.0149237   -7.2389056    432.63881  0.024626526  0.024682108            6 
 1465000    1.0306991   -7.2104429    433.19562  0.024641389  0.024674541            5 
 1466000    1.0075345   -7.1923482    433.81146  0.024659587  0.024667155            6 
 1467000      1.01418   -7.2465536    433.67202  0.024634857  0.024659766            4 
 1468000    1.0082613   -7.2389832    434.44301  0.024661842  0.024652322            3 
 1469000     1.008194   -7.2193627    433.35315  0.024583228  0.024644993            9 
 1470000   0.99937003    -7.209056      434.494  0.024631179  0.024637668            6 
 1471000    1.0182261    -7.220165    434.51697  0.024615736  0.024630345            3 
 1472000    1.0086971    -7.173346     436.3676  0.024703782  0.024623144            3 
 1473000     1.025075   -7.2334426    435.75753  0.024652497  0.024615844            4 
 1474000    1.0473553   -7.2387762    435.28074  0.024608816  0.024608503            5 
 1475000    1.0018023   -7.2356422    436.10542  0.024638724  0.024601259            6 
 1476000    1.0033483   -7.2277596    436.25824   0.02463066  0.024594022            6 
 1477000    1.0097976   -7.2471171    435.79093  0.024587617  0.024586777            3 
 1478000     1.009189   -7.2124378    436.96546  0.024637204  0.024579609            5 
 1479000    1.0270697   -7.2551135    436.63896   0.02460215  0.024572234            5 
 1480000    1.0262139   -7.2595431    435.69998  0.024532657  0.024564907            4 
 1481000    1.0212326   -7.2526699    435.97074  0.024531327  0.024557593            5 
 1482000    1.0035209   -7.2482876    437.34777  0.024592205  0.024550254            2 
 1483000    1.0075108   -7.2665774    435.68946  0.024482438   0.02454289            1 
 1484000   0.99857564   -7.2577667      436.891  0.024533412  0.024535507            3 
 1485000    1.0039886   -7.2408001    437.09194  0.024528167  0.024528131            4 
 1486000    1.0299667   -7.2283233    437.38077  0.024527858  0.024520751            9 
 1487000    1.0023681   -7.2317501    437.52131  0.024519239  0.024513331            4 
 1488000   0.99201631   -7.2574321     438.1248  0.024536559  0.024505925            6 
 1489000    1.0066489   -7.2415096    437.56825  0.024488933  0.024498483            7 
 1490000    1.0240526   -7.2401166    437.96146  0.024494489  0.024491004            4 
 1491000   0.98903619   -7.2537986    436.40249  0.024390928  0.024483512            4 
 1492000    1.0056352   -7.2527057    437.75151  0.024449928  0.024476057            5 
 1493000    1.0074883   -7.1934886    439.71231  0.024542996  0.024468732            2 
 1494000    1.0006878   -7.2395134    439.43595  0.024511153  0.024461301            5 
 1495000    1.0158363   -7.2631186     438.4848  0.024441739  0.024453832            3 
 1496000    1.0046991   -7.2773331    437.93932  0.024395015  0.024446463            3 
 1497000    1.0297639   -7.2859237    439.05107  0.024440607  0.024438966            2 
 1498000     1.021257   -7.2218956    439.53626  0.024451283  0.024431656            4 
 1499000    1.0420745   -7.2401053    439.74929  0.024446814  0.024424301            4 
 1500000    1.0018639   -7.2543568    438.92375  0.024384653  0.024416877            3 
 1501000    1.0202502   -7.2706614    439.75442  0.024414525  0.024409396            5 
 1502000    1.0128963   -7.2337396    440.34853  0.024431232  0.024401924            7 
 1503000    1.0194956   -7.2866772    438.60344  0.024318221  0.024394401            3 
 1504000    1.0035471   -7.2766448    438.68684  0.024306673  0.024386814            4 
 1505000    1.0146815    -7.297909    439.92437  0.024359046  0.024379208            4 
 1506000   0.98658504   -7.2385307    440.06757  0.024350795  0.024371677            3 
 1507000    1.0198526   -7.2645728     439.7111  0.024314925  0.024364181            4 
 1508000    1.0005873   -7.2704035    438.78492  0.024247619  0.024356649            3 
 1509000    1.0100763   -7.2550439    440.32489  0.024316594  0.024349067            3 
 1510000    1.0019714   -7.2626451    439.51852  0.024255989  0.024341517            7 
 1511000    1.0016391   -7.2894211    439.64213  0.024246753  0.024333928            3 
 1512000   0.99412028   -7.2907548     439.8543  0.024242411  0.024326325            4 
 1513000   0.98656083   -7.2688217    439.12551  0.024186248  0.024318741            4 
 1514000    1.0122548   -7.2305525    441.86904  0.024321281  0.024311133            5 
 1515000    1.0219593    -7.288552    439.08406  0.024152039  0.024303592           12 
 1516000    1.0260251   -7.2590894    442.26415  0.024310914  0.024296048            4 
 1517000    1.0367727    -7.250843    442.21602  0.024292245  0.024288654            3 
 1518000    1.0127438   -7.2500731    442.98944    0.0243187  0.024281264            5 
 1519000    1.0038603   -7.2519887    443.92405  0.024353963  0.024273798            3 
 1520000    0.9951464   -7.2563984    442.66514  0.024268922  0.024266391            5 
 1521000    1.0070045   -7.2431395    442.72555  0.024256276     0.024259            4 
 1522000   0.98958692   -7.2629718    443.52978  0.024284372   0.02425182            3 
 1523000    1.0057242   -7.2519256    443.11268  0.024245605   0.02424441            3 
 1524000    1.0045264   -7.2649565    442.39206  0.024190292  0.024237008            9 
 1525000   0.98919127   -7.2585345    443.97435  0.024260894  0.024229526            3 
 1526000   0.98544345   -7.2797964    444.38609   0.02426748  0.024222034            4 
 1527000    1.0189814   -7.2402565    444.93433  0.024281507  0.024214601            3 
 1528000    1.0256617   -7.2792756    444.41191  0.024237124   0.02420717            1 
 1529000   0.98663003   -7.2968562    443.21885  0.024156249  0.024199654            4 
 1530000    1.0198097   -7.2620863    444.62747  0.024217182  0.024192207            4 
 1531000    1.0347809   -7.2979049    443.72067  0.024152007  0.024184921           11 
 1532000   0.99925388    -7.267019    443.83882  0.024142669    0.0241775           11 
 1533000   0.99320464   -7.2913433    443.54776  0.024111098  0.024170137            4 
 1534000     1.026169   -7.2755455    444.72752   0.02415947  0.024162671            3 
 1535000   0.99347705   -7.3042617    443.09425  0.024055062  0.024155113            3 
 1536000    1.0053355    -7.279377    443.60336  0.024067023  0.024147567            9 
 1537000    1.0193834   -7.2835627     445.3613  0.024146676  0.024140085            7 
 1538000   0.99929919   -7.2908972    444.97316  0.024109946  0.024132648            4 
 1539000   0.99700801   -7.2608109    445.21512  0.024107381  0.024125252            3 
 1540000   0.99069058   -7.2380715    446.57856  0.024165507  0.024117996            6 
 1541000   0.99909363   -7.2449747    446.92396  0.024168503  0.024110691            3 
 1542000    1.0329327   -7.2957603    446.14404  0.024110681  0.024103333            6 
 1543000   0.99536511   -7.2705083    445.83552  0.024078393  0.024095969            3 
 1544000   0.99891817   -7.2624855    446.54087  0.024100867  0.024088595            3 
 1545000   0.99378393   -7.2414111    446.39261  0.024077271  0.024081184            6 
 1546000   0.99199955    -7.295168    446.80459  0.024083904  0.024073746            5 
 1547000    1.0224832   -7.2472807    447.93308  0.024129125  0.024066328           15 
 1548000    1.0040387   -7.2513921    447.33061  0.024081105  0.024059012            6 
 1549000   0.99482052   -7.2270616    448.25896  0.024115503  0.024051835            7 
 1550000   0.98877631   -7.2525739    448.55674  0.024115954  0.024044557            8 
 1551000   0.98892409   -7.2446583    448.69725  0.024107955  0.024037429            4 
 1552000   0.99940295   -7.3258607    447.08151  0.024005665  0.024030086            8 
 1553000    1.0103795   -7.2799638    446.78936  0.023974531  0.024022592            6 
 1554000     1.022196   -7.2502321    448.48946  0.024050271  0.024015341            5 
 1555000     1.007926   -7.3202978    445.93377  0.023897844  0.024007917            3 
 1556000   0.99586329   -7.2960923    447.61113  0.023972318  0.024000483            3 
 1557000    1.0178707   -7.3216692    447.08321  0.023928667  0.023993037            4 
 1558000    1.0056723   -7.2749362    448.81682  0.024006034  0.023985611            4 
 1559000    0.9773213   -7.2594291    449.25971   0.02401431  0.023978201            3 
 1560000    1.0228464   -7.3097142     448.2644  0.023945748  0.023970786            6 
 1561000   0.97072332   -7.2759131    448.76986  0.023957392  0.023963329            2 
 1562000    1.0120895   -7.2657444    449.61421    0.0239871  0.023955955            3 
 1563000   0.99241261   -7.2539445    450.52703  0.024020422  0.023948613            4 
 1564000   0.99640432   -7.2955163    447.91938  0.023866122  0.023941203            4 
 1565000    1.0011824   -7.2548345    450.86999  0.024007986  0.023933864            4 
 1566000    1.0193363   -7.2949073    448.56401  0.023869945  0.023926409            3 
 1567000    1.0193937   -7.2996341    448.97764  0.023876709  0.023919054            3 
 1568000    1.0015399   -7.2550173    449.66666  0.023898101   0.02391163            9 
 1569000     0.987529   -7.2788059    450.58654  0.023931726  0.023904169            2 
 1570000    1.0043352    -7.289226    450.34761  0.023903801   0.02389682            2 
 1571000    1.0072818   -7.2905291    451.02836  0.023924696  0.023889576            4 
 1572000    1.0100335   -7.2380814    450.95685  0.023905685  0.023882271            3 
 1573000    0.9901932   -7.2703326    450.85778   0.02388524  0.023875006            4 
 1574000    1.0302037   -7.2478644    451.49071  0.023903574  0.023867823            6 
 1575000    1.0211127    -7.247618    453.57988  0.023998936  0.023860669            2 
 1576000   0.95995956   -7.2600202    451.83475  0.023891432  0.023853441            4 
 1577000    1.0106374   -7.2771228    453.32007   0.02395477  0.023846266            3 
 1578000    0.9946946   -7.2792749    451.80088  0.023859362   0.02383902            5 
 1579000    1.0085494   -7.2657199    453.25449  0.023920967  0.023831871            2 
 1580000   0.97548966   -7.2873918    453.18034  0.023901917  0.023824691            5 
 1581000   0.99395716   -7.2982024    452.34077  0.023842545  0.023817306            5 
 1582000   0.99148275   -7.2466845    452.94191   0.02385914  0.023810015            6 
 1583000    1.0053869    -7.298419    453.19537   0.02385741  0.023802622            4 
 1584000    1.0035004   -7.3133529    451.98885  0.023778875  0.023795254            4 
 1585000   0.99507412    -7.268576    453.38401  0.023837224  0.023787916            6 
 1586000   0.96668583    -7.348548    451.73858  0.023735739  0.023780496            9 
 1587000     1.010573   -7.3107535    452.11867  0.023740741   0.02377303            6 
 1588000    1.0162503   -7.2693836    453.83757  0.023815993  0.023765628            5 
 1589000    1.0264106   -7.3016299    453.82505  0.023800349  0.023758267            5 
 1590000    1.0045814   -7.3112386    454.08569  0.023799041  0.023751017            2 
 1591000   0.97731244   -7.3101477    453.61441  0.023759397  0.023743535            4 
 1592000     0.980158   -7.2911531     453.2999   0.02372801  0.023736111            3 
 1593000    1.0096362   -7.3325523    453.06092  0.023700613  0.023728736           10 
 1594000   0.98719851   -7.3392236    455.41768  0.023808954  0.023721377           10 
 1595000    1.0115273   -7.2957537    453.91312  0.023715419  0.023714003            3 
 1596000    1.0130586   -7.3210335    453.05657  0.023655836  0.023706587            4 
 1597000    1.0188685   -7.3160337    453.85364  0.023682615  0.023699054            6 
 1598000    1.0050192   -7.3298135     453.1997  0.023633693   0.02369153            5 
 1599000   0.99429989   -7.3277146    454.29669  0.023676084  0.023684057            4 
 1600000   0.99672416    -7.306675    453.77567  0.023634149  0.023676634            3 
 1601000   0.97447395   -7.3626545    453.87561  0.023624589  0.023669252            4 
 1602000   0.98642409    -7.326566    454.28461  0.023631118  0.023661721            6 
 1603000    1.0030468   -7.3526028    453.90697  0.023596744  0.023654199            6 
 1604000    1.0090465   -7.3214378    456.34993  0.023708953  0.023646622            8 
 1605000    1.0043837   -7.3100224    456.07368  0.023679838  0.023639213            3 
 1606000   0.98885179     -7.31564    455.68822  0.023645092  0.023631815            4 
 1607000   0.99040486   -7.2897917    455.46772  0.023618944  0.023624294            3 
 1608000   0.99345497   -7.3179734    455.66406  0.023614431  0.023616973            4 
 1609000   0.99956465   -7.2777073    457.10028  0.023674139  0.023609564            6 
 1610000   0.98986227   -7.3032858    456.21795  0.023613766  0.023602149            5 
 1611000   0.99743305   -7.3192166    456.72657  0.023625418  0.023594866            8 
 1612000    1.0009759   -7.3278719    456.89226  0.023619327  0.023587541            3 
 1613000    1.0018032   -7.3258678     455.9784   0.02355747  0.023580121            4 
 1614000   0.99401656   -7.3100553    455.91109    0.0235394  0.023572671            3 
 1615000   0.98355648   -7.3376945    456.12776  0.023536004  0.023565381            8 
 1616000    1.0044272   -7.3256648    456.37888  0.023534389  0.023558001            5 
 1617000    1.0088131   -7.2845981    457.69659  0.023587744  0.023550687            5 
 1618000   0.98807979   -7.2940529    457.79383  0.023578174  0.023543417            3 
 1619000    1.0035469   -7.3065262    459.70008  0.023661729  0.023536077            6 
 1620000   0.99184051   -7.3260391    458.16545  0.023568182  0.023528822            3 
 1621000   0.96460521    -7.298429    457.85614  0.023537741  0.023521566            7 
 1622000   0.98909208   -7.2626855     459.4763  0.023606468  0.023514354            5 
 1623000   0.98819393   -7.3170477    457.26009  0.023478131  0.023507134            2 
 1624000   0.98086521   -7.3245137    457.88822  0.023495906  0.023499943            3 
 1625000   0.99470552   -7.3217521    459.02355  0.023539669   0.02349277            5 
 1626000   0.99017029   -7.2837383    459.64427  0.023557004  0.023485565            3 
 1627000   0.95808637    -7.290894    460.33233  0.023577767  0.023478415            2 
 1628000   0.97884447   -7.2963161    459.98263  0.023545385  0.023471345            3 
 1629000   0.98116452   -7.3061185    459.35522  0.023498835  0.023464086            3 
 1630000   0.99417364    -7.277472     461.5817  0.023598246  0.023456877            9 
 1631000    1.0148232   -7.2932996    461.03763  0.023555979  0.023449782            5 
 1632000   0.99928223   -7.3458571    459.29722  0.023452677  0.023442548            4 
 1633000   0.97520991   -7.2842931    461.00329  0.023525377   0.02343528            3 
 1634000   0.99075337    -7.312565    459.59429  0.023439121  0.023428012            4 
 1635000    1.0031845   -7.3526124    458.76214  0.023382372  0.023420722            3 
 1636000   0.99161346   -7.3306039    459.85157  0.023423572  0.023413376            4 
 1637000   0.98550207   -7.3136922    461.04686  0.023470111  0.023406029            6 
 1638000   0.99983354    -7.303407    460.39638  0.023422689  0.023398789            4 
 1639000   0.99253257   -7.3237295    461.61235  0.023470223  0.023391661            5 
 1640000   0.97836779   -7.3348891    460.27598  0.023388007  0.023384549            4 
 1641000   0.99578359   -7.3259656    463.06649  0.023515463  0.023377465            2 
 1642000    1.0061499   -7.3318479    462.51336  0.023473069  0.023370363            3 
 1643000   0.97677665   -7.3336227    460.78076  0.023370905  0.023363121            4 
 1644000    0.9812886   -7.2950746    462.70447  0.023454201  0.023355897            2 
 1645000   0.95813337   -7.2929057    461.85783  0.023397053  0.023348593            5 
 1646000   0.98739798   -7.3314801    461.35293  0.023357276  0.023341276            6 
 1647000   0.99781056   -7.3329652    461.54934  0.023353033  0.023333948            4 
 1648000   0.97258498   -7.3439631    460.21052  0.023271163  0.023326721            3 
 1649000   0.98788235    -7.326543    462.04439  0.023349726  0.023319448            6 
 1650000   0.99157974   -7.3706707    461.23677  0.023294786  0.023312159            5 
 1651000   0.97668755   -7.3186169     462.9033  0.023364794  0.023304797            3 
 1652000   0.97371744   -7.3351401    462.45498  0.023328036  0.023297485            3 
 1653000   0.99144516   -7.3316635    462.29034  0.023305623  0.023290174            2 
 1654000    1.0060133   -7.3023789     464.1777  0.023386624  0.023282805            5 
 1655000   0.99339569   -7.3453336    462.50533  0.023288284   0.02327545            3 
 1656000   0.99646796   -7.3459361    461.83107  0.023240291  0.023268036           12 
 1657000   0.99918456    -7.342344    463.23476   0.02329686  0.023260754            4 
 1658000   0.98148062   -7.3260803    464.19983  0.023331315  0.023253544            3 
 1659000   0.99134456   -7.3000372    464.38091  0.023326346  0.023246366            5 
 1660000   0.97792032   -7.2844081    464.50185  0.023318366  0.023239173            7 
 1661000   0.98853854   -7.3196845    463.10774  0.023234384  0.023231873            4 
 1662000   0.98103639   -7.3448028    464.22435  0.023276392  0.023224657            5 
 1663000   0.96678555   -7.3339172    464.70044  0.023286252  0.023217359            4 
 1664000   0.99006978   -7.3194008    463.59203  0.023216748  0.023210022            2 
 1665000   0.99040947   -7.3301819    463.67019  0.023206716  0.023202639            6 
 1666000    0.9830721   -7.3258017    464.19284   0.02321893  0.023195282            3 
 1667000   0.99301279   -7.3345647    465.00318   0.02324551    0.0231879            3 
 1668000   0.98818855   -7.3161431    463.64859  0.023163899  0.023180568            3 
 1669000   0.99240419   -7.3386747     465.0271  0.023218848  0.023173238            2 
 1670000   0.99931576   -7.3198458    463.94755  0.023151075  0.023165823            6 
 1671000    0.9670581   -7.3085862    463.98256  0.023138967  0.023158394            3 
 1672000   0.98247308   -7.3263812    465.35113  0.023193338  0.023151092            3 
 1673000   0.99543109   -7.3351506    464.91759   0.02315788  0.023143759            5 
 1674000   0.97794786   -7.3529357     464.2749  0.023112052  0.023136359           10 
 1675000   0.99143738   -7.3415255    464.79918  0.023124337  0.023128954            9 
 1676000   0.99181486   -7.3206031    465.15352  0.023128158  0.023121597            6 
 1677000   0.97591708   -7.3026412    465.87446  0.023150192  0.023114333            5 
 1678000   0.96990935   -7.3281586    464.39375   0.02306286  0.023106988            5 
 1679000   0.97181249   -7.3570223    465.32358  0.023095274  0.023099598            5 
 1680000   0.98667615   -7.3194444    466.49841  0.023139802  0.023092212            4 
 1681000   0.95651504   -7.3229581    467.32702  0.023167114  0.023084908            4 
 1682000   0.99502062   -7.3558403    465.24671  0.023050273  0.023077576            5 
 1683000   0.97933273   -7.3375139    466.31664  0.023089554  0.023070138            4 
 1684000   0.96775884   -7.3201308    466.17392  0.023068781  0.023062705            4 
 1685000   0.95773361   -7.3714669    466.08748  0.023050815  0.023055143            4 
 1686000   0.98278788   -7.3324594    465.58898  0.023012504  0.023047594            4 
 1687000   0.99456194   -7.3446029    466.70852  0.023054165  0.023040008           10 
 1688000   0.97931098   -7.3713794    466.27044   0.02301888  0.023032478            4 
 1689000   0.98264857   -7.3678055    464.85011  0.022935174  0.023024915            3 
 1690000   0.97148077   -7.3199575    466.48036   0.02300199  0.023017305           15 
 1691000   0.97526735   -7.3569986    465.75232   0.02295251  0.023009727            4 
 1692000   0.98348699   -7.4115608    464.35686  0.022870216  0.023002112            7 
 1693000   0.96518368   -7.3471227    467.18631  0.022995979  0.022994568            5 
 1694000   0.98571293   -7.3164149     466.7803  0.022962431  0.022987079            7 
 1695000   0.98364931    -7.320927    465.83942  0.022902626  0.022979531            9 
 1696000   0.99583643   -7.3478882    466.65195  0.022929046  0.022971962            5 
 1697000    1.0015938   -7.3537878     465.8204    0.0228747  0.022964375            5 
 1698000   0.99155353   -7.2991627    467.94108  0.022965306  0.022956823            7 
 1699000   0.97868192    -7.316207    467.96629  0.022953026  0.022949398            7 
 1700000   0.97426771   -7.3420724    467.60943  0.022922031  0.022941918            7 
 1701000   0.99432864   -7.3324515    466.42683  0.022850619  0.022934453            4 
 1702000   0.98454228    -7.331341    467.97039  0.022912769  0.022926988            6 
 1703000   0.97490998   -7.3555976    467.26191  0.022864646   0.02291945            3 
 1704000   0.98530078   -7.4028392     467.0589    0.0228413  0.022911852            3 
 1705000   0.99297498   -7.3247065    468.14057  0.022880771  0.022904381            4 
 1706000   0.97383269   -7.3501548    468.70915  0.022895133  0.022896907            3 
 1707000   0.98244399   -7.3449244    467.93892  0.022844118  0.022889339            5 
 1708000   0.96445879   -7.3787704    467.77919  0.022822951  0.022881745            8 
 1709000   0.99669113    -7.337488    468.52577     0.022846  0.022874193            2 
 1710000   0.98417097   -7.3767363    467.95405  0.022804778  0.022866665            6 
 1711000   0.98902289   -7.3124366    470.14812  0.022898311   0.02285911            3 
 1712000   0.96363623   -7.3658839     467.8732  0.022774202  0.022851696            4 
 1713000   0.95775198   -7.3575429    468.99607  0.022815532  0.022844177            7 
 1714000   0.97148138   -7.3262988    470.17433  0.022859507  0.022836738            3 
 1715000   0.97009575   -7.3355272    471.33597  0.022902622  0.022829391            3 
 1716000   0.98148505   -7.3604802    469.49412  0.022799831  0.022821973            7 
 1717000   0.97373466   -7.3336942    469.55214  0.022789368  0.022814451            8 
 1718000   0.97208426   -7.3468894    471.14827  0.022853525  0.022807046            3 
 1719000   0.99010744   -7.3737323    469.88434  0.022778958  0.022799551            4 
 1720000   0.95877689   -7.3724932     468.8495  0.022715577   0.02279209            4 
 1721000   0.97011618   -7.3016263     472.2716  0.022868081  0.022784678            3 
 1722000   0.99082355    -7.384494     470.3659  0.022762577  0.022777299            6 
 1723000   0.98268538   -7.3700201    469.95247  0.022729371  0.022769891            5 
 1724000   0.97577056   -7.3475845    470.36439  0.022736098  0.022762364            7 
 1725000   0.97847667   -7.3150683    471.09285  0.022758109  0.022754898            3 
 1726000   0.96057941   -7.3080899    471.74959  0.022776631  0.022747455            6 
 1727000   0.98646647    -7.397181     470.5312  0.022704652  0.022739958            2 
 1728000   0.97584302   -7.3931474    469.95346   0.02266365  0.022732425            3 
 1729000   0.97372091   -7.3951449    470.41472  0.022672774  0.022724851           13 
 1730000    1.0035623   -7.3671048    471.26361  0.022700559  0.022717202            5 
 1731000   0.95947218   -7.3681743    470.87464  0.022668719   0.02270964            4 
 1732000   0.97193466   -7.3683003    471.49505  0.022685482  0.022702121            3 
 1733000   0.98533837   -7.3686149    472.23211  0.022707834  0.022694563            4 
 1734000   0.95952687   -7.3611141    470.34017  0.022603815  0.022686971            2 
 1735000   0.95845219   -7.3558878    472.41378  0.022690383  0.022679395            8 
 1736000   0.97072396   -7.3784723    471.15569  0.022616921  0.022671707            4 
 1737000   0.97367141   -7.3675582    471.65323   0.02262777  0.022664067            5 
 1738000   0.97656196   -7.3124296    473.32925  0.022695112  0.022656475            3 
 1739000   0.96976958   -7.3111565    471.57671  0.022598079  0.022649056            4 
 1740000   0.99046104   -7.3596561    471.69597  0.022590803  0.022641497            6 
 1741000   0.97257826   -7.3464145    471.81214  0.022583388  0.022633875            6 
 1742000   0.96766168   -7.3971146    470.14428  0.022490637   0.02262622            3 
 1743000   0.97777581   -7.4003839    470.69668  0.022504144  0.022618494            3 
 1744000   0.98367396   -7.3576738    471.72325  0.022540293  0.022610791            4 
 1745000   0.95585822   -7.3807358    471.09659  0.022497449  0.022603105            3 
 1746000   0.96096782   -7.3679353    471.97638  0.022526555  0.022595366            3 
 1747000    0.9449195   -7.3976834    472.56114  0.022541554  0.022587654            6 
 1748000   0.96291583   -7.3752872    472.69772   0.02253517  0.022579993            4 
 1749000   0.93368057    -7.380269     472.3966  0.022507938  0.022572355            5 
 1750000   0.97197723   -7.3631257    472.95408  0.022521623  0.022564752            7 
 1751000   0.98972872   -7.3655298    473.38782  0.022529403  0.022557126            6 
 1752000   0.96448607   -7.3753329    472.34641   0.02246701  0.022549517            7 
 1753000    0.9756712   -7.3682196    473.36718  0.022502718  0.022541915            4 
 1754000    0.9678204   -7.3653807    474.13862   0.02252654  0.022534255            3 
 1755000   0.96356057   -7.4110493    472.59976  0.022440634  0.022526554            3 
 1756000   0.96269412    -7.359349    472.79861  0.022437291  0.022518884            6 
 1757000   0.96703273   -7.3248032    474.77303  0.022518167  0.022511364            3 
 1758000   0.98050206   -7.3791235    473.17083   0.02242941   0.02250381            6 
 1759000   0.99860307   -7.3319473    474.78601  0.022493178  0.022496181            2 
 1760000    0.9696315   -7.4031279    472.89926  0.022391063  0.022488436            7 
 1761000   0.94603992   -7.3676123    472.36532  0.022353082  0.022480755            5 
 1762000   0.99410254   -7.3667235    474.83392  0.022457147  0.022473055           10 
 1763000    0.9746185   -7.3673967     473.9029  0.022400402  0.022465416            2 
 1764000   0.97592414   -7.3541591    473.64855  0.022375687  0.022457782            3 
 1765000   0.99771998   -7.3522408    474.69425  0.022412382  0.022450129            4 
 1766000   0.98234681   -7.4321883    472.20791  0.022282366  0.022442474           13 
 1767000   0.96126887   -7.4017101    474.47572  0.022376708  0.022434677            7 
 1768000   0.97383699   -7.3919063    474.69233  0.022374262  0.022426962            7 
 1769000    0.9718241    -7.369305    474.17306  0.022337152  0.022419331            4 
 1770000   0.97646479   -7.4195699    473.89284  0.022311339  0.022411686            5 
 1771000   0.97169282   -7.3653384     475.2389  0.022362079   0.02240407           14 
 1772000   0.97384266   -7.3779691    474.85559  0.022331433  0.022396553            7 
 1773000   0.97924363   -7.3835409    475.07021  0.022328925  0.022388845            9 
 1774000   0.96609236   -7.4117394    474.54056  0.022291458  0.022381249            5 
 1775000   0.99215185   -7.3950785    475.29234  0.022314194    0.0223736           21 
 1776000   0.96531616   -7.4405386    474.78995  0.022278057  0.022365808            8 
 1777000   0.96613032   -7.4217671      475.844   0.02231495  0.022358064           16 
 1778000   0.96948317   -7.3825831    474.25271  0.022227817  0.022350314           20 
 1779000   0.98595298   -7.4055083     475.2906  0.022263941   0.02234261            3 
 1780000   0.94921894   -7.4124445    473.65403  0.022174814  0.022334809           11 
 1781000    0.9613632     -7.40349    475.20747  0.022235049  0.022327048            9 
 1782000   0.96285146   -7.4199913    475.81091  0.022250791  0.022319303            7 
 1783000   0.97821521   -7.4326276     475.0076  0.022200766  0.022311652            6 
 1784000   0.96013499   -7.4182254    475.24212  0.022199277  0.022303855           13 
 1785000   0.99494946   -7.3716367    477.65664  0.022299563   0.02229616            6 
 1786000   0.96115204   -7.3525354    476.66084  0.022240614   0.02228853            5 
 1787000   0.97763017   -7.3709732    475.41732  0.022170179  0.022280928            4 
 1788000   0.95958356    -7.402831    476.15825  0.022192312  0.022273232            3 
 1789000   0.95398801   -7.4401426    475.44392  0.022146633  0.022265507            6 
 1790000   0.96746296   -7.3670163    477.60404  0.022234825  0.022257781           13 
 1791000   0.95927437   -7.3890112    476.94939   0.02219195  0.022250109            4 
 1792000    0.9457117   -7.4010539    477.87902  0.022222797  0.022242467            6 
 1793000   0.95929478   -7.3557992    478.23217  0.022226816  0.022234785            9 
 1794000   0.95868995   -7.3331561    479.01356  0.022250723  0.022227184            5 
 1795000   0.97196012    -7.405048    478.32269  0.022206253  0.022219604            5 
 1796000   0.92959122   -7.3939173    477.51884   0.02215659  0.022212057            4 
 1797000   0.98356795   -7.3998901    477.23791  0.022131233  0.022204388            4 
 1798000   0.95844896   -7.3865041     477.5724  0.022134427  0.022196757            5 
 1799000   0.97944303   -7.3460529    479.72078  0.022221641  0.022189167            7 
 1800000   0.94433032   -7.3684958    479.40697  0.022194767  0.022181585            5 
 1801000   0.96273605   -7.3794632    478.73199  0.022151212  0.022173987            9 
 1802000   0.96127337    -7.369058    478.01596  0.022105806  0.022166353            6 
 1803000   0.96563958   -7.4071308    478.70118  0.022125216  0.022158735            5 
 1804000   0.96952075    -7.422738    476.78903  0.022024623  0.022151016            3 
 1805000   0.97174411   -7.4184576    477.53494  0.022046858  0.022143265            4 
 1806000   0.93587358   -7.3766033    479.23456  0.022113075  0.022135572            7 
 1807000   0.98420953   -7.3873865    480.08257  0.022139945  0.022127998            4 
 1808000   0.96551463   -7.4041417    479.08611  0.022081771   0.02212046            7 
 1809000   0.95299294   -7.4174514     479.1504  0.022072526  0.022112871            8 
 1810000   0.96234682   -7.3839249    479.43143   0.02207327  0.022105302            3 
 1811000   0.95804117   -7.3797782    478.67799  0.022026412  0.022097749            9 
 1812000   0.95729953   -7.4215133     479.4089   0.02204787  0.022090136            5 
 1813000   0.96072725   -7.4255264    479.21182  0.022026651  0.022082503            3 
 1814000   0.98684311   -7.4134796    480.21847  0.022060753  0.022074892            5 
 1815000   0.94610603   -7.3817527    479.72395  0.022025893   0.02206723            3 
 1816000   0.95977792   -7.4265794    478.86667  0.021974425  0.022059498            4 
 1817000   0.96844063   -7.4349165    479.40713  0.021987118  0.022051824            5 
 1818000   0.95917126    -7.438945    478.99468  0.021956119   0.02204408            4 
 1819000   0.95412945   -7.4369329    478.80134  0.021935191  0.022036261            6 
 1820000   0.98108681   -7.3525191    480.61264  0.022006073  0.022028669            4 
 1821000   0.96967912   -7.4094053    478.90161  0.021915688  0.022021005            5 
 1822000   0.98141113   -7.4018379    480.41296  0.021972784  0.022013359            4 
 1823000   0.95861382   -7.3882822    479.99013  0.021941403  0.022005718            4 
 1824000   0.96855044   -7.3364578    481.73178  0.022008945  0.021998102            3 
 1825000   0.95076062   -7.3782181    480.19115  0.021926537   0.02199055            4 
 1826000    0.9591584   -7.4263833    479.27443  0.021872692  0.021982821            9 
 1827000   0.95891305   -7.3940167    480.25704  0.021905539  0.021975141           10 
 1828000   0.96491245   -7.3834174    481.14885  0.021934211  0.021967431            6 
 1829000   0.96567973   -7.4221825    479.61675  0.021852413  0.021959731            6 
 1830000   0.96184429   -7.4195856    480.84121   0.02189623  0.021951985            4 
 1831000   0.94325183   -7.4311474    479.50003  0.021823231  0.021944153            6 
 1832000   0.94266716   -7.4331559    480.68434   0.02186519  0.021936341            4 
 1833000   0.94848273   -7.4138896    481.44304  0.021887754  0.021928639            5 
 1834000   0.94182817   -7.4511451     479.7745  0.021800005  0.021920831            5 
 1835000   0.93774619   -7.4128584    480.36228  0.021814817  0.021913018            4 
 1836000   0.98697618   -7.4004782    481.58667  0.021858509  0.021905351            9 
 1837000   0.93493005   -7.3705656    481.53442   0.02184424  0.021897662            6 
 1838000   0.96083537   -7.4215367     480.0852  0.021766649  0.021889926            4 
 1839000   0.95901174   -7.4079114    480.72783  0.021783933  0.021882123            4 
 1840000   0.94492543   -7.4402775    480.72481  0.021771957  0.021874432            8 
 1841000   0.95195819   -7.3933525    481.66562  0.021802717  0.021866752            2 
 1842000   0.95111266    -7.385029    482.23044  0.021816433   0.02185917            8 
 1843000   0.95596708   -7.3954924    481.43891  0.021768806  0.021851554            5 
 1844000   0.96010134   -7.4025568    482.05336  0.021784769  0.021843947            6 
 1845000   0.95687202   -7.4001414    483.04288  0.021817655  0.021836349            6 
 1846000   0.96369481   -7.4012598    483.87688  0.021843485  0.021828766            3 
 1847000   0.93453098    -7.412402    483.58544  0.021818509  0.021821211            5 
 1848000   0.95091053   -7.3822745    483.94953  0.021823121  0.021813733            5 
 1849000   0.96844127   -7.4397781    482.38614  0.021740857  0.021806169            2 
 1850000   0.95855425    -7.402544    483.81105   0.02179329    0.0217985            5 
 1851000   0.94067731   -7.4220636    483.91363  0.021786135  0.021790897            5 
 1852000   0.93182185   -7.3986745    484.47906  0.021799814  0.021783353            3 
 1853000   0.94078419   -7.3845341    483.60685  0.021748824  0.021775889            4 
 1854000   0.96445389   -7.4196463    484.58474  0.021781047  0.021768396            6 
 1855000   0.94145169   -7.4168052    483.20249   0.02170721  0.021760783            6 
 1856000    0.9580597   -7.4601569    483.07529  0.021689803  0.021753139            8 
 1857000   0.97914475   -7.4518933    481.88948  0.021624909  0.021745479            8 
 1858000   0.96116693   -7.4482801    484.42124  0.021726823  0.021737844            6 
 1859000   0.94956065   -7.4327629    483.91257  0.021692333  0.021730185            6 
 1860000   0.95997534    -7.455542    483.67826  0.021670173  0.021722516            6 
 1861000   0.94345073   -7.4091197    484.71595  0.021704995  0.021714867            3 
 1862000    0.9403836   -7.4023173    483.80091  0.021652386   0.02170726            4 
 1863000   0.95670387   -7.4302576    484.01741  0.021650448   0.02169966            3 
 1864000    0.9519764   -7.4305137    483.68532  0.021623986  0.021691998            3 
 1865000   0.94925933   -7.4056845    485.07436  0.021674457  0.021684382            6 
 1866000   0.96322821   -7.3929311      485.565  0.021684754  0.021676793            4 
 1867000   0.95048302    -7.443339    484.31002  0.021617123  0.021669156            7 
 1868000   0.96108068   -7.4564671    483.34753  0.021562613  0.021661496            5 
 1869000   0.95463247   -7.4612697    483.37993  0.021552521  0.021653789            5 
 1870000    0.9530315   -7.4463822    483.25704  0.021535519  0.021646056            7 
 1871000   0.95168189   -7.4669514    483.78494  0.021547521  0.021638382            4 
 1872000   0.94122254   -7.4159949     485.7524  0.021623593  0.021630702           15 
 1873000   0.94605613   -7.4132578    485.21065  0.021587945   0.02162301            7 
 1874000   0.94304682   -7.3904107    485.11481  0.021572163  0.021615332           15 
 1875000   0.93905372   -7.4137362    485.18974  0.021563988  0.021607712            3 
 1876000   0.94732834   -7.4179386    484.99954  0.021544045  0.021600036            8 
 1877000   0.94393581   -7.4480144    485.33465  0.021547445  0.021592417            5 
 1878000   0.95177112   -7.4718628    483.99401  0.021476483  0.021584605            6 
 1879000   0.94408074   -7.4622672    485.86738  0.021548136  0.021576849            9 
 1880000   0.95898131   -7.4527399    483.94642  0.021451526  0.021569195            3 
 1881000   0.95306003   -7.4313696    485.77629   0.02152119  0.021561533            6 
 1882000   0.94243124   -7.4161248    486.44219   0.02153924  0.021553995           13 
 1883000   0.93520701    -7.455427    485.53275  0.021487553  0.021546401           10 
 1884000   0.94144919   -7.4464941    485.87955  0.021491488  0.021538754            3 
 1885000   0.96837614   -7.4485976    486.17815  0.021493287  0.021531127            5 
 1886000   0.96614425   -7.4396529    486.78877  0.021508871  0.021523501            3 
 1887000   0.94522555   -7.4340971    487.02926  0.021508093  0.021515744            7 
 1888000   0.92971922   -7.4089253     486.0781  0.021454718  0.021508095            7 
 1889000    0.9727429   -7.4252685    486.04736  0.021442004  0.021500416            6 
 1890000   0.96469091   -7.4226376    486.50726  0.021450937  0.021492765            5 
 1891000   0.95730485   -7.4434456     486.8796  0.021456002  0.021485203            3 
 1892000   0.93450115   -7.4468862    486.76771  0.021439733  0.021477576            5 
 1893000   0.95245813   -7.4214309    487.36646  0.021454766   0.02146998            2 
 1894000   0.94489953   -7.4382671    487.04798  0.021429425  0.021462403            5 
 1895000   0.93188023    -7.455815    486.47713  0.021393013  0.021454797            8 
 1896000    0.9426922   -7.4431619    487.04357  0.021406627  0.021447161            9 
 1897000    0.9478465   -7.4504567    488.14563  0.021443755  0.021439502            5 
 1898000   0.95087183   -7.4345139    487.68423  0.021412198  0.021431924            4 
 1899000   0.93517951     -7.44771    488.45801  0.021434878  0.021424371           12 
 1900000   0.93251204   -7.4284376    489.21305  0.021456713  0.021416805            7 
 1901000   0.93131638    -7.406178    489.16929  0.021443507  0.021409322            5 
 1902000   0.94467985   -7.4630289    487.98162  0.021380197  0.021401805            5 
 1903000   0.95162591   -7.4394441    488.78122  0.021403977  0.021394278            4 
 1904000   0.94777675   -7.4556721    488.59211  0.021384459  0.021386799            4 
 1905000   0.96252658   -7.4485597    488.94167  0.021388524  0.021379298            3 
 1906000   0.94948627   -7.4305182    488.99933  0.021379824  0.021371805            8 
 1907000    0.9601466   -7.4532362    487.93755  0.021322214  0.021364306            5 
 1908000   0.93798307   -7.4366221    489.30872  0.021370926   0.02135681            6 
 1909000   0.94004426   -7.4470851     488.9011  0.021341937  0.021349291            5 
 1910000   0.94592764   -7.4736312    488.80564  0.021326598  0.021341702            5 
 1911000   0.95115272   -7.4294271    488.49176  0.021301751  0.021334109            3 
 1912000    0.9515065   -7.4827277    487.95107  0.021267045  0.021326566            3 
 1913000   0.93602853   -7.4451858    488.20091  0.021266811  0.021318993            3 
 1914000   0.95594255   -7.4709541    488.50354  0.021268876  0.021311379            3 
 1915000   0.95791828     -7.48318     488.4198  0.021254125  0.021303791           11 
 1916000   0.95164556   -7.4425137     489.5814  0.021293554  0.021296167            8 
 1917000   0.94612796    -7.460828    489.42235  0.021275532  0.021288551            7 
 1918000   0.93308062   -7.4698801    488.50705  0.021224672  0.021280878            4 
 1919000   0.94158736   -7.4694642    487.64224  0.021176057  0.021273221            6 
 1920000     0.942774   -7.4480406    490.02264  0.021268344  0.021265597            8 
 1921000   0.93259392   -7.4732157    488.65589  0.021197982  0.021257948            8 
 1922000   0.95346443   -7.4599725    489.73301  0.021233655  0.021250261            4 
 1923000   0.94476639   -7.4549538    489.05527  0.021193243  0.021242673            5 
 1924000   0.95592926   -7.4635469    489.74172  0.021211959  0.021235044           10 
 1925000   0.93592526   -7.4489953    490.34041  0.021226857  0.021227381            9 
 1926000   0.96845434   -7.4241341    489.72715  0.021189302  0.021219863            7 
 1927000   0.96658246   -7.4232147    490.76669  0.021223261  0.021212335            4 
 1928000   0.92236343    -7.445083    490.26209  0.021190443  0.021204805           17 
 1929000   0.93585135   -7.4442444    490.33142  0.021182453  0.021197226            2 
 1930000   0.95191829   -7.4358635    491.27956  0.021212416  0.021189655            3 
 1931000   0.92841977   -7.4704208    488.74658  0.021092119   0.02118213            5 
 1932000   0.93516793   -7.4622363    490.61013  0.021161582  0.021174475            4 
 1933000   0.91581584   -7.4567718    491.21011    0.0211765  0.021166826            3 
 1934000   0.93399471   -7.5068456    489.20504  0.021079156  0.021159207            6 
 1935000   0.93316047    -7.497513    489.86944  0.021096875  0.021151588            6 
 1936000   0.93158866   -7.4880324    489.48368  0.021069373  0.021143927            4 
 1937000   0.96389442   -7.4785109    491.05539  0.021126114  0.021136271            4 
 1938000   0.95617035    -7.471855    491.53047  0.021135641   0.02112873            4 
 1939000   0.95163846   -7.4648175    490.87871   0.02109673  0.021121237            3 
 1940000   0.93908859   -7.4579877    491.26879  0.021102611  0.021113663            4 
 1941000   0.92945861   -7.4828108    490.37414  0.021053329  0.021106117            7 
 1942000   0.93215102    -7.490287    491.22154  0.021078851  0.021098545            3 
 1943000   0.94973703   -7.4773447    491.66343  0.021086955  0.021090938            5 
 1944000   0.95259208   -7.4790522    492.75218  0.021122779  0.021083339            8 
 1945000   0.92788644    -7.469658    491.47344  0.021057131  0.021075746            6 
 1946000   0.94260288   -7.4623935    492.19524   0.02107722   0.02106826            7 
 1947000   0.93311126   -7.5017922    491.13515  0.021021022  0.021060736            6 
 1948000   0.92290189   -7.4967123    490.30579  0.020974752  0.021053136            3 
 1949000   0.95862337   -7.4688395    490.60077  0.020976602  0.021045589            5 
 1950000   0.93125269   -7.4914649    491.47981  0.021003411  0.021038064            6 
 1951000   0.92147973   -7.4715028    491.58363   0.02099708  0.021030495            7 
 1952000   0.95400148   -7.4689958    491.28725   0.02097367  0.021022998            5 
 1953000   0.93490749   -7.4550679    492.97864  0.021035101  0.021015583            7 
 1954000   0.94735448   -7.4283796    491.74475  0.020971714   0.02100814            7 
 1955000   0.93029112   -7.4877301     492.5364  0.020994731  0.021000677            7 
 1956000   0.92817443   -7.4566442    494.42036  0.021064262  0.020993207            6 
 1957000   0.93391563   -7.4885075    492.30996  0.020963633  0.020985753            6 
 1958000   0.92630376    -7.466657    494.54392  0.021048005  0.020978237            5 
 1959000   0.96326417   -7.4581646    494.75758  0.021046349  0.020970808            6 
 1960000   0.95360017   -7.4675594    494.70182  0.021033241  0.020963392            4 
 1961000   0.91434484   -7.4652797    493.67051  0.020978689   0.02095594            8 
 1962000   0.92435316   -7.4869595    493.99733  0.020981878  0.020948498            8 
 1963000   0.95340749   -7.4367565    494.96028  0.021012068  0.020941145            5 
 1964000   0.94420391   -7.4946273    494.56753  0.020984705  0.020933801            8 
 1965000   0.93371415   -7.4770978    493.85021  0.020943605  0.020926411            5 
 1966000   0.91229094    -7.468337    494.97346  0.020980564  0.020918996            3 
 1967000   0.93885779   -7.5227089    493.40319  0.020903372  0.020911541            7 
 1968000   0.93557244   -7.5018304    493.05362  0.020877948   0.02090408            9 
 1969000   0.95435055   -7.4895126    495.13068  0.020955251  0.020896569            9 
 1970000   0.92384205   -7.4617533    496.11263  0.020986152  0.020889152            4 
 1971000   0.91835441   -7.4796579    493.84845  0.020879776  0.020881692            9 
 1972000   0.93024615   -7.4868315    493.51422  0.020855063  0.020874216           19 
 1973000   0.92772222    -7.459121    495.02107  0.020908138  0.020866753            9 
 1974000    0.9387862   -7.4769552     495.2432  0.020906923  0.020859363            6 
 1975000   0.90834105   -7.5212446    493.66793  0.020829871  0.020851876            8 
 1976000   0.92514594   -7.4726285    495.79148  0.020908885  0.020844421            6 
 1977000   0.92526306   -7.4707369    495.49601  0.020885855   0.02083701            2 
 1978000   0.92992512   -7.4544361      496.057   0.02089893   0.02082956            5 
 1979000   0.90970953   -7.4448542    496.31909  0.020899406  0.020822164            8 
 1980000   0.93713551   -7.4467739    496.16752  0.020882471  0.020814902            7 
 1981000   0.92523906   -7.4604681    496.31999  0.020878344  0.020807628            3 
 1982000   0.96497849   -7.4455341    497.88971  0.020933809  0.020800378            3 
 1983000   0.93504153   -7.4754287     497.1092  0.020890452   0.02079311            6 
 1984000   0.95117931   -7.4193626    498.84956  0.020953023  0.020785837            5 
 1985000   0.92849205   -7.4645628    497.83008  0.020899668  0.020778571            4 
 1986000    0.9203226    -7.482336    497.60278  0.020879606  0.020771296            2 
 1987000   0.92427656   -7.5096064     496.7445  0.020833103  0.020764065            5 
 1988000   0.93614939   -7.5169894    496.96993  0.020832073  0.020756777            4 
 1989000   0.94016705   -7.5236674    496.69716  0.020810171  0.020749493           11 
 1990000   0.95535148   -7.5238481    496.75216  0.020802017  0.020742253           13 
 1991000   0.93176553   -7.5235604    497.96825  0.020842468  0.020734964            7 
 1992000   0.94335308    -7.492376    497.48358   0.02081173  0.020727716            5 
 1993000   0.93602709    -7.510688    498.13254  0.020828422  0.020720445           16 
 1994000     0.934122   -7.5360506     497.2392  0.020780642  0.020713183            4 
 1995000   0.93622506    -7.516241    497.47618  0.020780124  0.020705913            7 
 1996000   0.93453592   -7.5098825    498.10065  0.020795785  0.020698785            5 
 1997000   0.94848426   -7.4721214    498.81359  0.020815122  0.020691688            6 
 1998000   0.92803861   -7.4870035    498.76058  0.020802493  0.020684532            6 
 1999000   0.94583697   -7.4412176    499.94625  0.020841515  0.020677389            4 
 2000000   0.93546971   -7.4863315    500.56428  0.020856845   0.02067033            3 
 2001000   0.92618044    -7.465928    499.83387  0.020816003  0.020663223            5 
 2002000   0.94173759   -7.4888994    499.73169  0.020801352  0.020656132            7 
 2003000   0.94231586   -7.4764445    499.95593  0.020800297  0.020649008            7 
 2004000   0.92302003   -7.5235755    497.93634  0.020705936  0.020641813            4 
 2005000   0.94841104   -7.5068552    499.73133  0.020770213  0.020634626            6 
 2006000   0.91065421   -7.4741268    499.05295  0.020731678  0.020627468            7 
 2007000   0.92438318   -7.5023112    499.13616  0.020724803  0.020620296            3 
 2008000   0.93522779   -7.4926699    499.35773  0.020723677  0.020613138            7 
 2009000   0.93467304   -7.5411659    498.78713  0.020689693  0.020605981            7 
 2010000   0.94311927    -7.488754    499.46882  0.020707663  0.020598829            5 
 2011000   0.94299081   -7.4951929    499.56029  0.020701156  0.020591697            7 
 2012000   0.92037087   -7.4766757    500.67115  0.020736877   0.02058456            7 
 2013000    0.9343897   -7.5192981    498.93781  0.020654819  0.020577408            7 
 2014000   0.90546734   -7.4629116    501.78662  0.020762439   0.02057028            4 
 2015000   0.90674664    -7.508076    500.50878  0.020699288  0.020563087           11 
 2016000   0.94040116   -7.5201477    498.86867  0.020621225  0.020555808            4 
 2017000   0.94969054   -7.5482325    499.70859  0.020645703  0.020548516            8 
 2018000   0.91427462   -7.5363496     498.6128  0.020590221  0.020541313            8 
 2019000   0.91663544   -7.5266661    498.75871  0.020586045  0.020534035            4 
 2020000   0.94908362   -7.4695096    499.92821  0.020624101  0.020526889            7 
 2021000   0.91570311   -7.5481224    500.92872  0.020655151  0.020519706            5 
 2022000   0.93217433   -7.5047484    500.40117  0.020623194  0.020512483            6 
 2023000   0.90745219    -7.521302     499.8705  0.020591139   0.02050538            4 
 2024000   0.92477198   -7.4785825    501.29291   0.02063953  0.020498233            5 
 2025000   0.93248574    -7.499355    500.71986  0.020605756  0.020491101            5 
 2026000   0.93931173     -7.50302    500.68732  0.020594247  0.020483986            5 
 2027000   0.91351272    -7.516879    500.82177  0.020589614  0.020476795           11 
 2028000   0.89772779   -7.4890175    500.66598   0.02057306  0.020469638           21 
 2029000   0.92137349   -7.5072158    501.31774  0.020589689  0.020462426            2 
 2030000    0.9341826   -7.5333956    499.48033  0.020504119  0.020455207           10 
 2031000   0.91379961   -7.5131044     500.2246  0.020524561  0.020447962            8 
 2032000   0.95032158   -7.5282145    500.78659  0.020537508  0.020440711            3 
 2033000   0.91828381   -7.4881361    501.44881   0.02055455  0.020433462            6 
 2034000   0.91218388   -7.5148745    501.35894  0.020540763  0.020426242           21 
 2035000   0.91877384   -7.5083148    501.48837  0.020535969  0.020419062            8 
 2036000   0.92262012   -7.5201439    500.00639  0.020465226  0.020411783           10 
 2037000   0.91494563   -7.5033058    500.63847  0.020481037  0.020404533            8 
 2038000   0.90180129   -7.4970564    500.11131  0.020449432  0.020397368            6 
 2039000   0.92307459   -7.5037928    502.48385  0.020536368  0.020390177            6 
 2040000   0.92045626   -7.4880908    502.62418  0.020532033  0.020382977            7 
 2041000   0.92431938   -7.4948866    501.39051  0.020471603  0.020375817            8 
 2042000   0.93832204   -7.4776762    501.73363  0.020475581  0.020368604           14 
 2043000   0.93788279   -7.5320842    501.61815  0.020460848  0.020361417            9 
 2044000   0.92533588    -7.491233    501.64193  0.020451807  0.020354178            7 
 2045000   0.94596918    -7.505481    502.02869  0.020457567  0.020346985            4 
 2046000   0.92485618   -7.5305637    501.23605  0.020415284  0.020339799            7 
 2047000   0.91241207   -7.5161126    502.51438  0.020457352  0.020332615            7 
 2048000   0.91445746   -7.5428819    502.57925  0.020450002  0.020325386            7 
 2049000   0.91604994   -7.5138557    503.01404  0.020457704  0.020318163            2 
 2050000   0.92254847   -7.4779274    503.41979  0.020464219  0.020311001            4 
 2051000   0.91080426   -7.5215731    501.78516  0.020387826  0.020303842           11 
 2052000   0.93768568   -7.5174227    503.49602  0.020447369  0.020296751            8 
 2053000   0.90541163   -7.5299889    503.27214  0.020428322  0.020289616            8 
 2054000    0.9226667   -7.5589119    500.42794  0.020302984  0.020282407           12 
 2055000   0.93389765   -7.5029331    503.35339  0.020411735  0.020275213           14 
 2056000   0.93670178   -7.4915908    505.03208  0.020469848  0.020268111            5 
 2057000   0.91021881   -7.5007294    503.02191   0.02037846  0.020261002            7 
 2058000   0.88811296   -7.5413579    503.04104  0.020369333  0.020253805            9 
 2059000   0.92504429   -7.5290164    504.54369  0.020420256  0.020246683            5 
 2060000   0.89816288   -7.4971363    503.40042  0.020364095  0.020239552           17 
 2061000   0.92785038   -7.5427665    502.77569  0.020328954  0.020232454            4 
 2062000   0.91642806    -7.539565    503.66551  0.020355056  0.020225322            5 
 2063000   0.92309282   -7.4851957     504.6317  0.020384218  0.020218266            4 
 2064000   0.93655937   -7.5357956    503.41311  0.020325142  0.020211204            7 
 2065000   0.92177604   -7.4938198    504.09348  0.020342756   0.02020424            5 
 2066000   0.91964696   -7.5054517    505.43717  0.020387107  0.020197341            3 
 2067000   0.90891006   -7.5310119    504.55054  0.020341499  0.020190386            4 
 2068000   0.90635781     -7.53253    504.42528  0.020326615  0.020183354            8 
 2069000   0.91261563   -7.5303241    504.96326  0.020338459   0.02017636            4 
 2070000   0.92305452   -7.5145145    505.51595  0.020350884  0.020169365            3 
 2071000   0.91581829   -7.5287823    504.69561  0.020308048  0.020162317           10 
 2072000   0.91747634   -7.5409891    505.65222   0.02033672  0.020155322            8 
 2073000   0.91700402    -7.498815    506.00582  0.020341125  0.020148301            4 
 2074000   0.89725929   -7.5290915    506.80679    0.0203635  0.020141381            9 
 2075000   0.93501928   -7.5254749    505.68534  0.020308648  0.020134401           13 
 2076000   0.92034582   -7.5179017    506.29152  0.020323199  0.020127445            7 
 2077000   0.92054239   -7.5232222    505.57516  0.020284672  0.020120524            5 
 2078000   0.91364952   -7.5419953    506.79264  0.020323734  0.020113557            6 
 2079000   0.90339988   -7.5357631    505.13635  0.020247569  0.020106536            9 
 2080000   0.90916551   -7.5509535    504.26741  0.020203021  0.020099502            9 
 2081000     0.932023   -7.5703168    505.32168  0.020235531  0.020092455            8 
 2082000   0.89392131   -7.5397405    506.19637  0.020260822  0.020085431            7 
 2083000   0.92231497   -7.5522981    505.43598  0.020220674  0.020078362            5 
 2084000   0.90206936   -7.5524502     505.4772   0.02021262  0.020071363            7 
 2085000   0.91916265   -7.5433081    506.06612  0.020226464  0.020064351            7 
 2086000   0.90056885   -7.5435607    506.63876  0.020239644  0.020057361            5 
 2087000   0.89712654   -7.5401432    507.34292  0.020258063  0.020050423            8 
 2088000     0.909893   -7.5477872    507.83279  0.020267911  0.020043482            8 
 2089000   0.92649785   -7.5214408    506.77604  0.020216054   0.02003656            9 
 2090000   0.91474505   -7.5418436    507.05222  0.020217393  0.020029677            8 
 2091000   0.90749139   -7.5274012     507.8264  0.020238578  0.020022731            8 
 2092000   0.92602756   -7.5422951    506.65909  0.020182405  0.020015791            5 
 2093000   0.91642869   -7.5702257     505.5388  0.020128157  0.020008804            5 
 2094000   0.89609052   -7.5462619    506.83126   0.02016998  0.020001896            4 
 2095000   0.90454671   -7.5110781    509.02408  0.020247577  0.019995023            4 
 2096000   0.92643791   -7.5189464    508.98509  0.020236366  0.019988101           11 
 2097000   0.91268396   -7.5753049    506.69373  0.020135659  0.019981124           10 
 2098000   0.91961778   -7.6011487     507.3523   0.02015222  0.019974065            7 
 2099000   0.92180876   -7.5708887    507.28097  0.020139788  0.019967112            4 
 2100000   0.92659236   -7.5084216    510.07292  0.020240989  0.019960244            7 
 2101000   0.90927362   -7.5449779    507.05294  0.020111571  0.019953419            8 
 2102000   0.91566312   -7.5360124     508.7741  0.020170239  0.019946537            6 
 2103000   0.91788387   -7.5420173    508.76909  0.020160449  0.019939636           12 
 2104000    0.9041752   -7.5380565    508.97478  0.020159014  0.019932751           19 
 2105000   0.91810056   -7.5832328    507.73679  0.020100427  0.019925866            8 
 2106000   0.92458984   -7.5381907    508.34065  0.020114777  0.019919002           19 
 2107000   0.90847636   -7.5443322    507.69835  0.020079827  0.019912152            5 
 2108000   0.90807126   -7.5405259    509.13903  0.020127254  0.019905305            6 
 2109000    0.9191241   -7.5369129    508.53557  0.020093866  0.019898429            3 
 2110000    0.9025796   -7.5331941    507.92328  0.020060161  0.019891586            7 
 2111000   0.89174442   -7.5652218    507.73052  0.020043049  0.019884723            3 
 2112000    0.9031164   -7.5148663    510.72908  0.020151873  0.019877898            7 
 2113000   0.92785559   -7.5486371    508.39815  0.020050408  0.019871105           10 
 2114000   0.93364681    -7.523872    510.30458  0.020116075  0.019864313            4 
 2115000   0.90480381   -7.5290679    510.59355  0.020117949  0.019857516            8 
 2116000    0.9028521   -7.4899132    511.88749    0.0201594  0.019850689            5 
 2117000   0.89919202   -7.5107338    510.45882   0.02009364  0.019843917           10 
 2118000   0.90275964   -7.4737733    510.83531  0.020098965  0.019837105            4 
 2119000    0.9144427   -7.5473596    510.43109  0.020073584  0.019830266            6 
 2120000   0.90499584   -7.5302483    511.14435  0.020092152  0.019823454            2 
 2121000   0.89683816   -7.5120717    510.65419  0.020063421  0.019816658            6 
 2122000   0.91949224   -7.5297223     510.8883   0.02006316  0.019809857            4 
 2123000   0.89204154   -7.5617301    511.85509  0.020091659  0.019803106            6 
 2124000   0.91655098   -7.5223491    511.75191  0.020078151  0.019796378            5 
 2125000   0.91200189   -7.5216236     512.0188  0.020079168  0.019789643            3 
 2126000   0.92244345   -7.5063328    512.23653  0.020078259  0.019782988           13 
 2127000   0.90465826   -7.5212213    512.58794  0.020082587  0.019776369           18 
 2128000   0.92374792   -7.5246745    510.93721  0.020008506   0.01976975            7 
 2129000   0.91354938    -7.527587    512.64734  0.020066046  0.019763079           10 
 2130000   0.91835577   -7.5447822    512.87057  0.020065359  0.019756359           10 
 2131000    0.9195596   -7.5704384    511.47226  0.020001261  0.019749613            4 
 2132000   0.91516949   -7.5623879    510.97587  0.019972478  0.019742866           14 
 2133000    0.9300516   -7.5536422    511.76603  0.019993985  0.019736087            9 
 2134000   0.91815626   -7.5550468    510.54651  0.019936993   0.01972933            4 
 2135000   0.91071081   -7.5175586    512.99415  0.020023191  0.019722627            4 
 2136000   0.90525731   -7.5741839    512.47581  0.019993594  0.019715981           16 
 2137000   0.89993459   -7.4963078     513.9903  0.020043296  0.019709366            4 
 2138000    0.9063135   -7.5510072    512.77915  0.019986715  0.019702769            8 
 2139000   0.92061919   -7.5338481    512.12937  0.019952056  0.019696116           13 
 2140000   0.92684818    -7.562257    511.78191  0.019929202  0.019689465            6 
 2141000   0.89295077   -7.5289937    513.23549  0.019976471  0.019682804            5 
 2142000     0.915376   -7.5409941    513.19165  0.019965439  0.019676129            5 
 2143000   0.90740905   -7.6028324    512.52974  0.019930383  0.019669373            9 
 2144000   0.89064889   -7.5570284     513.3921  0.019954606  0.019662684            5 
 2145000    0.9095632   -7.5327208    513.71835  0.019957978  0.019656031            3 
 2146000   0.89913819   -7.5380309    512.63065   0.01990644  0.019649356            7 
 2147000   0.91571553   -7.5423088    513.24742  0.019921108  0.019642738            6 
 2148000   0.92430272   -7.5712651    513.49655  0.019921499  0.019636119            5 
 2149000   0.91112074   -7.5625243     512.3827  0.019869036  0.019629494            7 
 2150000   0.90601971   -7.5588021    514.97821  0.019960396  0.019622803           17 
 2151000   0.90978597   -7.6025763    512.14929  0.019841519  0.019616107            6 
 2152000   0.92805664   -7.5470723    514.96519  0.019941341  0.019609478           12 
 2153000   0.90364388   -7.5274902    515.49873   0.01995273  0.019602901            8 
 2154000   0.91719679   -7.5520472    514.51531   0.01990542  0.019596335            4 
 2155000   0.89456597   -7.5974523    513.28132  0.019848466  0.019589699            9 
 2156000   0.90101206     -7.54336    513.09362  0.019832005  0.019583087            9 
 2157000   0.91167364   -7.5715898    514.79856  0.019888679  0.019576421            5 
 2158000   0.91513667    -7.564447    514.11145  0.019852929  0.019569751            3 
 2159000   0.92466483    -7.584748    513.31282  0.019812908  0.019563058            3 
 2160000   0.89268284   -7.6171397     513.3303   0.01980441  0.019556321           10 
 2161000   0.92059178   -7.6140372    513.02354  0.019783416  0.019549617            7 
 2162000   0.92447262   -7.5572787    514.31255   0.01982395  0.019542845           11 
 2163000    0.9249381   -7.5417981    515.11234  0.019845598  0.019536154           24 
 2164000   0.91055779   -7.5713897    513.06972  0.019757768  0.019529521            4 
 2165000   0.88671361   -7.5882018     512.9351   0.01974346  0.019522831            4 
 2166000   0.90248409   -7.5866081    515.49777   0.01983294  0.019516188            4 
 2167000   0.91733812   -7.6247912    511.63509  0.019675246  0.019509491            5 
 2168000   0.91076782   -7.5779797    514.40012  0.019772452  0.019502763            9 
 2169000   0.89065917   -7.5936059     514.3783  0.019762498  0.019496056            9 
 2170000   0.92452033   -7.5980384    514.02156  0.019739691  0.019489304            7 
 2171000   0.90163522   -7.5910473    514.37742  0.019744258  0.019482618            6 
 2172000   0.90473603   -7.6095932    514.48218  0.019739187  0.019475943            4 
 2173000   0.90161089   -7.5883254    514.52301  0.019731669  0.019469245            7 
 2174000   0.90502472   -7.5741261    515.74579  0.019769465  0.019462622           16 
 2175000   0.92286112   -7.6022654    513.90385  0.019689803  0.019455951            6 
 2176000   0.90467502   -7.5746857    515.19055   0.01973003  0.019449244           15 
 2177000    0.9050564   -7.5789527    515.36301  0.019727569  0.019442638            4 
 2178000   0.92014834   -7.6069146    514.23299  0.019675275  0.019435976           13 
 2179000   0.91614596   -7.5717647    517.27545  0.019782601  0.019429344            6 
 2180000   0.91795717   -7.6083468    516.10362  0.019728732  0.019422731            4 
 2181000   0.88802311   -7.5827535    516.63171  0.019739864  0.019416114           15 
 2182000   0.91885024   -7.5942945    515.97054  0.019705566  0.019409495           12 
 2183000   0.91510787   -7.5653057    515.26277  0.019669521  0.019402879           13 
 2184000   0.90293883   -7.6298016    515.32784  0.019662998  0.019396198            6 
 2185000   0.90091226   -7.5949621    518.16508  0.019762207  0.019389523            6 
 2186000   0.90445387   -7.6390297    515.57218  0.019654322  0.019382848           11 
 2187000   0.90638761   -7.5972528    516.34278  0.019674698    0.0193762           10 
 2188000   0.90438004   -7.5807177    517.43576  0.019707334  0.019369623            4 
 2189000   0.90642306   -7.5997048    514.97875  0.019604795  0.019363025            5 
 2190000   0.92380457   -7.5329068    518.19398  0.019718188   0.01935649            8 
 2191000   0.90408594   -7.5734743    518.07102  0.019704512   0.01934996           13 
 2192000   0.91681546   -7.5716015    517.98403  0.019692215  0.019343429            5 
 2193000   0.91384951   -7.5657876     519.2817  0.019732547  0.019336953           10 
 2194000    0.8793797   -7.5942111    518.33437  0.019687571  0.019330446            8 
 2195000   0.89702423   -7.5896134    517.53968  0.019648431  0.019323907            6 
 2196000   0.90102178   -7.5670448    517.97381  0.019655958  0.019317393            7 
 2197000   0.88726583   -7.5455863    518.41142   0.01966361  0.019310911            7 
 2198000   0.92052184   -7.5460852    518.91152  0.019673625  0.019304431            5 
 2199000   0.91070262   -7.6042241    517.00697  0.019592503  0.019297917            5 
 2200000   0.90705421   -7.5805638    517.81331   0.01961414  0.019291402            9 
 2201000   0.89367519   -7.5780436     518.8369  0.019643984  0.019284912           10 
 2202000   0.90699741   -7.5555346    518.14829  0.019609003  0.019278402            6 
 2203000   0.91953608   -7.5938394    516.63815  0.019542978  0.019271875            4 
 2204000   0.89549995   -7.5662202    517.44568  0.019564643  0.019265305            9 
 2205000   0.89146877   -7.5975496    518.30646  0.019588302   0.01925878            6 
 2206000   0.89511343   -7.5781222    518.16429  0.019574052    0.0192523            6 
 2207000   0.88583649     -7.57704    519.13521  0.019601843  0.019245786            5 
 2208000   0.90656447   -7.6160157    517.16282  0.019518524  0.019239283            4 
 2209000   0.88917479   -7.6055536    519.15492  0.019584839  0.019232728            8 
 2210000   0.90974018   -7.5702069    518.69348  0.019558578  0.019226229            6 
 2211000   0.91446087   -7.6137074    518.10356  0.019527497  0.019219718            6 
 2212000   0.88864725   -7.5805347    519.15935  0.019558444  0.019213204            5 
 2213000   0.90695976   -7.6356726    518.78633   0.01953556  0.019206621            4 
 2214000   0.89417591   -7.6010501    518.51291  0.019516445  0.019200067            6 
 2215000   0.88327238   -7.6084546    519.29674  0.019537124  0.019193609            7 
 2216000   0.90861039   -7.5594166    519.32717  0.019529451   0.01918714            5 
 2217000   0.88327959   -7.5695656    519.64659  0.019532649    0.0191807            4 
 2218000   0.89278796   -7.6175573     519.5359  0.019519684    0.0191742            5 
 2219000   0.91167118    -7.598664    519.00265  0.019490861  0.019167705            7 
 2220000   0.90683792   -7.5860398    519.96666  0.019518268  0.019161222           16 
 2221000   0.88018274    -7.624727    518.81335  0.019466207  0.019154771            4 
 2222000   0.92897801   -7.6169906    520.16197  0.019508025  0.019148255            9 
 2223000   0.88958965    -7.643018    521.07226  0.019533373  0.019141815            7 
 2224000   0.89133224   -7.6133076    520.51829  0.019503833  0.019135308           12 
 2225000   0.89707979   -7.6541382    518.91781  0.019435124  0.019128823            7 
 2226000   0.90388501    -7.644517    519.73739  0.019457075  0.019122317           22 
 2227000   0.89155734    -7.612186    520.18443  0.019465066  0.019115828            5 
 2228000   0.89395088   -7.6342063    519.94306  0.019447302  0.019109374           14 
 2229000   0.91798064   -7.5766849    520.34215  0.019453498  0.019102926            4 
 2230000   0.89686626   -7.6187329     520.3209   0.01944398  0.019096502            5 
 2231000   0.89859218   -7.6113808    521.09863  0.019464314  0.019090064            4 
 2232000   0.90883482   -7.6105665    520.71384  0.019441228  0.019083655            7 
 2233000   0.89696977    -7.613854    521.06882  0.019445769  0.019077258            6 
 2234000   0.89610405   -7.6239936    520.30484  0.019408566  0.019070854            7 
 2235000   0.90165591   -7.6192671    521.09769  0.019429444  0.019064447            8 
 2236000    0.8906105   -7.6386762    521.24072  0.019426085  0.019058047            5 
 2237000   0.89206573   -7.6209563    520.40893  0.019386415  0.019051611            9 
 2238000   0.87741315    -7.624524    520.64701  0.019386618  0.019045173            9 
 2239000   0.88922594   -7.6072447    522.06299  0.019430661  0.019038724            9 
 2240000   0.88173962   -7.6200487    521.67587  0.019407584  0.019032345            6 
 2241000   0.90940206   -7.6344698    519.97732  0.019335762  0.019025944            6 
 2242000   0.89614338   -7.6078068    520.25703  0.019337534  0.019019561           10 
 2243000    0.8963577   -7.6324968    520.85154  0.019351001  0.019013123           11 
 2244000   0.87751575   -7.6046972    522.28372  0.019395563  0.019006754           10 
 2245000   0.86988288   -7.6105614    522.37139  0.019390178  0.019000421            4 
 2246000     0.880282   -7.6062405    523.11852  0.019409265  0.018994061            7 
 2247000   0.88706562   -7.6301312    522.00575  0.019359359  0.018987731           10 
 2248000   0.89234594   -7.6164361    521.12881  0.019318239  0.018981377           14 
 2249000   0.87175308   -7.6160642    523.30806  0.019390398   0.01897506            7 
 2250000   0.91075818   -7.6053394    522.68827  0.019358825  0.018968702            5 
 2251000   0.88988758   -7.6330522    521.96558   0.01932347  0.018962354            6 
 2252000   0.87455181   -7.6438714    522.79709  0.019345659  0.018955967            6 
 2253000   0.88019574   -7.6184594    521.81708  0.019300824   0.01894958            6 
 2254000   0.89974949   -7.6197489    523.71344  0.019362372   0.01894327            5 
 2255000   0.88497251   -7.6210957    522.52921  0.019310023  0.018936904            8 
 2256000    0.8990107   -7.6350335    523.09042  0.019322193  0.018930517            8 
 2257000   0.90110845   -7.5935439    525.32779  0.019396241  0.018924167            8 
 2258000   0.90621542    -7.594371    524.76874  0.019367019  0.018917786            5 
 2259000   0.90420807   -7.6632068    522.85669  0.019287911  0.018911419           12 
 2260000   0.88789328   -7.6122465    523.67266  0.019309464  0.018905015            9 
 2261000   0.86817926   -7.6602067    522.84236  0.019270321  0.018898605            4 
 2262000   0.87765366   -7.6389407    522.77033  0.019259148  0.018892249           13 
 2263000   0.88596321   -7.6423342    523.16925  0.019265328  0.018885929            4 
 2264000   0.88576901   -7.6557075    523.94553  0.019285392  0.018879599           20 
 2265000   0.89345168   -7.6333984    524.16342  0.019284894  0.018873283           13 
 2266000   0.88176206   -7.6100124    524.05072  0.019272239  0.018866997            3 
 2267000   0.89712687   -7.6222183    523.32265  0.019236974  0.018860702            7 
 2268000   0.89952679   -7.6295369    524.50771  0.019272035  0.018854383            3 
 2269000   0.87966101   -7.6403049    524.61668  0.019267544  0.018848099            7 
 2270000   0.90477708   -7.6355302    525.26655  0.019282913  0.018841833           20 
 2271000   0.87661556   -7.6164496    523.94566  0.019225953  0.018835518            7 
 2272000   0.87875356   -7.6478236      523.638  0.019206206  0.018829197           10 
 2273000   0.89409608   -7.6379423    523.98531  0.019210489  0.018822837            5 
 2274000   0.88146907   -7.6528735    523.45635  0.019182657  0.018816533           11 
 2275000    0.8988691   -7.6701085    522.48351   0.01913859  0.018810148            7 
 2276000    0.8837049   -7.5951341    525.45087  0.019238828  0.018803849           11 
 2277000   0.88587067    -7.609353    525.58722  0.019235369  0.018797564           16 
 2278000   0.89764965   -7.6381435    524.50776  0.019187436  0.018791278            9 
 2279000   0.89763835   -7.6107346     526.2918  0.019244252  0.018784965            6 
 2280000   0.89363651   -7.6761803    523.75562  0.019143115  0.018778613           15 
 2281000   0.88913765   -7.6704811    523.65659  0.019131104  0.018772296           14 
 2282000   0.88759451   -7.6371173    525.51495  0.019190584  0.018765995            6 
 2283000   0.89018828    -7.633195    525.43219  0.019179157   0.01875973           13 
 2284000   0.89613352   -7.6038774    526.34103   0.01920392  0.018753535            5 
 2285000   0.87296421    -7.606248     526.4511   0.01919953  0.018747333            5 
 2286000   0.88752102    -7.624237    525.01684  0.019138847  0.018741077            9 
 2287000    0.8957233   -7.6542514    524.65532  0.019117305  0.018734796           13 
 2288000   0.90029043   -7.6098607     526.0425  0.019159473   0.01872849            6 
 2289000   0.88040388   -7.6127517    525.26058  0.019122636  0.018722223           12 
 2290000   0.88310782   -7.6493919    523.72515  0.019058412  0.018715937           10 
 2291000   0.89821694   -7.6734801    524.98148  0.019095791  0.018709614            9 
 2292000   0.89803084   -7.6581096    523.20693   0.01902294  0.018703278            5 
 2293000   0.90034269   -7.6350922    524.86975  0.019075074  0.018696953            3 
 2294000   0.88271861   -7.6244097     525.3318  0.019083544  0.018690649           11 
 2295000   0.87710341   -7.6778592    524.54709  0.019046735  0.018684329            8 
 2296000   0.87741842   -7.6640573    525.44288  0.019070952  0.018677985           16 
 2297000   0.87993826   -7.6645723    524.32394  0.019022056   0.01867162            4 
 2298000   0.86335087    -7.629828    525.48992   0.01905606  0.018665325            4 
 2299000   0.88993989   -7.6387079     525.5629  0.019050417  0.018659081            8 
 2300000   0.89165811   -7.6289492    527.29707  0.019104966  0.018652802            8 
 2301000   0.89724104   -7.6794717    524.10679  0.018981124  0.018646588            7 
 2302000   0.90578798   -7.6596244    525.73183  0.019031705  0.018640316            3 
 2303000   0.86887114   -7.6347795    526.06955  0.019035662  0.018634047            3 
 2304000   0.87835172   -7.6030295    526.79788  0.019053743  0.018627799           13 
 2305000   0.87966981   -7.6794462    524.60837  0.018966319  0.018621561            8 
 2306000   0.88108535   -7.6393127    527.39033  0.019058627  0.018615283            9 
 2307000   0.87484682   -7.6469647    526.75511  0.019027421  0.018609014           17 
 2308000   0.89608475   -7.6356655    526.65724  0.019015643  0.018602726           12 
 2309000   0.88487897   -7.6104211    528.17147  0.019062057  0.018596478            6 
 2310000   0.87197688   -7.6450978    526.81256  0.019004782  0.018590287            8 
 2311000   0.88871744   -7.6114556    527.41121  0.019018146  0.018584061            5 
 2312000   0.89651465   -7.6491427    526.91538  0.018992048  0.018577836            4 
 2313000   0.88726777   -7.6229501    528.87536  0.019054452  0.018571663            7 
 2314000    0.8808505   -7.6188491    528.23782  0.019023258  0.018565482            5 
 2315000   0.87356361   -7.6548243    527.03158  0.018971619  0.018559278            4 
 2316000   0.87966962    -7.609896    528.11597  0.019002446  0.018553102            6 
 2317000   0.88948212   -7.7021276    526.50787  0.018936407   0.01854689           14 
 2318000    0.8744868   -7.6162254    528.04929  0.018983653  0.018540698           10 
 2319000   0.87145891   -7.6697855    527.64198   0.01896083  0.018534545            5 
 2320000   0.87746405   -7.6153561    527.56973  0.018950062  0.018528329            5 
 2321000   0.88005322   -7.6430467    528.61133  0.018979295  0.018522141           10 
 2322000   0.88775174   -7.6588113    528.23177    0.0189575  0.018515937            5 
 2323000   0.89506955   -7.6424595    528.00868  0.018941336  0.018509707            4 
 2324000   0.90174536   -7.6302991    528.15705  0.018938506  0.018503528            3 
 2325000   0.87339149   -7.6573526    529.01532  0.018961122  0.018497338           15 
 2326000   0.88120713   -7.6753525     527.6228  0.018903081  0.018491159           10 
 2327000   0.89245073   -7.6409713    527.93814  0.018906251  0.018485008           12 
 2328000    0.8794112   -7.6664365    528.50758  0.018918513  0.018478857            5 
 2329000   0.86444975   -7.6316745    528.84538  0.018922477  0.018472698            7 
 2330000    0.8842881   -7.6694604    527.94138  0.018882023   0.01846655           11 
 2331000   0.89577752   -7.6200734    528.43139  0.018891441  0.018460385           14 
 2332000   0.86301987   -7.6638099    527.66661  0.018856011  0.018454205            9 
 2333000   0.89273672   -7.6258636    530.23199  0.018939562  0.018448026            7 
 2334000   0.88327952   -7.6552462    528.26321  0.018861154  0.018441866            9 
 2335000   0.87324448   -7.6724724    528.79759  0.018872148  0.018435644           20 
 2336000   0.87102988   -7.6474399    527.94575  0.018833681   0.01842945           16 
 2337000   0.88264451   -7.6632232    527.68189  0.018816214  0.018423235            4 
 2338000   0.87412496   -7.7051806    527.90508   0.01881612  0.018416986           17 
 2339000   0.88043566   -7.6519507    529.78375  0.018875009  0.018410773            5 
 2340000    0.8822911    -7.646007    529.33341  0.018850905    0.0184046            8 
 2341000    0.8641161   -7.6930985    528.47777  0.018812394  0.018398398            7 
 2342000   0.87401157   -7.6430941     529.0198  0.018823648  0.018392218            4 
 2343000    0.8816386   -7.6422367    530.33154  0.018862269  0.018386071            7 
 2344000   0.87845448   -7.6606724    530.22443  0.018850413  0.018379941           11 
 2345000   0.85878173   -7.6856177    528.63478  0.018785884   0.01837379           14 
 2346000   0.89405385   -7.6939486    529.08232  0.018793774    0.0183676            7 
 2347000   0.87309327   -7.6962698    529.13342  0.018787581  0.018361415            4 
 2348000   0.87882705   -7.6692964    528.96222  0.018773503  0.018355197            5 
 2349000   0.88425257   -7.6697904    529.07085  0.018769365  0.018348994           18 
 2350000   0.86856645    -7.695904    527.86853  0.018718742  0.018342807           10 
 2351000   0.87456696   -7.7016456    528.22698  0.018723486  0.018336538           10 
 2352000   0.86108722   -7.6826101    529.48767  0.018760192  0.018330308           12 
 2353000   0.88521932   -7.6892117    529.64117  0.018757656  0.018324091           11 
 2354000    0.8858962   -7.6364964    530.79244  0.018790443  0.018317958            9 
 2355000   0.87165952   -7.6644049    530.49684  0.018772004   0.01831186            9 
 2356000   0.87107553   -7.6620996    531.03484  0.018783066  0.018305753            7 
 2357000   0.88291413   -7.7003038    529.56037  0.018722966  0.018299646            8 
 2358000    0.8685041   -7.6563583    531.26762  0.018775361  0.018293552            5 
 2359000   0.89025166   -7.6781427    530.62657  0.018744757  0.018287417            7 
 2360000    0.8593934   -7.6949542    529.83242  0.018708772  0.018281251            6 
 2361000   0.88606848   -7.6916823    530.20927  0.018714149  0.018275105            6 
 2362000   0.88028811   -7.6824094     531.0982  0.018737588  0.018268931           15 
 2363000   0.87622839   -7.6807176    530.04501  0.018692517   0.01826283            7 
 2364000   0.87755268   -7.6966701    529.51876  0.018666059  0.018256697            5 
 2365000   0.87664342   -7.6703538    531.15755  0.018715911  0.018250538           15 
 2366000   0.87501887   -7.6769817    531.30041  0.018713032  0.018244393           20 
 2367000   0.85644446   -7.6976221    530.21512  0.018666917   0.01823828            9 
 2368000   0.86177588   -7.6926416      529.288  0.018626408  0.018232143           19 
 2369000   0.85188823   -7.7006522    530.05096  0.018645383  0.018225992           15 
 2370000   0.87009288    -7.689188    530.08166  0.018638595  0.018219839           27 
 2371000   0.90668721   -7.7338155    529.28882  0.018602869   0.01821364           18 
 2372000    0.8797349   -7.7043165    529.60463  0.018606121  0.018207473           37 
 2373000   0.86681938    -7.659464    531.17927  0.018653577  0.018201288            7 
 2374000   0.86320774   -7.6960704    530.36384  0.018617096  0.018195138           11 
 2375000   0.88206145   -7.7068456    530.41349  0.018610999  0.018189002           18 
 2376000   0.88496325   -7.7096662     531.7447  0.018649856  0.018182839           13 
 2377000   0.88888497   -7.6918271    530.78107  0.018608227  0.018176645            5 
 2378000   0.86517282    -7.696192    532.03017  0.018644175  0.018170489            9 
 2379000   0.85965654    -7.715467     530.8179  0.018593873  0.018164302            8 
 2380000   0.85736671   -7.7362986    529.45604  0.018538377  0.018158091            7 
 2381000   0.86607229   -7.7161138    530.40127  0.018563673  0.018151858            8 
 2382000   0.88978633   -7.7390401    530.94206  0.018574799  0.018145646            7 
 2383000   0.89334944    -7.690168    531.81599  0.018597566  0.018139403            6 
 2384000   0.88135923   -7.6994896    530.43797  0.018541596  0.018133208            8 
 2385000   0.87838903   -7.7009295    531.25465  0.018562357  0.018127064            5 
 2386000    0.8690459   -7.6756044    531.08654  0.018548706  0.018120874            6 
 2387000   0.85823292   -7.6779047    531.50419  0.018555516  0.018114702           11 
 2388000   0.87725217   -7.7421131    530.69171  0.018519392  0.018108514           18 
 2389000   0.85096799   -7.7206566    529.90886  0.018484333   0.01810233           13 
 2390000   0.87207247   -7.6722165    530.53049  0.018498274   0.01809614           15 
 2391000   0.88279985   -7.6929834    532.13767  0.018546552   0.01808998           11 
 2392000   0.87312524   -7.7164034    530.94844  0.018497367  0.018083839            6 
 2393000   0.85032776   -7.7174204    531.21255  0.018498835  0.018077671           12 
 2394000   0.86998097   -7.7214986    531.16315  0.018489389  0.018071527            4 
 2395000   0.85469864   -7.6658566    531.05818  0.018478016  0.018065359           10 
 2396000   0.86097532    -7.721462     532.4212   0.01851771  0.018059198            6 
 2397000   0.87322243   -7.6999378    531.53059  0.018479022   0.01805303           13 
 2398000   0.87552286   -7.7359344    530.20782  0.018425348  0.018046847           15 
 2399000   0.88708928   -7.7041783    532.18954  0.018486506  0.018040673            9 
 2400000    0.8820774   -7.6837292    532.09396  0.018475485  0.018034513           11 
 2401000    0.8637381   -7.7101147    532.22659  0.018472393  0.018028361            9 
 2402000   0.87508224   -7.7296594     531.1824  0.018428476  0.018022185           14 
 2403000   0.86648915   -7.7192865    531.31254   0.01842532  0.018016015            9 
 2404000   0.88686654   -7.7009337    531.93047  0.018439076  0.018009885           10 
 2405000   0.87507472   -7.6601478    533.36832  0.018481231  0.018003755            5 
 2406000   0.87162739   -7.6975468    531.67375  0.018414857  0.017997624            4 
 2407000    0.8660483   -7.7202361    531.66483  0.018406897  0.017991471           12 
 2408000   0.87301887   -7.6882961     531.7858   0.01840344  0.017985305           11 
 2409000   0.87709391   -7.6849331     533.2377  0.018446025  0.017979137            5 
 2410000   0.85048998   -7.6869346    532.74226   0.01842124  0.017973015            6 
 2411000   0.84624206   -7.7453894    530.29372  0.018328969  0.017966838            6 
 2412000   0.86723955   -7.6943409    532.16741  0.018386105  0.017960694            7 
 2413000   0.87682239   -7.7184941    531.36099  0.018350635  0.017954532           10 
 2414000   0.86494072   -7.7093611    532.93394  0.018397333  0.017948397            8 
 2415000   0.86802625   -7.7260102    531.50362  0.018340359  0.017942262            9 
 2416000   0.85333658   -7.7284646    531.72309  0.018340338  0.017936116            4 
 2417000   0.86549869   -7.7408534     532.9243  0.018374166  0.017929954            8 
 2418000    0.8444432   -7.7154495    532.46772  0.018350831  0.017923805           10 
 2419000   0.84444557   -7.7482583    532.62496  0.018348662  0.017917638            3 
 2420000   0.85515866   -7.7535594    531.06144   0.01828724  0.017911447            8 
 2421000   0.88564762   -7.7347594    532.20538  0.018319062  0.017905234           18 
 2422000   0.88358334    -7.723473    533.51818  0.018356667  0.017899098           11 
 2423000   0.86186079   -7.7324281    531.78021  0.018289318  0.017892915           11 
 2424000   0.84091654   -7.7117904    534.20147  0.018365012  0.017886761           18 
 2425000   0.86918861   -7.7597477    532.04534  0.018283345  0.017880645           26 
 2426000   0.85442638   -7.7104208    532.21626   0.01828168  0.017874528           22 
 2427000    0.8753133   -7.7411438     531.9729  0.018265791  0.017868355           35 
 2428000   0.86266664   -7.7468572     531.8958  0.018255622  0.017862228           33 
 2429000   0.84976842   -7.7390886    534.16704  0.018326027  0.017856074           17 
 2430000   0.85935439   -7.7552279    532.07822  0.018246853  0.017849944           23 
 2431000   0.87701578   -7.7462303    533.98982  0.018304875  0.017843784           16 
 2432000   0.85053269   -7.7295499     532.9187  0.018260646  0.017837616           15 
 2433000   0.86343763   -7.7674839    533.04988  0.018257634  0.017831507           10 
 2434000   0.85391472   -7.7716358    531.72365  0.018204726  0.017825303           30 
 2435000   0.85047269   -7.7488279    533.08452  0.018243823   0.01781914           17 
 2436000    0.8695315   -7.7637836    532.63608  0.018220993   0.01781301           23 
 2437000   0.86892996   -7.7635963    532.33591  0.018203252  0.017806881           28 
 2438000   0.86156387    -7.726812      535.287  0.018296657  0.017800746           33 
 2439000   0.85395321    -7.725067    534.54278  0.018263728  0.017794639           29 
 2440000   0.85515192   -7.7258481    533.82544  0.018231743  0.017788515           26 
 2441000   0.86641365    -7.750446    533.22455  0.018203761  0.017782433           25 
 2442000   0.84834208   -7.7209475    534.94126  0.018254889  0.017776317           11 
 2443000   0.84838554   -7.7195716    534.84728  0.018244211   0.01777024           17 
 2444000   0.86667638   -7.7228226    533.49131  0.018190511  0.017764201           16 
 2445000   0.85127108   -7.7167107    535.30556  0.018244906   0.01775818           12 
 2446000   0.87249587      -7.7158    533.69165  0.018182463  0.017752173           32 
 2447000   0.85301843   -7.7147915    534.71687  0.018209947  0.017746136           14 
 2448000   0.87215678   -7.7157754    534.38242  0.018191123  0.017740081           22 
 2449000    0.8457212   -7.6967316    535.98615  0.018238266  0.017734022           13 
 2450000   0.85138336   -7.6982971    534.80151  0.018190528  0.017727979            4 
 2451000   0.85104004   -7.7023078     535.1745  0.018195787  0.017721953            6 
 2452000   0.85424011   -7.7274959    535.04659  0.018184019  0.017715895           13 
 2453000   0.86133813    -7.743001    534.75193  0.018166596  0.017709791           13 
 2454000   0.86889375   -7.7466041    533.81556  0.018127396  0.017703726           23 
 2455000   0.84971587   -7.7491862    534.84049  0.018154803  0.017697626           12 
 2456000   0.84321987   -7.7255155    534.92881  0.018150408  0.017691541           10 
 2457000   0.84986134    -7.746303    535.06282  0.018147565  0.017685451            5 
 2458000   0.84002183   -7.7586589    535.68941  0.018161426  0.017679409           10 
 2459000   0.86269846   -7.7509363    534.90312  0.018127393  0.017673351           10 
 2460000   0.85945177   -7.7520963    534.91225  0.018120334  0.017667266           23 
 2461000   0.88265814   -7.7305938    534.96545  0.018114772  0.017661198            9 
 2462000   0.85455482   -7.6866962    535.57205  0.018127946  0.017655174            8 
 2463000   0.85881204   -7.7523217    534.69071  0.018090767  0.017649103            6 
 2464000   0.86695009   -7.7484983    535.71159  0.018117951  0.017643043           20 
 2465000   0.85973418   -7.7093729    534.95363  0.018084977  0.017636968           14 
 2466000    0.8616867   -7.7587303    534.49137  0.018062023  0.017630865           20 
 2467000   0.86897731   -7.7447069    534.29608  0.018048104  0.017624705           19 
 2468000    0.8657015   -7.7517281    533.85551  0.018025916  0.017618568           16 
 2469000   0.86854225   -7.7987576    534.40846  0.018037278  0.017612432            8 
 2470000    0.8490112   -7.7654404    534.91053  0.018046914  0.017606327            7 
 2471000   0.86484383   -7.7448894    536.83401  0.018104479  0.017600249            7 
 2472000   0.85811803   -7.7773362    534.33503  0.018012912  0.017594143            5 
 2473000   0.84555768   -7.7395214    536.81441  0.018089177  0.017588043            9 
 2474000   0.86666282   -7.7331916    535.22201  0.018028227  0.017581928           10 
 2475000   0.83725029   -7.7461145    535.73366   0.01803817  0.017575837            5 
 2476000   0.86097221   -7.7460176    536.63989  0.018061386  0.017569773            5 
 2477000   0.84843294   -7.7601229    535.66945  0.018021446  0.017563713           12 
 2478000   0.84359447   -7.7322553    534.96078  0.017990341  0.017557649           31 
 2479000   0.84260647   -7.7606691    535.72547  0.018008789  0.017551558           10 
 2480000   0.86433461   -7.7867328    534.91102  0.017974161  0.017545483           12 
 2481000   0.84586044   -7.7699081    536.36222   0.01801566  0.017539397            7 
 2482000    0.8480927    -7.726488    536.60274  0.018016476  0.017533355            9 
 2483000   0.87264641    -7.745532    536.31105  0.017999431  0.017527334            4 
 2484000   0.85207634   -7.7070024    536.94779  0.018013546  0.017521342            6 
 2485000   0.85462864   -7.7127616      536.856  0.018003219  0.017515329            5 
 2486000    0.8429404   -7.7227194    536.86743  0.017996361  0.017509302           11 
 2487000   0.84814687   -7.7683713    536.50535  0.017976992  0.017503358            6 
 2488000   0.84068213   -7.7447989    536.88873  0.017982607  0.017497413           11 
 2489000   0.86405036   -7.7547112    536.38281  0.017958444  0.017491439            7 
 2490000    0.8363587   -7.7666852     536.2375  0.017946369   0.01748548            7 
 2491000   0.84735906   -7.7512243    536.21601  0.017938445   0.01747949            3 
 2492000   0.86350592   -7.7516645    537.16017   0.01796282  0.017473522            8 
 2493000   0.84999862   -7.7430561    536.37403  0.017929336  0.017467545            5 
 2494000   0.85925328   -7.7531021    536.59435  0.017929509  0.017461563            6 
 2495000     0.852126   -7.7729322    537.43267  0.017950323  0.017455543           18 
 2496000   0.85612267   -7.7475374    536.51831  0.017912604  0.017449514           12 
 2497000   0.85129865    -7.755824    537.65801  0.017943466  0.017443497           12 
 2498000   0.85929672   -7.7773842    535.67949  0.017870279  0.017437421           21 
 2499000   0.84172162   -7.8030028     537.3415  0.017918551  0.017431363           11 
 2500000   0.85510697   -7.7898644    535.83808  0.017861269  0.017425318           35 
 2501000   0.84699051   -7.7589345    537.36147  0.017904887   0.01741926           25 
 2502000    0.8571123   -7.7996948    537.36668  0.017897904  0.017413266           14 
 2503000   0.85430335   -7.7562541    536.18298  0.017851344   0.01740724           33 
 2504000   0.84276638   -7.7425008    537.80705  0.017898264  0.017401244           26 
 2505000   0.85099382   -7.7344108     538.8194  0.017924797  0.017395242           11 
 2506000   0.84823822   -7.7624522    537.66432  0.017879234  0.017389207           13 
 2507000   0.84011893   -7.7780276    536.82273  0.017844127  0.017383168           17 
 2508000   0.84455431   -7.7570089    538.20307  0.017882877  0.017377169           12 
 2509000   0.85573862   -7.7733972    537.04164  0.017837174  0.017371173           16 
 2510000   0.85638874   -7.7885325    537.39593   0.01784183  0.017365191           10 
 2511000   0.87339849   -7.7520232    537.81931  0.017848776  0.017359234           22 
 2512000   0.82979644   -7.7667461    538.40075  0.017860959  0.017353281           20 
 2513000   0.86147894   -7.7681226    537.91385  0.017837706  0.017347345           16 
 2514000   0.83244386   -7.7902842    535.47613  0.017749805  0.017341393           11 
 2515000   0.83501396   -7.7575415    538.32486  0.017837139  0.017335415            7 
 2516000    0.8356018   -7.7821395    536.42766  0.017767212  0.017329435            9 
 2517000   0.85253136     -7.75563    538.29791  0.017822074  0.017323465           16 
 2518000    0.8549496   -7.7831395    536.65773  0.017760714  0.017317463           13 
 2519000   0.83978117   -7.7560134    537.97058  0.017797095  0.017311448            8 
 2520000   0.86776929   -7.7685987    537.45536  0.017772995  0.017305417           19 
 2521000   0.83835985    -7.767544    538.47085  0.017799512  0.017299405           13 
 2522000   0.85583527   -7.7731003    538.13567  0.017781379  0.017293384           11 
 2523000    0.8548146   -7.7662675    538.24792  0.017778039  0.017287379           19 
 2524000   0.86064583   -7.7679988    538.20125  0.017769455  0.017281379            9 
 2525000   0.84274283   -7.7526114    538.59477  0.017775405  0.017275429            9 
 2526000   0.84672344   -7.7603762    537.90123  0.017745488  0.017269463           12 
 2527000   0.85886898   -7.7811411    538.37627  0.017754131   0.01726349           10 
 2528000    0.8312206   -7.7284482    538.26956   0.01774359  0.017257528            6 
 2529000   0.83565598   -7.7380486    539.65369  0.017782183  0.017251568           10 
 2530000   0.83545051   -7.7410419    539.53249  0.017771162  0.017245637           12 
 2531000   0.86731116   -7.7415724     538.7902  0.017739701  0.017239671            6 
 2532000    0.8329357   -7.7334741     540.8588  0.017800777  0.017233722            9 
 2533000   0.87126743   -7.7803985     537.4272  0.017680853  0.017227771            6 
 2534000   0.84779377   -7.7665952    537.62579  0.017680406  0.017221779            5 
 2535000   0.84162154   -7.7595549    539.25476  0.017726981  0.017215808            7 
 2536000   0.84989008   -7.7965064    537.18515  0.017651983  0.017209829            8 
 2537000   0.83183498    -7.772289    537.51215  0.017655766  0.017203847           15 
 2538000   0.83160825   -7.8059842    538.51779  0.017681829  0.017197882           15 
 2539000   0.83479485   -7.7969229    537.64089  0.017646084  0.017191883            5 
 2540000   0.85896214   -7.7693413    538.72399  0.017674672  0.017185918           12 
 2541000   0.85098527   -7.8032054    537.53227  0.017628633  0.017179944            5 
 2542000   0.85245514   -7.7868524    538.34281  0.017648269  0.017173933            9 
 2543000   0.83406468    -7.807189     537.7118  0.017620651  0.017167927           10 
 2544000   0.85077946    -7.797515    538.05128  0.017624845  0.017161893            8 
 2545000   0.84337398    -7.785738    538.15983  0.017621474   0.01715586            9 
 2546000   0.86520078   -7.8032808    537.55517  0.017594762  0.017149845           24 
 2547000   0.83877188   -7.7998161    538.09231  0.017605428  0.017143887           49 
 2548000   0.85198671   -7.7800492    538.52783  0.017612762  0.017137884           45 
 2549000   0.81998184   -7.7990101    537.71669  0.017579335  0.017131888           17 
 2550000   0.83545342   -7.8026264    539.74027  0.017638571  0.017125879           33 
 2551000   0.84038722   -7.7682749    538.58844   0.01759403  0.017119857           48 
 2552000   0.84093501   -7.7560777    539.10242  0.017603919  0.017113865           24 
 2553000   0.84631327   -7.7797403    539.97758   0.01762559  0.017107874            9 
 2554000    0.8474587    -7.819181    538.32297  0.017564702  0.017101867           32 
 2555000    0.8353295   -7.7704787    539.33151  0.017590721  0.017095853           39 
 2556000   0.83752858   -7.8037207    539.21989    0.0175802   0.01708984           21 
 2557000   0.83630161   -7.7805599    540.07062   0.01760105   0.01708382           21 
 2558000    0.8537083   -7.7841378    537.74541   0.01751842  0.017077874           15 
 2559000    0.8328772   -7.7642339     539.1672  0.017557874  0.017071906           33 
 2560000   0.84498735   -7.7568902    540.68435  0.017600402  0.017065933           43 
 2561000   0.83033296   -7.7950487    538.85974  0.017534158  0.017059972           32 
 2562000   0.82668088   -7.8132933    538.49619  0.017515489  0.017053977           38 
 2563000    0.8070413   -7.8157296    538.90583  0.017521974  0.017048006           10 
 2564000   0.85005989   -7.7898126    537.80298  0.017479296   0.01704203           17 
 2565000   0.85651411   -7.7921218    539.16859  0.017516848  0.017036053           17 
 2566000   0.85250343   -7.7791084    539.51403   0.01752124  0.017030073           12 
 2567000   0.83110835   -7.7755756    540.35709  0.017541783  0.017024103           11 
 2568000   0.83798895   -7.7783859    538.69402  0.017480984  0.017018145           12 
 2569000   0.83182909    -7.810182    539.95103  0.017514955  0.017012194           42 
 2570000   0.85067937   -7.7809824    540.13829  0.017514212   0.01700625           49 
 2571000   0.84805223   -7.7905638    539.64751  0.017491492  0.017000304           19 
 2572000   0.82433955   -7.7651313    540.46384  0.017511141  0.016994351           35 
 2573000   0.83826062   -7.7603704    540.41742  0.017502831  0.016988427           27 
 2574000   0.84562976   -7.7913153    539.13487  0.017454509  0.016982498           22 
 2575000   0.86163243   -7.8041475    539.22547  0.017450662  0.016976557           40 
 2576000   0.84369878    -7.785151    539.67218  0.017458339  0.016970654           37 
 2577000    0.8190116   -7.7916174    539.45376  0.017444501  0.016964703           17 
 2578000   0.82366917   -7.7769824    540.42313  0.017469069    0.0169588           13 
 2579000   0.81768446   -7.8100711    540.15112  0.017453507  0.016952842            7 
 2580000   0.83265621   -7.7985822    539.48661  0.017425278  0.016946886           20 
 2581000    0.8238106   -7.7896033    539.91505   0.01743236  0.016940904           40 
 2582000   0.84898374   -7.7980051     539.9206  0.017425788  0.016934924           38 
 2583000   0.83602911   -7.7994837    538.86618  0.017385023  0.016928942           60 
 2584000   0.82956307   -7.8242774    539.45565  0.017397306  0.016922937           38 
 2585000   0.84971455   -7.8145533    539.42054  0.017389443  0.016916955           35 
 2586000   0.84501286   -7.8229288    538.54368  0.017354463  0.016910909           56 
 2587000   0.83280224   -7.7941823    540.77861  0.017419746  0.016904942           60 
 2588000    0.8187304   -7.7927006    539.56307  0.017373875  0.016898972           58 
 2589000    0.8339196   -7.8165073    539.78884  0.017374431  0.016893017           38 
 2590000   0.84311353   -7.8043963    540.34953  0.017385764  0.016887069           61 
 2591000   0.84723522   -7.8058454    540.26707  0.017376401  0.016881136           44 
 2592000   0.84069539   -7.7931123    539.72967   0.01735242    0.0168752           22 
 2593000   0.83363048   -7.8021505     540.0637  0.017356463  0.016869296           55 
 2594000   0.83974968   -7.7661057    541.79021  0.017405237  0.016863384           12 
 2595000   0.84827875    -7.821474    540.25923  0.017349365   0.01685748           19 
 2596000   0.85368886    -7.817167    540.40082  0.017347227  0.016851541           15 
 2597000   0.82677161   -7.7959876    541.51637  0.017376344  0.016845647           24 
 2598000   0.84409167   -7.8169586    540.00019  0.017321022  0.016839754           25 
 2599000   0.81477067   -7.8188536    540.27606  0.017323203  0.016833831           17 
 2600000   0.83577525   -7.7632501    541.60376  0.017359095  0.016827922           20 
 2601000   0.82806272   -7.8309788    540.25125  0.017309088  0.016822025           21 
 2602000   0.83263213   -7.8098401     540.9938  0.017326217  0.016816144           23 
 2603000   0.82555048    -7.796398    540.93208  0.017317585  0.016810221           17 
 2604000   0.83902893   -7.7906066    539.47305  0.017264242  0.016804295           13 
 2605000   0.83660989   -7.8019067    541.45317  0.017320959  0.016798392            8 
 2606000   0.83259701   -7.7945004    540.57524  0.017286238  0.016792509           13 
 2607000   0.81291997    -7.780115    542.73731  0.017348718  0.016786602           23 
 2608000   0.82817585   -7.8382587    540.42182   0.01726808  0.016780705           12 
 2609000   0.83383991   -7.8070912    540.85061  0.017275157  0.016774828           14 
 2610000   0.84248627    -7.832151    540.77289  0.017266057  0.016768977            7 
 2611000   0.84203539   -7.8102733    541.54347  0.017284038  0.016763113           18 
 2612000    0.8401682   -7.8092204    541.38827  0.017272469  0.016757217            9 
 2613000   0.82746313   -7.8464232    540.95967   0.01725219   0.01675133           16 
 2614000   0.82003714   -7.8091171    540.75506  0.017239067  0.016745461           11 
 2615000   0.84191009   -7.7990495    542.37685  0.017284157  0.016739619            6 
 2616000   0.81974626   -7.8453764    541.99529  0.017265395   0.01673375           14 
 2617000   0.83553875   -7.8049214    541.97302  0.017258089  0.016727904           14 
 2618000   0.82165667   -7.8272871    541.97218   0.01725147  0.016722064           14 
 2619000   0.81776603   -7.7932148    543.10881  0.017281049  0.016716211           10 
 2620000    0.8259563   -7.7907621     542.0073  0.017239418  0.016710399           12 
 2621000   0.82571288   -7.8116181    541.75275  0.017224747  0.016704535            4 
 2622000   0.82484337   -7.8061055    541.52619  0.017210977  0.016698698            6 
 2623000      0.83597   -7.8198678     542.2501  0.017227415  0.016692853            5 
 2624000   0.84321594   -7.8414102    541.70843  0.017203647  0.016686985            4 
 2625000   0.82684649   -7.8155847    541.81496  0.017200475  0.016681145           11 
 2626000   0.83722854   -7.8098162    542.67384   0.01722118   0.01667532           16 
 2627000   0.82143284   -7.8237845    541.72008   0.01718437  0.016669501           14 
 2628000   0.83887313    -7.793852    542.13987  0.017191142  0.016663702           22 
 2629000   0.82611499   -7.7760104    543.01353  0.017212297  0.016657892           14 
 2630000   0.84523284    -7.783327    541.44324  0.017155996  0.016652052           28 
 2631000    0.8382553   -7.7814247    542.82578  0.017193265  0.016646242           13 
 2632000   0.83178322   -7.8270275    542.43168  0.017174255  0.016640432            8 
 2633000   0.84668177   -7.7872103    543.77101  0.017210122   0.01663461            8 
 2634000   0.83500702   -7.8206985    543.32074  0.017189343  0.016628822           13 
 2635000    0.8130686    -7.820233    542.61777  0.017160587  0.016623022            6 
 2636000   0.82868891   -7.8117237    542.59175  0.017153255  0.016617216            9 
 2637000   0.81285807   -7.8518007    541.03168  0.017097449  0.016611378            8 
 2638000    0.8236872   -7.8447682    541.85191  0.017116878  0.016605526            7 
 2639000   0.82213039   -7.8317059    543.23737  0.017154142  0.016599683            7 
 2640000   0.83089866   -7.8565293    542.63501  0.017128631   0.01659381           10 
 2641000   0.83050564   -7.8312476    542.67568  0.017123428  0.016587965            9 
 2642000   0.81984464   -7.8035647    543.35287  0.017138307  0.016582134           27 
 2643000   0.82926417   -7.8148193    541.97652  0.017088426  0.016576272           29 
 2644000   0.81915431   -7.8326874    542.29501  0.017092001  0.016570427           14 
 2645000   0.83425729   -7.8060806    542.95082  0.017106201  0.016564588           24 
 2646000   0.84069759   -7.8463899    541.01702  0.017038833  0.016558752           42 
 2647000    0.8247323   -7.8525427    542.55654  0.017080863  0.016552901           47 
 2648000   0.83853393   -7.8475412    541.99354  0.017056695  0.016547004           16 
 2649000    0.8347642   -7.8446588    542.43164  0.017064038  0.016541127           21 
 2650000   0.81344648   -7.8485817    542.23966  0.017051562  0.016535266           20 
 2651000   0.81966891   -7.8342214    541.02662  0.017006998  0.016529386           10 
 2652000   0.80920232   -7.8324387    543.33421  0.017073096  0.016523523           45 
 2653000   0.84882643   -7.8762092    541.69391  0.017015137  0.016517644           59 
 2654000    0.8257439   -7.8371883    542.51049  0.017034366  0.016511787           39 
 2655000   0.83694317   -7.8578229     542.4933  0.017027411  0.016505933           55 
 2656000   0.80242553   -7.8713341    542.10584  0.017008843  0.016500079           19 
 2657000   0.82922272   -7.8473367    543.70157  0.017052489  0.016494211           70 
 2658000   0.81695737   -7.8585924    542.29356   0.01700193  0.016488367           51 
 2659000    0.8115894   -7.8836696    541.16455  0.016960152  0.016482489           79 
 2660000   0.83360055   -7.8465341    542.67618  0.017001133   0.01647662           71 
 2661000   0.82825323   -7.8550263     541.5522  0.016959545  0.016470768           94 
 2662000   0.84111248   -7.8432954    542.17418  0.016972645  0.016464906           96 
 2663000   0.81561211   -7.8540779    542.63098  0.016980566  0.016459044          132 
 2664000   0.81331519   -7.8747538     543.0639  0.016987735  0.016453175          129 
 2665000   0.82137193   -7.9072849    540.87383  0.016912878  0.016447268          120 
 2666000   0.84228858   -7.8815276    541.46464  0.016925001  0.016441355           88 
 2667000   0.82677445   -7.8753275    542.56427  0.016953014  0.016435439          107 
 2668000   0.81267896   -7.9220398    540.74323  0.016889781    0.0164295          116 
 2669000   0.83787487   -7.8684945    542.82185  0.016948353  0.016423588          109 
 2670000   0.82428388   -7.8787737    541.69473  0.016906827  0.016417704          152 
 2671000   0.81793347   -7.9025418    541.80444   0.01690392  0.016411796          154 
 2672000   0.82062958   -7.8858809     542.0002  0.016903699  0.016405926          121 
 2673000   0.82773079   -7.9012323    542.38595  0.016909401  0.016400068          134 
 2674000   0.81035642    -7.925363    541.54101  0.016876746  0.016394159          148 
 2675000   0.80508824   -7.8860176    542.03155  0.016885718  0.016388267          137 
 2676000    0.8267581   -7.9023425    541.03971  0.016848521  0.016382356          139 
 2677000   0.82025703   -7.8929984    541.87663   0.01686828  0.016376443          143 
 2678000   0.82767186   -7.8786392    543.54433  0.016913876  0.016370547          139 
 2679000   0.82477233   -7.9046857    541.38049  0.016840254  0.016364653          160 
 2680000   0.82390445   -7.9196299    541.76783  0.016846015  0.016358733          136 
 2681000   0.84617608   -7.8784207    540.76774  0.016808645  0.016352813          171 
 2682000   0.81450853   -7.9310719    540.32894  0.016788744  0.016346903          142 
 2683000   0.82630559   -7.9161588     541.3372  0.016813803  0.016340948          175 
 2684000   0.81877623   -7.9142936    540.76356  0.016789728  0.016335062          162 
 2685000   0.83901653   -7.9050172    541.42182  0.016803905  0.016329155          203 
 2686000   0.82591289   -7.8978123    541.59058  0.016802885  0.016323242          181 
 2687000   0.84368157   -7.9145068     541.2662  0.016786571  0.016317306          180 
 2688000   0.81358088   -7.9349287    541.66155  0.016792583  0.016311396          204 
 2689000   0.83463673   -7.9124173    542.46861  0.016811349  0.016305472          198 
 2690000   0.84299372   -7.9031359     543.0671   0.01682364  0.016299531          196 
 2691000   0.81031063   -7.9152025    541.97978  0.016783717  0.016293612          222 
 2692000   0.80088821   -7.9341882    540.44635  0.016730013   0.01628766          241 
 2693000   0.81300863   -7.9181645     542.2582  0.016779867  0.016281711          249 
 2694000   0.81787861   -7.9195378    541.39589  0.016746965  0.016275753          240 
 2695000    0.8383753   -7.9113792    542.77288   0.01678333  0.016269825          274 
 2696000    0.8324259   -7.9151109    542.62277  0.016772465  0.016263888          307 
 2697000   0.82271212    -7.908704    542.14909   0.01675161  0.016257953          276 
 2698000   0.82019878   -7.9270711    540.84534  0.016705132  0.016252028          286 
 2699000   0.81269421   -7.9670079    540.84011  0.016698781  0.016246073          303 
 2700000   0.81625772   -7.9461853    541.03173   0.01669851   0.01624014          249 
 2701000   0.81928069   -7.8969178    543.29513   0.01676216  0.016234255          246 
 2702000   0.81919506   -7.9073915    541.56788  0.016702686  0.016228381          317 
 2703000   0.83016228   -7.8940411    543.02841  0.016741534  0.016222517          306 
 2704000   0.82374368   -7.8991822     542.1659  0.016708762  0.016216653          371 
 2705000   0.83347102    -7.899218     542.4994  0.016712859   0.01621079          328 
 2706000   0.82294144   -7.9018042    543.48261  0.016736961  0.016204904          293 
 2707000   0.82095849   -7.9323429    541.38113  0.016666086  0.016199019          308 
 2708000   0.83555354   -7.9419424     541.2417  0.016655641  0.016193119          302 
 2709000   0.83007349   -7.9377778    542.11303  0.016676296  0.016187196          368 
 2710000   0.82765641   -7.9835102    540.39128  0.016617198  0.016181237          348 
 2711000    0.8309227   -7.9527815    542.03627  0.016661634  0.016175297          399 
 2712000   0.82785712   -7.9295398    542.56474  0.016671729  0.016169362          472 
 2713000   0.81845526   -7.9481652    541.63195  0.016636932  0.016163452          452 
 2714000   0.82422437   -7.9447026     542.9646  0.016671721  0.016157549          428 
 2715000   0.81343658    -7.950786    541.26615  0.016613449  0.016151628          458 
 2716000   0.81954397   -7.9734243    542.01183  0.016630211  0.016145673          486 
 2717000   0.80775397   -7.9921374    539.91463  0.016559767   0.01613972          529 
 2718000   0.81656058   -7.9714286    541.39204  0.016598971  0.016133766          530 
 2719000   0.83315964   -7.9668553      541.475  0.016595409  0.016127808          514 
 2720000   0.81394541     -8.00311    540.67038  0.016564656  0.016121853          553 
 2721000   0.80808667    -7.981996    541.93127  0.016597184  0.016115922          578 
 2722000   0.81343515   -7.9494195    541.88028  0.016589526  0.016109977          591 
 2723000   0.80469696   -7.9656408    542.63604  0.016606563  0.016104027          578 
 2724000   0.81886841   -7.9537393    541.84124  0.016576152  0.016098096          580 
 2725000   0.82210519   -7.9439039    542.58546  0.016592827  0.016092161          562 
 2726000   0.81490094   -8.0000497    540.36792  0.016518951  0.016086222          655 
 2727000    0.8301378   -8.0235094    539.91969  0.016499196  0.016080247          596 
 2728000   0.84093564   -7.9878237    540.47838  0.016510215  0.016074249          602 
 2729000   0.81741407   -8.0248589    541.44189  0.016533586  0.016068272          772 
 2730000   0.81023937   -7.9947661    542.01862  0.016545135  0.016062285          720 
 2731000   0.81513709   -7.9996017    541.77738  0.016531716  0.016056338          716 
 2732000   0.81501644   -8.0187547    540.31045  0.016480919  0.016050397          710 
 2733000   0.81686029   -7.9998175    542.08136  0.016528887  0.016044416          748 
 2734000   0.81799083   -7.9908781    540.49587  0.016474514  0.016038458          736 
 2735000   0.80821788   -8.0178846    540.82227  0.016478436  0.016032502          806 
 2736000   0.83001469   -8.0399304    541.23354   0.01648494  0.016026535          843 
 2737000   0.82218952   -8.0282063    540.29232  0.016450259  0.016020561          789 
 2738000   0.82886566   -8.0107365    540.80765  0.016459936  0.016014576          878 
 2739000   0.81257298   -8.0322633     541.0582  0.016461549  0.016008599          859 
 2740000   0.80903077   -8.0448593    541.00509  0.016453926   0.01600258          962 
 2741000   0.82429064   -8.0331498    541.12482  0.016451563  0.015996562         1034 
 2742000   0.83538408   -8.0809943    538.67118  0.016370994  0.015990532         1095 
 2743000   0.81659736   -8.0699187    539.39973  0.016387159  0.015984499         1083 
 2744000   0.83032902   -8.0552845    540.07209  0.016401606  0.015978457         1187 
 2745000   0.81513076   -8.0893852    539.80949  0.016387659  0.015972381         1195 
 2746000   0.79453496   -8.0862878    538.49288  0.016341736  0.015966307         1289 
 2747000   0.81563054   -8.0588741    539.44252  0.016364595  0.015960226         1297 
 2748000   0.81993491    -8.092608    538.63998  0.016334303  0.015954154         1291 
 2749000   0.80752163   -8.0997477    540.96351  0.016398797   0.01594805         1407 
 2750000   0.81522908   -8.1163309    538.59724  0.016321129  0.015941951         1405 
 2751000    0.8215458   -8.0898219    539.67033  0.016347702  0.015935831         1487 
 2752000   0.80857009   -8.1510369    537.90528  0.016288314  0.015929706         1531 
 2753000   0.81496831   -8.1409494    537.41321  0.016267502  0.015923539         1537 
 2754000   0.81007801   -8.1087892     538.6872  0.016300145  0.015917399         1629 
 2755000   0.80536427   -8.1687104    537.98115  0.016272872   0.01591124         1692 
 2756000   0.82397801   -8.1495176    537.41386  0.016249814  0.015905063         1740 
 2757000   0.79579242   -8.1716207    536.40005  0.016213277  0.015898886         1755 
 2758000   0.80446299   -8.1505883    537.43389  0.016238636  0.015892687         1882 
 2759000   0.80671999    -8.176254    537.09971  0.016222656  0.015886453         2000 
 2760000    0.8002149     -8.20574     536.1583  0.016188354  0.015880202         1851 
 2761000   0.81983141   -8.1779844    536.72403  0.016199566  0.015873977         1950 
 2762000   0.80194556   -8.2150578    535.97902  0.016171223   0.01586774         2070 
 2763000   0.81528537   -8.2113639    535.84212  0.016161241  0.015861482         1978 
 2764000   0.82442234   -8.2232912    535.55843  0.016146841  0.015855207         2137 
 2765000   0.80869175   -8.2246776    534.64128   0.01611336  0.015848905         2129 
 2766000   0.81591985   -8.2253904    536.53963  0.016164727  0.015842584         2208 
 2767000   0.82580956   -8.2527322     535.0928  0.016115311  0.015836247         2303 
 2768000   0.80721585   -8.2818707    534.79037  0.016100385  0.015829895         2336 
 2769000   0.80047593   -8.2580084    534.45434  0.016084457  0.015823526         2374 
 2770000   0.81425105   -8.2939313     534.1202  0.016068598  0.015817153         2506 
 2771000   0.79697183   -8.3057802     532.3425  0.016009338  0.015810733         2649 
 2772000   0.81783196   -8.3216981    532.60525  0.016011461   0.01580431         2654 
 2773000   0.82120424   -8.3207693    533.24202  0.016024823  0.015797858         2719 
 2774000   0.80842589   -8.3070567    533.97518  0.016041071  0.015791397         2687 
 2775000   0.78606647   -8.3031857    534.06901  0.016038108   0.01578491         2686 
 2776000   0.79888511   -8.3347584     532.9888  0.015999904  0.015778429         2759 
 2777000   0.80783465   -8.3110308    531.97921  0.015963846   0.01577195         2671 
 2778000   0.77925282     -8.34725    532.32651  0.015968518  0.015765472         2722 
 2779000   0.80461875   -8.3424911    532.62747  0.015971797   0.01575897         2782 
 2780000    0.7993713   -8.3449736    531.43609  0.015930338  0.015752458         2892 
 2781000   0.81513542   -8.3692067    531.73857  0.015933674  0.015745948         2910 
 2782000   0.80658263   -8.3664399    531.23515  0.015912867  0.015739432         2957 
 2783000   0.79290806   -8.3485196    531.75456  0.015922702  0.015732908         2880 
 2784000   0.80621688   -8.3404703    532.33786  0.015934443  0.015726392         2912 
 2785000   0.81396645    -8.360607    532.19951  0.015924581  0.015719882         2902 
 2786000   0.80885153   -8.3680129    531.75152  0.015905466  0.015713363         3064 
 2787000    0.8089043   -8.3865056    532.09899  0.015910148  0.015706829         2952 
 2788000   0.80206424   -8.3921716     531.6135   0.01588993  0.015700304         3022 
 2789000   0.81559806   -8.3576296    531.41968  0.015878441  0.015693768         2955 
 2790000   0.80058588   -8.3681719    531.20617  0.015866373  0.015687246         2998 
 2791000   0.82423296   -8.4007945    532.29074  0.015893071  0.015680726         2982 
 2792000   0.81366179   -8.3886619    530.95177  0.015847414  0.015674179         3038 
 2793000   0.80245432   -8.3830321    531.53885  0.015859257  0.015667643         3077 
 2794000   0.82503805   -8.4032237    530.68542  0.015828126  0.015661097         3094 
 2795000   0.81733288   -8.4213217    529.70516  0.015793237  0.015654538         3055 
 2796000   0.79295731   -8.3919676     531.5316  0.015842024   0.01564797         3071 
 2797000   0.81184965   -8.4029356    531.65982   0.01584018  0.015641399         3167 
 2798000   0.79896171   -8.4312204    530.58365  0.015802468  0.015634818         3154 
 2799000    0.8161219   -8.3961808    531.21528  0.015815627  0.015628237         3125 
 2800000    0.8259198    -8.417512      531.673  0.015823601  0.015621677         3206 
 2801000   0.80566949   -8.4070026    530.38772  0.015779713  0.015615101         3192 
 2802000    0.8075866   -8.4364516    532.17264  0.015827166  0.015608536         3198 
 2803000   0.79939954   -8.4268967    529.33987  0.015737301  0.015601966         3227 
 2804000   0.79133386    -8.423136     530.4192  0.015763766  0.015595393         3217 
 2805000   0.79379135   -8.4301632    531.00919  0.015775674  0.015588823         3263 
 2806000    0.7927888   -8.4343377    531.05057  0.015771281  0.015582254         3298 
 2807000   0.80997658   -8.4127625    530.09106  0.015737177  0.015575685         3250 
 2808000    0.7910081   -8.4170481    531.26174  0.015766315   0.01556911         3316 
 2809000   0.80353042   -8.4286369    529.92166  0.015720946  0.015562529         3298 
 2810000   0.79831058   -8.4687119    530.51554  0.015732964  0.015555942         3270 
 2811000   0.80038637   -8.4399828    530.69836  0.015732787  0.015549355         3288 
 2812000   0.78261511   -8.4073987    530.93888   0.01573432  0.015542782         3300 
 2813000   0.81008569   -8.4580024    529.62996   0.01568995  0.015536202         3404 
 2814000   0.80908553   -8.4475039    530.04222  0.015696583  0.015529621         3358 
 2815000    0.7931398   -8.4555963    529.29854  0.015668992  0.015523038         3436 
 2816000   0.80131045   -8.4555392    530.37692   0.01569534  0.015516451         3389 
 2817000   0.78936424     -8.47285     529.4539  0.015662463  0.015509868         3444 
 2818000   0.80653446   -8.4384424    529.84506  0.015668472  0.015503268         3360 
 2819000   0.80203438   -8.4619491    531.49472   0.01571168  0.015496687         3395 
 2820000   0.79562148   -8.4532776    529.12659  0.015636129  0.015490098         3374 
 2821000   0.80291396   -8.4527778    529.79345  0.015650285   0.01548351         3419 
 2822000   0.80221579   -8.4569628    528.69464  0.015612292  0.015476921         3369 
 2823000   0.80621135   -8.4766918    528.84223  0.015611118  0.015470325         3435 
 2824000    0.7885587   -8.4507541    529.96434  0.015638702  0.015463737         3344 
 2825000    0.8092944    -8.450123    528.30883  0.015584331  0.015457149         3382 
 2826000   0.79639372   -8.4631799    530.63383  0.015647377  0.015450567         3431 
 2827000   0.80461652   -8.4510077    529.51219  0.015608778  0.015443989         3452 
 2828000   0.79295135   -8.4707072     530.2374  0.015624629  0.015437403         3397 
 2829000   0.79639505    -8.454836    529.04074  0.015583856  0.015430826         3361 
 2830000   0.81170607   -8.4651818    529.21451  0.015583466  0.015424243         3401 
 2831000   0.77546063   -8.4667955    530.49161  0.015615554  0.015417676         3409 
 2832000   0.79460138   -8.4722408    529.09135  0.015568837  0.015411109         3397 
 2833000   0.80832094   -8.4866002    528.44824  0.015544424  0.015404532         3403 
 2834000   0.81132769   -8.4677628     528.9324  0.015553176  0.015397951         3375 
 2835000   0.78799939   -8.4590645    530.04318   0.01558034  0.015391364         3428 
 2836000    0.8085902   -8.4689719    528.58192  0.015531909  0.015384787         3437 
 2837000   0.81551939   -8.4699935    529.98965  0.015567784  0.015378201         3427 
 2838000   0.79166781   -8.4865299    528.55885  0.015520286  0.015371627         3421 
 2839000   0.78867762   -8.4619702    529.91223  0.015554545   0.01536505         3471 
 2840000   0.80391898   -8.4702288    528.94932  0.015520813  0.015358487         3441 
 2841000   0.78216654    -8.445544    528.35487  0.015497913   0.01535191         3445 
 2842000   0.80002685   -8.4608083    529.02566  0.015512129   0.01534533         3415 
 2843000   0.79510972   -8.4813626    528.17855  0.015481843  0.015338741         3460 
 2844000   0.79386643   -8.4451818    530.07927  0.015532093   0.01533218         3435 
 2845000    0.8152437   -8.4705227    529.96934  0.015523414  0.015325608         3423 
 2846000   0.79643449   -8.4666544    529.52169  0.015504851  0.015319032         3415 
 2847000    0.7907467   -8.4727562    530.64424  0.015532263  0.015312468         3468 
 2848000   0.78854166   -8.4781799    529.01215  0.015479054  0.015305898         3433 
 2849000   0.79746575   -8.4660601    528.15735  0.015448618  0.015299317         3418 
 2850000    0.8079212   -8.4888428     529.1958  0.015473561  0.015292744         3451 
 2851000   0.81099539   -8.4855368    529.14396  0.015466619  0.015286177         3515 
 2852000   0.80169219   -8.5343308    529.31143  0.015466089  0.015279612         3462 
 2853000   0.80649348   -8.4957718    529.37483   0.01546252  0.015273061         3431 
 2854000   0.81418727   -8.4529996    530.49927  0.015489934  0.015266512         3392 
 2855000   0.78433012   -8.4933778    528.71282  0.015432365  0.015259967         3446 
 2856000   0.79876053    -8.515197    527.75422  0.015398991  0.015253417         3423 
 2857000   0.78872805   -8.5025066    528.78472  0.015423659  0.015246863         3499 
 2858000   0.81784757   -8.4892025    529.88849  0.015450446  0.015240324         3489 
 2859000   0.80313401   -8.4719018    527.91896  0.015387634   0.01523378         3406 
 2860000   0.79322293   -8.5023957    527.79427  0.015378621   0.01522722         3488 
 2861000    0.7970944   -8.4764628     529.1789  0.015413576  0.015220685         3394 
 2862000   0.80252796   -8.5013105    529.63567  0.015421491  0.015214148         3445 
 2863000   0.80455209   -8.4846982    529.77869  0.015420267  0.015207616         3467 
 2864000   0.78372274   -8.4884192    529.14684  0.015396498  0.015201089         3537 
 2865000   0.81052781   -8.5025217    528.85704  0.015382695  0.015194551         3478 
 2866000   0.77235294   -8.4917696    528.95673  0.015380226  0.015188015         3442 
 2867000   0.79448908    -8.493448    527.86398  0.015343099  0.015181472         3505 
 2868000   0.79518099   -8.5207297    528.13497  0.015345623  0.015174938         3510 
 2869000   0.78789787   -8.4917029    528.66394  0.015355639  0.015168399         3495 
 2870000   0.78920728   -8.4951217    527.48822   0.01531615  0.015161866         3524 
 2871000   0.79272967   -8.5241792    528.88441  0.015351341  0.015155334         3537 
 2872000   0.78602859   -8.5133574    528.93843  0.015347563  0.015148783         3514 
 2873000   0.79266284   -8.5028051    529.80555  0.015367373  0.015142232         3441 
 2874000   0.79692837   -8.4893591    528.42393  0.015321965  0.015135689         3491 
 2875000   0.78652204   -8.4978108    529.03426  0.015334326  0.015129156         3484 
 2876000   0.80605581   -8.5087769     527.8952   0.01529599  0.015122627         3492 
 2877000    0.7964959   -8.5094882    527.91093  0.015291129  0.015116107         3518 
 2878000   0.77851958   -8.4742896    529.54073  0.015333007  0.015109584         3577 
 2879000   0.79238794   -8.5064078    528.37118  0.015293828  0.015103065         3494 
 2880000   0.79319809   -8.5046292    528.05609  0.015279401  0.015096563         3463 
 2881000   0.79252897    -8.492537    528.62235  0.015290476   0.01509004         3468 
 2882000   0.77533523   -8.4672532    529.26234  0.015303676   0.01508353         3490 
 2883000   0.80607503   -8.5170537    528.56754  0.015278285  0.015077022         3499 
 2884000   0.78650208   -8.5024376    527.38002  0.015238674  0.015070524         3510 
 2885000   0.78230102   -8.4927315    528.82691  0.015275185  0.015064028         3500 
 2886000   0.79797836   -8.5247521    529.42562   0.01528718  0.015057519         3477 
 2887000   0.78844215    -8.534675    528.25753  0.015248168   0.01505101         3524 
 2888000   0.79683631   -8.5049308    527.50282  0.015221111  0.015044519         3474 
 2889000   0.77913758   -8.5311501    528.54919  0.015246025  0.015038021         3520 
 2890000   0.78554789   -8.5152517    528.74235  0.015246319  0.015031525         3529 
 2891000   0.80239747   -8.4645871    529.11749  0.015251859  0.015025033         3472 
 2892000   0.76415753   -8.5130333    527.74262  0.015206968  0.015018527         3564 
 2893000   0.77446665   -8.5184552     527.0277  0.015181118   0.01501203         3494 
 2894000   0.78157705   -8.4973609    529.07672  0.015234874  0.015005544         3480 
 2895000    0.7731817   -8.5401842    528.49462  0.015212856  0.014999046         3578 
 2896000   0.79533755   -8.5090082    528.38528  0.015204457  0.014992542         3585 
 2897000   0.78369269   -8.5222194    526.84082  0.015154781  0.014986048         3554 
 2898000   0.78254599   -8.5013475    528.58418  0.015199683  0.014979552         3546 
 2899000   0.78631815   -8.5071248    529.15953  0.015210979   0.01497306         3524 
 2900000   0.77893726   -8.5239701    527.68679  0.015163414  0.014966564         3515 
 2901000   0.78536297   -8.5404515    528.13061  0.015170936  0.014960071         3505 
 2902000    0.7991439   -8.5177469    528.17891  0.015167095  0.014953584         3534 
 2903000   0.78618199    -8.525049    528.27064  0.015164503  0.014947096         3568 
 2904000   0.77268211   -8.5344824    527.12182  0.015126315  0.014940606         3538 
 2905000    0.7756987   -8.5411382    529.17427  0.015179985  0.014934122         3525 
 2906000   0.79708662   -8.5371473    527.88325  0.015137739  0.014927637         3525 
 2907000   0.78838916   -8.5163052    528.14785  0.015140117  0.014921155         3507 
 2908000   0.79270793   -8.5204707    528.40311  0.015142226  0.014914683         3493 
 2909000   0.78619303    -8.548789    526.92321  0.015094626  0.014908211         3554 
 2910000   0.78791689   -8.5044942    528.66737  0.015139386  0.014901745         3556 
 2911000   0.78895809   -8.5177406    526.95881  0.015085275  0.014895269         3519 
 2912000   0.78679702   -8.5306758    526.80687  0.015075746  0.014888788         3610 
 2913000   0.77920753   -8.5331603    527.95868  0.015103521  0.014882312         3531 
 2914000   0.77376351   -8.5197179    528.37469  0.015110235  0.014875838         3557 
 2915000   0.80750387   -8.5479925    527.74746   0.01508712  0.014869368         3599 
 2916000   0.80671369    -8.563258    527.37833  0.015071397   0.01486289         3563 
 2917000   0.79728672   -8.5298131    527.98137  0.015083458  0.014856421         3530 
 2918000   0.78602391   -8.5525234    528.55521  0.015094677  0.014849957         3585 
 2919000   0.77868464   -8.5516125    527.22732  0.015051597   0.01484348         3632 
 2920000   0.78804275   -8.5359714    528.29713  0.015076973   0.01483702         3552 
 2921000    0.7799631   -8.5443456    526.93607  0.015032982  0.014830551         3565 
 2922000   0.77890619   -8.5308562    526.90666  0.015026998  0.014824093         3558 
 2923000    0.8046607   -8.5330154     527.8241  0.015048013  0.014817642         3586 
 2924000   0.78545803   -8.5474458    528.06137  0.015049629  0.014811194         3592 
 2925000   0.78419751   -8.5576915    527.60292  0.015031422  0.014804739         3619 
 2926000   0.78188397   -8.5517714    528.00076  0.015037616  0.014798283         3591 
 2927000   0.76257081   -8.5346991    527.75853  0.015025582  0.014791826         3547 
 2928000   0.79338014   -8.5258051    528.12669  0.015030928  0.014785383         3592 
 2929000   0.78250231   -8.5549337    528.17774  0.015027249  0.014778938         3606 
 2930000   0.78883528   -8.5729266    527.10445  0.014991594  0.014772497         3604 
 2931000   0.78262646    -8.543646    527.44638  0.014996201  0.014766065         3599 
 2932000   0.78977751   -8.5542062    528.71716  0.015027205   0.01475963         3558 
 2933000   0.79006203   -8.5524672    528.12915  0.015005374  0.014753193         3624 
 2934000   0.79940376   -8.5174821    528.05901  0.014998268  0.014746761         3568 
 2935000   0.79358478   -8.5340929    527.96857   0.01499059  0.014740336         3588 
 2936000   0.78959146   -8.5489698    527.37159   0.01496854  0.014733917         3541 
 2937000   0.77665026   -8.5373422    527.94272  0.014979648  0.014727491         3529 
 2938000   0.78129703   -8.5408864    528.54338  0.014991587  0.014721079         3536 
 2939000   0.76492366   -8.5283937    527.53066  0.014957771  0.014714676         3529 
 2940000   0.78764787   -8.5307324    528.13209  0.014969731   0.01470828         3600 
 2941000   0.78186287   -8.5366038    527.78582  0.014954829  0.014701868         3597 
 2942000   0.77629126   -8.5559804    527.52014   0.01494222   0.01469546         3613 
 2943000   0.80898123   -8.5764502    527.39969  0.014933732  0.014689052         3597 
 2944000   0.77894201   -8.5270143     527.1409  0.014921334  0.014682659         3564 
 2945000   0.77241944   -8.5182811    528.39329  0.014951706  0.014676274         3597 
 2946000   0.77312943   -8.5612907    527.38095  0.014917995   0.01466989         3581 
 2947000   0.77673104   -8.5142277    528.67361  0.014949486  0.014663491         3612 
 2948000   0.78825618   -8.5434076    526.30445  0.014877444  0.014657114         3540 
 2949000   0.77142738   -8.5309845    527.99038   0.01492004  0.014650742         3570 
 2950000   0.78655685   -8.5261992    527.96167  0.014914172  0.014644356         3568 
 2951000   0.78901543   -8.5280851    527.57049  0.014898071  0.014637981         3627 
 2952000    0.7956971   -8.5602792    527.49722  0.014890956  0.014631605         3580 
 2953000   0.76809931    -8.520746    528.59893  0.014917003  0.014625244         3537 
 2954000   0.78316185   -8.5544596    527.32418  0.014875992   0.01461887         3509 
 2955000   0.77618563   -8.5337102    527.99718  0.014889937  0.014612514         3560 
 2956000   0.78954532   -8.5395995    528.24898  0.014891999  0.014606169         3551 
 2957000   0.79723593   -8.5542463    527.51093  0.014866163  0.014599811         3594 
 2958000   0.76507686   -8.5738295    526.79781  0.014841047  0.014593454         3598 
 2959000   0.77447745   -8.5489726    527.12853  0.014845345  0.014587096         3543 
 2960000   0.77898468   -8.5385021    527.89598  0.014861936  0.014580742         3541 
 2961000   0.77290242   -8.5507081    527.83931  0.014855322  0.014574392         3539 
 2962000   0.80993941   -8.5423277    527.62263  0.014844211  0.014568042         3544 
 2963000   0.78407841   -8.5605419    527.96377  0.014848795  0.014561693         3533 
 2964000   0.76764362   -8.5347249    528.82563  0.014868017  0.014555357         3563 
 2965000   0.78616678   -8.5572614    527.39085  0.014822677  0.014549002         3597 
 2966000   0.78303182    -8.540799    527.84755  0.014830511  0.014542665         3553 
 2967000    0.7894975   -8.5358523    528.50659  0.014844023  0.014536322         3538 
 2968000   0.77268242   -8.5596506     527.5601  0.014812447  0.014529985         3581 
 2969000   0.77966391   -8.5677175    527.12219  0.014795166  0.014523641         3592 
 2970000    0.7737168   -8.5537275    527.72124  0.014806993  0.014517299         3622 
 2971000   0.79106555   -8.5607213     528.0751  0.014811935  0.014510969         3551 
 2972000   0.78274265   -8.5344152    528.87607   0.01482941  0.014504635         3581 
 2973000   0.77068143   -8.5747321    527.26925  0.014779383  0.014498306         3565 
 2974000   0.77925038   -8.5500707    527.79738  0.014789211   0.01449198         3587 
 2975000   0.77578816    -8.542018    527.14147  0.014765867  0.014485648         3537 
 2976000    0.7843591   -8.5610053    527.41628  0.014768601   0.01447933         3605 
 2977000   0.78746702   -8.5652684    527.11615  0.014755239  0.014473006         3578 
 2978000   0.76067589   -8.5539365    528.09296  0.014777618   0.01446669         3486 
 2979000   0.78365692   -8.5611715    527.24976   0.01474907  0.014460374         3599 
 2980000   0.76380333   -8.5678759    527.28532  0.014745115   0.01445407         3598 
 2981000   0.76869752   -8.5532452     528.7568  0.014781304  0.014447758         3564 
 2982000   0.76115656   -8.5621115    527.20141  0.014732881  0.014441449         3540 
 2983000   0.76246938   -8.5558634    526.92368  0.014720183  0.014435144         3588 
 2984000   0.76291194   -8.5414442    527.59778  0.014734076  0.014428839         3540 
 2985000   0.77899449   -8.5467794    527.12395  0.014715912   0.01442253         3547 
 2986000   0.78041154    -8.565785    526.05144  0.014681052  0.014416232         3607 
 2987000   0.77307919   -8.5702807    527.40065  0.014713778  0.014409933         3606 
 2988000   0.76330489   -8.5603789    527.21076  0.014703558  0.014403635         3586 
 2989000   0.77821583   -8.5531569    526.88594  0.014689582   0.01439734         3618 
 2990000    0.7794733   -8.5668105    526.97786  0.014687231  0.014391054         3584 
 2991000   0.76865758   -8.5603125    527.91365  0.014708393  0.014384765         3548 
 2992000   0.78437505   -8.5580867    526.97915   0.01467745  0.014378478         3569 
 2993000   0.77028262   -8.5277016    527.82642  0.014696136  0.014372192         3634 
 2994000   0.77245227   -8.5857763    527.77335   0.01468975  0.014365921         3619 
 2995000   0.77988616   -8.5531726    526.26798   0.01464296  0.014359642         3545 
 2996000   0.78076428   -8.5545511    528.60039  0.014702948  0.014353368         3579 
 2997000   0.76365282   -8.5585449    527.39043  0.014664399  0.014347089         3531 
 2998000   0.77596022   -8.5500189    526.44195  0.014633143  0.014340817         3582 
 2999000   0.76904343   -8.5763165    526.24373  0.014622756  0.014334554         3577 
 3000000   0.78563538   -8.5726115    526.69211  0.014630336  0.014328283         3584 
 3001000   0.77208253   -8.5458433    527.07826  0.014636184  0.014322028         3587 
 3002000   0.77039353   -8.5865402    526.40353  0.014612578  0.014315774         3614 
 3003000   0.76434396   -8.5682789    527.57294  0.014640164  0.014309506         3566 
 3004000    0.7681213   -8.5792119    525.73388  0.014584273  0.014303249         3614 
 3005000   0.77756372   -8.5586851    526.92608  0.014612481  0.014296995         3636 
 3006000   0.77463479   -8.5689536    526.75674  0.014602926  0.014290744         3658 
 3007000   0.77194174    -8.577905    526.41914  0.014588714  0.014284495         3653 
 3008000   0.77821572    -8.580981    526.72616  0.014592369   0.01427825         3618 
 3009000   0.78792634   -8.5403506    528.01001  0.014623076  0.014272013         3519 
 3010000   0.76137113   -8.5719589    528.21718  0.014623953  0.014265783         3607 
 3011000   0.76373058   -8.5585812    527.46582  0.014598301  0.014259542         3547 
 3012000   0.79298275   -8.5577151    527.06706  0.014582422  0.014253329         3579 
 3013000   0.76506753    -8.550282    527.26989  0.014583192  0.014247115         3539 
 3014000   0.75992807   -8.5799705     526.8682  0.014567247  0.014240899         3560 
 3015000   0.78641257   -8.5530357    527.43313   0.01457803  0.014234683         3542 
 3016000   0.76407888   -8.5933389    525.95642  0.014532394  0.014228469         3659 
 3017000   0.76387071   -8.5586719    528.18086  0.014589019  0.014222266         3550 
 3018000    0.7536372   -8.5675965    526.77183  0.014545279  0.014216045         3648 
 3019000    0.7807967    -8.589423    526.83566  0.014542223  0.014209836         3628 
 3020000   0.77536407   -8.6030341    526.36978  0.014524552  0.014203613         3699 
 3021000   0.76787078   -8.5781492    526.67639  0.014528202  0.014197402         3662 
 3022000   0.76815801   -8.5792668    527.86727  0.014556234  0.014191194         3651 
 3023000   0.78491796   -8.5797853    527.49893  0.014541265   0.01418498         3600 
 3024000   0.77739233   -8.5533267    528.07624  0.014552365  0.014178772         3620 
 3025000   0.76322447   -8.5793609    526.69628  0.014509539   0.01417257         3680 
 3026000   0.76775529   -8.5773559    526.76998  0.014506774  0.014166376         3622 
 3027000   0.76520521   -8.5826857     526.2491  0.014487642  0.014160178         3629 
 3028000   0.76688463   -8.5723866    527.03858  0.014504585  0.014153969         3671 
 3029000   0.76800229   -8.5931414    526.61462  0.014488132   0.01414777         3656 
 3030000   0.76791788    -8.575292    526.92858  0.014491985  0.014141576         3621 
 3031000   0.76801954   -8.5462052    527.39507  0.014500029  0.014135387         3692 
 3032000   0.75605898   -8.5787031    526.52389  0.014471303  0.014129199         3654 
 3033000   0.76759845   -8.5844059    527.02719   0.01448036  0.014123009         3696 
 3034000   0.77220364   -8.5690188    526.77684  0.014468711  0.014116826         3680 
 3035000   0.76260573   -8.5830439     526.6277  0.014459849  0.014110644         3680 
 3036000   0.73482302   -8.5530621    526.71118  0.014457377  0.014104469         3629 
 3037000   0.75957867   -8.5757285    526.96882  0.014459687  0.014098297         3623 
 3038000   0.76808732   -8.5837756    527.22703   0.01446201  0.014092126         3662 
 3039000   0.79145235   -8.5995241    526.50061  0.014437332  0.014085953         3694 
 3040000   0.75421083   -8.6174731    526.36076  0.014428749  0.014079774         3707 
 3041000   0.76427057   -8.5431742    527.91597  0.014466622  0.014073601         3630 
 3042000   0.77607504   -8.5856634    527.65649  0.014454758  0.014067431         3674 
 3043000   0.74348967   -8.5790746    526.78618  0.014426174  0.014061264         3628 
 3044000   0.77360315   -8.5770937    526.40404  0.014410974    0.0140551         3624 
 3045000   0.77013719   -8.5828865     526.3819  0.014405635  0.014048936         3650 
 3046000   0.77802118   -8.5861217    527.37459  0.014428064  0.014042777         3676 
 3047000    0.7949425   -8.5772877    527.46033  0.014425674  0.014036628         3635 
 3048000   0.77071314   -8.5926635    524.99183  0.014353451  0.014030477         3652 
 3049000   0.76414014   -8.5744665    526.03838  0.014377347  0.014024337         3637 
 3050000   0.76377058   -8.5941202      526.128  0.014375082  0.014018187         3653 
 3051000   0.75505453   -8.5845689    526.82086  0.014389295  0.014012044         3623 
 3052000   0.76430743   -8.5912961     527.3266  0.014398389  0.014005904         3675 
 3053000   0.75231218   -8.5950113    526.28586  0.014365265  0.013999768         3618 
 3054000   0.77008708   -8.5725366    525.40193  0.014336442  0.013993637         3633 
 3055000   0.76754375    -8.588107    527.40991  0.014386522  0.013987499         3608 
 3056000   0.76453501   -8.5708086     526.8608  0.014366841  0.013981366         3634 
 3057000   0.76587721   -8.6003048    525.31757  0.014320073  0.013975233         3646 
 3058000    0.7711949   -8.5937796    526.48773  0.014347278  0.013969097         3688 
 3059000   0.75198416   -8.6088914    525.78975  0.014323574  0.013962964         3668 
 3060000   0.75673255   -8.5847624    526.68094  0.014343163  0.013956821         3672 
 3061000   0.73989629   -8.5934454    526.37408  0.014330123  0.013950685         3644 
 3062000   0.76901859   -8.6006388    525.74847  0.014308417   0.01394454         3676 
 3063000   0.77320493   -8.5868854    526.18951  0.014315745   0.01393842         3623 
 3064000   0.76347935   -8.5985394    525.53748  0.014293339  0.013932297         3665 
 3065000    0.7607207   -8.5886753    526.31794  0.014309895  0.013926176         3617 
 3066000   0.76635539   -8.5911185    525.70864  0.014288667  0.013920063         3685 
 3067000    0.7658259   -8.6214011    525.94447  0.014290416  0.013913952         3670 
 3068000   0.77124992    -8.586362    526.17813  0.014292105  0.013907836         3667 
 3069000   0.74550885   -8.5828783    526.04225  0.014283758  0.013901721         3649 
 3070000   0.76499436   -8.5963624    525.86771  0.014274368  0.013895616         3651 
 3071000   0.76004775   -8.6048423    525.49342  0.014259563  0.013889512         3676 
 3072000   0.74754513    -8.588083    526.31504  0.014277209  0.013883418         3585 
 3073000   0.76718604   -8.6005232    525.13029  0.014240435  0.013877316         3656 
 3074000    0.7684169   -8.5929809    527.32417  0.014295277  0.013871219         3647 
 3075000   0.76705373   -8.5887782     526.3369  0.014263873  0.013865117         3632 
 3076000   0.76969526   -8.5866901    526.92286   0.01427511   0.01385903         3631 
 3077000   0.75680975   -8.6177172    525.56163  0.014233605  0.013852941         3656 
 3078000    0.7555695   -8.6014876    524.87648  0.014210431  0.013846852         3651 
 3079000   0.75005695   -8.6034993    525.85554  0.014232314  0.013840769         3677 
 3080000   0.75266784    -8.600442    526.42561  0.014243117  0.013834683         3604 
 3081000   0.75310899   -8.6099964    524.99778  0.014199875  0.013828602         3680 
 3082000   0.75020555   -8.6309531    526.51555  0.014236306  0.013822524         3658 
 3083000   0.74654206    -8.605432    525.82367  0.014212987  0.013816458         3709 
 3084000    0.7481141   -8.5913162    525.92854  0.014211212  0.013810385         3695 
 3085000   0.76861739   -8.6053561     526.4222  0.014219941  0.013804315         3708 
 3086000   0.76061623    -8.593694    525.64912  0.014194457  0.013798246         3628 
 3087000   0.74563919    -8.595547     526.3568  0.014208962  0.013792176         3694 
 3088000   0.75669215   -8.6021855    526.51971  0.014208757  0.013786119         3671 
 3089000   0.75331861   -8.6078328    526.80465  0.014211845  0.013780057         3616 
 3090000   0.76368094   -8.6055114      526.557  0.014200566  0.013774005         3656 
 3091000   0.77901252   -8.6148957    525.88683  0.014177905  0.013767955         3678 
 3092000   0.75404787   -8.6141475    525.88792  0.014173348    0.0137619         3675 
 3093000   0.76268124   -8.5921377    524.84577  0.014140688  0.013755848         3720 
 3094000   0.75967564   -8.6106069    526.18299  0.014172134  0.013749809         3686 
 3095000   0.75578552   -8.5958617    527.55919  0.014204609  0.013743775         3676 
 3096000   0.75546485   -8.5921123    526.34914  0.014167451  0.013737742         3676 
 3097000   0.73003904    -8.626403     525.6557  0.014144217  0.013731713         3647 
 3098000   0.75993325   -8.6278829    526.07829  0.014151019  0.013725688         3658 
 3099000   0.74604421   -8.6196976    526.23821  0.014150753  0.013719653         3634 
 3100000   0.76460249   -8.6242421     524.9265  0.014110927  0.013713624         3668 
 3101000   0.75681354   -8.6033506    526.53482  0.014149598  0.013707594         3692 
 3102000    0.7471166   -8.6037304    525.72897  0.014123387   0.01370157         3660 
 3103000   0.73650121   -8.6207247    525.83536  0.014121693  0.013695544         3698 
 3104000   0.76266438   -8.6020445    525.48015  0.014107607  0.013689527         3643 
 3105000   0.75950877   -8.5852081    525.84615  0.014112887  0.013683511         3689 
 3106000   0.76019398   -8.6143106    526.17318  0.014117117  0.013677504         3671 
 3107000   0.74904379   -8.6212127    527.56169  0.014149815  0.013671491         3658 
 3108000   0.74297441    -8.614389    527.23128  0.014136403  0.013665485         3683 
 3109000   0.75481854   -8.6177587    525.27771  0.014079493  0.013659488         3702 
 3110000    0.7594729   -8.6045457    525.91138  0.014091945   0.01365349         3682 
 3111000   0.74235578   -8.5954373    525.87695  0.014086493   0.01364751         3656 
 3112000   0.75332896   -8.6109202    525.87604  0.014081942  0.013641527         3644 
 3113000   0.75653433   -8.6187884    526.27093  0.014087989  0.013635538         3637 
 3114000   0.73706968   -8.6014802    525.40174  0.014060205  0.013629556         3643 
 3115000    0.7454696   -8.5898643    526.18013  0.014076515  0.013623574         3619 
 3116000   0.76646937   -8.6023972    527.92891  0.014118766  0.013617602         3659 
 3117000   0.75451138   -8.6185991    525.18744  0.014040943  0.013611627         3722 
 3118000    0.7495704   -8.6389989     525.4721  0.014044048  0.013605652         3730 
 3119000   0.74512536   -8.6109405    526.33204  0.014062521  0.013599679         3685 
 3120000   0.75622363   -8.6078471    526.13091  0.014052642  0.013593717         3631 
 3121000   0.73936945   -8.6211245    525.43604  0.014029586  0.013587743         3657 
 3122000   0.75801914   -8.6081763    526.05958  0.014041736  0.013581778         3685 
 3123000   0.73669824   -8.6151842    525.71004  0.014027912  0.013575809         3669 
 3124000   0.76271462   -8.6072071    526.17715  0.014035882  0.013569843         3661 
 3125000    0.7478049   -8.6264682    526.07545  0.014028679  0.013563888         3631 
 3126000   0.74551123   -8.6144657    526.15163  0.014026222  0.013557935         3681 
 3127000   0.74893571   -8.6108436    526.14303  0.014021507  0.013551984         3680 
 3128000   0.75897941   -8.5940881     525.8059  0.014008043  0.013546037         3674 
 3129000   0.74872311   -8.6250711    526.13099  0.014012224  0.013540091         3672 
 3130000   0.73879431   -8.6067397    525.52137  0.013991517  0.013534155         3694 
 3131000   0.73793895   -8.6291182    525.99891  0.013999758  0.013528213         3711 
 3132000   0.73755605   -8.6109814    525.39616  0.013979251  0.013522275         3719 
 3133000   0.77060738   -8.5934342     526.4876   0.01400382  0.013516335         3635 
 3134000   0.73832622   -8.6252912    526.60048  0.014002353  0.013510399         3629 
 3135000   0.75296737   -8.6258981    525.17014  0.013959865  0.013504466         3690 
 3136000   0.75758928   -8.6379658    525.43005  0.013962321  0.013498538         3667 
 3137000   0.74823807   -8.6529366    524.66144  0.013937452  0.013492594         3660 
 3138000   0.75371675   -8.6280248    524.41996  0.013926598   0.01348667         3661 
 3139000   0.75409967   -8.6198234    526.21286  0.013969758  0.013480737         3671 
 3140000   0.74872076   -8.6324077    526.46181  0.013971916  0.013474806         3649 
 3141000   0.76024553   -8.6113044    525.88419  0.013952143  0.013468883         3679 
 3142000   0.75183818    -8.630989    524.63162  0.013914482  0.013462961         3686 
 3143000   0.76262297   -8.6286862    525.54515  0.013934276  0.013457053         3698 
 3144000   0.75878952   -8.6308736    525.21221  0.013921019  0.013451139         3676 
 3145000   0.73672072   -8.6332156    525.44831  0.013922849  0.013445229         3694 
 3146000   0.74045072   -8.6197583    526.91266  0.013957212   0.01343932         3672 
 3147000   0.73968424   -8.6356745    524.05606  0.013877133  0.013433406         3688 
 3148000    0.7624332   -8.6279943    525.82619  0.013919584  0.013427492         3709 
 3149000   0.75710935    -8.635288    525.56965  0.013908374  0.013421589         3699 
 3150000   0.74813906   -8.6301796    526.19839  0.013920592   0.01341568         3665 
 3151000   0.75199868   -8.6305434    524.54761  0.013872517  0.013409781         3677 
 3152000   0.75057223   -8.6407513    525.46166  0.013892282  0.013403893         3650 
 3153000   0.75346835   -8.6302618    525.78213  0.013896346  0.013397998         3694 
 3154000   0.73954873   -8.6403272    525.58001  0.013886599  0.013392107         3690 
 3155000   0.73255225   -8.6361062    524.14829  0.013844382  0.013386215         3658 
 3156000   0.75013162   -8.6075022    525.59949  0.013878314  0.013380323         3715 
 3157000    0.7370898   -8.6484116    525.16638  0.013862485  0.013374432         3692 
 3158000   0.73837906   -8.6244298     525.1517  0.013857708  0.013368543         3673 
 3159000   0.74658924    -8.625972    525.47671  0.013861895  0.013362661         3688 
 3160000   0.73992129   -8.6378932    524.86773  0.013841449  0.013356773         3697 
 3161000   0.75434485   -8.6682033    525.09247  0.013842994   0.01335089         3734 
 3162000   0.75570177    -8.627624    525.42304  0.013847329  0.013345007         3681 
 3163000   0.73305806   -8.6162759    526.26693  0.013865184  0.013339131         3721 
 3164000   0.74835954   -8.6401472    524.47444  0.013813591  0.013333264         3748 
 3165000   0.75924783    -8.650848    524.96134  0.013822047    0.0133274         3701 
 3166000   0.74583502   -8.6382501    525.84565  0.013840957  0.013321531         3714 
 3167000   0.75520745   -8.6653908    525.34339  0.013823371  0.013315667         3695 
 3168000   0.72308501   -8.6379562    525.03112  0.013810793  0.013309803         3707 
 3169000   0.74246002   -8.6289123    526.35956  0.013841368   0.01330394         3729 
 3170000   0.75876805   -8.6539064    524.51751  0.013788578  0.013298086         3731 
 3171000   0.73157237   -8.6347004    524.98804  0.013796595  0.013292243         3750 
 3172000   0.73452973   -8.6275039    525.19333  0.013797639  0.013286396         3706 
 3173000   0.74655709   -8.5956353    525.71453  0.013806979  0.013280549         3657 
 3174000   0.76145153   -8.6196189     525.0475  0.013785116  0.013274713         3724 
 3175000   0.74435677   -8.6498766    524.75794  0.013773174  0.013268875         3747 
 3176000   0.75204006   -8.6387209    524.76782  0.013769097  0.013263041         3686 
 3177000   0.72939862   -8.6399456    525.55114  0.013785309  0.013257222         3705 
 3178000   0.75300438   -8.6339235    525.37266  0.013776292  0.013251393         3688 
 3179000   0.74476059   -8.6270193    525.59395  0.013777759  0.013245563         3670 
 3180000   0.73317729   -8.6347394     524.4138    0.0137425  0.013239737         3740 
 3181000   0.72325145   -8.6398742    524.82131  0.013748856  0.013233915         3712 
 3182000   0.72287547   -8.6253949    525.13601  0.013752776  0.013228082         3702 
 3183000   0.75988917   -8.6491076      524.337  0.013727537  0.013222265         3731 
 3184000   0.74663769   -8.6267123     525.4931  0.013753483  0.013216451         3719 
 3185000   0.73109693   -8.6376304    524.39407   0.01372041  0.013210634         3683 
 3186000   0.74254754   -8.6234644    525.41865  0.013742902  0.013204819         3703 
 3187000   0.73109949   -8.6415327    525.25777  0.013734384  0.013199013         3733 
 3188000   0.74692084   -8.6234095    525.10277  0.013726024  0.013193207         3710 
 3189000   0.75119292   -8.6395902    524.07355  0.013694825  0.013187406         3722 
 3190000   0.73016312   -8.6382868    523.76592  0.013682495  0.013181606         3718 
 3191000   0.73760761   -8.6233063    525.99801  0.013736499   0.01317581         3738 
 3192000   0.74548305    -8.637848    525.27916  0.013713428  0.013170011         3718 
 3193000   0.74894919   -8.6270642    524.30357  0.013683672  0.013164223         3677 
 3194000   0.75451031   -8.6487061    524.06403  0.013673138  0.013158434         3725 
 3195000   0.74437491   -8.6567253    524.34633  0.013676221  0.013152653         3726 
 3196000   0.75488608   -8.6338791    525.40888  0.013699648   0.01314687         3724 
 3197000   0.74069791   -8.6516808    525.36701  0.013694271  0.013141085         3697 
 3198000    0.7321778   -8.6449287    525.67477  0.013698008  0.013135309         3707 
 3199000   0.74525667    -8.649148    524.13215  0.013653541  0.013129537         3679 
 3200000   0.72482469    -8.637063    525.08844  0.013674178  0.013123762         3696 
 3201000   0.73245431   -8.6380803    525.90166  0.013691077  0.013117988         3727 
 3202000   0.73803029   -8.6499785    524.65183  0.013654274   0.01311222         3693 
 3203000    0.7357915   -8.6480323    524.47092  0.013645304  0.013106455         3656 
 3204000   0.74279033   -8.6426893    524.65698  0.013645885  0.013100699         3736 
 3205000   0.73125835   -8.6590992    524.38223  0.013634483  0.013094938         3696 
 3206000   0.75029746   -8.6249856    525.09664    0.0136488  0.013089178         3704 
 3207000   0.74499579    -8.660106    524.87956  0.013638903  0.013083432         3701 
 3208000   0.72402096   -8.6375317    525.13471   0.01364128  0.013077681         3701 
 3209000   0.74432656   -8.6475581    524.80659  0.013628508  0.013071933         3726 
 3210000   0.72898788   -8.6377033    523.69348  0.013595366  0.013066183         3698 
 3211000   0.75439166    -8.650369    524.63735  0.013615627  0.013060451         3738 
 3212000   0.73096343   -8.6868452     524.1679  0.013599209  0.013054706         3741 
 3213000   0.73611125   -8.6411594    526.05978  0.013644045  0.013048968         3700 
 3214000   0.74336207   -8.6400717    525.31937  0.013620602   0.01304323         3743 
 3215000   0.73260949   -8.6544565    524.61927  0.013598218  0.013037492         3697 
 3216000   0.74123113   -8.6324832     525.4383  0.013615213  0.013031759         3633 
 3217000   0.73134333   -8.6667285    523.42625   0.01355886  0.013026028         3720 
 3218000   0.73388749   -8.6728783    524.00193  0.013569555  0.013020293         3703 
 3219000   0.74755343   -8.6753441     525.1735  0.013595669  0.013014568         3738 
 3220000    0.7370015   -8.6447573    524.46266   0.01357305  0.013008846         3674 
 3221000    0.7289872   -8.6568822    524.30548   0.01356477   0.01300312         3687 
 3222000   0.75041779   -8.6655984    523.83071   0.01354828  0.012997405         3702 
 3223000   0.75151927   -8.6593916    524.17182  0.013552896  0.012991688         3679 
 3224000   0.74810494   -8.6649026    524.28232  0.013551549  0.012985984         3693 
 3225000   0.72767807   -8.6486935    525.19753  0.013570996  0.012980285         3724 
 3226000   0.72829214    -8.636346    523.72373  0.013528718  0.012974576         3692 
 3227000   0.75467446   -8.6578344    523.78999  0.013526237  0.012968877         3738 
 3228000   0.73393207   -8.6518689    525.01109   0.01355357  0.012963181         3683 
 3229000   0.74691836   -8.6937097    524.13711  0.013526817  0.012957484         3749 
 3230000   0.74160117   -8.6825151    524.34048  0.013527876  0.012951791         3716 
 3231000    0.7298471   -8.6862286    523.77492  0.013509102  0.012946092         3723 
 3232000   0.73307759   -8.6430979    524.82236   0.01353193  0.012940403         3726 
 3233000   0.71838723   -8.6420896    523.84816  0.013502633  0.012934717         3705 
 3234000   0.73443404    -8.657224    524.07326  0.013504258  0.012929037         3737 
 3235000   0.73397377   -8.6433814    524.83681  0.013519753   0.01292335         3713 
 3236000    0.7528157    -8.660555    524.36602  0.013503451  0.012917665         3711 
 3237000   0.73855028   -8.6480852    524.83097  0.013511249  0.012911983         3704 
 3238000   0.72934175   -8.7067029    523.40795  0.013470454  0.012906306         3757 
 3239000   0.74877919   -8.6563738    524.28654  0.013488899  0.012900631         3682 
 3240000   0.72670496    -8.637405    524.17636  0.013481902  0.012894964         3751 
 3241000   0.71999527   -8.6596688    524.48732  0.013485738    0.0128893         3730 
 3242000   0.72526844   -8.6582287    524.14916  0.013472886  0.012883641         3752 
 3243000   0.75008061   -8.6652525    524.41086  0.013475456  0.012877981         3718 
 3244000   0.74081524    -8.660997    524.34199  0.013469533  0.012872328         3700 
 3245000   0.72518884   -8.6660014    524.98177  0.013481812  0.012866684         3727 
 3246000   0.71585004   -8.6574872    524.08341  0.013454596   0.01286104         3702 
 3247000   0.73502336   -8.6363992    526.01347  0.013499986  0.012855401         3739 
 3248000   0.74163183   -8.6542941    524.78139  0.013464219  0.012849765         3715 
 3249000   0.73273199   -8.6657864    524.04765  0.013441255  0.012844127         3736 
 3250000   0.73465265   -8.6711836    524.58284  0.013450842   0.01283849         3744 
 3251000     0.730492   -8.6672032    525.31488  0.013465469  0.012832857         3714 
 3252000   0.73359991   -8.6608425    524.37612  0.013437272  0.012827229         3745 
 3253000   0.72998723   -8.6713855     524.5964  0.013438785  0.012821606         3744 
 3254000   0.72090344   -8.6335219    523.39904  0.013403991   0.01281598         3689 
 3255000   0.73113303   -8.6686651    524.63485  0.013431512  0.012810359         3742 
 3256000   0.72605178   -8.6617389    524.26087  0.013417815  0.012804741         3686 
 3257000    0.7363417   -8.6494813    525.58808  0.013447653  0.012799122         3675 
 3258000   0.73319949   -8.6658145    523.66392  0.013394309  0.012793511         3706 
 3259000   0.75176813   -8.6650286     524.3271  0.013407157  0.012787904         3685 
 3260000   0.73529083   -8.6621499    524.29103  0.013402122  0.012782304         3748 
 3261000   0.72324696   -8.6479936    524.78619  0.013410666   0.01277669         3749 
 3262000   0.73826914   -8.6502302    525.38592  0.013421876  0.012771087         3753 
 3263000   0.73977949    -8.637593     524.1524   0.01338626  0.012765487         3714 
 3264000   0.72581614   -8.6573199    524.39803   0.01338843  0.012759887         3691 
 3265000   0.73340925   -8.6525111     523.4678  0.013360587  0.012754297         3716 
 3266000   0.72168892   -8.6430408    525.13737  0.013399096  0.012748706         3716 
 3267000   0.72027007   -8.6830235    523.59051  0.013355538  0.012743115         3747 
 3268000   0.72633417   -8.6699678    524.66288  0.013378796   0.01273753         3746 
 3269000    0.7379052   -8.6956237    524.14331  0.013361459  0.012731951         3732 
 3270000   0.73055767   -8.6457846     525.3968  0.013389317  0.012726372         3692 
 3271000   0.73662629   -8.6830482    524.36176  0.013358855  0.012720797         3727 
 3272000    0.7297301     -8.67578    523.85344  0.013341826  0.012715221         3714 
 3273000   0.74272802   -8.6698209    524.03183  0.013342291  0.012709646         3710 
 3274000   0.71828449   -8.6763972    524.05231  0.013338737  0.012704072         3782 
 3275000   0.72910949   -8.6569681    525.31719   0.01336685  0.012698508         3726 
 3276000   0.72995428   -8.6794262    523.72587   0.01332229  0.012692945         3692 
 3277000   0.72034737   -8.6806883    524.37942  0.013334844  0.012687378         3732 
 3278000   0.72583185   -8.6551618    524.10676  0.013323845  0.012681812         3717 
 3279000   0.73177404   -8.6693672    524.12207  0.013320171  0.012676248         3701 
 3280000   0.73551437   -8.6717294    524.30713  0.013320811  0.012670695         3705 
 3281000   0.73530022   -8.6809778    524.51192  0.013321953  0.012665147         3739 
 3282000   0.74162168   -8.6675989    524.66137  0.013321688  0.012659596         3736 
 3283000   0.72336479   -8.6683868    525.43276  0.013337211  0.012654054         3739 
 3284000   0.72916161   -8.6724957     524.2977  0.013304347  0.012648509         3723 
 3285000   0.72501524   -8.6738255     523.7239  0.013285741  0.012642974         3709 
 3286000   0.71236672    -8.652326    524.73968  0.013307458  0.012637434         3764 
 3287000   0.72506935   -8.6734245     524.6952  0.013302282  0.012631893         3734 
 3288000   0.73579957   -8.6805322    523.90754  0.013278273  0.012626359         3746 
 3289000    0.7120225   -8.6513684    524.44437  0.013287838   0.01262083         3729 
 3290000   0.72436499   -8.6603399    523.55087  0.013261167  0.012615297         3723 
 3291000   0.71775825   -8.6571456    524.78636  0.013288422   0.01260977         3713 
 3292000   0.72659362   -8.6773719    524.75174  0.013283509  0.012604247         3738 
 3293000   0.71789617   -8.6852193    523.62909  0.013251065  0.012598734         3736 
 3294000   0.72404159   -8.6607632    524.63485  0.013272487  0.012593212         3709 
 3295000   0.72643213   -8.6789995    524.56475  0.013266686  0.012587694         3729 
 3296000   0.73091746   -8.6763981    522.56149  0.013212012  0.012582183         3732 
 3297000   0.73674639   -8.6945138     524.0655  0.013246019  0.012576679         3740 
 3298000   0.71457118   -8.7147202    523.49143  0.013227497  0.012571163         3741 
 3299000   0.71902147    -8.687052     524.3662  0.013245585  0.012565656         3716 
 3300000   0.70673735   -8.6785946    524.72012  0.013250508  0.012560153         3692 
 3301000   0.72122997   -8.6850763    524.37239  0.013237716  0.012554656         3712 
 3302000   0.71713025   -8.6699799    524.33159  0.013232677  0.012549161         3708 
 3303000   0.73607846   -8.6819339     524.1706  0.013224609   0.01254367         3753 
 3304000   0.70592676   -8.6738596    523.62644  0.013206882  0.012538178         3704 
 3305000   0.72743383   -8.6610051    525.02125  0.013238055  0.012532688         3690 
 3306000     0.719121   -8.6731431    523.69777   0.01320069  0.012527202         3760 
 3307000   0.72373039    -8.668416    524.54256  0.013217986  0.012521715         3701 
 3308000   0.72758574   -8.6843282     523.9223  0.013198365  0.012516239         3729 
 3309000   0.71635807    -8.683171      522.777  0.013165533  0.012510762         3754 
 3310000   0.74178321   -8.6824773    523.87311  0.013189152  0.012505287         3743 
 3311000   0.72384298   -8.6888127    524.24565  0.013194545  0.012499818         3706 
 3312000   0.70089889   -8.6836907    524.53006  0.013197717  0.012494344         3694 
 3313000   0.73001014   -8.6708985    525.05696  0.013206987  0.012488885         3700 
 3314000   0.72158427   -8.6777921    524.05364  0.013177772  0.012483421         3684 
 3315000   0.70685452   -8.6912482    524.85885  0.013194038  0.012477956         3715 
 3316000    0.7294328   -8.6894147    523.34854  0.013152104  0.012472493         3739 
 3317000   0.71694244   -8.6810158    523.07589   0.01314129  0.012467042         3713 
 3318000   0.71482909   -8.6846356    524.82056  0.013181147  0.012461586         3710 
 3319000   0.71982307   -8.6906782    524.00101  0.013156599   0.01245614         3750 
 3320000   0.71990894    -8.694476    523.09963  0.013130011  0.012450691         3661 
 3321000   0.74510117   -8.6714061      523.341  0.013132114  0.012445253         3698 
 3322000   0.70896174   -8.6692539    524.21626  0.013150117  0.012439807         3689 
 3323000   0.74124308    -8.688273    524.40629  0.013150925  0.012434365         3726 
 3324000   0.72274687   -8.6713514    523.71484  0.013129634   0.01242892         3722 
 3325000     0.718751   -8.6598247    523.17812  0.013112234  0.012423487         3726 
 3326000   0.71477024   -8.6966341    524.08071  0.013130906  0.012418056         3730 
 3327000   0.71935288   -8.6746296     523.8489  0.013121153  0.012412622         3711 
 3328000   0.72886643   -8.7225229    523.31501  0.013103841  0.012407194         3771 
 3329000   0.74277706   -8.6754755    523.45999  0.013103534  0.012401773         3670 
 3330000   0.71892842   -8.7089949    523.55683  0.013102023  0.012396348         3679 
 3331000   0.71592736   -8.6991128    523.39833  0.013094124  0.012390929         3721 
 3332000   0.72806022   -8.6585463    523.79611  0.013100143  0.012385512         3720 
 3333000   0.70494199   -8.6649897     523.0883  0.013078515  0.012380102         3728 
 3334000   0.72681133   -8.6971363    522.68626  0.013064544  0.012374696         3712 
 3335000   0.72115797   -8.7019216    523.88945  0.013090691  0.012369287         3705 
 3336000    0.7378568   -8.6913228    523.32991  0.013072789  0.012363884         3699 
 3337000   0.71815453   -8.6649125    524.46408  0.013097195  0.012358491         3736 
 3338000   0.72083317   -8.6821124    523.12782  0.013059912  0.012353094         3703 
 3339000   0.72746041   -8.7262222    523.81145  0.013073062  0.012347699         3768 
 3340000   0.73033468   -8.6576701    523.75865  0.013067831  0.012342311         3698 
 3341000   0.71701424   -8.6912104    523.10192  0.013047539  0.012336921         3738 
 3342000   0.71444219   -8.7038053    523.38822  0.013050774  0.012331537         3699 
 3343000   0.72570063   -8.6803677    523.44993  0.013048408  0.012326151         3706 
 3344000   0.70933545   -8.6948845    523.14887  0.013037003  0.012320772         3687 
 3345000   0.71154941    -8.660929    522.68603  0.013021575  0.012315392         3664 
 3346000   0.73206279   -8.6951464    523.24578  0.013031624   0.01231001         3694 
 3347000   0.71470767     -8.66874    523.01241   0.01302192  0.012304633         3700 
 3348000   0.71351451   -8.6533956     524.3759  0.013051969  0.012299259         3703 
 3349000   0.70696843   -8.6825371     524.1183  0.013041662  0.012293894         3715 
 3350000   0.72940438   -8.6920734    524.30317  0.013042368  0.012288531         3726 
 3351000   0.70256481   -8.6883519    522.42222    0.0129917  0.012283162         3769 
 3352000   0.72702649   -8.6828428      522.991  0.013001964  0.012277803         3736 
 3353000   0.72219387   -8.6841019     524.4866  0.013035257  0.012272447         3761 
 3354000   0.71054702   -8.6984507    523.52669  0.013007521  0.012267088         3755 
 3355000   0.73283613   -8.7144558    522.93536  0.012988956  0.012261736         3734 
 3356000   0.71568863   -8.7035151     523.4669  0.012998284  0.012256388         3745 
 3357000   0.71627985    -8.719139    523.32012  0.012990769  0.012251039         3737 
 3358000   0.72318197   -8.6885212    523.47688   0.01299079  0.012245692         3738 
 3359000   0.71416162   -8.7223609    522.32616  0.012958375  0.012240348         3715 
 3360000   0.72498207   -8.6711732      523.771  0.012990352  0.012235006         3726 
 3361000   0.72406748   -8.6996686    522.50213  0.012955027  0.012229666         3734 
 3362000   0.71775356   -8.7001429    522.83135  0.012959333  0.012224332         3757 
 3363000   0.70570408   -8.6873768    524.03214  0.012985235  0.012218998         3781 
 3364000   0.71815705   -8.7054061    522.80131  0.012950885  0.012213667         3666 
 3365000    0.7189823   -8.6976711    523.24304  0.012957975  0.012208337         3742 
 3366000   0.72063477   -8.7031099    523.47433  0.012959852   0.01220301         3701 
 3367000   0.72329676   -8.6861665    523.29207  0.012951492  0.012197691         3716 
 3368000   0.70664668   -8.6952306    523.88862  0.012962406  0.012192377         3753 
 3369000   0.72550436   -8.7084423    523.48985  0.012948695  0.012187063         3746 
 3370000   0.71492816   -8.6904691    524.09828  0.012959898  0.012181749         3766 
 3371000   0.71199831   -8.7004116    523.96352  0.012952722  0.012176443         3756 
 3372000    0.6971718   -8.6944424    523.63967  0.012940878  0.012171136         3695 
 3373000   0.72568381   -8.7273085    522.15961  0.012900475  0.012165839         3712 
 3374000   0.70970951   -8.6919963    524.01981  0.012942596  0.012160531         3737 
 3375000   0.72076269   -8.6940959    524.68147  0.012955098  0.012155232         3714 
 3376000   0.72148275   -8.6931986    523.02974  0.012910489  0.012149933         3727 
 3377000     0.694738   -8.7055432    524.06828  0.012932294  0.012144636         3747 
 3378000   0.71643462   -8.7003434    523.88953  0.012924056  0.012139343         3713 
 3379000   0.69963301   -8.7015946     523.1354  0.012901633  0.012134052         3730 
 3380000    0.7138081   -8.6927499    523.05884  0.012895928  0.012128766         3765 
 3381000   0.71241662   -8.6973281    523.73488  0.012908777  0.012123487         3692 
 3382000   0.70391145   -8.6792531    524.59969  0.012926269  0.012118205         3716 
 3383000   0.69767866   -8.6717943    523.31851  0.012890889  0.012112934         3696 
 3384000   0.71023064   -8.6726583    523.98886  0.012903587   0.01210766         3759 
 3385000   0.71231796   -8.6804307    523.98666  0.012899721  0.012102394         3704 
 3386000   0.72022775   -8.6872267    524.27204  0.012902935  0.012097128         3721 
 3387000    0.7142141   -8.6964439    522.89558  0.012865259  0.012091867         3729 
 3388000   0.72204806   -8.7384664    522.58734   0.01285388  0.012086606         3716 
 3389000   0.72135485   -8.7222606    522.34905  0.012844228   0.01208135         3674 
 3390000   0.71570546    -8.685336    523.28904  0.012863546  0.012076089         3706 
 3391000   0.69572529    -8.692146    524.56414  0.012891088  0.012070838         3668 
 3392000   0.70494626   -8.7010797    522.67319  0.012840831  0.012065579         3703 
 3393000   0.71605866   -8.7265485    523.55816  0.012858782  0.012060335         3716 
 3394000    0.7135828    -8.707092    523.33384  0.012849485  0.012055094         3725 
 3395000   0.70622913   -8.6882134    523.22857  0.012843117  0.012049847         3747 
 3396000   0.69677689   -8.6760905    523.76642  0.012852533  0.012044611         3690 
 3397000   0.71365741   -8.6787047     523.5501  0.012843443  0.012039371         3687 
 3398000   0.72772309   -8.7044238    524.00332  0.012850778  0.012034135         3723 
 3399000   0.69098315   -8.6957969    522.98442  0.012822017  0.012028901         3752 
 3400000   0.70132494   -8.6867545    522.66145   0.01281033  0.012023666         3702 
 3401000   0.70781712   -8.7001492    523.21588  0.012820148   0.01201844         3729 
 3402000   0.71302754   -8.6741417    523.26187  0.012817506   0.01201321         3720 
 3403000   0.71008277   -8.6982194    523.26333  0.012813775  0.012007987         3742 
 3404000   0.70373709   -8.7146107    522.99486  0.012803438  0.012002769         3729 
 3405000    0.6965194   -8.7029708    522.74267  0.012793506  0.011997551         3721 
 3406000   0.68906476   -8.7315981    523.49311  0.012808111  0.011992332         3701 
 3407000   0.71009331   -8.6947501    523.01452  0.012792646  0.011987121         3721 
 3408000   0.70536106   -8.7040962     522.4405  0.012774856  0.011981911         3726 
 3409000    0.7034877   -8.7151587    522.47127  0.012771861  0.011976702         3739 
 3410000   0.71313792   -8.7099701    522.25071  0.012762725  0.011971491         3752 
 3411000    0.7111442    -8.715893    523.09476  0.012779604  0.011966286         3739 
 3412000   0.69223483   -8.7032323    523.68588  0.012790296  0.011961088         3717 
 3413000   0.71137648    -8.700562    523.55428  0.012783335  0.011955891         3723 
 3414000   0.70904566   -8.7203721     522.9406  0.012764611  0.011950701         3721 
 3415000   0.70875297   -8.6975548    523.31583   0.01277003  0.011945509         3720 
 3416000   0.69825479   -8.7126793    523.14631  0.012762156  0.011940318         3776 
 3417000    0.7009034   -8.7092165    522.69158  0.012747332  0.011935138         3743 
 3418000   0.69987254   -8.6981211    522.44906  0.012737689  0.011929956         3760 
 3419000   0.70158483   -8.6995363    523.63754  0.012762931  0.011924775         3729 
 3420000   0.70222406   -8.7161974    523.71091  0.012760987  0.011919594         3715 
 3421000   0.71386593   -8.6987006    523.61169   0.01275484  0.011914421         3680 
 3422000   0.71279727   -8.7474677     522.8856  0.012733431  0.011909244         3763 
 3423000   0.69440383   -8.6984614    521.99865  0.012708118  0.011904074         3721 
 3424000    0.7056278   -8.7194496    523.16198  0.012732719  0.011898904         3696 
 3425000   0.71544962    -8.706554    522.60388  0.012715423  0.011893734         3722 
 3426000   0.71676868   -8.7039813    523.59447  0.012735806  0.011888568         3658 
 3427000   0.70352547   -8.7097448    523.25382  0.012723807  0.011883409         3718 
 3428000   0.70619773   -8.7190759    522.95048  0.012712721   0.01187825         3717 
 3429000   0.69237596   -8.7193198    523.00902  0.012710436  0.011873091         3718 
 3430000   0.69884843   -8.7230043    522.89384  0.012703932  0.011867934         3734 
 3431000    0.6839343   -8.6928475    523.09375  0.012705085  0.011862787         3737 
 3432000   0.69740305   -8.6956743    524.14675  0.012726951  0.011857639         3717 
 3433000   0.70874434   -8.6959812    523.10574  0.012697974  0.011852499         3727 
 3434000   0.70554681   -8.7052039    523.03521  0.012692565  0.011847358         3716 
 3435000   0.69965997   -8.6788768    523.41745  0.012698143  0.011842217         3720 
 3436000   0.69947148   -8.6883658    523.02354  0.012684894  0.011837081         3716 
 3437000    0.6881123   -8.7099702    522.91985  0.012678689  0.011831947         3709 
 3438000   0.68842901   -8.7055879    522.55782  0.012666226  0.011826817         3725 
 3439000   0.68016323   -8.7108086    523.83885  0.012693585  0.011821693         3748 
 3440000   0.71284165   -8.7177648    523.25266  0.012675694  0.011816566         3767 
 3441000   0.69824819   -8.7109527    523.31726  0.012673575  0.011811443         3730 
 3442000   0.71686201   -8.6967342    522.89206  0.012659599  0.011806323         3727 
 3443000   0.69452488   -8.7258479    523.19491  0.012663252  0.011801205         3713 
 3444000   0.70073455   -8.7114781    523.60311  0.012669452  0.011796089         3734 
 3445000   0.69963803   -8.7290321    521.89032  0.012624343  0.011790975         3739 
 3446000   0.70430896   -8.6872635    524.00685  0.012671862  0.011785866         3719 
 3447000   0.69709077   -8.7120485    522.91288  0.012641739  0.011780756         3720 
 3448000   0.69542074   -8.7083033     523.4936  0.012652107  0.011775652         3715 
 3449000   0.69983074   -8.7181977    523.72332  0.012653989  0.011770547         3723 
 3450000    0.7104725   -8.7049276    522.09752  0.012611051  0.011765444         3761 
 3451000   0.70785541   -8.7148439    522.48844  0.012616837   0.01176035         3710 
 3452000   0.70446336   -8.7289095    522.66756  0.012617506  0.011755248         3725 
 3453000   0.70978996   -8.7215476    523.41733  0.012631946  0.011750153         3738 
 3454000    0.6915321   -8.7051105    522.86518  0.012614968  0.011745063         3737 
 3455000   0.70722874    -8.704367    522.87145  0.012611468  0.011739981         3746 
 3456000   0.71130469   -8.7040259    522.21471  0.012591983  0.011734894         3720 
 3457000    0.6932141   -8.7032639    522.77247  0.012601786  0.011729813         3728 
 3458000   0.68201272   -8.7036519    522.62685  0.012594632  0.011724731         3715 
 3459000   0.70418971   -8.7238416    522.24391  0.012581765  0.011719649         3745 
 3460000    0.6822952   -8.7011302    523.15795  0.012600143  0.011714569         3712 
 3461000   0.70370029   -8.7206664    523.13178  0.012595873  0.011709502         3733 
 3462000   0.70326625   -8.7069959    522.83255  0.012585032  0.011704439         3763 
 3463000   0.71319829   -8.7180235    522.13149  0.012564527   0.01169937         3723 
 3464000   0.68952554   -8.7141522    522.53075  0.012570505  0.011694298         3727 
 3465000    0.6958302   -8.7176965    523.22483   0.01258357  0.011689237         3749 
 3466000   0.70233144   -8.7082974    522.58573  0.012564573  0.011684174         3736 
 3467000   0.70139271   -8.7246345    523.30043  0.012578128  0.011679117         3751 
 3468000   0.69654619   -8.7303593    523.37241   0.01257623  0.011674064         3746 
 3469000    0.6984041   -8.7044804    522.48815  0.012551363  0.011669015         3749 
 3470000   0.69472795   -8.7586657    522.30672  0.012543389  0.011663966         3753 
 3471000    0.6877256   -8.6927751    522.91816  0.012554455   0.01165892         3720 
 3472000   0.70588298   -8.7100765    523.25333  0.012558884  0.011653874         3719 
 3473000   0.69635993   -8.7353231    522.92427  0.012547372  0.011648838         3726 
 3474000   0.71050753   -8.7372843    522.06424   0.01252313  0.011643799         3798 
 3475000    0.7109298   -8.7155988    523.35198  0.012550407  0.011638759         3738 
 3476000   0.70046437   -8.7099878    523.64164  0.012553741  0.011633726         3724 
 3477000   0.69383383   -8.7229956    523.17966  0.012539058  0.011628698         3740 
 3478000    0.7045773   -8.7325014    521.74988  0.012501195  0.011623666         3766 
 3479000   0.71246231   -8.7365414     523.4127  0.012537432  0.011618642         3740 
 3480000   0.69385876   -8.7284563    522.46867  0.012511223  0.011613619         3751 
 3481000     0.699609   -8.7256943    522.76992  0.012514841  0.011608598         3740 
 3482000      0.69431   -8.7124973    522.26027  0.012499049  0.011603579         3783 
 3483000   0.69867635   -8.7271898    523.57591  0.012526938   0.01159856         3735 
 3484000   0.69558231   -8.7335192    521.88929  0.012483001  0.011593549         3767 
 3485000   0.68655029   -8.7258479    522.60852  0.012496617  0.011588542         3731 
 3486000   0.68965052   -8.7206922     521.9912  0.012478275  0.011583534         3746 
 3487000   0.68393511   -8.7350849    522.58881  0.012488978  0.011578534         3708 
 3488000   0.70288805   -8.7234942     521.6909  0.012463945  0.011573539         3738 
 3489000   0.70355153   -8.7251877    523.08571  0.012493687  0.011568543         3747 
 3490000   0.69947737   -8.7426285    522.15744  0.012467943  0.011563548         3764 
 3491000   0.68957119   -8.7190791    523.10927  0.012487092   0.01155856         3752 
 3492000   0.69028476   -8.7454622    522.80278  0.012476202   0.01155357         3774 
 3493000   0.70029162   -8.7074215     522.1189  0.012456315  0.011548592         3750 
 3494000   0.70297076   -8.7127743    523.40965  0.012483535  0.011543613         3724 
 3495000   0.68916953   -8.7363886    522.51418  0.012458612  0.011538638         3761 
 3496000   0.69430961   -8.7284123    522.31397  0.012450276  0.011533664         3760 
 3497000   0.67994434   -8.7183993    521.76301  0.012433586  0.011528679         3744 
 3498000   0.68772483   -8.7046189    523.14937  0.012463059  0.011523706         3716 
 3499000    0.6966024   -8.7358221    522.40154  0.012441687  0.011518734         3792 
 3500000   0.70828785   -8.7262439     521.9981  0.012428526  0.011513761         3786 
 3501000   0.69851556   -8.7552068    522.67191  0.012441015  0.011508795         3741 
 3502000   0.68190385   -8.7323107    522.70064  0.012438146  0.011503826         3787 
 3503000   0.68012388   -8.7291107    523.15024  0.012445291  0.011498864         3737 
 3504000   0.68758125   -8.7556213    522.50085  0.012426295    0.0114939         3764 
 3505000   0.69306873   -8.7469897    522.09619  0.012413129  0.011488944         3738 
 3506000   0.68020542   -8.7312573    522.88961  0.012428447  0.011483993         3716 
 3507000   0.69949952    -8.724215    522.92447  0.012425731  0.011479047         3740 
 3508000   0.69606134   -8.7338273    522.29865  0.012407323  0.011474089         3738 
 3509000   0.69427363   -8.7340419    522.20599  0.012401586  0.011469145         3733 
 3510000   0.66591143   -8.7346488    522.46344  0.012404165  0.011464196         3757 
 3511000   0.68381538   -8.7278215     521.9489   0.01238842  0.011459248         3791 
 3512000   0.68890567   -8.7333435    522.51939  0.012398429  0.011454305         3746 
 3513000   0.69765257   -8.7392739    522.94521  0.012405001  0.011449363         3732 
 3514000   0.68189168   -8.7204156     521.9961  0.012378963  0.011444427         3720 
 3515000   0.68216035   -8.7252004    523.89702  0.012420508  0.011439493         3796 
 3516000   0.70671329   -8.7357543    522.18972   0.01237651  0.011434557         3736 
 3517000   0.69173556   -8.7289036     523.0443   0.01239324  0.011429633         3775 
 3518000   0.69866415   -8.7227284    522.54615  0.012377917  0.011424711         3748 
 3519000   0.69075183   -8.7184108    522.89672  0.012382702  0.011419787         3753 
 3520000   0.68824032   -8.7250976    522.89266  0.012379088  0.011414869         3770 
 3521000   0.69153869   -8.7146949    522.41602  0.012364291  0.011409954         3767 
 3522000   0.69300011   -8.7234174     523.0086  0.012374801  0.011405042         3755 
 3523000   0.68658839   -8.7482377    521.77329  0.012342069  0.011400134         3754 
 3524000   0.69100049   -8.7522691     522.9197  0.012365676  0.011395223         3751 
 3525000   0.66885433   -8.7380037    521.10614  0.012319294  0.011390319         3732 
 3526000   0.68427391   -8.7421226     522.0716  0.012338618  0.011385418         3744 
 3527000   0.67203498   -8.7262673    523.22822  0.012362447  0.011380517         3739 
 3528000   0.69363136   -8.7393558    521.80854   0.01232541   0.01137562         3736 
 3529000   0.70090945   -8.7392366    523.01976  0.012350519  0.011370718         3757 
 3530000    0.6830764   -8.7347315    521.62765  0.012314156  0.011365828         3775 
 3531000   0.68890459   -8.7490899    522.28836  0.012326262  0.011360936         3762 
 3532000   0.67575615   -8.7267092    524.11573  0.012365886  0.011356047         3753 
 3533000   0.68051333   -8.7358103    522.35024  0.012320743  0.011351162         3766 
 3534000   0.67796227   -8.7652797    522.16749  0.012312948  0.011346278         3806 
 3535000   0.68199758   -8.7344774    521.41207  0.012291657  0.011341393         3757 
 3536000   0.68918951   -8.7585663    521.37623  0.012287336  0.011336511         3755 
 3537000   0.67465716   -8.7358869     523.0021  0.012322168  0.011331632         3724 
 3538000   0.68624799   -8.7386091    521.62182  0.012286174  0.011326755         3777 
 3539000    0.6901169    -8.732425    522.65625  0.012307061  0.011321886         3734 
 3540000   0.69212521   -8.7528362    522.87862  0.012308819  0.011317022         3747 
 3541000   0.68681148   -8.7169049    523.16355  0.012312048  0.011312149         3734 
 3542000   0.68501784   -8.7251992     521.9514  0.012280054  0.011307286         3764 
 3543000   0.68076791   -8.7601179    521.18167  0.012258483  0.011302424         3792 
 3544000   0.69455716   -8.7480279    521.83699  0.012270433  0.011297567         3713 
 3545000   0.66653465   -8.7291972    522.44493  0.012281263  0.011292713         3724 
 3546000   0.68750038   -8.7281251    522.83913  0.012287064   0.01128786         3780 
 3547000   0.68672181   -8.7474578    521.36341  0.012248929  0.011283013         3725 
 3548000   0.66353832   -8.7350693    522.04154  0.012261404   0.01127816         3775 
 3549000   0.69546169   -8.7546966    521.42422  0.012243454  0.011273315         3761 
 3550000   0.68069563   -8.7593941    521.40072  0.012239453  0.011268471         3793 
 3551000   0.69381514   -8.7365419    523.27672  0.012280032  0.011263627         3771 
 3552000   0.67424917    -8.732844    521.98541  0.012246279  0.011258792         3741 
 3553000   0.68083632   -8.7408825    523.08512  0.012268625   0.01125396         3728 
 3554000   0.68791224   -8.7403752    521.17486  0.012220382  0.011249124         3744 
 3555000   0.68823216   -8.7381755    522.62613  0.012250964    0.0112443         3748 
 3556000   0.68100217   -8.7380666    522.82989  0.012252294  0.011239478         3749 
 3557000   0.67728101   -8.7331005    522.69846   0.01224577  0.011234653         3731 
 3558000   0.67457903   -8.7385172    522.62701  0.012240655  0.011229831         3734 
 3559000   0.69138376   -8.7618935    521.57498  0.012212583   0.01122501         3748 
 3560000   0.67168077   -8.7439531    520.24976  0.012178131  0.011220192         3740 
 3561000   0.68749403   -8.7374813    521.29697  0.012199218  0.011215376         3765 
 3562000   0.68363073   -8.7398823     522.5408  0.012224892   0.01121056         3758 
 3563000   0.66892196   -8.7546196    521.83786  0.012205021  0.011205758         3770 
 3564000   0.67652532   -8.7361646     522.2033  0.012210141  0.011200948         3754 
 3565000   0.67345034   -8.7629824    521.92514  0.012200214  0.011196146         3777 
 3566000   0.68089383   -8.7651011    521.82778  0.012194517  0.011191341         3791 
 3567000   0.69166694   -8.7317835    521.28727  0.012178471  0.011186546         3764 
 3568000   0.67444656   -8.7534862    522.18477   0.01219602  0.011181749         3734 
 3569000   0.68001214   -8.7552618    522.28969  0.012195052  0.011176953         3746 
 3570000   0.68025949   -8.7483578    521.93308  0.012183312  0.011172166         3742 
 3571000   0.67795499   -8.7422294    521.57698   0.01217159  0.011167371         3768 
 3572000   0.67537684   -8.7460044    521.92611  0.012176328  0.011162585         3739 
 3573000   0.68265467   -8.7766922    521.39915  0.012160629  0.011157802         3799 
 3574000    0.6858459   -8.7527657    521.14316  0.012151258  0.011153018         3745 
 3575000   0.67659556    -8.735043    521.87955  0.012165024  0.011148249         3729 
 3576000   0.66094264   -8.7359457    522.07139  0.012166093  0.011143474         3781 
 3577000   0.67281172   -8.7518603    522.59675  0.012174931  0.011138701         3759 
 3578000   0.68322084   -8.7655053    520.79692   0.01212961  0.011133932         3753 
 3579000   0.68189801   -8.7608664    522.14698  0.012157655  0.011129162         3718 
 3580000   0.66155852   -8.7365766    521.83323  0.012146956  0.011124399         3771 
 3581000   0.67659465   -8.7634687    522.21586  0.012152468  0.011119637         3755 
 3582000   0.66643472   -8.7486689    521.83265   0.01214016   0.01111488         3782 
 3583000   0.68193859   -8.7569477    521.51957   0.01212949  0.011110123         3803 
 3584000   0.65265215   -8.7234146    521.77819  0.012132119  0.011105364         3716 
 3585000   0.68657263   -8.7401492    521.81699  0.012129637   0.01110061         3738 
 3586000   0.68665202   -8.7621823    521.66124  0.012122635  0.011095862         3760 
 3587000   0.67044467   -8.7445007    521.78489  0.012122128  0.011091119         3729 
 3588000   0.68290583   -8.7176829    521.57171  0.012113798  0.011086379         3725 
 3589000   0.68504983   -8.7515809      521.356  0.012105415  0.011081638         3773 
 3590000   0.66430717     -8.76463    522.02391  0.012117547  0.011076899         3774 
 3591000   0.67547973    -8.739698    521.43869  0.012100591  0.011072159         3736 
 3592000   0.67461453   -8.7408296    521.50461  0.012098752   0.01106742         3739 
 3593000   0.68620178   -8.7607119    522.03223  0.012107622  0.011062685         3709 
 3594000   0.66968898   -8.7692935    522.00885  0.012103711  0.011057951         3755 
 3595000   0.68219191   -8.7598398    521.78366  0.012095124  0.011053223         3751 
 3596000   0.68015993   -8.7454301    521.60853  0.012087702  0.011048497         3746 
 3597000   0.67756479   -8.7644019    521.80232  0.012088831  0.011043777         3749 
 3598000   0.67014299   -8.7694398    522.08284  0.012091969  0.011039053         3744 
 3599000   0.68354458   -8.7352807    522.70826   0.01210309  0.011034332         3737 
 3600000   0.66371416   -8.7706086    521.34781  0.012068236  0.011029617         3738 
 3601000   0.66484413   -8.7490154    521.49717  0.012068341  0.011024902         3743 
 3602000    0.6814107   -8.7470812    522.10013  0.012078941  0.011020193         3711 
 3603000   0.65828399   -8.7449101    522.96198  0.012095522  0.011015492         3792 
 3604000   0.68702888   -8.7665305    520.85408  0.012043426  0.011010783         3778 
 3605000   0.67364827   -8.7402974    522.38436  0.012075459  0.011006083         3751 
 3606000   0.67300917   -8.7291103    521.85357  0.012059844  0.011001379         3768 
 3607000   0.65606557   -8.7550888    522.14151  0.012063153  0.010996684         3698 
 3608000    0.6762194   -8.7513456    521.31646  0.012040754  0.010991988         3733 
 3609000   0.68515985   -8.7471813    521.76647  0.012047808  0.010987291         3751 
 3610000   0.67169058   -8.7604664    521.01703  0.012027171    0.0109826         3753 
 3611000   0.67441219   -8.7405269    521.15212  0.012026957  0.010977914         3726 
 3612000   0.67661748    -8.760238    521.74144  0.012037224  0.010973229         3717 
 3613000   0.66723921   -8.7493337    521.41572   0.01202638  0.010968541         3762 
 3614000   0.65642745    -8.745726    522.05545  0.012037803  0.010963856         3759 
 3615000    0.6692559   -8.7646047    522.34269  0.012041095   0.01095918         3785 
 3616000   0.67775978   -8.7613323    522.24555  0.012035526  0.010954506         3747 
 3617000   0.65848028   -8.7440723    522.44069  0.012036694  0.010949833         3710 
 3618000   0.66102112   -8.7642663    520.98725  0.011999891  0.010945166         3782 
 3619000   0.67893166   -8.7362106    521.49555  0.012008279  0.010940503         3753 
 3620000   0.69280306   -8.7478253    522.25799  0.012022514  0.010935842         3792 
 3621000   0.67895836   -8.7605826    521.89148  0.012010758  0.010931183         3777 
 3622000    0.6676551   -8.7557043    522.38941  0.012018899  0.010926526         3741 
 3623000   0.66234133   -8.7556607    522.18428  0.012010863  0.010921864         3766 
 3624000    0.6605364   -8.7611453    521.71339  0.011996721  0.010917205         3757 
 3625000    0.6745461   -8.7628349    520.73641  0.011970952  0.010912553         3785 
 3626000   0.67285802   -8.7451481    521.95251  0.011995599  0.010907906         3730 
 3627000    0.6828982   -8.7653792     521.5198   0.01198235  0.010903258         3800 
 3628000   0.67089096   -8.7345167    521.98085  0.011989637  0.010898612         3743 
 3629000   0.68004551   -8.7721008      521.526  0.011975889  0.010893968         3741 
 3630000   0.66921178   -8.7672354    521.37739  0.011969178  0.010889329         3774 
 3631000   0.68749137   -8.7767624    521.91049  0.011978116   0.01088469         3753 
 3632000   0.66131581   -8.7534055    522.37933  0.011985576  0.010880055         3754 
 3633000   0.67744021   -8.7952273    521.46904  0.011961396  0.010875417         3775 
 3634000   0.66328065   -8.7548935    521.33408   0.01195501  0.010870781         3747 
 3635000   0.65030952   -8.7467367    521.43647  0.011954068  0.010866149         3792 
 3636000   0.65546835   -8.7591775    522.01188  0.011963969  0.010861521         3775 
 3637000   0.68566413   -8.7816325    521.51867  0.011949378  0.010856896         3778 
 3638000   0.67614847   -8.7681715    521.36151  0.011942494  0.010852271         3776 
 3639000   0.66305874   -8.7632887    521.90136  0.011951574  0.010847645         3795 
 3640000    0.6598818    -8.755804    521.77029  0.011945291  0.010843025         3789 
 3641000   0.67125234   -8.7632665    520.07103  0.011903118  0.010838406         3781 
 3642000   0.65973213   -8.7639779    521.13153  0.011924115  0.010833788         3751 
 3643000   0.67148232   -8.7789155    520.91681   0.01191593  0.010829176         3767 
 3644000   0.66848951   -8.7575817    522.68403  0.011953074  0.010824573         3778 
 3645000   0.66050268   -8.7696695    522.15693  0.011937744  0.010819968         3756 
 3646000   0.66522964   -8.7798091    521.57596  0.011921191  0.010815364         3759 
 3647000   0.66011661   -8.7662922    521.98975  0.011927378  0.010810767         3788 
 3648000   0.65975101    -8.766431    521.83302  0.011920528  0.010806168         3756 
 3649000   0.67081168   -8.7736365    521.09089  0.011900313  0.010801573         3758 
 3650000   0.67231979   -8.7699352    522.38523  0.011926603  0.010796982         3704 
 3651000   0.65971145    -8.774775     521.3554  0.011899831  0.010792387         3750 
 3652000   0.65781381   -8.7811314     521.8585  0.011908053  0.010787798         3761 
 3653000   0.68248864   -8.7415918    521.68928  0.011900933  0.010783208         3761 
 3654000   0.67774873   -8.7689583    522.31954  0.011912049  0.010778631         3772 
 3655000   0.66387279   -8.7487236    521.88558  0.011898896  0.010774055         3714 
 3656000   0.68633205   -8.7744955    522.91305  0.011919061  0.010769482         3748 
 3657000   0.66113411   -8.7362011    521.89201  0.011892535  0.010764911         3714 
 3658000   0.65149431   -8.7597628    522.26116  0.011897694  0.010760344         3748 
 3659000   0.67168797   -8.7799313    521.09769  0.011867944  0.010755774         3780 
 3660000   0.67370667   -8.7658335    522.36611  0.011893582  0.010751209         3757 
 3661000   0.66655257   -8.7799808    521.48293   0.01187023  0.010746646         3795 
 3662000   0.66589463   -8.7603545    522.52906  0.011890794  0.010742088         3779 
 3663000   0.66779584    -8.762324    521.80662  0.011871113  0.010737526         3724 
 3664000   0.66254655   -8.7829403    521.00616  0.011849667  0.010732967         3775 
 3665000   0.65245345   -8.7681243    521.56298  0.011859095  0.010728413         3753 
 3666000   0.66799888   -8.7591793    521.42394  0.011852699  0.010723858         3779 
 3667000   0.65197255   -8.7564804     521.7374   0.01185659  0.010719308         3751 
 3668000   0.67088336   -8.7632066      521.268  0.011842694  0.010714763         3771 
 3669000   0.66244323   -8.7844912    521.87563  0.011853267  0.010710218         3765 
 3670000   0.67052116   -8.7598341    521.62877  0.011844432  0.010705678         3772 
 3671000   0.66913544   -8.7656072    519.79613  0.011799603  0.010701135         3743 
 3672000   0.66338467   -8.7733657    521.91136  0.011844394  0.010696594         3752 
 3673000   0.65972635   -8.7667441    521.46904  0.011831133  0.010692051         3768 
 3674000   0.66295919   -8.7705322    521.18523  0.011821476   0.01068752         3783 
 3675000   0.66564346     -8.74942    521.52301  0.011825919  0.010682993         3734 
 3676000   0.66743987   -8.7617277     521.3009  0.011817666  0.010678463         3764 
 3677000   0.65974002   -8.7811308    522.36388  0.011838543  0.010673937         3760 
 3678000    0.6642482   -8.7658121    521.94023  0.011825726  0.010669416         3767 
 3679000   0.65640291    -8.789783    522.10232  0.011826183  0.010664891         3721 
 3680000   0.65355784    -8.760981    521.99927  0.011820636  0.010660373         3786 
 3681000    0.6711804   -8.7795469    521.95184  0.011816351  0.010655849         3768 
 3682000    0.6750086   -8.7786207    521.32457  0.011798945  0.010651334         3783 
 3683000   0.66340187   -8.7774523    521.10758  0.011790831  0.010646827         3797 
 3684000   0.67018455   -8.7831779    521.53355  0.011797266   0.01064232         3785 
 3685000   0.66252064   -8.7919079     520.7134  0.011775518  0.010637809         3741 
 3686000   0.65433483   -8.7852292    521.61718  0.011792756  0.010633303         3720 
 3687000   0.67183076   -8.7682574    521.46936  0.011786217    0.0106288         3782 
 3688000    0.6506039   -8.7658248    520.48349  0.011760744  0.010624301         3772 
 3689000   0.66249558   -8.7758122     521.0325  0.011769958  0.010619804         3732 
 3690000   0.66379002   -8.7788495    520.73791  0.011760116  0.010615312         3774 
 3691000   0.67124136   -8.7701659    522.25453  0.011791171   0.01061082         3738 
 3692000   0.65216661   -8.7790211    521.70923  0.011775669  0.010606328         3737 
 3693000   0.65721856   -8.8017196    520.82201   0.01175246  0.010601838         3778 
 3694000   0.66621215    -8.796745    521.26948  0.011759373  0.010597353         3780 
 3695000   0.66938107   -8.7625781    521.70591  0.011766033  0.010592873         3749 
 3696000   0.65074037   -8.7598944    521.89154  0.011767035  0.010588392         3764 
 3697000   0.66001312   -8.7666361    520.40756  0.011730402  0.010583914         3753 
 3698000   0.67006088   -8.7755286    520.87784  0.011737828  0.010579436         3732 
 3699000    0.6614184   -8.7766581    520.81638   0.01173327  0.010574957         3755 
 3700000   0.65783208   -8.7839358    521.06002  0.011735586  0.010570487         3762 
 3701000   0.63305964   -8.7791032    521.58278  0.011744186  0.010566013         3758 
 3702000   0.64930422   -8.7417178    522.33641  0.011757978  0.010561547         3753 
 3703000   0.65997048    -8.773158    520.62615  0.011716314  0.010557087         3729 
 3704000   0.66737612   -8.7917374    520.77919  0.011716594  0.010552625         3768 
 3705000   0.66211369   -8.7804507    520.54714  0.011708213  0.010548163         3780 
 3706000    0.6498309   -8.7805397    521.21614  0.011720097    0.0105437         3777 
 3707000   0.66366565   -8.7703626    521.82401    0.0117306  0.010539246         3763 
 3708000   0.67080969   -8.7661127    522.19477  0.011735769  0.010534794         3726 
 3709000   0.65190386   -8.7721902    520.77626  0.011700734  0.010530344         3769 
 3710000   0.65337165   -8.8078964    521.19793  0.011707051  0.010525895         3748 
 3711000    0.6457116   -8.7817637    521.14422  0.011702691  0.010521448         3759 
 3712000   0.67167021   -8.7789614    521.04606  0.011697334  0.010517004         3766 
 3713000   0.65275924    -8.784638    520.54903  0.011683029  0.010512562         3731 
 3714000   0.66272574   -8.7736286    521.07426  0.011691668  0.010508121         3751 
 3715000   0.64046194   -8.7685207    521.51067   0.01169831  0.010503686         3738 
 3716000   0.66023843   -8.7658064    521.61123  0.011697417  0.010499249         3762 
 3717000   0.65716553   -8.7712415    521.98793  0.011702716   0.01049482         3747 
 3718000    0.6467186   -8.7802687    521.84372  0.011696336  0.010490387         3722 
 3719000   0.65399666    -8.790062    521.32737  0.011681621  0.010485953         3748 
 3720000   0.66205191   -8.7815293    521.38828  0.011679845   0.01048153         3762 
 3721000   0.66743649   -8.7782399    521.32423  0.011675272  0.010477104         3745 
 3722000   0.66207765   -8.7796117    521.60175  0.011678348  0.010472687         3764 
 3723000   0.67171412   -8.8125167    520.10714  0.011641757  0.010468268         3787 
 3724000   0.67032986   -8.7513189    521.72955  0.011674936  0.010463852         3757 
 3725000   0.66096345   -8.7925494    520.97746  0.011654977  0.010459435         3761 
 3726000   0.65114987   -8.7721695    521.12945  0.011655248  0.010455021         3767 
 3727000   0.66240084   -8.7614153    521.54196  0.011661344  0.010450612         3768 
 3728000   0.65157382   -8.7943866    520.93278  0.011644599  0.010446207         3742 
 3729000   0.65602582   -8.7801771    520.93667  0.011641563  0.010441805         3798 
 3730000   0.66854376   -8.7989532    520.96299   0.01163903  0.010437402         3769 
 3731000   0.64960098   -8.7909367    520.63739  0.011628638  0.010432995         3731 
 3732000   0.65972351   -8.7607666    520.69464  0.011626801  0.010428598         3762 
 3733000   0.68185071   -8.8107309    521.31906  0.011637625  0.010424203         3780 
 3734000   0.67742323   -8.7892352     521.2956  0.011633985  0.010419809         3757 
 3735000   0.65657745   -8.7655677    521.79248  0.011641956  0.010415416         3778 
 3736000   0.66347098   -8.7951263    521.65109  0.011635686  0.010411031         3734 
 3737000   0.66508701   -8.7868565     520.4516  0.011605825  0.010406642         3782 
 3738000   0.66056254   -8.7831707    522.18292  0.011641317   0.01040226         3728 
 3739000    0.6533831   -8.7930282    522.19154  0.011638396  0.010397881         3755 
 3740000   0.64203094   -8.7939097    520.82931  0.011604931  0.010393499         3800 
 3741000   0.66596646   -8.7719987    521.07608  0.011607326  0.010389125         3755 
 3742000   0.65845787   -8.7933573     520.7835  0.011597708  0.010384752         3778 
 3743000   0.64200166   -8.7819249    520.50512  0.011588412  0.010380379         3771 
 3744000   0.64701307   -8.7845419    520.26968  0.011580077   0.01037601         3787 
 3745000   0.64425606   -8.7813108    520.48133  0.011581694  0.010371646         3756 
 3746000   0.65417588   -8.7767371    521.00518  0.011590256  0.010367287         3741 
 3747000   0.65940416   -8.7877893     520.4645  0.011575138  0.010362926         3757 
 3748000   0.65151879   -8.7987999    520.66451  0.011576497  0.010358571         3736 
 3749000   0.64540659   -8.7995769    521.18059   0.01158488  0.010354213         3788 
 3750000    0.6485283   -8.7978527    521.14814   0.01158107  0.010349857         3787 
 3751000   0.64511337   -8.8135581    522.09752  0.011599074  0.010345505         3761 
 3752000   0.64277399   -8.7979664    521.21921  0.011576475  0.010341153         3794 
 3753000   0.65396539   -8.7840659    520.15034  0.011549657  0.010336802         3728 
 3754000   0.65304135   -8.8023745    520.10659  0.011545609  0.010332448         3792 
 3755000   0.65440094   -8.7866185    521.17632  0.011566274  0.010328101         3759 
 3756000   0.65716015    -8.804834    520.27883  0.011543282  0.010323758         3749 
 3757000   0.65796848   -8.7994619    521.06048  0.011557548   0.01031942         3807 
 3758000   0.64608438   -8.7908094    521.37783  0.011561509  0.010315078         3783 
 3759000     0.645226   -8.8033145    521.04277  0.011551006  0.010310742         3747 
 3760000   0.65128697   -8.7979945    520.74193  0.011541266   0.01030641         3774 
 3761000   0.65718302   -8.7880992    520.66987  0.011536601  0.010302077         3741 
 3762000   0.63962306   -8.7747353    521.63235  0.011554854  0.010297747         3752 
 3763000    0.6474448   -8.7838488    521.17817  0.011541726  0.010293421         3732 
 3764000   0.66195462   -8.7810146    521.46173  0.011544937  0.010289098         3745 
 3765000      0.64087   -8.7785001    521.09537  0.011533762   0.01028478         3738 
 3766000   0.66356303   -8.7863358    521.49877  0.011539626  0.010280459         3760 
 3767000   0.65468815   -8.7961618    520.55467  0.011515677  0.010276143         3752 
 3768000   0.64959272   -8.7955485    521.09075  0.011524477  0.010271825         3771 
 3769000   0.65656354   -8.7846082    520.98772  0.011519141  0.010267516         3776 
 3770000   0.65588833   -8.7916293     520.8027  0.011511996  0.010263206         3765 
 3771000   0.64512339   -8.7967576    520.06144  0.011492562    0.0102589         3746 
 3772000   0.64058587   -8.7961532    520.88072  0.011507616   0.01025459         3761 
 3773000   0.64598767     -8.80359     521.4535  0.011517217  0.010250285         3745 
 3774000   0.65062515    -8.807234    520.44165  0.011491822  0.010245979         3788 
 3775000   0.64873598   -8.7980742    520.61644  0.011492637  0.010241679         3770 
 3776000   0.65082228   -8.8050642     520.1848  0.011480067  0.010237378         3779 
 3777000   0.64642404   -8.8142138    520.37989  0.011481332  0.010233086         3731 
 3778000   0.63875978   -8.8004369    520.73284  0.011486078  0.010228791         3811 
 3779000   0.64891703   -8.8065939    520.51446  0.011478223  0.010224495         3795 
 3780000   0.64873775   -8.7870289    521.29074    0.0114923  0.010220204         3787 
 3781000   0.67325304   -8.7991297     519.5852  0.011451671  0.010215912         3769 
 3782000   0.66931721   -8.8143701    520.22364   0.01146271  0.010211628         3764 
 3783000   0.63652021   -8.8273395    519.63216  0.011446651  0.010207344         3793 
 3784000   0.65278335   -8.8185881    520.32563  0.011458898  0.010203061         3792 
 3785000   0.64415047    -8.805477     520.2709  0.011454665   0.01019878         3747 
 3786000   0.64766779   -8.8055221    520.97011   0.01146703  0.010194503         3797 
 3787000   0.63721739   -8.7942999    521.12025  0.011467306  0.010190222         3778 
 3788000   0.64604025   -8.7964553    520.97845  0.011461159   0.01018595         3774 
 3789000   0.64564129   -8.8104078    520.39608  0.011445326  0.010181681         3771 
 3790000   0.64408096   -8.7711802    520.79748  0.011451132  0.010177417         3774 
 3791000    0.6614423   -8.8001393    520.07084  0.011432138  0.010173154         3799 
 3792000   0.63590507   -8.7800753    520.54071   0.01143945  0.010168889         3784 
 3793000   0.65193189   -8.7961664    519.85181  0.011421298  0.010164631         3790 
 3794000   0.65944178   -8.7845958    520.52863  0.011433154  0.010160379         3759 
 3795000   0.65319714   -8.8080658    520.72937  0.011434549  0.010156126         3820 
 3796000   0.63394331    -8.796967    519.79868  0.011411106  0.010151876         3779 
 3797000   0.63892136   -8.7992496    520.94832  0.011433332  0.010147627         3734 
 3798000   0.64580102   -8.8381225    520.42233   0.01141878  0.010143375         3776 
 3799000   0.64021251   -8.8019634     520.6062  0.011419808  0.010139129         3744 
 3800000   0.64420921   -8.7951985    520.80894  0.011421249  0.010134882         3756 
 3801000   0.64333807   -8.7970784    520.45518  0.011410488  0.010130636         3771 
 3802000   0.64033729    -8.825104    520.38063  0.011405853  0.010126399         3771 
 3803000   0.63102297   -8.8038835    519.70446  0.011388037  0.010122158         3759 
 3804000   0.65139314   -8.7863615    520.47206  0.011401859  0.010117924         3767 
 3805000   0.63725217    -8.807043    520.38404  0.011396935  0.010113687         3784 
 3806000   0.63778293   -8.7986105    520.63359  0.011399404  0.010109458         3783 
 3807000    0.6520883    -8.805966    519.85935  0.011379462  0.010105231         3777 
 3808000   0.65402897   -8.7946887    520.17672  0.011383419  0.010101004         3754 
 3809000   0.65144887   -8.7943574    520.75409  0.011393062   0.01009678         3742 
 3810000   0.65283043   -8.7969599    520.99612  0.011395366   0.01009256         3743 
 3811000   0.63851292   -8.8048491    520.67868  0.011385434   0.01008834         3770 
 3812000   0.64944596   -8.7961633    520.15721  0.011371048  0.010084124         3751 
 3813000   0.65541904   -8.8046736    521.77788  0.011403486   0.01007991         3772 
 3814000   0.63882861   -8.8112548    520.17174  0.011365402  0.010075698         3774 
 3815000   0.64582887   -8.8135107    520.63729  0.011372593  0.010071486         3760 
 3816000   0.63751971   -8.8026171    521.28548  0.011383767  0.010067275         3768 
 3817000   0.64163714   -8.7878125    520.00516  0.011352833   0.01006307         3743 
 3818000   0.62894176   -8.8158283    520.92751  0.011369991  0.010058866         3744 
 3819000   0.64335236   -8.8228525     519.5031  0.011335932   0.01005466         3762 
 3820000   0.64797351    -8.810802    520.30582  0.011350476  0.010050457         3761 
 3821000   0.64445799   -8.7959001     520.9069  0.011360615  0.010046258         3772 
 3822000   0.63794302   -8.8096893     519.9986  0.011337838  0.010042063         3804 
 3823000   0.63629094   -8.8158781    519.50405  0.011324092  0.010037868         3796 
 3824000   0.63255577   -8.8163003    520.27425  0.011337915  0.010033678         3787 
 3825000   0.64831623   -8.8119733    520.05727  0.011330224   0.01002949         3750 
 3826000   0.63780238   -8.8225492    519.27765  0.011310282  0.010025303         3743 
 3827000   0.64076425   -8.8087373    520.26478  0.011328821  0.010021117         3756 
 3828000   0.64374298   -8.8042395    520.44091  0.011329696  0.010016931         3775 
 3829000   0.64557101   -8.8107887    520.33159  0.011324358  0.010012746         3778 
 3830000   0.65375591    -8.807659    520.48344  0.011324705  0.010008564         3785 
 3831000    0.6497176   -8.8082539    520.50581  0.011322235  0.010004388         3793 
 3832000   0.64308559   -8.8202935    519.79074   0.01130373  0.010000213         3780 
 3833000   0.61246837   -8.8064672    520.49358  0.011316062 0.0099960412         3777 
 3834000   0.63777699   -8.8164503    520.49804  0.011313207 0.0099918687         3764 
 3835000    0.6170761   -8.8068083    520.60034   0.01131248 0.0099876981         3765 
 3836000    0.6347706   -8.8123796    520.24798  0.011301877 0.0099835305         3776 
 3837000   0.63517262   -8.8218874    520.08762  0.011295448 0.0099793665         3752 
 3838000   0.62895345    -8.802525    520.31902   0.01129753  0.009975204         3775 
 3839000   0.64045429   -8.8175938    520.64197  0.011301597 0.0099710497         3790 
 3840000   0.64556101   -8.8210883    520.55948  0.011296864 0.0099668962         3787 
 3841000   0.62161042   -8.7800613    520.29213  0.011288122 0.0099627399         3771 
 3842000   0.63945537   -8.8005406    520.38275   0.01128715 0.0099585872         3770 
 3843000   0.64420683   -8.8169828    519.11422  0.011256705 0.0099544322         3779 
 3844000   0.64988541    -8.835366     519.1917  0.011255456 0.0099502862         3777 
 3845000   0.63414486   -8.8275568    518.72491  0.011242412 0.0099461391         3762 
 3846000   0.65862385    -8.822726    520.02328  0.011267622 0.0099419931         3803 
 3847000   0.63399868   -8.8044315     520.4473  0.011273878 0.0099378536         3766 
 3848000   0.64150464   -8.8263267    519.26057  0.011245248 0.0099337107         3798 
 3849000   0.63107383   -8.8340134    519.81392  0.011254307 0.0099295756         3793 
 3850000   0.63845985   -8.7958355    520.09216  0.011257406 0.0099254403         3729 
 3851000   0.63179769   -8.8166069     520.7124  0.011267904 0.0099213084         3770 
 3852000   0.63822426   -8.8312331    519.65325  0.011242066 0.0099171806         3770 
 3853000   0.63943974   -8.8162527    519.61023  0.011238218 0.0099130525         3756 
 3854000   0.64388929   -8.8306486    519.81514  0.011239732 0.0099089308         3786 
 3855000   0.62521042   -8.8077508     520.4496  0.011250532 0.0099048073         3795 
 3856000   0.62235443   -8.8036442    519.97493  0.011237356 0.0099006867         3771 
 3857000   0.66500979   -8.8170029     520.5385  0.011246619 0.0098965698         3773 
 3858000   0.64287722   -8.8349834    518.98263  0.011210097 0.0098924546         3732 
 3859000   0.64517321   -8.8327449    519.64277  0.011221447 0.0098883428         3753 
 3860000   0.64111866    -8.818542    519.10801  0.011206995 0.0098842318         3780 
 3861000   0.63382902   -8.8048986    519.67487  0.011216327 0.0098801231         3762 
 3862000   0.62707094   -8.8082041    519.88931   0.01121805 0.0098760164         3801 
 3863000   0.64021809   -8.8209019    520.95655  0.011238169 0.0098719128         3764 
 3864000   0.63246937   -8.8106002    520.64874  0.011228622 0.0098678101         3770 
 3865000   0.62223871   -8.7927764    520.15546  0.011215081 0.0098637104         3736 
 3866000   0.65189094   -8.8030753    520.19146  0.011212956 0.0098596144         3711 
 3867000   0.63854716   -8.8363367    519.66471  0.011198705 0.0098555163         3757 
 3868000   0.64111422   -8.8081662    520.45931  0.011212929 0.0098514186         3748 
 3869000   0.63754069   -8.8174025    519.83321  0.011196545 0.0098473268         3769 
 3870000   0.63141306   -8.8180867     520.2142  0.011201856 0.0098432377         3786 
 3871000   0.62876755   -8.8287394      520.394  0.011202833 0.0098391508         3788 
 3872000   0.63939385   -8.8308479    519.90914  0.011189505 0.0098350662         3750 
 3873000   0.64370078   -8.8375176     519.9798  0.011188136 0.0098309834         3799 
 3874000   0.63555914   -8.8079178    520.52143  0.011196899 0.0098268996         3782 
 3875000   0.63601736   -8.8293757    519.81528  0.011178823 0.0098228194         3774 
 3876000    0.6388687   -8.8219195    521.69113  0.011216269 0.0098187432         3762 
 3877000   0.63990588   -8.8246809    519.99322  0.011176881 0.0098146685         3784 
 3878000   0.63328941   -8.8253191     520.2625  0.011179786 0.0098105923         3772 
 3879000   0.62072389   -8.8206486    519.68495  0.011164496 0.0098065193         3782 
 3880000   0.64007454    -8.812097    520.30624  0.011174962 0.0098024472         3751 
 3881000   0.63137551   -8.8400535    519.33628  0.011151256 0.0097983789         3759 
 3882000   0.63268571   -8.8098847    519.73154  0.011156868 0.0097943134         3755 
 3883000   0.63112764    -8.826754    520.29849  0.011166162 0.0097902493         3782 
 3884000   0.63380468   -8.8059277    520.08569  0.011158721  0.009786192         3771 
 3885000   0.61927595   -8.8211396    519.33824  0.011139816 0.0097821333         3809 
 3886000   0.63548176   -8.8323896    519.45247  0.011139399 0.0097780751         3734 
 3887000   0.62557875   -8.8080832    519.81061  0.011144212 0.0097740206         3808 
 3888000   0.63656989   -8.8133413     520.0438  0.011146343 0.0097699691         3775 
 3889000   0.61431372   -8.8183307    519.04331  0.011122039 0.0097659196         3771 
 3890000   0.61211483   -8.8182058    520.77788  0.011156338 0.0097618737         3789 
 3891000   0.62610785    -8.806555    520.30694  0.011143385 0.0097578262         3775 
 3892000    0.6264601   -8.8315419    519.94697  0.011132815 0.0097537853         3785 
 3893000   0.62313189   -8.8277322    520.81007   0.01114843 0.0097497405         3778 
 3894000   0.64363527   -8.8443479    519.92006  0.011126521 0.0097457024         3767 
 3895000   0.62826341   -8.8295301    519.27249  0.011109809 0.0097416636         3788 
 3896000   0.62747527   -8.8492281    518.84863  0.011097892 0.0097376264         3790 
 3897000   0.62788279   -8.8264506    519.80277  0.011115447 0.0097335949         3769 
 3898000   0.62711814   -8.8238571    519.50377  0.011106203 0.0097295656         3785 
 3899000   0.63708058   -8.8273573     521.1323  0.011138161 0.0097255373         3784 
 3900000   0.62712927   -8.8400928     520.8342  0.011128936 0.0097215155         3736 
 3901000   0.61682102   -8.8387278    519.98164  0.011107871 0.0097174902         3779 
 3902000   0.61978024   -8.8383541    519.14748  0.011087209 0.0097134683         3769 
 3903000   0.64485406   -8.8261454    519.79995  0.011098299 0.0097094515         3793 
 3904000   0.62858374   -8.8099163    519.75994  0.011094602 0.0097054315         3831 
 3905000   0.63626025   -8.8243459    519.15066  0.011078759 0.0097014146         3786 
 3906000   0.62903103   -8.8030356    519.87752   0.01109143 0.0096974008         3761 
 3907000   0.62706415   -8.8361777    519.70761  0.011084967 0.0096933888         3753 
 3908000   0.63528154   -8.8486649    519.22452   0.01107183 0.0096893786         3757 
 3909000   0.64033891   -8.8371544     519.2673  0.011069909 0.0096853716         3734 
 3910000   0.64305949   -8.8260541    520.31101  0.011089323 0.0096813649         3786 
 3911000   0.61350912   -8.8410595    519.20312  0.011062881 0.0096773621         3795 
 3912000   0.63371791   -8.8246345    520.04244  0.011077932 0.0096733573         3817 
 3913000   0.61686036   -8.8176282    519.65382  0.011066825 0.0096693582         3792 
 3914000   0.62337073   -8.8454457    519.41606  0.011058935 0.0096653632         3802 
 3915000   0.62967781   -8.8281744    519.80961  0.011064487 0.0096613671         3790 
 3916000   0.62374172   -8.8357906    519.73992  0.011060179 0.0096573769         3801 
 3917000   0.62738272   -8.8275131    519.89028  0.011060554 0.0096533864         3744 
 3918000   0.62217463   -8.8436744    519.56436  0.011050799  0.009649394         3776 
 3919000   0.62423893   -8.8270843     519.3325  0.011043049 0.0096454114         3779 
 3920000   0.62188806   -8.8125477    518.93486  0.011031778 0.0096414274         3761 
 3921000   0.62615066   -8.8399775    519.27417  0.011036176 0.0096374474         3788 
 3922000   0.62245921   -8.8278595    520.38832  0.011057036 0.0096334663         3755 
 3923000   0.61956745   -8.8463467    520.08173  0.011047704 0.0096294836         3773 
 3924000   0.61891091   -8.8476961    519.61726  0.011035025  0.009625508         3742 
 3925000   0.63561294   -8.8273236    520.21899  0.011044989 0.0096215332         3752 
 3926000   0.61598771   -8.8321887    519.71568  0.011031493  0.009617563         3753 
 3927000   0.61638053   -8.8140714    519.12174   0.01101608 0.0096135948         3780 
 3928000   0.62483251   -8.8321634    518.46566  0.010999356 0.0096096271         3786 
 3929000   0.63208157   -8.8172962    520.38477  0.011037261 0.0096056641         3774 
 3930000   0.63123375   -8.8257681    519.36744   0.01101288 0.0096017056         3799 
 3931000   0.61584676   -8.8437044    519.16203  0.011005724 0.0095977428         3809 
 3932000   0.61629836   -8.8356997    519.86893  0.011017907 0.0095937853         3805 
 3933000   0.60827315   -8.8351912    519.08657  0.010998529 0.0095898263         3772 
 3934000   0.62623265   -8.8327318    520.95226  0.011035254 0.0095858727         3765 
 3935000   0.62901351   -8.8453614    519.81895  0.011008449  0.009581917         3774 
 3936000   0.59896626   -8.8521062    519.06392  0.010989666 0.0095779657         3771 
 3937000   0.61880518    -8.844012    519.90497  0.011004677 0.0095740166         3775 
 3938000   0.61100048   -8.8383821    518.88984  0.010980401 0.0095700703         3756 
 3939000   0.62029726   -8.8467589    518.75978  0.010974862 0.0095661238         3787 
 3940000   0.61784784   -8.8201256    519.94922  0.010997234 0.0095621839         3780 
 3941000   0.63297538   -8.8496756     519.1907  0.010978404 0.0095582452         3783 
 3942000   0.62750808    -8.843518    519.10239  0.010973753 0.0095543081         3797 
 3943000   0.62060297   -8.8438855    519.97617  0.010989436 0.0095503693         3785 
 3944000   0.62377076   -8.8548025    519.79545  0.010982831 0.0095464388         3784 
 3945000   0.62591354   -8.8272094    520.44933   0.01099386 0.0095425069         3756 
 3946000   0.63177871   -8.8529333    520.12932  0.010984316 0.0095385806         3795 
 3947000    0.6099781    -8.832628    518.61279  0.010949514 0.0095346531         3781 
 3948000   0.62814241   -8.8540541    519.38122  0.010962961 0.0095307304         3785 
 3949000   0.62697038   -8.8441124     520.0405  0.010974097 0.0095268038         3794 
 3950000   0.61388907   -8.8248492    519.69819  0.010964097 0.0095228834         3768 
 3951000   0.60837173   -8.8355413    518.64689  0.010939148 0.0095189633         3743 
 3952000   0.60929676   -8.8544746     518.7476  0.010938504  0.009515044         3799 
 3953000    0.6214363   -8.8475783    518.89068  0.010938753 0.0095111239         3775 
 3954000   0.61505629   -8.8409225    519.66419  0.010952289 0.0095072128         3747 
 3955000   0.60857513   -8.8592005    519.01549  0.010935851 0.0095033002         3772 
 3956000   0.61280926   -8.8339877    520.22512  0.010958568 0.0094993917         3742 
 3957000   0.61542357   -8.8484596    519.84584  0.010947811 0.0094954812         3801 
 3958000   0.61395722   -8.8421358    520.52411  0.010959325 0.0094915771         3766 
 3959000   0.62082396   -8.8645881    519.41346  0.010933179 0.0094876753         3788 
 3960000   0.62176433   -8.8364236    520.12135  0.010945315 0.0094837747         3747 
 3961000    0.6074055   -8.8361789    519.71501  0.010934003 0.0094798772         3784 
 3962000   0.61039054   -8.8389976     519.8575   0.01093424  0.009475981         3779 
 3963000   0.61616868   -8.8460266     519.6766  0.010927677 0.0094720887         3762 
 3964000   0.62679448   -8.8592022    519.45163  0.010920191 0.0094681953         3751 
 3965000   0.62621406   -8.8459782    519.78942  0.010924536 0.0094643092         3784 
 3966000   0.62153359   -8.8466971    519.57658  0.010917309  0.009460421         3768 
 3967000   0.61556143   -8.8619113    519.42869  0.010911451  0.009456533         3749 
 3968000   0.62789146   -8.8477084     519.3677   0.01090742 0.0094526514         3779 
 3969000   0.61377407   -8.8481231    519.40156  0.010905383 0.0094487672         3770 
 3970000   0.61446777   -8.8394159    519.78559  0.010910697 0.0094448855         3780 
 3971000   0.62854935   -8.8520873    520.43459  0.010921569 0.0094410073         3770 
 3972000   0.61870606   -8.8547961    519.79651  0.010905432   0.00943713         3791 
 3973000   0.60593004   -8.8427866    520.17382  0.010910601 0.0094332595         3738 
 3974000   0.61472173   -8.8385049    518.97179   0.01088265 0.0094293823         3778 
 3975000   0.61151228   -8.8404668    518.77149  0.010875713 0.0094255121         3764 
 3976000   0.61551765   -8.8787111    518.70676  0.010871621 0.0094216446         3767 
 3977000   0.62103068   -8.8462205    519.80918  0.010891987 0.0094177813         3825 
 3978000   0.60370471   -8.8239876     519.1285   0.01087499 0.0094139186         3789 
 3979000   0.61978072   -8.8602264    520.09822  0.010892566 0.0094100585         3760 
 3980000   0.62246218   -8.8350472    519.76563  0.010882865 0.0094061994         3814 
 3981000   0.61762622   -8.8431507    518.98096  0.010863706 0.0094023408         3783 
 3982000   0.60692806   -8.8404012    518.85874   0.01085842 0.0093984843         3768 
 3983000   0.61609426   -8.8463116    518.93169   0.01085722 0.0093946323         3762 
 3984000   0.61710734   -8.8509507    519.65051   0.01086953 0.0093907768         3778 
 3985000   0.60358953   -8.8559286    519.18091  0.010856983 0.0093869297         3779 
 3986000    0.6213553   -8.8260354    520.16908  0.010874918 0.0093830851         3761 
 3987000   0.62700539   -8.8693984    519.14759   0.01085084 0.0093792412         3779 
 3988000   0.60714509   -8.8586737    519.36572  0.010852677 0.0093754009         3778 
 3989000    0.6168004     -8.85529    519.40503  0.010850778 0.0093715585         3763 
 3990000   0.62687787   -8.8589974    519.81822  0.010856688 0.0093677211         3750 
 3991000   0.60879539   -8.8452728    519.79936  0.010853574 0.0093638845         3806 
 3992000    0.6055171   -8.8447543    519.37848  0.010842069 0.0093600492         3768 
 3993000   0.61694664   -8.8621592     518.9698  0.010830825 0.0093562193         3737 
 3994000    0.6108093   -8.8622848    519.04799  0.010829744 0.0093523908         3787 
 3995000   0.59929905   -8.8645278    519.54917  0.010837488 0.0093485621         3815 
 3996000   0.60824273   -8.8620165     518.8762  0.010820742 0.0093447332         3766 
 3997000   0.60482878   -8.8609339    519.76048  0.010836471 0.0093409062         3794 
 3998000   0.62204992   -8.8429986    519.65343  0.010831529 0.0093370811         3796 
 3999000   0.60885375   -8.8536603    518.51552  0.010805108 0.0093332597         3816 
 4000000   0.61444889   -8.8337698    519.16638  0.010815966 0.0093294432         3757 
 4001000   0.61099863   -8.8391716    518.81626  0.010805971 0.0093256245         3778 
 4002000   0.60579249    -8.838422    519.61632   0.01081993 0.0093218094         3790 
 4003000   0.60513208   -8.8454237    518.99299  0.010804251  0.009317997         3791 
 4004000   0.61993954   -8.8522467    519.75447  0.010817401 0.0093141872         3809 
 4005000   0.59650095   -8.8393616    519.17325  0.010802606 0.0093103791         3739 
 4006000   0.60808276   -8.8679601    519.57994   0.01080837 0.0093065739         3802 
 4007000   0.60015759   -8.8500984    519.35236  0.010800939 0.0093027739         3791 
 4008000   0.60403404   -8.8573884     519.1784  0.010794628 0.0092989698         3761 
 4009000   0.61287927   -8.8599045    519.24579  0.010793336 0.0092951698         3791 
 4010000   0.61209768   -8.8516379    519.16134  0.010788889 0.0092913789         3768 
 4011000   0.61109429   -8.8461483    520.44027  0.010812771 0.0092875871         3764 
 4012000   0.61151929    -8.852701    519.74499  0.010795634  0.009283796         3776 
 4013000   0.61522167   -8.8558909    519.04784  0.010778467 0.0092800079         3798 
 4014000   0.61206499   -8.8446946    519.76467  0.010790663   0.00927622         3824 
 4015000   0.60940316   -8.8525879    518.84167  0.010768818  0.009272434         3791 
 4016000   0.61574213   -8.8459149     519.7648  0.010785292 0.0092686525         3770 
 4017000   0.61511226    -8.850953    519.82231    0.0107838  0.009264872         3779 
 4018000   0.59355736   -8.8730194     519.0708   0.01076553 0.0092610932         3814 
 4019000   0.61223629   -8.8518216    519.93585  0.010780788 0.0092573165         3803 
 4020000   0.60366351    -8.864461     519.2965  0.010764853 0.0092535437         3792 
 4021000   0.62103691   -8.8609804    519.31876  0.010762637  0.009249768         3773 
 4022000   0.60926158   -8.8415328    520.40032   0.01078237 0.0092459958         3742 
 4023000   0.60853384   -8.8327311    519.61734  0.010763471 0.0092422303         3771 
 4024000   0.62315255   -8.8485871    518.81377  0.010744155 0.0092384623         3810 
 4025000   0.60889413   -8.8639526    519.51606  0.010756026 0.0092346979         3774 
 4026000   0.60234059   -8.8755861    519.53096  0.010753663 0.0092309367         3792 
 4027000   0.59286292   -8.8484853    519.46538  0.010749635 0.0092271737         3794 
 4028000   0.59360109   -8.8670384    518.59002  0.010728857 0.0092234144         3769 
 4029000   0.61715394   -8.8593108    519.44555  0.010743889 0.0092196565         3785 
 4030000    0.5968283   -8.8528489    520.18594  0.010756533 0.0092158999         3775 
 4031000    0.6209141   -8.8624932    518.72553  0.010723673 0.0092121451         3791 
 4032000   0.60287315   -8.8672206     518.1166  0.010708428 0.0092083932         3791 
 4033000   0.60993166   -8.8612031    518.88552  0.010721661 0.0092046407         3775 
 4034000   0.59933436   -8.8642435    519.18416  0.010725173 0.0092008945         3785 
 4035000   0.60625773   -8.8735759      519.875  0.010736782 0.0091971483         3756 
 4036000   0.61440651   -8.8495756    519.33847  0.010723044 0.0091934058         3786 
 4037000   0.61122971   -8.8551556    519.02065  0.010713827  0.009189665         3797 
 4038000   0.62023661   -8.8457006    519.92592  0.010729856 0.0091859242         3783 
 4039000   0.60006188   -8.8788673    518.49621  0.010697702 0.0091821829         3779 
 4040000   0.60134534   -8.8627476    518.19965  0.010688937 0.0091784465         3803 
 4041000   0.61069264   -8.8548618    518.48685  0.010692214 0.0091747108         3778 
 4042000   0.60463968   -8.8663934    518.89728  0.010698031 0.0091709772         3797 
 4043000   0.61111367    -8.851856    518.60625  0.010689386 0.0091672447         3805 
 4044000   0.60995642   -8.8820505    518.45173  0.010683559 0.0091635161         3774 
 4045000   0.59811054   -8.8537193    519.46365  0.010701765 0.0091597876         3755 
 4046000   0.59247307   -8.8804177    518.57799  0.010680878 0.0091560607         3749 
 4047000   0.61742486   -8.8816171    518.41064  0.010674793 0.0091523377         3772 
 4048000   0.60003771   -8.8529659    519.48973   0.01069437 0.0091486145         3771 
 4049000    0.5993028   -8.8535074    518.14334  0.010664019  0.009144896         3758 
 4050000   0.60297784   -8.8575359    518.96403  0.010678272 0.0091411812         3754 
 4051000   0.60209504   -8.8623287    519.82361  0.010693319 0.0091374629         3779 
 4052000   0.59106471   -8.8581676    518.79184   0.01066946 0.0091337532         3740 
 4053000   0.59571545   -8.8564747    519.50985  0.010681591 0.0091300403         3760 
 4054000   0.59557017   -8.8754487    518.49255  0.010658045 0.0091263318         3788 
 4055000    0.5978645   -8.8553824    518.89924  0.010663774  0.009122624         3790 
 4056000   0.60287615   -8.8838864    518.15367  0.010645827 0.0091189199         3767 
 4057000   0.60700239   -8.8725475    518.72298  0.010654896 0.0091152139         3780 
 4058000   0.60512133    -8.864786    519.36321  0.010665418 0.0091115125         3757 
 4059000   0.60203355   -8.8753298    519.24491  0.010660362 0.0091078168         3763 
 4060000   0.60295012   -8.8596185    519.60225  0.010665071  0.009104119         3760 
 4061000   0.59296208   -8.8584285    518.98808  0.010649842 0.0091004224         3821 
 4062000   0.60626906   -8.8675196     519.5331  0.010658401 0.0090967322         3788 
 4063000    0.6183834   -8.8656345    519.78478   0.01066094 0.0090930439         3776 
 4064000   0.59981965   -8.8646487    519.34085  0.010649214 0.0090893562         3760 
 4065000   0.59750868   -8.8672071    518.38459   0.01062699 0.0090856689         3782 
 4066000   0.61198265    -8.865409    518.38752  0.010624437 0.0090819848         3782 
 4067000   0.60452384   -8.8614604    518.76062  0.010629469 0.0090783032         3742 
 4068000    0.6007422    -8.866192    518.80012  0.010627666 0.0090746195         3767 
 4069000   0.58502702   -8.8730794    519.04073  0.010629981 0.0090709357         3765 
 4070000   0.59150173   -8.8634612    518.29829  0.010612168  0.009067259         3783 
 4071000    0.6082519   -8.8637149    520.41797  0.010652951  0.009063583         3800 
 4072000   0.58852408   -8.8722387    519.06525  0.010622652 0.0090599096         3776 
 4073000   0.58701653   -8.8463326    519.11028  0.010620965 0.0090562365         3749 
 4074000   0.60488616   -8.8595439    518.99984  0.010616099 0.0090525672         3771 
 4075000   0.59482104   -8.8649023    518.85066  0.010610443 0.0090488961         3741 
 4076000    0.5943177   -8.8412239     519.9474  0.010630262 0.0090452284         3765 
 4077000   0.60689778   -8.8590518    519.01547  0.010608607  0.009041567         3777 
 4078000   0.61383055   -8.8725353    518.18567  0.010589048 0.0090379063         3807 
 4079000   0.59879165   -8.8881656    518.28669  0.010588516 0.0090342472         3790 
 4080000    0.5950049   -8.8698652    519.13135  0.010603173 0.0090305862         3760 
 4081000   0.60990956   -8.8745134    517.66564  0.010570645 0.0090269298         3776 
 4082000   0.61167191   -8.8717665    519.11009  0.010597544 0.0090232767         3767 
 4083000   0.60844659   -8.8711668    517.55633  0.010563236 0.0090196246         3768 
 4084000   0.60421048    -8.884684    518.86544  0.010587362 0.0090159731         3796 
 4085000   0.59436834   -8.8660107      520.163   0.01061124 0.0090123237         3771 
 4086000   0.59011325   -8.8566755    518.98395  0.010584597 0.0090086749         3752 
 4087000   0.59155627   -8.8780401    518.24151  0.010566869 0.0090050314         3821 
 4088000   0.61135905   -8.8651871    518.78034  0.010575268 0.0090013877         3805 
 4089000   0.58424698   -8.8724225    518.45382  0.010566027 0.0089977474         3788 
 4090000   0.60080572   -8.8720485    518.22621  0.010558806  0.008994106         3771 
 4091000   0.59674147   -8.8865339    518.17221  0.010555125 0.0089904659         3809 
 4092000   0.59315233   -8.8736939    519.00521   0.01056951 0.0089868315         3797 
 4093000   0.58661991   -8.8684964    518.70747  0.010560865 0.0089831988         3785 
 4094000   0.59068836   -8.8837469     519.3515  0.010571395 0.0089795669         3795 
 4095000   0.59159851   -8.8856643    518.35745  0.010548585 0.0089759372         3820 
 4096000   0.59001561   -8.8864679     518.0542   0.01053984 0.0089723109         3786 
 4097000   0.58555971   -8.8621594    519.10337  0.010558607 0.0089686835         3787 
 4098000   0.59245267   -8.8781352    519.35802  0.010561209 0.0089650595         3815 
 4099000   0.59980844   -8.8653378    518.70526  0.010545362 0.0089614357         3764 
 4100000   0.60633239    -8.888934    518.20498  0.010532621 0.0089578127         3790 
 4101000   0.58850118   -8.8971751    519.42054  0.010554754 0.0089541966         3804 
 4102000   0.59052441   -8.8847525    519.23218  0.010548354  0.008950581         3804 
 4103000     0.609104   -8.8734522    518.88212  0.010538673  0.008946968         3809 
 4104000   0.59681102   -8.8786801    518.25873  0.010523447 0.0089433562         3803 
 4105000   0.60153757   -8.8765686    518.24158  0.010520535 0.0089397483         3787 
 4106000   0.61239289   -8.8745558    518.02443  0.010513566 0.0089361386         3816 
 4107000   0.58114223   -8.8791202    518.57297  0.010522136 0.0089325342         3812 
 4108000   0.59923109   -8.8773475    518.11129   0.01051021 0.0089289283         3782 
 4109000   0.59241595   -8.8659792     518.8933  0.010523511 0.0089253268         3813 
 4110000   0.58929648   -8.8848623     518.4843  0.010512658 0.0089217261         3812 
 4111000   0.58380806    -8.880318    517.88462  0.010497945 0.0089181281         3782 
 4112000     0.584625    -8.896528    518.02245  0.010498185 0.0089145313         3810 
 4113000   0.59825627   -8.8573051    518.39535  0.010503188 0.0089109365         3781 
 4114000   0.60529838   -8.8914348    518.97644  0.010512406 0.0089073421         3778 
 4115000   0.58431713   -8.8589204    518.28401  0.010495829 0.0089037499         3825 
 4116000   0.59321094    -8.860491     519.5499  0.010518908 0.0089001616         3818 
 4117000   0.58438115    -8.896655    517.78907  0.010480711 0.0088965733         3796 
 4118000   0.60014134   -8.8954654    518.38795  0.010490285 0.0088929851         3734 
 4119000   0.59837432   -8.8855269     518.2283  0.010484509 0.0088893975         3806 
 4120000   0.59082864   -8.8751906    517.29917  0.010463171 0.0088858149         3808 
 4121000   0.58035032   -8.8839324     518.5886  0.010486706 0.0088822341         3801 
 4122000   0.58626618   -8.8933943     519.0348  0.010493183 0.0088786557         3815 
 4123000   0.58623327   -8.8751079    518.77294  0.010485345 0.0088750785         3821 
 4124000   0.58688718   -8.8881031    518.67295  0.010480782 0.0088715069         3795 
 4125000   0.59264831   -8.8650789    518.63293  0.010477433 0.0088679313         3797 
 4126000   0.58963513    -8.875505     518.9238  0.010480768 0.0088643598         3808 
 4127000   0.59690882   -8.8826593    519.03392  0.010480452  0.008860788         3801 
 4128000   0.59573134   -8.8917758    518.26517  0.010462394 0.0088572209         3803 
 4129000   0.58261258   -8.8760188    518.40762  0.010462735 0.0088536546         3830 
 4130000   0.59730634   -8.8813449    518.36664  0.010459375  0.008850089         3822 
 4131000   0.59862724    -8.894797    518.43608  0.010458244 0.0088465247         3764 
 4132000   0.56296672   -8.8846206    518.88174  0.010464701 0.0088429664         3816 
 4133000   0.58924699   -8.8795662    518.75564  0.010459627 0.0088394087         3785 
 4134000   0.59296364   -8.8844915    518.71211  0.010456219 0.0088358544         3766 
 4135000    0.5827681   -8.8919336    517.98537  0.010439044 0.0088322996         3817 
 4136000   0.58973783    -8.910974    518.87035  0.010454351 0.0088287458         3789 
 4137000   0.58015413   -8.8915063    518.33022  0.010440944 0.0088251947         3826 
 4138000   0.58315615   -8.8957113     518.4777  0.010441391 0.0088216456         3793 
 4139000   0.57890275   -8.9042987    517.60644  0.010421326 0.0088180977         3821 
 4140000    0.5862928   -8.9050852    518.29238  0.010432616  0.008814552         3821 
 4141000   0.59897679   -8.8946478    518.73534  0.010439011 0.0088110094         3821 
 4142000   0.58115479    -8.870068    518.86031  0.010439005 0.0088074664         3786 
 4143000    0.6002994   -8.8799204    518.01089    0.0104194 0.0088039261         3789 
 4144000   0.58104894   -8.9054731    517.50461  0.010406705 0.0088003859         3801 
 4145000    0.5791544   -8.8723762     517.7259  0.010408643 0.0087968509         3777 
 4146000   0.59112794   -8.8766081    518.14973  0.010414651 0.0087933162         3772 
 4147000    0.5776622   -8.8636014    518.48151  0.010418807 0.0087897834         3756 
 4148000   0.59161924    -8.897161    518.27908  0.010412228 0.0087862534         3778 
 4149000   0.60156182   -8.8809898    518.94292  0.010423052 0.0087827276         3777 
 4150000   0.56941054   -8.8867071    518.65831  0.010414826  0.008779202         3813 
 4151000   0.57114939   -8.8967741    518.42072  0.010407547  0.008775675         3775 
 4152000   0.59283014   -8.8990931    518.83546  0.010413364 0.0087721559         3784 
 4153000   0.57746852   -8.8833253    517.70325  0.010388138 0.0087686362         3791 
 4154000    0.6024544   -8.8828507    518.72326    0.0104061  0.008765116         3780 
 4155000   0.58273004   -8.8933863    518.37355  0.010396581 0.0087616003         3802 
 4156000   0.57462387   -8.8758885    518.46612  0.010395936 0.0087580819         3786 
 4157000    0.5740335   -8.8882496    517.47494  0.010373565 0.0087545641         3833 
 4158000   0.58683639   -8.8852542    517.04408  0.010362436 0.0087510524         3814 
 4159000   0.58880444   -8.8905516    517.91642  0.010377423 0.0087475421         3783 
 4160000   0.59356022    -8.878568    518.18183  0.010380245 0.0087440346         3796 
 4161000   0.57620117   -8.9013187    518.11974  0.010376507 0.0087405268         3773 
 4162000   0.59069156   -8.9009148    517.83757  0.010368364  0.008737021         3769 
 4163000   0.58199574   -8.8700898    517.77489  0.010364619 0.0087335183         3811 
 4164000   0.58281929   -8.8947681    518.54414  0.010377524 0.0087300138         3801 
 4165000   0.61256723   -8.8856868    518.35896  0.010371328 0.0087265146         3783 
 4166000   0.59226395   -8.8984427    517.78614   0.01035738 0.0087230161         3790 
 4167000   0.58328267   -8.8977048    517.95116  0.010358195 0.0087195181         3810 
 4168000   0.59004172   -8.8969927    518.16445  0.010359974 0.0087160248         3814 
 4169000   0.57751075   -8.9026758    518.13798   0.01035696  0.008712534         3770 
 4170000   0.59986331   -8.8997658    517.57425   0.01034321 0.0087090412         3773 
 4171000   0.59005509   -8.8995742    518.45894  0.010358406 0.0087055541         3802 
 4172000   0.57485848   -8.8868392    518.83452  0.010363425 0.0087020646         3795 
 4173000    0.5816275   -8.8961611    517.76784  0.010339641 0.0086985807         3786 
 4174000   0.58591714   -8.8829912    517.87116  0.010339226 0.0086950969         3798 
 4175000    0.5844461   -8.8840495    517.83288  0.010335986 0.0086916111         3804 
 4176000     0.588643    -8.910174    516.96337  0.010316159 0.0086881319         3812 
 4177000   0.59276093   -8.9022685    517.43301  0.010323059 0.0086846517         3817 
 4178000   0.59676876   -8.8982228    518.46872  0.010341246 0.0086811762         3773 
 4179000   0.58571883   -8.8974875    517.85297  0.010326493  0.008677704         3818 
 4180000   0.58323063   -8.9056459    518.16075  0.010330158  0.008674232         3806 
 4181000   0.58369161   -8.9037183    518.08639  0.010326206 0.0086707597         3817 
 4182000   0.58914803   -8.8836578    518.21021  0.010326204 0.0086672879         3789 
 4183000   0.57714917   -8.8814996    518.74974  0.010334484 0.0086638205         3808 
 4184000   0.57839502   -8.8893587    518.07395  0.010318554 0.0086603541         3797 
 4185000   0.59085595   -8.8740412    517.56051  0.010305864 0.0086568896         3795 
 4186000   0.57367829   -8.9048661    518.62421  0.010324578 0.0086534262         3798 
 4187000   0.57811873   -8.8999061    517.70625  0.010303842 0.0086499687         3777 
 4188000   0.57426808   -8.9145603    517.59499  0.010299168 0.0086465104         3819 
 4189000   0.60317371   -8.8749493     517.4439  0.010293704 0.0086430535         3788 
 4190000   0.56990177   -8.8894093    517.73114   0.01029696 0.0086396013         3818 
 4191000     0.586461   -8.8827753    517.70552  0.010293994  0.008636149         3785 
 4192000   0.57271579   -8.8900773    517.09465  0.010279394 0.0086326993         3813 
 4193000   0.58231856   -8.9024762    518.13645  0.010297648 0.0086292496         3785 
 4194000   0.58038851   -8.9111129    517.42887  0.010281133 0.0086258022         3786 
 4195000   0.58022636   -8.9083014    517.95425  0.010289119 0.0086223569         3825 
 4196000    0.5740907   -8.8793657    518.03583  0.010288287 0.0086189169         3826 
 4197000   0.59157182   -8.8841686    517.86949  0.010282533  0.008615476         3790 
 4198000   0.58461174   -8.9041186    518.39999  0.010290614 0.0086120372         3797 
 4199000   0.57729132   -8.8864416    518.05218  0.010281261 0.0086085995         3787 
 4200000   0.57595183   -8.9030202    518.99735  0.010297566 0.0086051645         3821 
 4201000   0.57814482   -8.9256546    517.76686  0.010270707 0.0086017282         3772 
 4202000    0.5770643   -8.8888242    517.85415  0.010269993 0.0085982943         3795 
 4203000   0.58979447   -8.9141947    518.29984  0.010276387 0.0085948655         3805 
 4204000   0.59012793   -8.8910542    517.59351  0.010259941 0.0085914349         3806 
 4205000   0.56778069   -8.8920169    517.85026  0.010262589 0.0085880087         3797 
 4206000   0.56823365   -8.9107112    518.13685  0.010265828 0.0085845831         3791 
 4207000   0.57554497   -8.9236528    517.11202  0.010243087 0.0085811569         3800 
 4208000   0.56831031   -8.8914261    518.81538  0.010274386 0.0085777351         3774 
 4209000   0.57575621    -8.899555    518.62031  0.010268083 0.0085743139         3802 
 4210000     0.576157   -8.9176357    518.50678  0.010263396 0.0085708911         3806 
 4211000   0.58023338   -8.9044922    517.43324  0.010239714 0.0085674744         3792 
 4212000   0.57937915    -8.915787    517.83871  0.010245305 0.0085640586         3792 
 4213000   0.59281382   -8.9172253    517.56369  0.010237433 0.0085606466         3807 
 4214000   0.57174138   -8.9095328    517.39169  0.010231603 0.0085572374         3760 
 4215000   0.56703294   -8.8945923    518.37626  0.010248641 0.0085538293         3782 
 4216000   0.57159889   -8.9103676    518.10031  0.010240756 0.0085504172         3767 
 4217000   0.57582972   -8.9001752    516.55717  0.010207833 0.0085470101         3769 
 4218000    0.5725299   -8.8950678    518.03527  0.010234615 0.0085436051         3780 
 4219000   0.57084858   -8.8980103    517.39067  0.010219457 0.0085402026         3824 
 4220000   0.57899589   -8.8883344    516.72186  0.010203828 0.0085368003         3797 
 4221000   0.56963589   -8.9099587     517.1183  0.010209238 0.0085334019         3782 
 4222000   0.58081223   -8.9121411    517.60762  0.010216478 0.0085300071         3794 
 4223000    0.5729832   -8.9425416    518.23029  0.010226346 0.0085266105         3801 
 4224000    0.5644225   -8.9080957    517.02145  0.010200076  0.008523212         3798 
 4225000   0.56317733   -8.9121045    517.59038  0.010208883 0.0085198195         3786 
 4226000   0.57514745   -8.9292054     516.7402  0.010189703 0.0085164267         3820 
 4227000   0.57907858   -8.8982627    518.36169  0.010219259 0.0085130396         3829 
 4228000   0.56573493   -8.9052988    518.01967  0.010210101 0.0085096525         3811 
 4229000   0.59337842   -8.9212454    517.58798   0.01019918 0.0085062665         3808 
 4230000   0.57053746   -8.9153553    517.92628  0.010203433 0.0085028847         3817 
 4231000   0.57873883   -8.9082707    517.58097  0.010194221 0.0084995044         3803 
 4232000   0.57938595   -8.9092391    517.45127  0.010189258  0.008496125         3806 
 4233000   0.57967942    -8.928133     516.7548   0.01017314 0.0084927478         3800 
 4234000   0.56835711   -8.9230089     517.0092  0.010175744 0.0084893718         3782 
 4235000   0.57558323   -8.9195237    517.48271  0.010182659 0.0084859989         3821 
 4236000    0.5779624   -8.9088654    517.59264  0.010182417 0.0084826247         3777 
 4237000   0.57712695   -8.8995178    517.71802   0.01018248  0.008479256         3787 
 4238000   0.57058778   -8.9216005    517.58701  0.010177501 0.0084758893         3804 
 4239000   0.57100138   -8.8950159    517.32381  0.010169926 0.0084725221         3790 
 4240000   0.57032297   -8.9073363    518.50398  0.010190723 0.0084691569         3822 
 4241000   0.57552863   -8.9101663    518.22286  0.010182796 0.0084657935         3809 
 4242000   0.56395638   -8.9416938    517.53475  0.010166878 0.0084624329         3816 
 4243000   0.56677137    -8.903514    518.10634  0.010175708 0.0084590741         3799 
 4244000   0.58091606   -8.9093753    517.90886  0.010169433 0.0084557191         3794 
 4245000   0.56927927   -8.9093108    518.30541  0.010174822  0.008452366         3824 
 4246000   0.56667735   -8.9080816    517.49048  0.010156431 0.0084490102         3803 
 4247000   0.56296019   -8.9186988    518.24089  0.010168764 0.0084456592         3797 
 4248000    0.5758992   -8.9261192    518.00689   0.01016178  0.008442309         3799 
 4249000     0.578785   -8.9093167    518.37962  0.010166698 0.0084389597         3801 
 4250000   0.56943228   -8.9052711     518.0827  0.010158484 0.0084356129         3802 
 4251000   0.56602291   -8.9195762    516.29298   0.01012101 0.0084322654         3790 
 4252000    0.5686223   -8.9012601    517.50375  0.010142359 0.0084289224         3810 
 4253000    0.5602014   -8.9268261    517.34036  0.010136773 0.0084255799         3829 
 4254000   0.57039111   -8.9304685    517.68935  0.010141227 0.0084222402         3802 
 4255000   0.57790368    -8.904945    517.81373   0.01014128 0.0084189023         3806 
 4256000   0.56471473   -8.9178241    518.22748  0.010146998 0.0084155676         3809 
 4257000   0.56787201   -8.9170202    518.00344  0.010140229 0.0084122359         3787 
 4258000     0.583653   -8.8996673    517.59985  0.010129948 0.0084089032         3797 
 4259000   0.57199975   -8.9175057    517.26319  0.010120983 0.0084055728         3753 
 4260000    0.5627252   -8.9244114    517.89551  0.010130976 0.0084022409         3794 
 4261000   0.56204313   -8.9115695    517.18237  0.010114652 0.0083989097         3784 
 4262000   0.55887646   -8.8907883    517.39885  0.010116511 0.0083955783         3799 
 4263000   0.57790517   -8.9017742    517.08299  0.010107964 0.0083922524         3795 
 4264000   0.57661564   -8.9244778    517.07968  0.010105528 0.0083889295         3802 
 4265000    0.5783031   -8.9289856    517.02918  0.010102172 0.0083856089         3815 
 4266000   0.55857236   -8.9377255    516.97521   0.01009875 0.0083822879         3804 
 4267000   0.58025872   -8.9144064    517.65305  0.010109621 0.0083789689         3781 
 4268000   0.57371306   -8.9270961    516.55034  0.010085722 0.0083756531         3812 
 4269000   0.57083884   -8.9231165    517.04327  0.010092982 0.0083723404         3809 
 4270000   0.57614938   -8.9267221    517.87994  0.010106946  0.008369028         3817 
 4271000   0.57518478   -8.9323713    517.50044  0.010097175 0.0083657186         3796 
 4272000   0.57018337   -8.9140326    517.71775  0.010099051 0.0083624079         3797 
 4273000   0.56702114    -8.904889    516.53975  0.010073714 0.0083590999         3798 
 4274000   0.58044888   -8.9212614    517.53667  0.010090794 0.0083557934         3780 
 4275000   0.56476497   -8.9062649    516.71656  0.010072448 0.0083524885         3836 
 4276000   0.57510932    -8.917083    517.74675  0.010090169 0.0083491882         3792 
 4277000   0.57260118   -8.9031639     516.9295  0.010071886 0.0083458857         3830 
 4278000   0.55493357   -8.9133441    517.00428  0.010070989 0.0083425843         3799 
 4279000   0.56760468   -8.9188202    517.55366  0.010079334 0.0083392894         3792 
 4280000   0.58522843   -8.9210168    516.34945  0.010053533 0.0083359919         3805 
 4281000   0.57022694   -8.9159572    516.76054  0.010059187 0.0083326978         3795 
 4282000   0.55913029   -8.9143834     517.3656  0.010068613 0.0083294084         3815 
 4283000   0.56111657    -8.918916    517.82416  0.010075184 0.0083261169         3792 
 4284000   0.57763978   -8.9224958    517.31739  0.010062974 0.0083228238         3816 
 4285000   0.56411031   -8.9063651    517.41233  0.010062472 0.0083195366         3800 
 4286000   0.55811466   -8.9253658     517.5688  0.010063167 0.0083162496         3798 
 4287000     0.547403   -8.9275829    516.83659  0.010046586 0.0083129653         3798 
 4288000   0.56248272   -8.9207476    517.26275  0.010052526 0.0083096793         3805 
 4289000   0.55884388   -8.9066613    517.73563   0.01005937 0.0083063987         3801 
 4290000   0.56955722   -8.9116334    518.13934  0.010064867 0.0083031209         3792 
 4291000   0.56286236   -8.9175914    517.92792  0.010058415  0.008299841         3800 
 4292000   0.56118278    -8.939668    516.88405  0.010035804 0.0082965674         3814 
 4293000   0.55846289   -8.9237331    516.71695  0.010030223 0.0082932939         3820 
 4294000   0.55465055   -8.9194812    518.64986  0.010065399 0.0082900219         3788 
 4295000   0.58085767   -8.9307644    516.75072  0.010026207 0.0082867512         3815 
 4296000    0.5480085   -8.9301708    517.58636  0.010040083 0.0082834822         3775 
 4297000   0.55779809   -8.9156535     517.3277   0.01003273 0.0082802133         3774 
 4298000   0.57259363   -8.9266688    517.42837  0.010032348 0.0082769467         3804 
 4299000   0.56078212   -8.9213341    517.52371  0.010031862 0.0082736811         3817 
 4300000   0.57716351   -8.9329105    517.94147  0.010037625 0.0082704226         3825 
 4301000   0.55880109   -8.9240705    518.22064  0.010040701 0.0082671615         3792 
 4302000   0.55472913    -8.918924    517.08524  0.010016373 0.0082639027         3826 
 4303000   0.57478153   -8.9137072       518.23  0.010036215 0.0082606456         3791 
 4304000   0.56360775   -8.9187334    516.77234   0.01000566 0.0082573966         3818 
 4305000   0.56274598   -8.9339624    517.94186  0.010025975 0.0082541438         3820 
 4306000   0.56151248   -8.9272234    516.64108 0.0099984726 0.0082508951         3780 
 4307000   0.55662596   -8.9295727    516.68286 0.0099969596  0.008247644         3786 
 4308000    0.5630266   -8.9271547    517.42045  0.010008907 0.0082443948         3801 
 4309000   0.56062922   -8.9227796    518.59522  0.010029303 0.0082411516         3788 
 4310000   0.56404036   -8.9289194    517.12526  0.009998555 0.0082379079         3793 
 4311000   0.54782038   -8.9188727    517.56625   0.01000476 0.0082346666         3771 
 4312000   0.55926142   -8.9473323    517.30156 0.0099973246 0.0082314262         3797 
 4313000   0.57816483   -8.9323013    516.26883 0.0099750527 0.0082281826         3814 
 4314000   0.56505369   -8.9295706    516.41378 0.0099755406  0.008224945         3809 
 4315000   0.56652801   -8.9351859    516.88351 0.0099823003 0.0082217118         3791 
 4316000   0.55294808   -8.9242953    517.75977 0.0099969064 0.0082184772         3770 
 4317000   0.55527179   -8.9207518    517.56296 0.0099907914 0.0082152446         3796 
 4318000   0.54890239   -8.9280993    517.25209 0.0099824781 0.0082120139         3797 
 4319000   0.55494521   -8.9231588    516.98782  0.009975068 0.0082087843         3756 
 4320000   0.55626054   -8.9219648    517.36115 0.0099799605 0.0082055573         3802 
 4321000   0.55902118   -8.9201491    517.28076 0.0099761005 0.0082023296         3801 
 4322000   0.55013468   -8.9327939    518.05522 0.0099887247 0.0081991056         3804 
 4323000   0.56234779    -8.923319    517.00751 0.0099662177 0.0081958825         3820 
 4324000   0.56922027   -8.9289622    517.51135 0.0099736231 0.0081926619         3797 
 4325000   0.55539092   -8.9309663    517.01869 0.0099618244 0.0081894418         3774 
 4326000   0.55947096   -8.9343501    518.37869   0.00998572 0.0081862235         3801 
 4327000    0.5573017   -8.9254815    517.40521 0.0099646639 0.0081830081         3793 
 4328000   0.55298727   -8.9308296    517.51403 0.0099644567 0.0081797904         3791 
 4329000   0.56723436    -8.946333    516.90653 0.0099504606 0.0081765768         3800 
 4330000   0.54901232   -8.9118509    518.27547 0.0099745087 0.0081733644         3799 
 4331000   0.57065985   -8.9431474    516.72942 0.0099424579 0.0081701549         3823 
 4332000   0.55794552   -8.9435988    517.23468 0.0099498822 0.0081669472         3789 
 4333000   0.56440167   -8.9454268    517.11809 0.0099453436 0.0081637415         3834 
 4334000   0.56336847   -8.9396579    517.28926 0.0099463402  0.008160536         3772 
 4335000   0.55935109   -8.9364321    516.93274 0.0099371923 0.0081573312         3796 
 4336000    0.5590701   -8.9442701    516.76187 0.0099316165 0.0081541276         3795 
 4337000   0.56490101   -8.9437363    517.00657 0.0099340284 0.0081509275         3786 
 4338000   0.56643517   -8.9261637    517.78651 0.0099467211 0.0081477306         3819 
 4339000   0.56134301   -8.9396244    517.87756 0.0099461773 0.0081445306         3785 
 4340000   0.55459923   -8.9418226     517.1372 0.0099296697 0.0081413336         3779 
 4341000   0.54931041   -8.9341101    516.74398 0.0099198338 0.0081381392         3803 
 4342000   0.54251269   -8.9361693    517.10598 0.0099244967 0.0081349446         3812 
 4343000   0.56328366   -8.9382755    516.54044 0.0099113601 0.0081317526         3787 
 4344000    0.5608831   -8.9306368    517.15688 0.0099209039 0.0081285638         3799 
 4345000   0.56371699   -8.9411931    517.08199 0.0099171843 0.0081253763         3827 
 4346000   0.56033656    -8.937682    517.60787  0.009924986 0.0081221883         3793 
 4347000   0.55862818   -8.9353193    517.01227 0.0099112851 0.0081190034         3777 
 4348000   0.55094188   -8.9374093    516.93361  0.009907498 0.0081158201         3815 
 4349000   0.55449489   -8.9217078    516.71804 0.0099010892 0.0081126401         3785 
 4350000   0.55492336   -8.9388876    517.29045 0.0099097788 0.0081094616         3812 
 4351000   0.56490169   -8.9453971    517.38623 0.0099093357 0.0081062811         3810 
 4352000   0.55965381   -8.9589618    517.02187 0.0099000817 0.0081031046         3773 
 4353000   0.53968466   -8.9276424    517.97308 0.0099160172 0.0080999286         3772 
 4354000   0.54417906   -8.9357328    516.41634 0.0098839446 0.0080967546         3804 
 4355000   0.54900332   -8.9332152    517.26814 0.0098979744 0.0080935826         3761 
 4356000   0.53587082   -8.9481102    516.77937 0.0098863515 0.0080904111         3796 
 4357000   0.55462208   -8.9424956    517.07555 0.0098897474 0.0080872428         3788 
 4358000   0.55257977   -8.9333116    517.10961 0.0098881293 0.0080840769         3802 
 4359000   0.55842754   -8.9323551    516.30444 0.0098704681 0.0080809123         3798 
 4360000   0.54755098   -8.9414934    516.63187 0.0098744623 0.0080777496         3791 
 4361000   0.54462623   -8.9480511    517.01479 0.0098795151 0.0080745876         3797 
 4362000   0.54359722   -8.9494722    517.05154 0.0098779525 0.0080714275         3811 
 4363000   0.55152184   -8.9223958    516.80928 0.0098710611 0.0080682666         3808 
 4364000   0.54988724   -8.9347753    516.91395  0.009870798 0.0080651065         3816 
 4365000   0.55443706   -8.9416342    517.00633 0.0098703003 0.0080619509         3775 
 4366000   0.54498609   -8.9361679    518.06034 0.0098881573 0.0080587963         3760 
 4367000   0.56155802   -8.9317182    517.47394  0.009874703 0.0080556457         3814 
 4368000   0.55732232   -8.9206019    516.06663 0.0098455935 0.0080524944         3776 
 4369000   0.55936162   -8.9285745    517.27426  0.009866374  0.008049344         3808 
 4370000   0.54843727   -8.9274172    516.50629 0.0098494716 0.0080461972         3782 
 4371000   0.54198822   -8.9332218    518.09377 0.0098774837 0.0080430513         3771 
 4372000   0.54840776   -8.9524657    517.24157 0.0098589809 0.0080399119         3795 
 4373000   0.54253146   -8.9255774    516.51173 0.0098428182 0.0080367696         3768 
 4374000   0.55522805   -8.9405336    516.32938 0.0098370939 0.0080336271         3779 
 4375000   0.54359453   -8.9413701    516.09342 0.0098303509  0.008030485         3802 
 4376000   0.53882482    -8.945324    517.16593 0.0098485285 0.0080273463         3796 
 4377000   0.55020611   -8.9450603    516.60922 0.0098356793  0.008024213         3803 
 4378000   0.54147401   -8.9287359    516.60255 0.0098333058  0.008021079         3784 
 4379000   0.55816955   -8.9633854     516.3383 0.0098260314 0.0080179464         3812 
 4380000   0.55130432   -8.9300162    516.62229 0.0098291912 0.0080148146         3799 
 4381000   0.55220732   -8.9248608    517.81383 0.0098496126 0.0080116855         3782 
 4382000   0.54200724   -8.9337673    517.71091 0.0098454076 0.0080085589         3797 
 4383000   0.55192675   -8.9418196     517.3697 0.0098366738 0.0080054339         3796 
 4384000   0.54413199   -8.9511477      517.589 0.0098385987 0.0080023096         3785 
 4385000   0.54401396    -8.934598    517.57504 0.0098360897  0.007999186         3810 
 4386000   0.54951704   -8.9484613    516.81674 0.0098194395 0.0079960659         3767 
 4387000   0.56992348   -8.9485912    516.18216  0.009805147 0.0079929495         3766 
 4388000   0.55489798   -8.9402723     517.5429 0.0098287545 0.0079898352         3801 
 4389000   0.55108464   -8.9347302    517.09007 0.0098179173 0.0079867191         3789 
 4390000   0.54739966   -8.9398935    516.59921 0.0098063631  0.007983607         3776 
 4391000   0.54523938   -8.9379002     516.4173 0.0098006774 0.0079804939         3791 
 4392000   0.54458451   -8.9395576    516.83098 0.0098062951 0.0079773796         3797 
 4393000   0.54008826   -8.9468335    517.09584 0.0098090872 0.0079742714         3801 
 4394000   0.54737542    -8.942458    516.40263  0.009793708 0.0079711619         3779 
 4395000    0.5581636   -8.9450129    518.28413 0.0098271546 0.0079680533         3813 
 4396000   0.55320109   -8.9515986    517.06841 0.0098018731  0.007964948         3794 
 4397000   0.54590114   -8.9475566    516.28165  0.009784733 0.0079618436         3814 
 4398000   0.54412238   -8.9537462    517.01857 0.0097964713 0.0079587416         3773 
 4399000   0.54342189     -8.95087    516.57772 0.0097858931  0.007955642         3797 
 4400000   0.52802059   -8.9502109    516.28033 0.0097780366 0.0079525421         3792 
 4401000   0.55497784   -8.9559033    516.79653 0.0097855891 0.0079494406         3801 
 4402000   0.55161297   -8.9279873    517.22574 0.0097914914 0.0079463465         3768 
 4403000   0.55445702   -8.9355987     515.9833 0.0097657524 0.0079432514         3831 
 4404000   0.55056941   -8.9363663     516.7786 0.0097785838 0.0079401564         3788 
 4405000   0.55898521   -8.9642314    517.77525 0.0097952186 0.0079370658         3795 
 4406000   0.53985862   -8.9408339    516.16781 0.0097625929 0.0079339767         3828 
 4407000   0.56300782   -8.9523676    516.74923 0.0097713719 0.0079308883         3806 
 4408000    0.5488391   -8.9379097    516.48426 0.0097641459 0.0079278009         3813 
 4409000   0.54285882   -8.9522093    516.80172 0.0097679316 0.0079247168         3797 
 4410000   0.55848362   -8.9339394    516.90412 0.0097676516 0.0079216363         3800 
 4411000   0.54904824   -8.9641809    516.97715 0.0097668169 0.0079185548         3807 
 4412000   0.53511902   -8.9560844    515.50786 0.0097368514 0.0079154759         3814 
 4413000   0.54231464    -8.939436    516.05625 0.0097450005 0.0079123997         3820 
 4414000   0.55485566   -8.9514719    515.89092 0.0097396715 0.0079093244         3814 
 4415000   0.55408659   -8.9332222    517.09709  0.009760232 0.0079062517         3798 
 4416000   0.54372882   -8.9388248    516.97348 0.0097556891 0.0079031792         3774 
 4417000   0.54576514   -8.9394662    516.16727   0.00973827 0.0079001074         3823 
 4418000   0.53736607   -8.9795281    516.29809 0.0097385334 0.0078970333         3782 
 4419000    0.5494816   -8.9643923    516.50921  0.009740311 0.0078939646         3826 
 4420000   0.53611323    -8.957396    516.16236 0.0097315678 0.0078908955         3763 
 4421000   0.55178378   -8.9418662    516.20981 0.0097302612 0.0078878281         3818 
 4422000   0.54940067   -8.9648281    516.33086 0.0097303418 0.0078847627         3823 
 4423000   0.54369342   -8.9387897    516.90412 0.0097389427 0.0078816976         3808 
 4424000   0.54531966   -8.9602991     517.2895 0.0097440006 0.0078786349         3798 
 4425000   0.53984694   -8.9475725    516.73006 0.0097312628 0.0078755734         3794 
 4426000   0.54092805   -8.9493129    516.33748 0.0097216727 0.0078725165         3830 
 4427000   0.53866495   -8.9526836    516.72034 0.0097266835 0.0078694571         3827 
 4428000   0.54292695   -8.9554507    516.11691 0.0097131307 0.0078664022         3828 
 4429000   0.54078513   -8.9576389    515.53821 0.0097000491 0.0078633484         3822 
 4430000   0.54136378   -8.9553035    515.84891 0.0097037041 0.0078602966         3811 
 4431000   0.53714506   -8.9652785    516.56814 0.0097150406 0.0078572462         3814 
 4432000   0.55389464   -8.9528026     515.9409 0.0097010548 0.0078541969         3788 
 4433000   0.54435825   -8.9385999    516.67513 0.0097126689 0.0078511504         3821 
 4434000   0.54244493   -8.9655987    516.99008 0.0097163976 0.0078481055         3848 
 4435000   0.53451972   -8.9475132    516.48259 0.0097046709 0.0078450613         3815 
 4436000    0.5431496   -8.9574628    516.16628 0.0096965411  0.007842017         3814 
 4437000   0.52708641   -8.9525205    516.08887 0.0096929019 0.0078389769         3826 
 4438000   0.53550797   -8.9596711     515.9958 0.0096889703  0.007835937         3823 
 4439000   0.54224897   -8.9397405    515.14132 0.0096707465 0.0078329006         3796 
 4440000    0.5367378    -8.941284    516.74509  0.009698669 0.0078298639         3797 
 4441000   0.54319179   -8.9695711    516.27945 0.0096877477 0.0078268313         3835 
 4442000   0.54719238   -8.9810515    515.75503 0.0096757285 0.0078237987         3816 
 4443000   0.54056941   -8.9644804    517.04472 0.0096977402 0.0078207647         3801 
 4444000   0.54037732    -8.959862    516.63462 0.0096878679 0.0078177381         3801 
 4445000   0.54325453   -8.9515185    516.77341 0.0096882904 0.0078147115         3818 
 4446000   0.55238392   -8.9826564    515.59764 0.0096640734 0.0078116835         3804 
 4447000   0.54740108   -8.9457032    516.82951 0.0096849845 0.0078086597         3811 
 4448000    0.5452306   -8.9705222    515.78585 0.0096632541 0.0078056357         3817 
 4449000   0.54601641   -8.9703998    516.31808 0.0096710512 0.0078026147         3832 
 4450000    0.5478279   -8.9799651    515.98592 0.0096626577  0.007799595         3819 
 4451000    0.5389172   -8.9545158    516.27736 0.0096659432 0.0077965758         3826 
 4452000    0.5380237   -8.9587261    516.35357 0.0096651986 0.0077935602         3842 
 4453000   0.53901176   -8.9658733    516.03822 0.0096571267 0.0077905429         3796 
 4454000   0.52110742   -8.9555073    516.15574 0.0096571573 0.0077875302         3790 
 4455000   0.54088989   -8.9808708     516.4769  0.009660997 0.0077845171         3790 
 4456000   0.54159786    -8.964099    515.67593 0.0096438497 0.0077815068         3824 
 4457000   0.54131203   -8.9593786    516.17459 0.0096510094 0.0077784962         3832 
 4458000   0.54208685   -8.9621989    516.17788 0.0096489061 0.0077754893         3790 
 4459000   0.54458796   -8.9544813    515.21488 0.0096287448 0.0077724811         3802 
 4460000   0.53849228   -8.9566785    517.08744  0.009661574 0.0077694764         3840 
 4461000   0.53020544   -8.9672181    515.89725  0.009637175 0.0077664722         3837 
 4462000    0.5307806   -8.9723171    515.14324  0.009620933 0.0077634676         3831 
 4463000   0.54781073   -8.9795551    516.04047 0.0096355305 0.0077604678         3797 
 4464000   0.52304751   -8.9695218    516.67954 0.0096453021 0.0077574682         3803 
 4465000   0.53117652   -8.9450622    515.98597 0.0096301972 0.0077544689         3808 
 4466000   0.53774377   -8.9757789    516.37046 0.0096352152 0.0077514733         3816 
 4467000    0.5431492   -8.9602364    516.06257 0.0096273146 0.0077484784         3814 
 4468000   0.53656089   -8.9580922    516.89133 0.0096406171 0.0077454828         3808 
 4469000    0.5288491   -8.9684922    515.77779 0.0096176958 0.0077424913         3819 
 4470000   0.52643649   -8.9571324    516.15576 0.0096225905 0.0077395026         3827 
 4471000      0.53514   -8.9622535    515.55138 0.0096091735  0.007736515         3828 
 4472000   0.53793162   -8.9690348    516.58377 0.0096262629 0.0077335286         3824 
 4473000   0.54973469   -8.9594605    517.14141 0.0096344998 0.0077305446         3829 
 4474000   0.54397408   -8.9605337      515.971 0.0096105462 0.0077275609         3824 
 4475000   0.55154114   -8.9879127    515.59247 0.0096013495 0.0077245782         3818 
 4476000   0.53528594   -8.9683055    516.30593 0.0096124875 0.0077215988         3829 
 4477000   0.52744919   -8.9780794    515.96526 0.0096039994  0.007718617         3808 
 4478000   0.52797812     -8.94689    516.59599 0.0096135923 0.0077156388         3842 
 4479000   0.53563224   -8.9584541    516.20134 0.0096041032 0.0077126627         3831 
 4480000   0.53172786    -8.964902     516.4554 0.0096066852 0.0077096883         3845 
 4481000   0.53710955   -8.9778276    516.06063 0.0095971999 0.0077067166         3829 
 4482000   0.53175258   -8.9525026    515.11178 0.0095774167 0.0077037437         3843 
 4483000    0.5350703    -8.975044    515.67327 0.0095857177 0.0077007727         3848 
 4484000    0.5436148   -8.9624976     516.1029 0.0095915644 0.0076978048         3816 
 4485000   0.54157988   -8.9660155    515.98655  0.009587264 0.0076948374         3832 
 4486000   0.53412808   -8.9701862    515.72603 0.0095802873 0.0076918696         3827 
 4487000   0.53717049   -8.9820613     515.5616 0.0095750984 0.0076889066         3818 
 4488000   0.54256596   -8.9760554    516.36873 0.0095879517 0.0076859423         3800 
 4489000   0.51765526   -8.9825046    516.40619 0.0095865113 0.0076829823         3822 
 4490000    0.5249371   -8.9636377    516.62419 0.0095884223  0.007680021         3817 
 4491000   0.52740313   -8.9699392    516.37023 0.0095815748 0.0076770611         3800 
 4492000   0.52535034    -8.976142    515.12113 0.0095562691 0.0076741039         3792 
 4493000   0.52049184   -8.9631745    516.87753 0.0095867188 0.0076711483         3822 
 4494000   0.53459087   -8.9541098    516.30328  0.009573937 0.0076681952         3822 
 4495000   0.52938384   -8.9845926     516.0009 0.0095662013 0.0076652458         3819 
 4496000   0.52666427   -8.9689686    515.30074 0.0095510961 0.0076622952         3807 
 4497000   0.53078136   -8.9927058    515.95934 0.0095611768 0.0076593457         3828 
 4498000   0.53194417   -8.9596474    516.13644 0.0095623321 0.0076563985         3836 
 4499000   0.53828174   -8.9662028    516.34149 0.0095640048 0.0076534544         3814 
 4500000   0.51702208   -8.9674749     516.9126 0.0095724556 0.0076505086         3813 
 4501000   0.52356061   -8.9907001    515.93025 0.0095521413 0.0076475636         3795 
 4502000   0.52671295   -8.9753475    516.14955 0.0095540788  0.007644622         3831 
 4503000   0.52557567   -8.9825776    515.70158 0.0095436669 0.0076416815         3839 
 4504000   0.52966355   -8.9778153    515.64802 0.0095405568 0.0076387421         3836 
 4505000   0.52741397   -8.9700342    515.28738  0.009531768 0.0076358055         3833 
 4506000   0.52978693   -8.9671099    515.87272 0.0095404779 0.0076328709         3825 
 4507000   0.52993381   -8.9590009    515.90813 0.0095390158 0.0076299379         3847 
 4508000   0.52982252   -8.9701304    516.12618 0.0095409306 0.0076270053         3797 
 4509000   0.52739021   -8.9829021    516.54778 0.0095466065 0.0076240781         3821 
 4510000   0.53169378   -8.9724509    515.68263 0.0095285038 0.0076211496         3791 
 4511000   0.51408446   -8.9649487    516.02375 0.0095326932  0.007618225         3836 
 4512000   0.53381586   -8.9693309    515.88065 0.0095279375 0.0076152996         3805 
 4513000   0.52678806   -8.9755508     515.9289 0.0095267173  0.007612372         3783 
 4514000   0.53008714   -8.9747929    516.20509 0.0095297056   0.00760945         3841 
 4515000    0.5223916   -8.9696794    515.63415  0.009517057 0.0076065285         3833 
 4516000   0.51996074   -8.9756995    515.67941 0.0095157848 0.0076036045         3815 
 4517000    0.5159896   -8.9843331    516.64631 0.0095315163 0.0076006853         3850 
 4518000   0.53048419   -8.9877433    515.41117 0.0095066248  0.007597766         3832 
 4519000   0.53721567   -8.9947106    515.82275 0.0095121109 0.0075948494         3842 
 4520000   0.52426516   -8.9721402    516.57276  0.009523834 0.0075919351         3799 
 4521000   0.51719195   -8.9929777    516.71243  0.009524302 0.0075890208         3818 
 4522000   0.52901073   -8.9843655    515.26221 0.0094954705  0.007586109         3830 
 4523000   0.52603364   -8.9862403    515.99974 0.0095069597 0.0075831991         3817 
 4524000   0.52901136   -8.9792026    516.23296 0.0095091541  0.007580289         3823 
 4525000   0.52180753    -8.980027     515.7962 0.0094990092 0.0075773802         3818 
 4526000   0.52382561   -8.9696652    515.89693 0.0094987651 0.0075744746         3803 
 4527000    0.5277104   -8.9934184    515.69957 0.0094930338 0.0075715689         3836 
 4528000   0.52255765   -8.9778225    515.51805 0.0094875967 0.0075686665         3811 
 4529000   0.51588262    -8.990719    515.89559 0.0094924484  0.007565764         3805 
 4530000    0.5239406    -8.972137    515.51727 0.0094833934 0.0075628626         3836 
 4531000   0.52096059   -8.9550238    515.12929 0.0094741648 0.0075599649         3832 
 4532000    0.5281525   -8.9671742    515.78388 0.0094841108 0.0075570662         3815 
 4533000   0.52801182   -8.9883703    515.96435 0.0094853362 0.0075541696         3820 
 4534000   0.52240659   -8.9820716    515.36811 0.0094722855 0.0075512757         3831 
 4535000   0.54463171   -8.9779647     516.0838 0.0094833481 0.0075483851         3830 
 4536000   0.53214657    -8.980154    515.60647  0.009472488 0.0075454946         3815 
 4537000   0.52444955   -8.9848905    515.63746 0.0094709694 0.0075426046         3834 
 4538000   0.51977147   -8.9907371    516.88777 0.0094918424 0.0075397152         3824 
 4539000   0.52851399   -8.9748855    515.79764 0.0094697371  0.007536825         3827 
 4540000   0.52556604   -8.9772158    516.22367 0.0094754711 0.0075339386         3852 
 4541000   0.53035728   -8.9627205    515.75149 0.0094647194 0.0075310558         3792 
 4542000   0.54241031    -8.982435    516.02587 0.0094676696  0.007528174         3817 
 4543000   0.52935309    -8.984937    515.64379 0.0094585771 0.0075252933         3839 
 4544000    0.5181077   -8.9654121     515.5766 0.0094552634  0.007522414         3813 
 4545000   0.52621064   -8.9880868    515.88924 0.0094589153 0.0075195365         3813 
 4546000   0.52423453   -8.9683811    516.35483 0.0094653693 0.0075166609         3828 
 4547000   0.52663067   -8.9690761    516.33982 0.0094630127 0.0075137863         3819 
 4548000   0.52193916   -8.9826038    515.75371 0.0094501925 0.0075109123         3823 
 4549000   0.52368209   -8.9922444    515.70487 0.0094472205 0.0075080405         3840 
 4550000   0.52252568   -8.9827164    515.85834  0.009447955 0.0075051723         3825 
 4551000   0.52242441    -8.996029      515.902 0.0094466784 0.0075023038         3823 
 4552000   0.51214783    -8.981023    515.45681  0.009436453 0.0074994359         3816 
 4553000   0.52972022   -8.9907008    515.22908 0.0094302123 0.0074965702         3830 
 4554000   0.52912273   -8.9772315      515.439 0.0094319829 0.0074937061         3817 
 4555000   0.52445754   -8.9932906    515.05666 0.0094229172 0.0074908413         3806 
 4556000   0.52544261   -8.9862216    516.00391 0.0094381751 0.0074879777         3825 
 4557000   0.52203243   -8.9762254    516.36032 0.0094426216 0.0074851174         3819 
 4558000   0.51845076   -8.9831313    514.42812 0.0094052238 0.0074822579         3836 
 4559000   0.51919837   -8.9894887    515.29273 0.0094189648    0.0074794         3835 
 4560000    0.5184314   -8.9905464    515.83587 0.0094268252 0.0074765437         3788 
 4561000    0.5200833   -8.9739012     516.0331 0.0094283617 0.0074736874         3823 
 4562000   0.52190187   -8.9869252    515.74892  0.009421104 0.0074708316         3828 
 4563000   0.51886473   -8.9721102    516.43949 0.0094316511 0.0074679779         3813 
 4564000   0.52348684   -8.9940477    515.78523 0.0094176385 0.0074651259         3849 
 4565000   0.52631108   -8.9877668    515.36844 0.0094079672 0.0074622751         3827 
 4566000   0.52551874   -8.9890589    515.90835 0.0094157606 0.0074594248         3802 
 4567000   0.52854459   -8.9750686    516.06754 0.0094166035 0.0074565783         3820 
 4568000   0.51646031   -8.9851906    514.93349 0.0093938537 0.0074537347         3802 
 4569000   0.53510732   -8.9780228    514.08932 0.0093764012 0.0074508898         3820 
 4570000    0.5286456   -8.9730447    515.89002 0.0094071849 0.0074480492         3834 
 4571000   0.52165014   -8.9966529     515.2801 0.0093940075 0.0074452077         3835 
 4572000   0.51966184   -8.9859049    515.63041  0.009398338 0.0074423667         3831 
 4573000   0.51467542   -8.9943667    515.71144 0.0093977593 0.0074395307         3809 
 4574000   0.53466966   -8.9911365    515.76879 0.0093967496 0.0074366958         3820 
 4575000   0.52234819   -8.9920759    515.11756 0.0093828335 0.0074338621         3816 
 4576000   0.51617259   -8.9912178    515.56183 0.0093888737 0.0074310289         3807 
 4577000   0.53521923   -9.0099982    515.24716 0.0093810932 0.0074281954         3842 
 4578000   0.52392095   -8.9893592    515.27719 0.0093795907 0.0074253647         3835 
 4579000   0.51508244   -8.9934592    515.27347 0.0093774745 0.0074225347         3804 
 4580000   0.53054793   -9.0147535     515.2511   0.00937502 0.0074197071         3816 
 4581000   0.51607453   -8.9827486    515.00161 0.0093684349 0.0074168789         3784 
 4582000   0.52692811   -8.9877516    515.91322   0.00938297  0.007414056         3843 
 4583000   0.52127206    -8.986753    515.14782 0.0093670051 0.0074112323         3815 
 4584000   0.51203773   -8.9894561    515.12649 0.0093645741 0.0074084108         3785 
 4585000   0.51635465   -8.9948148    516.26903 0.0093832975 0.0074055922         3823 
 4586000   0.52262698   -8.9890948    515.42731 0.0093659563 0.0074027717         3821 
 4587000   0.51629786   -8.9816907    516.41722 0.0093818985  0.007399956         3811 
 4588000   0.50751201   -9.0119109    515.42127 0.0093617638   0.00739714         3839 
 4589000   0.52504405   -9.0030986     515.4227 0.0093597497 0.0073943225         3814 
 4590000   0.52312962   -8.9917354    515.62237 0.0093613358 0.0073915081         3823 
 4591000   0.52281056    -9.003241    515.27782 0.0093530425 0.0073886952         3856 
 4592000     0.508765   -8.9898506    515.42561 0.0093536878 0.0073858843         3842 
 4593000   0.51132268   -8.9918817     515.9519 0.0093612001 0.0073830726         3790 
 4594000   0.51381878   -9.0051096    515.06561 0.0093430853 0.0073802645         3828 
 4595000    0.5193945   -9.0002832    514.59825 0.0093325762 0.0073774583         3818 
 4596000   0.52133097    -8.994993    515.00116  0.009337851  0.007374654         3804 
 4597000   0.51729351   -9.0059102    515.49309 0.0093447373 0.0073718517         3844 
 4598000   0.51482515   -9.0044341    515.05458 0.0093347575 0.0073690479         3843 
 4599000   0.52166217   -8.9888726    514.91071 0.0093301209 0.0073662465         3812 
 4600000   0.51409369   -9.0057957    515.32734 0.0093356402 0.0073634477         3819 
 4601000   0.51580627   -8.9819787    515.23967 0.0093320233 0.0073606515         3799 
 4602000   0.51427721   -8.9892206    515.42628 0.0093333747 0.0073578552         3809 
 4603000   0.51631599   -8.9991533    515.25957 0.0093283289 0.0073550599         3811 
 4604000    0.5178086   -8.9915674    515.93753 0.0093385738 0.0073522668         3815 
 4605000    0.5133341    -8.980734     515.4014 0.0093268441 0.0073494759         3811 
 4606000   0.51736657   -9.0004406    514.94868 0.0093166283 0.0073466878         3814 
 4607000   0.51665548   -9.0073735     516.3477 0.0093399122 0.0073438968         3805 
 4608000   0.51558384   -8.9990934    515.81941 0.0093283313 0.0073411077         3830 
 4609000   0.51349452   -8.9933416     515.5166 0.0093208324  0.007338319         3822 
 4610000   0.52775667   -9.0039005    515.03804 0.0093101599 0.0073355362         3816 
 4611000   0.51352454   -9.0043996    516.13945 0.0093280461 0.0073327529         3824 
 4612000   0.50523332   -9.0089902    514.71523 0.0093002896 0.0073299691         3813 
 4613000   0.51980838    -9.001153    515.49587 0.0093123758 0.0073271871         3832 
 4614000   0.51850169   -8.9998268    515.57801  0.009311841 0.0073244069         3832 
 4615000   0.52495411   -8.9994953    515.47338 0.0093079339 0.0073216283         3814 
 4616000   0.52088448    -9.018814     515.3678 0.0093040114 0.0073188546         3829 
 4617000   0.50523923   -9.0181293    514.01438 0.0092775681 0.0073160764         3837 
 4618000   0.50744781   -9.0102874    515.10695 0.0092952748 0.0073133016         3856 
 4619000   0.50863419   -8.9977965    514.36919 0.0092799522 0.0073105294         3821 
 4620000   0.51437877   -8.9946901    515.43778 0.0092972182 0.0073077568         3801 
 4621000   0.50662502   -8.9919035    515.44723 0.0092953767 0.0073049876         3806 
 4622000    0.5192152   -9.0223583    514.94175  0.009284252 0.0073022187         3852 
 4623000   0.50795376   -9.0156744    514.70594  0.009277993 0.0072994517         3796 
 4624000    0.5013195   -8.9989251    515.89872 0.0092974826 0.0072966858         3823 
 4625000   0.50717138    -9.012666    515.41892 0.0092868274 0.0072939209         3799 
 4626000   0.51244586   -9.0105187    514.93491 0.0092761009 0.0072911566         3785 
 4627000   0.51418949   -8.9865564    514.80474 0.0092717517 0.0072883939         3820 
 4628000   0.52020665   -8.9969263    515.54908 0.0092831511  0.007285634         3818 
 4629000   0.50538732   -9.0078371    515.24186  0.009275615  0.007282875         3803 
 4630000   0.50502023   -9.0154515    515.39667 0.0092763979 0.0072801182         3827 
 4631000   0.51288871   -9.0188232    515.30595 0.0092727623 0.0072773615         3813 
 4632000   0.50039354   -9.0115753    515.20132 0.0092688781 0.0072746094         3805 
 4633000   0.50797116   -9.0035728    514.71969 0.0092582144 0.0072718568         3842 
 4634000   0.50127859   -8.9994407    514.89559 0.0092593797 0.0072691068         3840 
 4635000   0.50649762   -8.9983193    514.97054 0.0092587295 0.0072663546         3819 
 4636000   0.51297763   -9.0014174    515.13464 0.0092596822 0.0072636048         3822 
 4637000   0.50652306   -9.0069232    516.28168 0.0092782992 0.0072608561         3813 
 4638000   0.50687363   -9.0038931    514.95465 0.0092524552 0.0072581105         3799 
 4639000   0.51230771   -9.0079644    514.78635 0.0092474374 0.0072553664         3803 
 4640000   0.50761524   -9.0109488    515.02715 0.0092497693 0.0072526223         3851 
 4641000   0.49414203   -8.9966321    515.31131 0.0092528786   0.00724988         3850 
 4642000   0.49950065   -8.9972445    514.42163 0.0092349137 0.0072471407         3834 
 4643000   0.51601149   -9.0229113    514.64127 0.0092368668 0.0072444016         3843 
 4644000   0.50008278   -8.9832496    515.56067 0.0092513758 0.0072416627         3846 
 4645000   0.50482394   -9.0026669    515.63909  0.009250791 0.0072389268         3820 
 4646000   0.50232372   -9.0110049    515.31644 0.0092430127 0.0072361917         3818 
 4647000   0.51118784   -8.9985316    514.98689 0.0092351138 0.0072334582         3827 
 4648000   0.50033462    -9.016428    515.73187 0.0092464836 0.0072307265         3799 
 4649000   0.50665025   -9.0192904    515.09154 0.0092330167 0.0072279949         3803 
 4650000   0.50427805   -9.0094449    515.15706 0.0092322054 0.0072252645         3850 
 4651000   0.51100177   -9.0160122    515.25752 0.0092320203 0.0072225341         3817 
 4652000   0.50443534   -9.0179799    515.57663 0.0092357522 0.0072198071         3826 
 4653000   0.50325151   -9.0202476    514.88526 0.0092213851 0.0072170833         3838 
 4654000   0.51138067   -9.0215153    515.27718 0.0092264214 0.0072143593         3822 
 4655000   0.51073043   -9.0199365    514.86528 0.0092170655 0.0072116386         3823 
 4656000   0.49407029   -8.9985409    515.64887 0.0092291107 0.0072089171         3816 
 4657000   0.50057923   -9.0205697    514.98654  0.009215277 0.0072061987         3813 
 4658000   0.50903725   -8.9979132    514.14281  0.009198204 0.0072034789         3791 
 4659000   0.51654747   -9.0153801    515.12756 0.0092138434  0.007200761         3803 
 4660000   0.50760987   -9.0205617    514.20696 0.0091954035 0.0071980455         3831 
 4661000   0.51621477   -8.9981607    514.66758 0.0092016659 0.0071953313         3829 
 4662000   0.50705924   -9.0061371    515.84746 0.0092207826 0.0071926178         3826 
 4663000   0.50658224   -9.0056214    515.41546 0.0092110848 0.0071899063         3838 
 4664000   0.50765915   -9.0208569    515.42835 0.0092093401  0.007187196         3823 
 4665000   0.51566956   -9.0085422    515.26707  0.009204485  0.007184487         3800 
 4666000   0.50632782   -9.0215969     514.7815 0.0091938402 0.0071817813         3840 
 4667000   0.50396574   -9.0049382    515.42077 0.0092032849 0.0071790744         3821 
 4668000   0.50825819   -8.9998738    514.30946 0.0091814741 0.0071763691         3810 
 4669000   0.51067047   -9.0022757    514.03304 0.0091745742 0.0071736644         3805 
 4670000   0.50745586    -8.993815    515.34819 0.0091960776 0.0071709645         3818 
 4671000   0.51206284   -9.0190025    514.42498 0.0091776383 0.0071682654         3848 
 4672000   0.50644144   -9.0188293    515.36773 0.0091924895 0.0071655666         3828 
 4673000   0.51212279   -9.0227292    514.68721 0.0091783867 0.0071628658         3857 
 4674000   0.51116787   -8.9906114    515.73727 0.0091951446 0.0071601686         3791 
 4675000    0.5171161   -9.0007393    514.70936  0.009174855 0.0071574739         3824 
 4676000   0.50549139   -9.0034037    515.50706 0.0091871089 0.0071547807         3803 
 4677000   0.50909274   -8.9930278    514.23456 0.0091624716  0.007152088         3827 
 4678000   0.50702911   -9.0164266    515.09348 0.0091758137 0.0071493978         3829 
 4679000   0.50894092   -8.9908177    515.77462 0.0091859838 0.0071467073         3822 
 4680000    0.5087186   -9.0156059    514.62619 0.0091635718 0.0071440184         3805 
 4681000   0.50426671   -9.0110616    514.51934 0.0091597119  0.007141331         3809 
 4682000    0.5079259   -9.0210186     514.7191 0.0091613111 0.0071386422         3841 
 4683000   0.49470346   -9.0140997    514.16611 0.0091495144 0.0071359577         3797 
 4684000   0.49866909   -9.0331247    513.84196  0.009141794 0.0071332728         3844 
 4685000   0.50580717   -9.0024961    514.55594 0.0091525425 0.0071305904         3829 
 4686000   0.49565117   -9.0349744    514.82487 0.0091553719 0.0071279099         3810 
 4687000   0.49592659   -9.0233646    514.67685 0.0091507867 0.0071252307         3808 
 4688000   0.49108533   -9.0204943    514.74828 0.0091501045 0.0071225539         3823 
 4689000   0.49523154    -9.022981    516.23221 0.0091745257 0.0071198782         3811 
 4690000   0.49936123   -9.0146679    514.71533  0.009145617 0.0071172034         3829 
 4691000    0.5047637    -9.019413      514.798 0.0091451361 0.0071145287         3833 
 4692000   0.50712677   -9.0137435    515.29057 0.0091519354 0.0071118566         3831 
 4693000   0.49369743   -9.0318462    514.94356 0.0091438234 0.0071091846         3821 
 4694000   0.49999294   -9.0277371    514.22081 0.0091290444 0.0071065149         3828 
 4695000   0.51315379   -9.0234279    514.44208 0.0091310274 0.0071038479         3848 
 4696000   0.50787016   -9.0153168    515.04881 0.0091398498 0.0071011813         3826 
 4697000   0.50720669   -9.0196286    514.42479 0.0091268326 0.0070985151         3833 
 4698000   0.50341263   -9.0264225    514.50261 0.0091262702 0.0070958496         3836 
 4699000   0.49520926   -9.0275402    514.25451 0.0091199281 0.0070931861         3822 
 4700000   0.49303348   -9.0159325    514.77799 0.0091272693 0.0070905253         3863 
 4701000   0.48816458   -9.0314924    514.74753 0.0091247877 0.0070878632         3839 
 4702000   0.48932709   -9.0459505    514.50504 0.0091185496 0.0070852019         3852 
 4703000   0.49545104   -9.0280221    514.42496 0.0091151917  0.007082542         3835 
 4704000   0.50526659   -9.0201664    514.31131 0.0091112406 0.0070798857         3841 
 4705000   0.50267885   -9.0279744     513.7586 0.0090995148 0.0070772291         3841 
 4706000   0.49013871   -9.0191371    514.20355 0.0091054603 0.0070745769         3849 
 4707000   0.51564498   -9.0235301    514.28394 0.0091049489 0.0070719239         3818 
 4708000   0.49360654    -9.033145    514.48033 0.0091064912 0.0070692719         3833 
 4709000   0.50946465   -9.0126783    515.18658 0.0091170556  0.007066622         3819 
 4710000   0.49879712   -9.0208779     514.5025 0.0091030166 0.0070639736         3836 
 4711000   0.49266798   -9.0295209    514.28059  0.009097159 0.0070613268         3826 
 4712000   0.48675288   -9.0398206    513.63223 0.0090837619 0.0070586783         3841 
 4713000   0.51278099   -9.0172194    515.28077 0.0091109833 0.0070560343         3851 
 4714000   0.49146131   -9.0277552     514.7378  0.009099452 0.0070533909         3805 
 4715000   0.50967923   -9.0379617    514.02051 0.0090848447 0.0070507474         3844 
 4716000   0.49374298   -9.0213744    514.85006 0.0090975767 0.0070481108         3835 
 4717000   0.50051275   -9.0383364    514.97178 0.0090977984 0.0070454716         3853 
 4718000   0.50190284    -9.026597     515.1894 0.0090997139 0.0070428338         3832 
 4719000    0.5011522   -9.0419756    515.17302 0.0090974964  0.007040198         3812 
 4720000   0.49946546    -9.011323    515.27872  0.009097435 0.0070375632         3826 
 4721000   0.48811368    -9.026678    514.53389 0.0090823605 0.0070349281         3802 
 4722000   0.48703625   -9.0182639    515.01385 0.0090889074 0.0070322928         3803 
 4723000   0.49394913   -9.0129669    515.31876  0.009092363 0.0070296617         3828 
 4724000   0.49680025   -9.0297831    514.81399 0.0090815338 0.0070270292         3844 
 4725000   0.49119496    -9.026163    513.63852 0.0090588805 0.0070243979         3841 
 4726000   0.49677701   -9.0142319    514.11802 0.0090654185 0.0070217686         3833 
 4727000    0.4957913   -9.0119343     514.7131 0.0090739916 0.0070191406         3853 
 4728000     0.495593   -9.0418361    515.06074 0.0090781998 0.0070165143         3830 
 4729000   0.49962475   -9.0227414    514.02023 0.0090579443 0.0070138884         3814 
 4730000   0.50121907   -9.0142889    514.94788 0.0090723727 0.0070112655         3824 
 4731000   0.49700813   -9.0158549    514.47543 0.0090621332 0.0070086452         3851 
 4732000   0.50426745   -9.0275467    514.57458 0.0090619643 0.0070060248         3840 
 4733000    0.5047282   -9.0416495    514.09843 0.0090516661 0.0070034068         3814 
 4734000   0.49815614   -9.0331945    514.41399 0.0090553089 0.0070007892         3836 
 4735000   0.49180395   -9.0434921    514.27866 0.0090510148  0.006998174         3845 
 4736000   0.49092672   -9.0132167     514.2271 0.0090481965 0.0069955576         3863 
 4737000   0.49065825   -9.0355243    514.58516 0.0090525853 0.0069929438         3836 
 4738000   0.48786529   -9.0447992    515.35489  0.009064213 0.0069903321         3826 
 4739000   0.49493529   -9.0260033      514.337  0.009044401 0.0069877207         3838 
 4740000   0.49773038   -9.0243973    514.13953 0.0090390213 0.0069851106         3836 
 4741000   0.49883418   -9.0212198    514.02957 0.0090351819 0.0069825002         3819 
 4742000     0.499329   -9.0345759    514.07459 0.0090340678 0.0069798927         3855 
 4743000   0.49622081   -9.0249022    513.67308 0.0090251085 0.0069772854         3838 
 4744000   0.49365229   -9.0146148     514.2798 0.0090338638 0.0069746823         3849 
 4745000   0.50392069   -9.0441423    514.84608 0.0090419052 0.0069720769         3825 
 4746000   0.49764609   -9.0242886    514.24377 0.0090294243 0.0069694738         3826 
 4747000   0.49397002   -9.0341909    514.57373 0.0090333146 0.0069668737         3839 
 4748000   0.47820333   -9.0538571    514.75192 0.0090345395 0.0069642748         3842 
 4749000   0.49469381   -9.0389313    514.27623 0.0090242899 0.0069616753         3855 
 4750000   0.49299903   -9.0350477    514.93894 0.0090340166 0.0069590801         3851 
 4751000   0.49226628   -9.0220548    514.28936 0.0090207213 0.0069564836         3844 
 4752000   0.49473954   -9.0367685    514.44276 0.0090215131 0.0069538903         3837 
 4753000    0.4813647   -9.0510132    514.76881 0.0090253316 0.0069512983         3836 
 4754000   0.49542219   -9.0342342    514.95773 0.0090267447 0.0069487047         3839 
 4755000   0.49308371   -9.0257996    514.50016 0.0090168272 0.0069461123         3801 
 4756000   0.48718636    -9.034307    513.86146 0.0090037402  0.006943525         3832 
 4757000   0.48243254   -9.0363157     513.8284 0.0090012683 0.0069409383         3827 
 4758000   0.48602024   -9.0384794    514.47827 0.0090107586 0.0069383528         3840 
 4759000   0.48699282   -9.0480702    514.38451 0.0090072234 0.0069357684         3831 
 4760000    0.4911767   -9.0394724    514.52137  0.009007727 0.0069331825         3857 
 4761000   0.48876886   -9.0428537    514.08993 0.0089982834 0.0069305992         3836 
 4762000   0.48405756   -9.0432315     514.9662 0.0090117282 0.0069280188         3839 
 4763000   0.48643188   -9.0448813    514.36372 0.0089992953 0.0069254412         3820 
 4764000   0.48928373   -9.0307872    514.71489  0.009003549 0.0069228619         3853 
 4765000   0.48623139    -9.031713    514.34877 0.0089952566 0.0069202865         3833 
 4766000   0.48219946   -9.0390166    513.67501 0.0089815884 0.0069177104         3859 
 4767000   0.49531509   -9.0296744    515.09776 0.0090045759 0.0069151347         3828 
 4768000   0.49542227   -9.0402328    514.18569 0.0089867466 0.0069125611         3838 
 4769000   0.48442359   -9.0409493    513.87249 0.0089793892 0.0069099882         3847 
 4770000   0.49269263   -9.0346038    513.14659 0.0089648251 0.0069074173         3831 
 4771000   0.50168193   -9.0275167    514.21523 0.0089816116 0.0069048467         3847 
 4772000   0.47158858   -9.0357101    514.04301  0.008976722 0.0069022795         3844 
 4773000   0.47993359   -9.0444762    514.38266 0.0089807714 0.0068997125         3848 
 4774000   0.49086004   -9.0372494    514.38622 0.0089789524 0.0068971476         3848 
 4775000   0.50225034   -9.0490755    514.57794 0.0089804178  0.006894583         3824 
 4776000   0.49070521   -9.0425079    513.96629 0.0089678652  0.006892019         3826 
 4777000   0.49487301   -9.0443516    513.71413 0.0089615891 0.0068894567         3844 
 4778000   0.48161675   -9.0433798    513.67022 0.0089589476 0.0068868959         3858 
 4779000   0.48042146   -9.0485488    514.34976 0.0089689224 0.0068843349         3853 
 4780000   0.49665237   -9.0398621    513.94485  0.008959987 0.0068817778         3854 
 4781000   0.48107383   -9.0497589    513.86707  0.008956757  0.006879221         3837 
 4782000   0.49620566    -9.039461    514.23269 0.0089612556 0.0068766646         3824 
 4783000    0.4689095   -9.0485397    514.55966 0.0089650788 0.0068741092         3832 
 4784000    0.4923524   -9.0558041    514.34599 0.0089594828 0.0068715562         3828 
 4785000   0.48099723    -9.033062     513.8793 0.0089494827  0.006869006         3832 
 4786000   0.47936082   -9.0381616    515.08116 0.0089685395 0.0068664555         3827 
 4787000   0.48732962   -9.0361472    514.11238 0.0089498012 0.0068639069         3838 
 4788000   0.48084424   -9.0353305    514.15004 0.0089485875 0.0068613587         3850 
 4789000   0.48296382   -9.0438874    514.29532 0.0089492469  0.006858815         3828 
 4790000   0.48993933   -9.0489063      514.372 0.0089487127 0.0068562722         3820 
 4791000   0.47715821   -9.0535731    514.20063 0.0089438641 0.0068537277         3841 
 4792000   0.48622467   -9.0402767    514.13528 0.0089408611  0.006851186         3834 
 4793000   0.48736853   -9.0414355    514.49852 0.0089453113  0.006848645         3829 
 4794000   0.48877158   -9.0248451    514.44866 0.0089425786 0.0068461063         3818 
 4795000   0.49038015   -9.0402066    513.62582 0.0089264133  0.006843568         3834 
 4796000   0.48106004   -9.0437776    514.32712 0.0089367376 0.0068410302         3826 
 4797000   0.48197693   -9.0459622    513.84016 0.0089264151 0.0068384958         3854 
 4798000   0.47587449   -9.0627468    513.77614 0.0089234427 0.0068359622         3833 
 4799000   0.48621613   -9.0307982    514.14168 0.0089279309 0.0068334297         3823 
 4800000   0.48438755   -9.0406204    514.05682 0.0089245976 0.0068308975         3833 
 4801000   0.49610546    -9.040508     513.8886 0.0089198187 0.0068283653         3849 
 4802000   0.48258974   -9.0407557    514.49476 0.0089284805 0.0068258344         3836 
 4803000   0.48236667   -9.0471646    514.47724 0.0089263176 0.0068233061         3830 
 4804000   0.48602298   -9.0634008    514.56342 0.0089259544 0.0068207791         3829 
 4805000   0.49371822   -9.0442733    515.13242  0.008933965 0.0068182547         3838 
 4806000    0.4829302   -9.0325987    514.59828 0.0089228444 0.0068157299         3825 
 4807000   0.48737641   -9.0430121    514.22554 0.0089145265 0.0068132049         3835 
 4808000   0.48255521   -9.0411713    514.45345 0.0089166224 0.0068106822         3861 
 4809000   0.48339407   -9.0501999     513.0735 0.0088908556 0.0068081609         3826 
 4810000   0.48769994   -9.0550762    514.54709 0.0089145372 0.0068056399         3814 
 4811000   0.47716325   -9.0359033    514.33093 0.0089089401 0.0068031192         3847 
 4812000   0.48974845   -9.0521988    513.23629  0.008888132 0.0068006025         3851 
 4813000   0.49262783   -9.0450825    513.88121 0.0088974516 0.0067980846         3862 
 4814000   0.48673739   -9.0422533    513.75272 0.0088933791 0.0067955684         3830 
 4815000   0.47882679    -9.049031     513.5897 0.0088887107 0.0067930543         3835 
 4816000   0.49147266   -9.0485219    513.72957 0.0088892852 0.0067905405         3861 
 4817000    0.4718709   -9.0445195    513.89054 0.0088902246 0.0067880304         3840 
 4818000   0.48156183   -9.0534862    514.16341 0.0088930989 0.0067855209         3840 
 4819000   0.47707977   -9.0407969    513.21619 0.0088748736  0.006783011         3835 
 4820000   0.48377864   -9.0552955    514.24159 0.0088907605 0.0067805021         3837 
 4821000   0.47507185   -9.0509869    514.87186 0.0088998108 0.0067779964         3852 
 4822000   0.47798595   -9.0445686    514.34955 0.0088889387 0.0067754914         3816 
 4823000   0.48896411   -9.0481154      515.342 0.0089042436 0.0067729876         3823 
 4824000   0.47719692   -9.0616872    514.20384 0.0088827363 0.0067704848         3860 
 4825000   0.47247228   -9.0551249    514.13509 0.0088797079 0.0067679835         3835 
 4826000   0.48608533   -9.0471035    513.78239 0.0088717776 0.0067654825         3834 
 4827000   0.47473059   -9.0560913    513.47252 0.0088645901  0.006762982         3834 
 4828000   0.49035113   -9.0537887    514.15234  0.008874488 0.0067604842         3844 
 4829000   0.48140174    -9.063244    513.55139 0.0088622797 0.0067579885         3841 
 4830000   0.47179762   -9.0579982    513.42766 0.0088583101 0.0067554924         3822 
 4831000   0.47499907   -9.0378255    513.44355 0.0088567507 0.0067529987         3814 
 4832000    0.4883685   -9.0538915    513.93218 0.0088633447 0.0067505054         3813 
 4833000   0.48579651   -9.0451564    513.71558  0.008857776 0.0067480138         3822 
 4834000   0.47210916    -9.054448    513.85703 0.0088583822 0.0067455238         3843 
 4835000   0.47357613   -9.0407688    514.16306 0.0088618246  0.006743033         3832 
 4836000   0.46795803   -9.0420326     513.4055 0.0088469378 0.0067405445         3843 
 4837000    0.4915842   -9.0644771    514.60085 0.0088657027 0.0067380579         3824 
 4838000   0.47573542    -9.056052    513.79044 0.0088499111 0.0067355751         3865 
 4839000   0.47514683   -9.0591913    514.00348 0.0088517511 0.0067330909         3829 
 4840000   0.47257261   -9.0398069    512.85222 0.0088301002 0.0067306087         3810 
 4841000   0.48213679   -9.0574957     514.1617 0.0088508177 0.0067281276         3846 
 4842000   0.47288453   -9.0735548    513.72074 0.0088414007 0.0067256483         3828 
 4843000   0.47606384   -9.0516558    513.69288 0.0088390956 0.0067231698         3843 
 4844000   0.48106714   -9.0720873    512.98178 0.0088250375 0.0067206917         3833 
 4845000   0.47092308   -9.0569035    513.69838 0.0088355414 0.0067182141         3827 
 4846000   0.47011236   -9.0568073    514.11011 0.0088407985 0.0067157379         3845 
 4847000   0.47441069   -9.0533942     514.2638 0.0088416168  0.006713265         3821 
 4848000   0.48677195   -9.0407188    514.12396 0.0088373893 0.0067107912         3834 
 4849000   0.48015382   -9.0310405    513.64986 0.0088274191  0.006708319         3834 
 4850000    0.4612133   -9.0543319    513.27484 0.0088191553 0.0067058462         3841 
 4851000    0.4859664   -9.0459627    513.36686 0.0088189181 0.0067033747         3840 
 4852000   0.47096476   -9.0509871    514.22801 0.0088318909 0.0067009062         3853 
 4853000    0.4783808   -9.0514377    513.98616  0.008825918  0.006698436         3819 
 4854000   0.47024484   -9.0519563    513.63064 0.0088179962 0.0066959715         3836 
 4855000   0.46011184   -9.0652977    513.54298 0.0088146752 0.0066935059         3826 
 4856000    0.4655126   -9.0565169    514.36278 0.0088269286 0.0066910426         3846 
 4857000   0.47413011   -9.0493338     513.4657 0.0088097196 0.0066885807         3839 
 4858000   0.48358902   -9.0608964    513.54636 0.0088092898 0.0066861179         3830 
 4859000   0.47842379   -9.0431466    514.57885 0.0088251844 0.0066836566         3863 
 4860000   0.47357331   -9.0615665    513.07231 0.0087975362 0.0066811973         3820 
 4861000    0.4682541   -9.0638733    513.57541 0.0088043511 0.0066787392         3820 
 4862000   0.47096554   -9.0595268    513.43111  0.008800067 0.0066762839         3849 
 4863000   0.48290746   -9.0731596    513.46554 0.0087988475 0.0066738283         3844 
 4864000   0.47388209   -9.0654283    513.24335 0.0087932317 0.0066713752         3832 
 4865000   0.47909643   -9.0591941    513.31547 0.0087926596 0.0066689229         3817 
 4866000   0.47866905   -9.0424835    513.81948 0.0087994841 0.0066664701         3816 
 4867000   0.45819163   -9.0526672     513.3102 0.0087889563 0.0066640209         3855 
 4868000    0.4794524   -9.0567894    513.35267 0.0087878778 0.0066615712         3823 
 4869000   0.48147786   -9.0598412    513.76175 0.0087930745 0.0066591216         3829 
 4870000   0.46883372   -9.0604955    512.74664 0.0087738987 0.0066566727         3848 
 4871000   0.47904026   -9.0621084     513.9965 0.0087934801 0.0066542272         3854 
 4872000   0.47381087    -9.060041    513.73809 0.0087872552 0.0066517819         3866 
 4873000    0.4756179   -9.0571441    513.15081 0.0087754088 0.0066493374         3851 
 4874000   0.47587399   -9.0565419    513.86392 0.0087858009 0.0066468962         3853 
 4875000   0.48046958   -9.0616275     513.3587 0.0087753624 0.0066444528         3840 
 4876000   0.47360169    -9.059921    513.64479 0.0087784522 0.0066420123         3874 
 4877000   0.47293411   -9.0777049    514.05198 0.0087836098 0.0066395739         3847 
 4878000   0.46114179    -9.075991    512.87305 0.0087616689 0.0066371344         3836 
 4879000   0.47790159   -9.0770101    513.72621  0.008774445 0.0066346967         3808 
 4880000   0.46908113   -9.0449795    512.51519 0.0087519671 0.0066322619         3845 
 4881000   0.47308208    -9.047133    513.33441 0.0087641606 0.0066298277         3858 
 4882000   0.47744766     -9.06467    513.44727 0.0087642918 0.0066273931         3867 
 4883000   0.46840552   -9.0749815    514.46579 0.0087798789 0.0066249623         3870 
 4884000   0.46223359   -9.0682708    513.50812 0.0087617411 0.0066225327         3868 
 4885000   0.47327701   -9.0720432    513.92959 0.0087671373 0.0066201037         3850 
 4886000   0.47456124   -9.0719123    512.69802 0.0087443379 0.0066176767         3855 
 4887000   0.47004383   -9.0692191    513.37461 0.0087540859 0.0066152497         3849 
 4888000   0.48629119   -9.0784067    513.31328 0.0087512493 0.0066128233         3842 
 4889000   0.47581913   -9.0585848    514.10456 0.0087629468 0.0066103988         3853 
 4890000   0.47180692    -9.068519    513.96678 0.0087588067 0.0066079757         3835 
 4891000   0.47098471   -9.0613774    513.64089 0.0087514634 0.0066055529         3806 
 4892000   0.46192548   -9.0564539    514.11654 0.0087577771 0.0066031327         3837 
 4893000   0.45449636   -9.0526762    513.92466 0.0087527192 0.0066007136         3847 
 4894000   0.46706269   -9.0591635    513.36202 0.0087413503 0.0065982938         3830 
 4895000   0.47091343     -9.04846    513.00363 0.0087334633 0.0065958754         3839 
 4896000   0.46628998   -9.0523169    513.35967 0.0087377394 0.0065934592         3832 
 4897000   0.46885946   -9.0566577    513.46523 0.0087377516 0.0065910448         3844 
 4898000   0.46275647   -9.0571284    513.86384 0.0087427494 0.0065886318         3835 
 4899000   0.46489783   -9.0868987    513.78727 0.0087396624 0.0065862182         3863 
 4900000   0.46191075   -9.0761159     512.7606 0.0087204184 0.0065838073         3829 
 4901000   0.46381716   -9.0517254    513.34941 0.0087286508 0.0065813977         3839 
 4902000    0.4725045   -9.0696812    512.91217 0.0087194371 0.0065789856         3827 
 4903000   0.47645239   -9.0706056    512.95872 0.0087184499 0.0065765784         3844 
 4904000    0.4600836    -9.073189    513.91635 0.0087329451 0.0065741735         3834 
 4905000   0.46239147   -9.0770728    513.64311 0.0087265223 0.0065717685         3818 
 4906000   0.46637011   -9.0613674    513.38896 0.0087204268  0.006569362         3830 
 4907000   0.47561347    -9.066272    513.67324 0.0087234774 0.0065669595         3841 
 4908000   0.46429101   -9.0666558    513.33353  0.008715932 0.0065645575         3848 
 4909000   0.46152375   -9.0661205    513.16072 0.0087112229 0.0065621574         3829 
 4910000   0.46256057   -9.0705195    513.88919 0.0087218125 0.0065597573         3826 
 4911000   0.46635908   -9.0688041    514.27327 0.0087265538 0.0065573593         3861 
 4912000   0.46899412   -9.0744011      513.835 0.0087173419 0.0065549627         3840 
 4913000   0.46623281   -9.0773644    513.45169 0.0087090659 0.0065525689         3852 
 4914000    0.4533158   -9.0834469    513.46914 0.0087075895 0.0065501734         3845 
 4915000   0.46294306    -9.073133    514.56579 0.0087244116   0.00654778         3830 
 4916000   0.46953471   -9.0750551    512.95673 0.0086953608 0.0065453869         3818 
 4917000   0.45851569   -9.0720377    513.25742 0.0086986885  0.006542996         3853 
 4918000   0.46753851   -9.0638444    512.99972 0.0086925531 0.0065406065         3867 
 4919000   0.45659431   -9.0563734    513.47423 0.0086988248 0.0065382174         3869 
 4920000   0.46236768   -9.0645049    513.12878 0.0086912057 0.0065358296         3838 
 4921000   0.45915043    -9.075203    512.85031 0.0086847238 0.0065334443         3869 
 4922000    0.4702115   -9.0687771    513.24707 0.0086896767 0.0065310599         3851 
 4923000   0.46591123   -9.0598066    513.00109 0.0086837479 0.0065286751         3833 
 4924000   0.46763533   -9.0598935    513.43121 0.0086892637  0.006526293         3846 
 4925000   0.46380068   -9.0737988    513.37994 0.0086866318 0.0065239119         3848 
 4926000   0.45502582   -9.0746051    513.50065 0.0086869105 0.0065215321         3815 
 4927000   0.46846941   -9.0688126    512.85672 0.0086742561 0.0065191537         3856 
 4928000   0.47574972   -9.0673316    513.29764  0.008679952 0.0065167758         3854 
 4929000   0.45716597   -9.0696954    513.17286 0.0086760813 0.0065143986         3842 
 4930000   0.46417457   -9.0643046    513.22526 0.0086752073 0.0065120231         3818 
 4931000   0.46147965   -9.0750509    512.93391 0.0086685241 0.0065096457         3821 
 4932000   0.46843665   -9.0729205    513.67091 0.0086792193 0.0065072724         3843 
 4933000   0.45677099   -9.0740429    513.46556 0.0086739908  0.006504899         3817 
 4934000   0.46526565   -9.0721492    513.63972 0.0086751743 0.0065025265         3850 
 4935000   0.46824478   -9.0705933    512.95218 0.0086618064 0.0065001564         3825 
 4936000    0.4636381   -9.0898774    512.63826 0.0086547518 0.0064977859         3846 
 4937000   0.45397165   -9.0756079    513.16206 0.0086618402 0.0064954183         3861 
 4938000   0.45411223   -9.0805085    513.09383 0.0086589347 0.0064930509         3843 
 4939000   0.44954927   -9.0815514    512.67992 0.0086501978 0.0064906833         3839 
 4940000   0.46372194   -9.0795937      512.936 0.0086527665  0.006488318         3836 
 4941000   0.46230277   -9.0809386    513.39112 0.0086586912 0.0064859547         3833 
 4942000   0.45956558   -9.0790083    512.30582 0.0086386386 0.0064835911         3848 
 4943000   0.45901099   -9.0794538    512.89973 0.0086469035 0.0064812306         3854 
 4944000   0.46407136   -9.0852612    513.63628 0.0086575695 0.0064788709         3863 
 4945000   0.46296865   -9.0660183     512.6704 0.0086395416 0.0064765116         3826 
 4946000   0.45537472   -9.0843754    512.79363 0.0086398711 0.0064741528         3833 
 4947000    0.4678897   -9.0798873    513.25762 0.0086459406 0.0064717945         3817 
 4948000   0.46197414   -9.0777455    513.47068 0.0086477817 0.0064694398         3842 
 4949000   0.46257281   -9.0719506     513.3859 0.0086446066 0.0064670859         3849 
 4950000   0.45812059   -9.0781964    513.38258 0.0086428045 0.0064647316         3840 
 4951000   0.46671439   -9.0816559     513.5917 0.0086445786   0.00646238         3852 
 4952000   0.45877468    -9.070149    513.48568 0.0086410487  0.006460028         3855 
 4953000   0.44647457   -9.0733105    513.34761 0.0086369811 0.0064576777         3839 
 4954000   0.45934821   -9.0921528    513.16248 0.0086321235 0.0064553288         3831 
 4955000   0.46017832    -9.079013    512.58297 0.0086206352 0.0064529824         3845 
 4956000   0.45817239   -9.0899672    512.65646 0.0086201315 0.0064506362         3845 
 4957000   0.46896385   -9.0790103      512.436 0.0086146864 0.0064482888         3840 
 4958000   0.45936476    -9.075867    513.65264 0.0086333978 0.0064459438         3827 
 4959000   0.45770867   -9.0819969    513.32856  0.008626211 0.0064435992         3833 
 4960000   0.46113978   -9.0683803    512.88829 0.0086170748 0.0064412567         3832 
 4961000   0.45758574   -9.0774199    513.00127 0.0086172355 0.0064389148         3843 
 4962000   0.46596885   -9.0765459    513.03909 0.0086161341 0.0064365746         3835 
 4963000   0.45416567   -9.0689847    513.31018 0.0086189499 0.0064342343         3854 
 4964000   0.45271293   -9.0942574    512.96234 0.0086113742  0.006431895         3832 
 4965000   0.45762855   -9.0756296    513.28774 0.0086151014  0.006429559         3814 
 4966000   0.46059079   -9.0799974    513.13128  0.008610741 0.0064272233         3871 
 4967000   0.46171016   -9.0835411    512.85461 0.0086043656 0.0064248868         3845 
 4968000   0.46126564   -9.0846196    513.13818 0.0086073903 0.0064225524         3863 
 4969000   0.45659323   -9.0823425    513.17323 0.0086062458 0.0064202202         3841 
 4970000   0.46236769   -9.0820988     513.9642 0.0086177766 0.0064178879         3869 
 4971000   0.46384104   -9.0829659    512.98552 0.0085996365  0.006415557         3851 
 4972000   0.45541877   -9.0857985    512.85187 0.0085956669 0.0064132273         3854 
 4973000   0.44384298   -9.0841889    513.62981 0.0086069744 0.0064108982         3836 
 4974000   0.45424347   -9.0946232    512.95059 0.0085938646 0.0064085724         3842 
 4975000   0.44291175   -9.0852583    512.60385 0.0085863291 0.0064062465         3822 
 4976000   0.45578295   -9.0680975    512.93275 0.0085901118 0.0064039229         3834 
 4977000    0.4549124   -9.0798768    513.52768  0.008598347 0.0064015994         3857 
 4978000   0.46516806     -9.08945    512.50962 0.0085795771 0.0063992765         3828 
 4979000   0.45434989   -9.0870255    513.17364 0.0085889677 0.0063969533         3852 
 4980000    0.4563524   -9.0752494    513.36502 0.0085904455 0.0063946334         3829 
 4981000   0.46377362   -9.0863983    512.83025  0.008579774  0.006392316         3828 
 4982000   0.45461756   -9.0815136    513.31352 0.0085861354 0.0063899972         3847 
 4983000   0.45539505   -9.0900159    512.90287 0.0085775449 0.0063876815         3849 
 4984000   0.45178802   -9.0824474    512.76405 0.0085735027 0.0063853651         3834 
 4985000   0.44122933   -9.0898486     512.4217 0.0085660598 0.0063830492         3840 
 4986000   0.44931061   -9.0959517    512.83915 0.0085713188 0.0063807338         3849 
 4987000   0.44911946   -9.0949179    512.92572 0.0085710468 0.0063784201         3831 
 4988000   0.45553332   -9.0794424    512.65081 0.0085647355 0.0063761083         3829 
 4989000   0.45137418   -9.0969278    512.37371 0.0085583902 0.0063737984         3859 
 4990000   0.45473752   -9.0883574    512.37555  0.008556706 0.0063714888         3850 
 4991000   0.45296732   -9.0943414     512.8413 0.0085627679 0.0063691791         3837 
 4992000   0.45538022   -9.0965825    513.11186 0.0085655692 0.0063668719         3846 
 4993000   0.44726778   -9.1022291    513.26628  0.008566431 0.0063645656         3839 
 4994000   0.45043188   -9.0830685    512.97837 0.0085599115 0.0063622627         3851 
 4995000   0.45465403   -9.0885718    512.91624 0.0085571612 0.0063599592         3848 
 4996000    0.4544351   -9.0876783    513.12657 0.0085589566 0.0063576554         3843 
 4997000   0.46007725   -9.0966626    512.82057 0.0085521409 0.0063553546         3836 
 4998000   0.45714593   -9.0904441    512.94073 0.0085524331 0.0063530562         3856 
 4999000   0.45567575   -9.0782149    512.89549 0.0085499682  0.006350758         3838 
 5000000   0.45287903   -9.0845232      513.039 0.0085506501  0.006348462         3829 
 5001000   0.45769378   -9.0904822    512.92542 0.0085470476 0.0063461656         3840 
 5002000    0.4579529    -9.083742    512.86572 0.0085443442 0.0063438703         3820 
 5003000   0.44862588   -9.0839736    512.70068 0.0085398874 0.0063415763         3844 
 5004000   0.45553957   -9.0894676    512.40946 0.0085333309 0.0063392829         3836 
 5005000   0.44463409   -9.0813708     513.8635 0.0085558358  0.006336991         3815 
 5006000   0.44842533   -9.0897868    512.33597 0.0085286984 0.0063346999         3868 
 5007000   0.46106117   -9.0981462    513.22478 0.0085417879 0.0063324112         3849 
 5008000   0.45090384   -9.0875662    512.79252 0.0085328894 0.0063301237         3841 
 5009000    0.4485746   -9.0847332    513.22384 0.0085383616 0.0063278381         3851 
 5010000   0.45580635   -9.0707704    512.76612 0.0085290439  0.006325551         3840 
 5011000   0.43328537   -9.0888712    512.67412  0.008525812  0.006323266         3844 
 5012000    0.4575732   -9.0829529    512.64226 0.0085235811 0.0063209823         3823 
Loop time of 13379.5 on 48 procs for 5000000 steps with 4000 atoms

Performance: 64576.431 tau/day, 373.706 timesteps/s
99.4% CPU use with 48 MPI tasks x no OpenMP threads

MPI task timing breakdown:
Section |  min time  |  avg time  |  max time  |%varavg| %total
---------------------------------------------------------------
Pair    | 1007.9     | 1115.3     | 1258.1     | 207.3 |  8.34
Neigh   | 94.78      | 98.339     | 103.79     |  26.7 |  0.73
Comm    | 816.98     | 979.03     | 1090.1     | 245.2 |  7.32
Output  | 18.49      | 18.495     | 18.593     |   0.3 |  0.14
Modify  | 10965      | 11036      | 11087      |  28.8 | 82.49
Other   |            | 132.2      |            |       |  0.99

Nlocal:        83.3333 ave          92 max          76 min
Histogram: 3 5 5 8 6 7 6 3 4 1
Nghost:        2459.38 ave        2497 max        2428 min
Histogram: 3 6 7 5 5 7 6 4 3 2
Neighs:        17131.9 ave       20179 max       14762 min
Histogram: 8 7 5 3 4 4 7 2 3 5
FullNghs:      34263.0 ave       37466 max       30345 min
Histogram: 1 1 6 5 8 8 6 4 5 4

Total # of neighbors = 1644623
Ave neighs/atom = 411.15575
Neighbor list builds = 266085
Dangerous builds = 0

#clear
#
#next RN
#
#jump SELF
Total wall time: 3:43:03
