
units lj                  # Use reduced LJ style units
atom_style atomic         # Uncharged point particles
atom_modify map hash      # Needed for indexing of clusters etc
                          # Used to be able to find where atoms are in relation to each other.

lattice fcc 1.0 spacing 1 1 1
Lattice spacing in x,y,z = 1.5874011 1.5874011 1.5874011
region box block 0 10 0 10 0 10 units lattice
create_box 2 box
Created orthogonal box = (0.0000000 0.0000000 0.0000000) to (15.874011 15.874011 15.874011)
  3 by 4 by 4 MPI processor grid
create_atoms 1 box
Created 4000 atoms
  using lattice units in orthogonal box = (0.0000000 0.0000000 0.0000000) to (15.874011 15.874011 15.874011)
  create_atoms CPU = 0.003 seconds
set type 1 type/fraction 2 0.3 78393
Setting atom values ...
  1229 settings made for type/fraction
mass 1 1.0
mass 2 1.0
pair_style lj/cut  3.5
pair_modify tail  yes
pair_coeff 1  1  1.0  1.0   # Intearaction between 1 and 1 set with epsilon = 1 and sigma = 1
pair_coeff 1  2  1.5  0.8
pair_coeff 2  2  0.5  0.88

write_data data.0
System init for write_data ...
Neighbor list info ...
  update every 1 steps, delay 10 steps, check yes
  max neighbors/atom: 2000, page size: 100000
  master list distance cutoff = 3.8
  ghost atom cutoff = 3.8
  binsize = 1.9, bins = 9 9 9
  1 neighbor lists, perpetual/occasional/extra = 1 0 0
  (1) pair lj/cut, perpetual
      attributes: half, newton on
      pair build: half/bin/atomonly/newton
      stencil: half/bin/3d
      bin: standard
WARNING: Not all mixed pair coeffs generated from mixing. Use write_data with 'pair ij' option to store all pair coeffs. (../write_data.cpp:312)


#############################
#   M E L T   S Y S T E M   #
#############################

velocity all create 2.4 5300450 mom yes dist gaussian # Assign velocities
                                                    # Temperature 2.4, random number seed, zero linear momentum
                                                                                # Gaussian distribution

timestep 0.002   # simulation timestep
thermo 1000       # output thermodynamic data every 1000 steps bf 100

# Define a fix  in this case with index 1 applied to all
# particles in the simulation. This fix is for simulations
# in the anisotropic NPT ensemble. Note that we use the MTK
# correction.
fix 1 all npt temp 2.4 2.4 0.1 iso 5.68 5.68 0.5 mtk yes tchain 5 pchain 5 # Use NPT ensemble
                                                                         # Set temperature and pressure and damping
                                                                         # Numbers of thermostats in chain and in barostat
run 10000          # run for 10000 steps
Per MPI rank memory allocation (min/avg/max) = 3.642 | 3.644 | 3.648 Mbytes
Step Temp E_pair E_mol TotEng Press Volume 
       0          2.4   -6.4318281            0   -2.8327281   -3.9834666         4000 
    1000    2.4680981   -4.9615051            0   -1.2602835    5.6991108    4164.7377 
    2000     2.339425   -5.0887257            0   -1.5804655    5.4518584    4121.4434 
    3000    2.4164927    -4.938385            0   -1.3145521    5.6945364    4182.2522 
    4000    2.3870229   -5.0567139            0   -1.4770748    5.7063061     4116.878 
    5000    2.3970469    -5.014079            0   -1.4194076    5.7404465    4131.8018 
    6000     2.434338   -4.9763346            0   -1.3257405    5.4367569    4190.2074 
    7000    2.4350537   -5.0076195            0   -1.3559521    5.2823774    4184.8879 
    8000    2.3736231    -4.983131            0   -1.4235865    5.6210798    4157.1384 
    9000    2.4075253   -4.9305246            0   -1.3201394    5.7465214    4166.2562 
   10000    2.4034309   -4.9850262            0   -1.3807812    6.0713211    4120.8954 
Loop time of 2.45275 on 48 procs for 10000 steps with 4000 atoms

Performance: 704516.026 tau/day, 4077.060 timesteps/s
99.7% CPU use with 48 MPI tasks x no OpenMP threads

MPI task timing breakdown:
Section |  min time  |  avg time  |  max time  |%varavg| %total
---------------------------------------------------------------
Pair    | 1.0425     | 1.1116     | 1.323      |   4.0 | 45.32
Neigh   | 0.20033    | 0.20928    | 0.24316    |   1.4 |  8.53
Comm    | 0.68454    | 0.85204    | 0.97053    |   7.9 | 34.74
Output  | 0.00023805 | 0.00024322 | 0.00030718 |   0.0 |  0.01
Modify  | 0.18253    | 0.26475    | 0.34278    |  10.8 | 10.79
Other   |            | 0.01488    |            |       |  0.61

Nlocal:        83.3333 ave          93 max          74 min
Histogram: 2 4 3 4 9 14 5 4 1 2
Nghost:        1602.42 ave        1634 max        1575 min
Histogram: 7 3 5 5 5 8 7 1 2 5
Neighs:        9253.56 ave       10555 max        7754 min
Histogram: 3 1 3 6 7 8 9 6 1 4

Total # of neighbors = 444171
Ave neighs/atom = 111.04275
Neighbor list builds = 903
Dangerous builds = 181

# Equilibrate just above the melting temperature to avoid step fn in T

fix 1 all npt temp 1.25 1.25 0.1 iso 5.68 5.68 0.5 mtk yes tchain 5 pchain 5
run 2000
Per MPI rank memory allocation (min/avg/max) = 3.643 | 3.645 | 3.649 Mbytes
Step Temp E_pair E_mol TotEng Press Volume 
   10000    2.4034309   -4.9850262            0   -1.3807812    6.0713211    4120.8954 
   11000    1.2662734   -6.8518179            0   -4.9528827    5.8303619    3337.7115 
   12000    1.2541039   -6.8623555            0   -4.9816699    5.5806454    3345.4896 
Loop time of 0.565256 on 48 procs for 2000 steps with 4000 atoms

Performance: 611404.386 tau/day, 3538.220 timesteps/s
99.7% CPU use with 48 MPI tasks x no OpenMP threads

MPI task timing breakdown:
Section |  min time  |  avg time  |  max time  |%varavg| %total
---------------------------------------------------------------
Pair    | 0.24518    | 0.26952    | 0.30742    |   2.2 | 47.68
Neigh   | 0.035995   | 0.039279   | 0.04404    |   0.7 |  6.95
Comm    | 0.17008    | 0.20859    | 0.2337     |   2.7 | 36.90
Output  | 4.9418e-05 | 5.0507e-05 | 6.5883e-05 |   0.0 |  0.01
Modify  | 0.038519   | 0.043289   | 0.047054   |   1.2 |  7.66
Other   |            | 0.004527   |            |       |  0.80

Nlocal:        83.3333 ave          95 max          74 min
Histogram: 5 3 6 7 5 10 8 1 1 2
Nghost:        1851.79 ave        1875 max        1829 min
Histogram: 4 1 5 4 8 10 8 3 4 1
Neighs:        11410.2 ave       13539 max        9980 min
Histogram: 6 4 7 3 15 5 4 2 0 2

Total # of neighbors = 547689
Ave neighs/atom = 136.92225
Neighbor list builds = 143
Dangerous builds = 5

#############################
# L I N E A R  Q U E N C H  #
#############################

# Define solid atoms. This closely follows ten Wolde  Ruiz-Montero and Frenkel  Faraday Discuss  1996  104  93-110
# Compute components of the per-atom q6 vector
compute q6 all orientorder/atom degrees 1 6 components 6 nnn NULL cutoff 1.3 # compute the Q6 parameter.
                                                                             # Use all neighbours within 1.3 unit cell.

# get number of connections
compute coord_number all coord/atom orientorder q6 0.5

# An atom is solid if it has 8 or more connections (of a possible 14)
variable is_solid atom c_coord_number>=8
group solid dynamic all var is_solid    # Must be dynamic to update
dynamic group solid defined

# do clustering
compute cluster solid cluster/atom 1.3 # Create a cluster where all atoms within are solid and max 1.3 units from another member

# define chunks one chunk per cluster
compute clus_chunks solid chunk/atom c_cluster nchunk every compress yes  # Says which atoms are in which chunk

# count the size of each chunk
compute size_chunks solid property/chunk clus_chunks count


# Find the maximum entry in the vector of chunk sizes
variable max_n equal max(c_size_chunks)


# Thermo style which includes this variable
# thermo_style custom step temp pe vol v_max_n

thermo ${N}  # Print the thermo information every 100 steps
thermo 1000  

# Reset the npt fix at a lower temperature (below freezing)
fix 1  all npt temp  ${temp} ${temp}  0.1  iso  5.68  5.68  0.5  mtk yes tchain  5  pchain  5
fix 1  all npt temp  0.45 ${temp}  0.1  iso  5.68  5.68  0.5  mtk yes tchain  5  pchain  5
fix 1  all npt temp  0.45 0.45  0.1  iso  5.68  5.68  0.5  mtk yes tchain  5  pchain  5

dump dmp2 all dcd ${N} traj.dcd
dump dmp2 all dcd 1000 traj.dcd


compute msd all msd com yes
variable twopoint equal c_msd[4]/6/(step*dt+1.0e-6)
fix 9 all vector 10 c_msd[4]
variable fit equal slope(f_9)/6/(10*dt)
thermo_style custom step temp pe c_msd[4] v_twopoint v_fit v_max_n

fix 1 all npt temp 1.25 ${temp} 0.1 iso 5.68 5.68 0.5 mtk yes tchain 5 pchain 5
fix 1 all npt temp 1.25 0.45 0.1 iso 5.68 5.68 0.5 mtk yes tchain 5 pchain 5
run 500000 # 5000000  # Run for this many steps
Neighbor list info ...
  update every 1 steps, delay 10 steps, check yes
  max neighbors/atom: 2000, page size: 100000
  master list distance cutoff = 3.8
  ghost atom cutoff = 3.8
  binsize = 1.9, bins = 8 8 8
  4 neighbor lists, perpetual/occasional/extra = 1 3 0
  (1) pair lj/cut, perpetual
      attributes: half, newton on
      pair build: half/bin/atomonly/newton
      stencil: half/bin/3d
      bin: standard
  (2) compute orientorder/atom, occasional
      attributes: full, newton on
      pair build: full/bin/atomonly
      stencil: full/bin/3d
      bin: standard
  (3) compute coord/atom, occasional
      attributes: full, newton on
      pair build: full/bin/atomonly
      stencil: full/bin/3d
      bin: standard
  (4) compute cluster/atom, occasional
      attributes: full, newton on
      pair build: full/bin/atomonly
      stencil: full/bin/3d
      bin: standard
Per MPI rank memory allocation (min/avg/max) = 9.809 | 9.815 | 9.819 Mbytes
Step Temp PotEng c_msd[4] v_twopoint v_fit v_max_n 
   12000    1.2541039   -6.8623555 1.0616096e-30 7.3722883e-33 8.3333333e+20            1 
   13000    1.2345071   -6.8507699   0.50050279 0.0032083511  0.040625265            2 
   14000     1.227855   -6.8266668   0.96845492 0.0057646124  0.039806137            1 
   15000    1.2523546   -6.8762548    1.4342877 0.0079682647  0.039731009            2 
   16000     1.246425   -6.8983877    1.8727349 0.0097538274  0.038731423            1 
   17000    1.2558624   -6.8723396    2.2780109   0.01116672  0.037841072            1 
   18000    1.2602207   -6.9395931    2.7235782  0.012609158  0.037200207            1 
   19000    1.2517424   -6.8600095    3.2034378  0.014050165  0.037158126            1 
   20000    1.2264285   -6.8991322     3.602673  0.015011137  0.037018955            1 
   21000    1.1902468   -6.9015193    4.0493221  0.016068738  0.036862969            1 
   22000    1.2847627   -6.9239181     4.490783  0.017010541  0.036840707            1 
   23000    1.2269197   -6.9340671    4.9532579  0.017946586  0.036891099            2 
   24000    1.2390988   -6.9265979     5.409946  0.018784534  0.036919513            3 
   25000    1.2386541   -6.9246352    5.8846867  0.019615622  0.037084357            1 
   26000    1.2438087   -6.9441863    6.3687484  0.020412655  0.037180703            1 
   27000    1.2523793   -6.9404158     6.819125  0.021046682  0.037296364            2 
   28000    1.2140459   -6.9082396    7.3524113  0.021882176  0.037424072            1 
   29000     1.224088   -6.9800608    7.7836217  0.022366729   0.03758583            2 
   30000    1.2210115   -6.9312665    8.3178367  0.023105102  0.037788142            2 
   31000    1.2263606   -6.9117564     8.649678  0.023251822  0.037895507            1 
   32000    1.1925976     -6.96462     9.093716  0.023681552  0.037941812            3 
   33000     1.207255   -6.9634808    9.5389846  0.024088345  0.037909363            1 
   34000    1.2000053     -7.00123    9.8855783  0.024229358  0.037809942            2 
   35000    1.2148694    -6.919472    10.411863  0.024790149  0.037744787            1 
   36000    1.2077118   -6.9508823    10.711324  0.024794731  0.037658436            1 
   37000    1.2075035   -6.9308494    11.204068  0.025234387  0.037547853            2 
   38000    1.2045209   -6.9203944    11.715955  0.025692883  0.037468608            1 
   39000    1.2218818   -7.0145944    12.122579  0.025902947  0.037408241            3 
   40000    1.2145286   -6.9742191    12.399299  0.025831872  0.037323964            2 
   41000    1.1965037   -6.9868305     12.82676  0.026070651  0.037194156            1 
   42000    1.2115826   -6.9543278    13.271633  0.026332605  0.037050429            2 
   43000    1.1866858   -6.9753448    13.711896  0.026573443  0.036962007            2 
   44000    1.1800133   -6.9623629    14.120419  0.026743217  0.036893007            1 
   45000    1.1931469   -6.9941678    14.492393  0.026837765  0.036807951            1 
   46000    1.1728103   -6.9739294    14.874838   0.02694717  0.036713978            2 
   47000    1.1955037   -6.9590947    15.262167   0.02706058  0.036603229            2 
   48000    1.1896824    -7.009507    15.502355  0.026913811  0.036444325            1 
   49000    1.2089264   -6.9891151    15.968072  0.027156584  0.036311161            1 
   50000    1.1878896   -7.0314851    16.348869  0.027248115  0.036183677            1 
   51000    1.1682476   -6.9945602    16.848118  0.027529604  0.036086669            1 
   52000    1.2168054    -7.020906    17.316385  0.027750616  0.035997752            1 
   53000     1.168541   -6.9927255    17.669566  0.027782336   0.03591613            1 
   54000    1.2041532   -7.0149897    17.927195  0.027665424  0.035818951            5 
   55000    1.1595821   -7.0335855    18.305372  0.027735412  0.035700297            3 
   56000     1.197045   -6.9970069    18.657851  0.027764659  0.035583443            1 
   57000     1.173367   -7.0314894    19.142095  0.027985519  0.035479173            1 
   58000    1.1696235   -7.0195672    19.458444  0.027957534  0.035383754            3 
   59000    1.1720265   -7.0460633    19.898286  0.028104924  0.035282952            1 
   60000    1.1747802   -7.0331681     20.10669  0.027925958  0.035188606            1 
   61000    1.1579592   -7.0390966    20.460871   0.02795201  0.035082858            2 
   62000    1.1531464   -7.0693396    20.884694  0.028070825  0.034966077            1 
   63000    1.1800697   -7.0477483    21.127928  0.027946995  0.034849831            2 
   64000    1.1700803   -7.0813495    21.529567   0.02803329  0.034730407            1 
   65000    1.1685387   -7.0282054    22.092196  0.028323329  0.034633128            2 
   66000    1.1763715   -7.0070949    22.523077  0.028438228  0.034546137            1 
   67000    1.1687242   -7.0476142    22.738682  0.028281942  0.034472519            1 
   68000    1.1624578   -7.0762163    23.290643  0.028542454  0.034404335            2 
   69000    1.1653116   -7.0948002    23.699514  0.028622601  0.034339936            1 
   70000    1.1800473   -7.0727318    23.960765   0.02852472  0.034279094            2 
   71000    1.1547831   -7.0649286    24.264877  0.028479903  0.034206511            2 
   72000    1.1617692   -7.0371105    24.744546   0.02863952  0.034137646            1 
   73000     1.137785   -7.0772439    25.222994  0.028793371  0.034080258            1 
   74000    1.1725363   -7.1144782    25.501287  0.028717665  0.034021429            2 
   75000    1.1552269   -7.0682261    25.946479  0.028829421  0.033970799            1 
   76000    1.1438741   -7.1119477    26.279386  0.028815116  0.033920159            2 
   77000    1.1359335   -7.1021913    26.556802  0.028741127  0.033860808            3 
   78000    1.1399351    -7.133204    26.849971  0.028685867  0.033801116            1 
   79000    1.1570193   -7.0702808    27.488658  0.028996474  0.033748168            1 
   80000    1.1501453   -7.1041684    27.849157  0.029009538  0.033709615            2 
   81000    1.1175616   -7.1134645    28.181733  0.028993552  0.033674673            2 
   82000    1.1357393   -7.1429643    28.554352   0.02901865  0.033630503            2 
   83000    1.1368349   -7.0821304    28.985171  0.029101577  0.033587864            1 
   84000    1.1126322   -7.0965272    29.306137  0.029073548  0.033548169            2 
   85000    1.1418795   -7.1069511    29.519263  0.028940454  0.033496481            1 
   86000    1.1141747   -7.1213157     29.98194  0.029052267  0.033441869            1 
   87000    1.1328663   -7.1291983    30.141535  0.028871202  0.033386815            2 
   88000    1.1339997   -7.1299402    30.620207  0.028996408  0.033332453            2 
   89000    1.1055261   -7.1407844    30.881867  0.028915605  0.033273836            1 
   90000     1.142619   -7.1540262     31.39312  0.029067703  0.033216758            2 
   91000    1.1377664   -7.1751762    31.780687  0.029103193  0.033173434            1 
   92000    1.1190788   -7.1668954    31.975429  0.028963251  0.033123827            3 
   93000    1.1275093    -7.168517    32.069091  0.028735745  0.033063054            3 
   94000     1.124533    -7.165432       32.446  0.028764184  0.032993031            1 
   95000    1.1401119   -7.1966162    32.602238  0.028598454  0.032917859            2 
   96000    1.0978299   -7.1413342    32.917726  0.028574415  0.032843393            1 
   97000    1.1221824   -7.2067325    33.181373  0.028506334  0.032760399            1 
   98000    1.1097224   -7.1784409    33.272662   0.02829308  0.032669455            1 
   99000    1.1324053   -7.1637706    33.708911  0.028374504   0.03257627            2 
  100000    1.1486551   -7.1873257    34.224485  0.028520404   0.03249381            1 
  101000    1.1125574   -7.1717073    34.459825  0.028432199   0.03241258            1 
  102000    1.0974907   -7.2176635     34.63937  0.028300139   0.03232887            2 
  103000    1.0757277   -7.1729973     34.93295  0.028262904   0.03224157            2 
  104000    1.0996652   -7.1716413    35.267794   0.02825945  0.032155888            2 
  105000    1.0875669   -7.1895995     35.47088  0.028151492  0.032071178            2 
  106000    1.0800803   -7.1725124    35.772718  0.028123205  0.031981641            2 
  107000    1.1050981   -7.2028437     36.02799  0.028059182  0.031888126            1 
  108000    1.0729011   -7.1854401    36.211751  0.027941166  0.031789883            3 
  109000    1.0872032   -7.2123346      36.4862  0.027894648  0.031692988            1 
  110000    1.0969421   -7.1952581    36.655088  0.027769006  0.031592807            2 
  111000    1.0771986   -7.2347606    36.827846  0.027648533  0.031493185            2 
  112000    1.1040101   -7.2177944    37.159887  0.027648725  0.031391625            2 
  113000    1.0849706   -7.2290806    37.344887  0.027540477  0.031287493            2 
  114000    1.0755113   -7.2529009    37.819252  0.027645652  0.031185739            2 
  115000    1.0797669   -7.2055254    38.110876  0.027616577  0.031087416            2 
  116000    1.1032877   -7.2220995    38.274801  0.027496265  0.030993755            4 
  117000     1.068788   -7.2210656    38.401747  0.027351671  0.030898421            1 
  118000    1.0650274   -7.2044433     38.84035  0.027429625  0.030800141            2 
  119000    1.0584558    -7.238173    38.922625   0.02725674  0.030702494            1 
  120000    1.0949182   -7.2563306    39.190919  0.027215916   0.03060297            2 
  121000    1.0897649   -7.2913499     39.36141  0.027108409  0.030503685            1 
  122000    1.0835944   -7.2767775    39.771037  0.027166009  0.030403388            4 
  123000    1.0760591   -7.2756763    39.953203  0.027068566  0.030309379            1 
  124000    1.0724135   -7.2409667    40.394215   0.02714665  0.030213252            4 
  125000    1.0731644   -7.2873788    40.375335   0.02691689  0.030121822            1 
  126000    1.0699955   -7.2484348    41.031054  0.027136941  0.030033741            2 
  127000    1.0687161   -7.3033804    41.257413  0.027071793  0.029947597            1 
  128000    1.0628895    -7.268476    41.654567  0.027118859  0.029863764            1 
  129000    1.0625996    -7.276292    41.820483  0.027015816  0.029785939            3 
  130000    1.0409589   -7.2986795    42.096859  0.026985166  0.029706823            3 
  131000    1.0488753   -7.2259868    42.576212  0.027084104  0.029630709            1 
  132000     1.034528    -7.311084    42.668309  0.026937064  0.029554345            1 
  133000    1.0634741   -7.2859313    43.020788  0.026955381  0.029477885            1 
  134000    1.0556786   -7.2760696    43.189237  0.026858978  0.029403107            2 
  135000    1.0528645   -7.3027898    43.485241  0.026842742  0.029329796            3 
  136000    1.0761851   -7.3034549    43.724662  0.026792072  0.029255547            2 
  137000    1.0584389   -7.3155892    44.054367   0.02679706  0.029181799            2 
  138000    1.0430753    -7.322546     44.24881  0.026720296  0.029106756            2 
  139000    1.0307539   -7.2729088     44.66305  0.026776409  0.029035488            1 
  140000     1.055308   -7.3087277    44.838134  0.026689365  0.028966696            3 
  141000    1.0604091    -7.322117    45.192057  0.026709253   0.02889849            1 
  142000    1.0354542    -7.373822    45.461617  0.026679353  0.028833941            2 
  143000     1.016672   -7.3411736    45.628474   0.02659002  0.028768667            4 
  144000    1.0490136   -7.3767814    45.887403   0.02655521  0.028703601            2 
  145000    1.0329185   -7.3116714      46.3264  0.026624368  0.028638486            1 
  146000    1.0330191   -7.3256576    46.563243  0.026577193  0.028573757            1 
  147000     1.040277   -7.3450837    46.770219  0.026513729  0.028509724            1 
  148000    1.0023537   -7.3835365    46.955381   0.02643884  0.028447381            2 
  149000    1.0561504   -7.3834702    47.072448  0.026326873  0.028382207            2 
  150000    1.0089647   -7.3682975    47.353219  0.026307344  0.028317332            3 
  151000    1.0236267   -7.3586836    47.476916  0.026201389  0.028249693            2 
  152000    1.0209335   -7.3715622     47.62983  0.026112845  0.028179828            1 
  153000    1.0423582   -7.3762863    47.617262  0.025935328  0.028107564            1 
  154000    1.0197462   -7.3769944    47.606474  0.025761079  0.028031939            1 
  155000    1.0348896   -7.3808674    48.172569  0.025899231  0.027954053            2 
  156000    1.0224149   -7.4123076    48.199593  0.025747646  0.027877288            2 
  157000    1.0225849   -7.4056045    48.362525   0.02567013  0.027800484            2 
  158000    1.0133156   -7.3745726    48.535859  0.025599082  0.027724351            3 
  159000    1.0104555   -7.4035531    48.790001  0.025571279  0.027647603            3 
  160000    1.0292011   -7.4173892    48.948482  0.025494001  0.027571065            1 
  161000    1.0098536   -7.3906164    49.210502  0.025471274   0.02749255            1 
  162000   0.99087195   -7.4364359    49.436128  0.025430107   0.02741595            3 
  163000    1.0009819   -7.4129271    49.443584  0.025277906  0.027339604            3 
  164000    1.0175236    -7.431795    49.540424  0.025172979  0.027260584            3 
  165000    1.0191217   -7.3801941    49.873136  0.025188453  0.027182326            3 
  166000    1.0004345    -7.411872    50.185121  0.025193334  0.027105656            3 
  167000     1.013618   -7.4133751     50.46845  0.025183857  0.027029576            4 
  168000   0.98190558   -7.4062839    50.612039  0.025105178  0.026954525            1 
  169000    1.0086342   -7.4407569    50.513731  0.024908151  0.026878126            3 
  170000   0.98815696   -7.4509074    50.659012  0.024832849  0.026799491            1 
  171000    1.0014973   -7.4206079    51.008581  0.024857983   0.02672067            3 
  172000    1.0062863   -7.4854549    51.260235  0.024835385  0.026645019            3 
  173000   0.98675847   -7.4562654     51.59353  0.024852375  0.026570902            3 
  174000   0.99505128   -7.4090508    51.857073  0.024835763  0.026498632            1 
  175000    1.0001219    -7.463017    51.846722  0.024688915  0.026427785            2 
  176000   0.99204555   -7.4398223       52.197  0.024714489  0.026356958            3 
  177000   0.97843167    -7.465235     52.65037   0.02478831  0.026286959            4 
  178000   0.97200728   -7.4421245    52.807723  0.024722717  0.026220293            3 
  179000   0.98134187   -7.4636756    52.791441  0.024577021  0.026152115            3 
  180000   0.96984723   -7.4582567    53.106299   0.02458625  0.026085168            1 
  181000   0.95680973   -7.4569611    53.369327  0.024571513  0.026018495            1 
  182000    0.9827162   -7.4514402    53.550669  0.024519537  0.025950474            2 
  183000   0.97898697   -7.4401894    53.623177  0.024418568  0.025882535            2 
  184000   0.97036719   -7.4608895    53.813805  0.024372194  0.025814884            3 
  185000   0.97193529   -7.4909184    53.950845  0.024302182  0.025746218            2 
  186000   0.99563551   -7.5080835    53.990222  0.024189168  0.025678518            3 
  187000   0.97480478   -7.4772476    54.304106  0.024199691  0.025612091            2 
  188000   0.97625598   -7.5342493    54.374263  0.024102067  0.025545733            5 
  189000   0.97298059   -7.5024742    54.633982  0.024089057  0.025477575            2 
  190000   0.95326101   -7.5029164    54.667747  0.023977082    0.0254089            2 
  191000   0.95287554   -7.5178423    54.850644  0.023931346  0.025338389            1 
  192000   0.95026458   -7.4981241    55.047084  0.023891963  0.025269828            1 
  193000   0.96693273   -7.5202534    55.142936  0.023809558  0.025201009            2 
  194000   0.97085569   -7.4926309    55.368322  0.023783643  0.025132429            1 
  195000   0.93314217   -7.5156184    55.469766  0.023705028  0.025064364            1 
  196000   0.95076845   -7.5350865    55.617534   0.02364691  0.024995894            1 
  197000   0.92817443   -7.5337101    55.688662  0.023556964  0.024925731            1 
  198000   0.96290319   -7.5563959    55.900851  0.023527294  0.024857331            2 
  199000   0.96023107   -7.5296885     55.98676  0.023445042  0.024789037            3 
  200000   0.94420388   -7.5806029    56.248368   0.02343682  0.024720406            2 
  201000   0.93038396   -7.5532107    56.318117  0.023349136  0.024652449            3 
  202000   0.96540624   -7.5165805    56.596965  0.023348583  0.024584183            1 
  203000   0.96307431   -7.5295717    56.892529  0.023354897  0.024516694            2 
  204000   0.94033772   -7.5731356    56.794359   0.02320031  0.024449111            2 
  205000     0.930276   -7.5294295    56.887089  0.023124833   0.02438088            3 
  206000   0.94806509     -7.55855    57.064427  0.023084315  0.024311747            3 
  207000   0.92617862   -7.5569693    57.197279   0.02302628  0.024243262            3 
  208000   0.95903244   -7.6104278     57.17578  0.022906963  0.024173534            1 
  209000   0.93644693   -7.5913061     57.34643  0.022865403     0.024104            2 
  210000   0.93505393   -7.5991686    57.490837  0.022813824  0.024035694            1 
  211000   0.94113465   -7.6122366    57.510297  0.022713387  0.023966983            3 
  212000   0.92993041    -7.631413    57.646502  0.022659789  0.023897705            2 
  213000   0.92080578   -7.5779418    57.758419   0.02259719  0.023827729            2 
  214000   0.90832272    -7.609565    58.177958  0.022654968  0.023758986            2 
  215000   0.92903062   -7.6003569       58.327  0.022607364  0.023690432            2 
  216000   0.92167328   -7.5948352     58.45376  0.022551605  0.023622604            3 
  217000   0.92502784    -7.613108     58.57865  0.022495641  0.023555003            1 
  218000   0.92299945   -7.5990101    58.713878  0.022444143  0.023488478            1 
  219000   0.91034047   -7.6538896    58.691895  0.022333293  0.023422743            2 
  220000   0.90895478   -7.6318953     59.09088  0.022382909  0.023356912            2 
  221000   0.92491788   -7.6604374    59.011705  0.022251774   0.02329084            4 
  222000    0.9162247   -7.6147407    59.118233  0.022191529  0.023225217            1 
  223000   0.92728482   -7.6362691    59.203802  0.022123992  0.023158123            2 
  224000   0.91829316    -7.624861    59.334515  0.022073852  0.023091658            2 
  225000   0.91392763   -7.6667363    59.555922  0.022057749  0.023026035            2 
  226000   0.92684732   -7.6453976    59.752597  0.022032668  0.022960761            2 
  227000   0.89556096   -7.6310692    59.645719  0.021896372  0.022894697            2 
  228000   0.89534232   -7.6372726    59.933587  0.021905551  0.022828528            2 
  229000   0.90014951   -7.6043715    60.060698  0.021856149  0.022762756            2 
  230000   0.90414632    -7.637543    60.050022  0.021757254  0.022697228            2 
  231000    0.9054107   -7.6027825    60.264266  0.021740356  0.022631248            2 
  232000   0.89888267   -7.6911909    60.215704  0.021629204  0.022564835            3 
  233000   0.86521758   -7.6280513     60.35487  0.021586148  0.022498467            1 
  234000   0.89905936   -7.7120432    60.120439  0.021410413  0.022432095            1 
  235000   0.89861826   -7.6508346    60.456209  0.021438372  0.022365342            2 
  236000    0.8939769   -7.6756248    60.477547  0.021355066   0.02229774            2 
  237000   0.89131695   -7.6705926    60.517088  0.021278864  0.022229939            2 
  238000   0.87665198   -7.6661661    60.596964  0.021217424  0.022163107            1 
  239000   0.88093361   -7.7026709    60.685734    0.0211596   0.02209551            2 
  240000   0.88945746   -7.7102498    60.771181  0.021101105  0.022028416            2 
  241000   0.88579819   -7.6794891    61.072107  0.021117603   0.02196195            3 
  242000   0.87686328   -7.6981654    61.215386  0.021079678  0.021895263            1 
  243000   0.86124101   -7.7531337    61.180978  0.020981131   0.02182886            1 
  244000   0.90122755   -7.7177382    61.415787  0.020975337  0.021763479            1 
  245000   0.86811368   -7.7300239     61.50879  0.020921357  0.021698394            2 
  246000   0.86900877   -7.6922321    61.500961  0.020833659   0.02163278            2 
  247000   0.88996544   -7.6784189    61.370379  0.020705256   0.02156664            3 
  248000   0.86906646   -7.7124521    61.437978  0.020644482  0.021500199            2 
  249000   0.88604826   -7.7125417    61.306203  0.020517471  0.021432847            1 
  250000   0.85467818   -7.7141096    61.422899    0.0204743  0.021364903            3 
  251000   0.86494829   -7.7509366    61.644748  0.020466384  0.021297057            2 
  252000   0.86217664   -7.7303786    61.584517   0.02036525  0.021228606            3 
  253000   0.85637742   -7.7511466    61.592392  0.020287349   0.02116081            2 
  254000   0.87190399   -7.7369903    61.803321   0.02027668  0.021093034            3 
  255000   0.86154412   -7.7298476    61.788726  0.020192394  0.021025694            2 
  256000   0.87041808   -7.7415139    62.090691  0.020211813  0.020959051            2 
  257000   0.85668843   -7.7694534    62.086588  0.020131838  0.020892786            3 
  258000   0.86631642   -7.7958891    62.157797  0.020076808  0.020825798            2 
  259000   0.86597213   -7.7715798    61.959135  0.019935372  0.020758747            2 
  260000   0.82978751   -7.7855533    62.290899  0.019965032  0.020692099            2 
  261000    0.8498288   -7.7931263     62.36377  0.019911804  0.020625296            2 
  262000   0.85122923   -7.8043404    62.221224  0.019790466   0.02055895            5 
  263000   0.84199707   -7.7928966    62.596063  0.019833987  0.020493026            1 
  264000   0.84065811   -7.7893088    62.694824  0.019790033  0.020427923            3 
  265000   0.85808306   -7.8211189     62.54344  0.019667748  0.020363689            5 
  266000    0.8541476   -7.8043145    62.640486  0.019624212  0.020298782            3 
  267000   0.85995433   -7.8229997    62.827865  0.019609196  0.020234171            2 
  268000   0.83187091   -7.7847726    62.826942  0.019535741  0.020170072            1 
  269000   0.82757726    -7.818385    62.866975  0.019475519  0.020105867            1 
  270000   0.84446162   -7.8475597    63.049135  0.019459609   0.02004165            2 
  271000    0.8278305   -7.8215359    63.053775   0.01938923  0.019977996            5 
  272000    0.8274315   -7.8243945     63.08304  0.019326912  0.019914427            1 
  273000   0.82880818   -7.8020805     63.38474  0.019348211  0.019851836            3 
  274000   0.84025978   -7.8250028    63.370144  0.019273158  0.019789417            1 
  275000   0.79705431    -7.835626     63.48747  0.019238627  0.019726111            5 
  276000   0.82594235   -7.8196068    63.182083  0.019076716  0.019662489            4 
  277000   0.79765743    -7.832834    63.303288   0.01904431  0.019599472            2 
  278000   0.80521488   -7.8625308     63.45423  0.019021052  0.019537077            7 
  279000   0.83990539    -7.866088    63.415879  0.018941421  0.019474463            2 
  280000   0.82904792   -7.8639757    63.661737  0.018946945  0.019412532            2 
  281000   0.84206659   -7.8437424    63.850868  0.018935607    0.0193512            1 
  282000   0.78999774   -7.8443679    63.952179  0.018898398    0.0192902            3 
  283000   0.80389433   -7.8622011     63.81993  0.018792677  0.019229015            2 
  284000   0.79848674   -7.8728294    63.690175  0.018688432  0.019167347            6 
  285000   0.81022529   -7.8696526    63.930509  0.018693131  0.019106528            2 
  286000   0.80922055   -7.8590312    64.257412  0.018723022  0.019046828            3 
  287000   0.80887197   -7.8969341    64.163709  0.018630578  0.018987188            4 
  288000   0.81271382   -7.8526929    64.409439   0.01863699  0.018927724            2 
  289000   0.80792865   -7.8788998    64.254382  0.018527792  0.018867949            3 
  290000    0.7938808   -7.8886178    64.284275  0.018472493  0.018808233            1 
  291000   0.81652068   -7.8734436    64.284495  0.018409076  0.018748619            2 
  292000   0.81260232    -7.894931    64.320986  0.018356446   0.01868928            1 
  293000   0.81289286   -7.8864472    64.578715  0.018367098   0.01862979            3 
  294000   0.77867039   -7.8733376    64.405771  0.018255604  0.018570333            2 
  295000   0.79234412   -7.9084561    64.517457   0.01822527  0.018511138            2 
  296000   0.79111422   -7.9029427    64.622674   0.01819332  0.018451906            2 
  297000   0.79345045   -7.9316509    64.553279  0.018112592  0.018392743            2 
  298000   0.78606934   -7.9297487    64.432464  0.018018027  0.018333141            3 
  299000   0.77749022   -7.9124833    64.397912  0.017948136  0.018273393            3 
  300000   0.78769616   -7.9209498     64.57618  0.017937828  0.018213944            3 
  301000   0.79533094   -7.8974101    64.480078  0.017851627  0.018154441            3 
  302000    0.7955845   -7.9523325    64.609739  0.017828294   0.01809553            1 
  303000   0.78168656   -7.9465385    64.691005  0.017791805   0.01803697            3 
  304000   0.78747463   -7.9743632    64.712772  0.017739247  0.017977766            4 
  305000    0.7724463   -7.9489475    64.681583  0.017672564  0.017918538            2 
  306000   0.77009214   -7.9597378     64.95646  0.017689668  0.017859373            3 
  307000   0.77824135   -7.9652641    64.808003  0.017591749  0.017800499            3 
  308000   0.78375491   -7.9668278    64.862655   0.01754942  0.017741969            2 
  309000   0.77148348   -7.9767023    64.934231  0.017511928  0.017683558            2 
  310000   0.77461152   -7.9537325    64.860773  0.017435692  0.017625304            1 
  311000   0.78614226    -7.968327    64.924825  0.017396791  0.017567125            3 
  312000   0.78554406   -8.0288009     64.90129  0.017334746  0.017509174            2 
  313000   0.74954145   -7.9836776    64.837747  0.017262446  0.017451046            5 
  314000   0.76634318   -8.0056425    64.867126  0.017215267  0.017393038            3 
  315000   0.77746106   -7.9890223    64.962286   0.01718579  0.017335602            3 
  316000   0.75834616   -8.0121042    65.140453  0.017178389  0.017278199            3 
  317000   0.76545309   -8.0228474    65.068413  0.017105261  0.017221004            2 
  318000   0.76273823   -7.9889238     65.09681  0.017058912  0.017163863            3 
  319000   0.75110444   -7.9931177     64.94825  0.016966627  0.017107011            3 
  320000   0.74936203   -8.0171066    64.999287  0.016926898  0.017050095            2 
  321000   0.76112113   -8.0029539    65.123615  0.016906442  0.016993378            1 
  322000    0.7350639   -7.9925743    65.174153  0.016867017  0.016936844            3 
  323000   0.76629826   -8.0085391    65.184096  0.016817362  0.016880633            2 
  324000   0.74790275   -7.9924643    65.244898  0.016781095  0.016824485            2 
  325000   0.74246909   -8.0102859    65.264741  0.016734549   0.01676855            1 
  326000   0.74910228   -8.0350995    65.242643  0.016677567   0.01671267            2 
  327000   0.73924074    -8.045288    65.257353  0.016630314  0.016656963            3 
  328000    0.7579922   -8.0153148    65.435608    0.0166249  0.016601253            2 
  329000   0.74399032   -8.0222264    65.054154  0.016477749  0.016545384            1 
  330000   0.73468096    -8.036828    65.174861  0.016458298  0.016489783            2 
  331000   0.74118592   -8.0480744    65.194709  0.016413572  0.016434331            2 
  332000   0.75154627   -8.0756442    65.259268  0.016380338  0.016378599            2 
  333000   0.73838399   -8.0861608    65.207452  0.016318181  0.016323263            4 
  334000   0.73026526   -8.0773264     65.30358  0.016293308   0.01626785            3 
  335000   0.71070033   -8.0763915    65.356847  0.016257922  0.016212801            4 
  336000    0.7379236   -8.0762211    65.274684  0.016189158  0.016157921            3 
  337000   0.72249682    -8.090424    65.290037  0.016144915  0.016103044            3 
  338000   0.74297499   -8.0943194     65.20055  0.016075086  0.016048481            2 
  339000   0.72227469   -8.0776239     65.36779  0.016068778   0.01599384            2 
  340000   0.71539154    -8.126295    65.309668  0.016007272  0.015939267            2 
  341000   0.71741514   -8.0786467    65.368702  0.015974756  0.015884802            3 
  342000   0.71730204   -8.1244557    65.258488  0.015901191  0.015830816            2 
  343000   0.72536583   -8.0974973    65.292434  0.015863079  0.015776745            2 
  344000   0.71715347   -8.0995414    65.305107  0.015820036  0.015722596            2 
  345000   0.71259062   -8.0998938    65.367073  0.015789148  0.015668685            2 
  346000   0.70946849   -8.0936105    65.431989   0.01575915  0.015614839            2 
  347000   0.70022143   -8.1118707     65.22045  0.015662932  0.015561268            1 
  348000   0.70927195     -8.10203    65.323177  0.015642523  0.015507963            4 
  349000   0.70092162   -8.1477282    65.265932  0.015584033  0.015454626            3 
  350000   0.72357795   -8.1203591     65.32983  0.015554721  0.015401503            3 
  351000   0.70036465   -8.1414088    65.255538  0.015492768  0.015348391            2 
  352000   0.71547295   -8.1482057    65.291429  0.015457251  0.015295191            2 
  353000   0.72245726   -8.1520303    65.231209  0.015399247  0.015242188            1 
  354000   0.70163149   -8.1618182    65.259332  0.015362366  0.015189494            2 
  355000   0.71506451   -8.1615796     65.42249  0.015357392  0.015137242            1 
  356000   0.70131037   -8.1658477    65.290533  0.015283364  0.015085095            3 
  357000   0.69810267   -8.1785515    65.287949  0.015239951   0.01503277            1 
  358000   0.70963158   -8.1809068    65.237537  0.015185646  0.014980721            3 
  359000   0.69101707   -8.1886921    65.217346   0.01513866  0.014928874            2 
  360000   0.69767218   -8.1624487    65.416895    0.0151428  0.014877077            1 
  361000   0.67468073   -8.1671903    65.401833  0.015097376  0.014825532            1 
  362000    0.7009107   -8.1849303    65.225819  0.015015152  0.014774068            2 
  363000   0.69389056   -8.1660234     65.37219   0.01500739  0.014722908            2 
  364000   0.69527107    -8.179069     65.42894  0.014979153  0.014672173            2 
  365000   0.67435028   -8.1732024    65.376918  0.014926237  0.014621566            5 
  366000    0.6929375   -8.1923375    65.420024  0.014895269    0.0145712            4 
  367000   0.68192422   -8.1854451    65.416178   0.01485381   0.01452118            4 
  368000   0.68581749   -8.1693582    65.441142  0.014819099  0.014471311            5 
  369000   0.69560836   -8.1918008    65.546621   0.01480276  0.014421564            2 
  370000   0.68163585    -8.228727     65.37377  0.014723822  0.014371796            3 
  371000   0.66673546   -8.2088463    65.413727   0.01469311  0.014322096            2 
  372000   0.67303948   -8.2136943    65.373562  0.014644615   0.01427255            1 
  373000   0.67131259   -8.2243885     65.25623   0.01457914  0.014222988            1 
  374000   0.68996633   -8.2561167    65.370065  0.014565523  0.014173607            2 
  375000   0.66531109   -8.2303346    65.394621  0.014532138  0.014124514            2 
  376000   0.66602803   -8.2507793    65.481807  0.014512812  0.014075595            4 
  377000   0.66736744    -8.225126    65.294733  0.014432965  0.014026729            2 
  378000    0.6618666   -8.2437835    65.232092  0.014380973  0.013978008            3 
  379000   0.65948063   -8.2650602    65.264543  0.014350163  0.013929242            4 
  380000   0.66780656   -8.2457125    65.312394  0.014322893  0.013880693            6 
  381000   0.66375628   -8.2592813    65.357999  0.014295275  0.013832374            3 
  382000   0.65671747   -8.2535669    65.343524  0.014254695  0.013784386            2 
  383000   0.67451942   -8.2563209    65.275426   0.01420266    0.0137363            2 
  384000   0.63384092    -8.292182    65.334338  0.014178459  0.013688442            2 
  385000   0.66049752    -8.282604     65.21623  0.014116067  0.013640609            3 
  386000   0.66485792   -8.2843267    65.439271  0.014127649   0.01359312            1 
  387000   0.64586733   -8.2971622    65.364774  0.014075102  0.013545714            4 
  388000   0.65233516   -8.2751262     65.26729  0.014017889  0.013498525            2 
  389000   0.64701509   -8.2914763    65.321338  0.013993432  0.013451503            4 
  390000   0.64467125   -8.2823729    65.415808  0.013977737  0.013404555            2 
  391000   0.64653959   -8.2884908    65.130494  0.013881179  0.013357956            3 
  392000   0.64374412   -8.3063812    65.224826  0.013865822  0.013311363            6 
  393000   0.65040713   -8.3208648    65.388106  0.013865162  0.013264935            2 
  394000   0.64730351   -8.3175179    65.108056  0.013770739  0.013218557            3 
  395000   0.63262697   -8.3127782    65.286911   0.01377361  0.013172411            2 
  396000   0.63654548   -8.3021214    65.264721  0.013734158  0.013126479            5 
  397000   0.64107988   -8.3363014    65.277418  0.013702229  0.013080681            3 
  398000   0.63739711   -8.3142965    65.346634  0.013682294  0.013035199            2 
  399000    0.6475087   -8.3290495    65.223815  0.013622351   0.01298992            3 
  400000   0.62636661   -8.3358009    65.261453  0.013596136  0.012944761            3 
  401000    0.6138346   -8.3649418    65.207907  0.013551103  0.012899771            3 
  402000   0.61928926   -8.3292086    65.141739  0.013503677  0.012854885            2 
  403000   0.62655693   -8.3504098    65.216813  0.013485693  0.012810257            3 
  404000     0.622575   -8.3571144    65.149183  0.013438363  0.012765737            3 
  405000   0.62620894   -8.3560471    65.177215   0.01341095  0.012721278            2 
  406000   0.62321597   -8.3186842     65.26139  0.013395195   0.01267715            2 
  407000   0.61541305   -8.3314021    65.219597  0.013353726  0.012633195            8 
  408000    0.6193134   -8.3404765    65.223658  0.013321826  0.012589373            3 
  409000   0.63046231   -8.3577255    65.275918  0.013299902  0.012545752            4 
  410000   0.60891476   -8.3588383    65.281514    0.0132686  0.012502379            2 
  411000   0.62748014   -8.3557992     65.19612  0.013219002  0.012459079            5 
  412000    0.6096063   -8.3776744    65.224709    0.0131927  0.012416017            3 
  413000   0.59752835   -8.3806037    65.240129  0.013163868  0.012373073            1 
  414000   0.59130913   -8.3654682    65.246245  0.013133302  0.012330215            3 
  415000   0.60589543    -8.372785    65.259879  0.013104393  0.012287556            5 
  416000   0.60925323   -8.3842985    65.094094  0.013039682  0.012245084            4 
  417000   0.60030791   -8.3807973    65.179171  0.013025414  0.012202715            4 
  418000   0.59953655    -8.382232     65.19043  0.012996497  0.012160485            3 
  419000   0.59088816   -8.3956267    65.209759  0.012969324  0.012118521            3 
  420000    0.6005257   -8.3946287    65.097346   0.01291614  0.012076675            3 
  421000   0.58794746   -8.4077462    65.261392  0.012917932  0.012035056            3 
  422000    0.5974104   -8.3934115    65.131838  0.012861737  0.011993614            3 
  423000   0.59024584   -8.3894973    65.137864  0.012832518  0.011952274            3 
  424000   0.59422694   -8.4077821    65.020652  0.012779216  0.011911077            6 
  425000   0.59385944   -8.4164919    65.163737  0.012777203  0.011869992            4 
  426000   0.57547135   -8.4019923    65.104687  0.012735659  0.011829184            4 
  427000   0.59136017    -8.424953    65.102595  0.012705424  0.011788379            6 
  428000   0.58866437   -8.4348847    65.041415  0.012663827  0.011747758            3 
  429000   0.58758898   -8.4210574    65.135989  0.012652679  0.011707387            2 
  430000   0.58765272   -8.4295734    65.206317  0.012636883  0.011667133            2 
  431000   0.58193255   -8.4125295    65.000314  0.012567733    0.0116271            1 
  432000    0.5631106   -8.4257796    65.099974  0.012557865  0.011587214            5 
  433000   0.58032194   -8.4163468    65.097974  0.012528478  0.011547363            6 
  434000   0.58221551   -8.4332296    65.005344  0.012481825  0.011507768            4 
  435000   0.57237815   -8.4340013    64.991314  0.012450443  0.011468241            1 
  436000   0.57007265   -8.4349595    65.118441  0.012446185  0.011428875            3 
  437000   0.56838796   -8.4349928    65.004439  0.012395965  0.011389725            2 
  438000   0.56777728   -8.4357113    64.943772  0.012356121  0.011350647            2 
  439000   0.59040602    -8.454088    65.145949  0.012366353  0.011311796            2 
  440000    0.5806799   -8.4743131    64.962308  0.012303467  0.011273116            3 
  441000   0.56114592   -8.4460795    65.051187  0.012292363  0.011234556            3 
  442000   0.55338792   -8.4664703    65.015123  0.012257753  0.011196204            2 
  443000   0.55710262   -8.4752589     64.97914  0.012223315  0.011157906            1 
  444000   0.55863338   -8.4875049    65.055639  0.012210142  0.011119747            3 
  445000   0.54952397   -8.4838835    64.963892  0.012165523   0.01108179            2 
  446000   0.56015836    -8.502767     65.04239  0.012152913  0.011044032            2 
  447000   0.54515339    -8.473385    65.045516  0.012126308    0.0110064            6 
  448000   0.54563078   -8.4701219     64.95876  0.012083103  0.010968921            2 
  449000   0.54852825      -8.4837    65.009227  0.012065558  0.010931562            2 
  450000   0.54942348   -8.4946884    64.915931  0.012021469  0.010894354            1 
  451000   0.55091238   -8.4662405    64.976522  0.012006009  0.010857287            2 
  452000   0.54998798   -8.4987982    64.901282  0.011965576  0.010820374            2 
  453000   0.54557014   -8.4858983    65.004634  0.011958174   0.01078366            2 
  454000   0.54555034   -8.4905921    65.014358  0.011933619   0.01074711            3 
  455000   0.55125106   -8.4956514    64.773105  0.011863206  0.010710668            2 
  456000   0.54966212   -8.5048228    64.869177  0.011854747  0.010674276            2 
  457000   0.52568419   -8.4908456    64.963736   0.01184605  0.010638098            4 
  458000   0.53600886   -8.5062724    64.967624  0.011820892  0.010602111            2 
  459000   0.53227471   -8.5105102    64.893745  0.011781726  0.010566221            4 
  460000   0.52179409   -8.5368091    64.961275  0.011768347  0.010530475            4 
  461000   0.52172051   -8.5282342    64.863399  0.011725126  0.010494894            1 
  462000   0.52874515   -8.5137887    64.867077  0.011700411   0.01045944            3 
  463000   0.51235439   -8.5082931    64.868741  0.011675439  0.010424147            4 
  464000     0.520633   -8.5351316    64.931827  0.011661607  0.010389108            1 
  465000   0.52329828   -8.5260278    64.873469   0.01162607  0.010354153            4 
  466000   0.52699582    -8.530269    64.800212  0.011588021  0.010319464            7 
  467000   0.51590141   -8.5148118    64.807288   0.01156447  0.010284906            2 
  468000     0.525852   -8.5347608    64.866932   0.01155038  0.010250422            2 
  469000   0.51317214   -8.5355847    64.847279   0.01152226  0.010216124            1 
  470000   0.51024554   -8.5243094    64.799078  0.011489198  0.010181952            3 
  471000   0.51872159   -8.5438543    64.850753  0.011473948  0.010147941            2 
  472000    0.5128468    -8.551421    64.775469  0.011436347  0.010114038            2 
  473000   0.52071926   -8.5503922    64.755455  0.011408642   0.01008026            2 
  474000   0.52097814   -8.5596757    64.740914  0.011382017  0.010046601            2 
  475000   0.51501384   -8.5485208    64.814781  0.011371014  0.010013048            3 
  476000   0.49960912    -8.548214     64.74558   0.01133501 0.0099796845            1 
  477000   0.51895949   -8.5622394    64.756239  0.011313109 0.0099464662            3 
  478000   0.50409157   -8.5528625    64.818339  0.011300268 0.0099133747            3 
  479000   0.49352296   -8.5623573    64.849091  0.011282027 0.0098803873            2 
  480000   0.49411694   -8.5663899    64.789449  0.011248168 0.0098475102            2 
  481000   0.49821847   -8.5805114    64.693569  0.011208172 0.0098148008            3 
  482000   0.50998771   -8.5658807    64.876595  0.011216562 0.0097821818            3 
  483000   0.50260471   -8.5477678    64.764024  0.011173917 0.0097497352            2 
  484000   0.49504838   -8.5579889    64.635757  0.011128746 0.0097174352            3 
  485000   0.49718143    -8.577134    64.709953  0.011118549 0.0096852313            3 
  486000   0.49087256   -8.5862319    64.680532  0.011090626 0.0096531413            3 
  487000   0.48396725   -8.5650543     64.79724  0.011087823  0.009621232            3 
  488000   0.49812345   -8.5873615    64.784816  0.011062981 0.0095894261            3 
  489000   0.48819709   -8.5769922    64.675684  0.011021759 0.0095578262            3 
  490000   0.48529651   -8.5802058    64.731724  0.011008797 0.0095263027            2 
  491000   0.48935116   -8.5959654    64.687505   0.01097887 0.0094948385            3 
  492000   0.48258133   -8.5994449    64.758669  0.010968609  0.009463586            4 
  493000   0.48222264   -8.5897331     64.66041  0.010929751 0.0094323829            2 
  494000   0.46648946    -8.597264    64.695544  0.010913553 0.0094013265            3 
  495000    0.4704806   -8.6027582    64.675601  0.010888148 0.0093703964            3 
  496000   0.48009771   -8.6096058    64.598269  0.010853204 0.0093395864            2 
  497000   0.47510544   -8.6116768    64.645941   0.01083936 0.0093088655            3 
  498000   0.47100774   -8.5893803    64.626148  0.010814282 0.0092783211            2 
  499000   0.45792297   -8.6148669    64.581443  0.010785144 0.0092478727            6 
  500000   0.46458991   -8.6042897    64.656907  0.010776151 0.0092175464            4 
  501000   0.45642905   -8.6083981    64.555691  0.010737806 0.0091873484            3 
  502000   0.46451767    -8.599857    64.553028  0.010715974 0.0091572735            2 
  503000   0.45606083   -8.6235181    64.568912  0.010697301 0.0091272692            2 
  504000   0.46537014   -8.6105427    64.513723  0.010666952  0.009097402            2 
  505000   0.46753225   -8.6367201     64.56419  0.010654157 0.0090676439            3 
  506000   0.46217528   -8.6307573    64.616945  0.010641789 0.0090380078            3 
  507000   0.45932831   -8.6406555    64.500649  0.010601684 0.0090084472            2 
  508000   0.45339719   -8.6289588    64.614308   0.01059946  0.008978986            1 
  509000   0.45569159   -8.6442414    64.440294  0.010550146 0.0089497098            2 
  510000   0.45983402   -8.6494565    64.519319  0.010542372  0.008920555            5 
  511000   0.45445421    -8.651525    64.459204  0.010511938 0.0088915248            3 
  512000   0.44847616   -8.6385665    64.438046  0.010487963 0.0088626436            3 
Loop time of 1197.26 on 48 procs for 500000 steps with 4000 atoms

Performance: 72164.758 tau/day, 417.620 timesteps/s
99.4% CPU use with 48 MPI tasks x no OpenMP threads

MPI task timing breakdown:
Section |  min time  |  avg time  |  max time  |%varavg| %total
---------------------------------------------------------------
Pair    | 75.283     | 79.682     | 85.045     |  24.4 |  6.66
Neigh   | 7.8197     | 8.1649     | 8.6331     |   6.0 |  0.68
Comm    | 75.34      | 80.927     | 85.851     |  26.7 |  6.76
Output  | 0.83706    | 0.8376     | 0.84633    |   0.1 |  0.07
Modify  | 1013.6     | 1016.6     | 1019.2     |   3.6 | 84.91
Other   |            | 11         |            |       |  0.92

Nlocal:        83.3333 ave          91 max          77 min
Histogram: 2 1 9 8 5 13 5 3 0 2
Nghost:        2050.65 ave        2086 max        2024 min
Histogram: 3 5 6 10 8 5 5 2 2 2
Neighs:        13364.3 ave       15114 max       11684 min
Histogram: 2 0 6 10 7 9 7 5 0 2
FullNghs:      26728.6 ave       29490 max       24620 min
Histogram: 3 2 7 10 8 9 6 1 1 1

Total # of neighbors = 1282975
Ave neighs/atom = 320.74375
Neighbor list builds = 26780
Dangerous builds = 0

#clear
#
#next RN
#
#jump SELF
Total wall time: 0:20:00
