
units lj                  # Use reduced LJ style units
atom_style atomic         # Uncharged point particles
atom_modify map hash      # Needed for indexing of clusters etc
                          # Used to be able to find where atoms are in relation to each other.

lattice fcc 1.0 spacing 1 1 1
Lattice spacing in x,y,z = 1.5874011 1.5874011 1.5874011
region box block 0 10 0 10 0 10 units lattice
create_box 2 box
Created orthogonal box = (0.0000000 0.0000000 0.0000000) to (15.874011 15.874011 15.874011)
  3 by 4 by 4 MPI processor grid
create_atoms 1 box
Created 4000 atoms
  using lattice units in orthogonal box = (0.0000000 0.0000000 0.0000000) to (15.874011 15.874011 15.874011)
  create_atoms CPU = 0.002 seconds
set type 1 type/fraction 2 0.54 78393
Setting atom values ...
  2170 settings made for type/fraction
mass 1 1.0
mass 2 1.0
pair_style lj/cut  3.5
pair_modify tail  yes
pair_coeff 1  1  1.0  1.0   # Intearaction between 1 and 1 set with epsilon = 1 and sigma = 1
pair_coeff 1  2  1.5  0.8
pair_coeff 2  2  0.5  0.88

write_data data.0
System init for write_data ...
Neighbor list info ...
  update every 1 steps, delay 10 steps, check yes
  max neighbors/atom: 2000, page size: 100000
  master list distance cutoff = 3.8
  ghost atom cutoff = 3.8
  binsize = 1.9, bins = 9 9 9
  1 neighbor lists, perpetual/occasional/extra = 1 0 0
  (1) pair lj/cut, perpetual
      attributes: half, newton on
      pair build: half/bin/atomonly/newton
      stencil: half/bin/3d
      bin: standard
WARNING: Not all mixed pair coeffs generated from mixing. Use write_data with 'pair ij' option to store all pair coeffs. (../write_data.cpp:312)


#############################
#   M E L T   S Y S T E M   #
#############################

velocity all create 2.4 6583654 mom yes dist gaussian # Assign velocities
                                                    # Temperature 2.4, random number seed, zero linear momentum
                                                                                # Gaussian distribution

timestep 0.002   # simulation timestep
thermo 1000       # output thermodynamic data every 1000 steps bf 100

# Define a fix  in this case with index 1 applied to all
# particles in the simulation. This fix is for simulations
# in the anisotropic NPT ensemble. Note that we use the MTK
# correction.
fix 1 all npt temp 2.4 2.4 0.1 iso 5.68 5.68 0.5 mtk yes tchain 5 pchain 5 # Use NPT ensemble
                                                                         # Set temperature and pressure and damping
                                                                         # Numbers of thermostats in chain and in barostat
run 10000          # run for 10000 steps
Per MPI rank memory allocation (min/avg/max) = 3.642 | 3.644 | 3.648 Mbytes
Step Temp E_pair E_mol TotEng Press Volume 
       0          2.4   -5.0605359            0   -1.4614359   -4.1673139         4000 
    1000    2.3959046   -4.7349397            0   -1.1419813    5.7529703    3650.4675 
    2000    2.4064437   -4.6796182            0    -1.070855    5.7622928    3680.0058 
    3000    2.3872913     -4.75103            0   -1.1709883    5.7396755    3650.5376 
    4000    2.4380002   -4.8430579            0   -1.1869718     5.877392    3595.8405 
    5000    2.3710082   -4.7699624            0   -1.2143392    5.5228737    3647.3416 
    6000    2.3618949    -4.747703            0   -1.2057465    5.5083101    3664.2773 
    7000    2.4145341    -4.696097            0   -1.0752013    5.8698396    3662.6319 
    8000    2.4132357   -4.7056258            0   -1.0866773    5.6422221    3671.3149 
    9000    2.3936108   -4.7678394            0   -1.1783208    5.9148396    3619.4753 
   10000     2.423284   -4.7733286            0   -1.1393113    5.5596266    3650.8683 
Loop time of 2.74152 on 48 procs for 10000 steps with 4000 atoms

Performance: 630307.763 tau/day, 3647.614 timesteps/s
99.5% CPU use with 48 MPI tasks x no OpenMP threads

MPI task timing breakdown:
Section |  min time  |  avg time  |  max time  |%varavg| %total
---------------------------------------------------------------
Pair    | 1.1934     | 1.2582     | 1.328      |   2.8 | 45.89
Neigh   | 0.2161     | 0.22335    | 0.23402    |   0.8 |  8.15
Comm    | 0.77874    | 0.8777     | 0.96656    |   4.3 | 32.01
Output  | 0.00024512 | 0.00025529 | 0.00042297 |   0.0 |  0.01
Modify  | 0.29891    | 0.36678    | 0.39938    |   3.1 | 13.38
Other   |            | 0.01525    |            |       |  0.56

Nlocal:        83.3333 ave          92 max          76 min
Histogram: 5 8 2 7 5 3 7 3 4 4
Nghost:        1746.60 ave        1786 max        1718 min
Histogram: 2 7 6 8 11 3 6 2 2 1
Neighs:        10458.4 ave       11985 max        9137 min
Histogram: 3 4 7 5 8 7 4 5 3 2

Total # of neighbors = 502002
Ave neighs/atom = 125.50050
Neighbor list builds = 910
Dangerous builds = 234

# Equilibrate just above the melting temperature to avoid step fn in T

fix 1 all npt temp 1.25 1.25 0.1 iso 5.68 5.68 0.5 mtk yes tchain 5 pchain 5
run 2000
Per MPI rank memory allocation (min/avg/max) = 3.644 | 3.646 | 3.649 Mbytes
Step Temp E_pair E_mol TotEng Press Volume 
   10000     2.423284   -4.7733286            0   -1.1393113    5.5596266    3650.8683 
   11000    1.2422303   -6.8579947            0   -4.9951151    5.7760664    2821.1736 
   12000    1.2600393   -6.9192001            0   -5.0296137    6.0804793    2799.8491 
Loop time of 0.63857 on 48 procs for 2000 steps with 4000 atoms

Performance: 541209.373 tau/day, 3131.999 timesteps/s
99.7% CPU use with 48 MPI tasks x no OpenMP threads

MPI task timing breakdown:
Section |  min time  |  avg time  |  max time  |%varavg| %total
---------------------------------------------------------------
Pair    | 0.294      | 0.3178     | 0.35515    |   1.9 | 49.77
Neigh   | 0.040976   | 0.043142   | 0.04563    |   0.5 |  6.76
Comm    | 0.1899     | 0.22946    | 0.2556     |   2.6 | 35.93
Output  | 5.0743e-05 | 5.2202e-05 | 6.744e-05  |   0.0 |  0.01
Modify  | 0.038594   | 0.043337   | 0.047784   |   1.2 |  6.79
Other   |            | 0.004774   |            |       |  0.75

Nlocal:        83.3333 ave          94 max          76 min
Histogram: 2 7 6 12 5 7 4 4 0 1
Nghost:        2087.46 ave        2113 max        2063 min
Histogram: 3 2 6 5 6 10 8 3 2 3
Neighs:        13629.0 ave       15268 max       12263 min
Histogram: 4 0 8 10 10 3 6 1 3 3

Total # of neighbors = 654192
Ave neighs/atom = 163.54800
Neighbor list builds = 143
Dangerous builds = 10

#############################
# L I N E A R  Q U E N C H  #
#############################

# Define solid atoms. This closely follows ten Wolde  Ruiz-Montero and Frenkel  Faraday Discuss  1996  104  93-110
# Compute components of the per-atom q6 vector
compute q6 all orientorder/atom degrees 1 6 components 6 nnn NULL cutoff 1.3 # compute the Q6 parameter.
                                                                             # Use all neighbours within 1.3 unit cell.

# get number of connections
compute coord_number all coord/atom orientorder q6 0.5

# An atom is solid if it has 8 or more connections (of a possible 14)
variable is_solid atom c_coord_number>=8
group solid dynamic all var is_solid    # Must be dynamic to update
dynamic group solid defined

# do clustering
compute cluster solid cluster/atom 1.3 # Create a cluster where all atoms within are solid and max 1.3 units from another member

# define chunks one chunk per cluster
compute clus_chunks solid chunk/atom c_cluster nchunk every compress yes  # Says which atoms are in which chunk

# count the size of each chunk
compute size_chunks solid property/chunk clus_chunks count


# Find the maximum entry in the vector of chunk sizes
variable max_n equal max(c_size_chunks)


# Thermo style which includes this variable
# thermo_style custom step temp pe vol v_max_n

thermo ${N}  # Print the thermo information every 100 steps
thermo 1000  

# Reset the npt fix at a lower temperature (below freezing)
fix 1  all npt temp  ${temp} ${temp}  0.1  iso  5.68  5.68  0.5  mtk yes tchain  5  pchain  5
fix 1  all npt temp  0.45 ${temp}  0.1  iso  5.68  5.68  0.5  mtk yes tchain  5  pchain  5
fix 1  all npt temp  0.45 0.45  0.1  iso  5.68  5.68  0.5  mtk yes tchain  5  pchain  5

dump dmp2 all dcd ${N} traj.dcd
dump dmp2 all dcd 1000 traj.dcd


compute msd all msd com yes
variable twopoint equal c_msd[4]/6/(step*dt+1.0e-6)
fix 9 all vector 10 c_msd[4]
variable fit equal slope(f_9)/6/(10*dt)
thermo_style custom step temp pe c_msd[4] v_twopoint v_fit v_max_n

fix 1 all npt temp 1.25 ${temp} 0.1 iso 5.68 5.68 0.5 mtk yes tchain 5 pchain 5
fix 1 all npt temp 1.25 0.45 0.1 iso 5.68 5.68 0.5 mtk yes tchain 5 pchain 5
run 500000 # 5000000  # Run for this many steps
Neighbor list info ...
  update every 1 steps, delay 10 steps, check yes
  max neighbors/atom: 2000, page size: 100000
  master list distance cutoff = 3.8
  ghost atom cutoff = 3.8
  binsize = 1.9, bins = 8 8 8
  4 neighbor lists, perpetual/occasional/extra = 1 3 0
  (1) pair lj/cut, perpetual
      attributes: half, newton on
      pair build: half/bin/atomonly/newton
      stencil: half/bin/3d
      bin: standard
  (2) compute orientorder/atom, occasional
      attributes: full, newton on
      pair build: full/bin/atomonly
      stencil: full/bin/3d
      bin: standard
  (3) compute coord/atom, occasional
      attributes: full, newton on
      pair build: full/bin/atomonly
      stencil: full/bin/3d
      bin: standard
  (4) compute cluster/atom, occasional
      attributes: full, newton on
      pair build: full/bin/atomonly
      stencil: full/bin/3d
      bin: standard
Per MPI rank memory allocation (min/avg/max) = 9.842 | 9.847 | 9.850 Mbytes
Step Temp PotEng c_msd[4] v_twopoint v_fit v_max_n 
   12000    1.2600393   -6.9192001 1.0629901e-30 7.3818752e-33 8.3333333e+20            2 
   13000    1.2507315     -6.98911   0.45710485 0.0029301592  0.037116612            1 
   14000    1.2727217   -6.9681694    0.8785058  0.005229201  0.036029811            3 
   15000    1.2575516   -6.9727397    1.2507172 0.0069484285  0.034510663            3 
   16000    1.2550313   -6.9649916    1.7188901 0.0089525525  0.034124208            2 
   17000    1.2073254   -6.9761643    2.1178641  0.010381686  0.034758778            3 
   18000    1.2057772   -6.9712839    2.5395527  0.011757188   0.03471792            5 
   19000    1.2119039   -6.9555686    2.9190196  0.012802717  0.034744949            2 
   20000    1.2297106   -7.0408305    3.2666831  0.013611179  0.034210297            2 
   21000    1.2278852   -6.9788973    3.6630538  0.014535927   0.03379552            3 
   22000    1.2329217   -6.9610694    4.0408875  0.015306392  0.033479707            1 
   23000    1.2375276   -7.0092426    4.4863193   0.01625478  0.033297228            3 
   24000    1.2561966    -7.045231    4.9110059  0.017052103  0.033320959            1 
   25000    1.2573738   -7.0096842    5.2773609  0.017591203  0.033318484            1 
   26000    1.2312609   -7.0606718    5.5843906  0.017898687  0.033176986            2 
   27000     1.214425    -7.028103    5.9991624  0.018515933  0.033046132            2 
   28000    1.2210274   -7.0426433    6.4113992  0.019081545  0.032945275            2 
   29000    1.2167899   -7.0202382    6.8064179  0.019558672  0.032933825            4 
   30000    1.2122794   -7.0861961    7.1907475  0.019974298  0.032886354            2 
   31000    1.2081377   -7.0597338    7.5229673   0.02022303  0.032853717            2 
   32000    1.2205064   -7.0822705    7.8245709  0.020376486  0.032706947            2 
   33000    1.2426249    -7.043201    8.1213235  0.020508392  0.032508408            2 
   34000    1.2139634   -7.1060742    8.4354118  0.020675029  0.032272146            3 
   35000     1.193047   -7.0725651    8.8297662  0.021023253    0.0320769            1 
   36000    1.2058429    -7.079758    9.1244338  0.021121374  0.031885237            2 
   37000    1.2101759   -7.0446558    9.4682721  0.021324937  0.031671499            3 
   38000    1.1985218   -7.0805423    9.8520928  0.021605466  0.031499934            2 
   39000    1.2058404   -7.1057966    10.226742  0.021852013  0.031364126            3 
   40000    1.2141927   -7.0859308    10.503555  0.021882405  0.031213292            3 
   41000    1.1915436   -7.1297608    10.859725  0.022072611  0.031078538            2 
   42000    1.2157361   -7.1278505      11.1285  0.022080356  0.030933856            4 
   43000     1.207878   -7.0677736    11.528524    0.0223421  0.030784502            2 
   44000    1.1681326    -7.136901    11.826934  0.022399495  0.030665852            3 
   45000    1.1852895   -7.1273639     12.20054  0.022593592  0.030541949            8 
   46000    1.1689327   -7.1419145    12.636764  0.022892687  0.030465809            1 
   47000    1.1962059   -7.1189941    13.041257  0.023122795  0.030413295            2 
   48000    1.2024337   -7.1354823    13.356153  0.023187765   0.03036255            1 
   49000    1.1590758   -7.1094716    13.731038  0.023352105  0.030320134            1 
   50000    1.1842295   -7.1456285    13.989558  0.023315931  0.030270197            2 
   51000    1.1959057   -7.0977598    14.343621  0.023437289   0.03020225            3 
   52000    1.1699205   -7.1590688    14.583951  0.023371716  0.030121291            2 
   53000    1.1630973   -7.1688594    14.898315  0.023425023   0.03003122            3 
   54000     1.169037   -7.1281847    15.366398  0.023713577  0.029960801            2 
   55000    1.1738917   -7.1537479    15.638496  0.023694691  0.029896435            2 
   56000    1.1815834   -7.1380261    16.101632  0.023960762  0.029856395            4 
   57000    1.1821529   -7.2129756    16.370538  0.023933535  0.029816418            2 
   58000    1.1710612     -7.18931     16.69956   0.02399362   0.02977502            5 
   59000    1.1801123   -7.1806562    16.986924   0.02399283  0.029723216            5 
   60000    1.1596848   -7.1782371    17.356606  0.024106397  0.029670426            6 
   61000    1.1883204   -7.1590647    17.896055  0.024448162  0.029635519            2 
   62000    1.1728229   -7.1849056    18.092839  0.024318331  0.029625459            2 
   63000    1.1647169   -7.1564818    18.317978   0.02423013  0.029579088            3 
   64000    1.1658089   -7.1735524    18.412474  0.023974576  0.029504134            4 
   65000    1.1627513   -7.2275157    18.691416  0.023963354  0.029412236            1 
   66000    1.1534252   -7.2084026    19.003313  0.023994082  0.029316923            4 
   67000    1.1535892   -7.2051161    19.119907  0.023780978  0.029206198            2 
   68000    1.1494999   -7.1931223    19.494889  0.023890795  0.029099339            2 
   69000    1.1528893   -7.1703368    19.789351  0.023900183  0.028995161            3 
   70000    1.1479693   -7.2382944    19.974011  0.023778584  0.028886628            2 
   71000    1.1330959   -7.2340503    20.402041  0.023946057  0.028783323            2 
   72000    1.1554993   -7.2017986    20.764087  0.024032508  0.028687791            4 
   73000    1.1804697   -7.2177168    21.087504  0.024072493  0.028603686            4 
   74000    1.1609655   -7.2455816    21.311293  0.023999204  0.028521102            4 
   75000    1.1573634    -7.220335    21.684218  0.024093575  0.028446083            2 
   76000    1.1669802    -7.222448    21.973543  0.024093797  0.028369489            3 
   77000    1.1436578   -7.2835434    22.128619  0.023948722  0.028288496            4 
   78000     1.134449    -7.259489    22.446034  0.023980805  0.028207251            4 
   79000      1.14632   -7.2113537    22.741721  0.023989157  0.028128402            3 
   80000    1.1478544   -7.2549449    23.087284  0.024049254  0.028049671            3 
   81000    1.1062291   -7.2628738    23.221866  0.023890809  0.027966713            2 
   82000    1.1361626   -7.2766551    23.440124  0.023821264  0.027877472            2 
   83000    1.1144263   -7.2852079    23.755287   0.02385069  0.027786339            1 
   84000    1.1477836   -7.2376454     24.01868  0.023828056  0.027695629            1 
   85000    1.1449044   -7.2858012    24.292954  0.023816621  0.027609433            1 
   86000    1.1083261   -7.3045792    24.639562  0.023875545  0.027529133            2 
   87000    1.1202695   -7.3167222    24.922056  0.023871701  0.027458051            5 
   88000    1.1499159   -7.3202865    25.042385  0.023714379  0.027382018            2 
   89000     1.148419    -7.296997    25.371611   0.02375619  0.027303793            2 
   90000    1.1213516   -7.2975708    25.654575  0.023754236  0.027230974            3 
   91000    1.1445746   -7.3271456    25.951847  0.023765428  0.027157222            2 
   92000    1.1274931   -7.2815769    26.306221  0.023828099  0.027090242            1 
   93000    1.1512315   -7.3017987    26.680513   0.02390727  0.027030766            6 
   94000     1.116978   -7.3308663    26.728087  0.023695113  0.026967003            3 
   95000    1.1166901   -7.3712861    26.871493  0.023571485  0.026892131            3 
   96000    1.1140743   -7.3535029    27.169528   0.02358466   0.02681346            2 
   97000    1.1077726   -7.2801302    27.542614  0.023662039  0.026742047            4 
   98000    1.1414239   -7.2995028    27.856844  0.023687793  0.026678518            2 
   99000    1.0954812   -7.3348594    28.187413  0.023726778  0.026614082            8 
  100000    1.1132297   -7.3528374    28.294923  0.023579103  0.026545053            2 
  101000    1.1226705   -7.3230299    28.507002  0.023520629  0.026475762            4 
  102000    1.1149683   -7.3664523    28.769282  0.023504316  0.026405259            3 
  103000     1.100326    -7.361196    28.941788  0.023415686  0.026332949            3 
  104000    1.1074113   -7.3467118    29.282751  0.023463743  0.026259726            3 
  105000     1.072804   -7.3938451    29.389064  0.023324654  0.026187505            4 
  106000    1.0817967   -7.3739339    29.547942  0.023229514  0.026110348            2 
  107000    1.1240834   -7.3969549    29.682911  0.023117532  0.026028361            2 
  108000     1.114994    -7.385268    29.941397   0.02310293  0.025944545            4 
  109000    1.0752996   -7.4051694    30.062173  0.022983313  0.025859543            2 
  110000    1.1083501   -7.3808089    30.364189  0.023003173  0.025776243            3 
  111000    1.0932109   -7.3505316    30.473817  0.022878241  0.025693837            3 
  112000    1.0760178   -7.4234771    30.751848  0.022880839  0.025609664            4 
  113000    1.0940418   -7.4229339      30.8805   0.02277323  0.025524601            3 
  114000    1.0823686   -7.4058621    31.282115  0.022867043   0.02544377            1 
  115000    1.0810166   -7.3678384    31.559476  0.022869186  0.025366404            4 
  116000    1.0881717   -7.4228448     31.78871  0.022836717  0.025288431            3 
  117000    1.0922173   -7.4259447     31.76512  0.022624729  0.025208733            3 
  118000    1.1022807   -7.3987705    32.109085  0.022675907  0.025130202            3 
  119000    1.0852276   -7.4297218    32.247601  0.022582353   0.02505333            3 
  120000    1.0691403   -7.4407303     32.48159   0.02255666  0.024971704           10 
  121000    1.0577156   -7.4721915    32.511297  0.022390701    0.0248925            2 
  122000    1.0672635   -7.4544653    32.703842   0.02233869  0.024809209            9 
  123000    1.0695138   -7.4781511    32.738735  0.022180715  0.024721688            4 
  124000    1.0659939   -7.4648045     33.21465  0.022321673  0.024638121            3 
  125000    1.0547681   -7.5005531    33.458679  0.022305786  0.024560533            5 
  126000    1.0668258   -7.4465791    33.827488  0.022372677  0.024487215            2 
  127000    1.0617216   -7.5061103    34.038484  0.022334963   0.02441636            2 
  128000    1.0949807   -7.4981632    34.047588  0.022166399  0.024342783            2 
  129000    1.0555566   -7.4970381    34.187541  0.022084975  0.024265433            2 
  130000    1.0474788   -7.5209704    34.337228  0.022011043  0.024185639            3 
  131000    1.0544808   -7.5421195    34.441855  0.021909577  0.024105601            5 
  132000    1.0231272   -7.5180146    34.695226  0.021903552  0.024022686            2 
  133000    1.0601488   -7.5214469    34.803623  0.021806781  0.023943089            2 
  134000    1.0746669   -7.5097862    35.021088  0.021779283  0.023862983            6 
  135000    1.0242891   -7.4780126    35.231412  0.021747785  0.023781995            6 
  136000    1.0700588   -7.4937321    35.343792  0.021656735  0.023702442            3 
  137000    1.0386504     -7.51157    35.446127  0.021560904  0.023623141            6 
  138000    1.0603865    -7.482774    35.579529  0.021485223  0.023541633            2 
  139000    1.0640373   -7.5484168    35.870889  0.021505329  0.023460438            3 
  140000    1.0742933   -7.5463988    35.870667  0.021351587  0.023377319            7 
  141000    1.0464532   -7.5002827    36.108346   0.02134063  0.023295907            6 
  142000    1.0238174   -7.5211541    36.356246  0.021335825  0.023217121           16 
  143000    1.0298167   -7.5239432    36.421508  0.021224655  0.023138141            3 
  144000    1.0303718   -7.4980184    36.745414  0.021264707  0.023058078            6 
  145000    1.0414648   -7.5164304    36.748625    0.0211199  0.022977795            4 
  146000    1.0234037   -7.5446399    36.657691   0.02092334   0.02289484            2 
  147000     1.059309   -7.5457003    37.035817  0.020995361  0.022811386            3 
  148000    1.0494423   -7.5552561     36.99593  0.020831041  0.022725177            2 
  149000    1.0330194   -7.5978998    37.058976  0.020726496  0.022637223            4 
  150000    1.0091501   -7.5964706    37.235378  0.020686321  0.022550797            3 
  151000    1.0387934   -7.6072755     37.36793  0.020622478  0.022465836            3 
  152000     1.019864   -7.5974105    37.482444  0.020549586  0.022381093            4 
  153000    1.0238958   -7.5927784    37.709102  0.020538727  0.022296785            3 
  154000    1.0248639   -7.5840617    37.771278  0.020439003  0.022212608            3 
  155000    1.0276217   -7.6363631    37.811027  0.020328509  0.022129072            4 
  156000    1.0311381   -7.5650645     38.06219  0.020332366  0.022046246            3 
  157000    1.0165087   -7.5927593    38.261798   0.02030881  0.021963807            6 
  158000    1.0032768   -7.6172685     38.34999  0.020226788  0.021882931            3 
  159000    1.0166807   -7.5860684    38.792812  0.020331662  0.021804406            6 
  160000    1.0171583   -7.6253307    38.834701  0.020226406  0.021728987            5 
  161000    1.0199016   -7.5783079    38.937238   0.02015385  0.021654347            7 
  162000   0.99358997   -7.6290753    39.023111  0.020073617  0.021577082            8 
  163000     1.004493   -7.6168984    39.138001  0.020009203   0.02149966            6 
  164000    1.0237213   -7.6514673    39.228237  0.019933047  0.021423663            4 
  165000    1.0146155   -7.6377799    39.502107  0.019950559  0.021345786            2 
  166000   0.99930728    -7.661925    39.568542  0.019863726  0.021269165            3 
  167000    1.0219776   -7.6437556    39.774724  0.019847667  0.021194894            8 
  168000    1.0219772   -7.6629085     39.81119  0.019747614  0.021119677            6 
  169000   0.99525878   -7.6330532    39.816777  0.019633519  0.021044412            7 
  170000    1.0070053   -7.6584314    40.120367  0.019666847  0.020969163            4 
  171000   0.99103925   -7.6269149    40.294511  0.019636701  0.020897006            3 
  172000    1.0134104     -7.68378    40.314868  0.019532397  0.020824037            8 
  173000    1.0026929   -7.6596391     40.64302  0.019577563  0.020751485           11 
  174000   0.97974303     -7.68003    40.691107  0.019488078  0.020680073            3 
  175000   0.98961744   -7.6812991    40.826832  0.019441349  0.020608648            5 
  176000   0.96338899   -7.6961273    41.046862  0.019435067  0.020537735            5 
  177000    1.0006184   -7.7382805    41.089465  0.019345322  0.020467809            3 
  178000   0.99205141   -7.7107899    41.234566  0.019304572  0.020398908            4 
  179000   0.99136678   -7.6378368    41.597701  0.019365783  0.020331453            6 
  180000   0.98218916   -7.7013609    41.469775   0.01919897  0.020264312            4 
  181000   0.97190202   -7.6990448    41.422533  0.019071148  0.020194143            4 
  182000   0.98962598   -7.7073454    41.807193  0.019142487  0.020123628            4 
  183000   0.96921873   -7.6935054    41.908344  0.019083945  0.020053915            3 
  184000   0.97575057   -7.7640179    41.871055   0.01896334  0.019984398            4 
  185000   0.94917746   -7.7472426    41.931038  0.018887855  0.019915984            2 
  186000   0.97768054   -7.7830541    42.005423  0.018819634  0.019847138            5 
  187000   0.97619833   -7.7347594    42.277136  0.018840078  0.019778108            6 
  188000   0.96159348   -7.7208068    42.323142  0.018760258  0.019708823           11 
  189000   0.97091089   -7.7672434    42.232815  0.018621171   0.01963956           10 
  190000   0.98128323   -7.7935463    42.206065  0.018511432  0.019568923            5 
  191000   0.94623024   -7.7761636    42.382636  0.018491551  0.019498682            3 
  192000   0.95717528   -7.8249173    42.554841  0.018469983  0.019428392            6 
  193000   0.97101996   -7.7248685    42.730313  0.018450049  0.019360551            3 
  194000   0.96759351   -7.7584185    42.978861   0.01846171   0.01929372            3 
  195000   0.94645991   -7.7432265    43.250837  0.018483264  0.019227788            3 
  196000   0.96408485   -7.8069879    43.039209  0.018298983  0.019162402           13 
  197000   0.93920587   -7.7670843    43.170786  0.018261754  0.019095703            4 
  198000   0.95382307   -7.7714618    43.335873  0.018239004  0.019028093            4 
  199000    0.9365732    -7.782714    43.492119   0.01821278  0.018961719            7 
  200000   0.95105318   -7.7673764    43.630925  0.018179552  0.018896636            7 
  201000   0.93397498   -7.7793568    43.643124  0.018094164   0.01883253            6 
  202000   0.94494648   -7.7902204    43.810123  0.018073483  0.018769387            7 
  203000   0.93627578   -7.8256769    43.843595  0.017998192  0.018705088            4 
  204000   0.96623943   -7.7968333    44.004114  0.017975537  0.018641593            2 
  205000   0.93458846   -7.8090902    44.039388   0.01790219   0.01857865            4 
  206000   0.93454082   -7.8471717    44.062683   0.01782471  0.018513453            1 
  207000   0.94484676   -7.8460328    44.156405  0.017776331  0.018448777            5 
  208000   0.94637246    -7.831869     44.09262  0.017665313  0.018383702            9 
  209000   0.94155852   -7.8535928    44.055139  0.017565845  0.018318395            4 
  210000   0.92132171   -7.8460697    44.285884  0.017573764  0.018252401            4 
  211000   0.94300145   -7.8996978    44.256027  0.017478683  0.018187741            4 
  212000   0.92472573   -7.8990187    44.353759  0.017434654  0.018123377            9 
  213000   0.90606593   -7.9070006    44.527156   0.01742064  0.018059815            4 
  214000   0.91906337   -7.8944973    44.737929  0.017421312  0.017996987            4 
  215000   0.92993284    -7.862185     45.01702  0.017448457  0.017935274            4 
  216000   0.92885405   -7.8707182    45.069505  0.017387926  0.017874469            5 
  217000   0.93046955   -7.8724485    45.032802  0.017293703  0.017813931            4 
  218000   0.93370004   -7.8981705      45.0405  0.017217316  0.017753397            9 
  219000   0.90337545   -7.9114601    45.205102  0.017201332  0.017692698            5 
  220000   0.91776909   -7.9399416    45.295759  0.017157484  0.017632673            4 
  221000   0.89315055   -7.9211296    45.335146    0.0170947  0.017572637            7 
  222000   0.92349844   -7.9587436     45.36102   0.01702741  0.017512613            9 
  223000   0.90667851   -7.9233205    45.472602  0.016992751  0.017452169            3 
  224000   0.91333695   -7.9220147     45.47243  0.016916827  0.017392274            4 
  225000   0.88195582   -7.9294474    45.734163  0.016938579  0.017332033            6 
  226000   0.91005732   -7.9263254    45.647251  0.016831582  0.017272108           13 
  227000   0.91461377   -7.9041284    45.638228  0.016754122  0.017212157           10 
  228000   0.89834173    -7.989763    45.714088  0.016708365  0.017152348           11 
  229000   0.88944008   -7.9533506    45.864817  0.016690254  0.017092722           13 
  230000   0.90362255   -7.9349866    45.975838  0.016657912  0.017033071           10 
  231000   0.88250372   -7.9363487    45.978255  0.016586672  0.016973509           21 
  232000   0.90725337   -7.9384907    46.055177  0.016542808  0.016914404            6 
  233000   0.89861051   -7.9706214    46.216328  0.016529445  0.016855488            5 
  234000   0.88842658   -7.9815187    46.208559   0.01645604  0.016796785            7 
  235000   0.89537435   -7.9851125    46.271745   0.01640842  0.016738753            5 
  236000   0.85828833   -7.9749189     46.40423  0.016385674   0.01668062            7 
  237000   0.89523868   -7.9906611    46.388732  0.016311087  0.016622545            9 
  238000   0.89776285   -7.9848759     46.44038  0.016260637  0.016564751            6 
  239000   0.87051394   -7.9923903    46.627985  0.016258014  0.016507812            8 
  240000   0.87345219   -7.9772505    46.618733   0.01618706   0.01645129            4 
  241000   0.88891504   -7.9790301    46.697005  0.016146959  0.016394787           12 
  242000   0.87722066   -7.9698101    46.824249  0.016124053  0.016338273           13 
  243000   0.87977972   -8.0317122    46.639961  0.015994499  0.016281131           11 
  244000   0.86988911   -8.0310664    46.762483  0.015970793  0.016224412           13 
  245000   0.87265951   -8.0138335    47.118697  0.016026768  0.016168636           11 
  246000   0.85538332   -8.0247318    46.888972  0.015883798  0.016112564            6 
  247000   0.87753204   -8.0603879    46.973596  0.015848042  0.016056094            6 
  248000   0.87146471   -8.0417967    47.055201  0.015811559  0.015999984            7 
  249000   0.86634821   -8.0363853    47.043383  0.015744104  0.015944176            7 
  250000   0.86200955   -8.0553279    47.043266  0.015681089  0.015887852           14 
  251000    0.8507096    -8.031582    47.135809  0.015649339  0.015831433           10 
  252000   0.89866947   -8.0429795    47.220215   0.01561515  0.015775026            9 
  253000   0.85162516   -8.0339993     47.21763  0.015552579  0.015719385            5 
  254000   0.85310537   -8.0435357    47.225851  0.015494046  0.015664027            6 
  255000   0.84315248   -8.0654142    47.291661  0.015454791  0.015608798           10 
  256000   0.84892899   -8.0472164    47.474688     0.015454  0.015554263            9 
  257000   0.87171849   -8.0886024    47.457932  0.015388435   0.01549975           13 
  258000   0.86869053   -8.0869982    47.451317  0.015326653  0.015445142            8 
  259000   0.85482612   -8.0704978    47.709963  0.015350696  0.015391488            5 
  260000   0.84457907   -8.1265123    47.528619  0.015233532  0.015337886           17 
  261000   0.86180989    -8.120299    47.740018  0.015242662  0.015284336           11 
  262000   0.85920688   -8.1012481    47.805472  0.015205303  0.015230802           19 
  263000   0.85048877   -8.0932775    47.687336  0.015110056  0.015177983           18 
  264000   0.84262837   -8.1088949    47.888408   0.01511629  0.015125055            4 
  265000   0.84423611   -8.1011577    47.880821  0.015056862  0.015072378           10 
  266000   0.83534268    -8.096854     47.90887  0.015009044  0.015019681            8 
  267000   0.84094764   -8.1262224    48.038978  0.014993439  0.014967249           12 
  268000   0.83177522   -8.1289959    47.856957  0.014880895  0.014915097            6 
  269000     0.832506   -8.1790244    47.865289  0.014828156  0.014862328            4 
  270000   0.83920635   -8.1470839    47.945973   0.01479814  0.014809543            6 
  271000   0.82708592   -8.1641895    48.092077  0.014788462  0.014756975            5 
  272000   0.83184785   -8.1587693    48.015894  0.014710752  0.014704555            7 
  273000   0.82634385   -8.1564182     48.00038  0.014652131  0.014652339            5 
  274000   0.82137145   -8.1538508    48.135253  0.014639676   0.01460005            7 
  275000   0.82791022   -8.1514593    48.136128  0.014586705  0.014548134            9 
  276000   0.85385033   -8.1478599    48.115551  0.014527642  0.014496168           12 
  277000   0.80931001   -8.1431315    48.166862  0.014490632  0.014444636           10 
  278000   0.81458234   -8.1887869     48.25781   0.01446577  0.014393377            4 
  279000   0.82164253   -8.1865364    48.302645  0.014427313  0.014341483           15 
  280000   0.82417312   -8.1726928    48.273605  0.014367144  0.014290071            7 
  281000   0.81182858   -8.2034777     48.28861  0.014320466  0.014238711            5 
  282000    0.8295494   -8.2138927    48.275285  0.014265746  0.014187317           14 
  283000    0.7951654   -8.2024013    48.303544  0.014223658  0.014135899            9 
  284000   0.80547408   -8.2388132    48.261144  0.014161134  0.014084539           13 
  285000   0.81192427   -8.2453382    48.288808  0.014119534  0.014033309           28 
  286000   0.79874322   -8.2435802    48.306164  0.014075223   0.01398208           16 
  287000   0.79785225   -8.2526934    48.225006  0.014002615  0.013930552           14 
  288000   0.80882301   -8.2440386     48.24112  0.013958657  0.013879335           23 
  289000   0.82026555   -8.2483943    48.180632  0.013892916  0.013827881           16 
  290000   0.78439378    -8.294095       48.285     0.013875  0.013776547           33 
  291000   0.80985019   -8.2358943    48.387753  0.013856745  0.013725882           16 
  292000   0.79688325   -8.3036725    48.153477  0.013742431  0.013674854           27 
  293000   0.78581499   -8.2854602    48.318202  0.013742378  0.013624029           24 
  294000   0.79413683   -8.2880556    48.392212  0.013716613  0.013573386           38 
  295000    0.8011353   -8.2715823    48.369038   0.01366357  0.013522966           17 
  296000   0.79035515   -8.2845314    48.404405  0.013627366   0.01347265           16 
  297000   0.80419309   -8.2927525    48.344389  0.013564643  0.013422342           12 
  298000   0.79473587   -8.2843708    48.404979  0.013536068  0.013372149           10 
  299000   0.79770615   -8.2711401     48.43546  0.013499292  0.013322514           23 
  300000   0.78722946   -8.3006524    48.384629  0.013440175  0.013273146           15 
  301000   0.78703606   -8.2713019    48.573185  0.013447726  0.013223903           18 
  302000   0.79470125   -8.2629645    48.572214  0.013402929  0.013174985           15 
  303000   0.76862179   -8.2968449    48.508835  0.013341264  0.013126118            9 
  304000   0.79232231   -8.3039966    48.539094  0.013305673   0.01307746           17 
  305000   0.79600418   -8.3049369    48.526898  0.013258715  0.013028766           22 
  306000    0.7822165     -8.29663    48.556841  0.013223541  0.012980547           21 
  307000   0.76883224   -8.3640071    48.453573  0.013152436   0.01293216           12 
  308000    0.7864081   -8.3305723    48.569395   0.01314107  0.012883778           20 
  309000    0.7950449    -8.318097    48.681356  0.013128737   0.01283574           18 
  310000   0.74507427   -8.3274423    48.571314  0.013056805  0.012787711           19 
  311000   0.76853883   -8.3450604     48.61147  0.013025582  0.012739985           16 
  312000   0.75654487   -8.3462665    48.471301  0.012946394  0.012692065           18 
  313000   0.77101378   -8.3306684     48.80266  0.012993253  0.012644713           13 
  314000   0.78554781    -8.352017    48.692474  0.012922631  0.012597898           11 
  315000   0.76466297   -8.3692211    48.667428  0.012874981  0.012550923           19 
  316000   0.75995905   -8.3543915    48.723773  0.012849096  0.012504403           14 
  317000   0.75379339   -8.3484925     48.68987   0.01279965   0.01245808           24 
  318000   0.75898849   -8.3727614     48.77921  0.012782812   0.01241217           18 
  319000    0.7634718    -8.360262    48.739798  0.012732445  0.012366381           50 
  320000   0.76124773   -8.4114526    48.728149  0.012689622  0.012320476           30 
  321000   0.75778097    -8.369499    48.910115   0.01269733  0.012274577           37 
  322000   0.73189891   -8.3730834    48.797161  0.012628665   0.01222925           40 
  323000   0.76964975   -8.3662569    48.881054  0.012611211  0.012184199           46 
  324000   0.75071619   -8.3737408    48.949025   0.01258977  0.012139392           37 
  325000   0.76184683   -8.3826593    48.917351   0.01254291  0.012094677           58 
  326000   0.74164713   -8.4236805    48.887771  0.012496874  0.012049891           45 
  327000   0.75304254   -8.4163448    48.947497  0.012473878  0.012005409           74 
  328000   0.73886721   -8.4075613    48.901426  0.012424143  0.011961388           81 
  329000   0.74228596   -8.4188972    48.809562  0.012363111  0.011917558           84 
  330000   0.73442942   -8.4004492    49.020733  0.012378973   0.01187389           52 
  331000   0.74709492    -8.401074    49.023787  0.012342343  0.011830245           42 
  332000   0.74544567   -8.4161346    48.907749  0.012276041  0.011786376           23 
  333000   0.72435318   -8.4261852     49.09413  0.012285818  0.011742893           54 
  334000   0.72625448   -8.4523871    48.920672  0.012205756   0.01169944           11 
  335000   0.75029379    -8.440087    48.984352  0.012185162  0.011656251           16 
  336000   0.71882284   -8.4507961    48.912456  0.012131066   0.01161332           21 
  337000    0.7254431   -8.4590584    48.836684  0.012076331  0.011570324           22 
  338000   0.76255532   -8.4591217    48.913219  0.012059472  0.011527613           62 
  339000    0.7172914   -8.4456876    48.860853  0.012011026  0.011484837           66 
  340000   0.73358506   -8.4491153    48.920211  0.011990248  0.011442172           40 
  341000   0.72293466   -8.4635261    48.951851  0.011962818  0.011399598           44 
  342000   0.73268965   -8.4637337    48.923945  0.011921039  0.011357252           26 
  343000   0.72766564   -8.4808246    48.865225  0.011872018  0.011315113           36 
  344000   0.72593921   -8.5038533    48.863539  0.011837098  0.011272835           40 
  345000   0.71508004   -8.4992707    48.879557  0.011806656  0.011230927           29 
  346000   0.72017369   -8.4892689    48.935551  0.011786019  0.011189115           55 
  347000   0.72859588   -8.5080541    48.829509  0.011726587  0.011147352           22 
  348000   0.72113282   -8.5130869    48.887695  0.011706823  0.011105523           33 
  349000   0.70364952    -8.543716    48.901561   0.01167659  0.011063871           40 
  350000   0.70335961   -8.5410959    48.827168  0.011625516  0.011022226           44 
  351000   0.72050619   -8.5273783    48.846907  0.011597081  0.010981014           27 
  352000   0.70495838    -8.537823    48.867641  0.011569044  0.010939795           31 
  353000   0.70203688   -8.5261453    48.837206  0.011529085  0.010898971           43 
  354000   0.71723761   -8.5433872    48.890438  0.011509048  0.010858443           29 
  355000   0.70795237   -8.5315968    49.005693  0.011503684  0.010817984           35 
  356000   0.70164822    -8.574945    48.965823  0.011462037  0.010777755           56 
  357000   0.69786049   -8.5412345    48.936201  0.011423016  0.010737638           40 
  358000   0.69148138   -8.5457245    48.930027  0.011389671  0.010697549           60 
  359000   0.69590509   -8.5259824    48.973251  0.011367979  0.010657731           58 
  360000   0.69501457   -8.5750705     48.92178  0.011324486  0.010617969           32 
  361000    0.6962958   -8.5263778    48.994119  0.011309815  0.010578584           60 
  362000   0.68838599   -8.5523966    48.841814  0.011243512  0.010539237           23 
  363000   0.67956311   -8.5557797    48.921993  0.011230944  0.010500221           22 
  364000   0.68039962   -8.5576122    49.038148  0.011226682  0.010461346           84 
  365000   0.69026312   -8.5928835    48.903203  0.011165115  0.010422596           30 
  366000   0.69504399   -8.5943096    48.924629  0.011139487  0.010383953           41 
  367000   0.69622143    -8.587915    48.989074  0.011123768  0.010345526           34 
  368000   0.65819825    -8.578752    48.935331   0.01108137  0.010307163           47 
  369000   0.67110519   -8.6042356    48.989139  0.011063491  0.010268944           48 
  370000   0.67051942   -8.6049216    48.928191  0.011019863  0.010230809           44 
  371000   0.67217097   -8.5917315    48.898014  0.010983381  0.010192823           84 
  372000   0.68086622      -8.6023    48.881953  0.010950258  0.010155044           41 
  373000   0.67220159   -8.6091446    48.910001  0.010927167  0.010117313           18 
  374000   0.67506232   -8.5981424    48.888765  0.010893219  0.010079774           38 
  375000    0.6781893   -8.5937008    48.884397  0.010863199  0.010042404           54 
  376000   0.66748711   -8.6309068    48.891555  0.010835894  0.010005289           83 
  377000   0.65853347   -8.6218129    48.911928  0.010811655 0.0099681904           92 
  378000   0.66422103   -8.6154956    48.855495  0.010770612 0.0099312713           37 
  379000   0.65455575   -8.6363035    48.810229   0.01073224 0.0098945227           42 
  380000   0.63952838   -8.6212708    48.930876  0.010730455 0.0098576963           61 
  381000   0.64679746   -8.6359048    48.877217  0.010690555 0.0098210798           45 
  382000   0.66512298   -8.6575603    48.736411  0.010631852  0.009784541           42 
  383000   0.65847507   -8.6498511    48.834944  0.010625532 0.0097481249           40 
  384000   0.64783661    -8.639289    48.956512  0.010624243 0.0097121031           73 
  385000   0.64226183   -8.6419591    48.814041   0.01056581 0.0096762575           44 
  386000   0.64807864   -8.6377526    48.899879  0.010556969 0.0096405803           23 
  387000   0.63640362   -8.6454182    48.875562  0.010524454 0.0096050159           54 
  388000   0.63723625   -8.6421781    48.845351   0.01049084  0.009569649           32 
  389000   0.63208166    -8.644479    48.892506  0.010473973  0.009534397          105 
  390000    0.6350267   -8.6680566    48.808907  0.010429254 0.0094991824           34 
  391000   0.65439699   -8.6628803    48.784702  0.010397422 0.0094640534           67 
  392000   0.64674873   -8.6469496    48.836135  0.010381831 0.0094290712           69 
  393000   0.64557766   -8.6644328    48.885341  0.010365848   0.00939426           45 
  394000   0.63297955   -8.6671041    48.897398  0.010342089 0.0093596149           45 
  395000   0.64427848   -8.6725245    48.848798  0.010305654 0.0093250802           41 
  396000   0.63311899   -8.6762089    48.826342  0.010274904 0.0092907029           38 
  397000     0.620505   -8.6883336    48.822494  0.010248214 0.0092565833           41 
  398000   0.62982326   -8.6701939    48.810226  0.010219897  0.009222559           48 
  399000   0.61948172   -8.6968068    48.735837  0.010178746 0.0091886337           40 
  400000   0.63820959   -8.6920874    48.816425  0.010170088 0.0091547508           54 
  401000   0.62259313   -8.7097712    48.760736  0.010133154 0.0091210623           53 
  402000   0.62226844   -8.7142075    48.855203   0.01012753 0.0090875537           49 
  403000    0.6193216   -8.7023924    48.798787  0.010090733 0.0090543024           68 
  404000   0.62273134   -8.7107189    48.847161  0.010075734 0.0090210145           71 
  405000   0.63125143   -8.7223808    48.784184  0.010037898  0.008988013           63 
  406000   0.62983994    -8.708231    48.693149 0.0099944887 0.0089551688           55 
  407000    0.6254319   -8.7138249     48.70519 0.0099723975 0.0089223844           58 
  408000   0.62512732   -8.7021058    48.767608 0.0099607042 0.0088897022           60 
  409000   0.61950827   -8.7157838    48.768562 0.0099365449  0.008857114           66 
  410000   0.62554711    -8.719195    48.801541 0.0099190124  0.008824723           86 
  411000   0.60033171   -8.7433401    48.690509 0.0098723659 0.0087925455           53 
  412000   0.60523711   -8.7373315    48.694536 0.0098492184 0.0087603048           65 
  413000   0.60455561   -8.7514968    48.688525 0.0098241576 0.0087282517           59 
  414000    0.6275119   -8.7248256    48.731783  0.009809135 0.0086963686           46 
  415000   0.59812194   -8.7363601    48.640343 0.0097671371 0.0086645606           65 
  416000   0.61002595   -8.7300521    48.717294 0.0097590734  0.008632868           54 
  417000   0.62276655   -8.7569634    48.723703  0.009736951 0.0086014304           56 
  418000   0.60785006   -8.7753622    48.574802 0.0096839718 0.0085701121           44 
  419000   0.58518984   -8.7539772    48.592033 0.0096642867   0.00853877           52 
  420000   0.59315745   -8.7638674    48.723892 0.0096674389 0.0085076697           75 
  421000   0.59502038    -8.765033    48.767876 0.0096531821 0.0084767592           56 
  422000   0.59720875   -8.7917576    48.637845 0.0096046296 0.0084459146           76 
  423000   0.58554123   -8.7859466    48.682416 0.0095907045 0.0084151546           58 
  424000   0.58638835   -8.7707813    48.575437 0.0095470591 0.0083845996           65 
  425000   0.59060536   -8.7672625    48.627249 0.0095347547 0.0083541586           51 
  426000   0.57794182   -8.7928636    48.592965 0.0095056662 0.0083238496           57 
  427000   0.57885016   -8.7744447    48.669611 0.0094983628 0.0082936639           62 
  428000   0.58539609    -8.783408    48.670146 0.0094762745 0.0082637147           75 
  429000   0.57212418   -8.7857991    48.663122 0.0094528208 0.0082338184           48 
  430000   0.57718285    -8.801414    48.625411 0.0094235293  0.008204103           62 
  431000   0.56573181    -8.802941    48.574407 0.0093918034  0.008174442           65 
  432000   0.58590167   -8.8025336    48.638968 0.0093825169 0.0081449276           60 
  433000    0.5673613    -8.784545    48.630366 0.0093591929 0.0081155172           62 
  434000   0.58038028   -8.8117875    48.602629 0.0093323021 0.0080862726           46 
  435000   0.59102596   -8.8209678    48.656923 0.0093212495 0.0080571242           50 
  436000   0.55901508   -8.8166832    48.617314    0.0092923 0.0080280735           79 
  437000   0.56749609   -8.8092594    48.559294 0.0092599721 0.0079991575           51 
  438000   0.56631144   -8.8186666    48.606331 0.0092477798 0.0079703397           45 
  439000   0.55951886   -8.8099342    48.553645 0.0092167132 0.0079417254           62 
  440000   0.56658554   -8.8209122    48.636078 0.0092113785 0.0079132313           67 
  441000   0.54842077   -8.8219428    48.431428 0.0091518194 0.0078848612           47 
  442000   0.55137894    -8.816238    48.584613 0.0091599949 0.0078566076           42 
  443000    0.5584999   -8.8446326    48.540254 0.0091309733 0.0078284936           67 
  444000   0.55794024   -8.8384444    48.568341 0.0091156795 0.0078004953          103 
  445000   0.54664387    -8.825132     48.47355 0.0090774437 0.0077726182           82 
  446000   0.54793607   -8.8324041    48.571533 0.0090753985 0.0077448599           64 
  447000   0.55993332   -8.8605087    48.399858 0.0090230905  0.007717211           47 
  448000   0.55997851   -8.8424841    48.488207 0.0090193836 0.0076896644           61 
  449000    0.5521435   -8.8553184    48.480796 0.0089979205 0.0076622967           73 
  450000   0.54645596   -8.8614684    48.451948 0.0089725829 0.0076349842           94 
  451000   0.56594431   -8.8552116    48.499447 0.0089614646 0.0076077812           90 
  452000    0.5548235   -8.8645271     48.40306 0.0089238681 0.0075806983          125 
  453000   0.54214897   -8.8709281    48.472101 0.0089168693 0.0075537469           73 
  454000   0.55032917   -8.8614518     48.55355 0.0089121789 0.0075269431           82 
  455000    0.5443507   -8.8715493    48.539771  0.008890068 0.0075002183           59 
  456000    0.5392336   -8.8593999    48.515707 0.0088661745   0.00747363           70 
  457000   0.53924279   -8.8581741    48.518908 0.0088473574 0.0074471948           48 
  458000   0.52474368   -8.8643143    48.399457 0.0088063059 0.0074208259           79 
  459000   0.51787273   -8.8739236    48.400789 0.0087873619 0.0073945658          168 
  460000   0.53485289    -8.890792     48.43183 0.0087738822 0.0073683884           83 
  461000   0.54152056   -8.8821365    48.459294 0.0087598146 0.0073423251           92 
  462000    0.5318939   -8.8838241    48.424251 0.0087345329 0.0073163982           86 
  463000    0.5275341   -8.8660405    48.450919 0.0087204678 0.0072905882           61 
  464000   0.51545586   -8.8834519     48.49909 0.0087103251 0.0072649294           80 
  465000   0.52227551   -8.8984612    48.379607 0.0086701804 0.0072393116           78 
  466000   0.53999258   -8.8848943    48.420969 0.0086589715 0.0072138123           67 
  467000   0.52197282   -8.8989923    48.370396 0.0086314055  0.007188467           66 
  468000   0.52641219   -8.8926173    48.342867 0.0086080603   0.00716323           75 
  469000   0.51933732   -8.8805786     48.38519 0.0085972264 0.0071380371           66 
  470000   0.52265146   -8.8884395    48.432914 0.0085873961  0.007113037           78 
  471000   0.52872457   -8.9009732    48.402191  0.008563728 0.0070881481           62 
  472000   0.51272346   -8.9177143    48.347005 0.0085358413 0.0070633262          127 
  473000   0.51468981   -8.9010973    48.454745 0.0085367767 0.0070386182           92 
  474000   0.50298706   -8.9067193    48.342715 0.0084990708 0.0070140318          111 
  475000   0.50210453   -8.9184743    48.407972 0.0084926266 0.0069896243           70 
  476000   0.51485475   -8.8986134    48.439355 0.0084802793 0.0069652825           85 
  477000   0.50550107   -8.9249943    48.320971 0.0084418189 0.0069410911           71 
  478000   0.50453009   -8.9263741    48.380893 0.0084346048  0.006916966           81 
  479000   0.50129195   -8.9033275    48.288952 0.0084010006 0.0068929245          230 
  480000   0.49591926   -8.9329662    48.389692 0.0084009882 0.0068690492           83 
  481000   0.50495674   -8.9213202    48.365002 0.0083792449 0.0068452843           63 
  482000   0.49066976   -8.9300906    48.393457 0.0083667802 0.0068216217          104 
  483000   0.49422231   -8.9342351    48.325533 0.0083377386 0.0067980412           93 
  484000   0.48429437   -8.9399684    48.406963 0.0083345321 0.0067745769           56 
  485000   0.48962984   -8.9497963    48.334299 0.0083048623 0.0067512224          156 
  486000   0.50123345   -8.9356636    48.317083 0.0082848221 0.0067279485           75 
  487000   0.49446887   -8.9645921     48.23814 0.0082543018 0.0067047527           63 
  488000   0.50660588   -8.9501833    48.368307 0.0082596152 0.0066816821           87 
  489000   0.49401922   -8.9526477    48.333344 0.0082367662 0.0066587511           65 
  490000   0.48207483   -8.9373764    48.337426 0.0082206508 0.0066358618           68 
  491000   0.48881315   -8.9632217    48.310714 0.0081993744 0.0066131068           79 
  492000   0.47721864   -8.9570387    48.333177 0.0081865137   0.00659043           70 
  493000    0.4663122   -8.9518464    48.254481  0.008156606 0.0065678761           84 
  494000    0.4739334   -8.9741027    48.282021 0.0081447405 0.0065454161           51 
  495000   0.48568526   -8.9585732    48.271321  0.008126485  0.006523053           60 
  496000    0.4652427   -8.9570467    48.306379 0.0081159912  0.006500778           87 
  497000   0.47805534   -8.9667408    48.194317 0.0080808714 0.0064786273           58 
  498000   0.47161196   -8.9804602    48.221432  0.008069182 0.0064565344           70 
  499000   0.47237806   -8.9709951    48.276755 0.0080622504 0.0064345847           82 
  500000   0.47004715   -8.9874955    48.156574 0.0080260956 0.0064127298           60 
  501000   0.46412643   -8.9822949    48.246462 0.0080250269 0.0063909479           80 
  502000    0.4602116   -8.9780957    48.220664 0.0080047583 0.0063692597           63 
  503000   0.46902883   -8.9809059    48.235037 0.0079912255  0.006347674           62 
  504000    0.4580456   -9.0109528    48.227797 0.0079741728 0.0063261731           91 
  505000   0.45773814   -8.9771288    48.183361 0.0079510497 0.0063047625           70 
  506000   0.46926348   -8.9998353    48.207705 0.0079393454 0.0062834504           76 
  507000   0.46174966    -9.000763    48.189762 0.0079207367 0.0062621745          110 
  508000   0.45514363   -8.9946631    48.236461 0.0079128053  0.006241074           67 
  509000     0.454213   -8.9954649    48.243105 0.0078983472 0.0062200332           73 
  510000   0.46160638   -9.0139603    48.245855 0.0078833097   0.00619911           86 
  511000   0.45286413    -9.019054    48.108163 0.0078454277 0.0061782194           74 
  512000   0.45980642   -9.0056697    48.211772 0.0078469682  0.006157482           75 
Loop time of 1284.76 on 48 procs for 500000 steps with 4000 atoms

Performance: 67249.677 tau/day, 389.176 timesteps/s
99.4% CPU use with 48 MPI tasks x no OpenMP threads

MPI task timing breakdown:
Section |  min time  |  avg time  |  max time  |%varavg| %total
---------------------------------------------------------------
Pair    | 90.883     | 97.617     | 103.8      |  28.7 |  7.60
Neigh   | 8.6316     | 9.0509     | 9.5038     |   7.1 |  0.70
Comm    | 80.763     | 88.677     | 95.422     |  33.6 |  6.90
Output  | 0.94731    | 0.9481     | 0.97113    |   0.3 |  0.07
Modify  | 1070.7     | 1076       | 1080.4     |   6.4 | 83.75
Other   |            | 12.48      |            |       |  0.97

Nlocal:        83.3333 ave          88 max          77 min
Histogram: 3 2 3 4 5 6 7 9 2 7
Nghost:        2361.92 ave        2384 max        2344 min
Histogram: 3 3 7 5 9 10 6 4 0 1
Neighs:        16146.5 ave       17845 max       14389 min
Histogram: 3 1 7 1 11 9 9 2 1 4
FullNghs:      32292.4 ave       34248 max       29759 min
Histogram: 2 2 4 4 5 8 9 6 4 4

Total # of neighbors = 1550035
Ave neighs/atom = 387.50875
Neighbor list builds = 26628
Dangerous builds = 0

#clear
#
#next RN
#
#jump SELF
Total wall time: 0:21:28
