
units lj                  # Use reduced LJ style units
atom_style atomic         # Uncharged point particles
atom_modify map hash      # Needed for indexing of clusters etc
                          # Used to be able to find where atoms are in relation to each other.

lattice fcc 1.0 spacing 1 1 1
Lattice spacing in x,y,z = 1.5874011 1.5874011 1.5874011
region box block 0 10 0 10 0 10 units lattice
create_box 2 box
Created orthogonal box = (0.0000000 0.0000000 0.0000000) to (15.874011 15.874011 15.874011)
  3 by 4 by 4 MPI processor grid
create_atoms 1 box
Created 4000 atoms
  using lattice units in orthogonal box = (0.0000000 0.0000000 0.0000000) to (15.874011 15.874011 15.874011)
  create_atoms CPU = 0.002 seconds
set type 1 type/fraction 2 0.3 78393
Setting atom values ...
  1229 settings made for type/fraction
mass 1 1.0
mass 2 1.0
pair_style lj/cut  3.5
pair_modify tail  yes
pair_coeff 1  1  1.0  1.0   # Intearaction between 1 and 1 set with epsilon = 1 and sigma = 1
pair_coeff 1  2  1.5  0.8
pair_coeff 2  2  0.5  0.88

write_data data.0
System init for write_data ...
Neighbor list info ...
  update every 1 steps, delay 10 steps, check yes
  max neighbors/atom: 2000, page size: 100000
  master list distance cutoff = 3.8
  ghost atom cutoff = 3.8
  binsize = 1.9, bins = 9 9 9
  1 neighbor lists, perpetual/occasional/extra = 1 0 0
  (1) pair lj/cut, perpetual
      attributes: half, newton on
      pair build: half/bin/atomonly/newton
      stencil: half/bin/3d
      bin: standard
WARNING: Not all mixed pair coeffs generated from mixing. Use write_data with 'pair ij' option to store all pair coeffs. (../write_data.cpp:312)


#############################
#   M E L T   S Y S T E M   #
#############################

velocity all create 2.4 6229865 mom yes dist gaussian # Assign velocities
                                                    # Temperature 2.4, random number seed, zero linear momentum
                                                                                # Gaussian distribution

timestep 0.002   # simulation timestep
thermo 1000       # output thermodynamic data every 1000 steps bf 100

# Define a fix  in this case with index 1 applied to all
# particles in the simulation. This fix is for simulations
# in the anisotropic NPT ensemble. Note that we use the MTK
# correction.
fix 1 all npt temp 2.4 2.4 0.1 iso 5.68 5.68 0.5 mtk yes tchain 5 pchain 5 # Use NPT ensemble
                                                                         # Set temperature and pressure and damping
                                                                         # Numbers of thermostats in chain and in barostat
run 10000          # run for 10000 steps
Per MPI rank memory allocation (min/avg/max) = 3.642 | 3.644 | 3.648 Mbytes
Step Temp E_pair E_mol TotEng Press Volume 
       0          2.4   -6.4318281            0   -2.8327281   -3.9834666         4000 
    1000    2.3766328   -5.0658302            0   -1.5017723    5.5694122    4123.3976 
    2000      2.39059   -4.9625253            0   -1.3775367    5.5636437    4170.9436 
    3000    2.4524026   -4.9257103            0   -1.2480261    6.0836557    4155.3368 
    4000    2.3819476   -4.9503173            0   -1.3782891    5.9520962    4143.5141 
    5000    2.4019258   -4.9393725            0   -1.3373845    6.0060338     4152.146 
    6000    2.3416645   -4.9711085            0   -1.4594899     5.712568    4154.4958 
    7000     2.415849   -4.9483173            0   -1.3254499    5.7917681     4167.265 
    8000    2.3652287   -5.0006509            0   -1.4536949    5.2704542    4189.5733 
    9000    2.4189925   -4.9984828            0   -1.3709013    5.5810509     4154.818 
   10000    2.4129291   -4.9964871            0   -1.3779982    5.8393049    4138.9235 
Loop time of 2.38976 on 48 procs for 10000 steps with 4000 atoms

Performance: 723084.734 tau/day, 4184.518 timesteps/s
99.6% CPU use with 48 MPI tasks x no OpenMP threads

MPI task timing breakdown:
Section |  min time  |  avg time  |  max time  |%varavg| %total
---------------------------------------------------------------
Pair    | 1.0447     | 1.1082     | 1.1841     |   2.9 | 46.37
Neigh   | 0.20353    | 0.21046    | 0.22006    |   0.9 |  8.81
Comm    | 0.73065    | 0.81176    | 0.87362    |   3.5 | 33.97
Output  | 0.00024079 | 0.00024536 | 0.00031424 |   0.0 |  0.01
Modify  | 0.22523    | 0.2443     | 0.27636    |   2.6 | 10.22
Other   |            | 0.0148     |            |       |  0.62

Nlocal:        83.3333 ave          90 max          76 min
Histogram: 2 3 6 4 3 12 4 10 1 3
Nghost:        1596.69 ave        1625 max        1570 min
Histogram: 5 3 5 5 7 5 6 7 3 2
Neighs:        9207.77 ave       10317 max        7831 min
Histogram: 1 0 3 6 9 9 9 6 3 2

Total # of neighbors = 441973
Ave neighs/atom = 110.49325
Neighbor list builds = 907
Dangerous builds = 196

# Equilibrate just above the melting temperature to avoid step fn in T

fix 1 all npt temp 1.25 1.25 0.1 iso 5.68 5.68 0.5 mtk yes tchain 5 pchain 5
run 2000
Per MPI rank memory allocation (min/avg/max) = 3.643 | 3.645 | 3.649 Mbytes
Step Temp E_pair E_mol TotEng Press Volume 
   10000    2.4129291   -4.9964871            0   -1.3779982    5.8393049    4138.9235 
   11000      1.23183   -6.8328448            0   -4.9855617    5.5956024    3355.0863 
   12000    1.2689766   -6.8572545            0   -4.9542655    5.8093624    3334.5489 
Loop time of 0.577201 on 48 procs for 2000 steps with 4000 atoms

Performance: 598751.942 tau/day, 3465.000 timesteps/s
99.7% CPU use with 48 MPI tasks x no OpenMP threads

MPI task timing breakdown:
Section |  min time  |  avg time  |  max time  |%varavg| %total
---------------------------------------------------------------
Pair    | 0.23724    | 0.27223    | 0.31466    |   2.9 | 47.16
Neigh   | 0.035821   | 0.039382   | 0.046453   |   0.9 |  6.82
Comm    | 0.16959    | 0.2159     | 0.26159    |   3.8 | 37.40
Output  | 5.1479e-05 | 5.3021e-05 | 6.9146e-05 |   0.0 |  0.01
Modify  | 0.037783   | 0.044924   | 0.051172   |   1.7 |  7.78
Other   |            | 0.00472    |            |       |  0.82

Nlocal:        83.3333 ave          95 max          73 min
Histogram: 3 1 3 6 12 12 6 3 1 1
Nghost:        1856.04 ave        1888 max        1827 min
Histogram: 2 3 7 7 8 6 7 4 1 3
Neighs:        11457.6 ave       13634 max        9493 min
Histogram: 2 1 5 10 9 10 6 2 2 1

Total # of neighbors = 549964
Ave neighs/atom = 137.49100
Neighbor list builds = 142
Dangerous builds = 9

#############################
# L I N E A R  Q U E N C H  #
#############################

# Define solid atoms. This closely follows ten Wolde  Ruiz-Montero and Frenkel  Faraday Discuss  1996  104  93-110
# Compute components of the per-atom q6 vector
compute q6 all orientorder/atom degrees 1 6 components 6 nnn NULL cutoff 1.3 # compute the Q6 parameter.
                                                                             # Use all neighbours within 1.3 unit cell.

# get number of connections
compute coord_number all coord/atom orientorder q6 0.5

# An atom is solid if it has 8 or more connections (of a possible 14)
variable is_solid atom c_coord_number>=8
group solid dynamic all var is_solid    # Must be dynamic to update
dynamic group solid defined

# do clustering
compute cluster solid cluster/atom 1.3 # Create a cluster where all atoms within are solid and max 1.3 units from another member

# define chunks one chunk per cluster
compute clus_chunks solid chunk/atom c_cluster nchunk every compress yes  # Says which atoms are in which chunk

# count the size of each chunk
compute size_chunks solid property/chunk clus_chunks count


# Find the maximum entry in the vector of chunk sizes
variable max_n equal max(c_size_chunks)


# Thermo style which includes this variable
# thermo_style custom step temp pe vol v_max_n

thermo ${N}  # Print the thermo information every 100 steps
thermo 1000  

# Reset the npt fix at a lower temperature (below freezing)
fix 1  all npt temp  ${temp} ${temp}  0.1  iso  5.68  5.68  0.5  mtk yes tchain  5  pchain  5
fix 1  all npt temp  0.45 ${temp}  0.1  iso  5.68  5.68  0.5  mtk yes tchain  5  pchain  5
fix 1  all npt temp  0.45 0.45  0.1  iso  5.68  5.68  0.5  mtk yes tchain  5  pchain  5

dump dmp2 all dcd ${N} traj.dcd
dump dmp2 all dcd 1000 traj.dcd


compute msd all msd com yes
variable twopoint equal c_msd[4]/6/(step*dt+1.0e-6)
fix 9 all vector 10 c_msd[4]
variable fit equal slope(f_9)/6/(10*dt)
thermo_style custom step temp pe c_msd[4] v_twopoint v_fit v_max_n

fix 1 all npt temp 1.25 ${temp} 0.1 iso 5.68 5.68 0.5 mtk yes tchain 5 pchain 5
fix 1 all npt temp 1.25 0.45 0.1 iso 5.68 5.68 0.5 mtk yes tchain 5 pchain 5
run 2000000 # 5000000  # Run for this many steps
Neighbor list info ...
  update every 1 steps, delay 10 steps, check yes
  max neighbors/atom: 2000, page size: 100000
  master list distance cutoff = 3.8
  ghost atom cutoff = 3.8
  binsize = 1.9, bins = 8 8 8
  4 neighbor lists, perpetual/occasional/extra = 1 3 0
  (1) pair lj/cut, perpetual
      attributes: half, newton on
      pair build: half/bin/atomonly/newton
      stencil: half/bin/3d
      bin: standard
  (2) compute orientorder/atom, occasional
      attributes: full, newton on
      pair build: full/bin/atomonly
      stencil: full/bin/3d
      bin: standard
  (3) compute coord/atom, occasional
      attributes: full, newton on
      pair build: full/bin/atomonly
      stencil: full/bin/3d
      bin: standard
  (4) compute cluster/atom, occasional
      attributes: full, newton on
      pair build: full/bin/atomonly
      stencil: full/bin/3d
      bin: standard
Per MPI rank memory allocation (min/avg/max) = 9.810 | 9.816 | 9.821 Mbytes
Step Temp PotEng c_msd[4] v_twopoint v_fit v_max_n 
   12000    1.2689766   -6.8572545 1.0438996e-29 7.2493027e-32 8.3333333e+20            2 
   13000    1.2552072   -6.9320694   0.51187671 0.0032812608  0.041669898            2 
   14000    1.2321533   -6.8321071   0.95670328 0.0056946622  0.039556421            1 
   15000    1.2438377   -6.8592042    1.4256925 0.0079205137  0.038633485            1 
   16000    1.2402272   -6.8436173    1.8895645 0.0098414814  0.038774638            1 
   17000    1.2233237   -6.8764516     2.370388  0.011619549  0.038706877            1 
   18000    1.2434593   -6.9101833    2.8737107  0.013304216  0.038966079            1 
   19000    1.2295124   -6.8674941    3.3485316  0.014686542  0.039324084            2 
   20000    1.2783762   -6.8566313    3.8045409  0.015852253  0.039430558            2 
   21000     1.238583   -6.8964823    4.2433537  0.016838705  0.039228713            1 
   22000    1.2481881    -6.919861    4.6986149  0.017797783  0.039113616            2 
   23000    1.2344208     -6.87692    5.1928994  0.018814853  0.039067219            1 
   24000    1.2757557   -6.9042206    5.6821197  0.019729582  0.039127853            1 
   25000    1.2248444    -6.901438    6.1740335  0.020580111  0.039218538            1 
   26000    1.2259743   -6.8837879    6.6300241  0.021250077   0.03931922            3 
   27000    1.2409209   -6.8640283    7.1381448  0.022031311  0.039390266            2 
   28000    1.2234916   -6.8762154    7.5439491  0.022452229  0.039403629            1 
   29000    1.2326862   -6.9375396    7.9141483  0.022741805   0.03924358            2 
   30000    1.2432947   -6.9066438    8.4542887  0.023484135  0.039131991            1 
   31000    1.2332818   -6.9128179    8.9698156  0.024112407  0.039145585            1 
   32000    1.2347477   -6.8933398    9.3941132  0.024463836  0.039125569            1 
   33000    1.2236448   -6.9078161    9.8268498  0.024815277  0.039062891            1 
   34000    1.2484834   -6.8735475    10.292078  0.025225682  0.038988816            1 
   35000    1.2538681   -6.8650233    10.781234  0.025669604  0.038919091            2 
   36000    1.2336863   -6.9107153    11.265298  0.026077078  0.038903546            1 
   37000    1.2367893   -6.9562802     11.72648  0.026410991  0.038889165            1 
   38000    1.2568854   -6.9037515    12.164267  0.026676024  0.038877755            1 
   39000    1.1997403   -6.8933379    12.621569  0.026969164   0.03886185            3 
   40000    1.2286274   -6.9136941    13.089176  0.027269116  0.038839733            1 
   41000    1.2399238   -6.8711434    13.590258  0.027622475  0.038841456            2 
   42000    1.2473939   -6.9055049    13.969476  0.027717213  0.038810181            2 
   43000    1.2349133   -6.9256643    14.494249  0.028089629  0.038807504            2 
   44000    1.1947618   -6.9608434     15.03796  0.028480985  0.038833945            1 
   45000    1.2240993   -6.8913187    15.564787  0.028823679  0.038882614            1 
   46000    1.2250885   -6.9191674    16.007332  0.028998789  0.038934532            2 
   47000    1.2350092     -6.92533    16.417706  0.029109407  0.038960728            1 
   48000    1.2247221   -6.9008054    16.927396   0.02938784  0.038963817            2 
   49000    1.2410182   -6.8572969    17.345264  0.029498748  0.038984533            1 
   50000    1.2651053    -6.874667    17.790155  0.029650257  0.038971875            1 
   51000    1.2396161   -6.9039519    18.192977  0.029727086   0.03894408            1 
   52000    1.2296915   -6.8873659      18.6488  0.029885896  0.038903531            2 
   53000    1.2460727   -6.9001378    19.049716  0.029952383  0.038870719            1 
   54000    1.2179703   -6.9163432    19.519377  0.030122495  0.038845172            2 
   55000     1.232836    -6.918068    19.892031  0.030139441  0.038805258            1 
   56000     1.248923   -6.9290587    20.455029   0.03043903  0.038776777            2 
   57000    1.2826132   -6.9454248    20.840568  0.030468666  0.038746296            2 
   58000    1.2356452   -6.9389213    21.124869  0.030351823  0.038698024            4 
   59000     1.202661   -6.9632182    21.599819  0.030508219  0.038637819            2 
   60000    1.2442674   -6.9374786    22.043748  0.030616316   0.03858726            2 
   61000    1.2638003   -6.8724691     22.45742  0.030679535   0.03851671            3 
   62000    1.2205903   -6.9320041     22.78021  0.030618562  0.038440012            2 
   63000    1.2589043    -6.964394     23.40738  0.030962143  0.038386497            2 
   64000     1.196943    -6.947804    23.925713  0.031153272   0.03836333            1 
   65000    1.2378291   -6.9404681    24.248569  0.031087909  0.038331111            1 
   66000     1.222967   -6.9395335    24.779933  0.031287794  0.038293804       -1e+20 
   67000    1.2091855   -6.9055547     25.31448  0.031485672  0.038268743            1 
   68000    1.2245838   -6.9406207    25.628697  0.031407716  0.038239896            1 
   69000     1.217695   -6.9501906    26.129108  0.031556893  0.038207236            1 
   70000     1.233647   -6.9545556    26.547549  0.031604225  0.038183073            2 
   71000    1.2353958   -6.9662122    26.803293  0.031459264  0.038144554            1 
   72000    1.2481775   -6.9443238    27.223174  0.031508303  0.038091486            1 
   73000    1.2176225   -6.9113314    27.561163  0.031462515  0.038032947            1 
   74000    1.2291234   -6.9331584    28.036523  0.031572661  0.037971631            1 
   75000    1.2208892   -6.9425937    28.333578  0.031481753   0.03790138            1 
   76000    1.1959661   -6.9362341    28.755631  0.031530297  0.037822456            3 
   77000    1.2000735   -6.9445299    29.117672  0.031512632  0.037743922            2 
   78000    1.2284813   -6.9215457     29.67464  0.031703676  0.037679646            2 
   79000    1.2214412      -6.9048    30.231757  0.031890039  0.037628248            1 
   80000    1.2010744   -6.9398759    30.492587  0.031763111  0.037572052            1 
   81000    1.2156004   -6.9634949     30.89939  0.031789496  0.037516496            2 
   82000    1.2105554   -6.9030549     31.37282  0.031882947  0.037469404            1 
   83000    1.2098058   -6.9353089    31.758122  0.031885664   0.03741924            1 
   84000    1.2010662   -6.9026074    32.538822  0.032280577  0.037380867            1 
   85000    1.2009352   -6.9009601      32.9891  0.032342255  0.037354396            2 
   86000    1.2570293   -6.9438486    33.312609   0.03227966  0.037333685            2 
   87000    1.2241598   -6.9473431    33.755311  0.032332673  0.037311297            2 
   88000    1.2104467   -6.9062103    34.025968   0.03222156  0.037289361            1 
   89000    1.1864969   -6.9112251    34.489878  0.032293893  0.037260757            1 
   90000    1.2058704   -6.9228833    34.916487   0.03233008  0.037225306            1 
   91000     1.226093   -6.9168103     35.39761  0.032415393  0.037195822            1 
   92000    1.2158122    -6.936075      35.6409  0.032283424  0.037162441            1 
   93000    1.2427462   -6.9550733    36.426771  0.032640476  0.037138172       -1e+20 
   94000    1.2084703   -6.9381137    36.827355  0.032648365  0.037129077            4 
   95000    1.2125854   -6.9327803    37.510223  0.032903704  0.037124729            2 
   96000    1.1897194   -6.9212311    37.914316  0.032911733  0.037120067            2 
   97000    1.1974558   -6.9424261    38.284615  0.032890563  0.037120968            1 
   98000    1.2276569   -6.9306535    38.963109  0.033131895   0.03712993            1 
   99000    1.1921437   -6.9801982    39.344923  0.033118622  0.037140972            5 
  100000    1.2212981   -6.9345919    39.825787  0.033188155  0.037153238            1 
  101000    1.2292465   -6.9569474    40.164448  0.033138983   0.03715228            3 
  102000    1.1917812   -6.9502481    40.608234  0.033176662  0.037151363            1 
  103000    1.1925906   -6.9490807    41.152047  0.033294537  0.037154343            1 
  104000    1.2106937    -7.004557     41.53306  0.033279696  0.037157469            1 
  105000    1.2035409   -6.9474879    42.023433  0.033351931  0.037163492            1 
  106000    1.1889549   -6.9428715    42.725238  0.033589024  0.037179407            1 
  107000    1.2137216   -6.9451509    43.199764  0.033644676  0.037195078            2 
  108000    1.1885682   -6.9887124     43.61909  0.033656705  0.037212264            2 
  109000    1.1886736   -6.9921274    44.138998  0.033745411  0.037227024            2 
  110000    1.1852633   -6.9227206    44.511878  0.033721119  0.037236542            1 
  111000    1.1895299   -6.9791425    44.664728  0.033532078  0.037246427            1 
  112000    1.1924765   -6.9667052    45.235674  0.033657495  0.037247868            1 
  113000     1.221248   -6.9023705    45.775116   0.03375746  0.037248986            1 
  114000    1.2218744   -6.9521863    46.170065  0.033750047  0.037257182            2 
  115000    1.1990625   -6.9117443    46.605019  0.033771753  0.037264412            1 
  116000     1.204578   -6.9674489     46.71671  0.033560855  0.037266727            1 
  117000    1.2157147   -6.9991288    47.168313  0.033595664  0.037261128            1 
  118000    1.2108259   -6.9509995    47.679794  0.033672171  0.037255352            2 
  119000    1.2169616   -6.9466729     48.51337  0.033972948  0.037253903            2 
  120000    1.2201734   -6.9415636    48.749313   0.03385369  0.037254388            2 
  121000    1.2125279   -6.9802978    48.775976   0.03359227  0.037243599            1 
  122000    1.2217899   -6.9540289    49.068633  0.033516826  0.037225778            2 
  123000    1.1902056   -6.9968784    49.364814  0.033444996  0.037205328            1 
  124000    1.2105876   -6.9543879    49.850715  0.033501824   0.03718013            1 
  125000    1.1935771   -6.9622464    50.286309  0.033524206  0.037160839            1 
  126000    1.1921476   -6.9601838    50.660289  0.033505482  0.037135849            2 
  127000    1.2121943   -6.9335558    51.002217  0.033466022  0.037110511            1 
  128000    1.1764909   -6.9560461    51.320491  0.033411778  0.037085225            1 
  129000    1.2023218    -6.977248    51.816522  0.033473206  0.037055767            1 
  130000    1.2148018   -6.9433771    52.351045  0.033558362  0.037029902            1 
  131000    1.1944362   -6.9634846    52.755943   0.03355976  0.037007704            1 
  132000    1.1850937   -6.9913979    53.227687  0.033603337  0.036987555            2 
  133000    1.1946313   -6.9944292    53.606427  0.033587987  0.036966836            1 
  134000    1.1965401   -6.9936792    54.185656  0.033697547  0.036944208            1 
  135000    1.2125948   -6.9814696    54.614016  0.033712355  0.036927171            2 
  136000    1.2245315   -6.9561415    55.109211  0.033767899  0.036909858            2 
  137000    1.1953094   -6.9367511    55.688088  0.033873533  0.036899367            3 
  138000    1.2040302    -6.975027    56.237865  0.033960063  0.036887967            3 
  139000    1.1975765   -7.0129711    56.124498   0.03364778  0.036871639            1 
  140000    1.2261473   -6.9852804    56.511274  0.033637663  0.036850047            1 
  141000    1.1990973   -6.9560866    57.019221  0.033699303  0.036831728            2 
  142000    1.1877615   -6.9321995    57.537918  0.033766384   0.03681209            1 
  143000    1.1725977   -7.0049028    57.754689  0.033656578  0.036792718            2 
  144000    1.1923548   -6.9588194    57.838828  0.033471544  0.036763572            2 
  145000    1.2158339   -6.9854268     58.39199  0.033558615  0.036736534            3 
  146000    1.1921639   -6.9749964    58.835863  0.033582113  0.036709016            2 
  147000    1.1797557   -6.9941365    59.334676  0.033636438  0.036684417            2 
  148000    1.1963101   -6.9665405    59.852146  0.033700532  0.036664077            1 
  149000    1.2029032   -6.9696888     60.40382  0.033782897  0.036644682            1 
  150000    1.2301884    -6.991961    60.755075   0.03375282  0.036623673            1 
  151000    1.2086739   -7.0127138    60.764079   0.03353426  0.036600227            4 
  152000    1.1633009   -6.9708227    61.193299  0.033548958  0.036572223            2 
  153000      1.20984   -6.9886978     61.45074  0.033469902  0.036543014            1 
  154000    1.1921269   -7.0131876    61.802715  0.033443027  0.036513453            1 
  155000    1.2270139   -7.0045833    62.325059  0.033508096  0.036486382            1 
  156000    1.1789532   -7.0100265    62.709567    0.0334987  0.036458707            1 
  157000    1.1969507   -6.9886326     63.30871  0.033603349  0.036432859            3 
  158000    1.1887427   -7.0146923    63.345782  0.033410223  0.036407792            1 
  159000    1.1805615   -6.9801528    64.068087  0.033578662  0.036382179            3 
  160000    1.1816259    -7.061335    64.384934   0.03353382  0.036356579            2 
  161000    1.2051614   -6.9905876    64.869393   0.03357629  0.036332956            1 
  162000    1.1705151   -6.9740358     65.13265  0.033504449  0.036307801            2 
  163000    1.1554911   -7.0053315     65.61379  0.033544883  0.036281729            1 
  164000    1.1794579   -6.9871597     66.08012  0.033577297  0.036258645            2 
  165000    1.1828126   -7.0546539    66.158935  0.033413604  0.036234333            2 
  166000    1.1778451   -6.9911105    66.919614  0.033594184  0.036210074            3 
  167000    1.2081187   -7.0072655    67.197979  0.033531925  0.036185417            2 
  168000    1.1759121   -7.0010751    67.952651  0.033706672  0.036162632            2 
  169000    1.2209598   -7.0069644    67.933382  0.033497723  0.036141242            1 
  170000     1.195961   -6.9647128    68.630651  0.033642476  0.036121307            2 
  171000    1.2222399   -6.9913295    68.945762  0.033599299   0.03609933            1 
  172000    1.1879212    -6.977309    69.345671  0.033597709  0.036076849            1 
  173000    1.1533004   -6.9830623    69.558271  0.033505911  0.036052744            3 
  174000    1.2125048   -7.0321632    69.943345   0.03349777  0.036030592            1 
  175000    1.1745727   -7.0230142    70.348629  0.033499347  0.036009657            1 
  176000    1.1855997   -7.0221923    70.968202  0.033602368  0.035987459            2 
  177000     1.188577   -7.0025891    71.173729  0.033509289  0.035965533            1 
  178000    1.1947826   -6.9900203    71.935689  0.033677757  0.035946575            1 
  179000    1.1780781   -7.0581729    72.137885  0.033583745  0.035930136            2 
  180000    1.1848744   -6.9966918    72.811768  0.033709152  0.035916899            2 
  181000    1.1640515   -7.0449586    72.845905   0.03353863  0.035905011            2 
  182000    1.1754289   -7.0157025    73.711308  0.033750599  0.035893205            2 
  183000    1.1781044   -7.0581155    73.925035  0.033663495  0.035878499            2 
  184000    1.1969816   -7.0528405    74.547362  0.033762392   0.03586484            1 
  185000    1.1865413   -7.0054363     74.68205  0.033640563  0.035850946            1 
  186000    1.1794091   -7.0163311    75.167195  0.033677058  0.035834529            3 
  187000    1.1863006   -7.0102829    75.550726  0.033667881  0.035819119            1 
  188000     1.179238   -6.9988078    75.752595  0.033578278  0.035803583            1 
  189000    1.1433129   -6.9992393    76.136836  0.033570033  0.035785931            1 
  190000    1.1576725   -7.0061744     76.47185  0.033540285  0.035770016            1 
  191000    1.1695206   -7.0076158    76.631586  0.033434374  0.035751218            1 
  192000    1.1774456   -7.0334153    77.213331   0.03351273  0.035732519            2 
  193000    1.1799211    -7.036551    77.627858  0.033518073  0.035712099            1 
  194000    1.1894173   -7.0646098    77.944941  0.033481504  0.035692042            2 
  195000    1.1645233   -7.0264709    77.913788  0.033296491  0.035669001            1 
  196000    1.1749893   -7.0469574    78.169127  0.033235173  0.035641218            2 
  197000     1.162741    -7.030858    78.750696  0.033312477  0.035614295            3 
  198000    1.1758943   -7.0050391    78.866647  0.033193033   0.03558642            1 
  199000    1.1407221    -7.055664    79.422469   0.03325899  0.035557591            3 
  200000    1.1708948   -7.0264628    79.754703  0.033231126  0.035530984            2 
  201000    1.2141322   -7.0544802    80.263933  0.033276921  0.035506356            4 
  202000    1.1971156   -7.0426946    80.581278  0.033243101  0.035482211            2 
  203000    1.1770911   -7.0522391    81.114308  0.033298156  0.035457822            1 
  204000    1.1680746   -7.0583773     81.12573  0.033139596  0.035434379            1 
  205000    1.1709299    -7.024259    81.632833  0.033184078  0.035409497            1 
  206000    1.1561796   -7.0285205    82.039514  0.033187506  0.035386795            1 
  207000    1.1712281   -7.0059195    82.921693  0.033382324  0.035362569            2 
  208000    1.1727929   -7.0041211      82.7614  0.033157612  0.035339138            2 
  209000    1.1824215   -7.0601915    83.592001  0.033330144  0.035318585            1 
  210000    1.1889117    -7.043327    84.072526  0.033362113  0.035299162            2 
  211000    1.1790837   -7.0254005    84.422644  0.033342276  0.035278558            2 
  212000    1.1911192   -7.0391246     84.71013  0.033298007  0.035258002            2 
  213000    1.1680852   -7.0531375    84.818487  0.033184072  0.035236199            1 
  214000    1.1731234   -7.0551995    85.438476  0.033270434  0.035214552            1 
  215000     1.190361   -6.9922269    85.636054  0.033192269  0.035192532            1 
  216000     1.184782     -7.03564     85.84586  0.033119545  0.035169064            1 
  217000    1.1699525   -7.0328259    86.345095  0.033158639  0.035145171            2 
  218000    1.1975801   -7.0703388    86.792969   0.03317774  0.035123762            1 
  219000    1.1831248   -7.1019348    87.197817  0.033180295   0.03510437            2 
  220000    1.1739161   -7.0343574    87.885841  0.033290091  0.035086046            3 
  221000    1.1710048   -7.0560936    87.712386  0.033074052  0.035066841            3 
  222000    1.1493177   -7.0684151    88.268325  0.033133756  0.035044291            2 
  223000    1.1737473   -7.0226836    88.709056  0.033149872  0.035022171            1 
  224000    1.1441383   -7.1136669     88.71529    0.0330042  0.034999744            3 
  225000    1.1536167   -7.0569906    88.964284  0.032949735  0.034976061            1 
  226000    1.1612381   -7.0185504    89.712423  0.033079802  0.034954801            2 
  227000    1.1310135   -7.0573599    90.289141  0.033145793  0.034933972            3 
  228000    1.1379723   -7.0580452    90.501444  0.033078013  0.034914459            1 
  229000    1.1834003    -7.026257    90.774108   0.03303279  0.034894365            4 
  230000    1.1782583   -7.0693809    91.410801  0.033119855  0.034874304            3 
  231000    1.1267946   -7.0653917    91.720643  0.033088255  0.034853835            1 
  232000    1.1689441    -7.074568    91.751913  0.032956865  0.034831646            5 
  233000    1.1411902    -7.050135    92.129728  0.032950546  0.034810242            1 
  234000    1.1811704   -7.0489517    93.020545  0.033126975  0.034789231            1 
  235000    1.1497451   -7.1122086    93.171123  0.033039405  0.034770684            2 
  236000    1.1765127   -7.0606179    93.484147  0.033009939  0.034751514            1 
  237000    1.1707998   -7.0613565    93.818609  0.032988259  0.034730308            1 
  238000    1.1829441   -7.1202957    93.864424  0.032865695  0.034708929            2 
  239000    1.1738494     -7.03753    94.545499  0.032965655  0.034686493            1 
  240000    1.1422778   -7.0919634    94.699763  0.032881862  0.034664689            1 
  241000    1.1598161   -7.0469051    95.131267  0.032894629  0.034642952            1 
  242000    1.1478344   -7.0598325    95.501099  0.032886053  0.034621837            2 
  243000    1.1521359   -7.0871114    96.005749  0.032923782  0.034601312            2 
  244000    1.1674291   -7.0512178    96.637458  0.033004596  0.034583497            2 
  245000    1.1510923    -7.045352    97.063303  0.033014729  0.034563885            1 
  246000    1.1828739   -7.0728128    96.836969  0.032803851  0.034543591            2 
  247000    1.1638435   -7.0846352    97.282717  0.032821429  0.034522156            1 
  248000      1.14329   -7.1029262    97.779017  0.032855852  0.034500367            3 
  249000    1.1390614   -7.0699611    98.074578  0.032822817  0.034477429            2 
  250000    1.1382214   -7.1163576    98.063164  0.032687721  0.034455026            3 
  251000    1.1370772   -7.1155204    98.666169  0.032757692  0.034431918            1 
  252000     1.172303   -7.0922336    99.164026  0.032792337  0.034410489            3 
  253000    1.1823633   -7.0821281    99.430823    0.0327506  0.034388336            3 
  254000    1.1327028    -7.078385    99.950718   0.03279223  0.034367275            2 
  255000    1.1655263   -7.0923161    100.27391   0.03276925  0.034347282            1 
  256000    1.1308661   -7.1292539    100.23811  0.032629595  0.034326579            1 
  257000    1.1352533    -7.102586    100.87594  0.032709449  0.034306584            2 
  258000    1.1772571   -7.1083973    101.36161  0.032739537  0.034286651            1 
  259000    1.1427707   -7.1016583    101.02876  0.032506035  0.034265346            2 
  260000    1.1600542   -7.1665208    101.49238   0.03252961  0.034241677            2 
  261000    1.1564817   -7.0488181    102.48667  0.032722436  0.034219804            1 
  262000    1.1346546   -7.1034275    102.95591  0.032746791  0.034199401            2 
  263000    1.1617293   -7.1223843     102.6877  0.032537293  0.034178488            2 
  264000    1.1414826   -7.0772656    103.65321  0.032718815  0.034156703            1 
  265000    1.1180077   -7.1521076    103.10085  0.032421651  0.034133868            3 
  266000    1.1663847   -7.1191236    103.62451  0.032463818  0.034109975            2 
  267000    1.1344169   -7.1196602    103.77596    0.0323895  0.034085401            1 
  268000    1.1479147   -7.0585293    104.75182  0.032572084  0.034062328            2 
  269000    1.1490708   -7.0671621    105.07645  0.032551566  0.034039642            2 
  270000    1.1487493   -7.1158611    104.68878  0.032311351  0.034017982            1 
  271000    1.1480101   -7.1176934    105.02633   0.03229592  0.033994606            2 
  272000    1.1439117   -7.0981913     105.9249  0.032452481  0.033971425            2 
  273000    1.1464715   -7.0868072    106.04092  0.032369023  0.033947834            2 
  274000    1.1562218   -7.0999862    106.26807  0.032319974  0.033924989            3 
  275000    1.1393685    -7.104727    106.79245  0.032361349  0.033902937            4 
  276000    1.1370132   -7.0759397    107.12846   0.03234555  0.033879507            2 
  277000    1.1108664   -7.1332036    107.21195  0.032253896  0.033855069            2 
  278000    1.1362772   -7.1170209    107.44874  0.032208855  0.033831667            2 
  279000    1.1515594   -7.1008752    108.08737  0.032284161  0.033809499            3 
  280000    1.1477539   -7.1257985    108.54407  0.032304784  0.033787553            1 
  281000    1.1162601   -7.1188339    109.21354  0.032388356  0.033765998            1 
  282000    1.1321394   -7.0975827    109.19873  0.032269127  0.033744653            3 
  283000    1.1284468   -7.0996645    109.84484  0.032345358  0.033724086            1 
  284000      1.16454   -7.1132765    110.33313  0.032374745   0.03370484            2 
  285000    1.1303861   -7.0946107    110.84176  0.032409872  0.033686165            1 
  286000    1.1653401   -7.1159697    111.06534  0.032361695  0.033667352            2 
  287000    1.1195411   -7.0747114    111.22121  0.032294196  0.033647212            2 
  288000    1.1046149   -7.1075752     111.7288  0.032328935  0.033627673            1 
  289000    1.1231182   -7.1032726    111.84465  0.032250475  0.033607826            1 
  290000    1.1703666   -7.1467778    112.20674  0.032243317  0.033588226            3 
  291000    1.1363106   -7.1371559    112.29649  0.032158216   0.03356772            1 
  292000    1.1615808    -7.071272    112.43866  0.032088658  0.033548113            1 
  293000    1.1526361    -7.158924    112.79254  0.032079791  0.033528093            2 
  294000    1.1397259   -7.1108007    113.31616  0.032119092  0.033506616            2 
  295000    1.1464198   -7.1846255    113.29597  0.032004512   0.03348357            2 
  296000    1.1439904   -7.1260949    113.55046  0.031968035  0.033461105            3 
  297000    1.1402707   -7.1026466    114.57115  0.032146787  0.033438469            1 
  298000    1.1463681   -7.1234007     114.3446  0.031975559  0.033417154            3 
  299000     1.098297   -7.1047812    115.26352  0.032124727   0.03339504            2 
  300000    1.1311626   -7.0992801    115.76827  0.032157853  0.033374706            1 
  301000     1.137597    -7.101564     116.2662  0.032188872  0.033355217            4 
  302000    1.1351509   -7.1618645     115.6668  0.031916887  0.033334593            1 
  303000    1.1378722   -7.1196401    116.69177  0.032093445  0.033313664            1 
  304000    1.1417556    -7.156862    116.38053  0.031902556  0.033293498            3 
  305000    1.1451101   -7.0714759    117.26185  0.032038757  0.033274355            1 
  306000    1.1446122   -7.1183486    117.87445  0.032100885  0.033257209            1 
  307000    1.1181348    -7.119201    118.22985  0.032092794  0.033239742            2 
  308000    1.1048544   -7.1408686    118.57238  0.032081272  0.033221336            3 
  309000    1.1269989   -7.0819505    119.22512  0.032153483  0.033203782            1 
  310000    1.1197448   -7.1766705    119.72457  0.032184023   0.03318738            2 
  311000    1.1772489   -7.1475219    119.68917  0.032071054  0.033169569            2 
  312000    1.1126361   -7.1092108     119.9602  0.032040651  0.033152122            2 
  313000    1.1593893   -7.1201299    120.23547  0.032011574  0.033135704            2 
  314000    1.1279082   -7.1675664    120.69787  0.032032344  0.033119383            1 
  315000     1.126729   -7.1400759    121.28551  0.032086113  0.033102877            2 
  316000    1.1270333   -7.1234918    121.71982  0.032099108   0.03308603            1 
  317000     1.090596   -7.1334494      122.009  0.032073869  0.033069424            1 
  318000    1.1152859   -7.1417976    122.06287  0.031987126  0.033052486            1 
  319000     1.118219   -7.1409436    122.48759  0.031997804  0.033034971            1 
  320000    1.1070218    -7.167597    122.62975  0.031934832  0.033018392            1 
  321000    1.1174123   -7.1829381    123.21131  0.031986322  0.033001658            3 
  322000    1.1382267   -7.1288305    123.34061  0.031920449  0.032985271            2 
  323000     1.133091   -7.1169733    124.01029  0.031994398    0.0329697            3 
  324000    1.1310257   -7.1530123    124.18885  0.031941575  0.032953204            1 
  325000    1.1137735   -7.1673096    124.26864  0.031863754  0.032936484            3 
  326000    1.1390933   -7.1727278    124.58165  0.031846024  0.032918994            2 
  327000    1.1269623   -7.1657549    124.84577  0.031815945  0.032901563            2 
  328000    1.1221121   -7.1316958    125.05732  0.031772693  0.032884019            2 
  329000    1.1190391   -7.1425362    125.01093  0.031664368   0.03286436            1 
  330000    1.1192233   -7.1475426    125.10617  0.031592466  0.032844183            1 
  331000    1.1079622   -7.0890172    125.83111  0.031679534  0.032822417            3 
  332000    1.1181372   -7.1420252    125.85465  0.031590023  0.032801348            1 
  333000    1.1432791   -7.1748988    125.97463  0.031525184   0.03278032            3 
  334000    1.1262147   -7.1757832    126.14396  0.031473043  0.032757793            1 
  335000    1.1208175   -7.1774464    126.32562  0.031424284  0.032735169            1 
  336000    1.1173904   -7.1465593    126.77332  0.031441797  0.032712889            2 
  337000    1.1070919   -7.2046198    126.72495  0.031336535   0.03269037            1 
  338000    1.1583247   -7.1571867     127.7715  0.031501849  0.032667776            1 
  339000     1.115993    -7.148121    127.90188  0.031440973  0.032644999            2 
  340000    1.1137511   -7.1667621    128.40382  0.031471525  0.032622258            2 
  341000    1.1365879    -7.135766    128.39113  0.031376132  0.032600071            1 
  342000    1.1258313    -7.144443    128.93455    0.0314168  0.032578493            1 
  343000    1.1243047   -7.1750126    128.79818  0.031292074  0.032556306            3 
  344000    1.0841438   -7.1986095     129.3109  0.031325314  0.032534927            7 
  345000    1.1160174   -7.1872153    129.69958    0.0313284  0.032512652            2 
  346000    1.0955022   -7.1774478    129.52916  0.031196811  0.032490581            2 
  347000    1.1057901   -7.1606198    130.43459  0.031324349  0.032468617            2 
  348000    1.1026299   -7.1650709    131.32589  0.031447771  0.032447031            2 
  349000    1.1174764   -7.1933421    130.49801  0.031159984  0.032425803            3 
  350000    1.1348504   -7.1483106    131.18424  0.031234344  0.032403775            1 
  351000    1.1161126    -7.113379    131.73732  0.031276665   0.03238138            3 
  352000     1.091478   -7.1353975    131.90462   0.03122742  0.032360127            1 
  353000    1.1137356   -7.1830995    131.87352  0.031131615  0.032338409            2 
  354000    1.1045501   -7.1581092    132.20302  0.031121239  0.032316606            2 
  355000    1.1131614   -7.1712227    132.87118  0.031190418  0.032294524            1 
  356000    1.1056948   -7.1504978    133.12953   0.03116328  0.032273029            2 
  357000    1.0989729   -7.1402144    133.60816  0.031187712  0.032251684            4 
  358000    1.1043167   -7.2121012    132.88846  0.030933067  0.032230759            2 
  359000    1.1058115   -7.1891207    133.56707  0.031004426  0.032207681            1 
  360000    1.1137129   -7.1732573    134.06282   0.03103306  0.032184748            2 
  361000     1.108215    -7.149125    134.52525  0.031053844  0.032162603            4 
  362000    1.0982234   -7.2329234    134.10082  0.030870355  0.032140077            2 
  363000    1.1134954   -7.2288218    134.16926  0.030801023  0.032116639            3 
  364000    1.1019321   -7.2140993    134.96715  0.030899073  0.032092563            2 
  365000    1.1164607   -7.1885505    135.30458  0.030891457  0.032068426            4 
  366000     1.083691   -7.1930672    135.31949  0.030810449  0.032045013            2 
  367000    1.1067538   -7.1677034    135.83458  0.030843457  0.032021818            2 
  368000    1.1097831   -7.2100592    135.95907  0.030787833  0.031998573            2 
  369000    1.0798204   -7.1644489     136.7686  0.030887217  0.031975913            1 
  370000    1.1098649   -7.1925458    137.07955  0.030873771  0.031953961            1 
  371000    1.1218283   -7.1701151    137.31276  0.030842939  0.031932007            1 
  372000    1.1112889   -7.1962567    137.97759  0.030908959  0.031910308            2 
  373000    1.1304158    -7.163168    138.00518  0.030832257  0.031889378            2 
  374000    1.1029965   -7.1527306    138.63787   0.03089079  0.031868081            2 
  375000    1.1135994   -7.1557585    138.70694  0.030823764  0.031846762            2 
  376000    1.1111843   -7.1767973    139.06933  0.030822104  0.031825804            2 
  377000    1.1055735   -7.1726374    139.76269   0.03089361  0.031805536            1 
  378000    1.0943859   -7.1293075    140.70224  0.031019011  0.031786046            1 
  379000    1.1088768   -7.1754397    140.52041  0.030897189  0.031767429            1 
  380000     1.091967   -7.2301882     140.8861  0.030896075   0.03174887            2 
  381000    1.1081674   -7.2401591    140.38016  0.030704321  0.031729515            2 
  382000     1.081031   -7.2163398    141.23001  0.030809339  0.031708544            2 
  383000    1.1077375   -7.1830429    141.53348  0.030794926  0.031688424            6 
  384000    1.0992519   -7.2203936     141.8627  0.030786177  0.031668877            2 
  385000    1.1007722   -7.1803872    141.97439  0.030730387   0.03164882            3 
  386000    1.1189729   -7.1938465    142.24859  0.030709972  0.031629182            1 
  387000    1.0988115   -7.1834339    142.15795  0.030611101   0.03160977            4 
  388000     1.104306   -7.1569299    143.46469  0.030812862  0.031590783            2 
  389000    1.0882453   -7.1719656    143.34449  0.030707902  0.031572523       -1e+20 
  390000    1.0920559   -7.2133061    143.34549  0.030629378  0.031553381            9 
  391000    1.0819142   -7.1755997    144.52817  0.030803105  0.031534538            1 
  392000    1.1266278   -7.2141811     143.9227  0.030595813   0.03151485            1 
  393000    1.1151519   -7.2006152    144.50937  0.030642361  0.031496448            1 
  394000    1.0764905   -7.2064249    144.98306  0.030664776  0.031478145            1 
  395000    1.0515879   -7.2426475    145.19495  0.030631846  0.031459814            1 
  396000    1.0722307   -7.2281203    145.81778   0.03068556   0.03144139            1 
  397000     1.120099   -7.2115879    146.38088  0.030726465  0.031424018            2 
  398000     1.132775   -7.2021641    146.68664  0.030713283  0.031407234            1 
  399000    1.0818081   -7.2185017    147.00117  0.030701998   0.03139072            2 
  400000    1.0957025   -7.2055862    147.38736    0.0307057  0.031374239            2 
  401000    1.1057544   -7.2004434     147.5992   0.03067315  0.031358118            3 
  402000    1.0769351   -7.2384824    147.77535  0.030633364  0.031341205            3 
  403000    1.0878409   -7.2128813    148.27661  0.030661002  0.031324001            2 
  404000    1.0998712   -7.2038111    148.25501  0.030580653  0.031307257            1 
  405000    1.0725332   -7.2339023    149.06904  0.030672643  0.031291048            1 
  406000    1.0753734   -7.2258061    149.44435  0.030674127  0.031274902            1 
  407000    1.0732028   -7.2006944    149.61667  0.030634045  0.031259359            4 
  408000    1.0851223   -7.2002954    150.29422   0.03069735  0.031244028            4 
  409000    1.0907219    -7.183761    150.64391  0.030693542  0.031228524            1 
  410000    1.0677782   -7.2388896    150.09706  0.030507533  0.031212712            2 
  411000    1.1075675   -7.1877217    150.57612  0.030530438  0.031196567            3 
  412000     1.094728   -7.2040779    151.31883   0.03060656  0.031180913            1 
  413000    1.0871047   -7.1909423     151.6077  0.030590739   0.03116555            1 
  414000    1.1020994   -7.2408239    151.10502  0.030415664  0.031149356            2 
  415000    1.1016648   -7.2297838    151.94295  0.030510632  0.031133078            2 
  416000    1.0673411   -7.2727569    151.77278  0.030403201  0.031116146            2 
  417000    1.0761992   -7.2496834    152.44442  0.030464513  0.031099301            4 
  418000    1.0791026   -7.2357634    152.73098   0.03044876  0.031082597            1 
  419000    1.0839985    -7.185183    153.38197  0.030505563  0.031065964            2 
  420000    1.0829011   -7.1879047    154.13961  0.030583257  0.031050005            2 
  421000    1.1024655   -7.2074193    153.95813  0.030474688  0.031035262            2 
  422000    1.0869884    -7.222226    154.51204  0.030511856  0.031020697            1 
  423000    1.0960156   -7.2370595    154.58988   0.03045506  0.031006189            1 
  424000    1.0807248   -7.2095726    155.24328  0.030511651  0.030991395            1 
  425000    1.0757768     -7.20836    155.52564  0.030495224  0.030977159            2 
  426000    1.0629908   -7.2471862    155.65404  0.030448756  0.030962632            4 
  427000    1.0579395   -7.2054792    156.49106    0.0305408  0.030948296            1 
  428000    1.0798074    -7.243912    156.88125  0.030545415  0.030934252            1 
  429000    1.0681958   -7.2257436    157.13799  0.030524085  0.030920592            4 
  430000    1.0914534   -7.2046956    156.80056  0.030387705  0.030905854            6 
  431000    1.0684723   -7.2465032    156.63302  0.030284806  0.030890586            3 
  432000    1.1074988   -7.2754481    156.80766  0.030248392  0.030874878            1 
  433000    1.1029759   -7.2233187    157.74207  0.030358365    0.0308592            1 
  434000    1.0623459   -7.2351424    157.96984  0.030332151   0.03084426            2 
  435000    1.0924829   -7.2630384    157.99677   0.03026758  0.030828896            2 
  436000    1.0606475   -7.2290711    158.71544   0.03033552  0.030813704            1 
  437000    1.0574049   -7.2725606    158.86351  0.030294338   0.03079892            2 
  438000    1.0984881   -7.2606603    158.48257  0.030152696   0.03078385            2 
  439000    1.0598955   -7.2117976    159.52626  0.030282129  0.030768295            1 
  440000    1.1067656   -7.2319527    159.57866  0.030223232  0.030752998            3 
  441000    1.0848068   -7.2411298    159.31627  0.030105115   0.03073673            1 
  442000    1.0889939   -7.2456816    159.84893   0.03013743   0.03072012            2 
  443000    1.0585149   -7.2762723    160.20367   0.03013613  0.030704278            1 
  444000    1.0707084   -7.2736625    160.45622  0.030115657  0.030688603            2 
  445000    1.1065041   -7.2424739    160.85328  0.030122337  0.030673082            1 
  446000    1.0663072   -7.2523255    160.83676  0.030051711  0.030657333            3 
  447000    1.0440439   -7.2772628    161.21139  0.030054324  0.030641141            1 
  448000    1.0719357   -7.2785521    161.39952  0.030022232  0.030625438            2 
  449000     1.073943   -7.2634033    161.50641  0.029975207  0.030609256            1 
  450000    1.0813294   -7.2622717    161.79399   0.02996185   0.03059357            1 
  451000    1.0432685   -7.2519131     162.3117  0.029991075  0.030577738            2 
  452000    1.0473706   -7.2709236    162.82131  0.030018679  0.030561386            1 
  453000    1.0866655   -7.2776105    162.59489   0.02991076  0.030545173            2 
  454000    1.0777556   -7.2794547    162.87721  0.029896697  0.030528438            3 
  455000    1.0668097   -7.2888405    163.38068  0.029923202  0.030512171            1 
  456000    1.0539977   -7.2682357    163.87038  0.029947072  0.030495964            2 
  457000    1.0613959   -7.2702345    163.55564  0.029824149  0.030479337            2 
  458000     1.079851   -7.2447429    164.21535  0.029879066  0.030462292            3 
  459000    1.0660976   -7.2658937     163.6872  0.029718083  0.030445086            1 
  460000    1.0550231   -7.2538462    164.29832  0.029764189  0.030427567            1 
  461000    1.0542548   -7.2789711    164.69518  0.029771362  0.030410405            2 
  462000    1.0625343   -7.2683201    165.15381  0.029789649  0.030393733            3 
  463000    1.0752319   -7.2710564    165.53973  0.029794767  0.030376923            2 
  464000    1.0683996   -7.2925276    165.64419  0.029749316  0.030359784            4 
  465000    1.0850411   -7.2357818    166.56615  0.029850564  0.030342992            3 
  466000    1.0608863   -7.2465457    167.05704  0.029874293  0.030326383            1 
  467000    1.0738707   -7.2650662    166.94897  0.029791036  0.030310524            3 
  468000    1.0529485   -7.2763657    166.76546  0.029694704  0.030294339            2 
  469000    1.0948653     -7.29048    166.95461  0.029664997  0.030277559            2 
  470000     1.065942   -7.2779186    167.47198  0.029693614  0.030260293            1 
  471000    1.0631051   -7.2740694    167.54277  0.029643094  0.030243761            3 
  472000    1.0335736   -7.2678294    167.84581  0.029633793   0.03022697            3 
  473000    1.0629825   -7.2783498    167.83948  0.029570029  0.030209879            2 
  474000    1.0730082    -7.282366    168.18121  0.029567724  0.030193076            1 
  475000    1.0659269    -7.272149    168.85525  0.029623728  0.030176793            2 
  476000    1.0570681   -7.2477642      169.006  0.029587885  0.030160364            2 
  477000    1.0437702   -7.2945109     168.9828  0.029521804  0.030143721            1 
  478000    1.0466966    -7.268548    170.28729  0.029687463  0.030127307            2 
  479000    1.0419149   -7.2561955    170.77902  0.029711034  0.030111071            3 
  480000    1.0784162   -7.2664398     170.5396   0.02960757   0.03009542            1 
  481000    1.0387497   -7.3062012    170.06079  0.029463061  0.030078945            1 
  482000    1.0471965   -7.2853076    170.97114  0.029559326  0.030062334            1 
  483000    1.0487262   -7.3151069    170.40836  0.029401028  0.030045239            1 
  484000    1.0796728   -7.2974464    170.72143  0.029394186  0.030028377            2 
  485000    1.0647276   -7.2976905    171.03745  0.029387879  0.030011036            3 
  486000    1.0377485    -7.309016    171.74592  0.029448889  0.029993583            3 
  487000    1.0462168   -7.2864014    171.29356  0.029311013  0.029975442            1 
  488000    1.0686841   -7.2801915     171.6293  0.029308282   0.02995809            2 
  489000    1.0703299   -7.2982833    172.39437  0.029378727  0.029940467            1 
  490000    1.0812883   -7.2884288    172.04179  0.029258807  0.029923658            1 
  491000    1.0501354    -7.286274    173.07573    0.0293747  0.029907043            2 
  492000    1.0560926   -7.3042872    173.54224   0.02939401  0.029890289            2 
  493000    1.0568226    -7.291413    173.72839  0.029365854  0.029873959            2 
  494000    1.0625531   -7.2696158    173.95487  0.029344614  0.029857895            2 
  495000    1.0547166   -7.3401755    174.14273  0.029316957  0.029841661            2 
  496000    1.0555264   -7.2918811    174.30757  0.029285547  0.029825144            2 
  497000    1.0632327   -7.3072083    174.87689  0.029322081  0.029808971            4 
  498000    1.0444485   -7.2877961     174.7799  0.029246971  0.029792855            2 
  499000    1.0520125   -7.2897376    176.27837  0.029438605  0.029776878            2 
  500000    1.0337796   -7.2942601    175.56102   0.02926017  0.029760914            3 
  501000    1.0469075    -7.275049    175.60829   0.02920963  0.029744803            1 
  502000    1.0554291   -7.3001498    176.02536  0.029220677  0.029728246            1 
  503000    1.0464405   -7.3006356    176.39641  0.029224058  0.029711954            2 
  504000    1.0501095   -7.3245841    175.77508   0.02906334  0.029695386            1 
  505000    1.0516484   -7.3159365     176.7879  0.029172921  0.029678877            4 
  506000     1.041737   -7.2776675    177.19081  0.029181622  0.029662477            2 
  507000    1.0649915   -7.2995853    177.59267  0.029190117  0.029645798            1 
  508000      1.03008   -7.3050957    177.20316  0.029068759  0.029629299            2 
  509000    1.0802878   -7.3125398    178.18164  0.029171847  0.029612952            1 
  510000    1.0452974   -7.2696879    179.03311  0.029253776  0.029597325            2 
  511000    1.0598098   -7.2759494    178.84229   0.02916541  0.029581991            3 
  512000    1.0364364   -7.3064744     179.5414  0.029222233   0.02956641            1 
  513000    1.0676876   -7.3277527    179.23644  0.029115732  0.029551297            1 
  514000    1.0468458   -7.2955447    180.26432  0.029225733  0.029536546            1 
  515000    1.0445211   -7.3056122    180.20441  0.029159289  0.029521618            2 
  516000    1.0642874   -7.2878848    180.17379  0.029097835  0.029506335            1 
  517000    1.0507049   -7.2959784    180.77395  0.029138289  0.029490922            4 
  518000    1.0061604   -7.2887542    181.51472   0.02920121  0.029475848            3 
  519000    1.0403863   -7.2610489    181.40385  0.029127144  0.029461336            3 
  520000    1.0431176   -7.3122385    181.40519  0.029071344  0.029446738            1 
  521000     1.063325   -7.3121911       181.42  0.029017915   0.02943206            2 
  522000    1.0454673   -7.3382921    181.73536   0.02901267  0.029416881            3 
  523000    1.0458873   -7.3055815    181.86378  0.028977658  0.029401252            1 
  524000    1.0435709   -7.3290973    182.04586  0.028951313  0.029385441            3 
  525000    1.0335355   -7.3235674    182.02159  0.028892316  0.029369157            3 
  526000    1.0206733   -7.3262022    182.51167  0.028915029  0.029353158            1 
  527000    1.0308641    -7.317506    182.61216  0.028876053  0.029337539            3 
  528000    1.0264078   -7.3029978    183.17904  0.028910834  0.029321144            2 
  529000     1.027931   -7.3510303    182.70903  0.028782141  0.029305186            3 
  530000    1.0525134   -7.2827079    182.92858  0.028762355  0.029288636            1 
  531000    1.0452611   -7.3086145    183.97498  0.028872408  0.029272298            1 
  532000     1.051189   -7.3037488     183.9203  0.028809571  0.029255986            2 
  533000    1.0526323   -7.3194285    184.45876  0.028839705  0.029239371            3 
  534000    1.0431218   -7.2873538    184.48898  0.028790415  0.029223033            1 
  535000      1.05566   -7.3207418    184.50222  0.028738663   0.02920624            3 
  536000    1.0378558   -7.3321298    184.66227   0.02870993  0.029190333            2 
  537000    1.0737084   -7.2978305     185.6824  0.028814773  0.029174934            3 
  538000    1.0439541   -7.3398788    185.32892  0.028706463  0.029159013            3 
  539000    1.0399738   -7.3398699    185.60391  0.028695718  0.029142765            2 
  540000    1.0421309   -7.3922708    185.49966   0.02862649  0.029126495            1 
  541000    1.0616695   -7.3470468    186.03267   0.02865568  0.029110135            2 
  542000    1.0314079    -7.301879    186.71876  0.028708297  0.029093883            2 
  543000     1.037517   -7.3356918    186.38883  0.028604792  0.029077733            2 
  544000     1.045382   -7.3324564    186.89672  0.028630012  0.029061502            1 
  545000    1.0410035    -7.329334    186.99594  0.028592652  0.029045756            1 
  546000    1.0412381   -7.3963937    186.84952  0.028517936  0.029029403            2 
  547000    1.0449302   -7.3471125    187.34843  0.028541808  0.029012686            2 
  548000    1.0264463   -7.3335273    187.52013  0.028515835  0.028995942            1 
  549000    1.0409957   -7.3559732      188.024  0.028540376  0.028979244            1 
  550000    1.0385186   -7.3478292    188.01642  0.028487336  0.028962624            2 
  551000    1.0584102   -7.3255839    188.78766  0.028552278  0.028945967            2 
  552000     1.033802   -7.3653966    188.45035   0.02844963  0.028929404            1 
  553000    1.0271103   -7.3567675    187.95041  0.028322846  0.028912611            4 
  554000    1.0369044   -7.3375632    188.45392  0.028347461  0.028895561            3 
  555000    1.0372597   -7.3338699    188.87337  0.028359365  0.028878153            2 
  556000    1.0085551   -7.3678261    189.34601  0.028379199    0.0288609            1 
  557000    1.0353212   -7.3287629    189.49011  0.028349808  0.028843825            3 
  558000    1.0386892   -7.3541871    189.43344  0.028290538  0.028827176            2 
  559000    1.0323587   -7.3262368    189.95524  0.028317717  0.028810102            1 
  560000    1.0025219   -7.3818065    190.16462  0.028298306  0.028793114            1 
  561000    1.0577274   -7.3419035    190.66327  0.028321935  0.028776535            2 
  562000    1.0059456   -7.3732503    190.45681  0.028240926  0.028759631            1 
  563000    1.0180173    -7.339662    191.35344  0.028323481  0.028742811            2 
  564000    1.0213337   -7.3452052    191.27962  0.028262356  0.028726397            4 
  565000    1.0117045   -7.3705111    192.01009  0.028320072  0.028709866            2 
  566000    1.0225485   -7.3260064    192.49877  0.028341986  0.028693934            1 
  567000    1.0213143   -7.3571451    192.81773  0.028338879  0.028677993            1 
  568000    1.0225553   -7.3694773     192.7002  0.028271743  0.028661727            1 
  569000    1.0181233    -7.344929    193.41526  0.028326781  0.028645707            1 
  570000    1.0344678   -7.3524781    193.66788  0.028314017  0.028629675            1 
  571000    1.0526182   -7.3737799     193.9765  0.028309472  0.028613799            2 
  572000    1.0080644   -7.3591297    193.55375  0.028198391  0.028598107            1 
  573000    1.0417449   -7.3574999    193.65424  0.028163792  0.028582231            3 
  574000    1.0426711   -7.3615075    194.44844  0.028230029  0.028566478            6 
  575000    1.0455411   -7.3983534    193.93897  0.028107098   0.02855067            2 
  576000    1.0556845   -7.3727575    194.79812  0.028182598  0.028535227            2 
  577000    1.0147515   -7.3429778    194.82557   0.02813772  0.028519525            2 
  578000    1.0122093   -7.3912015    194.42872  0.028031822  0.028503442            1 
  579000    1.0155374   -7.3912874    195.08714  0.028078173  0.028487688            2 
  580000    1.0352224   -7.3775978    195.72976  0.028122092  0.028472395            1 
  581000    1.0470339   -7.3516831    196.23973  0.028146835  0.028457207            1 
  582000    1.0314987   -7.3959355    196.03984  0.028069851  0.028441343            1 
  583000    1.0026595   -7.3517247    196.13952  0.028035952  0.028425236            2 
  584000    1.0257664   -7.3958161    196.82616  0.028085924  0.028409105            1 
  585000    1.0267532   -7.4154411    195.90218  0.027906294   0.02839254            2 
  586000    1.0086587   -7.3948901    196.27892  0.027912247  0.028376229            3 
  587000    1.0464561   -7.3728953    196.71863   0.02792712  0.028359694            2 
  588000    1.0160553    -7.432467     196.3629   0.02782921  0.028342633            2 
  589000    1.0393795   -7.4200084    196.53464   0.02780626  0.028324907            4 
  590000    1.0183072   -7.3708637    196.88619  0.027808784  0.028307846            2 
  591000    1.0400702   -7.3876648    197.47395  0.027844607  0.028291007            3 
  592000    1.0141282   -7.3467126    197.49036  0.027799882  0.028274118            1 
  593000    1.0249352   -7.3858042    198.10993  0.027840068  0.028257558            2 
  594000    1.0208535   -7.3922034    198.51379  0.027849858  0.028241243            3 
  595000     1.011132    -7.390336     198.6296  0.027819272   0.02822501            2 
  596000    1.0322503    -7.407812     198.3477  0.027733179  0.028208419            3 
  597000    1.0092776   -7.3748295    198.47226  0.027704113  0.028191704            1 
  598000    1.0142432    -7.397343    199.04147  0.027737106  0.028175077            1 
  599000    1.0390089   -7.3905498    199.34186   0.02773259  0.028158832            2 
  600000    1.0080028   -7.3538933    199.68127   0.02773351  0.028142237            2 
  601000   0.99659727   -7.3700796    199.98482  0.027729454   0.02812613            2 
  602000    1.0088294   -7.4026476    200.19249  0.027712139  0.028109886            2 
  603000     1.025317   -7.3826409    200.86209  0.027758719  0.028093504            1 
  604000   0.99936175   -7.4078952    200.76938   0.02769997  0.028077231            2 
  605000    1.0110458    -7.397896     201.3816  0.027738512  0.028060927            2 
  606000    1.0271845    -7.347474    201.81208  0.027751936  0.028044984            3 
  607000    1.0046082   -7.4319682    201.90624  0.027719143  0.028028695            1 
  608000   0.99876355   -7.3527581    201.68154  0.027642755  0.028012426            4 
  609000    1.0249521   -7.3906248     201.9702  0.027636864  0.027996286            1 
  610000   0.99758248   -7.3765535    202.20352  0.027623432  0.027980734            2 
  611000     1.006421   -7.3890913     202.6844  0.027643808  0.027964454            3 
  612000    1.0010977   -7.3864025    203.27529  0.027679097  0.027948693            2 
  613000    1.0138296   -7.3959252    202.57821   0.02753918  0.027932862            1 
  614000    1.0169218    -7.363164    203.43507  0.027610623  0.027916954            1 
  615000    1.0047476   -7.3774711    203.55825  0.027582419  0.027901496            2 
  616000   0.99119312   -7.4389122    203.63428  0.027547927  0.027885465            2 
  617000   0.99005933   -7.3816898    204.12305  0.027569293  0.027869952            2 
  618000   0.99805773   -7.4068905    204.33615  0.027553418  0.027854398            1 
  619000    1.0166724    -7.422339    204.07245  0.027473405  0.027838448            4 
  620000    1.0086703   -7.4238255    204.39719   0.02747274  0.027822596            3 
  621000    1.0300964   -7.4055671    205.52137  0.027579357  0.027806756            1 
  622000    1.0335763   -7.4445029     204.2872  0.027369668  0.027790916            1 
  623000    1.0124184   -7.4235854    205.27444   0.02745779  0.027775037            1 
  624000    1.0015572   -7.4131629    205.70754  0.027471626  0.027759221            1 
  625000   0.99257731    -7.421459    206.03907  0.027471876  0.027743573            1 
  626000     1.000024   -7.4253464    205.86748  0.027405149  0.027727983            2 
  627000    1.0192576   -7.4499732    205.95662  0.027373288  0.027712295            2 
  628000    1.0072847   -7.4380074     207.1692  0.027490605  0.027696572            1 
  629000    1.0069458   -7.4342164    207.19222  0.027449949  0.027681054            2 
  630000     1.017702   -7.4315745    207.16121  0.027402277  0.027665309            2 
  631000    1.0117383    -7.410211    207.07705  0.027347735  0.027649784            2 
  632000    1.0092298   -7.4311756     207.2036   0.02732115  0.027634052            3 
  633000   0.99025555   -7.4327761    207.73106  0.027347428  0.027618086            4 
  634000     1.004846   -7.4109871    207.84423  0.027319168  0.027602183            2 
  635000    1.0008436   -7.4150406    207.18611  0.027189778  0.027585922            5 
  636000    1.0012078   -7.4204033    207.89647  0.027240104  0.027569486            3 
  637000    1.0072806   -7.4162323    207.10135  0.027093321  0.027552806            1 
  638000    1.0067814   -7.3932957    208.43075  0.027224497  0.027536391            1 
  639000    1.0014484   -7.4099572    208.02895  0.027129492  0.027519699            1 
  640000   0.98145639   -7.4104239    208.03949  0.027088475  0.027503085            2 
  641000    1.0115601   -7.4265917    208.15235  0.027060888  0.027486174            2 
  642000   0.99854158   -7.4112192    209.12758  0.027145325  0.027469357            2 
  643000    1.0047183   -7.4432087    208.19616  0.026982396  0.027452573            1 
  644000   0.99994219   -7.3911379    208.66908  0.027001693  0.027435724            2 
  645000    1.0050694   -7.4518053    208.33615  0.026916815  0.027418658            1 
  646000     1.002735    -7.411129    209.04192  0.026966192   0.02740142            1 
  647000    1.0051769   -7.4242357    209.32897  0.026961485  0.027384445            2 
  648000    0.9891111   -7.4445396    209.71319  0.026969289  0.027367472            3 
  649000   0.98353737     -7.45446    209.25031  0.026868299  0.027350317            3 
  650000   0.99540153   -7.4785925    209.49947  0.026858906  0.027332922            1 
  651000   0.98604122   -7.4216483    210.13551  0.026899067   0.02731546            1 
  652000   0.99189543    -7.456661    209.52908  0.026780302  0.027298136            3 
  653000   0.97325379    -7.413187    210.21239  0.026826491  0.027280994            2 
  654000   0.98353907   -7.4832545    209.95302  0.026752424  0.027263529            1 
  655000   0.98244956    -7.419483    211.09638  0.026857046  0.027246364            2 
  656000   0.98277383   -7.4569541     210.6695  0.026761877  0.027229272            1 
  657000    1.0053382   -7.4909941    211.39938  0.026813721  0.027211968            1 
  658000   0.99442752    -7.456497    211.46514  0.026781299  0.027194733            1 
  659000   0.99466725   -7.4603498    210.82994  0.026660336  0.027177527            1 
  660000   0.99694944   -7.4160433    211.97966  0.026765108  0.027160738            2 
  661000    1.0078294   -7.4666873    212.42933  0.026781308  0.027143909            1 
  662000   0.99272444   -7.4497748    212.49704  0.026749376  0.027126957            2 
  663000    1.0005084   -7.4537537    212.42525  0.026700006  0.027109841            2 
  664000   0.96827152   -7.4633748    212.01355  0.026608126   0.02709246            1 
  665000   0.99803286   -7.4655005      212.035  0.026570802  0.027075229            3 
  666000    1.0127419   -7.4466918    212.58893  0.026600217  0.027057905            1 
  667000   0.98670474   -7.4626038     212.6603  0.026569253  0.027040401            2 
  668000   0.98077594   -7.4600815    212.60353  0.026522397  0.027022972            5 
  669000   0.96857126    -7.402289    213.29306  0.026568643  0.027005671            2 
  670000   0.98804044   -7.4697318    213.73465  0.026583912  0.026988355            2 
  671000   0.97100709   -7.4238157        214.2  0.026602086  0.026971065            1 
  672000   0.97087323   -7.4740289     213.8654  0.026521007  0.026954052            2 
  673000     1.003963   -7.4761232    214.02167   0.02650095   0.02693683            2 
  674000   0.94865182   -7.4790057    214.19771  0.026483397  0.026919403            1 
  675000   0.95022344   -7.4490075    214.99214  0.026542239  0.026902029            2 
  676000     1.001018   -7.4554244     214.9583  0.026498805  0.026884579            2 
  677000   0.98045664   -7.4717234    214.15116   0.02636031  0.026866793            2 
  678000   0.97683914   -7.5034227    213.98999  0.026301622  0.026849136            2 
  679000    0.9753911   -7.4798656      215.636  0.026464899  0.026831477            1 
  680000   0.99296089   -7.4648568    215.25473  0.026379256  0.026814323            2 
  681000    1.0051318    -7.474904    215.82652  0.026410489  0.026797469            2 
  682000   0.96920388   -7.4648096    215.97683  0.026390131  0.026780781            2 
  683000   0.97883782   -7.4661932    216.09133  0.026365463  0.026764071            1 
  684000   0.96353283   -7.4597935    217.28639  0.026472514  0.026747113            1 
  685000   0.99351243   -7.4485405    216.77181  0.026371266  0.026730468            6 
  686000   0.97022647    -7.475401    216.82477  0.026339258  0.026713878            3 
  687000   0.99380865   -7.4814494    216.63833  0.026278302  0.026696683            2 
  688000   0.99513608      -7.4854    216.84253  0.026264842  0.026679438            3 
  689000    0.9622024   -7.4558767    217.27858   0.02627946  0.026662125            2 
  690000   0.96608958   -7.4599764    216.53865  0.026152011   0.02664494            2 
  691000   0.96797683   -7.4754784    217.66662  0.026250195  0.026627884            2 
  692000   0.97911234   -7.5200538    217.52469   0.02619517  0.026610693            3 
  693000   0.96520973    -7.486913    217.67539  0.026175492  0.026593321            2 
  694000   0.99687189   -7.4676711    217.76006  0.026147942   0.02657607            2 
  695000   0.97747751    -7.458897    217.96943  0.026135423  0.026558385            2 
  696000   0.96021694   -7.4675735    218.25191  0.026131694  0.026540814            1 
  697000   0.97672236   -7.4954805    218.98964  0.026182405  0.026523518            1 
  698000   0.99048103   -7.4826326    219.14823  0.026163829  0.026506358            1 
  699000    1.0018289    -7.492189    218.93028  0.026100415  0.026489316            4 
  700000   0.98610803   -7.5144194    218.07051  0.025960774  0.026472234            3 
  701000   0.96766682   -7.4694691    219.04864  0.026040019  0.026454995            1 
  702000    1.0006558   -7.5036442    219.55904  0.026063513  0.026437684            2 
  703000   0.98312451   -7.4813556    219.57815  0.026028704  0.026420276            2 
  704000   0.97795876    -7.521627    219.67711  0.026003445  0.026402872            2 
  705000   0.96302655   -7.4970545    219.45303  0.025940075  0.026385287            1 
  706000   0.98216432   -7.5211099      219.798   0.02594405  0.026367975            1 
  707000   0.96547033   -7.5210453    220.41202  0.025979729   0.02635066            1 
  708000   0.95634099    -7.480331    220.36277  0.025937238   0.02633316            3 
  709000   0.95714464   -7.4597537     220.4659  0.025912776  0.026315792            1 
  710000   0.97070975    -7.506269    220.93318  0.025931125  0.026298866            3 
  711000   0.95137981   -7.5056894    221.14935   0.02591999  0.026282016            1 
  712000    1.0043858   -7.4997349    220.91206  0.025855812  0.026264756            3 
  713000    0.9737796   -7.5068588    220.95274  0.025824303  0.026247286            3 
  714000   0.96180726   -7.4942818    221.05745  0.025800356  0.026229681            2 
  715000   0.98103819   -7.5126542    221.45423  0.025810516  0.026212282            1 
  716000   0.97907059   -7.5162444    221.08599   0.02573161  0.026194641            2 
  717000   0.94126855   -7.5196532    220.89104  0.025673064  0.026176931            1 
  718000   0.98273711   -7.4929331    221.29651  0.025684368  0.026158834            3 
  719000   0.96238239   -7.5173186    221.31132  0.025650362  0.026140624            2 
  720000   0.96870863    -7.501754    221.55971  0.025643485  0.026122211            2 
  721000   0.97429753   -7.4921014    222.03032  0.025662312  0.026104154            2 
  722000   0.96763437   -7.4826435    222.35315   0.02566403  0.026086107            2 
  723000   0.97619844   -7.4947006      222.238   0.02561526  0.026068302            1 
  724000   0.96133462   -7.4843627    222.37142  0.025595237   0.02605055            3 
  725000   0.96743723   -7.4698585    222.70168  0.025597894  0.026032865            1 
  726000   0.94946537   -7.5022935    222.55293  0.025545561  0.026015097            5 
  727000   0.96919068   -7.4922466    222.85398  0.025544931  0.025996984            2 
  728000   0.95541807   -7.5051595    223.02078  0.025528936  0.025978909            2 
  729000   0.99525993   -7.5127678    223.02501    0.0254944  0.025960756            3 
  730000   0.94448877   -7.5109103    223.19145  0.025478476   0.02594284            2 
  731000   0.95744262   -7.4933016    223.25472  0.025450835  0.025924942            2 
  732000   0.98457514   -7.4896637    223.42258  0.025435175  0.025906843            1 
  733000   0.95354838   -7.5111472       223.22  0.025377444  0.025888812            1 
  734000   0.94878482   -7.5426919    223.45039  0.025369027  0.025870692            1 
  735000   0.95126287   -7.5203422     223.7148  0.025364489  0.025852717            1 
  736000    0.9676783   -7.5104974    224.50895  0.025419944  0.025834627            1 
  737000   0.96519225   -7.5076405    224.14299  0.025344074  0.025816575            2 
  738000   0.93320651   -7.5095568    225.06674   0.02541404  0.025798587            3 
  739000    0.9790167   -7.4806672    225.32023  0.025408235  0.025780698            1 
  740000   0.97534854   -7.5017352    224.61813  0.025294835  0.025763027            3 
  741000   0.95611587   -7.5161898    225.62094  0.025373475  0.025745314            4 
  742000   0.93464635   -7.5529181    224.94349  0.025263195  0.025727449            1 
  743000   0.95874626   -7.5557105    225.28048   0.02526699  0.025709729            3 
  744000   0.96719392   -7.5341943    226.22873  0.025339239  0.025692111            2 
  745000   0.95574835   -7.5119321    227.09148  0.025401732  0.025674776            2 
  746000   0.93248774   -7.5252554    227.09947  0.025368574  0.025657652            3 
  747000   0.95547176   -7.5207847    226.40361  0.025256985   0.02564042            2 
  748000   0.95462246   -7.5323841     227.1479  0.025306138  0.025623103            1 
  749000     0.969024   -7.5658502    226.63424  0.025215202  0.025605609            3 
  750000   0.96732051   -7.5142426    227.04991  0.025227768  0.025588272            2 
  751000   0.96026002   -7.5471992    226.82423  0.025169133  0.025570955            3 
  752000   0.94151029   -7.5640957    227.57972  0.025219384  0.025553693            2 
  753000   0.98297162   -7.5306638    227.97777  0.025229944  0.025536424            2 
  754000   0.95824828   -7.5352632    227.58183  0.025152722  0.025519046            4 
  755000   0.96331734   -7.5466508    227.91347  0.025156013  0.025501691            1 
  756000   0.96274576   -7.5535747    228.44126  0.025180915  0.025484448            3 
  757000   0.94449874   -7.5214191    229.01284  0.025210573  0.025467656            2 
  758000   0.96286355   -7.5640803    228.70492   0.02514346  0.025450708            1 
  759000   0.96298999   -7.5277807    228.42724  0.025079847  0.025433765            3 
  760000   0.94696523   -7.5656188     228.0694   0.02500761  0.025416481            2 
  761000   0.94305834    -7.556333    228.61288  0.025034262  0.025399299            1 
  762000   0.96409402   -7.5786789    228.74721  0.025016099  0.025381746            4 
  763000   0.94107279   -7.5365166    229.02529  0.025013684  0.025364266            1 
  764000    0.9813283    -7.598394    229.25047  0.025005505   0.02534697            1 
  765000   0.94461064   -7.5636812    229.64544  0.025015843  0.025329955            3 
  766000   0.95833681   -7.5682297    229.56628  0.024974574   0.02531289            3 
  767000   0.96558805   -7.5249952    230.24881  0.025016168  0.025296009            1 
  768000   0.94652531   -7.5552463    229.70323  0.024924396  0.025278959            2 
  769000   0.96398591   -7.5920708     229.7522  0.024897291  0.025261861            2 
  770000   0.93931457   -7.5813123    229.63234  0.024851985  0.025244438            2 
  771000   0.94215123   -7.5723508    230.25019  0.024886532  0.025227082            2 
  772000   0.94579097   -7.5783185    230.05905  0.024833662  0.025209779            2 
  773000   0.94166099   -7.5555868    230.52094   0.02485133   0.02519242            2 
  774000   0.93557756   -7.5334082    231.02134  0.024873099  0.025174987            1 
  775000   0.93647143   -7.5477076    230.82146  0.024819512  0.025157814            3 
  776000   0.93060834   -7.5478745     230.5847  0.024762103  0.025140572            1 
  777000   0.92095415   -7.5287992     230.9638  0.024770892  0.025123169            2 
  778000   0.94544365   -7.5938162    230.63882  0.024704244  0.025105813            2 
  779000   0.93269315   -7.5601673    230.98865  0.024709954  0.025088374            1 
  780000   0.97409674   -7.5535921    231.67489  0.024751591   0.02507086            3 
  781000   0.94325167   -7.5489356    231.41959  0.024692658  0.025053529            2 
  782000   0.93139705   -7.5626537    231.99791   0.02472271  0.025036189            2 
  783000   0.93500089   -7.5289526    232.25089   0.02471806  0.025018867            2 
  784000   0.94129277   -7.5515223    231.61413  0.024618849  0.025001493            4 
  785000   0.97029749   -7.5454491    232.18028  0.024647588  0.024984021            2 
  786000   0.92843966   -7.5114843    232.70948  0.024672336  0.024966637            2 
  787000   0.93677975   -7.5940686    232.36419  0.024604425  0.024949294            1 
  788000   0.95197479   -7.5533718    232.52906  0.024590637  0.024931792            2 
  789000    0.9439593   -7.5902323    231.85783  0.024488575    0.0249142            2 
  790000   0.94390452   -7.5656276    232.47587  0.024522771  0.024896736            3 
  791000    0.9393325   -7.5985709    233.32931  0.024581681  0.024879303            3 
  792000   0.92804314   -7.5614898    233.71705  0.024591441  0.024862028            2 
  793000   0.93669217   -7.5772699      233.369  0.024523855  0.024844875            2 
  794000   0.94215985   -7.5660957    234.10136  0.024569832  0.024827694            3 
  795000   0.93470312   -7.5415613    233.78617  0.024505888  0.024810866            4 
  796000   0.93423555   -7.5314828    234.50436  0.024550288  0.024794076            1 
  797000    0.9345875   -7.5669445    234.67269  0.024537086  0.024777152            1 
  798000   0.91256734   -7.5815554    234.78634  0.024518206  0.024760238            2 
  799000    0.9467734   -7.5721294    234.70324  0.024478853  0.024743407            2 
  800000   0.93857466   -7.5772369    235.23526  0.024503672  0.024726651            1 
  801000   0.93657948   -7.5622683    235.46609  0.024497096  0.024710073            5 
  802000   0.92368615   -7.5918447    235.01277  0.024419448  0.024693263            1 
  803000   0.94537449   -7.5728468    235.59914   0.02444989  0.024676448            2 
  804000   0.94504732   -7.5871652    235.53435  0.024412764  0.024659806            2 
  805000   0.92310141   -7.5865211    235.28305  0.024356423   0.02464307            1 
  806000   0.93568871   -7.5776155     236.0428  0.024404756  0.024626204            2 
  807000   0.92052307   -7.5948758    235.81243  0.024350726  0.024609326            1 
  808000   0.93562535   -7.6148114    236.16233  0.024356676  0.024592606            3 
  809000   0.93289096   -7.5182052    237.34039  0.024447919  0.024576156            2 
  810000    0.9137952   -7.5959734    236.04722  0.024284693  0.024559544            2 
  811000   0.93044994   -7.5849039    236.83845  0.024336051    0.0245427            4 
  812000   0.92460968   -7.6209425    235.72578  0.024191891  0.024525709            2 
  813000   0.91435011   -7.5664697      236.784  0.024270603  0.024508811            2 
  814000   0.93199702   -7.6006322    236.05583  0.024166239  0.024491765            4 
  815000   0.93838749   -7.5922441    237.57842  0.024292272  0.024474637            2 
  816000   0.93641127    -7.576855    236.83844  0.024186932  0.024457604            1 
  817000   0.92250913   -7.5870185     237.1274  0.024186801   0.02444058            1 
  818000   0.93832093   -7.5692405    236.43911  0.024087114  0.024423541            1 
  819000   0.94217359   -7.5640816    236.92833  0.024107481  0.024406352            2 
  820000   0.92525015   -7.5829391    237.25124  0.024110899  0.024389173            1 
  821000   0.91388426   -7.6252425    237.38554  0.024095163  0.024371946            2 
  822000   0.92220829   -7.6276064    237.35436  0.024062689  0.024354848            2 
  823000   0.92864314   -7.6216088    237.76357  0.024074885  0.024337794            5 
  824000   0.92849654   -7.5978499    237.38832  0.024007718  0.024320553            3 
  825000   0.94539726   -7.5876738    238.83659  0.024124908  0.024303546            2 
  826000   0.90994851   -7.5845317     238.7401  0.024085966  0.024286798            3 
  827000   0.92966593   -7.6110513    238.94201  0.024077188  0.024270072            3 
  828000   0.94216886   -7.6023821    238.66104  0.024019831  0.024253469            4 
  829000   0.92934087   -7.6273887    238.79592  0.024004415  0.024236738            4 
  830000   0.91984484   -7.5982789    238.68002  0.023963857  0.024219889            2 
  831000   0.92864743   -7.6021128    238.92904  0.023959992  0.024203096            1 
  832000   0.92669371   -7.6260355    239.61404  0.023999804  0.024186178            3 
  833000   0.92768541   -7.5960619    239.30521  0.023940097  0.024169343            1 
  834000   0.93105142   -7.6102686    238.97203  0.023878101  0.024152625            1 
  835000     0.906433   -7.5789898    239.65824  0.023917988   0.02413594            2 
  836000   0.92733892   -7.6000085    239.76252  0.023899773  0.024119301            1 
  837000   0.90476687    -7.577875    239.98414  0.023893284  0.024102638            2 
  838000   0.92837242   -7.6521248    240.53444  0.023919494  0.024086103            1 
  839000   0.91010006   -7.6150733    240.64751  0.023902216   0.02406967            3 
  840000   0.89960245   -7.6547015    240.17758  0.023827141  0.024053268            1 
  841000   0.91472943    -7.663449    240.87594  0.023868008  0.024036765            3 
  842000   0.93073232   -7.6122365    240.88145  0.023840207  0.024020317            1 
  843000   0.92172482   -7.6599046    240.83281  0.023807118  0.024003785            2 
  844000   0.91621914   -7.6523119    240.86558  0.023782146  0.023987232            1 
  845000   0.91805094   -7.6352896    241.44684  0.023811325  0.023970915            3 
  846000   0.91134966   -7.6123366    241.39275  0.023777852  0.023954586            1 
  847000   0.93227583   -7.6376024     241.7695  0.023786846  0.023938293            1 
  848000   0.92514054   -7.6210041        242.3  0.023810928  0.023922051            1 
  849000   0.92565773   -7.6107753    242.21738  0.023774773  0.023905867            3 
  850000    0.9046979   -7.6582423    242.41629  0.023766303  0.023889769            2 
  851000   0.91737699   -7.6038463    242.95763  0.023791386  0.023873666            1 
  852000   0.90065716   -7.5879973    242.72777  0.023740979  0.023857691            1 
  853000   0.92544661   -7.6032269    243.16144  0.023755514  0.023841864            2 
  854000    0.9177458   -7.6179765    242.87626   0.02369987  0.023826055            2 
  855000   0.88374537   -7.5968475    243.67886  0.023750376  0.023810254            3 
  856000   0.91019349   -7.6448573    243.31854  0.023687552  0.023794398            3 
  857000   0.91237493   -7.5839672    243.90557  0.023716994  0.023778463            1 
  858000   0.90694328   -7.6299117    244.29986  0.023727648  0.023762599            1 
  859000   0.91474957   -7.6315189    243.46858  0.023619381  0.023746821            2 
  860000   0.92335282   -7.6634271    243.45884  0.023590973  0.023730711            3 
  861000   0.90588031    -7.655931    243.13367  0.023532101   0.02371441            3 
  862000   0.88414799   -7.6228882    244.51063  0.023637919  0.023698274            1 
  863000   0.91021163   -7.6219133    244.39225  0.023599097  0.023682333            3 
  864000     0.922827    -7.629829    244.98559  0.023629011  0.023666402            2 
  865000   0.92125611   -7.6697474    244.18583  0.023524646  0.023650506            2 
  866000   0.91079947   -7.6860136    244.37008  0.023515212  0.023634557            2 
  867000   0.92003749   -7.6520246     244.1079   0.02346289  0.023618554            2 
  868000   0.86051675   -7.6577766    244.46505  0.023470147  0.023602474            2 
  869000   0.91061188   -7.6339434    244.93539  0.023488242  0.023586514            1 
  870000   0.92213885   -7.6821425    244.76404  0.023444831   0.02357046            2 
  871000   0.89379006   -7.6760789    244.80616  0.023421944  0.023554354            1 
  872000   0.89894943   -7.6534597    245.00453  0.023414041   0.02353839            1 
  873000     0.909239   -7.6226772    244.61709  0.023350238   0.02352237            2 
  874000   0.90755468   -7.6562514    244.78103  0.023339152  0.023506257            2 
  875000   0.91956777   -7.6411906    245.02997  0.023336188  0.023490048            1 
  876000   0.89803697   -7.6598965    245.31737  0.023336888   0.02347378            2 
  877000   0.91766566   -7.6164008    246.02611  0.023377623  0.023457564            1 
  878000    0.8991443   -7.6666525    245.60951  0.023311457  0.023441353            2 
  879000   0.89359206    -7.657412    245.98203  0.023320253   0.02342499            4 
  880000   0.91127886    -7.620519    245.74857  0.023271645  0.023408754            1 
  881000   0.91061314   -7.6405634    246.18916  0.023286905  0.023392474            2 
  882000   0.87884569   -7.6534251    245.68682  0.023213041  0.023376132            3 
  883000   0.90591266   -7.6437125    245.87105  0.023204138  0.023359897            2 
  884000   0.91302562   -7.6683455    245.77385  0.023168726  0.023343455            2 
  885000   0.89463472   -7.6460945    246.64585  0.023224657  0.023327335            2 
  886000   0.92332761   -7.6440565    246.07336  0.023144598  0.023310983            5 
  887000   0.89787455   -7.6595293    245.94635  0.023106572  0.023294508            2 
  888000   0.90717057    -7.684866    245.88159  0.023074473  0.023277942            2 
  889000   0.90038775   -7.7049497    246.10626  0.023069578  0.023261291            2 
  890000   0.88417276   -7.6448177    246.58837  0.023088799  0.023244743            1 
  891000   0.89316049   -7.6530957    246.73592  0.023076685  0.023228116            2 
  892000    0.9010358   -7.6644195    246.30602  0.023010652  0.023211688            4 
  893000    0.8843427   -7.6281331    246.68795  0.023020525   0.02319519            1 
  894000   0.88528865   -7.6593044     246.5287  0.022979931  0.023178769            3 
  895000    0.9136742   -7.6606322    246.70099  0.022970297  0.023162146            3 
  896000   0.90389861   -7.6533239     246.4841  0.022924488  0.023145501            2 
  897000   0.88535523   -7.6878845    246.65035  0.022914376  0.023128839            2 
  898000   0.90745771   -7.6938634     247.0948  0.022930104  0.023112203            3 
  899000   0.88849663   -7.6519187    247.24712  0.022918717  0.023095609            2 
  900000   0.88050479   -7.6718168    247.37362  0.022904965   0.02307916            4 
  901000   0.89952062   -7.6713464    248.06206  0.022943217  0.023062613            1 
  902000   0.90467276    -7.700103     246.9155  0.022811853  0.023045931            2 
  903000   0.90089137   -7.7159725    247.40293  0.022831573  0.023029282            2 
  904000   0.89235157    -7.668348    247.76449  0.022839647  0.023012652            2 
  905000   0.90319412   -7.6929404    248.16626  0.022851405  0.022996148            1 
  906000   0.90157532   -7.6806985    247.98685  0.022809681  0.022979801            2 
  907000   0.89173548   -7.6709409    248.41915  0.022824251  0.022963398            2 
  908000   0.90079635    -7.663672    248.39197   0.02279662  0.022946993            1 
  909000   0.87007677   -7.6754291    248.96795  0.022824345  0.022930723            2 
  910000   0.90057127    -7.659126    249.23283  0.022823519  0.022914567            3 
  911000   0.89668527   -7.6916716    248.88024  0.022766213  0.022898441            2 
  912000   0.89061702   -7.6882115    248.35316  0.022693088  0.022882296            2 
  913000   0.88389407   -7.6920122    249.34981  0.022759201  0.022866057            4 
  914000   0.89687259   -7.6988774    248.64445   0.02266999  0.022849989            2 
  915000   0.86765465   -7.7281095    248.66329   0.02264693  0.022833726            2 
  916000   0.89195611   -7.6916386    249.58591  0.022706142  0.022817427            2 
  917000   0.90385997   -7.7218987    249.24878  0.022650744  0.022801071            4 
  918000   0.90783503   -7.6862771    249.53559  0.022652105  0.022784711            3 
  919000   0.88980075   -7.7076052    249.92835  0.022663071  0.022768562            2 
  920000   0.88071345   -7.6589811     250.5496   0.02269471  0.022752447            1 
  921000   0.86660253   -7.7129577    250.29184  0.022646746  0.022736329            3 
  922000   0.87060432   -7.6838477    250.97982  0.022684365  0.022720429            1 
  923000   0.87553174   -7.6880996    250.45903  0.022612769  0.022704383            2 
  924000   0.86331819   -7.6993607    250.43096  0.022585765  0.022688412            2 
  925000   0.87633941    -7.721631    250.26769  0.022546639  0.022672363            2 
  926000   0.87408084   -7.6678248    250.95611  0.022584243   0.02265635            1 
  927000   0.89218697   -7.6836724    251.34037  0.022594424  0.022640481            1 
  928000   0.88665502   -7.7094727    251.20251  0.022557697  0.022624744            3 
  929000   0.90293564   -7.7277404    252.22969  0.022625556  0.022609035            1 
  930000   0.88261752   -7.6750614    251.83045  0.022565453  0.022593708            2 
  931000   0.87991019    -7.683515     252.4597  0.022597539  0.022578337            2 
  932000   0.89192378   -7.6841278    252.77595  0.022601569  0.022563032            1 
  933000   0.88111707   -7.6853548    252.59726  0.022561385  0.022547656            1 
  934000    0.9022827   -7.7224359    252.20941  0.022502624  0.022532233            2 
  935000   0.88097729   -7.7109956    252.83725  0.022534514  0.022516743            2 
  936000   0.87414225   -7.7473655    251.63112  0.022403056  0.022501205            2 
  937000   0.86801653   -7.7406581    252.95049  0.022496486   0.02248559            1 
  938000   0.87336983   -7.6965757    252.89339   0.02246743   0.02247002            2 
  939000   0.86949257   -7.7431161    252.58405  0.022416049  0.022454356            2 
  940000   0.87626322   -7.7458801    253.00479  0.022429502   0.02243875            2 
  941000   0.86791977   -7.7036614    252.63016   0.02237249  0.022423075            1 
  942000   0.89291784   -7.7220275    252.97201  0.022378982  0.022407554            2 
  943000   0.87805502   -7.6975447    253.38705  0.022391927  0.022392089            3 
  944000    0.8889101   -7.7225009    252.96201  0.022330686  0.022376561            1 
  945000   0.88146598   -7.7131547    253.18345  0.022326583  0.022360901            2 
  946000    0.8548942   -7.7208688     253.2057  0.022304942  0.022345214            1 
  947000   0.86987861   -7.7163195    253.64241  0.022319818  0.022329614            4 
  948000   0.86934415   -7.7150407    253.64198  0.022296236  0.022314082            3 
  949000   0.86321532   -7.7373482    254.20023  0.022321763  0.022298565            5 
  950000   0.87893144   -7.7039607    254.16416  0.022295102  0.022283131            2 
  951000   0.87811541   -7.7211836    254.33885  0.022286965  0.022267663            2 
  952000   0.87441964   -7.7618209    253.51511  0.022191449  0.022252107            1 
  953000   0.88393872   -7.7199798    253.74612  0.022188363  0.022236502            4 
  954000   0.85734513   -7.7259182     253.9694  0.022184609  0.022220935            4 
  955000   0.87936594   -7.7264661    254.32375    0.0221923  0.022205366            1 
  956000   0.84838042   -7.7002759    253.78749  0.022122341  0.022189674            3 
  957000    0.8634232    -7.719119    254.33099  0.022146551  0.022173996            2 
  958000   0.84531097   -7.7244024     253.8814  0.022084325  0.022158196            1 
  959000   0.86916815   -7.6972018    254.45742  0.022111351  0.022142496            4 
  960000   0.88260908   -7.7219991    255.03389  0.022138359  0.022126898            2 
  961000   0.87657296   -7.7235391    255.17304  0.022127388  0.022111275            2 
  962000   0.87688264   -7.7442676     254.8529  0.022076654   0.02209567            1 
  963000   0.85941475    -7.738405    255.16811  0.022081006  0.022080127            2 
  964000   0.85806762   -7.7270706    256.23595   0.02215041   0.02206476            2 
  965000   0.85208431   -7.7146126    256.33511   0.02213602  0.022049391            2 
  966000   0.87170045   -7.7414708    254.58029  0.021961723  0.022034079            1 
  967000   0.88389224   -7.7811995    255.37732  0.022007698  0.022018527            1 
  968000   0.86935459   -7.7464884     255.7204  0.022014497  0.022002917            2 
  969000   0.84888609   -7.7127178     255.9641  0.022012736  0.021987459            2 
  970000   0.85616814   -7.7265006    256.36522  0.022024504  0.021972063            2 
  971000   0.85391029   -7.7628629    255.72359  0.021946755  0.021956651            1 
  972000   0.86774548   -7.7542818     256.2136  0.021966187  0.021941151            3 
  973000   0.86624984   -7.7743336    255.72748  0.021901977  0.021925624            3 
  974000   0.86400724   -7.7675477    256.07098  0.021908879  0.021909993            2 
  975000   0.88275886   -7.7184429    255.93869  0.021875102  0.021894396            5 
  976000   0.88064654   -7.7062185    255.98677  0.021856794  0.021878947            2 
  977000   0.85828207   -7.7310726      256.171  0.021850136  0.021863512            2 
  978000   0.86115491   -7.7362141    256.46007  0.021852426  0.021848054            4 
  979000   0.84882079   -7.7375122     256.3693  0.021822378  0.021832505            2 
  980000   0.87379696   -7.7432351    256.35616  0.021798993  0.021816937            5 
  981000   0.84757843   -7.7579126    256.72272   0.02180791  0.021801284            2 
  982000   0.88553998   -7.7977881    256.06472  0.021729865   0.02178562            1 
  983000   0.85066866   -7.7759162    256.81436  0.021771309  0.021770057            2 
  984000   0.86012538   -7.7512015    256.57598  0.021728996  0.021754614            1 
  985000   0.85939872   -7.7604658    256.68075    0.0217158  0.021739028            2 
  986000    0.8785247   -7.7472796    257.12395  0.021731233  0.021723431            3 
  987000   0.85726653   -7.7360153    256.95219  0.021694714  0.021707912            3 
  988000   0.86766031   -7.7702914    257.48877  0.021718014   0.02169235            3 
  989000   0.87553786    -7.756442      257.845   0.02172607   0.02167685            4 
  990000   0.87742381   -7.7621777    257.39735  0.021666443  0.021661278            3 
  991000   0.88443532   -7.7550305    257.14619   0.02162346   0.02164585            2 
  992000   0.84894625   -7.7741535    257.03247  0.021592109  0.021630256            2 
  993000   0.87832192    -7.777521    257.81361  0.021635919  0.021614807            1 
  994000   0.84207425   -7.7345842    258.13881  0.021641416  0.021599271            3 
  995000   0.85973124   -7.7393842    257.63748  0.021577679  0.021583801            2 
  996000   0.85359344   -7.7956734    257.29373  0.021527254  0.021568102            4 
  997000   0.84583806   -7.7874731    257.63795  0.021534433  0.021552443            1 
  998000   0.88096397    -7.754316    258.02584  0.021545244  0.021536889            1 
  999000   0.86075871   -7.7901626    257.69154   0.02149579  0.021521366            2 
 1000000   0.85820213   -7.7764833    258.10129  0.021508441  0.021505962            2 
 1001000    0.8496263   -7.7661897    258.53756  0.021523273  0.021490619            1 
 1002000   0.82502876   -7.7842807     258.4461  0.021494187  0.021475303            2 
 1003000   0.86273026   -7.7853234    257.95921  0.021432304  0.021459844            5 
 1004000   0.85363563   -7.7965805    258.28271  0.021437808  0.021444352            5 
 1005000   0.84412955   -7.7814207    258.78875  0.021458437  0.021428917            2 
 1006000   0.83351267   -7.8013346    259.42688  0.021489967  0.021413551            5 
 1007000   0.85018639   -7.7975793    258.72724  0.021410728  0.021398136            2 
 1008000   0.83801519   -7.8234386    259.21731  0.021430002  0.021382774            2 
 1009000   0.85036183   -7.7805513    258.83829   0.02137746  0.021367541            1 
 1010000   0.83784225   -7.7482919    258.97196  0.021367323  0.021352202            3 
 1011000   0.85061718   -7.7762605     258.7044  0.021324134  0.021336742            1 
 1012000   0.84473701   -7.7864777    259.22906  0.021346266   0.02132129            2 
 1013000   0.86085338   -7.8139918     259.5487  0.021351489  0.021305936            2 
 1014000   0.86764011    -7.786264    258.87026  0.021274676  0.021290389            3 
 1015000   0.84820589   -7.7958098    258.95511  0.021260682  0.021274888            2 
 1016000   0.83686164   -7.7831703     258.9105  0.021236097  0.021259306            2 
 1017000   0.83685211   -7.8220577    258.79078  0.021205406  0.021243662            2 
 1018000    0.8447588   -7.8088363    259.00685  0.021202263  0.021228007            2 
 1019000   0.86597102   -7.8339289    259.36319  0.021210598  0.021212318            4 
 1020000   0.84921753   -7.7933183    259.43385  0.021195576  0.021196724            2 
 1021000   0.83565537   -7.7695649    259.41508  0.021173285  0.021181353            2 
 1022000   0.82524303   -7.7771458    260.56475  0.021246311  0.021165938            2 
 1023000   0.83404271   -7.7860834     259.2316  0.021116944  0.021150438            1 
 1024000   0.85430467   -7.8302283    259.14892  0.021089593  0.021134902            3 
 1025000   0.84091837   -7.8179252    259.86765  0.021127451  0.021119336            2 
 1026000   0.85709699   -7.7820984    259.83095  0.021103878  0.021103789            1 
 1027000   0.85891608   -7.8241486    259.80425  0.021081163  0.021088258            2 
 1028000    0.8225584   -7.8045984     260.0807  0.021083066  0.021072773            1 
 1029000   0.84944679   -7.7843505    260.00437  0.021056395   0.02105731            2 
 1030000   0.83022574    -7.799542     259.3283  0.020981254  0.021041861            3 
 1031000   0.83867821   -7.7702327     260.1981  0.021031208  0.021026384            2 
 1032000   0.82771277   -7.8207467    259.70302  0.020970851  0.021010802            6 
 1033000   0.83557283   -7.8169831    259.98435  0.020973245  0.020995112            2 
 1034000   0.85952287   -7.8059512    259.80926  0.020938851  0.020979544            2 
 1035000   0.83789538   -7.8100952    260.79803  0.020998231  0.020963865            1 
 1036000   0.85695101   -7.8135796    260.13093  0.020924302  0.020948303            2 
 1037000   0.85610315   -7.8019363     260.6806  0.020948297  0.020932848            2 
 1038000    0.8374084   -7.8271729    260.22508  0.020891544  0.020917373            5 
 1039000   0.85929242   -7.8001298    260.81799  0.020918992  0.020901799            5 
 1040000   0.83790783    -7.811874    259.97208  0.020831096  0.020886116            4 
 1041000    0.8431983   -7.8151482    260.15868  0.020826023  0.020870262            1 
 1042000   0.85756227   -7.7874431    259.87056  0.020782994  0.020854447            2 
 1043000    0.8411749   -7.7987502    260.29934  0.020797327  0.020838659            1 
 1044000   0.84418776   -7.7888817    261.04674  0.020837064  0.020822899            2 
 1045000   0.83866759   -7.8237759    260.26122  0.020754483  0.020807204            1 
 1046000   0.81390461   -7.8225701    260.54027  0.020756873  0.020791488            1 
 1047000   0.84218211   -7.8085986    260.62894  0.020744106  0.020775786            2 
 1048000   0.83936717   -7.8178404    261.43995    0.0207888  0.020760246            1 
 1049000   0.81447204   -7.8410007    260.72947  0.020712541  0.020744659            2 
 1050000   0.82894766   -7.7794697    261.30982  0.020738875  0.020729088            2 
 1051000   0.83978546   -7.8226156    261.21275  0.020711445   0.02071355            3 
 1052000   0.82326143   -7.8225601    262.20269  0.020770175  0.020698111            5 
 1053000   0.83201454   -7.8045502    262.88659  0.020804574  0.020682736            1 
 1054000   0.82718586   -7.8118692    262.01087  0.020715597  0.020667396            1 
 1055000    0.8318624   -7.8388914    262.09788  0.020702834  0.020652056            2 
 1056000   0.83047117   -7.7928924    261.78585  0.020658606  0.020636773            2 
 1057000   0.82224091   -7.8359571    261.82068  0.020641807  0.020621503            1 
 1058000   0.82674085   -7.8217336    262.10894  0.020645002  0.020606226            5 
 1059000   0.83281802   -7.8554755    261.98236  0.020615546  0.020590869            1 
 1060000   0.83000648   -7.8361612     262.2666  0.020618444  0.020575497            4 
 1061000   0.85755217    -7.850028    261.43812   0.02053394   0.02056021            2 
 1062000   0.83502554   -7.8072018    262.61489  0.020606944  0.020544884            3 
 1063000   0.83212616   -7.8490073    262.41781  0.020572108  0.020529678            2 
 1064000   0.82017228   -7.8280714    262.21527   0.02053691  0.020514407            2 
 1065000   0.83743529   -7.8502478      262.494  0.020539436  0.020499043            3 
 1066000    0.8232254    -7.809344     262.7057  0.020536718   0.02048379            3 
 1067000   0.82795227   -7.8277672    262.82124  0.020526494  0.020468646            2 
 1068000     0.833653   -7.8493241     262.8242  0.020507506   0.02045347            1 
 1069000   0.81627376   -7.8333937    263.03377  0.020504659    0.0204382            3 
 1070000   0.82314523   -7.8295729    263.43619  0.020516838   0.02042297            3 
 1071000   0.81095305   -7.8736035    262.51789  0.020426229  0.020407675            3 
 1072000   0.82300275   -7.8541634    262.96579  0.020441992  0.020392433            2 
 1073000    0.8273601   -7.8346416    263.32231   0.02045063  0.020377158            1 
 1074000    0.8270651     -7.87367    262.21073  0.020345339  0.020361827            2 
 1075000    0.8607567   -7.8632797    263.10709  0.020395898  0.020346438            4 
 1076000    0.8212449   -7.8617682    263.10053  0.020376435  0.020331098            2 
 1077000   0.81741719   -7.8623229     263.5316   0.02039087  0.020315718            1 
 1078000   0.80899477   -7.8324745    263.24066  0.020349463  0.020300344            2 
 1079000   0.80417618   -7.8350278    264.02464  0.020391152  0.020285112            3 
 1080000   0.81722928   -7.8242409    263.24182  0.020311869  0.020269845            2 
 1081000   0.81793552   -7.8654876    263.60625  0.020321172  0.020254502            1 
 1082000    0.8173177   -7.9188077       262.27  0.020199476  0.020239142            3 
 1083000   0.83897414   -7.8481714    263.19062  0.020251664   0.02022382            1 
 1084000     0.810916   -7.8589437     263.3691  0.020246702  0.020208539            3 
 1085000   0.82107717   -7.8516471    264.18644  0.020290817   0.02019319            3 
 1086000   0.84090876   -7.8726833    263.95934  0.020254707  0.020177859            5 
 1087000   0.80203181   -7.8845612    263.64297  0.020211819  0.020162539            3 
 1088000   0.83194983   -7.8769369     263.7451  0.020201065  0.020147147            3 
 1089000   0.83187829   -7.8727111     263.5581  0.020168205  0.020131861            7 
 1090000   0.80955198   -7.8549796    264.02696  0.020185547  0.020116618            6 
 1091000   0.81230555   -7.8628139    263.68492  0.020140919  0.020101454            2 
 1092000   0.82023674   -7.8504679    264.05967  0.020151074  0.020086235            3 
 1093000     0.818209   -7.8727042    264.08371   0.02013447  0.020071037            2 
 1094000   0.82485744   -7.8792826    264.26765  0.020130077  0.020055837            2 
 1095000   0.81541428    -7.907446    263.75049  0.020072336  0.020040554            4 
 1096000   0.82137822   -7.8735991    264.02126  0.020074609  0.020025243            1 
 1097000   0.81060825   -7.8641251    264.85621  0.020119736   0.02001001            2 
 1098000   0.80156048   -7.9058352    264.56962  0.020079661  0.019994774            1 
 1099000   0.81910358   -7.8689141    264.55192  0.020060049  0.019979522            2 
 1100000   0.82574498   -7.8557811    264.23882  0.020018092  0.019964279            1 
 1101000   0.80287845   -7.8548892    264.45862  0.020016547  0.019948996            2 
 1102000   0.83476193   -7.8817767    264.46484  0.019998854  0.019933682            4 
 1103000   0.81754711    -7.889986    263.67579  0.019921108  0.019918321            2 
 1104000   0.80991852   -7.8672157    264.76083  0.019984966  0.019902975            3 
 1105000   0.82166385   -7.8700895    263.76659    0.0198919  0.019887719            1 
 1106000   0.82012126   -7.8891688        264.6  0.019936709  0.019872364            2 
 1107000    0.8388823   -7.9041638    263.62294  0.019845147  0.019857018            2 
 1108000    0.8255359   -7.8794665    264.84981  0.019919511   0.01984166            4 
 1109000   0.81450003    -7.884166    264.34392  0.019863534  0.019826334            2 
 1110000   0.81319822   -7.8495734    265.26543  0.019914822  0.019811051            3 
 1111000   0.79206464   -7.8860093    264.78238  0.019860665  0.019795774            2 
 1112000   0.80759116   -7.9232246    263.74714  0.019765223  0.019780414            2 
 1113000   0.78451056   -7.8811123    264.68313  0.019817545  0.019764962            3 
 1114000   0.81996143   -7.9100347    264.73743  0.019803818  0.019749569            3 
 1115000   0.80962011    -7.904269    264.41387  0.019761874  0.019734249            3 
 1116000    0.8028197   -7.8835202    264.76377  0.019770294  0.019718865            1 
 1117000   0.82707003   -7.9060765    264.69208  0.019747246  0.019703557            2 
 1118000   0.81348195   -7.8831868    265.12176   0.01976161  0.019688196            2 
 1119000    0.8154662   -7.8812454    265.04612  0.019738317  0.019672946            5 
 1120000   0.81190656   -7.8723149    265.26604  0.019737056  0.019657805            2 
 1121000   0.81721566   -7.8800872    265.11294  0.019708069  0.019642711            1 
 1122000   0.80423281   -7.9141188    265.58193  0.019725337  0.019627575            3 
 1123000   0.80622214   -7.8752466    265.48391  0.019700498  0.019612533            2 
 1124000   0.81818688   -7.9105782    265.68918  0.019698189  0.019597471            2 
 1125000   0.80740626    -7.898113    265.30421  0.019652164  0.019582393            2 
 1126000   0.80785986   -7.8923959    265.59526  0.019656251  0.019567275            2 
 1127000   0.80738884   -7.9197157    264.65853  0.019569546  0.019552021            3 
 1128000   0.80351123   -7.9138332    265.10741  0.019585358  0.019536765            2 
 1129000   0.79972186   -7.9148173    264.61544  0.019531697  0.019521548            2 
 1130000   0.79962966   -7.8641218    265.70182   0.01959453  0.019506457            4 
 1131000   0.79435282   -7.9017507    266.06503  0.019603966  0.019491316            3 
 1132000   0.80158407    -7.902439    265.61008  0.019553156  0.019476221            3 
 1133000   0.79517645   -7.8895257    266.01031  0.019565336  0.019461204            3 
 1134000   0.79395373   -7.9037647    265.83983  0.019535555  0.019446108            1 
 1135000   0.79297408   -7.8992805     266.0371  0.019532827  0.019431051            4 
 1136000   0.79402657    -7.923105    266.48785  0.019548698  0.019416032            3 
 1137000   0.82712822   -7.9125542    265.48216  0.019457795  0.019401019            2 
 1138000   0.80898518   -7.8958568    265.91105  0.019472104  0.019386033            1 
 1139000   0.82290677   -7.9037146     266.6181  0.019506738  0.019371075            2 
 1140000     0.785692   -7.9278515    266.21902  0.019460455  0.019356133            3 
 1141000    0.7979715   -7.9189226    266.42722  0.019458605  0.019341113            2 
 1142000   0.79878403    -7.913487    266.43565  0.019442181  0.019326114            7 
 1143000     0.801902   -7.9425097    265.94242  0.019389211  0.019311158            4 
 1144000   0.79249018   -7.9100536    266.78012  0.019433284  0.019296264            3 
 1145000   0.81068234    -7.915712    266.74847  0.019414008  0.019281367            2 
 1146000   0.78285378    -7.936157    266.19788   0.01935703  0.019266416            2 
 1147000   0.79860487   -7.9372335    266.55463  0.019366073  0.019251437            3 
 1148000   0.80137494   -7.9129609    267.59888  0.019425006  0.019236524            8 
 1149000   0.80139067   -7.9371457    267.11218  0.019372801  0.019221615            3 
 1150000     0.781573   -7.9173083     267.1949  0.019361949  0.019206682            1 
 1151000   0.78839711   -7.9275841    266.95295   0.01932761    0.0191918            2 
 1152000   0.79039838   -7.9173014     266.7297  0.019294683  0.019176921            4 
 1153000   0.79779002   -7.9212215    267.21678  0.019313153  0.019162049            3 
 1154000   0.80169718   -7.9097057    267.06534  0.019285481  0.019147205            3 
 1155000   0.79790348   -7.9328494    266.74847  0.019245922  0.019132325            6 
 1156000    0.7728889   -7.9255945    266.92135  0.019241735  0.019117407            2 
 1157000   0.79900733   -7.9254283    267.10346  0.019238221  0.019102495            4 
 1158000   0.76783113   -7.9153174    266.79547  0.019199444  0.019087601            2 
 1159000   0.80381009   -7.9306406    267.30512  0.019219523  0.019072629            2 
 1160000   0.78679282   -7.9171149    266.73295   0.01916185  0.019057748            2 
 1161000   0.79168769   -7.9237253    266.28261  0.019113021  0.019042844            3 
 1162000   0.79029481   -7.9132299    266.76449  0.019131131  0.019027921            4 
 1163000   0.78594737   -7.9462016    267.19197  0.019145312  0.019013061            2 
 1164000    0.7984345   -7.9393163    267.48614  0.019149924  0.018998243            1 
 1165000   0.79577966   -7.9521749     267.0369  0.019101352  0.018983389            6 
 1166000   0.78258374   -7.9338894    267.90239  0.019146826  0.018968546            3 
 1167000   0.78581304   -7.9801297    267.24529  0.019083497  0.018953715            2 
 1168000   0.78619891   -7.9542861    268.60536  0.019164195   0.01893885            2 
 1169000   0.79094052   -7.9490003    267.45926  0.019066101  0.018924058            3 
 1170000   0.79627532   -7.9429995     267.5191  0.019054067   0.01890928            3 
 1171000   0.76768744   -7.9212484    267.46585  0.019034006  0.018894544            1 
 1172000   0.80084275   -7.9685104    267.39003  0.019012374  0.018879703            2 
 1173000   0.80022476   -7.9403218    267.69454  0.019017799  0.018864905            2 
 1174000   0.80229642    -7.897626    267.82051  0.019010542  0.018850159            2 
 1175000   0.77284679   -7.9647283    267.80099  0.018992978  0.018835436            2 
 1176000   0.80159816    -7.930723    267.59036  0.018961902  0.018820677            3 
 1177000   0.78651435   -7.9304768    267.90325  0.018967944  0.018805961            2 
 1178000   0.80954298   -7.9470569    267.78213  0.018943274  0.018791219            2 
 1179000   0.79426933   -7.9396056    268.05792    0.0189467  0.018776462            2 
 1180000   0.77111966   -7.9553495    268.65018   0.01897247  0.018761682            1 
 1181000   0.79047049   -7.9370539    267.91169  0.018904296  0.018746923            2 
 1182000   0.78052673    -7.941955    267.89337  0.018887011  0.018732176            3 
 1183000    0.7706548   -7.9534901    267.60581   0.01885079  0.018717403            2 
 1184000   0.77431168   -7.9632584    267.43848  0.018823091  0.018702563            3 
 1185000   0.78806209   -7.9353165     267.8203  0.018834058   0.01868776            2 
 1186000   0.77571014   -7.9559723    268.13244   0.01884011  0.018673015            2 
 1187000   0.77706375   -7.9811405     267.6054  0.018787237  0.018658233            1 
 1188000   0.77627222   -7.9758834    267.93323  0.018794418  0.018643506            4 
 1189000   0.79730166   -7.9532812    268.13817  0.018792975  0.018628784            3 
 1190000   0.77948294   -7.9586984    268.16656  0.018779171  0.018614044            2 
 1191000   0.77543775   -7.9672613    267.79584  0.018737464  0.018599362            1 
 1192000   0.76892157   -7.9323913    268.07602  0.018741333  0.018584604            3 
 1193000   0.77195767   -7.9889587    267.35306  0.018675123  0.018569746            2 
 1194000   0.76650659    -7.992908    268.04203  0.018707568  0.018554833            2 
 1195000   0.76826891   -7.9787786    267.23259  0.018635466  0.018539955            2 
 1196000    0.7781585   -8.0019461    267.55211  0.018642148  0.018525053            2 
 1197000   0.78428088   -8.0200932    267.40559  0.018616373  0.018510163            4 
 1198000   0.76520698   -7.9937769    267.17906  0.018585077   0.01849528            1 
 1199000   0.76716598   -7.9961428    267.72472    0.0186075  0.018480404            2 
 1200000   0.79924534   -7.9528614    269.01127  0.018681338  0.018465612            2 
 1201000   0.77388635     -7.96741    267.96967  0.018593511  0.018450795            1 
 1202000   0.76219176   -7.9910257    267.86243  0.018570606  0.018436024            2 
 1203000   0.76145652   -7.9441153    267.99878  0.018564615  0.018421299            2 
 1204000   0.76842579   -7.9437075    268.19094  0.018562496  0.018406541            5 
 1205000   0.75825825   -7.9513172    268.69099  0.018581673  0.018391773            1 
 1206000    0.7689514   -7.9473256    269.25347  0.018605132  0.018377051            1 
 1207000   0.76914997   -7.9886415    268.27928  0.018522458  0.018362414            3 
 1208000   0.74645957    -7.967945    268.45052  0.018518938  0.018347697            3 
 1209000   0.76159787   -7.9531948    268.60869  0.018514522  0.018332965            3 
 1210000   0.76857779   -8.0027845    268.62428  0.018500295  0.018318257            4 
 1211000   0.76825169   -7.9909645    268.58056   0.01848201  0.018303566            3 
 1212000   0.76618872   -8.0091067    268.39388  0.018453924  0.018288821            3 
 1213000   0.76301644   -7.9878542    268.57909  0.018451435  0.018274003            2 
 1214000    0.7725894     -8.01184     268.1497  0.018406761  0.018259194            1 
 1215000   0.75854959    -7.997856    267.86826  0.018372309  0.018244465            2 
 1216000    0.7760265   -7.9994204    268.82873  0.018423021  0.018229762            3 
 1217000   0.77475052   -8.0003649    267.82074  0.018338862  0.018215057            2 
 1218000   0.75407542   -8.0087001    268.52819  0.018372208  0.018200404            2 
 1219000   0.77756685   -7.9978777    269.17713  0.018401499  0.018185694            4 
 1220000   0.77638123   -7.9484494    268.76192  0.018358055  0.018170994            3 
 1221000   0.76519348   -7.9987937     267.8203  0.018278753  0.018156299            2 
 1222000   0.76333561   -7.9655976    268.18541  0.018288694  0.018141667            2 
 1223000   0.75582598   -7.9835325    268.11314  0.018268816  0.018127016            4 
 1224000   0.76052751   -7.9810859    269.42061  0.018342906  0.018112349            5 
 1225000   0.75742682   -7.9957464    268.59903  0.018272043  0.018097726            2 
 1226000   0.77396165   -7.9930729    268.36767  0.018241413  0.018083029            2 
 1227000   0.76050783   -8.0094129    269.28176  0.018288628   0.01806836            2 
 1228000   0.76539921   -7.9773306    268.41797  0.018215117  0.018053652            2 
 1229000   0.76138792   -7.9761804    268.87903  0.018231559   0.01803895            2 
 1230000   0.76186782   -8.0323879    269.10022  0.018231723  0.018024273            2 
 1231000   0.73870932   -8.0198283    268.28641   0.01816182  0.018009582            2 
 1232000   0.75617463   -8.0103899    269.04233   0.01819821  0.017994947            1 
 1233000   0.77443071   -8.0062948    269.13304  0.018189581  0.017980331            3 
 1234000    0.7646423   -7.9952927    269.44915  0.018196188   0.01796579            2 
 1235000   0.77269448   -8.0169141    269.33985  0.018174079  0.017951265            1 
 1236000    0.7473198   -8.0219175    268.75693  0.018120073  0.017936721            3 
 1237000   0.77724801   -8.0109265    269.25013  0.018138651   0.01792221            2 
 1238000   0.75491616   -8.0030523    269.68634  0.018153361  0.017907744            3 
 1239000   0.76765156   -8.0029436    269.70121   0.01813971  0.017893255            6 
 1240000   0.77332109   -8.0056556    268.74808  0.018061027  0.017878688            1 
 1241000   0.76603663   -8.0043608    269.22274  0.018078347  0.017864132            2 
 1242000   0.78138264   -8.0178301    269.12378  0.018057151  0.017849577            3 
 1243000   0.75492241   -7.9994232    268.87703  0.018026082   0.01783511            3 
 1244000   0.75969943   -8.0381799    268.72392  0.018001334  0.017820628            2 
 1245000   0.75909661   -8.0026773    269.92562   0.01806731  0.017806194            1 
 1246000   0.75106272   -8.0219745    268.99375  0.017990487  0.017791785            1 
 1247000   0.75337474   -7.9938507    269.22652  0.017991614  0.017777389            4 
 1248000   0.76993898   -8.0056707    268.97789  0.017960596  0.017762953            2 
 1249000   0.73565631   -8.0198656    269.76903  0.017999001  0.017748529            4 
 1250000   0.75082124   -8.0274604    269.33234  0.017955489  0.017734085            1 
 1251000   0.74614223   -8.0422984    269.14654  0.017928759  0.017719652            3 
 1252000   0.76480171   -8.0335348    269.55987  0.017941951  0.017705164            1 
 1253000   0.75958635   -8.0176415    268.90568  0.017884124   0.01769066            3 
 1254000   0.74911195   -8.0072892    269.64067  0.017918705  0.017676238            1 
 1255000   0.76497432   -8.0050632    270.06461  0.017932577  0.017661863            5 
 1256000   0.76135294   -8.0196304    269.35738  0.017871376  0.017647491            2 
 1257000   0.74510515   -8.0237739    269.31782  0.017854536   0.01763307            1 
 1258000   0.76287212   -8.0354763    269.55052  0.017855758  0.017618669            2 
 1259000   0.76277591   -8.0557942    269.28668  0.017824112  0.017604224            1 
 1260000    0.7528747   -8.0487348    269.35817  0.017814694  0.017589787            1 
 1261000   0.74725672   -8.0513187    268.87128   0.01776839  0.017575363            6 
 1262000   0.74347952   -8.0533345    268.97641  0.017761253  0.017560876            2 
 1263000   0.74330806   -8.0459264    269.15193  0.017758771   0.01754638            2 
 1264000   0.75565157   -8.0313267    269.36923  0.017759047  0.017531906            1 
 1265000   0.74556317   -8.0326045     269.1568  0.017731014  0.017517486            2 
 1266000   0.74537941   -8.0493984    269.28427    0.0177254  0.017503049            2 
 1267000   0.75069565   -8.0715064    268.90328  0.017686351  0.017488606            2 
 1268000   0.74693202   -8.0767301    269.74166  0.017727501   0.01747416            2 
 1269000    0.7489301   -8.0389675    269.92897  0.017725832  0.017459729            2 
 1270000   0.75033441   -8.0492034    269.13378  0.017659697  0.017445299            3 
 1271000   0.75931696   -8.0340546    268.61695  0.017611916  0.017430849            2 
 1272000   0.75701117   -8.0536588    269.03713  0.017625598  0.017416411            1 
 1273000   0.74358551   -8.0742743    269.39989  0.017635499   0.01740192            2 
 1274000    0.7265328   -8.0594671     269.6061  0.017635145  0.017387475            2 
 1275000   0.75704755   -8.0810299    269.05317  0.017585174  0.017372995            2 
 1276000   0.72369932   -8.0473363    268.83682  0.017557264  0.017358518            2 
 1277000   0.74859319   -8.0607876    269.66184  0.017597353  0.017344045            2 
 1278000   0.74105599   -8.0618649     269.4806  0.017571766    0.0173296            1 
 1279000   0.72836866   -8.0573955    268.53236  0.017496245  0.017315118            2 
 1280000   0.75949369   -8.0384784    269.45889  0.017542896  0.017300676            2 
 1281000   0.74526662   -8.0227082     269.1314  0.017507898  0.017286289            3 
 1282000    0.7540778   -8.0719993    269.53728  0.017520624  0.017271911            1 
 1283000   0.74824445   -8.0488068    269.59433  0.017510674  0.017257525            2 
 1284000   0.75658222   -8.0350057    269.62911  0.017499294  0.017243173            1 
 1285000   0.72815435   -8.0628972    269.17258  0.017456069  0.017228804            1 
 1286000   0.73481361   -8.0794832    269.10527  0.017438133  0.017214383            2 
 1287000   0.74266905    -8.094736    269.22132  0.017432098  0.017199945            1 
 1288000    0.7301372   -8.0689539      269.037  0.017406638  0.017185538            2 
 1289000   0.73693932   -8.0819316    269.23918  0.017406205  0.017171121            1 
 1290000   0.74085884   -8.0645408    268.61891  0.017352643  0.017156634            2 
 1291000   0.74150614   -8.0687815    268.88185  0.017356174  0.017142187            3 
 1292000   0.75031066   -8.0807163    269.39129  0.017375599   0.01712778            1 
 1293000   0.73953326   -8.0530176    268.94104  0.017333142  0.017113367            1 
 1294000   0.73347643   -8.0546383    268.67137  0.017302381  0.017098969            3 
 1295000   0.73963385   -8.0654475    269.38929  0.017335218  0.017084575            5 
 1296000    0.7494045   -8.0728091    269.60593  0.017335772  0.017070223            2 
 1297000   0.72342609   -8.0702944    269.04909  0.017286629  0.017055897            2 
 1298000   0.71791874   -8.0547579    269.67029  0.017313193  0.017041617            2 
 1299000   0.75110777   -8.0714742    269.32557   0.01727775  0.017027352            3 
 1300000    0.7383471   -8.0734418    268.83949  0.017233301  0.017013044            3 
 1301000   0.73308427   -8.0630265    269.30492  0.017249867  0.016998716            3 
 1302000   0.73223749   -8.0829122    269.31476  0.017237248  0.016984406            2 
 1303000   0.72106777   -8.0618337    269.59976  0.017242246  0.016970154            3 
 1304000   0.71955026   -8.0743648    269.27188   0.01720807  0.016955859            3 
 1305000   0.73562999   -8.0725684    269.36804  0.017201024  0.016941596            3 
 1306000   0.73155086   -8.0654898    269.13085  0.017172719  0.016927313            2 
 1307000   0.73304998    -8.091927    269.70993  0.017196502  0.016913067            2 
 1308000   0.74350047    -8.076333    269.47245  0.017168224  0.016898822            1 
 1309000   0.73308467   -8.0934915    269.20108  0.017137833  0.016884607            3 
 1310000   0.72974808   -8.0657076    269.66274  0.017154118  0.016870401            3 
 1311000   0.71515194   -8.0792395    269.55976  0.017134488   0.01685626            2 
 1312000   0.70933397   -8.0670286    269.90487  0.017143348  0.016842132            4 
 1313000   0.73561837   -8.0839389    269.79695  0.017123442  0.016828007            1 
 1314000   0.72185248   -8.1250191    268.69465  0.017040503   0.01681382            2 
 1315000   0.74050211   -8.1043187    269.86236  0.017101544   0.01679964            5 
 1316000   0.72955189   -8.1289922    269.85373  0.017088002  0.016785488            2 
 1317000   0.71434145   -8.1214083    269.40842   0.01704685  0.016771342            1 
 1318000   0.73355031   -8.1030851    269.30181  0.017027176  0.016757202            3 
 1319000   0.74672378    -8.107702    269.78416  0.017044741  0.016743052            3 
 1320000   0.73451472   -8.0875235    269.66371  0.017024224  0.016728972            3 
 1321000   0.73124604   -8.0751775    269.87245  0.017024505  0.016714879            3 
 1322000   0.72869355   -8.1175292    269.61064  0.016995123  0.016700786            2 
 1323000   0.71846838   -8.1259947    269.36242  0.016966642  0.016686676            4 
 1324000   0.74349282   -8.0958095    269.62981  0.016970658  0.016672594            2 
 1325000   0.73618097   -8.1131463      270.249  0.016996792   0.01665855            1 
 1326000   0.73996508   -8.1347148    269.33066  0.016926261  0.016644526            2 
 1327000   0.71255293   -8.1014568    268.74646  0.016876819   0.01663052            2 
 1328000    0.7312902   -8.1193014    269.66891  0.016921995  0.016616505            2 
 1329000    0.7348894   -8.1209162    269.40151  0.016892495  0.016602488            1 
 1330000   0.70842202   -8.0957339    269.85728  0.016908351   0.01658852            1 
 1331000   0.72676895   -8.1013005    269.88656  0.016897481  0.016574559            2 
 1332000   0.72278941    -8.123124    269.66241  0.016870771  0.016560618            2 
 1333000   0.71590223    -8.107179    269.49108  0.016847404  0.016546705            2 
 1334000   0.72105748   -8.1034366     270.0483  0.016869584  0.016532818            1 
 1335000   0.73136393   -8.0935469    270.29559  0.016872384  0.016518954            2 
 1336000     0.706873   -8.1132321    269.52347  0.016811594  0.016505114            3 
 1337000   0.69648381   -8.1113252    270.06079   0.01683251  0.016491289            7 
 1338000   0.73431959   -8.1257316    270.29124  0.016834283  0.016477459            4 
 1339000   0.72100366   -8.0965208    269.99939  0.016803547  0.016463596            2 
 1340000   0.70585909   -8.1182694    270.36544  0.016813771  0.016449759            2 
 1341000   0.71401132   -8.1128161    270.63145  0.016817764  0.016435964            1 
 1342000   0.71099249   -8.1205733    269.85523  0.016757031  0.016422205            1 
 1343000   0.71572691   -8.1080418    270.15492   0.01676315  0.016408416            4 
 1344000   0.72429752   -8.1056754    270.16585  0.016751355  0.016394622            3 
 1345000   0.71086622   -8.1114604    270.35439  0.016750582  0.016380861            3 
 1346000   0.71252792   -8.1214897    269.73376  0.016699713  0.016367078            8 
 1347000   0.72440104   -8.1282067     269.8489  0.016694438  0.016353249            8 
 1348000   0.72134882   -8.1488834    270.13584  0.016699792  0.016339418            4 
 1349000   0.71620524   -8.1534097    270.06264  0.016682891  0.016325607            4 
 1350000   0.72237515   -8.1402561    270.15566  0.016676275    0.0163118            6 
 1351000   0.71616541   -8.1097682    269.74516  0.016638611  0.016298033            4 
 1352000   0.70844208   -8.1290533    270.35813  0.016664086   0.01628429            3 
 1353000   0.72797817    -8.138808    270.01436  0.016630596  0.016270541            3 
 1354000    0.7358573   -8.1131586    270.13694  0.016625858  0.016256829            2 
 1355000   0.71849152   -8.1301472    269.78228  0.016591776  0.016243105            4 
 1356000   0.70949456   -8.1179971     269.9733  0.016591279  0.016229409            9 
 1357000   0.71524561   -8.1496463    269.98971  0.016580061  0.016215759            3 
 1358000   0.71657794   -8.1373169    270.35821  0.016590464   0.01620208            2 
 1359000   0.70924299   -8.1186587    270.50765  0.016587421  0.016188412            4 
 1360000   0.71968553   -8.1380203    270.64314  0.016583526  0.016174804            5 
 1361000   0.71207458    -8.109085    270.83003  0.016582784  0.016161208            2 
 1362000   0.72406216   -8.0947851    270.60481  0.016556829  0.016147636            4 
 1363000   0.71645791   -8.1395204    270.08157  0.016512691  0.016134083            5 
 1364000   0.71726567   -8.1408088    269.66192  0.016474946  0.016120487            3 
 1365000   0.71370015   -8.1394564    270.46451  0.016511875  0.016106939            2 
 1366000   0.71079949   -8.1252676    270.10359  0.016477769  0.016093339            1 
 1367000   0.70839944   -8.1204694    270.40521  0.016484102   0.01607975            3 
 1368000   0.69844428   -8.1204824    270.70178  0.016490118  0.016066156            1 
 1369000   0.70264307   -8.1422932    269.89277  0.016428827  0.016052605            5 
 1370000   0.70894048   -8.1188123    270.88791  0.016477367  0.016039078            2 
 1371000   0.70429737   -8.1231839    270.73763  0.016456214  0.016025604            1 
 1372000   0.69882756   -8.1506977    270.75485  0.016445266  0.016012104            1 
 1373000    0.7122226   -8.1510528    270.36656  0.016409721  0.015998587            3 
 1374000   0.69056843   -8.1219862    270.53082   0.01640774  0.015985084            2 
 1375000   0.70470252   -8.1752767    270.11441   0.01637057  0.015971544            1 
 1376000   0.67956635   -8.1560316    270.49126  0.016381496  0.015957988            2 
 1377000   0.68709975   -8.1287384    271.14664  0.016409262  0.015944494            2 
 1378000   0.69783458    -8.160233    270.51462  0.016359133  0.015931017            3 
 1379000    0.6929103   -8.1653738    270.11828  0.016323319  0.015917518            3 
 1380000   0.68955798   -8.1773957    270.71048  0.016347251  0.015903996            4 
 1381000   0.70023241   -8.1736965    270.27011  0.016308841  0.015890467            2 
 1382000   0.70405523   -8.1465138    270.39984  0.016304863  0.015876998            2 
 1383000   0.69240806   -8.1694526    270.83716  0.016319424  0.015863526            1 
 1384000   0.70200661    -8.164723     269.8398  0.016247579  0.015850041            2 
 1385000   0.71331028    -8.191796    270.24857  0.016260443  0.015836566            4 
 1386000   0.70393929   -8.1748555    269.77946  0.016220506  0.015823145            2 
 1387000   0.69449941   -8.1630836    270.35045  0.016243117  0.015809689            1 
 1388000   0.69584242   -8.1556641    270.62041  0.016247623  0.015796229            1 
 1389000   0.72643453   -8.1695416    269.91997  0.016193903  0.015782794            3 
 1390000   0.71688915   -8.1701244    270.16991  0.016197237  0.015769371            4 
 1391000   0.69266202    -8.155795    269.97804  0.016174098  0.015755907            3 
 1392000   0.70530002   -8.1383162     270.4763  0.016192307  0.015742516            2 
 1393000   0.69799361   -8.1637932    270.27947  0.016168908  0.015729136            2 
 1394000   0.69060562   -8.1473844    270.46698  0.016168519  0.015715731            2 
 1395000   0.70338502   -8.1599054    270.23262  0.016142928  0.015702336            3 
 1396000   0.69290087   -8.1431739    270.40904  0.016141896  0.015688943            2 
 1397000    0.7106097   -8.1594291    270.02215  0.016107263  0.015675593            3 
 1398000   0.69314031   -8.1868558    270.67865  0.016134874  0.015662258            2 
 1399000   0.70352312   -8.1608078    270.86188  0.016134256  0.015648925            3 
 1400000    0.6958278    -8.171676    269.82103  0.016060776  0.015635561            3 
 1401000   0.69483721   -8.1604728     269.7257  0.016043641  0.015622257            5 
 1402000   0.68182134   -8.1712059    270.09191  0.016053965  0.015608928            2 
 1403000   0.69824728   -8.1808764    270.56915  0.016070869  0.015595623            2 
 1404000   0.69133956   -8.1497591    270.33157  0.016045321  0.015582311            2 
 1405000   0.66984747   -8.1701113    269.97952   0.01601302  0.015569007            7 
 1406000   0.69050077   -8.1608581    270.04361   0.01600543  0.015555714            4 
 1407000   0.67897172   -8.1631404     270.3569  0.016012609  0.015542395            2 
 1408000   0.69984162   -8.1807204    270.29949  0.015997839  0.015529109            4 
 1409000   0.69373614   -8.1864541    269.94909  0.015965761  0.015515842            2 
 1410000   0.67569007   -8.1842531       269.86  0.015949172  0.015502585            3 
 1411000   0.67376807   -8.1674556    270.45203  0.015972834  0.015489298            3 
 1412000   0.68927971   -8.1780431    270.41979  0.015959619  0.015476054            1 
 1413000   0.69545707   -8.1979194    270.06144   0.01592719    0.0154628            2 
 1414000   0.68588011    -8.191334    270.07002  0.015916432  0.015449523            2 
 1415000   0.68841343   -8.2160322    269.88883  0.015894513  0.015436246            2 
 1416000   0.68462868   -8.1973375    269.75172  0.015875219  0.015422984            5 
 1417000   0.69592376   -8.1930784    270.01299  0.015879381   0.01540975            4 
 1418000   0.68426773   -8.1817378    270.33411  0.015887054   0.01539652            3 
 1419000   0.68082706   -8.1995981    270.14427  0.015864709   0.01538329            5 
 1420000   0.69250402   -8.2010533    270.20321  0.015856996  0.015370086            5 
 1421000   0.69698984   -8.1823937    270.18069  0.015844516  0.015356897            2 
 1422000   0.68583184   -8.2142099    269.66022  0.015802873  0.015343686            2 
 1423000   0.67158265    -8.221023    269.96985    0.0158099  0.015330497            1 
 1424000   0.68407323   -8.2201709     269.3491  0.015762471  0.015317286            2 
 1425000   0.67681638   -8.1846402    270.58465  0.015823664  0.015304101            3 
 1426000   0.67655118   -8.2141371    269.54054  0.015751551  0.015290924            1 
 1427000   0.67782307    -8.200902    269.82036  0.015756854  0.015277756            2 
 1428000    0.6914246   -8.1968395    269.99474  0.015755996  0.015264638            4 
 1429000   0.68778372   -8.1914555    270.41097  0.015769242  0.015251546            1 
 1430000   0.67883434   -8.2116922    270.42322  0.015758929    0.0152385            2 
 1431000   0.68403934   -8.1991893    270.03456  0.015725283  0.015225444            3 
 1432000   0.67052022    -8.194671    270.02419  0.015713698    0.0152124            2 
 1433000   0.68120382   -8.2165233    270.04928  0.015704192  0.015199412            2 
 1434000   0.67461444   -8.2032055     269.9854  0.015689528  0.015186409            3 
 1435000     0.671734   -8.1870228    270.44742  0.015705425  0.015173417            6 
 1436000   0.68720115   -8.2043236    270.06582  0.015672343  0.015160416            1 
 1437000   0.69708184   -8.2111611    270.34977  0.015677904  0.015147434            2 
 1438000   0.67242203   -8.1849921    270.63453  0.015683503  0.015134418            4 
 1439000   0.66443229   -8.1784436    270.46447  0.015662756  0.015121455            3 
 1440000   0.68142887   -8.2138518    270.54623  0.015656611  0.015108527            3 
 1441000   0.68310719   -8.1988353    270.64051  0.015651198  0.015095616            2 
 1442000   0.65247151   -8.2013075    270.17834  0.015613635  0.015082664            3 
 1443000   0.67509507   -8.2194037    270.37165  0.015613979  0.015069744            2 
 1444000   0.68664088   -8.2189144    270.55686  0.015613854  0.015056859            3 
 1445000   0.66713339   -8.2137731    270.37736  0.015592697  0.015043941            3 
 1446000   0.68936828   -8.2230692    270.02778  0.015561767  0.015031026            2 
 1447000   0.68676694    -8.217056    269.80096   0.01553795  0.015018119            2 
 1448000   0.68208498   -8.2186641    270.06425  0.015542372  0.015005194            2 
 1449000   0.67716064   -8.2176578    269.50051  0.015499224  0.014992294            2 
 1450000     0.675495   -8.2118028    269.85303  0.015508795  0.014979419            2 
 1451000     0.666083   -8.1854614    270.50411  0.015535499  0.014966568            3 
 1452000    0.6834044   -8.2306058    269.70263  0.015478801  0.014953735            2 
 1453000   0.66879172   -8.2209049    269.82597  0.015475222  0.014940886            2 
 1454000   0.67438538   -8.2103096    270.37611  0.015496109  0.014928038            2 
 1455000   0.66388579   -8.2299787    269.84542  0.015455064  0.014915174            2 
 1456000   0.66930716   -8.2381234    269.91439  0.015448397  0.014902332            3 
 1457000   0.67542196   -8.2178035    269.91695  0.015437941  0.014889502            3 
 1458000   0.67006131   -8.2240946    269.74051  0.015417267   0.01487665            3 
 1459000   0.68238307   -8.2514333    269.46308  0.015390855  0.014863817            3 
 1460000   0.66840467   -8.2477695    269.74415  0.015396356  0.014850984            3 
 1461000   0.64197538   -8.2258045    269.83192  0.015390824   0.01483814            4 
 1462000   0.67804411   -8.2501861    269.74107  0.015375118  0.014825294            4 
 1463000   0.68095744   -8.2546767    269.59668  0.015356384  0.014812432            1 
 1464000   0.67074191   -8.2347053    270.34455  0.015388465  0.014799599            2 
 1465000   0.66990501   -8.2568715    269.76961  0.015345256  0.014786794            2 
 1466000   0.66485208   -8.2600791    270.24147  0.015361612  0.014773973            3 
 1467000   0.66150511   -8.2502572    269.96553  0.015335465  0.014761171            3 
 1468000   0.67662505   -8.2278375     269.6815  0.015308895  0.014748401            2 
 1469000   0.66450632   -8.2542331    269.66359  0.015297458  0.014735586            2 
 1470000    0.6806998   -8.2519808    269.16588  0.015258837  0.014722776            3 
 1471000   0.65557334   -8.2585113    269.66788  0.015276902  0.014709989            2 
 1472000    0.6584537   -8.2721927    269.72496  0.015269756  0.014697219            1 
 1473000   0.66944677   -8.2701181    269.25769  0.015232954  0.014684413            2 
 1474000   0.65752508   -8.2604557    269.77556  0.015251897  0.014671666            4 
 1475000   0.65747059   -8.2676153    269.04975  0.015200551  0.014658893            3 
 1476000    0.6760927   -8.2503345    269.62863  0.015222935  0.014646155            2 
 1477000    0.6716958    -8.264529    269.57493  0.015209599  0.014633428            4 
 1478000   0.67856682   -8.2572733    269.55077  0.015197946  0.014620731            2 
 1479000   0.66328984   -8.2708536     269.9145  0.015208164  0.014608017            4 
 1480000    0.6722373   -8.2898788    269.08693  0.015151291   0.01459529            4 
 1481000   0.67104886    -8.265157    269.33064  0.015154774  0.014582592            3 
 1482000   0.66151237   -8.2935936    269.32827  0.015144415  0.014569913            2 
 1483000   0.67922372   -8.2692436    269.76763  0.015158891  0.014557226            2 
 1484000   0.66957919   -8.2912708    269.60268  0.015139414  0.014544558            3 
 1485000   0.65722199   -8.2488492    269.33213  0.015114037  0.014531879            2 
 1486000   0.65711073   -8.2854071    269.60501  0.015119168  0.014519212            4 
 1487000   0.67721121   -8.2776865    269.72645  0.015115807  0.014506584            5 
 1488000   0.66796927   -8.2907615    269.00024  0.015064978     0.014494            3 
 1489000   0.65055416   -8.2943567    269.63495  0.015090382  0.014481431            4 
 1490000   0.66053084   -8.2840559    269.58257  0.015077325  0.014468861            5 
 1491000   0.65028769   -8.2716535    269.67358  0.015072299  0.014456305            2 
 1492000   0.66352312   -8.3052199    269.35757  0.015044547  0.014443774            3 
 1493000   0.65760063   -8.2741215    269.62576   0.01504944  0.014431243            2 
 1494000   0.66373824     -8.27978    269.68107  0.015042451  0.014418727            1 
 1495000   0.65119325   -8.2953084    269.44051   0.01501898  0.014406236            3 
 1496000   0.66464043   -8.2445848    269.74418  0.015025857  0.014393757            2 
 1497000   0.64949303   -8.2688735    269.41996  0.014997771  0.014381303            3 
 1498000   0.66405212    -8.284499    269.62785  0.014999324  0.014368856            4 
 1499000   0.65341589   -8.2574066     269.2226  0.014966789   0.01435642            3 
 1500000   0.64902014   -8.2719692    270.18832  0.015010462  0.014344006            2 
 1501000   0.64792206   -8.2506223    270.18544  0.015000302  0.014331595            2 
 1502000   0.65869668   -8.2787044    269.53022  0.014953963    0.0143192            1 
 1503000   0.65146369   -8.2935851    269.68523  0.014952607  0.014306781            5 
 1504000   0.65189845   -8.2685485    269.70661   0.01494385  0.014294387            3 
 1505000   0.64963531   -8.2813782    270.36494  0.014970373  0.014281999            2 
 1506000   0.65112647   -8.2800139    269.64005  0.014920322  0.014269616            1 
 1507000   0.64792733   -8.2924981    269.46155   0.01490055    0.0142572            7 
 1508000   0.64637967   -8.3064477    269.40761  0.014887688  0.014244796            2 
 1509000   0.64715315    -8.291665    269.34053  0.014874118  0.014232397            2 
 1510000    0.6555724    -8.297422    269.34952  0.014864764  0.014219973            3 
 1511000   0.64337572   -8.3049776    269.17485  0.014845293  0.014207568            2 
 1512000   0.64725459   -8.3115801    268.52043  0.014799407  0.014195157            3 
 1513000   0.65555834   -8.2947328     268.9687  0.014814315  0.014182761            1 
 1514000   0.64827072   -8.2952367    269.40537  0.014828565   0.01417039            3 
 1515000   0.65540119    -8.297077    269.14604  0.014804513  0.014158029            2 
 1516000   0.66117443   -8.2942749     268.8605  0.014779051  0.014145684            2 
 1517000   0.66208669   -8.3170574    269.05025  0.014779732   0.01413334            3 
 1518000   0.66280428   -8.3032889    269.36194  0.014787107  0.014121017            4 
 1519000   0.63144948   -8.3150827    269.31488   0.01477479  0.014108716            4 
 1520000    0.6547404   -8.3014525    269.23238  0.014760547  0.014096411            2 
 1521000   0.63311909   -8.3262471    269.22241  0.014750297  0.014084143            2 
 1522000   0.63879491   -8.2775912    269.87573  0.014776376   0.01407188            3 
 1523000   0.63024282    -8.301794    269.10308  0.014724397  0.014059626            3 
 1524000   0.65422378   -8.2949511    268.81036  0.014698729   0.01404738            4 
 1525000   0.64940287    -8.319309    269.72221  0.014738919  0.014035149            2 
 1526000    0.6362534   -8.3287545    269.05347  0.014692741   0.01402293            4 
 1527000   0.64481277   -8.3069497    269.19265  0.014690714  0.014010715            3 
 1528000   0.64663489   -8.3079634    269.06459  0.014674116  0.013998546            3 
 1529000   0.63811494   -8.3188519    269.67912  0.014698012  0.013986363            5 
 1530000   0.63060834    -8.320484    269.64169  0.014686366  0.013974202            2 
 1531000   0.63382589   -8.3077974    269.44402  0.014666014  0.013962019            3 
 1532000    0.6495545   -8.3159599    268.97096  0.014630709  0.013949849            3 
 1533000   0.65944983   -8.3076465    268.90689  0.014617683  0.013937687            6 
 1534000   0.64815902   -8.3136056    269.35133  0.014632298   0.01392554            3 
 1535000   0.64206396   -8.2908226     269.7328  0.014643475  0.013913435            7 
 1536000   0.64162901   -8.3212258    269.33533  0.014612377  0.013901355            3 
 1537000   0.65146538   -8.3045798    269.25111  0.014598304   0.01388927            3 
 1538000   0.62806431   -8.3325799    269.24113  0.014588271  0.013877209            2 
 1539000   0.63488157   -8.3185086    269.33107  0.014583662  0.013865137            3 
 1540000   0.62505102   -8.3089098    268.84375  0.014547822  0.013853056            2 
 1541000   0.64172523   -8.3239441    269.34356   0.01456541  0.013840991            1 
 1542000   0.63089872   -8.3362768    269.58083  0.014568787  0.013828955            2 
 1543000   0.63782115   -8.3158258    269.50073  0.014555019  0.013816907            2 
 1544000   0.63194716   -8.3382258    268.77043  0.014506176  0.013804886            2 
 1545000   0.64715764     -8.32172     269.2042  0.014520183  0.013792875            3 
 1546000   0.63985499   -8.3189895    268.83485  0.014490883  0.013780862            1 
 1547000   0.64534837   -8.3338797    269.32303  0.014507813  0.013768874            1 
 1548000   0.63000488   -8.3317356    268.62703  0.014460973  0.013756875            1 
 1549000   0.62872127   -8.3358362    268.72509  0.014456913  0.013744878            3 
 1550000   0.63642641   -8.3467886    269.31164   0.01447912  0.013732931            2 
 1551000   0.64312896   -8.3481335    268.65098  0.014434289  0.013720948            1 
 1552000   0.64150397   -8.3318646     269.3224  0.014461039  0.013708984            2 
 1553000   0.63931345   -8.3163352    269.48921  0.014460679  0.013697035            1 
 1554000   0.64154699   -8.3531228    269.14153  0.014432729  0.013685117            2 
 1555000   0.63688867   -8.3478199    268.73726  0.014401782  0.013673183            2 
 1556000   0.61655666   -8.3635692    268.87665  0.014399992  0.013661249            3 
 1557000   0.61744243   -8.3534733    268.72628  0.014382695  0.013649327            3 
 1558000   0.63482934   -8.3481437    269.53781   0.01441687  0.013637407            4 
 1559000   0.62101047      -8.3277    269.43551  0.014402155  0.013625548            2 
 1560000   0.61467666    -8.351766    269.42909   0.01439258  0.013613706            1 
 1561000   0.62685005   -8.3446591    268.89783  0.014354999   0.01360189            1 
 1562000   0.62658764   -8.3214736    269.58074  0.014382242  0.013590055            3 
 1563000   0.62138498   -8.3476849    269.04621  0.014344541  0.013578224            2 
 1564000   0.63921449   -8.3427995    268.85911    0.0143254  0.013566405            2 
 1565000   0.62938025    -8.327717    269.43697  0.014347016  0.013554589            3 
 1566000   0.63205671   -8.3410593    268.60876  0.014293783    0.0135428            3 
 1567000   0.62444933   -8.3400081    269.37986  0.014325668  0.013531041            2 
 1568000   0.62777737   -8.3500141    269.02098  0.014297459  0.013519259            3 
 1569000   0.61824315   -8.3410193    269.50198  0.014313893  0.013507492            2 
 1570000   0.61280903   -8.3356112    268.80943  0.014268016   0.01349573            3 
 1571000   0.61567908   -8.3440925    269.39422  0.014289955  0.013483974            2 
 1572000    0.6324673   -8.3361073    269.12229  0.014266449  0.013472228            3 
 1573000   0.63404684   -8.3386763    269.02266  0.014252101  0.013460502            5 
 1574000   0.62062848   -8.3585839    269.37273   0.01426158   0.01344877            1 
 1575000   0.61840598   -8.3646561    268.75485  0.014219833  0.013437051            2 
 1576000   0.62876448   -8.3331265    268.48652  0.014196622  0.013425346            3 
 1577000   0.63307983   -8.3727246    268.95878  0.014212576  0.013413652            2 
 1578000   0.62595203   -8.3792959    268.98165  0.014204777   0.01340197            3 
 1579000    0.6214309   -8.3470945    269.04642  0.014199199    0.0133903            2 
 1580000   0.62128657   -8.3539334    268.84046  0.014179349  0.013378656            5 
 1581000   0.62114409   -8.3652874    268.39075  0.014146676  0.013367008            3 
 1582000   0.61724319   -8.3746519    268.63555   0.01415063  0.013355352            3 
 1583000   0.62598024   -8.3578848    268.46782  0.014132861  0.013343709            4 
 1584000   0.62555138   -8.3855144    268.79665  0.014141238  0.013332051            1 
 1585000    0.6132144   -8.3638176    268.74517  0.014129609  0.013320423            2 
 1586000   0.61834787   -8.3581741      268.724  0.014119588  0.013308779            2 
 1587000   0.59551574   -8.3821514    268.39807  0.014093577  0.013297142            3 
 1588000   0.61254752   -8.3583691    268.39978  0.014084791  0.013285534            2 
 1589000   0.61993929   -8.3659105    268.62977  0.014087989  0.013273943            2 
 1590000   0.61050956   -8.3680309    268.60016  0.014077576  0.013262369            2 
 1591000   0.60778576   -8.3806071    268.35768  0.014056028  0.013250786            2 
 1592000   0.60442683   -8.3950942    268.31152  0.014044782  0.013239202            2 
 1593000   0.61058176   -8.3717045    268.63522  0.014052899  0.013227638            5 
 1594000   0.62516547   -8.3669915    268.34828  0.014029082  0.013216083            2 
 1595000   0.62008946    -8.372707    268.26064  0.014015708  0.013204534            2 
 1596000   0.61333561    -8.378593    268.31457  0.014009741  0.013193012            3 
 1597000   0.62034472   -8.3931083    268.68971  0.014020544  0.013181504            2 
 1598000   0.62104249   -8.3787434    268.43552  0.013998515  0.013169986            1 
 1599000   0.61370272   -8.3910047    268.73423  0.014005328  0.013158483            2 
 1600000   0.60706447   -8.3674785    268.16213  0.013966778   0.01314698            1 
 1601000   0.60435323   -8.4105708    268.58222   0.01397992  0.013135497            3 
 1602000   0.60769817   -8.4037708     268.4641  0.013965049  0.013124008            4 
 1603000    0.6010115    -8.397927    268.54967  0.013960785  0.013112533            5 
 1604000   0.61628575   -8.3933368    267.89322  0.013917977  0.013101066            2 
 1605000   0.61757511   -8.3872763    268.66058  0.013949148  0.013089622            1 
 1606000   0.60656797   -8.3753196    268.74052   0.01394461  0.013078205            3 
 1607000    0.6117366   -8.3997992    268.39481  0.013918005  0.013066802            2 
 1608000   0.60393226   -8.3790978    268.46838  0.013913162  0.013055409            2 
 1609000   0.61180324   -8.4054684    269.08141  0.013936265  0.013044018            4 
 1610000    0.6108831   -8.4016123    268.30545  0.013887445  0.013032639            2 
 1611000   0.60350486   -8.4018016    268.63753  0.013896003  0.013021259            3 
 1612000   0.61332041   -8.3813395    268.22279  0.013865943  0.013009889            3 
 1613000   0.60464386   -8.3682619     268.7006  0.013882032  0.012998538            3 
 1614000   0.60880178   -8.3726835    268.06925  0.013840833  0.012987183            4 
 1615000   0.61280232     -8.38399    268.85888  0.013873007  0.012975848            2 
 1616000   0.60130074   -8.4031746    268.33711  0.013837516  0.012964543            5 
 1617000   0.62714113   -8.4025512     268.2956  0.013826819  0.012953228            2 
 1618000   0.62321024   -8.4016033    268.18105  0.013812374  0.012941931            3 
 1619000    0.5981517   -8.4031774    268.34954  0.013812515  0.012930632            3 
 1620000   0.59373843   -8.3883101    268.48078   0.01381074   0.01291935            1 
 1621000   0.59919714   -8.4154567    268.69813  0.013813393   0.01290809            2 
 1622000   0.61005022   -8.3938503    268.02746   0.01377042  0.012896827            3 
 1623000   0.61762956   -8.3953753    268.28506  0.013775162  0.012885613            1 
 1624000   0.60109061   -8.4043285     268.5764  0.013781629  0.012874407            2 
 1625000   0.59297424     -8.40771    268.33301  0.013760667  0.012863203            2 
 1626000   0.61041958    -8.409415    268.57254   0.01376448  0.012852008            4 
 1627000    0.6080997   -8.3921057    268.38072  0.013746196  0.012840826            2 
 1628000   0.61220514   -8.3991183    268.46288  0.013741957  0.012829648            3 
 1629000   0.62075114   -8.4129263    268.55079  0.013738019  0.012818474            3 
 1630000   0.59950993   -8.4030602    268.42933  0.013723381  0.012807326            1 
 1631000   0.59487683   -8.4016939    268.30863    0.0137088  0.012796177            2 
 1632000   0.58994445   -8.3869227    269.07078  0.013739317  0.012785039            1 
 1633000   0.61371788   -8.4428423    268.16073  0.013684463  0.012773899            3 
 1634000   0.61260247    -8.406926    267.70605  0.013652899  0.012762775            2 
 1635000   0.60932066   -8.4047137    268.17325  0.013668361  0.012751653            1 
 1636000   0.59888547   -8.4265612    268.02428  0.013652418  0.012740545            2 
 1637000   0.60595282   -8.4032665    268.09767  0.013647815  0.012729456            1 
 1638000   0.60485126   -8.4162791    267.89518  0.013629181  0.012718381            1 
 1639000   0.60551561   -8.4128904    268.20136  0.013636433  0.012707295            1 
 1640000   0.60094114   -8.4244312    268.11526  0.013623743  0.012696216            2 
 1641000   0.59505227   -8.4238783    268.23641  0.013621593  0.012685165            3 
 1642000   0.59726892   -8.4224373    268.35685   0.01361941  0.012674126            1 
 1643000   0.58966722   -8.4350823    268.49877  0.013618318  0.012663085            3 
 1644000   0.60095852   -8.4109179     268.5065  0.013610427  0.012652056            2 
 1645000   0.59803309   -8.4108699    268.11829  0.013582487  0.012641031            2 
 1646000   0.59664726   -8.4272408    268.49173  0.013593141  0.012630019            2 
 1647000   0.59977993   -8.4233297    268.31429   0.01357591  0.012619043            1 
 1648000   0.59773496   -8.4159629    268.23113  0.013563467  0.012608065            2 
 1649000   0.59187531   -8.4450867    268.31848  0.013559657  0.012597099            3 
 1650000   0.60346475   -8.4373891    268.28682  0.013549839  0.012586138            2 
 1651000   0.59752503   -8.4402734    268.43753  0.013549239  0.012575208            2 
 1652000   0.58532557    -8.435138    268.03668  0.013520817  0.012564298            1 
 1653000   0.59556492   -8.4168787    268.15977  0.013518843   0.01255339            2 
 1654000   0.59723362   -8.4153395    268.06998  0.013506146  0.012542496            2 
 1655000   0.58888925   -8.4151516    268.24195  0.013506644  0.012531597            2 
 1656000   0.58109635   -8.4377897    268.58402  0.013515702  0.012520716            2 
 1657000   0.58937783   -8.4388681    268.10011  0.013483208  0.012509847            2 
 1658000   0.58810546   -8.4017549    267.76415   0.01345819  0.012498975            3 
 1659000   0.59591657   -8.4271433     268.2966  0.013476823  0.012488113            2 
 1660000   0.58879788   -8.4252244    267.86256  0.013446916  0.012477263            3 
 1661000   0.58956411   -8.4468602    267.88945  0.013440169  0.012466418            1 
 1662000   0.59875488    -8.428468    268.13704  0.013444497  0.012455596            2 
 1663000   0.58617947   -8.4174493    267.92355  0.013425714  0.012444783            3 
 1664000   0.58517152   -8.4477295    268.68264  0.013455661  0.012433993            3 
 1665000   0.59929599   -8.4295025    268.46864  0.013436869    0.0124232            2 
 1666000   0.58472973   -8.4484715    267.95032  0.013402877  0.012412422            2 
 1667000   0.59411643   -8.4590105    267.87913  0.013391278  0.012401653            3 
 1668000   0.58201209   -8.4432712    268.24522   0.01340154  0.012390888            2 
 1669000   0.57713877   -8.4249709    268.36399   0.01339944  0.012380149            1 
 1670000   0.59059966   -8.4439329    268.10213   0.01337835  0.012369394            1 
 1671000   0.57866902   -8.4499143    268.34757  0.013382584  0.012358647            1 
 1672000   0.57920324   -8.4490786     267.8539  0.013349975  0.012347924            2 
 1673000    0.5978082   -8.4502892    268.17463  0.013357971  0.012337202            2 
 1674000   0.57628178   -8.4362861    267.88779  0.013335713  0.012326503            3 
 1675000    0.5737814    -8.446775    268.12648  0.013339626  0.012315795            2 
 1676000   0.58415437   -8.4435559    267.77459   0.01331417  0.012305111            4 
 1677000   0.58343712    -8.447006    268.20479  0.013327608  0.012294423            2 
 1678000   0.59483788   -8.4555799    267.85906  0.013302496   0.01228376            2 
 1679000   0.57360045   -8.4430226    268.20369  0.013311678  0.012273105            2 
 1680000   0.59865358   -8.4365064    268.52108  0.013319498  0.012262463            1 
 1681000   0.57076192    -8.452623    267.99047   0.01328527  0.012251827            2 
 1682000   0.57506024    -8.445121    267.92728  0.013274241  0.012241196            2 
 1683000   0.57428708   -8.4668295    268.17729  0.013278733  0.012230584            2 
 1684000      0.57062   -8.4534059     268.0085  0.013262495  0.012219987            2 
 1685000   0.57170332    -8.440749    267.91113  0.013249808  0.012209407            1 
 1686000   0.59097402   -8.4520771    268.07062  0.013249833  0.012198832            2 
 1687000   0.57491727   -8.4519543    268.28535  0.013252586  0.012188275            3 
 1688000   0.58099838   -8.4400859    267.29272  0.013195731  0.012177724            1 
 1689000   0.59214314   -8.4432671    268.14148  0.013229795  0.012167173            2 
 1690000   0.57899903   -8.4482457    267.60964  0.013195741  0.012156638            3 
 1691000   0.58183135   -8.4616282     267.8137  0.013197994  0.012146117            2 
 1692000   0.56479646   -8.4613708    268.27581  0.013212954  0.012135599            2 
 1693000   0.59526094   -8.4420314    267.87475  0.013185408   0.01212509            1 
 1694000   0.57567942   -8.4430268     267.8128  0.013174577    0.0121146            2 
 1695000   0.57758507   -8.4529509    268.03758  0.013177855  0.012104115            3 
 1696000   0.58706672   -8.4506453    267.57429  0.013147322  0.012093619            2 
 1697000   0.57664459   -8.4525001    267.82094  0.013151686  0.012083157            2 
 1698000   0.58339754   -8.4519032    268.22324  0.013163685  0.012072709            1 
 1699000   0.57248937    -8.460179     267.8069  0.013135516  0.012062284            3 
 1700000   0.57972017    -8.449122    267.85796  0.013130292  0.012051849            2 
 1701000   0.55788316   -8.4536437    268.01672  0.013130351  0.012041432            6 
 1702000   0.57598241   -8.4672487    267.75929  0.013110032  0.012031027            3 
 1703000   0.57912053    -8.449394    267.76056  0.013102396  0.012020637            3 
 1704000    0.5772218   -8.4476153    267.38721  0.013076448  0.012010246            2 
 1705000   0.56933387   -8.4504396    268.17919  0.013107487  0.011999877            4 
 1706000   0.57515915   -8.4541124    267.35497  0.013059543  0.011989515            2 
 1707000   0.57191713   -8.4604588     267.7975  0.013073496  0.011979177            2 
 1708000   0.55893959   -8.4513607    267.97077  0.013074296  0.011968838            2 
 1709000   0.56144285    -8.454827    268.16297  0.013076018  0.011958513            3 
 1710000   0.56527134   -8.4589976    267.79652  0.013050513  0.011948185            2 
 1711000   0.56701474   -8.4551613    267.92137  0.013048966  0.011937879            4 
 1712000   0.57107789   -8.4601132    268.22302  0.013056027  0.011927592            2 
 1713000   0.56312576   -8.4581739       267.64  0.013020043  0.011917304            1 
 1714000   0.56484032   -8.4678448    267.82493  0.013021438  0.011907026            2 
 1715000   0.56774814   -8.4719139    267.66624  0.013006134  0.011896747            1 
 1716000   0.57003727    -8.449434    267.95136  0.013012401  0.011886473            3 
 1717000   0.55504437   -8.4558633    266.90957   0.01295426  0.011876213            4 
 1718000   0.57230336   -8.4875408    267.57327  0.012978913  0.011865958            2 
 1719000   0.55972114   -8.4859827    267.32267  0.012959214   0.01185572            3 
 1720000    0.5597697   -8.4845933    267.50409   0.01296047  0.011845482            2 
 1721000   0.56137289   -8.4647132     267.5578  0.012955539  0.011835268            2 
 1722000   0.56720812    -8.484886    267.30359  0.012935714  0.011825064            3 
 1723000   0.56980685   -8.4600956     267.5443  0.012939848  0.011814872            2 
 1724000   0.56380907   -8.4711364    267.57325  0.012933742  0.011804703            3 
 1725000   0.56438437   -8.4609717    267.68335  0.012931563  0.011794543            2 
 1726000    0.5701609   -8.4702799    268.08074  0.012943257  0.011784407            2 
 1727000   0.55746232   -8.4747786    267.37886  0.012901894  0.011774272            2 
 1728000   0.56230776   -8.4836843    267.02681   0.01287745  0.011764141            1 
 1729000   0.55818543   -8.4852106    267.77966  0.012906288  0.011754005            2 
 1730000   0.56617264   -8.4656596    268.04518  0.012911618  0.011743882            1 
 1731000   0.56459429   -8.4743218    267.53691  0.012879689  0.011733767            2 
 1732000   0.56193372   -8.4894051    267.55133  0.012872947  0.011723675            2 
 1733000   0.56560307   -8.4723704    267.64947  0.012870238  0.011713585            1 
 1734000   0.55721695   -8.4736588    267.73566  0.012866958  0.011703507            1 
 1735000   0.56207958   -8.4955171    267.62984  0.012854459  0.011693433            1 
 1736000   0.56406126   -8.4740074    267.18538  0.012825719  0.011683378            1 
 1737000   0.55584572   -8.4764889    267.38112  0.012827726   0.01167332            3 
 1738000    0.5683668   -8.4788097    267.90004  0.012845226  0.011663277            3 
 1739000   0.56170817   -8.4907879    267.75184  0.012830738  0.011653254            2 
 1740000   0.55565349   -8.4770623    267.32317  0.012802834  0.011643226            3 
 1741000   0.55825233   -8.4811362    266.95903   0.01277805  0.011633202            1 
 1742000   0.55738819   -8.4889939    267.51611  0.012797365  0.011623202            3 
 1743000    0.5483638   -8.4820862     267.7331  0.012800397  0.011613217            2 
 1744000   0.55533648   -8.5030645    267.49769  0.012781809  0.011603238            1 
 1745000   0.55169079   -8.4865326    267.95913   0.01279652  0.011593272            2 
 1746000    0.5715922   -8.4718705    267.55027  0.012769677  0.011583315            4 
 1747000   0.55522547   -8.4845427    267.28028  0.012749489  0.011573375            2 
 1748000   0.54636817   -8.4928702    267.44644  0.012750116  0.011563443            1 
 1749000   0.53684325   -8.4922133    267.36612     0.012739  0.011553512            1 
 1750000   0.55854128   -8.5109474     267.2162  0.012724581  0.011543581            1 
 1751000   0.55567584   -8.5057494     267.1693  0.012715082  0.011533668            2 
 1752000   0.57344646   -8.5078111    267.53962  0.012725439  0.011523756            2 
 1753000   0.55168671   -8.4712425    267.29046  0.012706335  0.011513859            1 
 1754000   0.54159491   -8.5145547    267.36103  0.012702443  0.011503972            1 
 1755000   0.55092929   -8.4898492    266.54086  0.012656261  0.011494093            3 
 1756000    0.5584063   -8.5033874    267.52663  0.012695835  0.011484229            1 
 1757000   0.54663676   -8.5013743    267.40953  0.012683055  0.011474366            1 
 1758000   0.57061974   -8.4992245    266.84206  0.012648941   0.01146453            2 
 1759000   0.54701223   -8.5043626    267.53216  0.012674444  0.011454698            3 
 1760000   0.54949337   -8.4998191    267.39616  0.012660803   0.01144488            3 
 1761000   0.54712277   -8.4962211    267.44997   0.01265616  0.011435073            2 
 1762000   0.54582252   -8.5035443    267.20439  0.012637362  0.011425269            1 
 1763000   0.55046464    -8.510935    266.63252  0.012603163  0.011415476            2 
 1764000   0.53570158   -8.5057665    267.24149  0.012624787  0.011405689            1 
 1765000   0.54404982   -8.5231865    267.11898   0.01261185  0.011395898            1 
 1766000   0.54995537   -8.4945829    267.70188  0.012632214  0.011386125            1 
 1767000   0.54781538    -8.515783    267.72041  0.012625939   0.01137636            3 
 1768000    0.5548502   -8.5167107     267.1947  0.012594019  0.011366598            1 
 1769000   0.52983549   -8.5096538     266.9878  0.012577153  0.011356847            2 
 1770000   0.54540524   -8.5215969     267.5608  0.012597024  0.011347104            1 
 1771000   0.54596741   -8.5075633    267.32967  0.012579036  0.011337362            2 
 1772000   0.56200535   -8.5096388    267.57115  0.012583293  0.011327638            1 
 1773000   0.54753202   -8.5094303    267.37856  0.012567144  0.011317939            1 
 1774000   0.53733625    -8.504015    266.90146  0.012537648  0.011308246            1 
 1775000   0.55222597   -8.5091422    267.57095  0.012562016  0.011298549            2 
 1776000   0.56120911   -8.5334122    267.11071  0.012533348  0.011288872            2 
 1777000   0.54821797    -8.529752    267.35354  0.012537683  0.011279191            2 
 1778000    0.5354625   -8.5358028    266.82691  0.012505948  0.011269527            3 
 1779000   0.54261113   -8.5350498    266.91678  0.012503128   0.01125986            1 
 1780000   0.54792675   -8.5293789    267.33317  0.012515598  0.011250209            2 
 1781000   0.54111852   -8.4991494    266.94947  0.012490617  0.011240571            2 
 1782000   0.54856478   -8.5280002    267.08478  0.012489935  0.011230942            1 
 1783000   0.54585231     -8.51386     266.8619  0.012472514  0.011221333            1 
 1784000   0.54129215   -8.5363741    266.77164  0.012461306  0.011211728            2 
 1785000   0.54647006   -8.5340926    267.34088    0.0124809  0.011202136            2 
 1786000     0.541314   -8.5436022    266.78404   0.01244793   0.01119256            2 
 1787000   0.55214203   -8.5291606    266.78557  0.012441036  0.011182993            1 
 1788000   0.53052731   -8.5107043     267.0187  0.012444943   0.01117343            4 
 1789000   0.54922413   -8.5235876    266.91114  0.012432977  0.011163883            1 
 1790000    0.5321303   -8.5240703    267.02339  0.012431256  0.011154341            2 
 1791000   0.52655893   -8.5129423    267.19074  0.012432102  0.011144794            2 
 1792000   0.53362064   -8.5263934    267.29322   0.01242993  0.011135269            2 
 1793000    0.5388025   -8.5292175    266.86432  0.012403064  0.011125771            1 
 1794000   0.54477564   -8.5326448    266.56894   0.01238243  0.011116276            1 
 1795000   0.53065825   -8.5433504    266.31661  0.012363817  0.011106787            2 
 1796000   0.53224839   -8.5211443    266.92417  0.012385123    0.0110973            2 
 1797000   0.54142444   -8.5319336    266.87601  0.012375997  0.011087817            2 
 1798000    0.5323547   -8.5261942    266.83246  0.012367096   0.01107836            2 
 1799000   0.54804978   -8.5425963    266.95127  0.012365725  0.011068893            2 
 1800000   0.54063661   -8.5427562    267.09621  0.012365565  0.011059439            2 
 1801000    0.5280082    -8.549029    266.64693  0.012337911      0.01105            1 
 1802000   0.52610247   -8.5463443     266.7468  0.012335682  0.011040577            2 
 1803000   0.54141352     -8.53328    267.10364  0.012345334  0.011031153            2 
 1804000   0.51562033   -8.5425345    266.46001  0.012308759  0.011021748            3 
 1805000   0.52801114   -8.5348686    266.60331  0.012308555  0.011012355            2 
 1806000    0.5237145   -8.5381186    266.80923  0.012311242  0.011002967            1 
 1807000   0.53145021   -8.5313347    267.08934  0.012317347    0.0109936            2 
 1808000   0.53141001   -8.5595487    267.17673  0.012314562  0.010984237            2 
 1809000   0.52835096   -8.5306782    266.72154  0.012286786  0.010974878            3 
 1810000     0.529496   -8.5485772     266.4975  0.012269683  0.010965525            3 
 1811000   0.52981776   -8.5548804    266.95197   0.01228382  0.010956179            2 
 1812000   0.53226679   -8.5372189    266.71435  0.012266112  0.010946843            2 
 1813000   0.53295374   -8.5316754    266.96446  0.012270843  0.010937525            3 
 1814000   0.51690825   -8.5353418    266.90092   0.01226116  0.010928211            2 
 1815000   0.53131957   -8.5354959    266.83338  0.012251303  0.010918896            5 
 1816000   0.52766343   -8.5613905    266.90878  0.012248017  0.010909591            6 
 1817000   0.52136207    -8.547972    266.37309  0.012216707    0.0109003            1 
 1818000   0.50741371   -8.5491549    266.43065  0.012212626  0.010891009            3 
 1819000   0.53407702   -8.5438863    266.36458  0.012202885  0.010881729            4 
 1820000   0.52720016   -8.5299402     266.5297  0.012203741  0.010872466            1 
 1821000   0.52138128   -8.5558815    266.70081  0.012204869  0.010863214            4 
 1822000   0.52592205     -8.55734     266.5831  0.012192787  0.010853961            4 
 1823000   0.52513591   -8.5592681    266.18031  0.012167686  0.010844718            3 
 1824000   0.52921481   -8.5629688    267.08468  0.012202334  0.010835489            3 
 1825000   0.52012221   -8.5613034    266.22766  0.012156514   0.01082626            3 
 1826000   0.53990231   -8.5399575    266.49581  0.012162094  0.010817046            4 
 1827000   0.52708012   -8.5596406     266.4357  0.012152696  0.010807839            4 
 1828000   0.51197798   -8.5659684    266.79921  0.012162619  0.010798643            4 
 1829000   0.51594771   -8.5604329     266.7156   0.01215216   0.01078946            5 
 1830000   0.51902087   -8.5509252    266.34735   0.01212875  0.010780281            4 
 1831000   0.50922226   -8.5738258    266.64569  0.012135704  0.010771114            3 
 1832000   0.52785695   -8.5543813    266.67147  0.012130252  0.010761956            3 
 1833000     0.524434   -8.5473755    266.54481  0.012117876   0.01075281            2 
 1834000   0.52302349   -8.5658274    266.83738  0.012124563  0.010743666            3 
 1835000   0.52183235   -8.5701356     266.2813  0.012092702  0.010734551            1 
 1836000   0.51268883   -8.5727271    266.33098  0.012088371  0.010725435            1 
 1837000   0.51520072   -8.5573879    265.93122  0.012063655  0.010716328            3 
 1838000   0.51456684   -8.5689205    266.73148  0.012093375  0.010707244            4 
 1839000    0.5185095   -8.5541819    266.43135  0.012073199  0.010698155            2 
 1840000   0.52205312   -8.5581183    266.12232  0.012052641  0.010689071            2 
 1841000   0.51471316   -8.5746819    265.99615  0.012040383  0.010679998            5 
 1842000   0.51077639   -8.5655793    266.32476  0.012048713  0.010670929            3 
 1843000   0.52034859   -8.5527586    266.89547  0.012067981  0.010661874            4 
 1844000    0.5148942   -8.5712272    266.45575  0.012041565  0.010652824            2 
 1845000   0.52394898   -8.5633379    266.15096  0.012021272  0.010643781            4 
 1846000   0.52289004   -8.5651874    266.11438  0.012013109  0.010634748            3 
 1847000   0.51431206   -8.5501227    266.41055  0.012019967  0.010625724            2 
 1848000     0.510623   -8.5813551    266.23179  0.012005402  0.010616718            3 
 1849000   0.50479347   -8.5712472    266.61429  0.012016148  0.010607716            2 
 1850000   0.51823678   -8.5652212    266.49556  0.012004305   0.01059873            2 
 1851000   0.52006239   -8.5705042    266.41406   0.01199415   0.01058974            2 
 1852000   0.51770366   -8.5888122    266.62685  0.011997248  0.010580761            3 
 1853000   0.51324402   -8.5729011    266.11069  0.011967561  0.010571792            4 
 1854000   0.51321138   -8.5675519    266.23922  0.011966883  0.010562841            4 
 1855000   0.53017259   -8.5771004    266.61434  0.011977284  0.010553892            2 
 1856000   0.51466178   -8.5915348    266.24116  0.011954075  0.010544956            1 
 1857000   0.51725389   -8.5697808    266.49812  0.011959169  0.010536025            2 
 1858000   0.52271628   -8.5632256    266.42645  0.011949518  0.010527116            2 
 1859000   0.50563407   -8.5866464    266.42534   0.01194304  0.010518207            4 
 1860000   0.52027143   -8.5615022    266.10596   0.01192231  0.010509301            3 
 1861000    0.5065421   -8.5733768    266.52459   0.01193465  0.010500407            3 
 1862000    0.5122826   -8.5735786    266.41674  0.011923413  0.010491531            3 
 1863000   0.51444009   -8.5790767    265.80223  0.011889525  0.010482676            4 
 1864000   0.50761047   -8.5574855    266.49952   0.01191432  0.010473823            4 
 1865000   0.52265159   -8.5669813    266.65464  0.011914863  0.010464979            2 
 1866000    0.5073483   -8.5827962    266.34541  0.011894668  0.010456133            1 
 1867000   0.51336919   -8.5815972    266.38138  0.011889903  0.010447303            4 
 1868000    0.5146353   -8.5845243    265.75656  0.011855664  0.010438477            3 
 1869000   0.49698464   -8.5850673    266.28723  0.011872982  0.010429661            1 
 1870000   0.51595422   -8.5661045    265.87629   0.01184832  0.010420855            2 
 1871000   0.51334964   -8.5736341    266.02215  0.011848483  0.010412067            2 
 1872000   0.51108406    -8.574241    266.01759  0.011841951  0.010403271            4 
 1873000   0.50484208   -8.5906975    266.10163  0.011839368  0.010394493            3 
 1874000   0.49898031   -8.5761802     265.9227  0.011825093   0.01038572            2 
 1875000   0.50075563   -8.5801959    266.25009  0.011833337  0.010376957            4 
 1876000   0.49350327    -8.580538    266.18518  0.011824146    0.0103682            2 
 1877000   0.50933998   -8.5864369    265.97481  0.011808507  0.010359452            6 
 1878000   0.50014155   -8.5794587    266.46373  0.011823914  0.010350713            2 
 1879000   0.50397339   -8.5936779    266.12189  0.011802461  0.010341989            1 
 1880000   0.50352926   -8.5806978    265.40753  0.011764518  0.010333269            4 
 1881000   0.49966438   -8.5930299    266.33607  0.011799401  0.010324559            1 
 1882000   0.50381861   -8.6062455     266.3605  0.011794213  0.010315858            4 
 1883000   0.50842948   -8.5980032    265.90439  0.011767764  0.010307155            4 
 1884000   0.50369684    -8.583001    266.02367  0.011766793  0.010298471            3 
 1885000   0.49741605   -8.6012086    266.18889  0.011767855  0.010289791            3 
 1886000   0.50350099   -8.5955261    266.12166  0.011758645  0.010281118            2 
 1887000    0.5041004   -8.5928771    265.38457  0.011719862  0.010272453            4 
 1888000   0.49597863   -8.5897333    266.12161  0.011746187  0.010263796            3 
 1889000   0.49613294   -8.5781695    266.42931  0.011753543  0.010255157            2 
 1890000   0.49441512   -8.5970221    265.83171  0.011720975  0.010246534            4 
 1891000   0.49450853   -8.6034219    265.88269  0.011717023  0.010237914            2 
 1892000   0.50022851   -8.5925461    266.04179  0.011717838  0.010229307            2 
 1893000   0.49124624   -8.6069536    265.78744  0.011700451  0.010220699            1 
 1894000   0.48520715   -8.5944258    266.07361  0.011706864  0.010212111            4 
 1895000   0.49366616   -8.5958438    266.01592  0.011698149  0.010203524            2 
 1896000   0.48273375   -8.6063126    266.20039  0.011700087  0.010194951            3 
 1897000   0.50029431   -8.6027248    265.95288  0.011683047   0.01018639            3 
 1898000   0.49962555   -8.6088551    266.24727  0.011689817  0.010177845            1 
 1899000   0.49005157    -8.594345    265.73079  0.011660996  0.010169304            5 
 1900000   0.50123135   -8.5996642    266.01948  0.011667521  0.010160771            2 
 1901000   0.48751932   -8.6015183    266.07159  0.011663668  0.010152246            6 
 1902000   0.50401693   -8.6076978    265.71283  0.011641817  0.010143734            3 
 1903000   0.49860321   -8.6139782    265.79589  0.011639337  0.010135228            5 
 1904000    0.4884082   -8.5886624    266.07299  0.011645352  0.010126736            4 
 1905000   0.48603809   -8.6257375    266.02103  0.011636965  0.010118242            3 
 1906000   0.48917093   -8.6093175    265.56753  0.011611032   0.01010976            2 
 1907000   0.49387463   -8.6040337    265.97303  0.011622663   0.01010128            5 
 1908000   0.49612599   -8.5959064    265.98874  0.011617258  0.010092822            3 
 1909000    0.4951319   -8.6018544    266.25648   0.01162286   0.01008437            2 
 1910000   0.49387011   -8.6079181    265.75717   0.01159499  0.010075925            6 
 1911000   0.49262508   -8.6079848    266.00876  0.011599893  0.010067488            6 
 1912000   0.48371252   -8.6280153     266.0542  0.011595807  0.010059066            5 
 1913000   0.48464808   -8.6365037    266.15383  0.011594086  0.010050644            4 
 1914000   0.47886265   -8.6195522    265.88926  0.011576509  0.010042232            2 
 1915000   0.50185849   -8.6304569    265.80149  0.011566644  0.010033828            3 
 1916000   0.50030614   -8.6052485    266.18995  0.011577503  0.010025431            2 
 1917000   0.49369688   -8.6200606    265.97947  0.011562314  0.010017048            2 
 1918000   0.47732901   -8.5984303    265.87048   0.01155155  0.010008672            2 
 1919000   0.48756649   -8.6152801    266.07436  0.011554384  0.010000293            3 
 1920000   0.48495721   -8.6260594    265.33571  0.011516307 0.0099919256            3 
 1921000   0.48477771   -8.6154362    265.73137  0.011527476 0.0099835804            2 
 1922000   0.49591912   -8.6349602    265.71218  0.011520646 0.0099752387            4 
 1923000    0.4671643   -8.6186757    265.92287  0.011523785 0.0099669129            3 
 1924000    0.4742514   -8.6018771    265.90905  0.011517197 0.0099585883            5 
 1925000   0.48735606   -8.6202782    265.62956  0.011499115 0.0099502736            2 
 1926000   0.48250084   -8.6022992    265.78829  0.011500013 0.0099419682            2 
 1927000   0.47955354   -8.6215825    266.05508  0.011505582 0.0099336773            4 
 1928000   0.49513496   -8.6356303    265.78239  0.011487828 0.0099253862            4 
 1929000   0.48203289   -8.6303952     266.0967  0.011495451 0.0099170986            5 
 1930000   0.47988515   -8.6281862    265.40291  0.011459538 0.0099088208            4 
 1931000   0.47952516   -8.6164899    265.71147   0.01146692 0.0099005592            4 
 1932000    0.4826574   -8.6364339    265.94315  0.011470978 0.0098923059            4 
 1933000    0.4917883   -8.6080211    266.06185  0.011470161 0.0098840569            4 
 1934000    0.4859984   -8.6042167    265.50322  0.011440159 0.0098758139            1 
 1935000    0.4718875   -8.6138789    265.73845  0.011444378 0.0098675812            4 
 1936000   0.48890739   -8.6329575    265.68128  0.011436006 0.0098593617            2 
 1937000   0.47702881   -8.6210978    265.56141  0.011424944  0.009851154            5 
 1938000   0.47950837   -8.6257982    265.94194  0.011435412 0.0098429558            3 
 1939000   0.48627607   -8.6381908     265.7462  0.011421102 0.0098347708            2 
 1940000    0.4735857   -8.6262439     265.4719  0.011403432 0.0098265952            4 
 1941000   0.46675319   -8.6288624     265.7024  0.011407453 0.0098184092            5 
 1942000   0.48356218   -8.6404732    265.23103  0.011381352 0.0098102318            2 
 1943000   0.47536718   -8.6289079    265.44475  0.011384661 0.0098020637            2 
 1944000   0.47846819   -8.6374001    265.26395  0.011371054 0.0097938969            2 
 1945000   0.47978327   -8.6198121    265.15389  0.011360492 0.0097857401            3 
 1946000   0.47467369   -8.6282133    265.76193  0.011380693 0.0097775919            3 
 1947000    0.4809656   -8.6093599    265.83456  0.011377956 0.0097694578            2 
 1948000   0.48158023   -8.6351163     265.5236  0.011358812  0.009761329            4 
 1949000   0.47782718   -8.6568501    265.40792  0.011348038 0.0097532091            3 
 1950000   0.46658351   -8.6420463    265.30482  0.011337813 0.0097450962            2 
 1951000   0.47578562   -8.6371032    265.71604  0.011349566 0.0097369897            1 
 1952000   0.47368051    -8.629316    265.60823  0.011339149 0.0097289013            2 
 1953000   0.47212577   -8.6342486    265.53457    0.0113302 0.0097208086            2 
 1954000   0.47483766   -8.6298246     265.4213  0.011319571 0.0097127276            4 
 1955000   0.46507359   -8.6355812    265.74241  0.011327469 0.0097046642            1 
 1956000   0.46953435   -8.6424002    265.42727  0.011308251 0.0096965953            2 
 1957000   0.46288444   -8.6218348    265.26696  0.011295647 0.0096885324            2 
 1958000    0.4743117   -8.6474696    265.42774   0.01129672 0.0096804822            1 
 1959000   0.47068926   -8.6497455    265.51378  0.011294614 0.0096724401            2 
 1960000   0.46752792   -8.6404555    265.15791  0.011273721 0.0096644085            3 
 1961000   0.48348273   -8.6428911     265.6602  0.011289317   0.00965639            2 
 1962000   0.47134635   -8.6505193    265.60199   0.01128109  0.009648378            2 
 1963000   0.47617739   -8.6405416    265.10311  0.011254165 0.0096403682            2 
 1964000   0.47002835   -8.6451088    265.50594  0.011265527 0.0096323687            3 
 1965000   0.46295701   -8.6336345    265.60595  0.011264035 0.0096243743            2 
 1966000   0.46918267   -8.6578454    265.37626   0.01124857 0.0096163867            1 
 1967000   0.47425252   -8.6437784    265.12016  0.011232001   0.00960841            2 
 1968000   0.45972847   -8.6418946    265.28732  0.011233372 0.0096004399            1 
 1969000   0.46775452   -8.6578569    264.90643  0.011211547 0.0095924854            4 
 1970000   0.46548075   -8.6449258    265.02905  0.011211043 0.0095845332            3 
 1971000    0.4628998   -8.6547964    265.45768  0.011223477 0.0095765931            2 
 1972000   0.45450697   -8.6530596    265.29743  0.011211014 0.0095686597            2 
 1973000   0.47564473   -8.6346759    265.34937  0.011207525 0.0095607411            1 
 1974000   0.45566534    -8.647106    265.17867  0.011194641 0.0095528309            2 
 1975000   0.46847408   -8.6584939    265.08357  0.011184961   0.00954492            2 
 1976000   0.45801073   -8.6577771    265.16683  0.011182812 0.0095370177            2 
 1977000    0.4836184   -8.6626598    265.51784  0.011191951 0.0095291245            3 
 1978000   0.46382449   -8.6717096    265.46177   0.01118393 0.0095212444            2 
 1979000   0.46182346   -8.6452937    264.98449  0.011158181 0.0095133732            2 
 1980000   0.46991137   -8.6466522    265.52992  0.011175502 0.0095055059            2 
 1981000   0.44911015    -8.664252    265.49327  0.011168318 0.0094976568            1 
 1982000   0.46825496   -8.6617663    265.21679  0.011151059 0.0094898037            2 
 1983000   0.44943685   -8.6379009    264.74003    0.0111254 0.0094819585            2 
 1984000   0.45235465   -8.6571845    265.08333  0.011134213 0.0094741256            1 
 1985000   0.47025616   -8.6665037    265.20923  0.011133889 0.0094662939            3 
 1986000   0.45331677   -8.6641743    265.04727  0.011121487 0.0094584691            1 
 1987000   0.45923749   -8.6511455    264.99171  0.011113559 0.0094506617            3 
 1988000   0.46509153   -8.6735166     265.1412  0.011114236 0.0094428605            4 
 1989000   0.45723634   -8.6623699    264.98885  0.011102265 0.0094350598            2 
 1990000   0.46332246   -8.6725005      265.011  0.011097613 0.0094272741            2 
 1991000   0.44906587   -8.6664487    265.18011  0.011099117 0.0094194983            3 
 1992000   0.45167656   -8.6515174    265.11309  0.011090742 0.0094117282            1 
 1993000   0.45480701   -8.6706229    264.68013  0.011067073 0.0094039576            2 
 1994000   0.45510065    -8.653068    264.86554  0.011069272 0.0093961987            2 
 1995000   0.45847399   -8.6692568    264.95441  0.011067435 0.0093884448            2 
 1996000   0.45537355   -8.6634032    264.85252  0.011057637 0.0093806975            3 
 1997000   0.45357268   -8.6730847    264.80217  0.011049999 0.0093729631            2 
 1998000   0.44431545   -8.6501361    265.42434  0.011070418 0.0093652417            1 
 1999000   0.46074095   -8.6587477    264.95392  0.011045269 0.0093575289            3 
 2000000   0.46057563   -8.6656642    265.21073  0.011050447  0.009349827            2 
 2001000   0.45613321   -8.6776971    265.56411  0.011059642 0.0093421351            1 
 2002000   0.44691514    -8.667143    265.06629  0.011033396 0.0093344461            2 
 2003000   0.44591183   -8.6610502    265.21674  0.011034146 0.0093267568            2 
 2004000   0.45235569   -8.6637028    265.21813  0.011028698 0.0093190814            6 
 2005000   0.46408567   -8.6664965    264.97559  0.011013117 0.0093114126            4 
 2006000   0.44658632   -8.6772972    265.15074  0.011014903 0.0093037561            3 
 2007000   0.45401285   -8.6562391    264.89569  0.010998825   0.00929611            1 
 2008000   0.44801134   -8.6579237    265.26281  0.011008583 0.0092884733            3 
 2009000   0.44611605   -8.6768192    264.98992  0.010991784 0.0092808397            2 
 2010000   0.44823983   -8.6706254    264.40763  0.010962174 0.0092732119            5 
 2011000   0.45242483   -8.6650919    265.07398  0.010984335 0.0092655944            2 
 2012000   0.46027903   -8.6741934    265.11896  0.010980739 0.0092579813            3 
Loop time of 4757.7 on 48 procs for 2000000 steps with 4000 atoms

Performance: 72640.167 tau/day, 420.371 timesteps/s
99.4% CPU use with 48 MPI tasks x no OpenMP threads

MPI task timing breakdown:
Section |  min time  |  avg time  |  max time  |%varavg| %total
---------------------------------------------------------------
Pair    | 300.85     | 321.95     | 338.25     |  48.1 |  6.77
Neigh   | 31.24      | 32.601     | 34.071     |  12.1 |  0.69
Comm    | 307.87     | 327.22     | 352.8      |  57.5 |  6.88
Output  | 4.1631     | 4.1652     | 4.2013     |   0.3 |  0.09
Modify  | 4019.6     | 4027.9     | 4036       |   6.0 | 84.66
Other   |            | 43.82      |            |       |  0.92

Nlocal:        83.3333 ave          91 max          77 min
Histogram: 2 2 10 4 10 7 6 6 0 1
Nghost:        2051.02 ave        2077 max        2032 min
Histogram: 3 2 13 5 8 3 9 2 2 1
Neighs:        13375.0 ave       14622 max       12076 min
Histogram: 1 3 3 10 7 7 8 3 3 3
FullNghs:      26750.1 ave       29415 max       24742 min
Histogram: 2 4 8 7 10 6 6 4 0 1

Total # of neighbors = 1284004
Ave neighs/atom = 321.00100
Neighbor list builds = 107111
Dangerous builds = 0

#clear
#
#next RN
#
#jump SELF
Total wall time: 1:19:21
