
units lj                  # Use reduced LJ style units
atom_style atomic         # Uncharged point particles
atom_modify map hash      # Needed for indexing of clusters etc
                          # Used to be able to find where atoms are in relation to each other.

lattice fcc 1.0 spacing 1 1 1
Lattice spacing in x,y,z = 1.5874011 1.5874011 1.5874011
region box block 0 10 0 10 0 10 units lattice
create_box 2 box
Created orthogonal box = (0.0000000 0.0000000 0.0000000) to (15.874011 15.874011 15.874011)
  3 by 4 by 4 MPI processor grid
create_atoms 1 box
Created 4000 atoms
  using lattice units in orthogonal box = (0.0000000 0.0000000 0.0000000) to (15.874011 15.874011 15.874011)
  create_atoms CPU = 0.003 seconds
set type 1 type/fraction 2 0.25 78393
Setting atom values ...
  1031 settings made for type/fraction
mass 1 1.0
mass 2 1.0
pair_style lj/cut  3.5
pair_modify tail  yes
pair_coeff 1  1  1.0  1.0   # Intearaction between 1 and 1 set with epsilon = 1 and sigma = 1
pair_coeff 1  2  1.5  0.8
pair_coeff 2  2  0.5  0.88

write_data data.0
System init for write_data ...
Neighbor list info ...
  update every 1 steps, delay 10 steps, check yes
  max neighbors/atom: 2000, page size: 100000
  master list distance cutoff = 3.8
  ghost atom cutoff = 3.8
  binsize = 1.9, bins = 9 9 9
  1 neighbor lists, perpetual/occasional/extra = 1 0 0
  (1) pair lj/cut, perpetual
      attributes: half, newton on
      pair build: half/bin/atomonly/newton
      stencil: half/bin/3d
      bin: standard
WARNING: Not all mixed pair coeffs generated from mixing. Use write_data with 'pair ij' option to store all pair coeffs. (../write_data.cpp:312)


#############################
#   M E L T   S Y S T E M   #
#############################

velocity all create 2.4 6583654 mom yes dist gaussian # Assign velocities
                                                    # Temperature 2.4, random number seed, zero linear momentum
                                                                                # Gaussian distribution

timestep 0.002   # simulation timestep
thermo 1000       # output thermodynamic data every 1000 steps bf 100

# Define a fix  in this case with index 1 applied to all
# particles in the simulation. This fix is for simulations
# in the anisotropic NPT ensemble. Note that we use the MTK
# correction.
fix 1 all npt temp 2.4 2.4 0.1 iso 5.68 5.68 0.5 mtk yes tchain 5 pchain 5 # Use NPT ensemble
                                                                         # Set temperature and pressure and damping
                                                                         # Numbers of thermostats in chain and in barostat
run 10000          # run for 10000 steps
Per MPI rank memory allocation (min/avg/max) = 3.642 | 3.644 | 3.648 Mbytes
Step Temp E_pair E_mol TotEng Press Volume 
       0          2.4   -6.7340002            0   -3.1349002   -3.8290783         4000 
    1000    2.3360965   -4.9418408            0   -1.4385722    5.8204702    4276.1502 
    2000    2.4421272    -4.954683            0    -1.292408    5.7530281    4280.9788 
    3000    2.4105533   -4.9536496            0   -1.3387235    5.8375134    4272.5058 
    4000    2.3872988   -4.9237454            0   -1.3436925    5.8090833    4289.8388 
    5000    2.3153177   -4.9826224            0   -1.5105142    5.2628908    4302.9044 
    6000    2.3384154   -4.8642758            0   -1.3575296     5.789035    4316.2841 
    7000    2.3912532   -4.9338238            0   -1.3478407    5.4181415    4333.0647 
    8000    2.3531429    -4.852907            0    -1.324075    5.8768083    4315.0299 
    9000    2.4528244   -4.9130463            0   -1.2347295    5.6120214    4316.3304 
   10000    2.4196406    -4.889346            0   -1.2607924    6.0084399    4289.7823 
Loop time of 2.44493 on 48 procs for 10000 steps with 4000 atoms

Performance: 706768.741 tau/day, 4090.097 timesteps/s
99.6% CPU use with 48 MPI tasks x no OpenMP threads

MPI task timing breakdown:
Section |  min time  |  avg time  |  max time  |%varavg| %total
---------------------------------------------------------------
Pair    | 0.99631    | 1.0759     | 1.1892     |   3.7 | 44.01
Neigh   | 0.19587    | 0.20778    | 0.23182    |   1.5 |  8.50
Comm    | 0.74866    | 0.88104    | 0.9797     |   5.0 | 36.04
Output  | 0.00023743 | 0.0002435  | 0.00030986 |   0.0 |  0.01
Modify  | 0.23807    | 0.26518    | 0.29486    |   2.8 | 10.85
Other   |            | 0.01479    |            |       |  0.61

Nlocal:        83.3333 ave          90 max          75 min
Histogram: 1 2 6 3 8 3 11 4 4 6
Nghost:        1568.48 ave        1606 max        1535 min
Histogram: 1 1 7 8 12 6 7 4 0 2
Neighs:        8892.98 ave        9834 max        7877 min
Histogram: 2 2 9 5 7 5 4 7 2 5

Total # of neighbors = 426863
Ave neighs/atom = 106.71575
Neighbor list builds = 904
Dangerous builds = 191

# Equilibrate just above the melting temperature to avoid step fn in T

fix 1 all npt temp 1.25 1.25 0.1 iso 5.68 5.68 0.5 mtk yes tchain 5 pchain 5
run 2000
Per MPI rank memory allocation (min/avg/max) = 3.643 | 3.645 | 3.649 Mbytes
Step Temp E_pair E_mol TotEng Press Volume 
   10000    2.4196406    -4.889346            0   -1.2607924    6.0084399    4289.7823 
   11000    1.2164124   -6.7064264            0    -4.882264    5.7028082    3490.3489 
   12000     1.272934   -6.6847049            0   -4.7757812    5.4707271    3514.6572 
Loop time of 0.540433 on 48 procs for 2000 steps with 4000 atoms

Performance: 639486.873 tau/day, 3700.734 timesteps/s
99.7% CPU use with 48 MPI tasks x no OpenMP threads

MPI task timing breakdown:
Section |  min time  |  avg time  |  max time  |%varavg| %total
---------------------------------------------------------------
Pair    | 0.23286    | 0.25786    | 0.28896    |   2.5 | 47.71
Neigh   | 0.035092   | 0.037472   | 0.041752   |   0.7 |  6.93
Comm    | 0.16695    | 0.19396    | 0.22755    |   3.2 | 35.89
Output  | 5.0312e-05 | 5.1321e-05 | 6.5532e-05 |   0.0 |  0.01
Modify  | 0.037854   | 0.046473   | 0.056043   |   2.4 |  8.60
Other   |            | 0.004614   |            |       |  0.85

Nlocal:        83.3333 ave          92 max          74 min
Histogram: 1 0 8 8 4 6 13 5 1 2
Nghost:        1793.17 ave        1831 max        1775 min
Histogram: 6 9 13 7 2 1 7 2 0 1
Neighs:        10881.2 ave       12279 max        9611 min
Histogram: 2 3 7 6 13 6 2 4 1 4

Total # of neighbors = 522299
Ave neighs/atom = 130.57475
Neighbor list builds = 141
Dangerous builds = 9

#############################
# L I N E A R  Q U E N C H  #
#############################

# Define solid atoms. This closely follows ten Wolde  Ruiz-Montero and Frenkel  Faraday Discuss  1996  104  93-110
# Compute components of the per-atom q6 vector
compute q6 all orientorder/atom degrees 1 6 components 6 nnn NULL cutoff 1.3 # compute the Q6 parameter.
                                                                             # Use all neighbours within 1.3 unit cell.

# get number of connections
compute coord_number all coord/atom orientorder q6 0.5

# An atom is solid if it has 8 or more connections (of a possible 14)
variable is_solid atom c_coord_number>=8
group solid dynamic all var is_solid    # Must be dynamic to update
dynamic group solid defined

# do clustering
compute cluster solid cluster/atom 1.3 # Create a cluster where all atoms within are solid and max 1.3 units from another member

# define chunks one chunk per cluster
compute clus_chunks solid chunk/atom c_cluster nchunk every compress yes  # Says which atoms are in which chunk

# count the size of each chunk
compute size_chunks solid property/chunk clus_chunks count


# Find the maximum entry in the vector of chunk sizes
variable max_n equal max(c_size_chunks)


# Thermo style which includes this variable
# thermo_style custom step temp pe vol v_max_n

thermo ${N}  # Print the thermo information every 100 steps
thermo 1000  

# Reset the npt fix at a lower temperature (below freezing)
fix 1  all npt temp  ${temp} ${temp}  0.1  iso  5.68  5.68  0.5  mtk yes tchain  5  pchain  5
fix 1  all npt temp  0.45 ${temp}  0.1  iso  5.68  5.68  0.5  mtk yes tchain  5  pchain  5
fix 1  all npt temp  0.45 0.45  0.1  iso  5.68  5.68  0.5  mtk yes tchain  5  pchain  5

dump dmp2 all dcd ${N} traj.dcd
dump dmp2 all dcd 1000 traj.dcd


compute msd all msd com yes
variable twopoint equal c_msd[4]/6/(step*dt+1.0e-6)
fix 9 all vector 10 c_msd[4]
variable fit equal slope(f_9)/6/(10*dt)
thermo_style custom step temp pe c_msd[4] v_twopoint v_fit v_max_n

fix 1 all npt temp 1.25 ${temp} 0.1 iso 5.68 5.68 0.5 mtk yes tchain 5 pchain 5
fix 1 all npt temp 1.25 0.45 0.1 iso 5.68 5.68 0.5 mtk yes tchain 5 pchain 5
run 5000000 # 5000000  # Run for this many steps
Neighbor list info ...
  update every 1 steps, delay 10 steps, check yes
  max neighbors/atom: 2000, page size: 100000
  master list distance cutoff = 3.8
  ghost atom cutoff = 3.8
  binsize = 1.9, bins = 9 9 9
  4 neighbor lists, perpetual/occasional/extra = 1 3 0
  (1) pair lj/cut, perpetual
      attributes: half, newton on
      pair build: half/bin/atomonly/newton
      stencil: half/bin/3d
      bin: standard
  (2) compute orientorder/atom, occasional
      attributes: full, newton on
      pair build: full/bin/atomonly
      stencil: full/bin/3d
      bin: standard
  (3) compute coord/atom, occasional
      attributes: full, newton on
      pair build: full/bin/atomonly
      stencil: full/bin/3d
      bin: standard
  (4) compute cluster/atom, occasional
      attributes: full, newton on
      pair build: full/bin/atomonly
      stencil: full/bin/3d
      bin: standard
Per MPI rank memory allocation (min/avg/max) = 9.784 | 9.791 | 9.797 Mbytes
Step Temp PotEng c_msd[4] v_twopoint v_fit v_max_n 
   12000     1.272934   -6.6847049  1.11328e-30 7.7311105e-33 8.3333333e+20            3 
   13000    1.2682697   -6.7382587   0.51043332 0.0032720083  0.041732167            1 
   14000    1.2571443   -6.7129445   0.98510508 0.0058637205  0.040164801            1 
   15000    1.2550458   -6.7248774    1.4743912 0.0081910622  0.039823407            2 
   16000    1.2472968   -6.7383877    1.9628717   0.01022329  0.040555582            2 
   17000    1.2259219    -6.740522    2.4206318  0.011865842  0.040410995            2 
   18000    1.2423067   -6.7462644    2.8891993  0.013375922  0.040144935            1 
   19000    1.2557042   -6.7349004    3.3999675  0.014912138  0.039912856            2 
   20000    1.2371998   -6.7370064    4.0116919  0.016715383  0.040482305            1 
   21000    1.2208492   -6.7525339    4.5333405  0.017989446   0.04117425            2 
   22000    1.2611991    -6.751977    5.0261473  0.019038436  0.041573144            1 
   23000    1.2683314   -6.7171138    5.5451816  0.020091237  0.041915179            1 
   24000    1.2749226   -6.7325665    5.9539519  0.020673444  0.041875469            2 
   25000    1.2207566   -6.7397973    6.4089761  0.021363253  0.041675461            2 
   26000    1.2245801    -6.769954    6.9142227   0.02216097  0.041519997            2 
   27000     1.253624   -6.7243247    7.3886736  0.022804548  0.041435175            5 
   28000    1.2555768   -6.7525515    7.9512485   0.02366443  0.041382438            1 
   29000    1.2267489   -6.7599112    8.4290284  0.024221345  0.041422472            2 
   30000    1.2083094   -6.6903513     8.933941  0.024816502  0.041353848            1 
   31000    1.2467726   -6.7944195    9.3402199  0.025108118   0.04127672            1 
   32000    1.2461612   -6.7368936    9.8687364  0.025699834  0.041215086            1 
   33000    1.2302625   -6.7166551    10.445205   0.02637678   0.04123344            1 
   34000    1.2520459   -6.6973983    10.991823  0.026940743  0.041295411            1 
   35000    1.2674425   -6.7268091    11.483319  0.027341236  0.041366926            1 
   36000    1.2380099   -6.7323259     12.06088  0.027918702  0.041466276            2 
   37000    1.2295778   -6.7467937    12.480238  0.028108645   0.04155762            1 
   38000    1.2456011   -6.7860559    12.835991  0.028149104  0.041540504            1 
   39000    1.2268992   -6.7208437    13.430488  0.028697623  0.041507166            1 
   40000    1.2485156   -6.7372931    13.971488  0.029107266  0.041530902            1 
   41000    1.2501253   -6.7398193    14.487882  0.029446914  0.041557695            2 
   42000    1.2574377   -6.7461707    14.856321  0.029476828  0.041543232            1 
   43000    1.2507873   -6.7325303    15.480489  0.030000948  0.041539734            1 
   44000    1.2368734   -6.7248341    16.082653  0.030459569  0.041579724            1 
   45000    1.2350422   -6.7041046     16.42463  0.030415982  0.041596372            1 
   46000    1.2383474      -6.7225    16.945516  0.030698398  0.041588919            4 
   47000     1.257602   -6.7600978    17.375458  0.030807549   0.04159749            1 
   48000    1.2558615    -6.739813    17.769312    0.0308495  0.041545045            1 
   49000    1.2294587   -6.7648852    18.247735  0.031033563  0.041488443            2 
   50000    1.2629894   -6.7507205    18.784262  0.031307104  0.041462589            2 
   51000    1.2343056   -6.7836317     19.24201  0.031441192  0.041434773            1 
   52000    1.2534192   -6.7603134    19.674016  0.031528872  0.041375797            1 
   53000     1.220042    -6.739411    20.179665  0.031729033  0.041332261            3 
   54000    1.2262625   -6.7523035    20.729927  0.031990628  0.041292774            1 
   55000    1.1977322   -6.7417546    21.190695  0.032107114  0.041263458            1 
   56000    1.2329087    -6.760356    21.735161   0.03234399   0.04124483            2 
   57000    1.2443298   -6.7589694    22.284921  0.032580293  0.041231828            1 
   58000    1.2794792   -6.7605213    22.670299  0.032572268  0.041232468            2 
   59000    1.2451728   -6.7406478    23.014014   0.03250567  0.041202383            2 
   60000    1.2572567   -6.7494149    23.404997   0.03250694  0.041132993            3 
   61000    1.2528435    -6.731122    23.745128  0.032438699  0.041034869            1 
   62000    1.2594553   -6.7556268     24.26064  0.032608386  0.040948392            4 
   63000    1.2157005   -6.7625329    24.855266  0.032877335  0.040903243            1 
   64000    1.2275708   -6.7484683    25.526458  0.033237576  0.040876046            1 
   65000    1.2483451   -6.8009638    26.013403  0.033350517  0.040868591            3 
   66000    1.2213748    -6.709928    26.623072   0.03361499  0.040862891            2 
   67000    1.2019814   -6.7682712     26.91111  0.033471529  0.040844526            1 
   68000    1.2394695   -6.7239139    27.380922  0.033555052  0.040808105            3 
   69000    1.2132578    -6.719856     27.58598    0.0333164   0.04075905            2 
   70000    1.2494477    -6.726552    28.162588   0.03352689  0.040698235            1 
   71000    1.2243016   -6.7229414    28.388883  0.033320286  0.040633253            1 
   72000    1.2184665   -6.7338429    29.028543   0.03359785  0.040566959            1 
   73000    1.2499733   -6.7889973    29.449811  0.033618506  0.040515139            1 
   74000    1.2023241   -6.7687578    29.964018  0.033743263  0.040477314            1 
   75000    1.2675079   -6.7729443    30.599744  0.033999715  0.040434124            3 
   76000    1.2275926   -6.7556596    31.040229  0.034035338   0.04040631            2 
   77000    1.2367223   -6.7453796    31.574365   0.03417139  0.040382206            2 
   78000    1.2359303   -6.7908917    32.079813  0.034273304  0.040366322            1 
   79000     1.228113   -6.6852649    32.633177  0.034423183  0.040345802            1 
   80000    1.2209067   -6.7111974    32.836534  0.034204723  0.040314946            3 
   81000    1.2284491   -6.7655385    33.308308  0.034267806  0.040281583            1 
   82000    1.2533667   -6.7204742    33.994966   0.03454773  0.040257827            3 
   83000    1.2440528   -6.7826673    34.386205  0.034524302  0.040238332            2 
   84000    1.2367278   -6.8114802    34.759613  0.034483743  0.040217471            2 
   85000    1.2388942   -6.7348138    35.436899  0.034742058  0.040207569            2 
   86000    1.2307856   -6.7537052     35.94515  0.034830572  0.040196007            1 
   87000    1.2168963   -6.7509414      36.5127   0.03497385  0.040193422            1 
   88000    1.2449772   -6.7470433    36.939333  0.034980429  0.040200403            1 
   89000    1.2330122   -6.7671669    37.468319  0.035082695  0.040201066            1 
   90000    1.2107746   -6.7492212    37.782151  0.034983473  0.040196671            1 
   91000    1.2010082   -6.7271109    38.212901  0.034993499   0.04018279            2 
   92000    1.2463004   -6.7563601    38.725747  0.035077669  0.040174787            1 
   93000    1.2420206   -6.7339496      39.1642  0.035093369  0.040163209            1 
   94000    1.2208819   -6.7757543    39.563747  0.035074244  0.040145848            3 
   95000    1.2031373   -6.7453427    40.123038  0.035195647  0.040128458            2 
   96000    1.2300582   -6.7669734     40.53862  0.035189774  0.040114158            1 
   97000    1.2379647   -6.7462069    41.052536  0.035268501  0.040098211            2 
   98000    1.2188721   -6.7511805    41.374364  0.035182282  0.040087806            1 
   99000    1.2532495    -6.762981    42.012622   0.03536416  0.040079226            2 
  100000    1.2177256   -6.7271181    42.228886  0.035190739  0.040064971            1 
  101000    1.2242882   -6.7481054     42.76975  0.035288573  0.040049412            1 
  102000    1.2175865   -6.7462891    43.248103  0.035333418  0.040026983            3 
  103000     1.268206   -6.7419102    43.751272  0.035397469  0.040004023            2 
  104000     1.232295   -6.7316941    44.027564  0.035278497  0.039981132            1 
  105000    1.2610365   -6.7747253    44.312351  0.035168532  0.039947309            1 
  106000     1.226777    -6.755756    44.854634  0.035263076  0.039913944            1 
  107000    1.2359122   -6.7321889     45.41592  0.035370654  0.039881894            1 
  108000    1.2490018   -6.7398359    45.957975    0.0354614  0.039857111            2 
  109000    1.2437386   -6.7060907    46.509836  0.035557979   0.03983915            1 
  110000    1.2480374   -6.7779621    47.137576  0.035710285  0.039827608            4 
  111000    1.2312526   -6.7714369    47.288174  0.035501632  0.039813985            3 
  112000    1.2584503   -6.7600093    47.637535  0.035444594   0.03979438            1 
  113000    1.2049572   -6.7585634    48.234466   0.03557114  0.039773738            1 
  114000    1.2353918   -6.7305305    48.493371   0.03544837  0.039749447            1 
  115000    1.1978942   -6.7341661    49.154007  0.035618846  0.039725346            1 
  116000    1.2394842   -6.7726239    49.516917  0.035572497  0.039703414            2 
  117000    1.2365403   -6.7602023    49.765957  0.035445838  0.039680156            1 
  118000    1.2512592   -6.7533576    50.445553  0.035625391  0.039654286            1 
  119000    1.2450567   -6.7766095    50.998599  0.035713305  0.039638796            1 
  120000     1.229933   -6.7687151    51.483549  0.035752464  0.039625684            1 
  121000    1.2352797   -6.7595354    51.935744  0.035768419  0.039611104            1 
  122000    1.2281706   -6.8378102    52.174643  0.035638417  0.039591787            2 
  123000    1.2517015   -6.7548914    52.937313  0.035865388  0.039575131            1 
  124000    1.2188738   -6.7406119    53.598061  0.036020202  0.039566382            1 
  125000    1.2529379   -6.7776599    54.044268  0.036029512  0.039560354            1 
  126000    1.2343001   -6.7337441      54.6352  0.036134391  0.039555736            4 
  127000    1.2337159   -6.7452259    54.828033    0.0359764  0.039550062            2 
  128000    1.2502312   -6.8155868     55.06456  0.035849322  0.039537126            2 
  129000     1.222946   -6.7882557    55.457334  0.035825151  0.039518276            3 
  130000    1.2132013   -6.7509471    55.984578   0.03588755  0.039504201            2 
  131000    1.2169393   -6.7607647    56.772018  0.036114515  0.039494752            2 
  132000    1.2273192   -6.7283012    57.241643  0.036137401  0.039484548            2 
  133000    1.1998387   -6.7570368    57.813343  0.036223899  0.039475762            1 
  134000     1.233076   -6.7952846    58.070885  0.036113734  0.039467027            2 
  135000    1.2169151    -6.760884    58.616228  0.036182857   0.03945608            2 
  136000    1.2317052   -6.7520022    58.837258  0.036052241  0.039444582            3 
  137000    1.2334603   -6.7585153    59.236889  0.036032171  0.039432056            1 
  138000    1.2394533   -6.7214911    59.950852  0.036202205   0.03942027       -1e+20 
  139000    1.2286606   -6.7843905    60.553942  0.036303322  0.039413004            1 
  140000     1.233501   -6.8000324    61.067385  0.036349634  0.039413868            1 
  141000    1.2180377   -6.7364472     61.37471  0.036273469  0.039407076            1 
  142000    1.2510459   -6.7559597    61.766019  0.036247664  0.039398221            1 
  143000    1.2412418   -6.7371566    62.391831  0.036358876  0.039390497            1 
  144000    1.2101843   -6.7597461    62.913755  0.036408423   0.03938467            1 
  145000    1.2241971   -6.7285912    63.539082  0.036516714  0.039380544            2 
  146000    1.2317331   -6.7999934    63.529669  0.036261226  0.039374348            1 
  147000    1.2464855   -6.7096325    64.082793  0.036328114    0.0393682            1 
  148000    1.2173114   -6.8318879    64.409034  0.036266348  0.039362133            1 
  149000    1.2324647    -6.784821    65.347725  0.036547945  0.039359404            1 
  150000    1.2517307   -6.7764616    65.446887  0.036359381   0.03935682            1 
  151000    1.2396495   -6.7626548    65.962069  0.036402908  0.039352821            1 
  152000     1.244543   -6.7316526    66.793169  0.036619062  0.039348701            3 
  153000    1.2420324   -6.7445664    67.398358  0.036709345  0.039351148            2 
  154000    1.2369274   -6.7809792    67.748363  0.036660369  0.039350295            1 
  155000    1.2204668   -6.7361622    68.182409  0.036657209  0.039349489            1 
  156000    1.2386424   -6.7535851    68.775063  0.036738815  0.039351185            1 
  157000    1.2222622   -6.7706899    69.196517  0.036728512  0.039352016            2 
  158000    1.2364711   -6.7680375    69.700342  0.036761784  0.039353376            2 
  159000    1.2344507   -6.8080798    69.863725  0.036616208  0.039354189            2 
  160000    1.2152999   -6.7658141     70.75779  0.036853015  0.039353623            1 
  161000    1.2484137   -6.7757265     70.63054   0.03655825  0.039352065            1 
  162000    1.2556035   -6.8104647    71.342133  0.036698628  0.039346252            1 
  163000    1.2110572   -6.7651933    72.062347  0.036841691  0.039345688            2 
  164000    1.2149576    -6.795469    72.132046  0.036652463  0.039345455            2 
  165000    1.2265148    -6.732218    72.915637  0.036826079  0.039342689            3 
  166000    1.2480828   -6.7827929    73.048085  0.036670725  0.039339847            1 
  167000    1.2155596   -6.7739124    73.824532  0.036838589  0.039341406            1 
  168000    1.2218429   -6.7784298    74.195614   0.03680338   0.03934185            2 
  169000    1.2227207   -6.7911395    74.507735  0.036739514  0.039342041            1 
  170000    1.2288094   -6.7792103    75.333918  0.036928391  0.039344169            3 
  171000    1.1936235   -6.7822882    75.851459  0.036964648  0.039347143            4 
  172000    1.2084079   -6.8074077    76.379757  0.037005696  0.039351188            2 
  173000    1.2167245   -6.7943602    76.450761  0.036825993  0.039354605            2 
  174000     1.235019   -6.8137276    77.248025  0.036996181  0.039356546            2 
  175000    1.2130345   -6.7655081    77.752321  0.037024914  0.039358193            6 
  176000    1.2158134   -6.7864218    77.790652  0.036832695  0.039356294            2 
  177000     1.242006   -6.7403019    78.561858  0.036987692  0.039353901            1 
  178000    1.2187724   -6.7600599    78.820536     0.036901  0.039352266            2 
  179000    1.2019344   -6.7887156    79.232409  0.036886596  0.039348874            1 
  180000    1.2035812   -6.7561316    79.578931  0.036842098  0.039343849            2 
  181000    1.2279355   -6.7795522    79.821822  0.036750378  0.039337763            4 
  182000    1.2279072   -6.7736436    80.421621  0.036823086  0.039330113            3 
  183000    1.2074014   -6.7763447    80.639904  0.036721268  0.039320205            3 
  184000    1.2314139   -6.8134553    80.889746  0.036634849  0.039305996            3 
  185000    1.2197095   -6.7745043    81.451831  0.036690014  0.039290425            1 
  186000    1.2021082   -6.8145694    81.728491  0.036616707  0.039276122            2 
  187000    1.1883038   -6.7255237    82.213694  0.036637119   0.03925882            1 
  188000    1.2069693    -6.763294    82.698689   0.03665722  0.039243718            5 
  189000    1.2223672   -6.8241911    82.876731  0.036541768  0.039229259            3 
  190000    1.2480932   -6.7825866    83.729343  0.036723396  0.039216603            2 
  191000    1.2249893   -6.7900424      84.1867  0.036730672  0.039205203            3 
  192000    1.2220231   -6.7196739    84.994369  0.036889917  0.039195107            1 
  193000    1.2111637   -6.8020135    85.010313  0.036705662  0.039185982            2 
  194000     1.209046   -6.7781767    85.718314  0.036820582  0.039175148            3 
  195000     1.237801   -6.7793056    85.708763  0.036627676  0.039163723            2 
  196000    1.2132792   -6.7544521    86.627967  0.036831618  0.039153646            2 
  197000     1.234619   -6.7397967    87.091196  0.036840607  0.039147196            1 
  198000    1.2425409   -6.7539813      87.4159  0.036791203  0.039138795            1 
  199000    1.2305003   -6.7898393    87.893662  0.036806391  0.039129666            2 
  200000    1.2187156   -6.7731661    88.851131  0.037021305  0.039125161            2 
  201000    1.2207795   -6.7668586    89.158092  0.036964383  0.039120402            5 
  202000    1.2467468   -6.7623703    89.482814  0.036915352  0.039115648            1 
  203000    1.2343344   -6.8100799    89.935766  0.036919444  0.039108977            2 
  204000    1.2259203   -6.7900251    90.485102  0.036962868  0.039103976            2 
  205000    1.2196515   -6.8031714    91.003926  0.036993466  0.039097511            1 
  206000    1.2154294   -6.8013735    91.077883  0.036843804  0.039090084            4 
  207000    1.2421788   -6.8215162    91.571956  0.036864717  0.039083732            1 
  208000    1.2257586   -6.7454216    92.300718  0.036979454  0.039073884            3 
  209000    1.1880806    -6.762829    92.094211   0.03672018  0.039061862            2 
  210000    1.2058454   -6.7837373    92.600264  0.036746137   0.03904817            1 
  211000    1.2259724   -6.7790671    92.784057  0.036644572  0.039034327            1 
  212000    1.2110072   -6.7273606    93.180379  0.036627507  0.039018832       -1e+20 
  213000    1.1835492   -6.8459823    93.656885  0.036641974  0.039001555            1 
  214000    1.2231181   -6.8037106    94.130546  0.036655197  0.038985903            1 
  215000     1.208935   -6.8340746    94.627352  0.036677268  0.038969678            2 
  216000    1.2032208   -6.7789799    95.004867  0.036653112   0.03895413            3 
  217000    1.2095606     -6.76313    95.673272  0.036740888  0.038941071            2 
  218000    1.2194493   -6.7411635    96.132289  0.036747817  0.038928947            2 
  219000     1.229313   -6.7989616     96.38228  0.036675144  0.038916021            2 
  220000    1.2243005   -6.7773234    97.293983  0.036853782  0.038901751            1 
  221000    1.2189709   -6.7841353    97.193741  0.036649224  0.038886655            2 
  222000    1.2000631   -6.7961244    97.205562  0.036488574  0.038868132            1 
  223000    1.2244544   -6.7982331    97.793288  0.036544577  0.038849867            1 
  224000     1.221219   -6.7932874    97.634545  0.036322375  0.038828619            1 
  225000    1.2112513   -6.8080354    98.550236  0.036500087  0.038805766            1 
  226000    1.1948961     -6.74776    98.629119  0.036367669  0.038782981            3 
  227000    1.2270337   -6.7709499    98.974138  0.036334118  0.038758879            2 
  228000    1.2329874   -6.8175254    98.956907   0.03616846  0.038734954            2 
  229000    1.2133622    -6.799876    99.881429  0.036346954  0.038711767            2 
  230000    1.2011193    -6.790962     100.1299  0.036278949  0.038690149            1 
  231000    1.2200313   -6.8158142     100.7537  0.036346933  0.038667563            2 
  232000    1.2409864   -6.8005375    101.36491   0.03640981  0.038648017            1 
  233000    1.2305745   -6.7869364    101.60033  0.036337742  0.038627523            1 
  234000    1.2251619   -6.8095185    101.83545  0.036266186  0.038605854            3 
  235000    1.2063367   -6.7977152     102.2844  0.036271063  0.038583883            1 
  236000    1.2102415   -6.7661491    102.86498  0.036322381  0.038563417            2 
  237000    1.1903747   -6.7736811    103.36797  0.036345982  0.038543169            1 
  238000    1.2273346   -6.7984791    103.60227  0.036275304  0.038523295            2 
  239000    1.2388942    -6.807975    104.07222  0.036287384  0.038504874            1 
  240000     1.216273   -6.7946867    104.97445   0.03644946  0.038485611            1 
  241000    1.2025493    -6.821516    105.10413  0.036343061   0.03846676            4 
  242000    1.2372587   -6.8160891    104.97896  0.036149781   0.03844734            1 
  243000    1.2038138   -6.8107054    105.60244  0.036214829  0.038426504            2 
  244000    1.2359316   -6.7897035    106.02884  0.036212037  0.038406078            2 
  245000    1.2314989   -6.7916562    106.52947  0.036234513  0.038386456            2 
  246000    1.1973826   -6.7841187    107.28542  0.036343299  0.038366488            1 
  247000    1.2147222   -6.8062255    107.68953    0.0363325  0.038347424            3 
  248000    1.2189442   -6.8211187    107.46509  0.036110581  0.038328607            1 
  249000    1.2245306   -6.7772157    108.16093  0.036198437  0.038308957            2 
  250000     1.202186   -6.8102314    108.80856  0.036269519  0.038289808            3 
  251000    1.1998958   -6.7951034    108.85739  0.036141233   0.03827009            1 
  252000    1.2468969   -6.8087556    109.64026  0.036256699  0.038251128            3 
  253000    1.2222598   -6.7810112    110.20156  0.036298275  0.038234066            2 
  254000    1.1999817   -6.8226642    110.59664  0.036284985  0.038216824            2 
  255000    1.2044098    -6.851452     110.5373  0.036123301  0.038199147            2 
  256000    1.1839413      -6.8001    111.41839  0.036269006  0.038181343            1 
  257000    1.2066204   -6.7785787    111.30665  0.036091649  0.038163451            1 
  258000    1.2310356   -6.8107398    111.93816  0.036155736  0.038143036            1 
  259000    1.2107886    -6.780009    112.09879  0.036067821  0.038122765            2 
  260000    1.2040831   -6.8092524    112.45837   0.03604435  0.038103202            1 
  261000    1.1988437   -6.7986058    113.19884  0.036142669  0.038084694            1 
  262000    1.2200735   -6.8320577    113.54328  0.036114276  0.038066311            1 
  263000    1.2073729   -6.8633285    113.77904  0.036051661  0.038047219            1 
  264000    1.2184105   -6.7779542    115.29024  0.036392121  0.038030305            1 
  265000     1.196748    -6.783508    115.74258  0.036397037  0.038015568            2 
  266000    1.2217493   -6.8102577    115.88225  0.036303963  0.038001833            4 
  267000    1.1928429   -6.7860143    116.51353  0.036365023  0.037989242            1 
  268000    1.2099134   -6.8078822    116.78083  0.036312446  0.037976128            2 
  269000    1.2282817    -6.806326    117.49088  0.036397422  0.037965455            1 
  270000    1.2165896    -6.817553    117.82139  0.036364627  0.037954824            2 
  271000    1.2319501   -6.8348967    118.12775  0.036324648  0.037943426            1 
  272000     1.217727   -6.7764858    118.42869  0.036283301  0.037930855            1 
  273000    1.2100464   -6.8496524    118.34291   0.03612421  0.037916562            1 
  274000    1.1833126   -6.7657725    119.59586  0.036373437  0.037902561            2 
  275000    1.2099642   -6.8127773    119.68205  0.036267289  0.037890633            2 
  276000     1.213813   -6.8056504    120.23005  0.036301343  0.037878616            2 
  277000    1.2130952   -6.8034419     120.9864  0.036397833  0.037867591            1 
  278000    1.1925531   -6.8221586    121.14947  0.036315789  0.037856916            1 
  279000    1.2107617   -6.7929539    121.71018    0.0363531  0.037846429            2 
  280000    1.2356066    -6.811722    122.19645   0.03636799  0.037835588            1 
  281000    1.2053172   -6.8038146     122.5106  0.036331733  0.037825822            1 
  282000    1.2491873   -6.8350047    123.17972  0.036400628  0.037814613            2 
  283000    1.2419407   -6.7637415    123.47623  0.036359314  0.037805238            1 
  284000    1.2355388   -6.8334838    123.90588  0.036357359  0.037796194            1 
  285000    1.2095872    -6.794065     124.8404  0.036503041   0.03778589            1 
  286000    1.2616014   -6.8038291    125.00415   0.03642312  0.037779024            3 
  287000     1.165885   -6.7919012    125.34902  0.036396348  0.037771185            3 
  288000    1.2090856   -6.8435761    125.73699  0.036382231  0.037763461            1 
  289000    1.1971098   -6.8403915    126.54038     0.036488  0.037756935            1 
  290000    1.2297753   -6.7555032    127.12517  0.036530221  0.037751465            2 
  291000    1.2215982   -6.8567982    126.57645  0.036247553  0.037745377            1 
  292000    1.2093669   -6.7561756    128.13141  0.036567183  0.037738215            1 
  293000    1.2208225    -6.803556    127.87086  0.036368275  0.037731004            1 
  294000    1.2121538   -6.8269697    128.46106  0.036411866  0.037722283            1 
  295000    1.2306051   -6.8114126    128.93476  0.036422248  0.037712732            3 
  296000    1.2110662   -6.7965274    129.24416  0.036386305  0.037702797            2 
  297000    1.2219461   -6.8247783    129.56117  0.036352742  0.037694001            2 
  298000     1.199862   -6.8732192    130.25148  0.036423792  0.037685566            3 
  299000    1.2008056   -6.8164286     130.4855  0.036367195  0.037676904            3 
  300000    1.1884644   -6.7683021    131.44346  0.036512071  0.037669362            3 
  301000    1.1895763   -6.8619574    130.85217  0.036227067  0.037660456            1 
  302000    1.1982715   -6.7991016    131.77836  0.036362682  0.037650351            4 
  303000    1.2171081   -6.8033764    132.06398  0.036321227  0.037641134            2 
  304000    1.2014033   -6.8310183    132.02679  0.036191555  0.037631011            2 
  305000    1.2243324   -6.8556141    132.21099  0.036123222  0.037620756            2 
  306000    1.2105381   -6.8448718    132.84613   0.03617814  0.037608681            2 
  307000    1.2255119   -6.7742797    133.07921  0.036123565   0.03759717            1 
  308000    1.1999599   -6.8451768    133.46903   0.03611175  0.037584818            1 
  309000    1.1898904   -6.8488499    133.88769   0.03610779  0.037573622            5 
  310000    1.1839292   -6.8337306     134.1585  0.036064114  0.037561351            1 
  311000    1.2171458   -6.8126274    134.81735  0.036124691  0.037549603            2 
  312000     1.231735   -6.8389833     135.4596  0.036180448  0.037538417            1 
  313000    1.2061819   -6.8538618    136.04691  0.036221222  0.037528715            1 
  314000    1.2188123   -6.8333507    136.37275  0.036192344  0.037519826            2 
  315000    1.1853674   -6.8262927    136.72008  0.036169334  0.037511249            1 
  316000    1.1984957   -6.8237841    137.67864  0.036307657  0.037502627            1 
  317000    1.2185357   -6.7817291    138.32208  0.036362272  0.037494453            2 
  318000    1.2132011   -6.8323272    138.56727  0.036312177  0.037486972            2 
  319000     1.208359   -6.8598695    138.75275    0.0362468   0.03747875            2 
  320000    1.2069696   -6.8090214    139.20682  0.036251776  0.037470847            1 
  321000    1.1983754   -6.7818214    140.21198  0.036399788   0.03746305            1 
  322000    1.2009738   -6.7948568     139.8218  0.036185765  0.037455675            2 
  323000    1.1993217   -6.8481986    140.22245  0.036177103  0.037446302            2 
  324000     1.198615   -6.8317058    140.92128  0.036245185  0.037437563            1 
  325000    1.1948126   -6.8633419    141.51106  0.036284887  0.037429347            3 
  326000    1.1821405   -6.8396604    142.34279  0.036386194  0.037420701            1 
  327000    1.2020836   -6.8403304    142.06311  0.036203648  0.037413596            3 
  328000    1.1819325   -6.8623875    143.12395  0.036362792   0.03740694            1 
  329000    1.1836086   -6.8213229    143.50214  0.036348059  0.037401996            1 
  330000    1.1852344   -6.8369428    144.27604  0.036433344  0.037397293            2 
  331000    1.1947951   -6.8480013    144.44882  0.036366772  0.037392419            1 
  332000    1.1893575   -6.8204047     145.0742  0.036414207  0.037388433            1 
  333000    1.2100091   -6.8454783    146.26907  0.036603871  0.037383933            2 
  334000    1.2028016   -6.8323566    146.00015  0.036427184  0.037380281            1 
  335000    1.1843936   -6.8731884    146.20253  0.036368789  0.037375284            2 
  336000    1.2032273   -6.7995438    147.51702  0.036586562  0.037370879            1 
  337000    1.1905471   -6.8277951    147.36011  0.036439196  0.037367185            1 
  338000    1.1973178   -6.8128334    147.99815  0.036488695  0.037363903            1 
  339000    1.1949262   -6.8502432    148.30611  0.036456763  0.037361589            1 
  340000    1.1998623   -6.8228783    149.41533  0.036621404  0.037358903            2 
  341000    1.1900337   -6.8642267    149.09156  0.036434886  0.037356305            1 
  342000    1.1841251   -6.8577394    150.24358   0.03660906  0.037353093            1 
  343000    1.1862284   -6.8584462    149.65395  0.036359075  0.037349888            4 
  344000    1.1874856   -6.8242658    150.62214  0.036487921  0.037346344            1 
  345000    1.2052062    -6.820301    151.02209  0.036478765  0.037342583            1 
  346000    1.1917796   -6.8203937    151.59418  0.036511121  0.037338651            1 
  347000    1.1911414   -6.8673185    151.83201  0.036463019  0.037335205            8 
  348000    1.1774152   -6.8428183    152.46649  0.036510174  0.037332951            2 
  349000    1.1835287   -6.8492821    153.03386  0.036541035  0.037331379            1 
  350000    1.1999547   -6.8253221    153.83428  0.036627209   0.03732855            1 
  351000    1.1660422    -6.784256    154.26527  0.036625183  0.037326377            1 
  352000    1.1894879   -6.8243425    154.57414  0.036594256  0.037324512            1 
  353000    1.1696109    -6.839613    155.08339  0.036610809  0.037322928            1 
  354000    1.2020931   -6.8845828    155.32277   0.03656374  0.037322074            2 
  355000    1.1812027   -6.8318485    155.95095  0.036608205  0.037320948            1 
  356000    1.1734394   -6.8688172    156.22295  0.036569042  0.037319684            2 
  357000    1.2000128   -6.8122382    157.35958  0.036731929  0.037318412            2 
  358000    1.1788921   -6.8457498    157.51965  0.036666585    0.0373184            2 
  359000    1.2022305   -6.8537195     157.5615  0.036574165  0.037317371            3 
  360000    1.2128267   -6.7934655    158.39799  0.036666202  0.037316862            3 
  361000    1.1793328   -6.8419232    159.12315   0.03673203  0.037316226            1 
  362000    1.2171764   -6.8485609    158.97961  0.036597516  0.037315101            2 
  363000    1.1917288   -6.8764695    159.24801  0.036558312  0.037312217            1 
  364000    1.2065927   -6.8469254    159.75594  0.036574163  0.037309819            2 
  365000    1.1899033   -6.8195359    160.53549  0.036651939  0.037308411            2 
  366000     1.187413   -6.8262162    160.38739  0.036518077  0.037307102            3 
  367000    1.2108766   -6.8676165    160.47738  0.036439006  0.037304806            2 
  368000    1.1878838    -6.851303    161.45759  0.036561953  0.037302364            1 
  369000    1.2022572   -6.8223312    162.04298  0.036595072   0.03729969            2 
  370000    1.2022361   -6.8596808    162.13247  0.036516322  0.037297928            3 
  371000    1.2057029   -6.8316037    162.35607  0.036468119  0.037295423            1 
  372000    1.1844308   -6.8246354     163.0721  0.036530488  0.037292349            2 
  373000    1.1833297   -6.8350225    164.02083  0.036644511  0.037288773            1 
  374000    1.1859935   -6.8479752    164.01226  0.036544622  0.037285244            3 
  375000    1.1900711    -6.822248    164.14551  0.036476781  0.037282648            1 
  376000    1.1915286   -6.8288928      165.088  0.036588653  0.037279757            3 
  377000    1.1988363   -6.8447714    165.52404  0.036587983  0.037278115            1 
  378000    1.1890151   -6.8393664    165.79503  0.036550933  0.037276269            2 
  379000    1.1964483   -6.7997522    167.06398  0.036733504  0.037274441            1 
  380000    1.1713686   -6.8615081    166.36903  0.036484436  0.037272192            1 
  381000    1.2021037   -6.8251827    166.62344  0.036444322  0.037269006            1 
  382000    1.1961821   -6.8265162    167.28061  0.036492279  0.037265708            1 
  383000    1.1617246   -6.8282513    168.06526  0.036567725  0.037263219            1 
  384000    1.1747893   -6.8652659    168.20641  0.036503128  0.037260806            1 
  385000     1.208062   -6.8420871    168.14847  0.036395773  0.037257378            3 
  386000    1.1874711   -6.8316496    168.81051   0.03644441  0.037253169            1 
  387000    1.1783428   -6.8821793    168.41275  0.036264589  0.037248181            2 
  388000    1.1980534   -6.8328957    169.49078   0.03640266  0.037242593            1 
  389000    1.1863972   -6.8393374    169.42632  0.036295269  0.037238292            2 
  390000    1.1782862   -6.8450936    169.83937  0.036290464  0.037232375            2 
  391000    1.2152143   -6.8891943    169.64293  0.036155782  0.037225798            1 
  392000    1.1730398   -6.8383555    170.30106  0.036203457  0.037219594            1 
  393000    1.1692762   -6.8358412    171.11671  0.036284289   0.03721244            2 
  394000    1.1697207   -6.8952028    171.45064  0.036262826  0.037205645            2 
  395000     1.169603   -6.8446489    170.84592  0.036043442  0.037198759            1 
  396000    1.1933687   -6.8412884    171.94029   0.03618272   0.03719134            1 
  397000    1.1880531   -6.8282027    172.68266   0.03624741  0.037185262            3 
  398000     1.182134   -6.8116392    173.01972  0.036226909  0.037178852            3 
  399000    1.1804143   -6.8432905    173.52347  0.036241326  0.037172021            1 
  400000    1.1840699   -6.8567377    173.55951  0.036158231  0.037166085            1 
  401000    1.1768982    -6.843107    174.59992  0.036284273  0.037160108            2 
  402000    1.2129562   -6.8944047    174.83696   0.03624315  0.037153516            2 
  403000    1.2021149   -6.8395457    174.63054  0.036110533  0.037146768            4 
  404000     1.197134   -6.8565077    175.63177  0.036227676  0.037139765            1 
  405000    1.1939312   -6.8294792    176.04491  0.036223232  0.037133131            2 
  406000    1.2047081   -6.8712986    175.87746  0.036099643  0.037125723            3 
  407000    1.1978537   -6.8763299    175.92006  0.036019667  0.037118229            1 
  408000    1.2025038   -6.8325376    177.18638  0.036190028  0.037111129            1 
  409000    1.1858108   -6.8545999    177.34206  0.036133263  0.037103596            1 
  410000    1.1680023   -6.8434916    177.96253  0.036171247  0.037095874            2 
  411000    1.2212839    -6.877008    177.98492  0.036087777  0.037088536            1 
  412000    1.1900763   -6.8584931     178.0429  0.036011912  0.037080208            3 
  413000    1.1705195   -6.8307784     178.2097  0.035958375  0.037072742            2 
  414000    1.1560902   -6.8532578    179.47578  0.036126364  0.037065092            3 
  415000    1.2010544   -6.8219931    179.48658  0.036041482  0.037057432            1 
  416000    1.1810057   -6.8636443    180.17973  0.036093697  0.037050229            1 
  417000    1.2009063    -6.864102    180.51709  0.036074559  0.037042123            1 
  418000     1.171714   -6.8783013    180.42857  0.035970608  0.037034161            1 
  419000    1.1845043   -6.8525254    181.42305  0.036082547  0.037027125            1 
  420000    1.1768179   -6.9013074     181.3328   0.03597873  0.037020353            1 
  421000    1.2209285   -6.9024206    181.93012  0.036011505   0.03701333            2 
  422000    1.1962351   -6.8505799     182.8185    0.0361016  0.037006545            1 
  423000    1.2013013   -6.8850729    183.91767  0.036232795  0.037001026            1 
  424000    1.1975861   -6.8724642    184.18143  0.036199181  0.036995835            1 
  425000     1.188831   -6.8743775    184.93038  0.036260858  0.036991227            1 
  426000    1.1932083   -6.8377704    185.90772  0.036366925   0.03698793            3 
  427000    1.1458582   -6.8405435    186.40161  0.036378145  0.036984819            1 
  428000    1.1855934   -6.8368728    186.97568  0.036404923  0.036981202            2 
  429000    1.1732443   -6.8527283    187.36398   0.03639549  0.036978625            1 
  430000    1.1804207   -6.8174475    187.67229  0.036370598  0.036975973            3 
  431000    1.1874095   -6.8641157    188.35141  0.036417519  0.036973765            2 
  432000    1.1706094   -6.9171194     188.1687  0.036297974   0.03697191            1 
  433000    1.1977594   -6.8893729     189.5909  0.036487857  0.036970176            2 
  434000     1.179897   -6.9200994    189.09645  0.036308841  0.036967377            2 
  435000    1.1572332    -6.864165    189.93877  0.036386737  0.036965608            1 
  436000    1.1628747   -6.8513169    190.76285   0.03646079  0.036964146            2 
  437000    1.1943041   -6.8590618    190.67525   0.03636065  0.036962255            2 
  438000    1.1792019   -6.8349982      191.547  0.036443493  0.036960042            1 
  439000    1.1981728   -6.8213249    191.62425  0.036375143  0.036958123            2 
  440000    1.1856405   -6.8425328    192.36217   0.03643223  0.036956183            2 
  441000    1.1686362   -6.8988212    191.89566  0.036261462  0.036954078            2 
  442000    1.1709037   -6.8842731     192.2894  0.036253658  0.036952203            2 
  443000    1.2057878   -6.8754152    192.98838  0.036303307  0.036949894            1 
  444000    1.1963571   -6.8392886    193.35265  0.036289911  0.036947125            1 
  445000    1.1714465   -6.8855502    193.50303  0.036236522  0.036943878            2 
  446000      1.21749   -6.8045838    194.59082  0.036358524  0.036940838            1 
  447000    1.1753618    -6.855004    195.12068  0.036375965  0.036938176            1 
  448000    1.1822243   -6.8861711    196.22722  0.036500598  0.036935826            1 
  449000    1.1969266   -6.8742775    195.92472  0.036363162  0.036933721            2 
  450000    1.1683827   -6.8714614     196.8506  0.036453814   0.03693187            1 
  451000    1.1819307   -6.8566582    196.61481  0.036329419  0.036930949            2 
  452000     1.173637    -6.880605    197.40974  0.036395602  0.036929504            1 
  453000    1.1722251   -6.8816512    197.50895  0.036333509  0.036927467            3 
  454000     1.191447   -6.8772384     198.0935  0.036360775  0.036925091            1 
  455000    1.1896253   -6.8732811    197.99531  0.036262876  0.036922194            3 
  456000    1.1599595   -6.9060856    198.61288  0.036296214  0.036919016            1 
  457000    1.1834793   -6.8463586    199.68623  0.036412515  0.036916449            1 
  458000    1.1798658   -6.8713265    199.80971  0.036355479   0.03691344            2 
  459000    1.1764243   -6.8594222    200.70301  0.036438454   0.03691063            2 
  460000    1.1680727    -6.878304    200.54101  0.036329894  0.036907331            1 
  461000    1.1791646   -6.8568802    201.25431  0.036380027  0.036904197            2 
  462000    1.1582102   -6.8655602    201.34686  0.036317976  0.036900565            1 
  463000     1.180089   -6.8856625    201.68984  0.036301266  0.036896894            4 
  464000    1.1984543   -6.8593157    201.89153  0.036259255  0.036893581            3 
  465000    1.1550752   -6.8818815    202.57468  0.036303707  0.036890591            2 
  466000    1.1425574   -6.8627691    202.86923  0.036278475  0.036887383            1 
  467000    1.1887813   -6.8491587     203.0253   0.03622864  0.036883345            1 
  468000    1.1711713   -6.8454055    204.49212  0.036412414  0.036879462            1 
  469000    1.1914026   -6.8710886    203.89828  0.036229261  0.036876325            3 
  470000    1.2032051   -6.9023089    204.52363  0.036263056  0.036873104            2 
  471000    1.1679882   -6.8468253     205.2426  0.036313269  0.036869876            1 
  472000    1.1674189   -6.8834076    205.12112  0.036214888  0.036866175            2 
  473000    1.1926283    -6.856465    205.04562  0.036125022  0.036862403            1 
  474000    1.1845774   -6.9173472    205.96415  0.036210293  0.036858045            2 
  475000    1.1849638    -6.899902    205.91199   0.03612491  0.036853754            1 
  476000    1.1723313   -6.8887004    206.40953  0.036136122  0.036848868            1 
  477000    1.1789296   -6.8803864    207.27414  0.036211415  0.036845759            3 
  478000    1.1557548   -6.8565528    209.10743   0.03645527  0.036842661            2 
  479000    1.1713325   -6.8724778    208.67841  0.036304525  0.036839782            2 
  480000    1.1796164   -6.8465296    209.79208  0.036422236  0.036837415            1 
  481000    1.1615027   -6.8622303     209.9036  0.036365835    0.0368352            2 
  482000    1.1760899   -6.8763882    210.26035  0.036352065  0.036833709            2 
  483000    1.1751149   -6.8663258    210.37111  0.036295913  0.036832223            2 
  484000    1.1716505   -6.9015373    210.56635  0.036254537  0.036829476            1 
  485000    1.1719995   -6.8312517    212.27398  0.036473193   0.03682741            5 
  486000    1.1816737   -6.8713181    212.42071  0.036423304  0.036825249            1 
  487000      1.17968   -6.8759387    212.41325  0.036347237  0.036823254            1 
  488000    1.1511627   -6.8830696    213.61879  0.036478619  0.036821816            3 
  489000    1.1796404   -6.8502474     213.3288  0.036354601  0.036819595            1 
  490000    1.1952387   -6.8115341    214.02135   0.03639819  0.036817708            2 
  491000    1.1890596   -6.8824128    213.07252  0.036163021  0.036815233            1 
  492000    1.1651287   -6.8900737    214.06287  0.036257261  0.036811948            1 
  493000    1.1907508   -6.8786433     213.5467  0.036096466  0.036807663            3 
  494000    1.1847583   -6.8880289    213.88062  0.036079727  0.036803117            1 
  495000    1.1806851    -6.887369     214.6764  0.036140808  0.036798276            1 
  496000    1.1568709   -6.8998883    215.00283  0.036122787  0.036792931            2 
  497000    1.1668405   -6.8480006    215.51573  0.036136105  0.036787393            2 
  498000    1.1620296   -6.8725616    215.59984  0.036077616  0.036781929            1 
  499000    1.1674484   -6.8760032    215.95142  0.036064031  0.036776603            2 
  500000    1.1633936   -6.9300728    215.85835  0.035976391   0.03677105            1 
  501000    1.1703578   -6.8496213     216.4418   0.03600163  0.036765584            2 
  502000    1.1739313   -6.9100916    216.53965  0.035946158  0.036760011            1 
  503000    1.1947328   -6.9210615    217.81213  0.036085508  0.036754998            2 
  504000    1.1627825   -6.8709176    218.09339  0.036060415  0.036749769            1 
  505000    1.1652333   -6.8910939    218.20678   0.03600772  0.036744545            1 
  506000    1.1650832   -6.8667484    218.87086  0.036045926  0.036739526            2 
  507000    1.1555464   -6.8905094    219.58282  0.036091851  0.036734178            3 
  508000    1.1798242   -6.8707207    219.20461  0.035958762  0.036729174            2 
  509000    1.1691976   -6.8864655    219.84547  0.035993037  0.036723271            2 
  510000    1.1373879   -6.8393873    220.54507  0.036036775   0.03671786            4 
  511000    1.1622844   -6.8865382    220.56755  0.035969921  0.036712346            3 
  512000    1.1445127   -6.8559736    221.00418  0.035970733  0.036707332            5 
  513000    1.1702176   -6.9039246    221.21821  0.035935381   0.03670136            2 
  514000    1.1889577   -6.8622791    222.01305  0.035994333  0.036695226            2 
  515000    1.1724639   -6.8688997    222.62937  0.036024169    0.0366887            1 
  516000    1.1840648   -6.8549442    222.46576  0.035927933  0.036682596            1 
  517000    1.1718172   -6.8289729    222.97028  0.035939761  0.036676098            2 
  518000    1.1901768   -6.8602907    222.12187  0.035733891  0.036669243            6 
  519000    1.1766587   -6.8716912    223.91259  0.035952568  0.036662561            2 
  520000    1.1788207   -6.9064754    223.53888  0.035823538   0.03665599            3 
  521000    1.1730272   -6.9220795    223.12396  0.035688414   0.03664921            1 
  522000    1.1666841   -6.8819242    223.88946  0.035742252  0.036641562            3 
  523000    1.1578992   -6.8503596    224.10499  0.035708251  0.036633668            1 
  524000    1.1914683   -6.8690202    224.68131   0.03573176  0.036625676            2 
  525000    1.1710263   -6.8742177     225.1726  0.035741683  0.036617701            3 
  526000    1.1702246   -6.8794891    225.05626  0.035655301  0.036608954            1 
  527000    1.1527345    -6.926538    225.03559  0.035584376  0.036601012            2 
  528000    1.1785162   -6.8917265    226.06162  0.035678918  0.036592907            1 
  529000    1.1841095    -6.947307    226.46257  0.035674633  0.036585267            1 
  530000    1.1905336   -6.9009398    226.45987  0.035606898  0.036577041            3 
  531000    1.1715384   -6.8844684    227.63205  0.035723799  0.036568877            2 
  532000    1.1611821   -6.8868712    227.56988  0.035646911  0.036560449            3 
  533000    1.1807301   -6.8771326    227.82771  0.035620342  0.036551955            1 
  534000    1.1716935   -6.8912914    229.39274  0.035797869  0.036543777            2 
  535000    1.2012651   -6.9326123    228.51567  0.035594341  0.036535837            1 
  536000    1.1469306   -6.9096481    229.28524  0.035647581  0.036527505            2 
  537000    1.1652587   -6.8679155     228.9321  0.035526396  0.036518734            2 
  538000    1.1737895   -6.8809857    229.76783  0.035589813  0.036510193            2 
  539000    1.1796235   -6.9300157    229.54878  0.035489916  0.036500961            2 
  540000     1.182703   -6.8918562    230.55939  0.035580153  0.036491919            4 
  541000    1.1554458   -6.9303165    230.62025   0.03552376  0.036483202            3 
  542000    1.1539074   -6.8795612    231.71837  0.035627055    0.0364745            4 
  543000    1.1577313   -6.9276005    230.08691  0.035311067  0.036465899            2 
  544000    1.1487885   -6.8952183    232.09225  0.035553347  0.036456614            1 
  545000    1.1777923   -6.9005337    231.58812  0.035411028  0.036447458            1 
  546000     1.148364   -6.8819442    232.74396  0.035522582  0.036438716            2 
  547000    1.1814485   -6.8994423    233.72722  0.035607437  0.036430371            1 
  548000     1.163573   -6.8760865    234.42289  0.035648249  0.036422439            1 
  549000    1.1350099   -6.8774224    235.16696  0.035696261  0.036415431            1 
  550000    1.1685483   -6.8916708    235.18632   0.03563429  0.036408559            4 
  551000    1.1468225   -6.8900483    235.91239  0.035679429  0.036401906            2 
  552000    1.1624907   -6.9030768    236.15425  0.035651305  0.036395717            1 
  553000    1.1384365   -6.8848099    236.53683  0.035644489  0.036389096            2 
  554000    1.1369253   -6.9161997    237.10946  0.035666285  0.036382254            1 
  555000    1.1584416   -6.8961289    237.35764  0.035639285  0.036375556            1 
  556000    1.1694762    -6.903423    238.08405  0.035684061  0.036369017            3 
  557000    1.1319234    -6.891483    237.54992  0.035540084  0.036361824            2 
  558000    1.1741845   -6.9198383    238.20597  0.035574368  0.036354452            1 
  559000    1.1764176   -6.9334332     238.1422  0.035501222  0.036347265            3 
  560000    1.1323258    -6.914483    238.93732  0.035556148  0.036340336            1 
  561000    1.1791334   -6.9175934    239.52766   0.03558046  0.036333462            1 
  562000    1.1651164   -6.8967072    240.13078  0.035606581  0.036327669            1 
  563000     1.167011   -6.8857806    240.66459  0.035622349  0.036321391            1 
  564000    1.1597687   -6.8974593    241.51752  0.035685212  0.036315487            2 
  565000    1.1669518   -6.8950097    241.91793   0.03568111  0.036309919            2 
  566000    1.1706244   -6.8702563    242.57145  0.035714289  0.036303601            3 
  567000    1.1933059   -6.9286526    241.56381  0.035503205  0.036297231            1 
  568000    1.1927204   -6.9076164    243.15066  0.035673512  0.036290239            1 
  569000    1.1558597   -6.9187212    242.70432  0.035545448  0.036282907            1 
  570000    1.1541479   -6.8727557    243.08142  0.035538219  0.036275924            2 
  571000    1.1536016   -6.9133575    244.14172  0.035630723  0.036269174            1 
  572000    1.1823425   -6.9091317    243.52619  0.035478758  0.036262351            2 
  573000    1.1650097   -6.9298451    244.40112  0.035544084  0.036255398            2 
  574000    1.1460234   -6.8670183    245.08148  0.035580935  0.036248603            1 
  575000    1.1664704   -6.8708357    244.95338   0.03550049  0.036241657            4 
  576000    1.1629443   -6.9108158    245.75794  0.035555258  0.036235166            1 
  577000     1.158087    -6.901571    246.50882  0.035602082  0.036229102            1 
  578000     1.174133   -6.9289532    246.75225  0.035575583  0.036223035            1 
  579000    1.1626101   -6.8886904    247.35459  0.035600834  0.036216857            1 
  580000    1.1623608   -6.9008331    247.31966  0.035534434   0.03621102            2 
  581000    1.1599814   -6.9625764    247.52186  0.035502275  0.036204273            2 
  582000     1.119843   -6.9088386    247.79824  0.035480847  0.036197863            2 
  583000    1.1623518   -6.9088564    248.58447  0.035532372  0.036191569            2 
  584000    1.1587851   -6.9736408    248.26607  0.035426094  0.036184222            2 
  585000    1.1372179   -6.9051175    249.05612   0.03547808  0.036176842            4 
  586000    1.1579175   -6.9223085    249.36472  0.035461422  0.036169978            3 
  587000     1.174277   -6.8907174    250.12497  0.035508939  0.036163621            1 
  588000    1.1665634   -6.9303785    250.16851   0.03545472  0.036156852            1 
  589000    1.1681119   -6.8913202    251.25819  0.035548696   0.03615021            1 
  590000    1.1498314    -6.921967    251.27168   0.03549035  0.036143486            5 
  591000    1.1474468   -6.8810652    251.65759  0.035484713  0.036136826            1 
  592000    1.1527121   -6.9450121    251.23272  0.035364966  0.036129942            1 
  593000    1.1660616   -6.9637573    251.58618     0.035355  0.036122397            5 
  594000    1.1647089   -6.9131574    252.25204  0.035388895  0.036115479            3 
  595000    1.1553447   -6.9521297    251.79219  0.035265012  0.036108531            1 
  596000    1.1816879   -6.9263428    253.40885  0.035431886   0.03610204            1 
  597000    1.1479156   -6.9014824    254.73139  0.035557145  0.036095892            1 
  598000    1.1525358   -6.9135904     254.2271  0.035427411  0.036089201            1 
  599000    1.1389666     -6.94964    253.74855  0.035301691  0.036082278            2 
  600000    1.1694266   -6.8774788     255.2927   0.03545732  0.036075696            2 
  601000     1.159332   -6.8958515    255.24584  0.035391824  0.036068932            1 
  602000     1.182512   -6.8886524    256.35607  0.035486721  0.036062229            2 
  603000    1.1488489   -6.9191771    255.38008  0.035292991  0.036055681            2 
  604000    1.1263786   -6.9091705    256.98758  0.035456343  0.036048842            2 
  605000    1.1618989   -6.9236299    256.53392   0.03533525  0.036041924            1 
  606000    1.1719227   -6.9168801    257.76115  0.035445703  0.036034754            2 
  607000    1.1727732   -6.8711511     258.2918  0.035460159  0.036027813            2 
  608000    1.1803322   -6.9076908    257.88212  0.035345685  0.036021267            1 
  609000    1.1565817   -6.9174875    256.82639  0.035143184  0.036014266            2 
  610000    1.1691933    -6.936562    258.09663  0.035259103  0.036007397            2 
  611000    1.1357175   -6.9438843    258.12243  0.035204915  0.035999901            5 
  612000    1.1703841    -6.956356    258.30861   0.03517274  0.035992551            1 
  613000    1.1299332   -6.9164283    259.70616  0.035305351  0.035985459            3 
  614000    1.1507449   -6.9435872    259.74976  0.035253767  0.035978846            3 
  615000    1.1516181   -6.8995787    261.02348  0.035369036  0.035972234            1 
  616000    1.1521047   -6.9314521    260.58867  0.035252797  0.035965551            2 
  617000    1.1545349   -6.9212102    261.36397  0.035300374  0.035958965            2 
  618000    1.1472389   -6.8861257    263.52649  0.035534855  0.035952767            1 
  619000    1.1479807   -6.8436499    263.60366  0.035487838  0.035947139            2 
  620000    1.1690212   -6.9650896     263.5386  0.035421855  0.035941505            3 
  621000    1.1613115   -6.9491279     262.5903  0.035237561  0.035935956            3 
  622000    1.1452639    -6.956472    264.14853  0.035389674  0.035930242            2 
  623000    1.1588525   -6.8796934    265.34563  0.035492995  0.035924701            2 
  624000    1.1567398   -6.9341777    265.95046  0.035516888  0.035919246            2 
  625000    1.1428256   -6.9377264    265.92368  0.035456491  0.035913846            1 
  626000    1.1653941   -6.9183963    265.73815  0.035375153  0.035908439            1 
  627000    1.1586939   -6.8984644    266.75116  0.035453371  0.035903415            2 
  628000    1.1382686   -6.9221261    266.79458  0.035402678  0.035898514            2 
  629000    1.1465731   -6.9606441    266.59332   0.03531973  0.035893335            3 
  630000    1.1488689   -6.9545507    266.77063  0.035287121  0.035887809            2 
  631000    1.1620724   -6.9517253    267.59943  0.035340654  0.035882539       -1e+20 
  632000    1.1598713   -6.8898891    269.43474  0.035526732  0.035877571            2 
  633000     1.128042   -6.9016282    268.63563  0.035365407  0.035872737            2 
  634000    1.1465407   -6.9277945    269.22493  0.035387083  0.035867763            2 
  635000    1.1399768   -6.9160136    270.14943  0.035452682  0.035862737            4 
  636000    1.1521541   -6.9022071    270.17213  0.035399913  0.035857811            2 
  637000    1.1650697    -6.964759    269.59277  0.035268547  0.035852891            4 
  638000    1.1395212   -6.9588689    270.64838  0.035351146  0.035847878            1 
  639000    1.1516774   -6.8947058    271.63378  0.035424332  0.035842809            1 
  640000    1.1749106   -6.9356776    270.92454  0.035276633  0.035837608            1 
  641000    1.1382686   -6.8818125     272.8811  0.035475962  0.035832296            3 
  642000    1.1499029   -6.9183685     272.3425  0.035350792  0.035827122            3 
  643000    1.1641635   -6.9301128    272.37771  0.035300377  0.035821484            4 
  644000    1.1507219   -6.9424786    272.25632  0.035229854  0.035815571            2 
  645000    1.1487965   -6.9684755     271.4578  0.035072067   0.03580937            3 
  646000    1.1551898   -6.9686904     272.9655  0.035212267  0.035803229            4 
  647000    1.1615247   -6.9313646    273.21027   0.03518937  0.035796765            1 
  648000     1.133214   -6.9505671    273.51261  0.035173947  0.035790285            2 
  649000    1.1412275   -6.9064633    273.78374  0.035154564  0.035783751            1 
  650000    1.1574919   -6.9191158    274.77682  0.035227798  0.035777481            2 
  651000    1.1230825   -6.9185623    274.77003  0.035172815  0.035770768            2 
  652000     1.132025   -6.9149576     275.0492   0.03515455  0.035764352            1 
  653000    1.1236842   -6.9270614    274.88813   0.03508016  0.035757453            1 
  654000    1.1519859    -6.944798    276.29157  0.035205347  0.035750664            3 
  655000    1.1445713   -6.9365244    276.62296   0.03519376  0.035743986            1 
  656000    1.1309263   -6.9229839    276.76158  0.035157721   0.03573744            2 
  657000    1.1452453   -6.9307549    276.84999  0.035115422  0.035730839            1 
  658000    1.1590021   -6.9174411    278.34474   0.03525136  0.035724193            1 
  659000    1.1628557   -6.9594653    277.08404  0.035038446   0.03571749            1 
  660000    1.1662773   -6.8909054    278.75622  0.035196493  0.035710909            3 
  661000    1.1486133   -6.9649437    278.58976  0.035122259  0.035704326            1 
  662000     1.146092    -6.948261    277.37567  0.034916374  0.035697523            1 
  663000    1.1338336   -6.9529118    277.66684  0.034900307  0.035689875            3 
  664000     1.144824   -6.8898733    279.59436  0.035089654  0.035682507            1 
  665000    1.1608183   -6.9329432     279.9543  0.035081993  0.035675562            1 
  666000    1.1424096   -6.8955938    280.17357  0.035056753  0.035667905            2 
  667000    1.1565244   -6.9427738     280.3327  0.035024075   0.03566023            2 
  668000    1.1375739   -6.9271126     280.2509   0.03496144   0.03565265            2 
  669000    1.1595835   -6.9234823    280.59488  0.034952028  0.035645293            2 
  670000    1.1520846   -6.9692634     280.7244  0.034915971  0.035637789            1 
  671000    1.1368743   -6.9585379    280.67692  0.034858038  0.035629879            2 
  672000     1.134689   -6.9433258    281.51893  0.034910582  0.035622269            1 
  673000    1.1347752   -6.9426052    280.99255  0.034793531  0.035614462            2 
  674000    1.1560577   -6.9729107    280.93317  0.034734566  0.035606569            2 
  675000    1.1176851   -6.9416654    281.94312  0.034807792  0.035598138            2 
  676000    1.1584701   -6.9439589    282.53969  0.034829844   0.03558954            2 
  677000    1.1459048   -6.9511355    282.01588  0.034713919  0.035580908            2 
  678000     1.140919   -6.9486171     283.0506  0.034789897  0.035572236            2 
  679000    1.1708578   -6.9183182    282.89797  0.034719927  0.035563547            2 
  680000    1.1465614   -6.9325184    284.14094  0.034821193  0.035555038            1 
  681000    1.1402705   -6.9556712    283.93821  0.034745253  0.035546532            3 
  682000    1.1446463   -6.9412439    285.07518  0.034833233  0.035537905            1 
  683000    1.1102764   -6.9542744    284.58295  0.034722175  0.035529036            2 
  684000    1.1149865   -6.9542466    284.99958  0.034722172  0.035520396            2 
  685000    1.1279222    -6.939667    284.53831  0.034615366  0.035511733            2 
  686000    1.1327591   -6.9594799    284.63646   0.03457683  0.035503185            2 
  687000     1.132547   -6.9241896    286.46607  0.034748431   0.03549473            1 
  688000    1.1086788    -6.947304    286.84893  0.034744298  0.035486448            3 
  689000    1.1382798   -6.9230662     286.2488  0.034621287  0.035477922            2 
  690000    1.1438157   -6.9419592    287.74481  0.034751788  0.035469321            3 
  691000    1.1351362   -6.9386776    287.44854  0.034665767  0.035461032            1 
  692000    1.1129207   -6.9613967    287.33564  0.034602077  0.035452697            1 
  693000    1.1353281   -6.9169906    288.67594  0.034713316  0.035444391            2 
  694000    1.1357808   -6.9426559    288.30496  0.034618751  0.035435974            2 
  695000    1.1271734   -6.9401628    289.61625  0.034726169  0.035428008            2 
  696000    1.1444068   -6.9192782    290.28444  0.034756279  0.035420165            2 
  697000    1.1149536   -6.9233612    290.88804  0.034778579  0.035412321            2 
  698000    1.1415124   -6.9353851    290.81031  0.034719474  0.035404319            2 
  699000    1.1621892   -6.9445386    290.48839  0.034631424   0.03539575            2 
  700000    1.1399358   -6.9160327    291.95124    0.0347561   0.03538749            1 
  701000    1.1396037   -6.9477991    291.88556  0.034698711   0.03537948            2 
  702000    1.1628937   -6.9447511    292.60586  0.034734789   0.03537093            1 
  703000    1.1560613   -6.9687781    292.05524   0.03462011  0.035362662            2 
  704000    1.1281447   -6.9399258    293.24159  0.034711362  0.035354238            1 
  705000    1.1510458    -6.957303    292.73652  0.034602425  0.035346128            3 
  706000    1.1214053   -6.9277855    293.72133  0.034669657  0.035337823            2 
  707000    1.1282817   -6.9507065    294.62098   0.03472666  0.035329807            1 
  708000    1.1211675   -6.9588704    294.18722  0.034626556  0.035321485            1 
  709000    1.1398198   -7.0178914    294.65608  0.034632826  0.035313087            2 
  710000    1.1620114    -6.945822    294.32026  0.034544631  0.035304706            2 
  711000     1.124295   -7.0272723    293.40211  0.034388432   0.03529616            3 
  712000    1.1357569   -6.9325881    295.47753  0.034583044  0.035287705            2 
  713000    1.1674198   -6.9270918    295.69792  0.034560299  0.035279292            3 
  714000    1.1212873   -6.9265027    295.53011   0.03449231  0.035270668            2 
  715000    1.1154265   -6.9460775    295.72753  0.034467078  0.035262215            1 
  716000    1.1637824   -6.9457022     297.0703  0.034575221  0.035253947            1 
  717000    1.1407716   -6.9620729    296.90882  0.034508231  0.035245327            2 
  718000    1.1610952   -6.9577091    298.42071  0.034635644  0.035236849            1 
  719000    1.1395123   -6.9453808    298.80242  0.034631714  0.035228509            3 
  720000     1.130906   -6.9639026    297.71376  0.034457611  0.035219771            2 
  721000    1.1576556   -6.9908365    297.44924  0.034379247  0.035210785            1 
  722000    1.1454285   -6.9814156    297.77354  0.034369061  0.035201694            2 
  723000    1.1185729   -6.9706114    297.70115   0.03431318  0.035192719            2 
  724000    1.1491177   -6.9361469    298.91208  0.034405166  0.035183576            2 
  725000    1.1646819   -6.9304483    298.76664  0.034340994  0.035174401            2 
  726000    1.1203903    -6.952254    299.00547  0.034321106  0.035165052            2 
  727000    1.1330123   -6.9744793    298.88197   0.03425974  0.035155581            2 
  728000    1.1364722   -6.9264079    299.35462  0.034266783  0.035145961            2 
  729000    1.1684527   -7.0167323    299.35404  0.034219711  0.035135983            2 
  730000    1.1352527   -6.9619639    299.80099  0.034223858  0.035126269            1 
  731000    1.1453581   -6.9989316    300.55419  0.034262903  0.035116911            3 
  732000    1.1140263   -6.9382591    302.01339  0.034382216   0.03510757            2 
  733000    1.1361694   -6.9537875    301.11906  0.034233635  0.035098113            2 
  734000    1.1241283   -6.9586924    301.37418   0.03421596  0.035088472            2 
  735000    1.1683096   -6.9482078    301.43385  0.034176173  0.035078979            2 
  736000    1.1211523   -6.9824869    301.98447  0.034192083   0.03506944            3 
  737000     1.135622   -6.9758187    301.88714  0.034134684  0.035059518            1 
  738000    1.1265105   -7.0072052     303.0251  0.034216926  0.035049836            2 
  739000    1.1234918   -6.9623511    302.13688  0.034070464  0.035039955            1 
  740000    1.1194944   -6.9498597    304.33416  0.034271865  0.035030261            3 
  741000    1.1770046   -6.9629843    303.73083  0.034157763  0.035020602            4 
  742000     1.127999   -6.9591377    304.58887  0.034208094  0.035011176            2 
  743000    1.1503414   -6.9927476    304.63262   0.03416696   0.03500161            2 
  744000    1.1394358   -6.9597296    305.47965  0.034215911  0.034992565            2 
  745000    1.1299077    -6.970772    306.53083  0.034287565  0.034983825            1 
  746000    1.1132269   -6.9359068    307.13986  0.034309636  0.034975305            2 
  747000    1.1411501   -6.9693419    306.50596  0.034192989  0.034966133            2 
  748000     1.117157   -6.9588435    307.74258  0.034285047  0.034957138            3 
  749000    1.1381408   -6.9510533    307.49955  0.034212233  0.034948357            7 
  750000    1.1207638   -6.9476161    309.04918  0.034338798  0.034939689            2 
  751000    1.1493303   -6.9482403    308.38291  0.034219142  0.034931158            2 
  752000     1.114409   -6.9421336    309.06862  0.034249625  0.034922888            1 
  753000    1.1375098   -7.0077007    308.71145  0.034164613  0.034914389            4 
  754000    1.1562177   -6.9937619    308.51294  0.034097363  0.034905546       -1e+20 
  755000    1.1156303   -6.9714775    309.08124  0.034114927  0.034896734            2 
  756000    1.1251198   -7.0148014    309.66991   0.03413469  0.034887829            2 
  757000    1.1653521    -6.937812    311.30475  0.034269567  0.034879373            2 
  758000    1.1541532   -6.9832811     311.4728  0.034242832  0.034870764            2 
  759000    1.1516284   -6.9628189    312.17041  0.034274309  0.034862313            2 
  760000    1.1432306   -6.9747011    311.73666  0.034181652  0.034854061            2 
  761000    1.1206455   -6.9739727    312.38498  0.034207729  0.034845831            2 
  762000    1.1288659   -6.9655513    313.62964  0.034298955  0.034837521            2 
  763000    1.1357569   -6.9698789    312.73258  0.034156026  0.034829268            2 
  764000    1.1554761   -6.9614918    313.67654  0.034214282  0.034821357            2 
  765000    1.1444219   -6.9662071    313.22131  0.034119968  0.034813428            1 
  766000     1.131206   -7.0017502    313.60955  0.034117662  0.034805607            2 
  767000    1.1162743   -6.9775053    314.11682  0.034128294  0.034797338            2 
  768000    1.1103354   -6.9775821    314.86364  0.034164892   0.03478918            2 
  769000    1.1209952    -6.964501    315.72346  0.034213639  0.034780961            2 
  770000    1.1599159   -6.9611546    315.26896  0.034120017  0.034772746            3 
  771000    1.1381579   -7.0043563    315.49013  0.034099669   0.03476471            2 
  772000     1.116146   -6.9575158    316.27965  0.034140722  0.034756925            3 
  773000    1.1487245     -6.97559    316.36061  0.034105284  0.034748754            3 
  774000    1.1068988   -6.9523691    317.09492   0.03414028  0.034740621            1 
  775000    1.1198891   -7.0213418    316.79237  0.034063695  0.034732264            1 
  776000    1.1360489   -6.9837023    317.75125  0.034122772  0.034723871            2 
  777000    1.1146366   -6.9597324    318.60779   0.03417072  0.034716183            1 
  778000     1.128848   -6.9936692     317.9597   0.03405738  0.034707934            3 
  779000    1.1180502   -7.0012432    317.87606  0.034004713  0.034699508            2 
  780000    1.1347022   -6.9953492    318.14673  0.033990035  0.034691267            2 
  781000    1.1088697    -7.001232    319.05156   0.03404306  0.034682545            2 
  782000    1.1215354   -6.9287637    319.91891  0.034091955  0.034674332            2 
  783000    1.1178114   -6.9967431    319.73268  0.034028595  0.034665959            4 
  784000    1.1385903   -6.9699887    319.44336  0.033954439  0.034657667            5 
  785000     1.106364   -6.9750576    319.49379  0.033916538  0.034649579            4 
  786000    1.1359657   -6.9787316    321.09835  0.034043506  0.034641539            2 
  787000    1.1423141   -6.9693149    321.04633  0.033994741  0.034633308            2 
  788000    1.1097289   -6.9367619    320.92302  0.033938559  0.034624877            4 
  789000    1.1576373   -6.9655402     322.0164  0.034011027  0.034616349            2 
  790000    1.1361253   -6.9677525    321.72204  0.033936924  0.034608016            2 
  791000    1.1146961   -6.9805783    321.95381  0.033918438  0.034599604            1 
  792000      1.12609   -6.9681973    322.22127  0.033903753  0.034591097            1 
  793000    1.1296899   -7.0043573    321.91589  0.033828908  0.034582532            1 
  794000    1.1288263     -7.00677    323.00943  0.033901074  0.034573945            2 
  795000     1.106151   -7.0032493    323.21337  0.033879808  0.034565265            2 
  796000     1.103456   -6.9920884    322.47627  0.033760078  0.034556419            1 
  797000    1.1050471   -6.9838261    323.90646  0.033867259  0.034547778            1 
  798000    1.1325131   -6.9654945      323.988  0.033833334  0.034539229            3 
  799000    1.1134506   -6.9541428    325.45087  0.033943562  0.034531284            4 
  800000    1.1357374    -6.989264     325.1011  0.033864698  0.034522872            5 
  801000    1.1284064   -7.0064496    326.03716  0.033919804  0.034514382            2 
  802000    1.1232323   -6.9916187    325.42344  0.033813741  0.034505721            3 
  803000    1.1155339   -7.0091826    325.94051  0.033825292  0.034497311            2 
  804000    1.1485883   -6.9709271    326.64665  0.033856411  0.034488854            2 
  805000    1.1110241   -6.9884143    327.17288  0.033868828  0.034480547            2 
  806000    1.1106422    -6.948861    328.12763   0.03392552  0.034472087            2 
  807000    1.1270576   -7.0032561    326.84612  0.033751148  0.034463263            2 
  808000    1.1417916   -7.0015552    328.21432  0.033850487  0.034454753            2 
  809000    1.1483944   -7.0141666    327.97787  0.033784288  0.034446116            1 
  810000    1.1099189   -6.9759228    329.11735  0.033859809  0.034437509            1 
  811000    1.1363123   -6.9781745    328.27406  0.033731408  0.034429184            3 
  812000    1.1061095   -6.9587591    330.43578  0.033911718  0.034420686            1 
  813000     1.142855   -7.0095734    330.03893  0.033829328  0.034412478            3 
  814000    1.1260981   -6.9685639    329.16645  0.033698449  0.034403843            1 
  815000    1.1158892   -6.9844077    330.34896  0.033778012  0.034395266            2 
  816000    1.1277443   -6.9797738    331.18201  0.033821692  0.034387371            1 
  817000    1.1227057   -6.9926629    331.04313  0.033766129  0.034379283            1 
  818000    1.1305411   -6.9860086    331.58434  0.033779985  0.034370886            2 
  819000    1.1346372   -6.9716098    331.52982  0.033733193  0.034362568            2 
  820000     1.134691   -6.9929643    331.55479  0.033694593  0.034354243            2 
  821000    1.1066329    -6.962314    332.90601  0.033790704  0.034345943            5 
  822000    1.1088428   -7.0230091    331.81022  0.033638506  0.034337417            1 
  823000    1.1296413   -6.9989749    331.91897  0.033608644  0.034328618            3 
  824000     1.106604   -6.9950305    333.35302  0.033712886  0.034319785            3 
  825000    1.1199612   -6.9950615    332.99156  0.033635511  0.034310781            3 
  826000    1.1487455   -6.9775493    334.13511   0.03371016   0.03430152            3 
  827000    1.1209507   -6.9791686    333.58607  0.033614074  0.034292915            3 
  828000     1.108663   -6.9935769    332.75967  0.033490304  0.034283686            2 
  829000      1.12058   -7.0085804    333.29727  0.033503947  0.034274381            3 
  830000    1.1067678   -6.9805725    335.37674  0.033672363  0.034265279            1 
  831000    1.1131903   -6.9949023    335.69694  0.033663953  0.034256142            3 
  832000    1.1362059   -6.9774329    335.69903  0.033623701  0.034247027            1 
  833000    1.1209492   -6.9961738    335.00885  0.033514291  0.034237903            2 
  834000    1.1208655   -6.9643035    336.21645  0.033594769  0.034228762            3 
  835000    1.1134548   -7.0024202    335.66621  0.033499622  0.034219687            1 
  836000    1.1322891   -6.9779363    335.78962  0.033471852  0.034210764            3 
  837000    1.1161515   -6.9600938     337.1953  0.033571814  0.034201608            2 
  838000    1.0912573   -6.9980671     337.1679  0.033529028  0.034192972            2 
  839000    1.1192542   -7.0178568    338.05505   0.03357718  0.034184201            2 
  840000    1.1155329   -7.0040631    338.88404  0.033619449  0.034175784            1 
  841000    1.1433583   -7.0285106    339.27421  0.033618134   0.03416747            2 
  842000    1.1248049   -6.9759608    339.10884  0.033561841  0.034158953            1 
  843000    1.1081252   -6.9840626    339.13688    0.0335248  0.034150607            1 
  844000    1.1006759   -6.9855202    338.59383   0.03343146  0.034141738            2 
  845000    1.1212022   -7.0123529    338.88419  0.033420532  0.034132885            1 
  846000    1.1038275   -6.9881758     339.5598  0.033447577  0.034124169            1 
  847000    1.1627861   -7.0080822    340.09736  0.033460976  0.034115415            2 
  848000    1.1236671   -6.9826445    341.45884  0.033555311  0.034106548            2 
  849000    1.1212967   -6.9978402    341.58772  0.033528438  0.034098282            1 
  850000    1.1156704   -7.0045997    341.70916  0.033500898  0.034090002            3 
  851000    1.1021957   -6.9794659    341.81017  0.033471423  0.034081927            2 
  852000    1.1068642   -6.9984487    342.73174  0.033522275   0.03407349            5 
  853000    1.1122859   -6.9908077    342.47786  0.033458173  0.034065106            2 
  854000    1.1149409   -7.0028759    344.83383  0.033648891  0.034056735            2 
  855000    1.1189194   -7.0076876    344.14419  0.033542319  0.034048266            2 
  856000    1.1054724   -7.0444778    343.65399  0.033455412  0.034039912            3 
  857000    1.0966293   -6.9814847    344.47347  0.033496059  0.034031407            2 
  858000    1.1001233   -6.9967306    344.26182  0.033436463  0.034023148            2 
  859000    1.1099453   -7.0071641    344.67876  0.033437986  0.034014347            3 
  860000    1.1540365   -6.9687081    345.13037  0.033442866  0.034005939            1 
  861000     1.105005   -7.0231322    345.15847  0.033406743  0.033997314            3 
  862000    1.1172929   -6.9714052    345.61439  0.033412064  0.033988877            1 
  863000    1.1254778   -7.0047585    345.93917   0.03340471  0.033980755            1 
  864000    1.1396756   -7.0242383    346.44292  0.033414633   0.03397282            1 
  865000    1.0863567   -7.0204649    345.85748  0.033319603  0.033964586            4 
  866000    1.0983938   -7.0276542    347.39707   0.03342928  0.033956526            1 
  867000    1.1288487   -6.9929845    347.61486  0.033411655  0.033948473            4 
  868000    1.1171159   -7.0027236    348.41099  0.033449596  0.033940325            1 
  869000     1.107988   -7.0318549    347.63004  0.033336214  0.033932198            3 
  870000    1.1048858   -7.0125865    348.19957  0.033352449  0.033923857            2 
  871000     1.108771   -7.0221741    348.41754  0.033335011  0.033915509            3 
  872000    1.1092932   -7.0173034    348.63677  0.033317734  0.033907008            3 
  873000    1.1354092   -6.9750908    350.24244  0.033432841  0.033898928            1 
  874000    1.0849754   -7.0308508    348.79674  0.033256745  0.033890709            1 
  875000    1.1264927   -7.0067724    349.25851  0.033262715  0.033881776            3 
  876000    1.1071013   -7.0266453    349.32383  0.033230958  0.033873224            2 
  877000    1.0778639   -7.0345465    350.13676  0.033270311  0.033864797            3 
  878000    1.1225202   -6.9748531    351.88481  0.033398331  0.033856788            2 
  879000    1.0996014   -6.9732623    351.47041  0.033321048  0.033848886            2 
  880000    1.1037725    -6.999139    351.02511  0.033241014  0.033840582            2 
  881000    1.1188763   -7.0361679     351.1683  0.033216827  0.033832154            1 
  882000    1.0873879   -6.9944057    353.03068  0.033355129  0.033823777            4 
  883000    1.1200485   -6.9718002    353.20209   0.03333353  0.033815674            2 
  884000    1.1126413   -7.0071794     352.7961   0.03325755  0.033807772            3 
  885000    1.0994005   -6.9971782    352.41032  0.033183646   0.03379985            2 
  886000    1.1122351   -7.0262178    354.06514  0.033301838  0.033791972            2 
  887000     1.109454   -7.0130974    353.82667  0.033241889  0.033784123            2 
  888000    1.0961782   -7.0156377    354.09364  0.033229508  0.033776094            1 
  889000    1.0869724    -6.991431     354.1259  0.033195154   0.03376796            1 
  890000    1.1070802   -7.0136066    354.44015   0.03318728  0.033759445            1 
  891000    1.1020503   -7.0482485    354.54635  0.033159965   0.03375112            1 
  892000    1.1030731    -7.026456    355.23271  0.033186913  0.033743241            1 
  893000    1.1074032   -7.0212591    355.18612  0.033145402  0.033734955            2 
  894000    1.0750989   -7.0362489    354.43007  0.033037852  0.033726576            3 
  895000    1.1195232   -7.0142195    356.58194  0.033201298  0.033718375            2 
  896000    1.1070319   -7.0344446    355.82027  0.033093403  0.033710229            1 
  897000    1.0803137   -7.0470505    356.93412  0.033159989  0.033701688            2 
  898000    1.0799441   -7.0200139    356.69737  0.033101092    0.0336928            2 
  899000    1.1098775   -7.0263429     356.6625   0.03306104  0.033684305            2 
  900000    1.1140372   -6.9890257    358.04341  0.033152168  0.033675817            3 
  901000    1.1283802   -6.9993701    358.97773  0.033201788  0.033667824            4 
  902000    1.1021629   -7.0057532    359.17253  0.033182976  0.033659678            2 
  903000    1.1080549   -6.9898056    358.43482  0.033078149  0.033651211            2 
  904000    1.1086594   -7.0099058    359.02667  0.033096116  0.033642998            1 
  905000    1.1139589   -7.0099474    359.94287  0.033143911  0.033634752            2 
  906000    1.1278281   -7.0385874    358.74301  0.032996966  0.033626626            2 
  907000    1.0646702   -7.0207903    360.35676  0.033108854  0.033618663            3 
  908000    1.0750592   -7.0379685    360.18295  0.033056438  0.033610481            3 
  909000    1.0892831   -7.0317634    360.15139  0.033017179  0.033602441            3 
  910000    1.1128273   -7.0222802    361.13133  0.033070635  0.033594238            2 
  911000    1.1033985   -6.9993773    360.92739  0.033015678   0.03358579            1 
  912000    1.1019717   -7.0642182    360.55385  0.032945344  0.033577361            2 
  913000     1.124472   -7.0245542    361.63337  0.033007792  0.033568828            5 
  914000    1.1325054   -7.0615134     361.9161  0.032997457  0.033560263            2 
  915000    1.1397808   -7.0130029    362.57281  0.033021203  0.033552018            2 
  916000    1.1244607   -7.0184586    363.00917  0.033024852  0.033543633            3 
  917000    1.1072579   -7.0275616    362.93801  0.032982371  0.033535139            2 
  918000    1.1176021   -7.0386895    362.27171  0.032885958  0.033526801            2 
  919000    1.1037091   -7.0668991    362.28969  0.032851803  0.033518009            3 
  920000    1.0912698   -7.0071259     364.2845  0.032996784  0.033509484            2 
  921000    1.0880466   -6.9991158     364.2431  0.032957212  0.033500842            2 
  922000    1.1160583   -7.0241773    365.12195    0.0330009  0.033492439            1 
  923000    1.0775266   -7.0202293    363.94941  0.032859283  0.033484035            2 
  924000    1.0822686   -7.0292359    364.89366   0.03290888  0.033475542            3 
  925000    1.1007908   -6.9949451    366.21158  0.032992034  0.033466883            1 
  926000    1.1041796   -7.0226199     365.8273  0.032921824   0.03345827            3 
  927000    1.1280987   -7.0086439    366.67306  0.032962339  0.033449801            2 
  928000    1.1064519   -7.0575691     365.9062  0.032857956  0.033441316            1 
  929000    1.1108131   -7.0140963    367.53214  0.032968438  0.033432555            2 
  930000    1.0829645   -7.0499177    365.88898  0.032785751  0.033424168            1 
  931000      1.08035   -7.0222178    366.80543  0.032832566  0.033415784            1 
  932000    1.0955741   -7.0245253    366.97609  0.032812597  0.033407222            2 
  933000    1.1101261   -7.0268347    367.93417  0.032863002  0.033398602            2 
  934000    1.0927141    -7.003305    369.35289  0.032954398  0.033390339            2 
  935000    1.1011002   -7.0312109    369.10508  0.032897066  0.033382223            1 
  936000     1.118547   -7.0397131    368.73119  0.032828632  0.033373722            2 
  937000    1.1171491    -7.027159    369.58432   0.03286947  0.033365177            1 
  938000     1.122771   -7.0325071    369.92691  0.032864864  0.033356924            1 
  939000    1.0932625    -7.027121    369.99642  0.032836033  0.033348198            1 
  940000    1.0935314   -7.0616271    369.30718  0.032739998  0.033339506            3 
  941000    1.1023834   -6.9906501    370.97708  0.032853089  0.033330794            2 
  942000    1.1045654   -7.0070825    370.38573    0.0327659  0.033322461            1 
  943000    1.1026212   -7.0118739    371.54533  0.032833628  0.033314016            4 
  944000     1.125376    -7.056151    370.86048   0.03273839  0.033305486            3 
  945000    1.0940979   -7.0432348    372.18205  0.032820286  0.033297223            1 
  946000    1.0974529    -7.030941    373.28204  0.032882491  0.033288881            2 
  947000    1.0990705   -7.0497846    371.60398  0.032700104  0.033280542            2 
  948000    1.1226446   -7.0316257    372.78549   0.03276947  0.033272373            2 
  949000    1.1076271   -7.0472601    373.90923  0.032833617  0.033264238            1 
  950000    1.1008947   -7.0372948    372.98706  0.032718163  0.033255988            2 
  951000    1.1033733   -7.0086349    373.91899  0.032765422  0.033247907            4 
  952000    1.0865512   -6.9889961    374.87501   0.03281469  0.033239869            3 
  953000    1.1250547   -7.0729131    372.17837  0.032544454  0.033231588            2 
  954000    1.0942396   -7.0070899    374.51162  0.032714153   0.03322325            3 
  955000    1.1021194    -7.054981    375.64771  0.032779032  0.033214944            2 
  956000     1.098389   -7.0206358    375.87737  0.032764764  0.033206774            2 
  957000    1.0955374   -7.0124211    375.37789  0.032687033  0.033198511            1 
  958000    1.0875221   -7.0014155    375.86581  0.032695356  0.033190109            2 
  959000     1.075912    -7.040937    375.60815  0.032638873   0.03318159            2 
  960000    1.0905477   -7.0195252      376.478  0.032680382  0.033172849            1 
  961000    1.1045434   -7.0101978    376.83161  0.032677038  0.033164368            2 
  962000    1.1169306   -7.0106096    377.37582  0.032690213  0.033156138            2 
  963000    1.0734164   -7.0244469    377.36807  0.032655596   0.03314792            2 
  964000    1.1243304   -7.0236797    377.11385  0.032599745  0.033139812            1 
  965000    1.0873124   -7.0008929      378.744  0.032706736  0.033131698            1 
  966000    1.0851375   -7.0057481    379.22894  0.032714712  0.033123453            5 
  967000    1.1034487   -6.9918511     379.7226  0.032723423  0.033115327            2 
  968000    1.0937447    -7.048454    378.56478  0.032589943   0.03310717            1 
  969000    1.1003725   -7.0023057    381.05687  0.032770628  0.033099444            1 
  970000    1.0881208    -7.034597    380.13914  0.032658002  0.033091915            3 
  971000    1.0985735   -7.0634457    381.73505  0.032761333  0.033084553            3 
  972000    1.0791256   -6.9975637    380.70401  0.032639233  0.033077176            3 
  973000    1.0841052   -7.0429234    382.30926   0.03274317  0.033069861            1 
  974000    1.0868796   -7.0330927    382.61584  0.032735784   0.03306257            3 
  975000    1.1020016   -7.0427375    382.89834  0.032726354  0.033055179            1 
  976000    1.1102267   -6.9959359    384.27502  0.032810367  0.033047809            1 
  977000    1.0821684   -7.0431844    383.08033  0.032674883  0.033040157            2 
  978000    1.0820974    -7.030125    383.88362   0.03270992  0.033032798            2 
  979000    1.1011242   -7.0425197     384.1465  0.032698885  0.033025129            1 
  980000    1.0857517   -7.0545828    382.77638  0.032549012  0.033017309            5 
  981000    1.1134512   -7.0799319    383.12372  0.032545338  0.033009625            2 
  982000    1.1048518   -7.0721041    383.51495  0.032545397  0.033001948            2 
  983000    1.0862606   -7.0505645    385.44961  0.032676298  0.032994465            1 
  984000    1.1131433   -7.0446312    385.12195  0.032615341  0.032986819            3 
  985000    1.0847894   -7.0596567    385.53049  0.032616793  0.032979408            5 
  986000     1.110527   -7.0836086    386.52354  0.032667642  0.032972101            1 
  987000    1.0982724    -7.040996    385.80114  0.032573551  0.032964715            1 
  988000     1.112196   -7.0176294    386.54999  0.032603744  0.032957147            1 
  989000    1.0846167   -7.0339682    386.50457   0.03256695  0.032949747            1 
  990000    1.1021142   -7.0198627    388.29279  0.032684579  0.032942411            1 
  991000    1.1210845   -7.0367507    388.57512  0.032675338  0.032935165            2 
  992000    1.0780264   -7.0430293    388.70082  0.032652959  0.032928069            2 
  993000    1.0835267   -7.0545309    388.75448  0.032624579  0.032921074            2 
  994000    1.0865851   -7.0837906     387.0653  0.032450143  0.032913774            2 
  995000    1.0875449   -7.0490332    389.40351  0.032613359  0.032906187            3 
  996000    1.0787944    -7.048246    389.60764  0.032597694  0.032898911            3 
  997000    1.0845181   -7.0331166    389.75662   0.03257745   0.03289161            2 
  998000    1.1066178   -7.0387446    389.93108  0.032559375  0.032884198            2 
  999000     1.085938   -7.0364633    388.94891  0.032444854  0.032876909            2 
 1000000    1.0893917   -7.0215048    392.05782  0.032671485  0.032869234            3 
 1001000    1.0851242    -7.021844    392.34402  0.032662672   0.03286192            3 
 1002000     1.109512   -7.0462227    390.37602  0.032466402  0.032854722            3 
 1003000    1.0874807   -7.0209978    392.40485  0.032602596  0.032847548            3 
 1004000    1.1029767    -6.992964    392.22076  0.032554844  0.032840524            2 
 1005000    1.1157177   -7.0480506    392.68093  0.032560608  0.032833348            1 
 1006000    1.0963705   -7.1058929     390.9708   0.03238658  0.032826205            4 
 1007000    1.0705118   -7.0754861    392.92158  0.032515854  0.032818957            4 
 1008000    1.0785233    -7.047626    394.05046  0.032576923  0.032811629            5 
 1009000    1.0866465    -7.064609      393.981    0.0325389  0.032804294            1 
 1010000    1.0753966   -7.0545707    394.83516  0.032577158  0.032796993            3 
 1011000    1.0830206   -7.0737683    394.30407  0.032501159  0.032789673            2 
 1012000    1.0942295   -7.0193417    395.35806  0.032555835  0.032782569            1 
 1013000    1.0894947   -7.0309502     393.8279   0.03239782  0.032775521            4 
 1014000    1.0902605    -7.028747    395.34652  0.032490674  0.032768545            3 
 1015000    1.1136407   -7.0374304    396.95292  0.032590552  0.032761775            2 
 1016000    1.0765375   -7.0602635    396.72364  0.032539668  0.032755094            3 
 1017000    1.0959895    -7.068824    396.45155  0.032485377    0.0327482            2 
 1018000    1.0940193   -7.0548837     396.9288  0.032492534  0.032741071            2 
 1019000     1.093453   -7.0776695    396.65229  0.032438035  0.032733813            2 
 1020000     1.113092   -7.0408775    396.51831  0.032395287  0.032726728            1 
 1021000    1.0888773   -7.0683063    396.12171  0.032331188  0.032719591            1 
 1022000    1.0815529   -7.0321684    397.54793  0.032415846  0.032712263            1 
 1023000    1.1095006   -7.0698898    398.35095  0.032449573  0.032705108            3 
 1024000    1.0808782   -7.0767446    398.07617  0.032395522  0.032698118            3 
 1025000    1.0739966   -7.0927932    399.12846  0.032449469  0.032690963            2 
 1026000     1.074705   -7.0413938    399.27666  0.032429878  0.032683966            4 
 1027000    1.0962932   -7.0783061     399.0707  0.032381589  0.032676818            2 
 1028000    1.0708844   -7.0353956    399.60793  0.032393639  0.032669763            3 
 1029000    1.0876745    -7.045494    399.24538  0.032332798  0.032662491            2 
 1030000    1.0777616   -7.0519275    400.08445  0.032369292  0.032655035            3 
 1031000    1.0814026    -7.052296    399.69413  0.032306348  0.032647844            2 
 1032000    1.0817801   -7.0883598    399.30484  0.032243608  0.032640453            2 
 1033000    1.0891322   -7.0523778    400.30896  0.032293398  0.032633093            4 
 1034000    1.0610261   -7.0303418    401.79258  0.032381736  0.032625819            2 
 1035000     1.084665    -7.031428    400.97033  0.032284246  0.032618641            2 
 1036000    1.1004106   -7.0505971    402.17361  0.032349872   0.03261153            2 
 1037000     1.109343   -7.0736106    402.34477  0.032332431  0.032604729            3 
 1038000    1.0568653   -7.0744303    402.91711  0.032347231  0.032597766            2 
 1039000    1.0878658   -7.0459266    404.34658  0.032430749  0.032591006            1 
 1040000    1.0622296   -7.0694748    403.39173  0.032323055  0.032584346            1 
 1041000    1.0894353   -7.0622859    403.20941   0.03227741   0.03257766            3 
 1042000    1.0825673    -7.085522    404.52718  0.032351822  0.032571018            3 
 1043000    1.0887806   -7.0289206    406.20852  0.032455139  0.032564458            2 
 1044000    1.0863284   -7.0437631    406.33589  0.032434219  0.032557768            1 
 1045000    1.0868185   -7.0856188     405.3725  0.032326356  0.032551048            3 
 1046000    1.0879478   -7.0784188    406.31489   0.03237053   0.03254446            3 
 1047000    1.0825157   -7.0459089    406.91808  0.032387622  0.032538057            2 
 1048000    1.0837392   -7.0857619    407.64437   0.03241447  0.032531454            2 
 1049000    1.0721766   -7.0144241    408.63735  0.032462453  0.032524879            2 
 1050000    1.0948289    -7.040551    407.94619  0.032376682  0.032518459            2 
 1051000    1.0698521   -7.0773568    407.28364  0.032293343  0.032511778            3 
 1052000    1.0717307   -7.0763803    407.64859  0.032291555   0.03250533            2 
 1053000    1.0699267   -7.0422571    408.07326  0.032294497  0.032498706            2 
 1054000    1.0704996   -7.0248721    410.33079  0.032442346  0.032492274            1 
 1055000     1.089277   -7.0829574    408.70251  0.032282979  0.032485748            2 
 1056000    1.0838313   -7.0595739    409.65546  0.032327609  0.032478923            3 
 1057000    1.0907148   -7.0932839    408.76085  0.032226494  0.032472106            2 
 1058000    1.0576388   -7.0370976    408.68689  0.032190209  0.032465079            1 
 1059000    1.0999091   -7.0415573    408.47881  0.032143438   0.03245799            2 
 1060000    1.0755597   -7.0597684    409.46216  0.032190422   0.03245073            5 
 1061000    1.0764866   -7.0878573    409.44797  0.032158967  0.032443751            3 
 1062000    1.0935493   -7.0936904    410.13271  0.032182416  0.032436437            3 
 1063000    1.0675963   -7.0813395    410.08661  0.032148527  0.032429324            2 
 1064000    1.0901575    -7.053038    412.34948  0.032295542  0.032422142            3 
 1065000     1.087527   -7.0695325    411.41524  0.032192116  0.032414943            1 
 1066000    1.0835982    -7.061565    411.35402  0.032157131   0.03240785            2 
 1067000    1.1065166    -7.074411    410.98055  0.032097825  0.032400418            4 
 1068000    1.0846314   -7.0848189     412.5232   0.03218814  0.032393085            6 
 1069000    1.0611008   -7.0976589    410.96903  0.032036875  0.032385605            2 
 1070000      1.06896   -7.0876911    411.95723  0.032083896  0.032378216            1 
 1071000    1.1091738   -7.0577776    413.04744  0.032138768  0.032370849            1 
 1072000    1.0798365   -7.0718255    412.78697   0.03208854  0.032363492            1 
 1073000    1.0540432    -7.061588    412.67356  0.032049826  0.032356293            1 
 1074000    1.0851789   -7.1062064    411.36007  0.031918069  0.032348907            2 
 1075000    1.0996679   -7.0877622    413.66828  0.032067308  0.032341354            2 
 1076000    1.0932832   -7.0442503     414.6397   0.03211274   0.03233421            2 
 1077000    1.0818044   -7.1008859    414.08417  0.032039939  0.032327197            1 
 1078000     1.073522   -7.0780547     415.8686   0.03214816  0.032320166            2 
 1079000    1.0544442   -7.0448517    415.92688  0.032122867  0.032313397            2 
 1080000    1.0983244   -7.0805546     415.7175  0.032076967  0.032306613            2 
 1081000    1.0519798    -7.057281     418.7092  0.032277921  0.032300037            1 
 1082000    1.0847031   -7.0914407    416.80645  0.032101544  0.032293547            2 
 1083000    1.0703174   -7.0959525    417.53619  0.032128054  0.032287066            1 
 1084000    1.0858815   -7.0831683    415.87574  0.031970767  0.032280254            2 
 1085000    1.0934621   -7.0821322    417.22909  0.032045245  0.032273456            2 
 1086000    1.0521169    -7.084809    418.64344  0.032124266  0.032266785            2 
 1087000    1.0889744   -7.0391588    418.25223  0.032064722    0.0322599            2 
 1088000    1.0924268   -7.1032781    417.83338   0.03200317  0.032253038            1 
 1089000    1.0549095   -7.0750004    418.53106   0.03202717  0.032246174            4 
 1090000    1.0968758   -7.0997437    417.71798  0.031935625  0.032239155            1 
 1091000     1.090843   -7.1221482    418.36895  0.031956076  0.032232174            2 
 1092000    1.0708084   -7.1027081    419.60955  0.032021486  0.032225184            1 
 1093000    1.0736637   -7.0828546    419.58064  0.031989984  0.032218053            2 
 1094000    1.0655782   -7.0555973    420.53556  0.032033483   0.03221083            2 
 1095000    1.0821096   -7.1024947    419.69165  0.031940004  0.032203758            2 
 1096000    1.0790541   -7.0713361    420.01309  0.031935302  0.032196758            4 
 1097000    1.0643031    -7.090318    420.42875  0.031937766  0.032189806            2 
 1098000    1.0836318   -7.1033883    421.32526   0.03197672   0.03218278            2 
 1099000     1.088938   -7.0594883    421.48287  0.031959574  0.032175841            2 
 1100000    1.0556388   -7.0327038    422.25712  0.031989175  0.032168923            3 
 1101000    1.0704187   -7.0737684    421.12939  0.031874764  0.032161923            1 
 1102000    1.0815276   -7.0905602    421.74288  0.031892232   0.03215502            3 
 1103000    1.0918895   -7.0623065    422.44757  0.031916559  0.032147925            2 
 1104000    1.0771637   -7.0803836    422.01875   0.03185528  0.032140517            2 
 1105000    1.0567744   -7.0810499    422.20157  0.031840239  0.032133341            1 
 1106000    1.0911808   -7.0674224    422.84559  0.031859975  0.032125916            1 
 1107000    1.0835252    -7.126435    422.23652  0.031785344  0.032118368            2 
 1108000    1.0603729   -7.0927775    421.58572  0.031707711  0.032110821            2 
 1109000    1.0618797    -7.061901     423.7786  0.031843898  0.032103519            1 
 1110000     1.071654   -7.0729897    423.84299  0.031820044  0.032096106            2 
 1111000    1.0931286   -7.0508511    424.01565  0.031804354  0.032088937            1 
 1112000     1.082964   -7.0381948    426.28052  0.031945483  0.032081813            4 
 1113000    1.0484531   -7.0959664    424.01466  0.031747129  0.032074442            2 
 1114000     1.069485   -7.0906581    423.89373  0.031709585  0.032067009            4 
 1115000    1.0808019   -7.0687438    425.48936    0.0318004  0.032059462            3 
 1116000    1.0861302   -7.0935638    425.24866  0.031753932  0.032052012            1 
 1117000    1.0533837   -7.0513344    425.15024  0.031718161  0.032044442            2 
 1118000    1.0656645   -7.0883507     425.4787  0.031714274  0.032037072            3 
 1119000    1.0784411   -7.0960174    424.75395  0.031631959  0.032029497            4 
 1120000    1.0546634   -7.0725576    426.34126   0.03172182  0.032022032            3 
 1121000    1.0726207   -7.0765732    425.68885  0.031645023  0.032014542            2 
 1122000    1.0757652   -7.0787293    426.01873   0.03164132  0.032006919            2 
 1123000    1.0826032   -7.0977178    424.57269  0.031505839  0.031999347            4 
 1124000    1.0744754   -7.0916518    426.17081  0.031596294  0.031991574            3 
 1125000    1.0801527    -7.115022    426.51071  0.031593386  0.031983822            2 
 1126000    1.0696749   -7.1108802     427.1078  0.031609518  0.031976003            2 
 1127000    1.0598148   -7.0821988    427.56772  0.031615478  0.031968306            2 
 1128000    1.0639739   -7.1104809    428.79699  0.031678264  0.031960675            2 
 1129000    1.0729085   -7.0674728    428.37086  0.031618752  0.031952995            2 
 1130000    1.0603539    -7.068277    428.25307  0.031582085  0.031945247            1 
 1131000    1.0575482   -7.1183898    428.38562  0.031563927  0.031937502            3 
 1132000    1.0746782   -7.0668441     429.4524  0.031614576   0.03192968            1 
 1133000    1.0822914   -7.0868281    429.18741  0.031567183  0.031921903            2 
 1134000    1.0729681    -7.110381    428.09052  0.031458739  0.031914329            6 
 1135000    1.0759643   -7.0850525    430.56279   0.03161254  0.031906482            1 
 1136000    1.0578454   -7.1159038    429.88347  0.031534879  0.031898955            2 
 1137000    1.0850691   -7.1037951    430.58481  0.031558547   0.03189135            2 
 1138000    1.0638808   -7.0965588    430.15534  0.031499366  0.031883696            1 
 1139000    1.0617481   -7.1037931    430.05641  0.031464472  0.031876012            2 
 1140000     1.066815   -7.0764894    432.76098  0.031634575  0.031868607            2 
 1141000    1.0510572   -7.0830295    431.51995  0.031516211  0.031861129            2 
 1142000    1.0647422   -7.0475072    432.29702  0.031545317  0.031853555            2 
 1143000    1.0942803   -7.0955233    431.48517  0.031458528  0.031845828            2 
 1144000     1.056989   -7.1285646    431.73493  0.031449223  0.031838302            1 
 1145000     1.078845   -7.1239228    432.74805  0.031495491  0.031830707            2 
 1146000    1.0721328   -7.0863977    433.57129  0.031527871  0.031823034            2 
 1147000     1.065896   -7.1137924    432.35643  0.031412121  0.031815255            2 
 1148000    1.0640081   -7.1350355    433.45446  0.031464464  0.031807377            2 
 1149000    1.0480083   -7.0724742    434.00638  0.031477109  0.031799582            2 
 1150000    1.0629614   -7.1192288    432.88337   0.03136836  0.031791879            1 
 1151000    1.0595595   -7.0821814     434.8531  0.031483717  0.031784186            1 
 1152000    1.0777426   -7.1033222    434.37121  0.031421528  0.031776713            1 
 1153000    1.0655018   -7.0999617    434.77402   0.03142339  0.031769208            2 
 1154000    1.0723807   -7.1190321    434.62416  0.031385338  0.031761734            3 
 1155000    1.0752289   -7.1027092    436.29235  0.031478525  0.031754179            2 
 1156000    1.0754152   -7.0936524    435.57832  0.031399822  0.031746741            3 
 1157000     1.082306   -7.1058232    435.89269  0.031395325  0.031739285            3 
 1158000    1.0869559   -7.1138197     437.8401  0.031508355  0.031731809            3 
 1159000    1.0562301   -7.1237758    437.78904  0.031477497  0.031724179            2 
 1160000    1.0700922   -7.0858399    437.14895  0.031404378  0.031716703            2 
 1161000    1.0684271   -7.1109333    437.17045  0.031378872  0.031709151            1 
 1162000    1.0847992   -7.0757071    438.35574  0.031436872  0.031701747            2 
 1163000     1.066802   -7.1396144    437.52094  0.031350024  0.031694286            2 
 1164000    1.0628583   -7.0985381    438.66524  0.031405014  0.031686858            2 
 1165000    1.0605928   -7.1236016    438.34708  0.031355299  0.031679282            3 
 1166000      1.03887   -7.1136897    439.51492  0.031411873  0.031671849            2 
 1167000     1.085488   -7.1374145    438.26448  0.031295664   0.03166445            1 
 1168000    1.0508016   -7.1161645    438.94011  0.031317074  0.031656908            3 
 1169000    1.0852439   -7.0875748    440.90658  0.031430466  0.031649622            2 
 1170000      1.05121   -7.1331436    439.57421  0.031308704  0.031642407            2 
 1171000    1.0767567   -7.1350088    440.58343  0.031353788  0.031635102            4 
 1172000    1.0550423   -7.0932529    442.24058  0.031444865  0.031627836            2 
 1173000    1.0886474   -7.1224731    441.82035  0.031388204  0.031620654            3 
 1174000     1.067353   -7.1159967    442.29061  0.031394847   0.03161363            2 
 1175000    1.0662857   -7.1207882    441.25334  0.031294563  0.031606533            1 
 1176000    1.0708617   -7.0708458    443.77204  0.031446432  0.031599789            3 
 1177000    1.0653146   -7.0865245     443.1219  0.031373683   0.03159278            2 
 1178000    1.0640719   -7.1148059    442.82631   0.03132614   0.03158569            1 
 1179000    1.0544774   -7.1303062    443.18661  0.031325036  0.031578481            2 
 1180000    1.0408706   -7.1001348    442.71578  0.031265238  0.031571264            2 
 1181000    1.0471878   -7.0998045    444.66983  0.031376646  0.031564234            5 
 1182000    1.0479963   -7.1419518    443.83871  0.031291505  0.031556996            2 
 1183000    1.0698319   -7.0998093    444.24862   0.03129393  0.031549695            1 
 1184000    1.0714573   -7.1027683    444.81434  0.031307315  0.031542666            3 
 1185000    1.0796745   -7.0940813    446.45767  0.031396461  0.031535804            3 
 1186000    1.0579828   -7.0900632    447.42955  0.031438276  0.031528974            1 
 1187000    1.0508081   -7.1074836    447.42877  0.031411736  0.031522078            3 
 1188000    1.0475668   -7.1092642    447.08981  0.031361518  0.031515129            1 
 1189000    1.0795474    -7.138427    445.89707  0.031251546  0.031508394            4 
 1190000     1.067198   -7.1280853    446.47127  0.031265495  0.031501421            2 
 1191000    1.0677735   -7.1006617    446.67834  0.031253732  0.031494424            2 
 1192000    1.0673878   -7.1281706    448.02096  0.031321376  0.031487506            1 
 1193000    1.0626322   -7.1151643    448.00869  0.031294264  0.031480574            3 
 1194000    1.0547357   -7.1263255    447.71578  0.031247611  0.031473619            1 
 1195000    1.0529872   -7.1087964    448.22959  0.031257293   0.03146644            1 
 1196000    1.0427315   -7.1237929     448.6818  0.031262667  0.031459405            2 
 1197000    1.0491768   -7.1122195     448.9362   0.03125426  0.031452459            1 
 1198000    1.0409783   -7.1137304    449.41936  0.031261781  0.031445472            2 
 1199000     1.056226   -7.1136198    449.17647  0.031218826  0.031438524            3 
 1200000    1.0607862   -7.1046423    450.22247  0.031265449  0.031431431            2 
 1201000    1.0572561   -7.1250046    448.68113  0.031132468  0.031424447            1 
 1202000    1.0665668   -7.1116554    451.09587  0.031273979  0.031417409            1 
 1203000    1.0779368   -7.1009863    450.57201  0.031211693  0.031410333            2 
 1204000     1.087862   -7.1404142    451.29572  0.031235861  0.031403289            2 
 1205000    1.0700178   -7.1398699    451.84337  0.031247812  0.031396359            3 
 1206000     1.064768   -7.1203639      453.035  0.031304243   0.03138954            1 
 1207000    1.0620959   -7.1109474    452.21289  0.031221547  0.031382608            1 
 1208000    1.0430208   -7.0975439    452.54754  0.031218787  0.031375607            1 
 1209000    1.0463317   -7.1346686    452.37229  0.031180886  0.031368613            2 
 1210000    1.0515488   -7.1292445    452.38771  0.031156178   0.03136148            3 
 1211000    1.0689047   -7.1450975    452.60394   0.03114533  0.031354457            5 
 1212000    1.0481958   -7.0826258    453.60136  0.031188212  0.031347356            4 
 1213000    1.0697459   -7.1230854    453.45459  0.031152418  0.031340452            3 
 1214000    1.0589448   -7.0958313    455.30798   0.03125398  0.031333651            1 
 1215000    1.0682952    -7.142084    452.79756  0.031056074  0.031326651            2 
 1216000    1.0622452    -7.138436    454.50851  0.031147787  0.031319536            2 
 1217000    1.0781297    -7.109887    453.37685  0.031044703    0.0313124            1 
 1218000    1.0441174   -7.1430124    453.06861  0.030998126  0.031305319            4 
 1219000    1.0693242   -7.0961218    454.40293  0.031063914  0.031298401            2 
 1220000    1.0501454    -7.080902    455.52843   0.03111533  0.031291484            2 
 1221000    1.0516158    -7.114978    456.07904  0.031127425  0.031284465            1 
 1222000    1.0397622   -7.1303944    455.08979  0.031034492  0.031277464            3 
 1223000    1.0640935   -7.1359455    454.61791  0.030976963  0.031270198            1 
 1224000     1.044395   -7.1375291    456.32243  0.031067704  0.031262935            3 
 1225000     1.075587   -7.1388063    456.08034  0.031025873  0.031255793            2 
 1226000    1.0794692   -7.1020561    458.27987  0.031150073  0.031248743            3 
 1227000    1.0655313   -7.1450698    455.04137  0.030904739  0.031241482            5 
 1228000     1.053655   -7.1394522    454.79687  0.030862979  0.031234127            1 
 1229000    1.0420962   -7.1203921    457.06838  0.030991889   0.03122657            3 
 1230000    1.0530758   -7.1087569    456.76539  0.030946165  0.031219231            3 
 1231000    1.0576877   -7.1549746    456.21919   0.03088405  0.031211794            2 
 1232000    1.0611153   -7.0861677    458.05946  0.030983459  0.031204435            3 
 1233000    1.0591158   -7.1296551    457.55534  0.030924259  0.031197177            3 
 1234000    1.0697162   -7.1540579    457.63985  0.030904906  0.031189713            2 
 1235000    1.0599229   -7.1025646    458.37957  0.030929796    0.0311821            3 
 1236000    1.0328468   -7.1437485     458.9274  0.030941707  0.031174657            5 
 1237000    1.0536772    -7.150972    457.09853  0.030793488     0.031167            2 
 1238000    1.0636236   -7.1312977     458.6818  0.030875189  0.031159384            4 
 1239000    1.0706291   -7.1070993    457.83377  0.030793232  0.031151782            2 
 1240000    1.0570301   -7.1419286    460.32559   0.03093586   0.03114444            3 
 1241000    1.0734159   -7.1292354    459.17651   0.03083377  0.031137133            1 
 1242000    1.0721719   -7.1448826    459.52597  0.030832392  0.031129782            3 
 1243000    1.0578649   -7.1272325    459.65766  0.030816416  0.031122578            2 
 1244000    1.0355365   -7.0867539    461.86931  0.030939799  0.031115201            2 
 1245000    1.0369179   -7.1368376    460.47514  0.030821629  0.031107913            2 
 1246000    1.0615382      -7.1344    460.78534  0.030817639  0.031100518            1 
 1247000    1.0523153   -7.0857843    462.58684  0.030913315   0.03109316            2 
 1248000    1.0583307   -7.1422024     460.1863  0.030728252  0.031085803            2 
 1249000    1.0279613   -7.1079392    463.59038   0.03093077  0.031078414            8 
 1250000    1.0496669   -7.1307671    462.01915  0.030801277   0.03107118            3 
 1251000    1.0579386   -7.1337202    464.02145  0.030910035  0.031063866            2 
 1252000    1.0447136   -7.1103272    462.78168  0.030802828  0.031056715            2 
 1253000    1.0588134   -7.1627715    462.44813  0.030756061  0.031049191            2 
 1254000    1.0315235   -7.1187381    462.71843  0.030749497  0.031041724            2 
 1255000    1.0484204   -7.1229669    464.97566  0.030874878   0.03103441            5 
 1256000    1.0512291   -7.1193872    464.74681  0.030835112  0.031027289            4 
 1257000    1.0530367   -7.1624661    462.99663  0.030694553  0.031019914            2 
 1258000    1.0627662   -7.1230911    465.16428  0.030813744  0.031012445            2 
 1259000    1.0593851   -7.1666662     464.0606  0.030716216  0.031005149            4 
 1260000    1.0578834   -7.1072626     464.5852  0.030726535  0.030997893            3 
 1261000    1.0599862   -7.1008176    467.53839   0.03089733  0.030990806            3 
 1262000    1.0355916    -7.135873    466.41873  0.030798912  0.030983704            3 
 1263000    1.0638214   -7.1257358    466.19535  0.030759788  0.030976431            1 
 1264000    1.0408512   -7.1037563    467.06498  0.030792786  0.030969352            3 
 1265000    1.0578321   -7.1480536    466.35831  0.030721891  0.030962283            2 
 1266000    1.0599105   -7.1469055    467.72125  0.030787339  0.030954985            2 
 1267000    1.0294488   -7.0992712    468.07481  0.030786293  0.030947776            1 
 1268000     1.031222   -7.1542599    467.16655  0.030702323  0.030940559            2 
 1269000    1.0587068   -7.1960272    465.84885  0.030591598  0.030933136            2 
 1270000    1.0320177   -7.1462774    466.03023  0.030579412  0.030925464            1 
 1271000    1.0666341   -7.1365076    467.46602   0.03064949  0.030917891            2 
 1272000    1.0718665   -7.1039053      468.033  0.030662539  0.030910411            2 
 1273000    1.0431091   -7.1215341    468.18913  0.030648673  0.030903083            2 
 1274000    1.0436154   -7.0983798    468.20607  0.030625724  0.030895596            5 
 1275000    1.0622814   -7.1358558    468.88602  0.030646145  0.030888149            3 
 1276000    1.0447994   -7.0799981    469.31145  0.030649912  0.030880704            3 
 1277000    1.0510103   -7.1002854    469.31272  0.030625993  0.030873351            3 
 1278000    1.0833531   -7.1260841    469.68547  0.030626335  0.030866041            4 
 1279000    1.0541983   -7.1740094    470.71179  0.030669259  0.030858795            2 
 1280000    1.0645907   -7.1762669    468.96755  0.030531741   0.03085135            2 
 1281000    1.0425393   -7.1626589    470.48634  0.030606709  0.030843907            2 
 1282000     1.035209   -7.1283987    469.99206  0.030550706  0.030836576            4 
 1283000    1.0454327   -7.1301114    470.96047  0.030589794  0.030829041            1 
 1284000     1.037921   -7.1409122    472.20365  0.030646655  0.030821604            2 
 1285000    1.0531256    -7.119607    472.11682  0.030617173  0.030814257            4 
 1286000    1.0439392   -7.1505847    471.95038  0.030582581   0.03080684            1 
 1287000    1.0483842   -7.1431722    469.60107    0.0304067   0.03079933            1 
 1288000    1.0625488   -7.1632418    471.64107   0.03051508  0.030791851            2 
 1289000    1.0242663    -7.138822    470.66022  0.030427995  0.030784341            2 
 1290000    1.0645101   -7.1564392    472.42664  0.030518517  0.030776831            2 
 1291000    1.0529922   -7.1193314    473.50709   0.03056462  0.030769362            1 
 1292000    1.0719962   -7.1563012    471.80896  0.030431435  0.030761825            3 
 1293000    1.0765938   -7.1497107    472.76242  0.030469349  0.030754338            4 
 1294000    1.0434815   -7.1381248    474.09968  0.030531921  0.030746898            1 
 1295000    1.0565154   -7.1054957    473.50141  0.030469846  0.030739525            2 
 1296000    1.0470551   -7.1748909    473.01996  0.030415378  0.030732072            1 
 1297000    1.0643905   -7.1169678    475.32443  0.030539992  0.030724765            1 
 1298000    1.0484131   -7.1288665    475.10486  0.030502367  0.030717541            2 
 1299000     1.047412   -7.1207119    475.88485  0.030528923    0.0307104            2 
 1300000    1.0461478   -7.1518658    475.21531   0.03046252   0.03070312            2 
 1301000    1.0444353   -7.1381243    476.22273  0.030503634  0.030696062            3 
 1302000    1.0342712   -7.1571404    476.33126  0.030487152   0.03068895            2 
 1303000    1.0443537   -7.1701065    475.82736  0.030431527  0.030681693            3 
 1304000    1.0458841   -7.1230523    476.80084  0.030470401  0.030674552            2 
 1305000    1.0514365   -7.1469664    476.62043  0.030435532  0.030667351            1 
 1306000    1.0635391   -7.1664678     475.9274  0.030368006  0.030660061            1 
 1307000     1.052926   -7.1560739    477.46141  0.030442579  0.030652981            2 
 1308000    1.0636092   -7.1550747    476.89181  0.030383015  0.030645919            2 
 1309000    1.0321822   -7.1247042    479.12457  0.030501946  0.030638663            1 
 1310000    1.0608746    -7.167116    478.30661  0.030426629  0.030631543            2 
 1311000    1.0526965   -7.1424889    476.29456  0.030275525  0.030624299            2 
 1312000    1.0562989   -7.1392991    479.10291  0.030430825   0.03061692            2 
 1313000    1.0176933    -7.141557    476.77669  0.030260008   0.03060927            1 
 1314000     1.035015    -7.163532     477.7078   0.03029603  0.030601838            3 
 1315000    1.0578802    -7.172365    478.23355  0.030306309  0.030594405            1 
 1316000     1.051015   -7.1419944    478.26537  0.030285294  0.030586794            2 
 1317000    1.0292225   -7.1548512    477.58751  0.030219407  0.030579185            2 
 1318000    1.0495024   -7.1627982    478.77627  0.030271641  0.030571615            4 
 1319000    1.0493959   -7.1287798    478.94962  0.030259642  0.030564139            4 
 1320000    1.0562042   -7.1581985    479.75913  0.030287824  0.030556669            3 
 1321000    1.0219374   -7.1514522    479.85923  0.030271211  0.030549177            3 
 1322000    1.0358719    -7.162401    480.21486   0.03027073  0.030541688            1 
 1323000    1.0501277   -7.1778276    479.59218  0.030208628  0.030534123            2 
 1324000    1.0461617   -7.1676447    480.11725   0.03021886  0.030526577            2 
 1325000    1.0514819   -7.1516848    481.46802  0.030281008  0.030519006            2 
 1326000    1.0381964   -7.1617855    480.90679    0.0302229  0.030511646            2 
 1327000    1.0765476   -7.1736383      481.856  0.030259734   0.03050425            4 
 1328000    1.0322807   -7.1657863    482.16603  0.030256402  0.030496969            3 
 1329000    1.0594442   -7.1698082    482.96228  0.030283564  0.030489699            2 
 1330000    1.0381766   -7.1577278    484.20683  0.030338774  0.030482317            3 
 1331000    1.0436074   -7.1698357    483.19199  0.030252441  0.030475027            2 
 1332000    1.0417439   -7.1188906    483.52457  0.030250536  0.030467731            2 
 1333000    1.0376304     -7.16056    485.03304  0.030322145  0.030460709            1 
 1334000    1.0391763   -7.1320323    484.17193  0.030245623  0.030453491            3 
 1335000    1.0260065   -7.1153743      485.265  0.030291198   0.03044644            1 
 1336000    1.0324366   -7.1309506    485.68396  0.030294658  0.030439483            5 
 1337000    1.0424491    -7.157835    484.81885  0.030218078  0.030432238            3 
 1338000    1.0541263   -7.1314583    485.50698  0.030238352  0.030425071            1 
 1339000    1.0575754   -7.1838635     484.2473  0.030137373  0.030417834            3 
 1340000    1.0387568   -7.1562059    485.91768  0.030218761  0.030410562            1 
 1341000    1.0452932   -7.1016617    486.22671  0.030215431  0.030403329            1 
 1342000    1.0559153   -7.1374225    486.53327  0.030211952  0.030396056            1 
 1343000    1.0391139   -7.1574976    485.09317  0.030100097  0.030388653            2 
 1344000    1.0367964   -7.1894902    486.38471  0.030157782  0.030381274            2 
 1345000    1.0227694   -7.1738893    486.79261  0.030160633  0.030373681            2 
 1346000    1.0696485   -7.1842097    485.68355  0.030069561   0.03036638            3 
 1347000    1.0382543   -7.1552756    486.24405  0.030081914  0.030358712            3 
 1348000    1.0375561   -7.1878408    485.74536  0.030028768   0.03035105            2 
 1349000    1.0220656   -7.1079505    486.88338  0.030076808  0.030343646            1 
 1350000    1.0600824   -7.1792156    488.84524  0.030175632  0.030336359            1 
 1351000     1.043987    -7.142497    489.59364  0.030199459  0.030329096            1 
 1352000    1.0347005    -7.162732    488.17022  0.030089387  0.030321827            1 
 1353000    1.0253878    -7.209606    487.24703  0.030010287  0.030314572            2 
 1354000    1.0169094   -7.1692112    488.37864   0.03005777  0.030307178            1 
 1355000    1.0239711   -7.1521656    488.32435  0.030032248  0.030299549            2 
 1356000    1.0392066   -7.1573361    488.41291  0.030015543  0.030292115            2 
 1357000    1.0434857   -7.1698645    487.92296  0.029963336  0.030284671            1 
 1358000    1.0393451   -7.1895646    489.69591  0.030050068   0.03027727            2 
 1359000    1.0284072   -7.1682646    489.03202  0.029987247  0.030269795            1 
 1360000    1.0401727   -7.1284254    490.43229  0.030050998  0.030262455            2 
 1361000    1.0334498   -7.1483991    490.39859  0.030026854  0.030255184            2 
 1362000    1.0269208   -7.1723558    490.89675  0.030035288  0.030248004            2 
 1363000    1.0600426   -7.1978146    489.52205  0.029929203  0.030240511            3 
 1364000   0.99834895   -7.1846201    489.90132  0.029930433  0.030233142            2 
 1365000    1.0324605   -7.1889194    489.76026  0.029899894  0.030225698            2 
 1366000    1.0300109   -7.1891061    489.92447  0.029888023  0.030218369            1 
 1367000    1.0465104   -7.1246376    491.36477   0.02995396  0.030211098            3 
 1368000    1.0035516   -7.1641933    493.44021  0.030058492  0.030203796            3 
 1369000    1.0132245   -7.1919249    493.72114  0.030053637  0.030196463            3 
 1370000   0.99682128   -7.1537508    492.45869  0.029954908    0.0301891            3 
 1371000    1.0357732   -7.1617016    492.43796  0.029931799  0.030181639            3 
 1372000     1.046754   -7.1358564    493.49088  0.029973936  0.030174294            3 
 1373000    1.0198665   -7.1707106    494.31864  0.030002345  0.030167023            2 
 1374000    1.0348128   -7.1977983    493.61048   0.02993756  0.030159769            1 
 1375000    1.0752662   -7.1639908    495.30134  0.030018263  0.030152687            2 
 1376000    1.0236638   -7.1417266    495.04768  0.029981085  0.030145607            1 
 1377000    1.0431959   -7.1916724    494.24364  0.029910654  0.030138422            3 
 1378000    1.0494305   -7.1644797    493.90107  0.029868231  0.030131156            5 
 1379000    1.0183455   -7.1427206    495.67958  0.029954048  0.030124047            2 
 1380000    1.0263844   -7.1958724    495.75127  0.029936671  0.030116871            2 
 1381000    1.0025652    -7.166402    495.70547  0.029912229  0.030109654            2 
 1382000    1.0400061   -7.1940237    497.00865  0.029969166  0.030102347            3 
 1383000    1.0245823   -7.2051155    495.12848  0.029834206  0.030095136            1 
 1384000    1.0209966   -7.1820128    495.00859   0.02980543  0.030087729            2 
 1385000    1.0469973   -7.1726337    496.58721  0.029878893   0.03008032            1 
 1386000    1.0056059   -7.2099799    495.05039  0.029764935  0.030073059            2 
 1387000    1.0721482   -7.2181083    496.03764   0.02980279  0.030065694            6 
 1388000     1.047912    -7.163894    496.47781  0.029807746  0.030058183            5 
 1389000    1.0464299   -7.1663508    498.41712  0.029902635  0.030050865            3 
 1390000    1.0453626   -7.1993468    497.46391  0.029823976  0.030043584            2 
 1391000    1.0412208    -7.187286    498.26361  0.029850444   0.03003627            3 
 1392000    1.0021998   -7.1581899    499.04544  0.029875805  0.030028857            2 
 1393000    1.0507084   -7.1457143    499.49522  0.029881265  0.030021641            4 
 1394000     1.049043   -7.1401265    499.44894  0.029857063  0.030014295            1 
 1395000    1.0148624   -7.1714527    498.88244  0.029801818  0.030007012            4 
 1396000     1.017129     -7.15125    499.83085  0.029837085  0.029999816            6 
 1397000    1.0066427   -7.2187208    498.67826  0.029746974  0.029992619            2 
 1398000    1.0240452   -7.1885511    499.71146  0.029787283  0.029985219            2 
 1399000    1.0364573   -7.1922792    498.23682  0.029678152  0.029977852            2 
 1400000   0.99831664   -7.2016592    499.51097  0.029732796  0.029970657            2 
 1401000    1.0559777   -7.1972016    500.34002  0.029760886  0.029963409            4 
 1402000     1.035553   -7.1724226     501.3074  0.029797159   0.02995606            1 
 1403000     1.029813   -7.1881574     501.2977  0.029775345  0.029948695            5 
 1404000    1.0301076   -7.1275743    503.20021  0.029867059  0.029941348            1 
 1405000    1.0330976   -7.1776062    501.98998   0.02977402  0.029933972            2 
 1406000     1.023447   -7.1961639    500.92657  0.029689816  0.029926692            4 
 1407000    1.0215674    -7.195003    501.26439  0.029688722  0.029919348            2 
 1408000    1.0291295   -7.1791539    501.13436  0.029659941  0.029912098            1 
 1409000    1.0193149   -7.1756313    503.22216   0.02976237  0.029904993            2 
 1410000    1.0168951   -7.2019758     504.4662  0.029814787  0.029897912            3 
 1411000    1.0238706   -7.1927945    502.33652  0.029667878  0.029890716            2 
 1412000    1.0349519   -7.1437889    503.89694   0.02973896  0.029883626            1 
 1413000    1.0237796    -7.203921    504.38493  0.029746693  0.029876463            2 
 1414000    1.0244745   -7.2172003    503.46048  0.029671174  0.029869315            2 
 1415000    1.0158842   -7.2051357    504.43145  0.029707388  0.029862032            4 
 1416000    1.0415846   -7.1944587    504.93663  0.029716139  0.029854716            1 
 1417000    1.0261529   -7.1789422    505.31561  0.029717455  0.029847535            2 
 1418000    1.0144888   -7.2042067    504.23711  0.029633116  0.029840408            2 
 1419000    1.0352276   -7.1821621    505.68159  0.029697063  0.029833347            3 
 1420000    1.0126809   -7.1489745    506.11387  0.029701518   0.02982625            2 
 1421000    1.0509613   -7.1983665    505.42566  0.029640257  0.029819156            1 
 1422000    1.0203781   -7.1735836    504.73538   0.02957896   0.02981203            2 
 1423000    1.0247762   -7.1876865     507.0388  0.029693067  0.029804908            2 
 1424000     1.040466   -7.2013164    507.18876   0.02968099  0.029797762            5 
 1425000    1.0035233   -7.1792056    507.33539  0.029668736  0.029790687            2 
 1426000     1.026329   -7.1912807     508.2602  0.029701975  0.029783753            2 
 1427000    1.0254498   -7.1681245    508.69741  0.029706693  0.029776858            3 
 1428000    1.0193595   -7.1970573    508.46718  0.029672454  0.029769988            1 
 1429000    1.0247549   -7.1939305    508.64111  0.029661833  0.029763087            2 
 1430000    1.0163388   -7.1624944    509.21923   0.02967478  0.029756158            1 
 1431000    1.0372888   -7.1697956    510.17145  0.029709495  0.029749333            4 
 1432000    1.0298699    -7.217537    508.44015  0.029587998   0.02974255            2 
 1433000   0.99358152   -7.1904766    509.90505  0.029652539  0.029735726            2 
 1434000    1.0268552   -7.2155591    508.65289  0.029559094  0.029728769            2 
 1435000    1.0199282   -7.1650675    510.76104   0.02966092  0.029721805            2 
 1436000     1.022498   -7.2102978     509.5173  0.029568088  0.029714863            3 
 1437000    1.0155606   -7.1885584    509.68897  0.029557468  0.029707762            1 
 1438000    1.0300918   -7.2104362    509.78641   0.02954256  0.029700614            1 
 1439000     1.029853   -7.1838071    509.64065  0.029513589  0.029693459            2 
 1440000    1.0051429   -7.2363503    509.35525  0.029476577  0.029686302            1 
 1441000    1.0232636   -7.1926993    511.07048  0.029555314  0.029679265            3 
 1442000    1.0143817   -7.1835644    510.71022  0.029513998  0.029672133            4 
 1443000    1.0242809    -7.187046    512.33239  0.029587225  0.029665079            5 
 1444000    1.0328432   -7.2038277    510.94903  0.029486902  0.029657971            1 
 1445000    1.0403456    -7.148306    513.62035  0.029620551   0.02965101            2 
 1446000   0.99740706   -7.1954708    513.51438  0.029593959  0.029644001            2 
 1447000    1.0010799   -7.2062998      511.955  0.029483702  0.029636769            2 
 1448000    1.0045337   -7.2053824    512.63019  0.029502198  0.029629648            3 
 1449000    1.0186565   -7.1873499    512.54857  0.029477144  0.029622459            2 
 1450000    1.0113555   -7.1759379    512.60853  0.029460261  0.029615372            1 
 1451000     1.033449   -7.2037694    513.32614   0.02948117  0.029608284            2 
 1452000    1.0226697   -7.1820011    511.99692   0.02938458  0.029601155            2 
 1453000    1.0282553   -7.1921713    512.19932  0.029375964  0.029593863            2 
 1454000     1.004365   -7.2051974    511.50478  0.029315955  0.029586502            1 
 1455000    1.0028397   -7.1787445    511.84699  0.029315406  0.029579184            1 
 1456000   0.99530718   -7.2247617    513.21619  0.029373637  0.029571952            2 
 1457000     1.027649   -7.1868583    513.51803  0.029370741  0.029564641            1 
 1458000    1.0127653   -7.1794679     512.4985  0.029292324  0.029557364            2 
 1459000    1.0153543   -7.2467386      513.948  0.029355038  0.029550109            1 
 1460000   0.99085029   -7.2259929    513.09061  0.029285994  0.029542819            2 
 1461000   0.99954578    -7.202824    513.95991  0.029315532  0.029535377            3 
 1462000    1.0393994   -7.2371257    511.60415  0.029161203  0.029527994            2 
 1463000     1.027716   -7.2317806    513.92626   0.02927354  0.029520482            4 
 1464000    1.0315319   -7.2339685    512.16576  0.029153333  0.029513045            2 
 1465000    1.0065751   -7.1899208    514.43297  0.029262399  0.029505497            2 
 1466000    1.0263854   -7.1854264    515.53764  0.029305232  0.029498159            2 
 1467000    1.0148388   -7.2154692    516.36519  0.029332265  0.029490711            4 
 1468000    1.0310035   -7.2029745    514.91608  0.029230023  0.029483283            3 
 1469000    1.0210984   -7.1940402    514.91468  0.029210046  0.029475896            1 
 1470000    1.0098019   -7.2115388    516.53179  0.029281848  0.029468593            3 
 1471000    1.0411212   -7.2216451    515.99245  0.029231387  0.029461205            2 
 1472000    1.0048488   -7.1931996    516.56863  0.029244148  0.029453849            2 
 1473000   0.99309118   -7.2179266    516.07846  0.029196564   0.02944649            2 
 1474000     1.015468   -7.2305797    515.04152  0.029118132  0.029438955            5 
 1475000    1.0181076   -7.1968093    517.57331   0.02924143  0.029431596            1 
 1476000   0.99438289   -7.2118806    516.37877  0.029154176  0.029424166            2 
 1477000     1.011074   -7.1530662    518.91588  0.029277583  0.029416803            2 
 1478000    1.0342003   -7.1613366    517.49375  0.029177591  0.029409401            1 
 1479000    1.0122791   -7.1948902    518.96868  0.029240967  0.029401912            2 
 1480000    1.0048247   -7.1957741    517.07727  0.029114711  0.029394342            3 
 1481000    1.0133118   -7.1958261    518.56928  0.029179005  0.029386775            2 
 1482000    1.0323873   -7.2171042    516.86718  0.029063607  0.029379201            1 
 1483000   0.99337934   -7.2323322    517.61889  0.029086249  0.029371485            2 
 1484000    1.0056705   -7.2065018    516.42847  0.028999802  0.029363722            2 
 1485000   0.99597132   -7.1940855    519.05786  0.029127826  0.029356182            1 
 1486000     1.014831   -7.2055198    518.12709  0.029056028   0.02934847            2 
 1487000   0.99672098    -7.222609     519.6073  0.029119441  0.029340693            1 
 1488000    1.0093432   -7.2028089    518.06524   0.02901351  0.029332994            2 
 1489000    1.0255556   -7.2068513    518.47798  0.029017125  0.029325274            2 
 1490000   0.98748701   -7.2084452    517.91743  0.028966299  0.029317568            1 
 1491000     1.014386   -7.2301233    517.34376  0.028914809  0.029309628            3 
 1492000    1.0116471   -7.2393515    518.32035  0.028949975  0.029301743            2 
 1493000   0.99933006   -7.2074071    519.08427  0.028973224  0.029293771            2 
 1494000    1.0039811   -7.2018281    519.15534  0.028957795  0.029286013            3 
 1495000    1.0242679   -7.1716615    519.53505   0.02895959  0.029278324            2 
 1496000    1.0325948   -7.2080906      521.938  0.029074087  0.029270562            3 
 1497000    1.0243549   -7.1936376    519.72374  0.028931404   0.02926286            2 
 1498000    1.0247597   -7.2468599    520.75206  0.028969296   0.02925516            2 
 1499000    1.0083669   -7.2163163    521.34401  0.028982878  0.029247378            3 
 1500000   0.98729146   -7.2151474    521.49109  0.028971727  0.029239684            3 
 1501000    1.0269807   -7.2809313    518.56881  0.028790185  0.029231796            3 
 1502000    1.0241558    -7.221282    521.51077  0.028934242  0.029223884            1 
 1503000    1.0145984   -7.2015806    521.20024  0.028897773  0.029216205            2 
 1504000    1.0155472   -7.2284734    521.70532  0.028906545  0.029208501            2 
 1505000    1.0144595   -7.2505213    521.84233  0.028894924  0.029200773            2 
 1506000    1.0146618   -7.2516486    523.67339  0.028977058  0.029193126            1 
 1507000    1.0222521   -7.2135458    524.40784  0.028998443  0.029185471            3 
 1508000    1.0011885    -7.271031    522.42486  0.028869632   0.02917773            1 
 1509000    1.0078181   -7.2286346     523.5071  0.028910266  0.029170128            3 
 1510000    1.0204653   -7.2177452    523.39658  0.028885021   0.02916254            4 
 1511000    1.0121498   -7.2769818    522.20135  0.028799986  0.029154957            3 
 1512000    1.0006268   -7.2570531    523.97083  0.028878463  0.029147216            3 
 1513000    1.0180006   -7.1941071    523.46806  0.028831684  0.029139531            1 
 1514000    1.0094402   -7.2303674    522.77703  0.028774605  0.029131781            2 
 1515000    1.0148828   -7.2200076    523.50462  0.028795634  0.029123988            2 
 1516000   0.98025512   -7.2115418    523.37147   0.02876932  0.029116194            2 
 1517000    1.0006581   -7.1971875     524.9116  0.028834959  0.029108464            2 
 1518000    1.0154636    -7.229558    524.75197  0.028807201   0.02910083            3 
 1519000    1.0247434   -7.2640727    525.47518  0.028827912  0.029093335            1 
 1520000   0.99466756   -7.2420018    525.42835  0.028806379  0.029085749            5 
 1521000    1.0178746   -7.2382017    526.09245  0.028823825   0.02907833            3 
 1522000    1.0014881   -7.2625264    526.13718  0.028807336  0.029070889            4 
 1523000    1.0036796    -7.223849    527.45042  0.028860277  0.029063351            1 
 1524000    1.0164424   -7.2675234    527.02634  0.028818151  0.029055872            4 
 1525000   0.99895425   -7.2031968     527.8299  0.028843164  0.029048403            2 
 1526000    1.0323914   -7.2122968    527.73175  0.028818903  0.029040962            3 
 1527000     1.035193   -7.2018005    527.07745  0.028764323  0.029033433            4 
 1528000    1.0058203   -7.2692531    527.56217  0.028771934  0.029025876            1 
 1529000   0.99338062   -7.2450152    527.65477  0.028758162  0.029018284            4 
 1530000     1.016633   -7.1942611    528.23319  0.028770871  0.029010809            2 
 1531000    1.0133985   -7.2489165    528.09768  0.028744703  0.029003288            2 
 1532000    1.0172953   -7.2842613    528.16741  0.028729733  0.028995682            3 
 1533000    1.0154568    -7.239448    529.18279  0.028766188  0.028988131            3 
 1534000    1.0051046   -7.2142124    529.38629   0.02875849  0.028980655            1 
 1535000    1.0034463    -7.247517    529.59174  0.028750909  0.028973191            1 
 1536000    1.0041626    -7.219464    529.77235  0.028741989  0.028965714            2 
 1537000    1.0054971    -7.234488    529.86928  0.028728545  0.028958209            4 
 1538000    1.0229384    -7.268867    530.01409  0.028717712  0.028950702            1 
 1539000    1.0102962   -7.1964163    532.95353  0.028858216  0.028943509            2 
 1540000    1.0141018   -7.1930753    531.90916  0.028782963  0.028936277            3 
 1541000   0.98595437   -7.2298378    532.43442   0.02879269  0.028929074            2 
 1542000    1.0221784   -7.2375798    531.70339  0.028734511  0.028921836            2 
 1543000    1.0298151   -7.2380464    531.50396  0.028705117  0.028914627            2 
 1544000    1.0085119   -7.2372586    532.57449  0.028744305  0.028907347            2 
 1545000    1.0181381   -7.2267784    532.82818  0.028739384  0.028900019            1 
 1546000   0.97878378   -7.2213046    531.86878  0.028669081  0.028892679            3 
 1547000   0.99239182    -7.241764    531.94305  0.028654549  0.028885255            2 
 1548000     1.013099   -7.2759479    530.35251  0.028550415  0.028877644            2 
 1549000    1.0197322   -7.2431805    531.10108  0.028572255   0.02886993            3 
 1550000    1.0186975   -7.1885761    531.65372  0.028583533  0.028862276            2 
 1551000   0.99983801   -7.2215297    533.63524  0.028671569   0.02885472            1 
 1552000   0.99053217   -7.2494321    531.30666  0.028528064  0.028847124            2 
 1553000   0.98726207   -7.2659934    532.36565  0.028566519  0.028839532            2 
 1554000   0.98792918   -7.2389546    533.00172  0.028582246  0.028832024            2 
 1555000   0.99893868   -7.2336359    534.75376  0.028657758  0.028824567            2 
 1556000   0.99328491    -7.246573    532.09145  0.028496757  0.028816948            2 
 1557000    1.0147989   -7.2430617    533.99201  0.028580176  0.028809389            2 
 1558000    1.0006267   -7.2501331    534.69626  0.028599501  0.028802043            2 
 1559000    1.0154729   -7.2535363    535.14645   0.02860522  0.028794648            2 
 1560000   0.98405315   -7.1908961    536.55218  0.028661975  0.028787382            1 
 1561000     1.007299    -7.226316    534.67088  0.028543182  0.028780021            1 
 1562000    1.0009291   -7.2304835    535.23352  0.028554925   0.02877245            2 
 1563000    1.0027779   -7.2645999    535.76048  0.028564752  0.028764994            1 
 1564000    1.0040215   -7.2093037    535.61156  0.028538553  0.028757502            3 
 1565000    1.0222668   -7.2195235    535.68187  0.028524061   0.02875004            1 
 1566000    0.9967201   -7.2621503    535.08386  0.028474024  0.028742552            2 
 1567000    1.0104038   -7.2346292    536.37393  0.028524459  0.028734958            2 
 1568000   0.98712955   -7.2187177    536.06606  0.028489905  0.028727445            3 
 1569000   0.97707393    -7.235737      536.246  0.028481304  0.028719753            3 
 1570000    0.9693442   -7.2184406    535.85823  0.028442581   0.02871208            2 
 1571000    1.0192169   -7.2121524     536.6843  0.028468295  0.028704462            4 
 1572000    1.0009896   -7.2434023    536.25868  0.028427623  0.028696825            2 
 1573000    1.0009942   -7.2498098    536.35339  0.028414568  0.028689149            4 
 1574000    1.0065305   -7.2705513    536.22316  0.028389621  0.028681366            2 
 1575000    1.0378825   -7.2524899     537.0685  0.028416323  0.028673695            1 
 1576000    1.0051833   -7.2178567    537.18947  0.028404688   0.02866604            1 
 1577000   0.98849813   -7.2408718    538.06889  0.028433148  0.028658416            2 
 1578000    0.9951602   -7.2444255     538.1618  0.028420036  0.028650835            2 
 1579000    1.0161013   -7.2778126    537.22153  0.028352413    0.0286432            1 
 1580000   0.98783199   -7.2425897    537.27916  0.028337509  0.028635609            3 
 1581000    1.0044524   -7.2527917    537.94319  0.028354585  0.028627901            2 
 1582000   0.99156836   -7.2595451     539.1881  0.028402239  0.028620203            2 
 1583000    1.0070242   -7.2827383     538.0597  0.028324895  0.028612398            2 
 1584000        1.011   -7.2684059    539.09754  0.028361613  0.028604718            1 
 1585000    1.0131757   -7.2074441    538.99512  0.028338335  0.028597184            1 
 1586000    1.0000136   -7.2374585    539.48185  0.028346041  0.028589615            3 
 1587000   0.98775746   -7.2058358    540.19631  0.028365696  0.028582023            2 
 1588000    1.0105179   -7.2643911    539.53625  0.028313195  0.028574407            2 
 1589000    1.0028833   -7.2429123     540.1321  0.028326626  0.028566829            5 
 1590000     1.011543   -7.2330599    540.31414  0.028318351  0.028559243            3 
 1591000   0.99393079   -7.2255259    541.02298  0.028337679  0.028551553            1 
 1592000    1.0204895   -7.2303522     540.5712  0.028296231  0.028543906            4 
 1593000   0.99308027    -7.256733    540.51984  0.028275781  0.028536136            1 
 1594000   0.99749247   -7.2843606    539.64905  0.028212518  0.028528321            2 
 1595000   0.99690319   -7.2266845    542.53386  0.028345552  0.028520723            1 
 1596000   0.98965992   -7.2641517    541.87355  0.028293314  0.028513077            1 
 1597000    0.9905809   -7.2891027    540.73334    0.0282161  0.028505301            2 
 1598000    1.0224565   -7.2552334    540.78056  0.028200905  0.028497538            3 
 1599000   0.99847531   -7.2776983    541.26937  0.028208743  0.028489872            2 
 1600000   0.98823904   -7.2265511    542.52458  0.028256488   0.02848236            1 
 1601000    1.0059198   -7.2092377    543.37259  0.028282979  0.028474827            2 
 1602000    1.0072625   -7.2294206    542.33629  0.028211418   0.02846734            2 
 1603000   0.98201214   -7.2393768    542.22663  0.028188117  0.028459805            2 
 1604000     1.012227   -7.2357499    543.98894  0.028262102  0.028452231            3 
 1605000   0.99132259   -7.2476449    543.37814   0.02821278  0.028444625            1 
 1606000   0.98645043   -7.2253809    543.70443  0.028212143  0.028436901            2 
 1607000   0.99670933    -7.283682    542.26285  0.028119833  0.028429166            2 
 1608000     1.009159   -7.2535668    542.55377  0.028117422  0.028421393            1 
 1609000    0.9827164   -7.2611198    544.10849  0.028180469  0.028413723            2 
 1610000   0.99890916   -7.2499451    542.28606  0.028068637  0.028405945            2 
 1611000    1.0061824   -7.2700595    542.99797  0.028088039  0.028398139            3 
 1612000   0.99853309   -7.2361634     544.3694  0.028141511  0.028390313            2 
 1613000   0.99981168   -7.2180105     545.2277  0.028168408  0.028382547            2 
 1614000   0.99476459    -7.284648    544.78342  0.028128017  0.028374865            2 
 1615000    1.0030727   -7.2752586     544.4567  0.028093741  0.028367095            2 
 1616000   0.98141644   -7.2320371    547.11553  0.028213466  0.028359387            2 
 1617000   0.97963107   -7.2871863    545.90821  0.028133798  0.028351823            1 
 1618000   0.99175166   -7.2564254     545.8643  0.028114148  0.028344394            3 
 1619000   0.98455612   -7.2880554    544.04423    0.0280031  0.028336897            2 
 1620000   0.99832466   -7.2411575    546.86375  0.028130851  0.028329361            2 
 1621000   0.97011323   -7.2472878    547.90013  0.028166776  0.028321805            2 
 1622000    1.0272567   -7.2921594    545.89009  0.028046141  0.028314197            1 
 1623000     1.002416   -7.2775333    545.76088  0.028022226  0.028306677            1 
 1624000   0.98307283    -7.262842    546.39832  0.028037681   0.02829912            2 
 1625000   0.98768669   -7.2644657    547.70004  0.028087182  0.028291587            4 
 1626000   0.98276726     -7.29026    549.16045  0.028144754  0.028284103            5 
 1627000   0.98587643   -7.2740788    546.25379   0.02797858  0.028276606            1 
 1628000   0.99848234    -7.248119    548.09117  0.028055445  0.028269263            2 
 1629000    1.0051517   -7.2333028    550.71452  0.028172423  0.028261943            2 
 1630000    1.0073013   -7.2627427    550.30067  0.028133981   0.02825464            2 
 1631000   0.99515576   -7.2744218    549.50277  0.028075964  0.028247372            2 
 1632000    1.0011692   -7.2595164    549.45859  0.028056505  0.028240087            3 
 1633000   0.99382326   -7.2556737    549.58877  0.028045967  0.028232782            4 
 1634000   0.99868541   -7.2408751     550.3417  0.028067202  0.028225494            3 
 1635000   0.97479567   -7.2472907    550.74192  0.028070434  0.028218211            3 
 1636000   0.98632916   -7.3041385    551.92879  0.028113732  0.028210953            1 
 1637000    1.0065477   -7.2914067    551.10176  0.028054457  0.028203762            2 
 1638000    1.0119382   -7.2913884    550.99229  0.028031761  0.028196451            3 
 1639000    1.0167132   -7.2669563    551.41636  0.028036219   0.02818916            3 
 1640000   0.97509713   -7.2581249    552.13248  0.028055512   0.02818194            4 
 1641000    0.9584696   -7.2884219    550.80666  0.027971088  0.028174827            1 
 1642000   0.96469825   -7.2356499    553.23664  0.028077377   0.02816773            1 
 1643000    1.0110521   -7.2841242    553.99545  0.028098775  0.028160675            2 
 1644000   0.98620221     -7.22607    556.94745  0.028231318  0.028153665            2 
 1645000   0.98388616    -7.244177    553.89568  0.028059558   0.02814675            2 
 1646000   0.99806265   -7.2887154    552.17626  0.027955461  0.028139722            2 
 1647000   0.98179644   -7.2788078    555.29105  0.028096087  0.028132711            3 
 1648000    0.9915656   -7.2694243    553.77424  0.028002338  0.028125602            4 
 1649000    1.0023236   -7.2858099    553.89629  0.027991525  0.028118525            2 
 1650000   0.99474231   -7.2944755    554.67773  0.028014027  0.028111448            4 
 1651000   0.97874056   -7.2906846    555.72523  0.028049931  0.028104295            8 
 1652000   0.98450417   -7.2699885    556.05612  0.028049643  0.028097237            2 
 1653000   0.98151077   -7.2785623    556.41454  0.028050743  0.028090256            3 
 1654000   0.99689683   -7.2903195    555.52195  0.027988813  0.028083149            3 
 1655000   0.98468363    -7.294234    554.82696  0.027936906  0.028076103            1 
 1656000   0.97310674   -7.2793895    554.60417  0.027908825  0.028068988            2 
 1657000   0.99027669   -7.2576935    556.68381   0.02799657  0.028061846            2 
 1658000   0.98132657   -7.2717706    555.33457   0.02791187  0.028054747            2 
 1659000   0.98385126   -7.2674871    557.40929  0.027999261  0.028047793            2 
 1660000   0.98960146   -7.2180838    557.44953  0.027984414  0.028040775            2 
 1661000   0.99916431   -7.2800502    555.91861  0.027890759  0.028033847            1 
 1662000    0.9989304   -7.2696083     558.4679    0.0280018  0.028026837            2 
 1663000   0.96992883   -7.2844187    557.45526  0.027934218  0.028019794            1 
 1664000   0.98355829   -7.2763096    556.65392    0.0278773  0.028012673            2 
 1665000   0.97446723   -7.2751488    558.65291  0.027960606  0.028005592            7 
 1666000    1.0033926   -7.2864673    557.34501  0.027878402    0.0279986            3 
 1667000   0.99820598   -7.2668166    557.60618  0.027874734  0.027991534            2 
 1668000   0.98071548   -7.2567972    557.49577  0.027852506  0.027984485            2 
 1669000   0.97784792   -7.2968143     559.4438  0.027933084  0.027977484            1 
 1670000    0.9906508   -7.2584345    558.91315  0.027889878  0.027970475            2 
 1671000   0.98514428    -7.278011    557.21275  0.027788388  0.027963458            3 
 1672000    1.0075696   -7.3060516    558.72999  0.027847388  0.027956456            2 
 1673000   0.99739773   -7.2478675     560.6044  0.027924108  0.027949523            1 
 1674000   0.98845286   -7.2519669    560.78137  0.027916237  0.027942589            3 
 1675000   0.96276803   -7.2997595     560.0242    0.0278619  0.027935749            2 
 1676000   0.97092279   -7.2885077    561.30096  0.027908759  0.027928844            1 
 1677000   0.97776728   -7.3030348    560.57929  0.027856256  0.027921864            6 
 1678000   0.97633533   -7.2623488    561.36181  0.027878517  0.027914809            2 
 1679000   0.98609848    -7.258706    560.32595    0.0278105   0.02790778            3 
 1680000   0.97711917   -7.3049401    561.71873  0.027863032  0.027900816            3 
 1681000    0.9898192   -7.2749104    561.84897  0.027852913  0.027893888            1 
 1682000   0.98492397   -7.2722963    561.01518  0.027795045  0.027886937            2 
 1683000   0.98840188   -7.2608618    561.22673  0.027789004  0.027880067            2 
 1684000   0.97266894   -7.3073135    562.12094  0.027816753  0.027873274            4 
 1685000   0.95379269    -7.270535    563.57375  0.027872095  0.027866393            4 
 1686000   0.97656563   -7.3025492    562.01489  0.027778514  0.027859525            3 
 1687000   0.99678236   -7.2663617    564.14241  0.027867141  0.027852623            4 
 1688000   0.98940951   -7.2938979    564.05902  0.027846516  0.027845809            2 
 1689000   0.98110413   -7.2818761    563.58158  0.027806472  0.027838952            1 
 1690000   0.98618824    -7.286475    563.55623  0.027788769  0.027832125            1 
 1691000   0.97024496   -7.2694862    563.81871   0.02778527  0.027825328            3 
 1692000   0.96532023   -7.2979786    563.89092  0.027772406  0.027818547            2 
 1693000   0.98052773   -7.2563837    563.32597  0.027728193  0.027811685            2 
 1694000   0.97557033   -7.2965954    564.08301  0.027749066  0.027804874            3 
 1695000   0.96905686   -7.3354534    563.66199  0.027711996  0.027797876            2 
 1696000    0.9811062   -7.3159806    565.07951  0.027765306  0.027790904            2 
 1697000   0.98918047   -7.2728018    565.09372  0.027749643  0.027783947            3 
 1698000   0.98225854   -7.3334782    565.28918  0.027742893  0.027776972            6 
 1699000   0.96852673   -7.2891217     566.0465  0.027763709   0.02777014            3 
 1700000   0.99112635   -7.3042689    564.71236  0.027681978  0.027763309            2 
 1701000   0.97810701   -7.3180363    564.15909  0.027638599  0.027756511            2 
 1702000   0.97324688   -7.3002802    566.38887  0.027731535  0.027749653            3 
 1703000   0.96514375   -7.2869424     567.6374  0.027776346   0.02774274            1 
 1704000   0.96952852   -7.3042667    565.55273  0.027658095  0.027735832            3 
 1705000   0.98523534   -7.3526297    565.73216  0.027650643  0.027728944            4 
 1706000   0.98882862    -7.329939      565.434  0.027619871  0.027722083            4 
 1707000    0.9796139   -7.2911793    567.40094  0.027699714  0.027715249            2 
 1708000   0.97561311    -7.297831    566.66174   0.02764743  0.027708413            4 
 1709000   0.99467945   -7.3259919    566.73998  0.027635068  0.027701467            7 
 1710000   0.97651269    -7.294242    566.66704  0.027615353  0.027694507            3 
 1711000   0.96704769   -7.3178024    567.67446  0.027648279  0.027687508            2 
 1712000   0.98236934   -7.2770509    567.96672  0.027646355  0.027680544            2 
 1713000   0.97777464   -7.3041597    566.63724   0.02756554  0.027673541            1 
 1714000   0.96583624   -7.2947191    566.15218  0.027525874  0.027666586            2 
 1715000     0.959553   -7.2972826    568.11248  0.027605077  0.027659681            1 
 1716000    0.9552601   -7.2913896    569.11364  0.027637609  0.027652755            2 
 1717000   0.96636817   -7.2867509    569.76307  0.027653032  0.027645851            2 
 1718000    0.9937525   -7.2950358    569.99576  0.027648223   0.02763889            3 
 1719000   0.97496302   -7.2947293    568.35391  0.027552546  0.027631952            2 
 1720000   0.99100705   -7.3034702    568.14184  0.027526252  0.027625029            2 
 1721000   0.97092968   -7.3003407    569.89035  0.027594923  0.027618067            1 
 1722000    0.9742621   -7.2901186    569.55305  0.027562575  0.027611196            2 
 1723000   0.97921866   -7.3110946    569.52294  0.027545122  0.027604204            5 
 1724000   0.96591634   -7.2976563    569.86368  0.027545615  0.027597315            5 
 1725000   0.98265904   -7.2867381    570.62897  0.027566617  0.027590365            2 
 1726000   0.98070454   -7.2545991    570.46221  0.027542594  0.027583455            3 
 1727000    1.0031108   -7.2756993    572.61773  0.027630657  0.027576648            2 
 1728000   0.95064352   -7.2726583    572.04442  0.027587019  0.027569943            3 
 1729000   0.96835792   -7.2964565    571.94078  0.027566068  0.027563061            2 
 1730000   0.96660106   -7.2877327    571.45352  0.027526663  0.027556118            2 
 1731000   0.98634641   -7.2875338    571.49463   0.02751274  0.027549192            2 
 1732000   0.97427962   -7.2912432    572.84634  0.027561891  0.027542284            1 
 1733000   0.98348265   -7.2897569    571.47364  0.027479979  0.027535255            2 
 1734000   0.97281281   -7.3014286    572.81715  0.027528698   0.02752823            1 
 1735000   0.96837147   -7.2877793    570.27665   0.02739081  0.027521265            2 
 1736000   0.98202627    -7.296025    573.29735  0.027520034  0.027514322            2 
 1737000   0.97808722    -7.327338    571.16925  0.027402094  0.027507378            3 
 1738000   0.98459693   -7.3198157    574.04752  0.027524334  0.027500481            2 
 1739000   0.97315624   -7.2673686     574.1753   0.02751463  0.027493696            3 
 1740000    0.9845493   -7.3122373    573.84654  0.027483072  0.027486901            2 
 1741000   0.95329579   -7.3174175    574.09505  0.027479181   0.02747997            3 
 1742000   0.96540949   -7.3224825    574.66452  0.027490649  0.027473087            2 
 1743000   0.97646294   -7.3028809    575.25342  0.027503032  0.027466236            3 
 1744000   0.98676704   -7.3275759    573.35303  0.027396456  0.027459365            1 
 1745000   0.98385666   -7.3053767    573.83492  0.027403769  0.027452446            1 
 1746000   0.94776506   -7.2876749    575.71515  0.027477814  0.027445632            6 
 1747000    0.9837768   -7.3248702    575.31988   0.02744323   0.02743897            3 
 1748000   0.97930154   -7.2859723    574.85549  0.027405391  0.027432224            1 
 1749000    0.9575784    -7.323288    575.88938  0.027438983  0.027425444            2 
 1750000   0.96783899   -7.3141981    576.58775   0.02745656  0.027418674            1 
 1751000   0.97451235   -7.3009086    576.70486  0.027446452   0.02741203            1 
 1752000   0.97005385   -7.2928935    575.85543  0.027390384  0.027405368            2 
 1753000   0.98403329   -7.3200104    575.14677  0.027341071  0.027398753            2 
 1754000   0.96906117    -7.326013    575.34679  0.027334986  0.027392118            4 
 1755000   0.97277813   -7.3370909    578.22106  0.027455891  0.027385533            2 
 1756000   0.98251534   -7.2612352    580.09012  0.027528954  0.027378938            2 
 1757000   0.97310855   -7.3193634    578.04029  0.027416064  0.027372487            2 
 1758000   0.96655556   -7.3260446    578.62928  0.027428388  0.027365885            1 
 1759000   0.97088877   -7.3178305    580.09698  0.027482328   0.02735929            2 
 1760000   0.98422403   -7.3244925    579.86998  0.027455965  0.027352784            1 
 1761000   0.98111332   -7.2782204    580.20753  0.027456347  0.027346297            5 
 1762000   0.95408235   -7.2952264    579.73087  0.027418221  0.027339937            2 
 1763000   0.94766337   -7.2985954    581.71255  0.027496339  0.027333531            2 
 1764000   0.97583703   -7.3060449    582.12179  0.027500085  0.027327128            1 
 1765000   0.95355879   -7.2988756    581.97682  0.027477659  0.027320727            2 
 1766000   0.96088934   -7.2916007    581.58406  0.027443567  0.027314267            1 
 1767000   0.95909126   -7.3221801    579.55233  0.027332217  0.027307873            2 
 1768000   0.98243853   -7.2876116    582.60982   0.02746087  0.027301518            4 
 1769000   0.96536179   -7.3176949    581.62524  0.027398965  0.027295153            3 
 1770000   0.98563878   -7.3246515    580.62728  0.027336501  0.027288689            3 
 1771000   0.97032011   -7.3405419    582.24346  0.027397114  0.027282185            2 
 1772000   0.97255449   -7.3212875    581.54043  0.027348591  0.027275581            1 
 1773000   0.96962809   -7.3323856     582.7736  0.027391126   0.02726889            3 
 1774000   0.95487503    -7.282616    583.13941   0.02739287  0.027262329            1 
 1775000   0.94856433   -7.3140328    581.80328  0.027314708  0.027255808            3 
 1776000   0.97432005   -7.3108624    582.13457  0.027314873  0.027249343            2 
 1777000   0.98313611   -7.3180425    582.88717  0.027334795   0.02724285            3 
 1778000   0.96172802   -7.3517832    582.35394  0.027294429  0.027236344            2 
 1779000   0.96383803    -7.297294    581.89924  0.027257787  0.027229709            2 
 1780000   0.97253535   -7.3190602    583.65526  0.027324685  0.027223313            2 
 1781000   0.95475534   -7.3569275    584.20796  0.027335203  0.027216924            1 
 1782000   0.95410045   -7.3321086    583.26715  0.027275867  0.027210467            1 
 1783000    0.9657412   -7.3198492    583.13721  0.027254496  0.027203981            2 
 1784000   0.97796087   -7.3063352    585.78809  0.027363046   0.02719762            2 
 1785000    0.9643647   -7.3036835    585.23879  0.027322072  0.027191293            2 
 1786000   0.95572726   -7.3391452    584.98082  0.027294738  0.027184835            2 
 1787000   0.96856125   -7.3320348    585.31115  0.027294868  0.027178373            1 
 1788000   0.95979001    -7.334993    583.94916  0.027216124  0.027171939            3 
 1789000   0.97048553   -7.3498417    585.62415  0.027278934  0.027165449            4 
 1790000   0.97348281   -7.3038249    586.23789  0.027292267  0.027158951            2 
 1791000   0.97332934   -7.3255238    584.03319  0.027174446  0.027152466            4 
 1792000    0.9674115   -7.3204623    585.96755  0.027249235  0.027145975            3 
 1793000   0.97308871   -7.2819376    586.69951  0.027268057  0.027139478            4 
 1794000    0.9478715   -7.3123454    584.57854  0.027154336  0.027133056            3 
 1795000   0.95738835    -7.342378      586.472  0.027227112  0.027126634            6 
 1796000   0.96826123   -7.3318548    585.88076  0.027184519  0.027120174            1 
 1797000   0.98607382   -7.2941174    586.86138  0.027214866  0.027113705            3 
 1798000   0.98143917   -7.3328814    586.82118  0.027197867  0.027107237            3 
 1799000   0.96862493    -7.344243    586.47433  0.027166682  0.027100771            2 
 1800000   0.95000912   -7.3179689    588.62201  0.027251019  0.027094349            2 
 1801000   0.94191911     -7.30376    587.17298   0.02716884  0.027088012            2 
 1802000   0.95134268   -7.3299285    587.18778  0.027154448  0.027081657            2 
 1803000   0.94553503   -7.3567405    586.04637  0.027086632  0.027075181            3 
 1804000    0.9684384   -7.3417629    588.29743  0.027175602  0.027068664            2 
 1805000   0.97489589   -7.3314828    588.24577  0.027158161  0.027062148            7 
 1806000   0.95944007   -7.3117887    587.91628   0.02712792  0.027055668            1 
 1807000   0.95908442   -7.3302133    587.00836  0.027071037  0.027049207            2 
 1808000   0.95140078   -7.3319828    589.68321  0.027179352    0.0270427            3 
 1809000   0.96957953   -7.3506322    588.12569  0.027092578   0.02703613            2 
 1810000   0.96962192    -7.356116    589.95836  0.027161987  0.027029617            2 
 1811000   0.97067635   -7.3244077    590.97434  0.027193739  0.027023211            2 
 1812000   0.95991315   -7.3336523    589.79185  0.027124349  0.027016809            2 
 1813000   0.97028895   -7.3345809     589.8183  0.027110604  0.027010373            1 
 1814000   0.96276765   -7.3373544    589.24973  0.027069539  0.027004008            4 
 1815000   0.94624743   -7.2797866     592.2601  0.027192842   0.02699762            1 
 1816000    0.9831422   -7.3498139    589.15944  0.027035584  0.026991204            2 
 1817000   0.96605968   -7.3340688    589.26184  0.027025401  0.026984701            7 
 1818000    0.9566143   -7.3704561    588.97651  0.026997457  0.026978176            4 
 1819000   0.95913412   -7.3254087     589.4526  0.027004425  0.026971693            2 
 1820000   0.96805913   -7.3178398    592.37851  0.027123558  0.026965324            2 
 1821000   0.95291894   -7.3374117    591.83321  0.027083709  0.026958917            2 
 1822000   0.94456077    -7.325053    590.32657  0.026999935  0.026952351            2 
 1823000   0.94514485   -7.3723171    590.19496  0.026979108  0.026945813            2 
 1824000   0.96534053   -7.3287639    591.52966  0.027025295  0.026939178            2 
 1825000   0.96424185    -7.339386    591.76269  0.027021127  0.026932526            3 
 1826000    0.9585492   -7.3143575    592.55537  0.027042505  0.026925947            1 
 1827000   0.93969834   -7.3268168    591.10528  0.026961562   0.02691939            4 
 1828000   0.97649894   -7.3310937    592.33812  0.027003014  0.026912851            5 
 1829000    0.9604188   -7.3301562    591.95212  0.026970664  0.026906216            2 
 1830000   0.98332142   -7.3357671    591.57596  0.026938796  0.026899649            1 
 1831000    0.9576108   -7.3129388    592.88303  0.026983571   0.02689305            8 
 1832000   0.95411241   -7.3483287    593.33186  0.026989259  0.026886502            2 
 1833000   0.97595242   -7.3215044      593.679  0.026990317   0.02687994            3 
 1834000   0.94848151   -7.3107792    593.58372   0.02697127  0.026873381            3 
 1835000   0.96143579   -7.3452704    591.59139  0.026866094  0.026866821            2 
 1836000   0.94987908   -7.3418408    590.40365  0.026797551  0.026860202            2 
 1837000   0.96909479   -7.2949149    593.24835   0.02691201   0.02685355            3 
 1838000   0.93755895   -7.3258442    592.24526  0.026851889  0.026846851            2 
 1839000   0.94279576   -7.3239623    592.27951   0.02683884  0.026840142            2 
 1840000   0.97254577    -7.351103    593.43684  0.026876668  0.026833463            2 
 1841000   0.94767891   -7.3254764    594.20635  0.026896902  0.026826845            1 
 1842000   0.96516834   -7.3104538     593.9996  0.026872946  0.026820223            3 
 1843000   0.96662208   -7.3561663    592.74438  0.026801609  0.026813542            3 
 1844000   0.94736914   -7.3358758    593.67081  0.026828941   0.02680681            6 
 1845000   0.95938247   -7.3714223    593.06727   0.02678714  0.026800102            3 
 1846000   0.95028507   -7.3299472    594.31724  0.026829056  0.026793445            3 
 1847000   0.95217712    -7.363112    593.65244  0.026784535  0.026786823            4 
 1848000   0.94818693   -7.3405319    595.49179  0.026852985  0.026780171            1 
 1849000   0.94662623   -7.3586113    595.22172   0.02682629  0.026773531            3 
 1850000   0.97158706   -7.3626066    593.92528  0.026753391  0.026766832            2 
 1851000   0.96799703   -7.3490738    594.86207  0.026781113  0.026760152            3 
 1852000    0.9483682    -7.329791    596.07879    0.0268214   0.02675355            2 
 1853000    0.9352284    -7.317062    595.12062  0.026763834   0.02674691            2 
 1854000   0.95154072   -7.3459531    595.48851  0.026765935  0.026740249            2 
 1855000   0.95649186   -7.3786499    594.31741  0.026698895   0.02673349            2 
 1856000   0.96036172   -7.3225202    596.57169  0.026785726  0.026726745            2 
 1857000   0.97782877   -7.3265302    596.84697  0.026783655  0.026720068            1 
 1858000     0.919502   -7.3028629     597.4459  0.026796103  0.026713477            2 
 1859000   0.93210952   -7.3184553    596.99561  0.026761503  0.026706901            3 
 1860000   0.98010144   -7.3147233    597.90037  0.026787651  0.026700319            3 
 1861000    0.9691775   -7.3602643     596.3135  0.026702199  0.026693711            1 
 1862000   0.95793411   -7.3482688    597.73047  0.026751274  0.026687086            3 
 1863000   0.95884779   -7.3347972    599.25984  0.026805325  0.026680509            2 
 1864000   0.93798218   -7.3637245    598.61435  0.026762087  0.026673969            4 
 1865000   0.95472843   -7.3460528    598.44619  0.026740223  0.026667304            4 
 1866000   0.94350156   -7.3309945    598.22222   0.02671589  0.026660689            2 
 1867000   0.93617925   -7.3607106    599.75901  0.026770175  0.026654046            1 
 1868000   0.95357348   -7.3406442    599.20624  0.026731185  0.026647485            2 
 1869000   0.96700435   -7.3397621    599.04353  0.026709628  0.026640971            2 
 1870000   0.96499615   -7.3246147    599.42617  0.026712396  0.026634529            4 
 1871000   0.94676524   -7.3323185    598.96829  0.026677725     0.026628            1 
 1872000   0.96007294   -7.3457309    599.71934  0.026696908  0.026621499            1 
 1873000   0.93823152   -7.3474738    599.80029  0.026686256   0.02661505            1 
 1874000   0.93452684   -7.3375999    599.54021  0.026660451  0.026608567            2 
 1875000   0.93366459    -7.344172    602.57618  0.026781164  0.026602113            4 
 1876000   0.93261534   -7.3854663    600.18987  0.026660886  0.026595562            2 
 1877000   0.93762191   -7.3510298    600.85653   0.02667628  0.026589088            2 
 1878000   0.92833382   -7.3893445    600.51554  0.026646944   0.02658249            2 
 1879000    0.9679221   -7.3397256    601.65174  0.026683153  0.026575945            2 
 1880000    0.9563891   -7.3407463    599.93157  0.026592712  0.026569431            2 
 1881000   0.97161205   -7.3868621    600.97989  0.026625017  0.026562818            2 
 1882000   0.95133736   -7.3860016    600.85579  0.026605375  0.026556147            3 
 1883000   0.94777149   -7.3609523    599.50537  0.026531482  0.026549482            3 
 1884000   0.98673955    -7.350182    600.44495  0.026558959  0.026542874            2 
 1885000   0.95726338   -7.3813621    600.68668  0.026555556  0.026536231            2 
 1886000   0.97039841   -7.3390468    601.80663  0.026590961  0.026529628            1 
 1887000   0.94184129   -7.3786487    601.35745  0.026557033  0.026523002            1 
 1888000   0.95701882   -7.3834681    602.01219  0.026571866  0.026516324            2 
 1889000   0.96480677   -7.3448086    602.02744  0.026558472  0.026509727            3 
 1890000   0.93595271   -7.3332124    602.89274  0.026582572  0.026503139            3 
 1891000   0.96403883    -7.360543    602.97588  0.026572179  0.026496558            1 
 1892000   0.96235476   -7.3465829    603.78201   0.02659364  0.026490054            1 
 1893000   0.94848107   -7.3658097    601.82739  0.026493546  0.026483504            5 
 1894000   0.93373569   -7.3458755    603.85458  0.026568751   0.02647693            2 
 1895000   0.96113758   -7.3530768    603.15647  0.026524031   0.02647034            5 
 1896000   0.94233273    -7.379113    604.63391  0.026574979  0.026463763            2 
 1897000   0.93261074    -7.371724    602.24374  0.026455972  0.026457181            4 
 1898000   0.93721293    -7.359564      604.704  0.026550053   0.02645063            4 
 1899000    0.9490533    -7.319869    605.03591  0.026550637  0.026444129            1 
 1900000    0.9610979   -7.3434322    604.62133  0.026518479  0.026437658            2 
 1901000   0.95584549   -7.3700972    604.12627  0.026482828  0.026431173            4 
 1902000   0.93908199    -7.375033    605.64008  0.026535229  0.026424662            2 
 1903000   0.94949561    -7.355843    605.47618  0.026514108  0.026418093            2 
 1904000   0.94040207   -7.3543437    604.29966   0.02644869  0.026411452            2 
 1905000   0.93890357   -7.3886241    604.94529  0.026463049  0.026404822            3 
 1906000   0.95537564   -7.3965108    604.82428  0.026443874  0.026398131            2 
 1907000   0.97100494   -7.3238194    606.89665  0.026520567  0.026391505            2 
 1908000   0.94618639   -7.3884755    604.59047  0.026405943  0.026384928            2 
 1909000   0.95088857    -7.385688    603.29301  0.026335473  0.026378236            2 
 1910000   0.94969823   -7.3979125     604.8642  0.026390236  0.026371538            2 
 1911000   0.95794261   -7.3662029     606.1368   0.02643192  0.026364862            5 
 1912000   0.96382229   -7.3887523    606.04414  0.026414058  0.026358151            1 
 1913000   0.96190912   -7.3644784    606.84151  0.026434985   0.02635152            2 
 1914000   0.94433976   -7.3416167    605.80465   0.02637603  0.026344857            2 
 1915000   0.92745918   -7.3777811    606.11533  0.026375776  0.026338105            2 
 1916000   0.96034303   -7.4140161    604.48762  0.026291215  0.026331376            7 
 1917000   0.95325356   -7.3981031    605.03044  0.026301097  0.026324548            2 
 1918000   0.92616484    -7.353502    605.51222  0.026308317  0.026317677            2 
 1919000   0.94942315   -7.3803795    606.57732   0.02634086  0.026310971            2 
 1920000   0.92609082   -7.3723058    605.56163  0.026283057  0.026304112            2 
 1921000   0.94799205   -7.3903453    606.41597  0.026306436  0.026297355            1 
 1922000   0.94258766   -7.3473514    607.03789  0.026319714  0.026290597            2 
 1923000   0.93897537   -7.3683369    607.01106  0.026304865  0.026283772            2 
 1924000   0.93503969   -7.4024989    607.22217  0.026300337     0.026277            3 
 1925000   0.93258565   -7.3794275    608.27489  0.026332246  0.026270287            2 
 1926000   0.93709595   -7.3468387    606.33961  0.026234839  0.026263504            4 
 1927000   0.94217891    -7.392097    606.81642  0.026241845  0.026256721            1 
 1928000   0.93753684    -7.361527    608.02295  0.026280383  0.026249965            3 
 1929000   0.94066616   -7.4207209     608.2251  0.026275492  0.026243222            2 
 1930000   0.96376058     -7.39553    606.71389  0.026196627  0.026236395            2 
 1931000   0.95129628   -7.3736561    606.70003  0.026182463  0.026229572            6 
 1932000   0.96025033   -7.3691894    608.76778    0.0262581  0.026222758            2 
 1933000   0.92311643   -7.3601089    606.71157   0.02615587  0.026215939            3 
 1934000   0.95153722    -7.383737    607.25392  0.026165715  0.026209086            5 
 1935000    0.9371461   -7.3778183    607.10013   0.02614557  0.026202257            1 
 1936000   0.95495811   -7.3937755    606.03039  0.026086019  0.026195356            2 
 1937000   0.94561652   -7.4003731    609.50411  0.026221997  0.026188454            2 
 1938000   0.94780099   -7.3628325    609.56246  0.026210976  0.026181631            2 
 1939000   0.94651728   -7.3802256    608.91157  0.026169485  0.026174899            2 
 1940000   0.94383025   -7.3572937    609.25171  0.026170606   0.02616817            2 
 1941000   0.93245621   -7.3889827    607.87608  0.026098063  0.026161413            2 
 1942000   0.93340038   -7.4001236    609.42624  0.026151143  0.026154667            4 
 1943000    0.9335291   -7.3945804    610.18521  0.026170235  0.026147919            2 
 1944000   0.93134007   -7.3759979    610.16834   0.02615605  0.026141136            4 
 1945000   0.94586356   -7.3764742    611.09829  0.026182446   0.02613435            4 
 1946000   0.94428817    -7.418105     609.0596  0.026081689  0.026127541            2 
 1947000   0.95606103   -7.3708787    611.08066  0.026154796  0.026120772            3 
 1948000   0.92804794   -7.3368319    610.76844  0.026128013  0.026114002            1 
 1949000   0.91692468   -7.3633196    610.49984  0.026103123  0.026107233            1 
 1950000   0.93959513   -7.4141953    610.62535    0.0260951  0.026100394            2 
 1951000   0.94783481   -7.3826408    609.24607  0.026022812  0.026093587            1 
 1952000    0.9165321   -7.4286472    608.63683  0.025983471  0.026086736            3 
 1953000   0.93919352   -7.4216498    609.71839  0.026016317  0.026079829            6 
 1954000   0.96297525   -7.3885886    611.77784  0.026090833  0.026072916            2 
 1955000   0.93875644   -7.3919316    610.93441  0.026041535  0.026066065            2 
 1956000    0.9351227   -7.3465643    609.97272  0.025987249  0.026059159            2 
 1957000   0.93928813   -7.3790633    609.54296   0.02595567  0.026052235            3 
 1958000   0.95379364   -7.3594389    612.04045  0.026048708  0.026045296            3 
 1959000   0.93894087   -7.3934113    611.33446   0.02600538  0.026038421            1 
 1960000   0.94520894    -7.375398    611.34921  0.025992739  0.026031468            4 
 1961000   0.91905015   -7.4135778     610.8894  0.025959944  0.026024528            3 
 1962000   0.92837318   -7.3895447    610.90476  0.025947365  0.026017569            1 
 1963000   0.94215799   -7.4099646    612.46978  0.026000585  0.026010633            2 
 1964000   0.93517806     -7.36861    612.39863  0.025984327  0.026003661            2 
 1965000   0.94492018   -7.4081757    613.30834  0.026009683  0.025996705            3 
 1966000   0.95465047   -7.3875033    613.09242  0.025987302  0.025989796            3 
 1967000   0.96942706   -7.4070575     611.0285  0.025886651  0.025982932            2 
 1968000   0.93953192    -7.413648    611.91176  0.025910898  0.025976101            2 
 1969000   0.93974816    -7.388675    613.75906  0.025975921  0.025969285            2 
 1970000   0.93121309   -7.4176946     612.8196  0.025922995   0.02596244            1 
 1971000    0.9269091   -7.3731787     614.8216  0.025994487  0.025955623            4 
 1972000   0.93297965   -7.3982454    613.98267  0.025945853  0.025948737            2 
 1973000   0.93838168    -7.398425    614.48113  0.025953756  0.025941924            2 
 1974000   0.92602671   -7.3810243    613.38867  0.025894489  0.025935136            2 
 1975000    0.9486222   -7.3919343    615.05374  0.025951635  0.025928428            1 
 1976000   0.94676622   -7.3789843    615.68017   0.02596492  0.025921649            2 
 1977000   0.94130924   -7.4095713    614.73852  0.025912094  0.025914937            2 
 1978000   0.93323348    -7.404718    615.12347  0.025915212  0.025908169            3 
 1979000    0.9257314   -7.4101144    615.64534  0.025924092  0.025901478            2 
 1980000   0.92734248   -7.4259074    614.47622  0.025861794   0.02589464            3 
 1981000   0.92457056   -7.4171484    614.85559  0.025864697  0.025887758            2 
 1982000   0.96436842   -7.3968439    615.07245  0.025860765  0.025880937            1 
 1983000   0.93421855   -7.4163986     615.3453  0.025859191  0.025874171            2 
 1984000   0.92527589   -7.4097539    613.89977   0.02578544  0.025867292            2 
 1985000   0.94285979   -7.4013235    614.51191  0.025798149  0.025860346            5 
 1986000   0.91901938   -7.4145511    615.52925  0.025827847   0.02585346            4 
 1987000   0.91900808   -7.4121311    614.92157  0.025789363  0.025846532            1 
 1988000   0.92769518   -7.4035843    615.62193  0.025805748  0.025839628            2 
 1989000   0.92159129   -7.4179722     616.6617  0.025836338  0.025832808            2 
 1990000    0.9596916   -7.3767832    616.20495  0.025804227   0.02582602            1 
 1991000   0.92900822   -7.3591662    618.70809  0.025896036  0.025819277            3 
 1992000   0.92060349    -7.405693    615.50046  0.025748848  0.025812534            1 
 1993000   0.94706784    -7.432612    615.62837  0.025741276  0.025805648            1 
 1994000   0.92741629   -7.4222828    616.10023  0.025748087   0.02579878            4 
 1995000   0.95961825   -7.4107459    617.31479  0.025785914  0.025791895            6 
 1996000   0.92524484    -7.378552    617.26422  0.025770884  0.025785057            3 
 1997000    0.9423381   -7.4130543    616.40666  0.025722194   0.02577819            2 
 1998000   0.94143621   -7.4270355    615.75849  0.025682286   0.02577134            2 
 1999000   0.95359989   -7.3934178    617.35004  0.025735786  0.025764506            2 
 2000000   0.91359236   -7.4387342    616.74796  0.025697832  0.025757513            3 
 2001000   0.91711164   -7.3749351    617.75445  0.025726905  0.025750546            2 
 2002000   0.95001711   -7.3782005    617.55723  0.025705845  0.025743633            1 
 2003000   0.92204284   -7.3751194    618.97794  0.025752119  0.025736681            2 
 2004000   0.92218042   -7.3724857    617.66437  0.025684646  0.025729839            3 
 2005000   0.92984338    -7.398818    618.23913  0.025695724  0.025723016            2 
 2006000   0.92035116   -7.3942268    619.97117  0.025754868  0.025716256            2 
 2007000   0.93080871   -7.3658816    619.09606  0.025705699  0.025709448            1 
 2008000   0.93554286    -7.398547    618.15927   0.02565402  0.025702583            6 
 2009000   0.94852618   -7.4029613    619.28667  0.025688015  0.025695763            3 
 2010000   0.94376664   -7.4167568    618.47996   0.02564179  0.025688902            3 
 2011000   0.92346522   -7.4254531     620.5464  0.025714669   0.02568211            1 
 2012000   0.93108832    -7.422205    619.55884  0.025660986  0.025675323            2 
 2013000   0.93128446   -7.4080319    618.20217  0.025592075  0.025668471            4 
 2014000   0.90990406   -7.4049602    619.08087  0.025615726  0.025661567            1 
 2015000     0.912923   -7.4163615    619.56003   0.02562283  0.025654647            1 
 2016000   0.93281915    -7.421138    619.33081  0.025600645  0.025647767            3 
 2017000   0.93070612   -7.3818857    620.09441  0.025619501  0.025640874            2 
 2018000   0.92375717    -7.404219    620.36906  0.025618147  0.025634049            2 
 2019000   0.94247282   -7.3784367    620.41782  0.025607472  0.025627261            2 
 2020000   0.93147268   -7.4075191    621.98714  0.025659535  0.025620511            2 
 2021000   0.92166374   -7.3975848    621.64678  0.025632805  0.025613766            2 
 2022000   0.92909607   -7.3914484    621.22531  0.025602758  0.025606987            3 
 2023000   0.91355902   -7.4092941    621.04306  0.025582594  0.025600177            2 
 2024000    0.9089567   -7.4510966    622.00415  0.025609525  0.025593426            3 
 2025000   0.92901514   -7.3756254    621.86993  0.025591355  0.025586646            3 
 2026000   0.91493647   -7.3774642    622.11442   0.02558878  0.025579903            1 
 2027000   0.93462833   -7.3941656    623.51977  0.025633932  0.025573193            1 
 2028000   0.92689636   -7.3897609    624.80349  0.025674042  0.025566454            2 
 2029000   0.92677689   -7.3933903      623.158  0.025593807  0.025559789            2 
 2030000   0.92238826   -7.4138539    622.04428  0.025535479  0.025553031            3 
 2031000   0.90867626   -7.4528768    622.98766  0.025561614   0.02554628            1 
 2032000   0.93451992    -7.413433    623.47676  0.025569093  0.025539482            3 
 2033000   0.93690375   -7.4307533    621.41826  0.025472137  0.025532754            1 
 2034000   0.93236812   -7.4134007    622.09553  0.025487362  0.025526016            3 
 2035000   0.93416543   -7.4123246    624.85353  0.025587778  0.025519329            3 
 2036000   0.91434323    -7.372282    625.53265  0.025603006  0.025512741            3 
 2037000   0.92994042   -7.4307885    623.35271  0.025501256  0.025506114            1 
 2038000   0.93252294   -7.4170146    624.01738  0.025515922  0.025499367            2 
 2039000   0.91632676   -7.4048985    623.99742  0.025502592  0.025492679            3 
 2040000   0.90515367   -7.4014004    623.77223  0.025480892   0.02548607            3 
 2041000   0.93439126   -7.4085203    624.28737   0.02548944   0.02547942            3 
 2042000   0.91497177   -7.4442062    623.99481  0.025465019  0.025472675            3 
 2043000    0.9021039   -7.4304606    623.21011  0.025420546  0.025465924            2 
 2044000   0.90570735   -7.4615559    625.63116  0.025506815  0.025459161            2 
 2045000    0.9313194    -7.437453    624.68681   0.02545586  0.025452505            2 
 2046000   0.92097188   -7.4255268    627.02866  0.025538802   0.02544589            4 
 2047000   0.90095566   -7.4236576    626.71947  0.025513739  0.025439246            2 
 2048000   0.93383444   -7.4048136    626.87277  0.025507518  0.025432561            2 
 2049000   0.92254715   -7.4072394    627.07239  0.025503188  0.025426018            2 
 2050000    0.9451608    -7.410551    628.05291  0.025530606  0.025419438            5 
 2051000   0.92743979   -7.4205975    624.22657  0.025362692  0.025412824            5 
 2052000   0.92939191   -7.4083427    627.33463  0.025476552  0.025406245            2 
 2053000   0.92875869   -7.4163744    627.42065  0.025467635  0.025399668            2 
 2054000   0.93177953    -7.377559    628.32569  0.025491954  0.025393079            2 
 2055000   0.91013305   -7.3915712    626.49622  0.025405362  0.025386561            3 
 2056000   0.91499526   -7.3974985    629.62634  0.025519874  0.025380074            3 
 2057000   0.92919665   -7.4006594    629.90267  0.025518663  0.025373534            4 
 2058000   0.91017016   -7.4094454    629.37239   0.02548479  0.025367052            3 
 2059000   0.92498068   -7.4441639    628.92328  0.025454237  0.025360535            1 
 2060000   0.93282862   -7.4122173    629.21108  0.025453523  0.025354013            3 
 2061000   0.89862674   -7.4129634     629.8279  0.025466113  0.025347526            2 
 2062000   0.93975383   -7.4067998    630.23594  0.025470253  0.025341107            3 
 2063000   0.91768325    -7.428886    626.69386  0.025314827  0.025334683            3 
 2064000   0.93733564   -7.4267629    628.64225  0.025381228  0.025328217            2 
 2065000   0.90819231   -7.4318273    630.20275  0.025431911  0.025321735            2 
 2066000   0.93111657   -7.4257206     630.1736  0.025418425  0.025315247            1 
 2067000   0.93284136   -7.4400489    629.28401  0.025370263  0.025308773            2 
 2068000   0.92849717   -7.4281179    629.05228  0.025348657   0.02530225            1 
 2069000   0.92213072   -7.4036356    631.65071  0.025441063  0.025295758            2 
 2070000   0.92048277   -7.4113178    629.74788  0.025352169  0.025289262            3 
 2071000   0.91859104   -7.3992997    630.50985  0.025370588  0.025282743            4 
 2072000   0.93120926   -7.4186191    631.63206  0.025403477  0.025276264            3 
 2073000   0.91128791    -7.424639    630.58544  0.025349149  0.025269871            2 
 2074000   0.91355586   -7.4349591      631.338  0.025367165  0.025263396            2 
 2075000   0.91159724   -7.4260065    630.81992  0.025334133  0.025256918            3 
 2076000   0.92228325   -7.4321643    631.68697  0.025356735  0.025250429            3 
 2077000   0.91551728   -7.4117974    632.14787  0.025363018  0.025243983            3 
 2078000    0.9342382   -7.4331546    631.28668  0.025316277  0.025237566            3 
 2079000   0.92121367   -7.4183899    632.29078  0.025344347   0.02523108            1 
 2080000   0.92021023   -7.4556353    631.72851  0.025309636  0.025224558            1 
 2081000   0.90515925   -7.4404052     631.8748  0.025303332  0.025218126            8 
 2082000    0.9160749   -7.4448727    634.17959  0.025383429  0.025211698            4 
 2083000   0.93574253   -7.4188276    633.83068  0.025357285  0.025205299            2 
 2084000   0.91898265   -7.4379534    633.20939  0.025320273  0.025198909            2 
 2085000   0.93977028   -7.3901667     633.6656  0.025326363  0.025192545            3 
 2086000   0.89490562   -7.4356554     632.4028  0.025263774   0.02518614            3 
 2087000    0.9339178   -7.4167503    633.32211  0.025288377  0.025179649            3 
 2088000   0.90168191   -7.4598266    634.01474  0.025303909  0.025173197            2 
 2089000   0.93735427   -7.3937018    635.50299  0.025351164  0.025166799            3 
 2090000    0.9336747   -7.4413666    632.60051  0.025223306  0.025160467            3 
 2091000   0.92937421   -7.4541488    632.43885    0.0252048  0.025154018            2 
 2092000   0.94147254   -7.4657146    634.23558  0.025264323  0.025147602            2 
 2093000   0.93717055   -7.4282738    634.76245   0.02527323  0.025141194            2 
 2094000   0.92830036   -7.4076187    634.46626  0.025249374  0.025134826            3 
 2095000   0.91562213   -7.4600784    633.81869  0.025211563  0.025128461            2 
 2096000   0.90242829    -7.384927    634.59551   0.02523042  0.025122098            4 
 2097000   0.89359385   -7.4040739    634.03239   0.02519601  0.025115648            3 
 2098000   0.92426682   -7.4212552    635.43224  0.025239603   0.02510924            3 
 2099000    0.9333119   -7.4172979     635.7865  0.025241643   0.02510297            2 
 2100000   0.91607462   -7.3915677    636.93042  0.025275017  0.025096623            3 
 2101000   0.91180732   -7.4231781    635.49186  0.025205928  0.025090318            2 
 2102000   0.92381603    -7.438169    636.95778  0.025252053  0.025083997            5 
 2103000   0.91722852   -7.3962291     635.5196  0.025183056  0.025077641            1 
 2104000   0.93365892   -7.4396282    635.26318  0.025160931  0.025071237            4 
 2105000   0.90761759   -7.4445226    636.06789  0.025180835  0.025064843            5 
 2106000   0.92609051   -7.4432693    635.38791  0.025141972   0.02505844            6 
 2107000   0.91286303   -7.4157863    638.39573     0.025249  0.025052068            3 
 2108000    0.9089867   -7.4317349    637.75888  0.025211847  0.025045706            3 
 2109000    0.9206583   -7.4728806    635.24346    0.0251005  0.025039286            4 
 2110000   0.93382361   -7.4584954    637.46244  0.025176242  0.025032808            3 
 2111000    0.8923158   -7.4217997    635.94655  0.025104475  0.025026344            3 
 2112000   0.92725174   -7.4263989     635.8978  0.025090664  0.025019927            2 
 2113000   0.92991192   -7.4700369    637.43155  0.025139279  0.025013419            5 
 2114000   0.90561947   -7.4348596    635.83123  0.025064303  0.025006983            3 
 2115000   0.91505323   -7.4384708    637.78981  0.025129622  0.025000496            2 
 2116000   0.91906033    -7.417808    638.79062   0.02515716  0.024994108            2 
 2117000    0.9245877   -7.4082052    638.18155  0.025121302  0.024987684            2 
 2118000   0.92492727   -7.4586006    638.30532  0.025114311  0.024981218            2 
 2119000   0.93297545   -7.4344449     636.0156  0.025012412   0.02497476            2 
 2120000   0.92079079    -7.414191    639.52505  0.025138563  0.024968366            3 
 2121000   0.90017188    -7.418003    639.06261  0.025108542  0.024961949            3 
 2122000   0.91564507    -7.419623    637.12293  0.025020536  0.024955491            3 
 2123000    0.9136517   -7.4557235    638.06238  0.025045627   0.02494902            5 
 2124000   0.89006671   -7.3954577    639.14907   0.02507647   0.02494246            2 
 2125000   0.91629264   -7.4502135    638.17071  0.025026302  0.024935969            2 
 2126000   0.91126042   -7.4558453    637.86749  0.025002646  0.024929382            2 
 2127000   0.91311777   -7.4149624    638.12155  0.025000844  0.024922858            4 
 2128000   0.90201304   -7.4132742    637.24631  0.024954821  0.024916404            2 
 2129000   0.89984794   -7.4419788    639.22311  0.025020476  0.024909901            2 
 2130000   0.89339793   -7.4551672    638.26198  0.024971126  0.024903402            3 
 2131000   0.91777899   -7.4320336    639.63242  0.025012999  0.024896946            1 
 2132000   0.91036357   -7.4431465    641.42445  0.025071312   0.02489047            2 
 2133000   0.91961184   -7.4413235    639.12701    0.0249698  0.024883985            1 
 2134000   0.91603117   -7.4328095      639.952  0.024990316  0.024877557            4 
 2135000   0.91221016   -7.4232351    640.44295  0.024997773  0.024871165            3 
 2136000   0.91381433   -7.4673621    640.22522  0.024977576  0.024864798            1 
 2137000    0.8867214   -7.4311587    640.39904  0.024972666  0.024858319            1 
 2138000   0.89113295   -7.4948233    638.98301  0.024905793  0.024851773            2 
 2139000   0.90633215   -7.4275328    640.41672  0.024950005  0.024845231            2 
 2140000   0.90331357   -7.4495864    640.02679  0.024923162  0.024838798            2 
 2141000   0.90180113   -7.4758515    640.62456  0.024934788   0.02483231            7 
 2142000   0.90445445     -7.45744    640.53311  0.024919589  0.024825856            3 
 2143000   0.91432031    -7.464294    640.15364  0.024893204  0.024819425            4 
 2144000   0.90430055   -7.4739177    639.91955  0.024872495  0.024812976            1 
 2145000   0.91253113   -7.4537493    641.18461  0.024910047  0.024806525            3 
 2146000   0.91274822   -7.4110096    642.51919  0.024950264  0.024800073            4 
 2147000   0.89540526   -7.4863759    641.27751  0.024890448  0.024793614            1 
 2148000   0.89482836   -7.4520202    641.22081  0.024876661  0.024787154            2 
 2149000   0.89987204   -7.4563679    641.12155  0.024861236  0.024780742            3 
 2150000   0.88752471   -7.4512472    640.78639  0.024836682  0.024774284            2 
 2151000   0.91258938   -7.4275949    642.25665  0.024882096  0.024767876            3 
 2152000   0.89690348   -7.4624696    642.87904  0.024894634  0.024761441            3 
 2153000   0.90792967   -7.4607706    642.84878  0.024881901  0.024755024            1 
 2154000   0.92466721   -7.4144877    644.66576  0.024940644   0.02474863            3 
 2155000   0.90701478   -7.4552422    642.67878  0.024852234  0.024742229            1 
 2156000   0.90903311   -7.4446711    643.52389  0.024873372  0.024735872            7 
 2157000   0.91014264   -7.4487567    641.93221  0.024800348  0.024729535            3 
 2158000   0.90339346   -7.4710808    643.51623  0.024850024  0.024723224            4 
 2159000   0.90982008   -7.4656559    644.44684  0.024874434  0.024716856            3 
 2160000   0.90179488   -7.4679113    645.16189  0.024890505  0.024710432            3 
 2161000   0.92570745   -7.4829482     644.0863   0.02483751  0.024704032            3 
 2162000    0.9254937   -7.4564696     646.0848  0.024903053  0.024697665            2 
 2163000     0.923853   -7.4328247    645.66221  0.024875258  0.024691361            1 
 2164000   0.91253473   -7.4600967    644.53736  0.024820447  0.024685086            3 
 2165000   0.87579859   -7.4347293    646.22209  0.024873829  0.024678799            2 
 2166000   0.88780976   -7.4695621    643.48556  0.024757062   0.02467247            2 
 2167000   0.89499201   -7.4827471    645.14862  0.024809592  0.024666166            4 
 2168000   0.90681936   -7.4590972    647.76413  0.024898683  0.024659887            4 
 2169000   0.87926491   -7.4273422    646.90382   0.02485415  0.024653671            2 
 2170000   0.91336224   -7.4526661    646.37562  0.024822413  0.024647464            3 
 2171000   0.90244164   -7.4506923    646.43645  0.024813314  0.024641227            3 
 2172000   0.90848879   -7.4489997    647.65549  0.024848661  0.024634981            2 
 2173000   0.91263203   -7.4847514    646.27904  0.024784439  0.024628776            4 
 2174000    0.9015444   -7.4986141    644.78876  0.024715914  0.024622527            2 
 2175000     0.908779   -7.4991461    645.91731   0.02474779  0.024616219            4 
 2176000   0.91119256   -7.4504272    645.97631  0.024738676  0.024609947            3 
 2177000    0.8842388   -7.4645349    647.65081  0.024791411  0.024603702            2 
 2178000   0.91019903   -7.4578314    645.36365  0.024692518  0.024597416            7 
 2179000   0.89691052    -7.478983    647.98828  0.024781562   0.02459121            3 
 2180000   0.90438821   -7.4183937    650.08769  0.024850447  0.024585007            2 
 2181000   0.91035843   -7.4478556    649.15576  0.024803445  0.024578771            3 
 2182000   0.92752255   -7.4247653    647.66557  0.024735165  0.024572536            2 
 2183000   0.90975249   -7.4871563    649.08842   0.02477815  0.024566327            3 
 2184000   0.89577932   -7.4714173    648.24226  0.024734518  0.024560031            4 
 2185000    0.9026408   -7.4275767    649.84974  0.024784506  0.024553743            2 
 2186000    0.9187082   -7.5110832    646.56165  0.024647821  0.024547444            2 
 2187000   0.91763319   -7.4697474    648.81263  0.024722323   0.02454112            3 
 2188000   0.90259668   -7.4593567    648.16113   0.02468621  0.024534833            2 
 2189000   0.88505819    -7.488503    647.80056  0.024661206  0.024528586            1 
 2190000   0.89259559   -7.4744761    650.14265  0.024739066  0.024522339            2 
 2191000   0.91921763   -7.4364398    650.47669   0.02474048  0.024516106            2 
 2192000   0.90297649   -7.4800041      649.506   0.02469229  0.024509918            2 
 2193000    0.9145239   -7.4297017    651.02438  0.024738728  0.024503739            4 
 2194000   0.88637373   -7.4611686    649.90936  0.024685102  0.024497581            4 
 2195000   0.89975053    -7.449632    650.63488    0.0247014  0.024491407            4 
 2196000    0.9056551   -7.4560784    650.98145  0.024703303  0.024485296            3 
 2197000   0.90139252   -7.4551989     653.2719  0.024778937  0.024479191            1 
 2198000   0.90215611   -7.4450432    649.86741  0.024638588  0.024472994            1 
 2199000    0.9062604   -7.4834715    651.74031  0.024698359  0.024466814            3 
 2200000   0.88712811   -7.4558916    651.15295  0.024664885  0.024460668            2 
 2201000   0.91463264   -7.4618738    651.33228  0.024660468  0.024454528            2 
 2202000   0.89899918   -7.4667741    653.47742   0.02473045  0.024448462            3 
 2203000   0.89610057   -7.4744169     651.7485  0.024653824  0.024442374            2 
 2204000   0.91387305    -7.486562    653.02717  0.024690985  0.024436266            3 
 2205000   0.87782205   -7.4596413    652.03656  0.024642349  0.024430099            4 
 2206000   0.89227549   -7.4298701    652.87612  0.024662893  0.024423972            3 
 2207000   0.88526366   -7.4537985    653.28896  0.024667307  0.024417914            2 
 2208000   0.89070494   -7.4947629    652.98142  0.024644528  0.024411826            1 
 2209000   0.92012666   -7.4776937    654.43712  0.024688287  0.024405717            2 
 2210000   0.89910926   -7.4616887    653.90826  0.024657174  0.024399647            2 
 2211000   0.88609285   -7.4805052    651.25204  0.024545908  0.024393581            1 
 2212000   0.88825501   -7.4734427    652.43062  0.024579213  0.024387429            5 
 2213000   0.91359373   -7.4913467    653.52541  0.024609332  0.024381286            2 
 2214000   0.91380387   -7.4910077    653.12749  0.024583239  0.024375119            1 
 2215000   0.90545655   -7.4772947    654.68118  0.024630593  0.024368984            4 
 2216000   0.89738698   -7.4822327    653.84842  0.024588163  0.024362901            5 
 2217000   0.89560641   -7.4543971    654.44946  0.024599664  0.024356902            2 
 2218000   0.88407308   -7.4876991    654.54257  0.024592071  0.024350869            3 
 2219000   0.90549857   -7.4871259    654.27703  0.024571017   0.02434486            4 
 2220000   0.91045356   -7.4854878    654.91697   0.02458397  0.024338785            4 
 2221000   0.88386106   -7.5040387    652.29462  0.024474509  0.024332718            3 
 2222000    0.8948019   -7.4735614    654.54036  0.024547718   0.02432666            4 
 2223000   0.91201627   -7.5017039    655.28032  0.024564414  0.024320555            6 
 2224000   0.89529352   -7.5181423    655.16552  0.024549068   0.02431445            2 
 2225000   0.87920565   -7.4635213    656.45573  0.024586357  0.024308396            5 
 2226000   0.88263411   -7.4888402    655.85952  0.024552992  0.024302389            3 
 2227000   0.91773403   -7.4900511     655.1504  0.024515432  0.024296361            2 
 2228000   0.90229006   -7.4698945    656.59479  0.024558453  0.024290331            1 
 2229000   0.89763328   -7.4767508    656.39068  0.024539804  0.024284266            1 
 2230000   0.89718655   -7.4653223    657.58074  0.024573271  0.024278231            2 
 2231000     0.887876   -7.4758726    657.05268  0.024542532    0.0242722            4 
 2232000   0.89136926   -7.4877455     655.3279  0.024467141  0.024266096            2 
 2233000   0.89809008    -7.471095    657.43396   0.02453478  0.024259974            2 
 2234000   0.89099789   -7.4957758    654.84675  0.024427289  0.024253807            3 
 2235000   0.91295947   -7.4660293    656.32806  0.024471591  0.024247661            1 
 2236000   0.90065783   -7.4724655    656.98527   0.02448514  0.024241568            4 
 2237000   0.87905489   -7.4875192    656.25176  0.024446869  0.024235436            3 
 2238000   0.90836675   -7.4837669    658.58218   0.02452272  0.024229355            4 
 2239000   0.89386137   -7.4871765    656.56639  0.024436742  0.024223269            1 
 2240000   0.91207807   -7.4996479    658.64855  0.024503294  0.024217213            1 
 2241000   0.88671722   -7.5086937    657.84157  0.024462352  0.024211119            2 
 2242000   0.90254481   -7.4894645     657.5017  0.024438808  0.024205073            3 
 2243000   0.89115327   -7.4820233     659.1696   0.02448988  0.024199053            2 
 2244000   0.90556238   -7.4631484    658.25207  0.024444893  0.024193024            3 
 2245000   0.88964901   -7.4965398    658.23883  0.024433513   0.02418699            3 
 2246000    0.8924911   -7.5152813    658.48642   0.02443182  0.024180945            2 
 2247000   0.87334987   -7.4930102    658.97859    0.0244392  0.024174911            4 
 2248000   0.90369514   -7.4978153    659.19811  0.024436466  0.024168874            2 
 2249000   0.88968327   -7.4749977     659.6129   0.02444097  0.024162821            2 
 2250000   0.90486109   -7.5087833     658.3589  0.024383663  0.024156827            4 
 2251000   0.89112884   -7.4620177    661.35217  0.024483643  0.024150811            2 
 2252000   0.87914825   -7.4721973    658.95562  0.024384089  0.024144793            1 
 2253000   0.92537701   -7.4991872    658.87327   0.02437022   0.02413873            2 
 2254000   0.88230174   -7.4561301    659.39267  0.024378611  0.024132721            5 
 2255000   0.90521464   -7.4779345    658.99991  0.024353286  0.024126722            1 
 2256000   0.88036563    -7.451022    658.97125  0.024341432  0.024120689            5 
 2257000   0.87631221   -7.4760798    659.52323  0.024351028  0.024114632            2 
 2258000   0.88440509   -7.4974256    660.11619  0.024362127  0.024108602            2 
 2259000   0.89066427   -7.4787001    659.81486  0.024340226  0.024102536            3 
 2260000    0.9105191   -7.5028214    661.86369  0.024405003   0.02409654            3 
 2261000   0.88479463   -7.4957532    661.27744  0.024372602  0.024090472            2 
 2262000   0.88234877   -7.4795153    660.94461  0.024349566  0.024084393            5 
 2263000    0.8832063   -7.5013866    659.29827   0.02427818  0.024078365            3 
 2264000   0.89125359   -7.5089058    660.29313  0.024304076  0.024072324            2 
 2265000   0.89771349   -7.4942693    661.08816  0.024322596  0.024066265            3 
 2266000    0.8783013   -7.5033582    660.36331  0.024285205  0.024060198            2 
 2267000   0.89336005   -7.4887596    662.78193    0.0243634  0.024054116            1 
 2268000   0.89234538   -7.4729702    661.28244  0.024297562  0.024048039            2 
 2269000    0.8812853   -7.5066917    661.82804  0.024306891  0.024041931            4 
 2270000   0.89801724   -7.4764047    662.89898  0.024335498  0.024035861            2 
 2271000   0.90001202   -7.4946386    661.35059  0.024267965  0.024029788            1 
 2272000   0.88290881   -7.5310121     660.4927  0.024225818  0.024023702            4 
 2273000   0.91216424   -7.4816201    662.50062  0.024288775  0.024017585            2 
 2274000    0.8870153   -7.4819829    662.35377  0.024272712  0.024011476            2 
 2275000   0.88248462   -7.4880993     662.2215  0.024257198  0.024005448            3 
 2276000    0.8887503   -7.4925357    661.25214  0.024211048  0.023999411            2 
 2277000   0.87007838   -7.4830826    661.40527  0.024206019  0.023993285            2 
 2278000   0.89257098   -7.5338402    659.46171  0.024124294  0.023987103            1 
 2279000   0.88233876   -7.5060398    662.10572  0.024210389  0.023980911            2 
 2280000   0.89522429   -7.5091506    660.59805  0.024144666  0.023974762            4 
 2281000   0.87919604   -7.5269074    661.22721  0.024157066  0.023968609            1 
 2282000   0.90906808   -7.5165221    660.43198   0.02411744    0.0239624            3 
 2283000   0.86386175   -7.5104508    661.31855  0.024139237  0.023956215            3 
 2284000   0.90184114    -7.466544    662.38737  0.024167665  0.023950019            4 
 2285000   0.88818455   -7.5372286    662.75793  0.024170603  0.023943886            3 
 2286000   0.88495775   -7.5087763    662.35424  0.024145313  0.023937685            2 
 2287000   0.87528356   -7.5279105    663.02489  0.024159193  0.023931499            2 
 2288000    0.9053005   -7.4895325    661.96802  0.024110141  0.023925311            4 
 2289000   0.87911938   -7.5267159    662.43348  0.024116553  0.023919103            2 
 2290000    0.8692188   -7.4861766    663.54209  0.024146364   0.02391296            3 
 2291000   0.88337082   -7.4876713    662.78486  0.024108281  0.023906768            2 
 2292000   0.88060946   -7.5236437    662.63665  0.024092374  0.023900527            3 
 2293000   0.89552144   -7.5116324    662.20894  0.024066323  0.023894324            3 
 2294000   0.87187653   -7.5139997    660.22263  0.023983676  0.023888113            2 
 2295000   0.88637842   -7.5018329    664.32519  0.024122193  0.023881924            3 
 2296000   0.87420959     -7.48686    662.91091  0.024060355  0.023875792            3 
 2297000   0.87409005   -7.5170403    663.68082  0.024077812  0.023869704            3 
 2298000     0.879664   -7.4992044    664.47034  0.024095965  0.023863637            5 
 2299000   0.88699613    -7.500291    665.03998  0.024106132  0.023857572            2 
 2300000   0.87349018   -7.5226929    664.38219  0.024071818  0.023851408            2 
 2301000   0.88807352   -7.4920251    666.15591  0.024125594  0.023845315            5 
 2302000   0.88999958   -7.4918991    666.15475  0.024115072  0.023839266            4 
 2303000   0.87477259   -7.5059412    662.80413   0.02398336  0.023833266            1 
 2304000   0.86159683   -7.5384181    663.42679  0.023995471  0.023827191            1 
 2305000   0.88502768   -7.5177388    665.32356  0.024053636  0.023821068            2 
 2306000    0.8962164   -7.4997539     664.4038  0.024009967  0.023814925            2 
 2307000   0.87860971    -7.498879    666.54945  0.024077065  0.023808783            3 
 2308000    0.8746504   -7.4975723    665.65938  0.024034495  0.023802707            2 
 2309000   0.88311878   -7.5071368     665.3892  0.024014335   0.02379659            4 
 2310000   0.87147797   -7.5014686    666.52371  0.024044867  0.023790514            2 
 2311000   0.88995848   -7.4987507    664.22154  0.023951448  0.023784431            2 
 2312000   0.88520999   -7.4599518    666.59217  0.024026534  0.023778356            3 
 2313000   0.89234212     -7.50919    665.24449  0.023967592  0.023772235            3 
 2314000   0.88788198   -7.5370203    665.75384  0.023975577  0.023766093            5 
 2315000   0.88832803   -7.5460054    664.12098  0.023906443  0.023759901           15 
 2316000   0.86849539   -7.5083107    665.31647  0.023939136  0.023753705            3 
 2317000   0.90183015   -7.5088042    666.01921  0.023954079   0.02374754            4 
 2318000   0.88344697   -7.5402073    664.66519  0.023895067  0.023741363            2 
 2319000    0.8822232   -7.4879216    666.82497  0.023962375  0.023735218            4 
 2320000   0.87934438   -7.5173096    666.65793  0.023946046  0.023729072            1 
 2321000   0.88822356   -7.5111037    666.05897  0.023914224   0.02372293            4 
 2322000   0.87556718   -7.5364611    666.09408  0.023905185  0.023716778            2 
 2323000   0.88662325   -7.5239973    665.69176  0.023880462  0.023710622            4 
 2324000   0.88069035   -7.5201329    667.56741  0.023937443  0.023704454            2 
 2325000   0.86565074   -7.4921466    667.35814  0.023919647  0.023698314            1 
 2326000   0.87732426   -7.5002272     667.4243  0.023911733  0.023692194            2 
 2327000   0.86201737   -7.5071481    668.68132  0.023946473  0.023686044            2 
 2328000   0.86746117   -7.5341674    667.14056  0.023881034  0.023679907            2 
 2329000   0.87788437   -7.5017393     668.3205  0.023912999  0.023673798            1 
 2330000   0.88178863    -7.520306    667.02115  0.023856264  0.023667686            2 
 2331000   0.88976474   -7.5469831    667.46138  0.023861768  0.023661551            6 
 2332000   0.88773171    -7.530698    667.92494  0.023868101  0.023655387            1 
 2333000   0.90178737    -7.544479    667.91613  0.023857556  0.023649208            2 
 2334000   0.87248321   -7.5231827    666.49554  0.023796613  0.023643061            2 
 2335000   0.89900208   -7.5348545    668.05931  0.023842231   0.02363692            2 
 2336000   0.86403665   -7.5073346    667.40075  0.023808531  0.023630782            2 
 2337000   0.87240268   -7.5256005    668.09138   0.02382297  0.023624546            3 
 2338000   0.86233401     -7.55213    668.97726  0.023844356  0.023618411            5 
 2339000   0.87622696   -7.5013597    668.56511  0.023819478  0.023612262            3 
 2340000   0.86070715   -7.5351501    667.54833  0.023773089  0.023606103            3 
 2341000   0.87688811   -7.4895681    670.22741  0.023858302  0.023599947            2 
 2342000   0.88898217   -7.5404859     668.8076  0.023797595  0.023593813            5 
 2343000   0.87547265   -7.5379346    669.06756  0.023796684  0.023587701            3 
 2344000   0.88975829   -7.5077831      671.497  0.023872902  0.023581624            2 
 2345000    0.8614655   -7.5158033    671.07941  0.023847882  0.023575532            3 
 2346000   0.88234413   -7.5563632    671.26992  0.023844484  0.023569434            3 
 2347000   0.87683063   -7.5453841    668.53025  0.023737049   0.02356328            2 
 2348000   0.89073838   -7.5311234    669.36429  0.023756541  0.023557118            4 
 2349000   0.86246788   -7.5490609    669.45482  0.023749639  0.023551006            2 
 2350000   0.86866342   -7.5194976    670.13536  0.023763665  0.023544902            2 
 2351000   0.88848062   -7.5150519    670.90895  0.023780978  0.023538795            2 
 2352000   0.86167559   -7.5253956     670.1115  0.023742613  0.023532702            3 
 2353000   0.88720295   -7.4964898    671.08295  0.023766927  0.023526596            2 
 2354000   0.88578685   -7.5164317    672.31897  0.023800587  0.023520556            2 
 2355000   0.87447844   -7.5134932    671.60451  0.023765199  0.023514473            2 
 2356000   0.88371949   -7.5419898    670.71234  0.023723555  0.023508387            2 
 2357000   0.86339989   -7.5412645     670.7902  0.023716242  0.023502275            3 
 2358000   0.87735154   -7.5370945    670.75131   0.02370481  0.023496161            6 
 2359000   0.90328174   -7.5142284     671.2329  0.023711774  0.023490064            4 
 2360000   0.88215467   -7.5483691    670.83184  0.023687565  0.023483962            2 
 2361000   0.87463236   -7.5457822      670.838  0.023677749  0.023477855            3 
 2362000   0.85149947   -7.5373116    670.39289  0.023652021   0.02347167            2 
 2363000   0.86344965   -7.5319651    671.13008   0.02366801  0.023465572            2 
 2364000   0.86581117    -7.518334    672.68071  0.023712659  0.023459527            5 
 2365000   0.86490243   -7.4940135     673.0539  0.023715782  0.023453497            4 
 2366000   0.86654983   -7.4922852    673.84368  0.023733576  0.023447487            3 
 2367000   0.88501599   -7.5234589    672.76555  0.023685592  0.023441459            2 
 2368000    0.8507755   -7.5322035    673.86234  0.023714187  0.023435407            2 
 2369000   0.87119018   -7.5147139    672.08307  0.023641588  0.023429339            2 
 2370000   0.85480633   -7.5402751    671.55711  0.023613119  0.023423222            2 
 2371000   0.86077357   -7.5489643    671.71112  0.023608573  0.023417085            4 
 2372000   0.85236978   -7.5757426    670.94243  0.023571614  0.023410897            3 
 2373000   0.85958188   -7.5157259    673.99019   0.02366871  0.023404693            4 
 2374000   0.86538604   -7.4969896    672.42603  0.023603834  0.023398604            2 
 2375000   0.86912437   -7.5828034    671.53885  0.023562767  0.023392436            3 
 2376000   0.87355177   -7.5329019    672.39513  0.023582882  0.023386257            2 
 2377000   0.85186657    -7.552371    672.30365  0.023569754   0.02338009            4 
 2378000    0.8634934   -7.5334958    672.55277  0.023568572  0.023373941            2 
 2379000   0.85114105    -7.514915    672.97052  0.023573298  0.023367781            3 
 2380000   0.86091595    -7.510266    671.90728  0.023526165  0.023361621            2 
 2381000   0.86212782   -7.5259104    672.05224  0.023521358  0.023355393            2 
 2382000   0.86884314   -7.5629922    671.56496  0.023494436  0.023349152            2 
 2383000   0.85429161   -7.5468203     673.9171  0.023566831  0.023342947            4 
 2384000   0.88066991   -7.5074541    672.78144  0.023517248  0.023336787            2 
 2385000   0.88159568   -7.5293916    675.86722  0.023615207  0.023330609            3 
 2386000   0.88035104   -7.5387493    672.14631  0.023475353  0.023324374            4 
 2387000   0.88366721   -7.5207375    671.81577  0.023453979  0.023318198            2 
 2388000   0.87804971   -7.5466092    671.88939  0.023446726  0.023311947            6 
 2389000   0.86290351   -7.5157265    672.30087  0.023451265  0.023305716            2 
 2390000   0.85262914   -7.5647624    672.36798  0.023443793  0.023299421            5 
 2391000   0.87629578   -7.5627524    673.68766  0.023479983   0.02329316            1 
 2392000   0.86199217   -7.5372581    673.04789  0.023447878  0.023286885            5 
 2393000   0.85979374   -7.5324949    674.05232  0.023473057  0.023280598            2 
 2394000   0.86801241   -7.5537604    673.32745   0.02343802  0.023274338            4 
 2395000   0.87872758   -7.5291641    672.52469  0.023400302  0.023268129            1 
 2396000   0.87525093   -7.5598341    673.92521  0.023439246  0.023261944            4 
 2397000   0.88667832   -7.5662302    672.29088  0.023372649  0.023255629            3 
 2398000   0.88547619    -7.540742    675.56426  0.023476656  0.023249368            5 
 2399000   0.87857526    -7.524414    674.39679  0.023426316  0.023243161            2 
 2400000   0.86076983   -7.5653082    673.27369  0.023377559  0.023236944            7 
 2401000   0.87810319   -7.5089462    675.44285  0.023443109  0.023230782            7 
 2402000    0.8536955   -7.5493838    674.51762   0.02340125  0.023224647            2 
 2403000   0.87171284    -7.523265    674.25734  0.023382485  0.023218456            1 
 2404000   0.85826489   -7.4924367    675.87038  0.023428674   0.02321233            3 
 2405000   0.87888117   -7.5224204    674.70786  0.023378651  0.023206195            3 
 2406000   0.85843984   -7.5124658    675.37646  0.023392091  0.023200059            2 
 2407000   0.87194078   -7.5306589    677.03939  0.023439946   0.02319391            1 
 2408000   0.85285825   -7.5529506    675.57102  0.023379396  0.023187735            2 
 2409000   0.85448265    -7.539126    674.74302  0.023341048  0.023181517            3 
 2410000   0.87586943   -7.5740218    675.35544  0.023352539  0.023175344            3 
 2411000   0.84740228    -7.567426    676.31969  0.023376182  0.023169154            1 
 2412000   0.85687547   -7.5485965     677.8712  0.023420094  0.023162992            2 
 2413000   0.86850782   -7.5644151     677.2142  0.023387699  0.023156898            4 
 2414000   0.87184506   -7.5548565    676.98281  0.023370022  0.023150762            2 
 2415000   0.84694172   -7.5471305    676.65806   0.02334914  0.023144594            3 
 2416000   0.85591993   -7.5608679    676.51932   0.02333469  0.023138418            7 
 2417000   0.87352074   -7.5660983    676.10798  0.023310853  0.023132223            3 
 2418000   0.86727028    -7.556396    676.00247  0.023297576  0.023126025            2 
 2419000   0.86554317   -7.5664993    673.99492  0.023218786  0.023119852            2 
 2420000   0.86992074   -7.5765917    675.90451  0.023274949  0.023113699            2 
 2421000   0.87340191   -7.5343592    677.24745   0.02331156  0.023107564            2 
 2422000   0.84522983   -7.5357473    675.47095  0.023240812  0.023101445            4 
 2423000   0.87874607   -7.5461833    676.49518  0.023266446  0.023095308            2 
 2424000   0.85255633   -7.5473315    677.57863  0.023294095  0.023089171            4 
 2425000   0.85461641   -7.5636969    677.86923  0.023294475  0.023083046            2 
 2426000   0.86145929   -7.5462748    678.34917  0.023301359  0.023076928            2 
 2427000   0.88187768   -7.5495714    678.09604  0.023283067  0.023070822            3 
 2428000   0.87265065   -7.5650137    678.75988  0.023296262   0.02306474            2 
 2429000   0.86385615   -7.5478969    679.93972  0.023327148  0.023058736            3 
 2430000   0.87028289   -7.5474872    678.25015  0.023259607   0.02305262            2 
 2431000   0.87404589   -7.5301103    678.23354   0.02324947  0.023046516            3 
 2432000   0.86888484   -7.5609901    679.17517  0.023272176   0.02304043            4 
 2433000   0.82983332   -7.5579135    679.46811  0.023272644  0.023034321            2 
 2434000   0.86869849   -7.5643961    678.38621  0.023226041  0.023028244            3 
 2435000   0.86618565    -7.572446    677.93162  0.023200945  0.023022146            3 
 2436000   0.84285075   -7.5578759    678.08861  0.023196792  0.023016073            2 
 2437000   0.86419449   -7.5578052    679.18419  0.023224736   0.02300994            2 
 2438000   0.87774347   -7.5580415    678.45107  0.023190152  0.023003769            1 
 2439000   0.85007041   -7.5730267    681.27569  0.023277152  0.022997656            5 
 2440000   0.85483746    -7.514499    681.03201   0.02325929  0.022991558            3 
 2441000    0.8342335   -7.5755762    678.54393  0.023164821  0.022985434            3 
 2442000   0.86967447   -7.5268444    678.80423  0.023164218  0.022979291            4 
 2443000   0.87622479   -7.5644439    678.83722  0.023155861  0.022973128            3 
 2444000   0.86280088   -7.5732773    680.50448  0.023203235  0.022966969            1 
 2445000   0.85214699   -7.5889025    677.13355  0.023078853  0.022960792            2 
 2446000   0.86223351   -7.5801253    678.65874   0.02312138  0.022954613            3 
 2447000   0.85960326   -7.5603667     680.3498  0.023169521  0.022948458            3 
 2448000   0.83757928   -7.5682928    678.51971  0.023097757  0.022942285            2 
 2449000   0.87027705   -7.5862585    678.62199  0.023091806  0.022936062            4 
 2450000   0.86205084   -7.5912474    679.92726  0.023126778   0.02292986            5 
 2451000   0.85850977    -7.605339    679.31249   0.02309644  0.022923678            2 
 2452000   0.84006712   -7.5689599    681.94012  0.023176323  0.022917543            5 
 2453000   0.86802543   -7.5171986    680.57496  0.023120497  0.022911442            2 
 2454000   0.86254043    -7.536399    680.33653  0.023102979  0.022905359            1 
 2455000   0.84782615   -7.5322724    680.42293  0.023096501  0.022899168            5 
 2456000   0.85683237   -7.5951013    678.09178     0.023008  0.022892957            2 
 2457000   0.84859027   -7.5681966     679.9199   0.02306064   0.02288675            4 
 2458000   0.84016575   -7.5949083    680.31226   0.02306456  0.022880588            7 
 2459000   0.85029296   -7.5590164    680.92464  0.023075933  0.022874439            7 
 2460000   0.86035798   -7.5627259    681.84375  0.023097688  0.022868272            6 
 2461000   0.87038098   -7.5415739    679.46458   0.02300774  0.022862089            3 
 2462000   0.87804377   -7.5469575    681.97971  0.023083527  0.022855969            2 
 2463000   0.87474434    -7.567367    682.14866  0.023079871  0.022849848            1 
 2464000   0.85134984   -7.5654375    681.22642  0.023039313  0.022843737            2 
 2465000   0.84865473   -7.5374414     684.4109  0.023137623   0.02283762            2 
 2466000   0.84989754   -7.5513922    680.35721  0.022991255  0.022831549            6 
 2467000   0.87273186   -7.5710332    683.11641  0.023075139  0.022825404            1 
 2468000   0.85297017   -7.5594723    679.73143  0.022951494  0.022819258            3 
 2469000   0.85090143   -7.5801208    681.16072  0.022990439  0.022813097            4 
 2470000   0.86444722    -7.569693    681.16995  0.022981442   0.02280697            2 
 2471000   0.85704314   -7.5893299    683.07325   0.02303633  0.022800852            3 
 2472000   0.86737487   -7.5510029    681.99842  0.022990777  0.022794724            2 
 2473000   0.86260344   -7.5650134    681.33374  0.022959083  0.022788597            3 
 2474000   0.85625238   -7.5692836    681.76344  0.022964276  0.022782415            1 
 2475000   0.87137177   -7.5741734    682.61215  0.022983574  0.022776269            4 
 2476000   0.86277839   -7.5407823    681.24519  0.022928285  0.022770099            3 
 2477000   0.84342076   -7.5493849    683.38518  0.022991023  0.022763961            2 
 2478000   0.85969521    -7.558235     682.3282    0.0229462  0.022757794            1 
 2479000   0.86460916    -7.549892    683.53097  0.022977376   0.02275163            1 
 2480000   0.86435627   -7.5692668    682.69789  0.022940117  0.022745483            2 
 2481000   0.86200889   -7.5378266     684.6611  0.022996813  0.022739376            1 
 2482000   0.85494515   -7.5748061    682.97184   0.02293083  0.022733301            2 
 2483000   0.86523013   -7.5586108    682.62482  0.022909948  0.022727168            4 
 2484000   0.84896861   -7.5959299    682.11269  0.022883544  0.022721004            2 
 2485000   0.86637727   -7.5855997    684.10212   0.02294105  0.022714805            1 
 2486000   0.84946713   -7.5667621    683.79336  0.022921472  0.022708663            4 
 2487000   0.87372832   -7.5656802     683.7276  0.022910052  0.022702511            8 
 2488000   0.84733713   -7.5646619    682.31199  0.022853429  0.022696368            2 
 2489000   0.85615721   -7.5925413    683.89026  0.022897089  0.022690237            3 
 2490000   0.86415163   -7.5778326    681.35572   0.02280307  0.022684076            2 
 2491000   0.87957247   -7.6011416    682.69246  0.022838634  0.022677926            2 
 2492000   0.84997118   -7.6056731    683.87998  0.022869181  0.022671761            3 
 2493000   0.86563842   -7.5776157    684.56722   0.02288298  0.022665595            2 
 2494000   0.85456136   -7.5525467    683.89596  0.022851375   0.02265948            1 
 2495000   0.84644206   -7.5514305    683.03485  0.022813455  0.022653333            5 
 2496000   0.84912242   -7.5771107    685.21567  0.022877126  0.022647191            1 
 2497000    0.8630542   -7.5649686    685.40304  0.022874217  0.022641069            1 
 2498000   0.84819248   -7.5723795    685.47485  0.022867456  0.022634929            3 
 2499000   0.86018442   -7.5799914    685.81243  0.022869562  0.022628784            4 
 2500000   0.84465167   -7.5773113     684.0387   0.02280129  0.022622603            5 
 2501000   0.87213055   -7.5956315    682.83719  0.022752139  0.022616472            3 
 2502000   0.84875054   -7.5761492    684.88754  0.022811336  0.022610357            4 
 2503000   0.85408662   -7.5510508     687.9058   0.02290271  0.022604249            2 
 2504000    0.8538863   -7.5791601    685.19113  0.022803219  0.022598153            1 
 2505000   0.84281018   -7.5661408    687.09395  0.022857417  0.022592022            3 
 2506000   0.85025265   -7.5840854    686.21919  0.022819207  0.022585919            1 
 2507000   0.85372678   -7.5871034    686.47869  0.022818731  0.022579807            2 
 2508000   0.84159033   -7.5573106    687.21897  0.022834229    0.0225737            4 
 2509000   0.83212764   -7.5732138    686.19129  0.022790995  0.022567632            2 
 2510000   0.87574061   -7.5911679    687.03375  0.022809886  0.022561537            3 
 2511000   0.86666715   -7.5618228    686.51092   0.02278345   0.02255545            1 
 2512000   0.85221656   -7.6109325    685.67368  0.022746606  0.022549335            3 
 2513000   0.84811182   -7.5803401    686.47476  0.022764119  0.022543195            2 
 2514000   0.83437127    -7.582819    686.97775  0.022771737  0.022537103            4 
 2515000   0.84677312   -7.5900478    685.29673  0.022706982  0.022530975            3 
 2516000   0.85730616   -7.5929639    686.45592  0.022736351  0.022524881            1 
 2517000   0.84027233   -7.6059741    685.61706  0.022699545  0.022518755            3 
 2518000   0.84033377   -7.5944839     687.9215  0.022766796  0.022512623            1 
 2519000   0.84857728   -7.5947626    685.82231  0.022688312  0.022506483            2 
 2520000   0.84696489   -7.6003918    686.83859  0.022712916  0.022500364            2 
 2521000   0.84774861   -7.5895677    686.72486  0.022700147  0.022494203            4 
 2522000   0.85000878   -7.5855454     687.4276  0.022714367  0.022488082            1 
 2523000   0.85200649   -7.5727202    686.32753  0.022669029  0.022481943            1 
 2524000   0.84945362   -7.5979687     686.1795  0.022655161    0.0224758            1 
 2525000    0.8521705    -7.619913    685.35637  0.022619022  0.022469635            3 
 2526000   0.84813068   -7.6054563    684.61529  0.022585619  0.022463447            4 
 2527000   0.84313718   -7.5893549    687.79691  0.022681602    0.0224573            2 
 2528000    0.8440907   -7.6053582    689.03595  0.022713474  0.022451149            2 
 2529000   0.83169764   -7.6188203    687.33162  0.022648333  0.022445021            3 
 2530000    0.8530302   -7.5746531    687.33381  0.022639454  0.022438856            3 
 2531000   0.85553318   -7.6014548    687.31979  0.022630047  0.022432686            2 
 2532000   0.84409631   -7.6044008    689.52263  0.022693609  0.022426541            2 
 2533000   0.86958851   -7.5931541     686.5528  0.022586946  0.022420415            3 
 2534000   0.85306782   -7.5521947    688.62644  0.022646226  0.022414298            2 
 2535000   0.85064107   -7.5971562     685.3938  0.022531025  0.022408133            3 
 2536000   0.84831323   -7.6136888    687.18929  0.022581141  0.022401981            3 
 2537000   0.85335102   -7.5727113    688.34301  0.022610137  0.022395826            2 
 2538000   0.84671967   -7.6020803    686.10234  0.022527657  0.022389626            1 
 2539000   0.83766696   -7.5820488    688.09513  0.022584191  0.022383414            1 
 2540000   0.85305251    -7.607422    686.01907  0.022507187  0.022377188            2 
 2541000   0.83837201   -7.6164756    686.60984  0.022517704  0.022370987            4 
 2542000   0.85108732   -7.5828615     687.4415   0.02253611  0.022364786            1 
 2543000   0.85490685   -7.6046862    686.52927  0.022497355  0.022358542            2 
 2544000     0.849482   -7.6010151    687.18752  0.022510074  0.022352293            1 
 2545000   0.82802678   -7.6188018    686.08914  0.022465263  0.022346009            2 
 2546000   0.83681889     -7.59889    687.46012  0.022501313   0.02233974            2 
 2547000   0.85696084   -7.6127026    687.76234  0.022502367  0.022333553            3 
 2548000   0.84635971   -7.6011787    688.31492  0.022511608  0.022327361            2 
 2549000   0.86516267   -7.5948505    688.02406  0.022493267  0.022321196            2 
 2550000   0.84701081   -7.6050432    688.30702  0.022493693   0.02231505            2 
 2551000   0.84540545   -7.5911882    689.52783  0.022524756  0.022308913            2 
 2552000    0.8460264   -7.5984323    690.57281  0.022550053    0.0223028            3 
 2553000   0.83166118   -7.6269971      688.157  0.022462365  0.022296581            3 
 2554000   0.84400383   -7.6180347    688.88965  0.022477475    0.0222904            5 
 2555000   0.84675442   -7.6335722    688.34796   0.02245101  0.022284256            3 
 2556000   0.85829645   -7.6049168    689.13033  0.022467734  0.022278115            5 
 2557000   0.84054219   -7.6011038     689.7426  0.022478901  0.022271926            2 
 2558000   0.83402971   -7.5866115    689.84418  0.022473423    0.0222658            1 
 2559000   0.85068783   -7.6065003    689.08108   0.02243979  0.022259628            2 
 2560000   0.85857349    -7.608892    689.36678  0.022440325  0.022253501            1 
 2561000   0.83706553   -7.6033876    688.68334  0.022409324  0.022247337            2 
 2562000   0.84395624   -7.5743933    690.53458  0.022460792  0.022241194            2 
 2563000    0.8392166   -7.5944119    689.32781  0.022412791   0.02223506            4 
 2564000   0.83430624   -7.6204496    688.12215  0.022364864   0.02222894            2 
 2565000    0.8495343   -7.5905676    690.86968  0.022445409   0.02222285            5 
 2566000   0.86949743   -7.6067149    689.16876  0.022381423  0.022216767            3 
 2567000   0.86221329   -7.6195077    691.59046   0.02245132   0.02221068            3 
 2568000   0.84186338    -7.608818    690.24828  0.022399023  0.022204645            2 
 2569000   0.85957642   -7.5931589    693.53538  0.022496931   0.02219861            3 
 2570000   0.84646962   -7.6353717    689.16322  0.022346408  0.022192516            2 
 2571000   0.83401251    -7.628216    690.96939  0.022396259  0.022186415            2 
 2572000   0.85484564   -7.6275224    690.20605  0.022362819  0.022180299            3 
 2573000   0.85551075   -7.6317864    692.15043  0.022417102  0.022174208            4 
 2574000   0.83028956   -7.6247348    690.44902  0.022353309  0.022168093            3 
 2575000   0.85867324   -7.6268221    690.77047  0.022355031  0.022161999            2 
 2576000   0.84400637   -7.6217871    691.30759  0.022363729  0.022155927            2 
 2577000   0.84924454   -7.6128674    692.35785  0.022389013  0.022149906            2 
 2578000   0.84812677   -7.6068089    691.23347  0.022343984  0.022143849            2 
 2579000   0.84780259   -7.6393407    689.74814  0.022287325  0.022137764            5 
 2580000   0.82759583   -7.5918173    693.02301  0.022384464  0.022131711            2 
 2581000   0.84744467   -7.6124737    691.10116   0.02231374  0.022125734            2 
 2582000   0.85010837   -7.6054731    692.76812  0.022358899  0.022119671            5 
 2583000   0.84908371   -7.6065759    693.28655  0.022366968  0.022113629            2 
 2584000   0.83591491    -7.597061    692.65879  0.022338067   0.02210757            2 
 2585000   0.84759638   -7.6258434    693.57204  0.022358867  0.022101474            5 
 2586000   0.83229009   -7.6164489    692.51544  0.022316172  0.022095407            2 
 2587000   0.86281634   -7.6219679     690.5042  0.022242759  0.022089333            3 
 2588000    0.8327453   -7.6001492     692.5636  0.022300477   0.02208331            1 
 2589000   0.85154632   -7.6062684    692.54126  0.022291144  0.022077273            4 
 2590000   0.81508677   -7.6028659      694.421  0.022343018  0.022071243            5 
 2591000   0.84418211   -7.6198871    692.84536  0.022283718  0.022065157            5 
 2592000   0.86009767   -7.6342914    693.35777  0.022291595  0.022059073            3 
 2593000   0.84086162   -7.6133087     693.7555   0.02229578  0.022053007            3 
 2594000   0.85594369   -7.6354007    691.99769  0.022230715  0.022046981            3 
 2595000   0.84232905   -7.6109457    693.67282  0.022275942  0.022040908            3 
 2596000   0.83302174   -7.6119435    694.23294  0.022285341  0.022034861            2 
 2597000   0.81247593   -7.5828108    693.89674  0.022265972  0.022028817            3 
 2598000    0.8510143   -7.5942461     695.5078  0.022309078  0.022022781            4 
 2599000   0.83585769   -7.6376216    693.50927  0.022236414  0.022016776            5 
 2600000   0.84204746   -7.6304583    694.42859  0.022257327  0.022010707            2 
 2601000   0.83904453   -7.6269628    695.19435  0.022273304  0.022004667            2 
 2602000   0.85311087   -7.6286797    695.35362  0.022269844  0.021998662            1 
 2603000   0.84002405    -7.599278    694.02724  0.022218826  0.021992622            4 
 2604000   0.84202564   -7.6216339      693.647  0.022198125   0.02198655            4 
 2605000   0.82829983   -7.6584417    693.71785   0.02219187  0.021980448            4 
 2606000   0.83663739   -7.6060797    693.68107  0.022182178  0.021974353            2 
 2607000   0.82548807   -7.6071945    693.63518  0.022172202  0.021968302            2 
 2608000    0.8469202    -7.638102    692.47051  0.022126486  0.021962236            3 
 2609000   0.81438818   -7.6212577    695.07336  0.022201142  0.021956151            2 
 2610000   0.85284322   -7.6517169    692.81582  0.022120556  0.021950086            6 
 2611000   0.84019606   -7.6511667    694.49285  0.022165609  0.021943972            1 
 2612000   0.82866504   -7.5997137    695.44388  0.022187464  0.021937876            1 
 2613000   0.84687221   -7.6149357     694.8473  0.022159947  0.021931805            2 
 2614000   0.84555932   -7.6172922    695.03533  0.022157464  0.021925733            4 
 2615000   0.83144153   -7.5934814     694.0167   0.02211653  0.021919668            2 
 2616000   0.82378367   -7.6054372    694.74252  0.022131197  0.021913646            4 
 2617000   0.83589266   -7.6008655    695.15833   0.02213598  0.021907564            5 
 2618000   0.83125356   -7.5991581    695.65418  0.022143308  0.021901486            2 
 2619000   0.82829433    -7.621819    695.76983  0.022138534  0.021895418            2 
 2620000   0.82330569   -7.6277284    696.83653  0.022164012  0.021889363            3 
 2621000   0.84463559   -7.6106648    695.91153  0.022126145  0.021883299            2 
 2622000   0.84685895   -7.6404351    694.82121  0.022083054  0.021877228            3 
 2623000    0.8453293   -7.6354591    695.27196  0.022088956  0.021871144            3 
 2624000   0.84295973   -7.6569389    695.13766  0.022076272  0.021865046            1 
 2625000   0.83188338   -7.6449196    695.71021  0.022086038  0.021858954            9 
 2626000   0.83355035    -7.632239    695.29328  0.022064397  0.021852877            2 
 2627000   0.83138366   -7.6018579    696.37917  0.022090444   0.02184683            3 
 2628000   0.80864804   -7.6126133    697.06056  0.022103645  0.021840808            1 
 2629000   0.80884391   -7.5882312    696.89704  0.022090054  0.021834789            3 
 2630000   0.82116807   -7.6359563    696.62713  0.022073103  0.021828765            2 
 2631000   0.82953916   -7.5964724    696.50323  0.022060789  0.021822751            4 
 2632000   0.81088817   -7.5976891    695.33351  0.022015372   0.02181673            3 
 2633000   0.84096161   -7.5936333    697.54411  0.022076975  0.021810666            3 
 2634000   0.83712591   -7.6277772    697.83139  0.022077683  0.021804652            5 
 2635000   0.80731546   -7.6202996    697.17859  0.022048659  0.021798621            5 
 2636000   0.82293662   -7.6321508    696.19629   0.02200924  0.021792589            7 
 2637000    0.8352616    -7.658405    695.06092  0.021965014  0.021786519            6 
 2638000   0.81987769   -7.6552866    696.54918  0.022003702   0.02178044            3 
 2639000    0.8458839   -7.6351704    696.95455  0.022008164  0.021774357            2 
 2640000   0.83185627   -7.6386242    696.65091  0.021990243   0.02176826            3 
 2641000   0.82844037   -7.6279178    696.09758  0.021964457  0.021762162            3 
 2642000   0.81414842   -7.6373409    695.04151  0.021922834  0.021756124            3 
 2643000   0.83811682   -7.5985329    698.37124  0.022019525  0.021750085            1 
 2644000   0.81754021   -7.5970596    696.81747  0.021962225  0.021744034            2 
 2645000   0.81995167   -7.6082294    695.40883  0.021909541  0.021737957            3 
 2646000   0.84475261   -7.6152822    696.19321  0.021925964  0.021731867            3 
 2647000   0.85418002   -7.6276745    698.10553  0.021977885  0.021725764            2 
 2648000   0.84550547   -7.6110097    697.44086  0.021948668  0.021719689            2 
 2649000   0.81033448   -7.6343656    697.03203  0.021927521  0.021713601            5 
 2650000   0.81209763   -7.6458103    697.18842  0.021924164   0.02170749            6 
 2651000   0.81222571   -7.6286583    695.29878  0.021856494  0.021701363            2 
 2652000   0.81163573   -7.6291902     697.6318  0.021921562   0.02169529            1 
 2653000    0.8105437    -7.656668    698.51499  0.021941041  0.021689225            3 
 2654000   0.83474083   -7.6466002    698.39904  0.021929133  0.021683139            4 
 2655000   0.83559372   -7.6467058    697.35744  0.021888181  0.021677079            2 
 2656000    0.8183088   -7.6626735    699.93268  0.021960739  0.021671017            5 
 2657000    0.8237452   -7.6558676    697.14808  0.021865139  0.021664952            4 
 2658000   0.83487411   -7.6566532    698.22921  0.021890808  0.021658838            2 
 2659000   0.80629297   -7.6194521    697.10367  0.021847301   0.02165274            1 
 2660000   0.82040957   -7.6386968    696.85709  0.021831362  0.021646636            2 
 2661000   0.83606141   -7.6227326    700.08487  0.021924241  0.021640588            2 
 2662000   0.80385952   -7.6598033    697.37147  0.021831063  0.021634535            3 
 2663000   0.82134098   -7.6659719    696.46184    0.0217944  0.021628463            2 
 2664000   0.83132172   -7.6335079    698.93698  0.021863644  0.021622402            2 
 2665000   0.83521575   -7.6440869    699.17859  0.021862995  0.021616348            2 
 2666000   0.83056614   -7.6329976    699.91911  0.021877942  0.021610306            3 
 2667000    0.8064066   -7.6333149    699.85833  0.021867839  0.021604324            5 
 2668000   0.81746886   -7.6677326    698.89138  0.021829441  0.021598294            4 
 2669000   0.83055619   -7.6828232    698.98694  0.021824246  0.021592235            5 
 2670000   0.83338307   -7.6589896    698.18958  0.021791185  0.021586175            5 
 2671000   0.82112145   -7.6668267    698.32472  0.021787243  0.021580119            2 
 2672000   0.81889223   -7.6266023    697.98878  0.021768612  0.021574029            4 
 2673000   0.81727473   -7.6598953    699.18374  0.021797722  0.021567928            2 
 2674000   0.83122694   -7.6359632    700.08121   0.02181754  0.021561849            4 
 2675000   0.84556895   -7.6705356    698.77363  0.021768649  0.021555772            2 
 2676000    0.7955306   -7.6802291     698.7905  0.021761039  0.021549665            4 
 2677000    0.7992319   -7.6880486     698.4918  0.021743612  0.021543557            2 
 2678000   0.83946289    -7.695184    697.87508  0.021716302  0.021537417            3 
 2679000   0.82150621   -7.6697643    698.56478   0.02172965  0.021531271            1 
 2680000   0.82804151    -7.654327    699.02041  0.021735709  0.021525148            2 
 2681000   0.81795109   -7.6524139    700.79002  0.021782606  0.021519059            3 
 2682000   0.82400757   -7.6463015    699.84054  0.021744983  0.021512992            3 
 2683000   0.83887844   -7.6332127    699.12001  0.021714499  0.021506963            8 
 2684000   0.83440338   -7.6568083     699.0519  0.021704294  0.021500893            3 
 2685000   0.82819953   -7.6611028    698.36633  0.021674933  0.021494825            2 
 2686000   0.82974186   -7.6551884    700.03344  0.021718585  0.021488767            2 
 2687000   0.82339075   -7.6739804    698.85938  0.021674091  0.021482715            3 
 2688000   0.82249024    -7.680039    699.13392  0.021674539  0.021476638            3 
 2689000   0.81231819   -7.6603137    699.78052  0.021686517  0.021470569            2 
 2690000   0.80703277   -7.6598399    700.69627  0.021706824  0.021464512            2 
 2691000   0.79163096    -7.668829    699.76377   0.02166988  0.021458457            3 
 2692000    0.8300996   -7.6237765    700.62808  0.021688586  0.021452395            2 
 2693000   0.80880889   -7.6608449    702.85191  0.021749347  0.021446399            2 
 2694000   0.81145765   -7.6340194    700.41679  0.021665949  0.021440374            3 
 2695000   0.83349714   -7.6187533    703.28294  0.021746535  0.021434364            1 
 2696000     0.826279   -7.6490113    701.51251  0.021683745  0.021428366            3 
 2697000   0.82171493   -7.6678423    700.15165  0.021633656  0.021422357            3 
 2698000   0.80991311   -7.6531372     702.9691  0.021712661  0.021416331            6 
 2699000   0.82725861   -7.6416616    701.68266  0.021664896   0.02141033            2 
 2700000   0.81379472   -7.6486119    701.40606  0.021648335  0.021404342            2 
 2701000   0.81890988   -7.6402301    701.36871  0.021639168  0.021398338            2 
 2702000   0.81633911    -7.648483    701.21289  0.021626354  0.021392322            2 
 2703000   0.81652673   -7.6425568    700.82722  0.021606463  0.021386334            8 
 2704000   0.81470479   -7.6680023    701.02078  0.021604437  0.021380337            2 
 2705000    0.8101833   -7.6447356    701.70486  0.021617525   0.02137434            5 
 2706000    0.8155257   -7.6431707    703.21308  0.021655983  0.021368356            2 
 2707000   0.82605508   -7.6364462    703.26105   0.02164946  0.021362422            1 
 2708000    0.8295837   -7.6132605    704.66379  0.021684632  0.021356493            3 
 2709000    0.8100532   -7.6410968    703.51495  0.021641287  0.021350588            5 
 2710000   0.80489241   -7.6373764    704.30393  0.021657562  0.021344662            3 
 2711000   0.81549598   -7.6670997    702.83897  0.021604542   0.02133875            3 
 2712000   0.81785418   -7.6501286    702.86944  0.021597512  0.021332817            2 
 2713000    0.8241485   -7.6729575    702.96198  0.021592394  0.021326906            3 
 2714000   0.81832599   -7.6477052    701.57702  0.021541913  0.021320978            2 
 2715000   0.81447507   -7.6724254    704.55429  0.021625362  0.021315052            2 
 2716000    0.8084438   -7.6735943    703.81779  0.021594802  0.021309073            3 
 2717000   0.81908311   -7.6453998    706.70928  0.021675539  0.021303172            2 
 2718000   0.83632371   -7.6466537    705.19477   0.02162113  0.021297302            3 
 2719000    0.8133459   -7.6618325    705.64952  0.021627116  0.021291404            3 
 2720000   0.81242158   -7.6715732    703.11806  0.021541607  0.021285512            2 
 2721000   0.82676689   -7.6863015    704.45557  0.021574653   0.02127963            4 
 2722000   0.83641864   -7.6592676    703.84413  0.021548008  0.021273741            8 
 2723000   0.83560375   -7.6818619    705.05519  0.021577157  0.021267855            2 
 2724000   0.79249598   -7.7024927     705.5273  0.021583679  0.021261976            2 
 2725000    0.8154883   -7.7010765    704.74478  0.021551828   0.02125609            2 
 2726000   0.80800121   -7.7024812    704.76129  0.021544427  0.021250183            5 
 2727000    0.8211427   -7.6773551    704.77549   0.02153696  0.021244298            3 
 2728000    0.8100715   -7.6623506    706.03125  0.021567426  0.021238454            2 
 2729000   0.81512801   -7.6595136    706.17553  0.021563929   0.02123264            5 
 2730000   0.80854317    -7.680113    705.40953  0.021532648  0.021226858            5 
 2731000   0.82028581   -7.6890486    706.38373   0.02155449  0.021221022            2 
 2732000   0.81320226    -7.659116    707.95166  0.021594426  0.021215204            6 
 2733000   0.82746693   -7.6448756    708.75018  0.021610873  0.021209413            2 
 2734000   0.81817129   -7.6577155    707.41415  0.021562246   0.02120365            4 
 2735000   0.81057329    -7.665009    707.15029  0.021546322  0.021197873            4 
 2736000   0.82515285   -7.6519384    706.43953  0.021516798    0.0211921            1 
 2737000   0.79701497   -7.6631825    707.59623  0.021544155  0.021186335            4 
 2738000   0.80887204   -7.6557557     706.2088  0.021494059  0.021180563            3 
 2739000   0.81977768   -7.6670088    707.68389  0.021531091   0.02117478            2 
 2740000   0.81853328    -7.666722    705.98629  0.021471603  0.021168999            2 
 2741000    0.8352737   -7.6931547    706.43562   0.02147743  0.021163231            3 
 2742000   0.81516668   -7.6721699    708.50725  0.021532557  0.021157477            2 
 2743000   0.80111557   -7.6870103    707.52115  0.021494749  0.021151716            3 
 2744000   0.81868746   -7.6898035    706.01515  0.021441179  0.021145955            1 
 2745000    0.8223215   -7.6821482    708.83274  0.021518905  0.021140173            2 
 2746000    0.8188639   -7.6700625    708.82916   0.02151096  0.021134405            3 
 2747000   0.82031954    -7.684156    708.54121  0.021494394  0.021128652            5 
 2748000     0.812944   -7.6601276    707.24911  0.021447389  0.021122887            2 
 2749000   0.82528783   -7.6916952    708.29538  0.021471304  0.021117111            3 
 2750000   0.81214638   -7.6640154     708.4798  0.021469085  0.021111352            1 
 2751000   0.80484342   -7.6748336    709.49216  0.021491947  0.021105578            3 
 2752000   0.80053937    -7.675528    710.01399  0.021499939  0.021099817            3 
 2753000   0.81808815   -7.6862038    709.49323  0.021476366  0.021094096            3 
 2754000   0.79559417   -7.6765626    708.08557  0.021425973  0.021088333            1 
 2755000   0.81086913   -7.6802676    710.44735  0.021489635   0.02108263            3 
 2756000   0.79219962    -7.688588    708.66096  0.021427823  0.021076881            7 
 2757000   0.83528228    -7.690963    710.71297  0.021482075  0.021071196            3 
 2758000   0.82021558   -7.6824971    709.36078   0.02143343   0.02106549            5 
 2759000   0.80868673   -7.6944347    708.51955  0.021400252  0.021059745            3 
 2760000   0.81898495   -7.6768112     709.7643  0.021430082  0.021054008            2 
 2761000   0.80727593   -7.6765157    708.36339  0.021380037  0.021048261            3 
 2762000   0.80879454   -7.6805365    709.10228   0.02139459  0.021042531            3 
 2763000   0.79573734   -7.6746758    711.11386  0.021447517  0.021036784            3 
 2764000    0.8234365   -7.6944555    709.04937  0.021377514  0.021031061            3 
 2765000   0.80619873   -7.6920703     709.7587   0.02139116  0.021025284            2 
 2766000   0.81868574    -7.659062    710.83438  0.021415835  0.021019559            3 
 2767000   0.80713973   -7.7079989    707.55274  0.021309262  0.021013815            1 
 2768000   0.82289128   -7.6774688    710.85732  0.021401051  0.021008093            2 
 2769000   0.80575816   -7.6930126    709.36684  0.021348466  0.021002399            4 
 2770000   0.79715963   -7.6758024    709.82447  0.021354527   0.02099664            3 
 2771000   0.80617551   -7.7050053    711.33168  0.021392147  0.020990916            1 
 2772000   0.82686704   -7.6753811    711.43136  0.021387427  0.020985195            5 
 2773000    0.7966206   -7.7142621    709.35095  0.021317194  0.020979432            3 
 2774000   0.79466447   -7.6924396    709.78592  0.021322576  0.020973681            6 
 2775000   0.79457096   -7.6999645    710.36016  0.021332137  0.020967915            4 
 2776000   0.79406418   -7.6922122    710.36895  0.021324716  0.020962151            2 
 2777000   0.80800208   -7.6992375    709.10475  0.021279101  0.020956355            2 
 2778000    0.7995968    -7.707648     709.9935  0.021298101  0.020950589            4 
 2779000   0.79335362   -7.7022673    708.50368  0.021245762  0.020944821            4 
 2780000   0.79549038    -7.682835    710.11557  0.021286438  0.020939032            2 
 2781000    0.8007627   -7.6953706     709.9427  0.021273604  0.020933205            5 
 2782000   0.80354357   -7.6990239    709.77172  0.021260835  0.020927401            2 
 2783000   0.81379119    -7.678885     710.3024  0.021269086  0.020921627            3 
 2784000   0.79623822   -7.7404336     708.8272  0.021217289  0.020915835            2 
 2785000   0.77576747   -7.6770652    710.76324  0.021267601  0.020910022            1 
 2786000   0.79958295   -7.6799676     711.0902  0.021269747  0.020904229            3 
 2787000   0.80205159   -7.6916102    710.28497  0.021238039  0.020898416            4 
 2788000    0.8000638   -7.6906835    708.77936  0.021185418  0.020892558            3 
 2789000   0.79782267   -7.6937117    710.24758  0.021221692   0.02088674            2 
 2790000   0.83350688   -7.7015794    709.39226  0.021188538  0.020880926            2 
 2791000   0.79108313   -7.6721763    711.99514  0.021258663  0.020875126            4 
 2792000    0.8012762   -7.6803554    709.16083  0.021166453  0.020869339            2 
 2793000   0.81912195   -7.6883629    709.29489  0.021162874  0.020863528            2 
 2794000   0.80897586   -7.7064341    710.96207  0.021205025  0.020857724            3 
 2795000   0.81361112   -7.7003232    710.21074  0.021175037  0.020851919            3 
 2796000   0.80876701   -7.7064335    710.18299  0.021166637  0.020846107            2 
 2797000   0.82630221   -7.6751989    710.24377   0.02116088  0.020840298            6 
 2798000   0.81479802    -7.693265    710.55754  0.021162662  0.020834492            4 
 2799000   0.82281235   -7.6749273    709.11018   0.02111201  0.020828655            2 
 2800000   0.79677348   -7.7087423    709.86649  0.021126979   0.02082285            5 
 2801000    0.7827594   -7.6688651    709.81358  0.021117862  0.020817033            1 
 2802000   0.80166523   -7.6920042    711.45304  0.021159084   0.02081125            2 
 2803000    0.8019106   -7.6976833    710.67418   0.02112838  0.020805453            2 
 2804000   0.79790945   -7.7224332    710.08402  0.021103305  0.020799605            2 
 2805000   0.81403409   -7.6914675    709.70924  0.021084648  0.020793809            6 
 2806000   0.80089198   -7.7060923    711.17487   0.02112066  0.020787978            2 
 2807000   0.79808739   -7.6932328    710.25825  0.021085924  0.020782167            4 
 2808000   0.78547725   -7.7050797    709.67044   0.02106097   0.02077635            2 
 2809000   0.80934286   -7.7179301    711.37945  0.021104173  0.020770544            2 
 2810000   0.78987123    -7.688583    710.41719  0.021068125   0.02076476            7 
 2811000   0.81394534   -7.7039624    711.95663  0.021106268  0.020758963            3 
 2812000   0.80689736   -7.6915349     712.1993  0.021105954  0.020753218            3 
 2813000   0.78950251   -7.6973524    714.05869  0.021153534  0.020747433            7 
 2814000   0.79793879   -7.6984902    711.91757   0.02108261  0.020741625            2 
 2815000   0.80420803   -7.6873898    711.77872   0.02107101  0.020735812            2 
 2816000   0.79593532   -7.7228109    711.25286  0.021047966   0.02072998            4 
 2817000   0.79296906   -7.6788572    710.95313  0.021031627  0.020724167            1 
 2818000   0.79740807   -7.7230008    711.57714  0.021042617  0.020718325            4 
 2819000    0.7894993   -7.7125159    712.28724  0.021056144  0.020712521            3 
 2820000    0.8039519   -7.7255083    710.71069  0.021002089  0.020706684            2 
 2821000   0.78379955    -7.731688     711.8239  0.021027529  0.020700857            2 
 2822000   0.79284093    -7.706765    712.65273  0.021044553  0.020695066            2 
 2823000   0.80161111   -7.6723024    712.68604  0.021038081  0.020689307            3 
 2824000    0.7987579   -7.7106306    711.76713  0.021003515  0.020683554            6 
 2825000   0.78543095   -7.6949969     712.0935  0.021005708  0.020677819           10 
 2826000   0.81004159   -7.6933618     714.4421  0.021067531  0.020672082            2 
 2827000    0.8094909   -7.6993274    713.61964  0.021035834  0.020666317            3 
 2828000   0.80355523   -7.6913334     712.6777  0.021000639  0.020660538            4 
 2829000   0.79314273   -7.7025169    712.81709  0.020997322  0.020654799            5 
 2830000   0.80990241   -7.6924263    712.91962  0.020992922   0.02064904            1 
 2831000   0.77853049   -7.6874288    714.21133  0.021023529  0.020643315            3 
 2832000   0.80875555   -7.6732852    713.11502  0.020983846  0.020637592            3 
 2833000   0.82721254   -7.6775178    713.13494  0.020977025  0.020631883            3 
 2834000   0.80406932   -7.6867434    712.50785  0.020951184  0.020626145            4 
 2835000   0.79648931   -7.6867399    713.48022  0.020972376  0.020620391            2 
 2836000    0.7986416   -7.7303549    712.82738  0.020945797  0.020614629            4 
 2837000   0.79144453   -7.7124451    713.71182  0.020964394  0.020608895            6 
 2838000   0.79785958   -7.6994167    714.96766  0.020993883  0.020603134            2 
 2839000   0.79963486   -7.7113563     713.5632  0.020945263  0.020597394            2 
 2840000   0.78730947   -7.6761776    715.86796  0.021005515  0.020591657            3 
 2841000   0.79804358   -7.7062312    713.52295  0.020929337  0.020585912            3 
 2842000   0.79927611   -7.6887198    713.51793  0.020921825  0.020580204            3 
 2843000   0.79233405   -7.6977886    712.88427  0.020895893  0.020574477            3 
 2844000   0.78975173   -7.7285318    712.60174  0.020880267  0.020568702            3 
 2845000   0.78492254   -7.6970172    714.18377  0.020919267  0.020562932            2 
 2846000   0.78978528   -7.7145634    716.39667  0.020976712  0.020557158            4 
 2847000   0.78295418   -7.7228194    715.21057  0.020934626  0.020551391            2 
 2848000   0.81643105   -7.7260108    713.74619  0.020884427  0.020545629            4 
 2849000   0.80673672   -7.7279652     712.9881  0.020854923  0.020539881            2 
 2850000   0.80277781   -7.7195093    714.46094  0.020890671  0.020534116            6 
 2851000   0.80240654   -7.7506053    713.22566  0.020847237  0.020528384            5 
 2852000    0.8065664    -7.700316    715.38246  0.020902947  0.020522657            3 
 2853000   0.78593401   -7.7065132    715.99768   0.02091359   0.02051694            3 
 2854000   0.79272991   -7.7467765    713.61699  0.020836749  0.020511173            3 
 2855000   0.80044027   -7.7126319    714.64598  0.020859486  0.020505403            2 
 2856000   0.80496819   -7.7130882    714.70363  0.020853864  0.020499654            4 
 2857000   0.80914803   -7.7264206     714.4548  0.020839307  0.020493932            7 
 2858000   0.78033429    -7.677335    715.51998  0.020863074  0.020488212            2 
 2859000   0.78281608    -7.723218    715.15247  0.020845065  0.020482484            2 
 2860000   0.78455601   -7.7013451    715.58008  0.020850235  0.020476766            1 
 2861000   0.81339976   -7.6943342    715.46448   0.02083958  0.020471042            1 
 2862000   0.80025242   -7.6980474    714.96989  0.020817898  0.020465354            3 
 2863000   0.79154569   -7.7073384    715.74795  0.020833274  0.020459665            4 
 2864000   0.79779091   -7.7088176    713.86768   0.02077129  0.020453971            1 
 2865000   0.80358223   -7.7216272    715.76336  0.020819178   0.02044829            3 
 2866000   0.81999095   -7.7311497    716.40275  0.020830506  0.020442637            1 
 2867000   0.79119419   -7.7570989    716.04454  0.020812828   0.02043692            2 
 2868000   0.79119796   -7.7939839    714.24904  0.020753401  0.020431155            4 
 2869000   0.77896147   -7.7494601    716.55862  0.020813252  0.020425377            2 
 2870000   0.78515915   -7.7133264    716.18813  0.020795242  0.020419667            3 
 2871000   0.80605977   -7.7279973    715.35239   0.02076374  0.020413928            4 
 2872000   0.80501956   -7.7361607    718.01525  0.020833776  0.020408189            3 
 2873000   0.79888707   -7.7308635     715.0715  0.020741139  0.020402436            2 
 2874000   0.79531832   -7.7125902    715.52471  0.020747063  0.020396681            4 
 2875000   0.79746813   -7.7440943    716.24937  0.020760851  0.020390989            8 
 2876000   0.78514014   -7.7547666    716.48911  0.020760579  0.020385264            4 
 2877000   0.79345204   -7.7005756    716.72999   0.02076034  0.020379609            4 
 2878000   0.79257872   -7.6946057    719.02286  0.020819518  0.020373919            2 
 2879000   0.79065771   -7.7196235    716.23779  0.020731672  0.020368223            5 
 2880000   0.77201146    -7.701706    716.40908  0.020729429   0.02036254            2 
 2881000   0.79501377   -7.7058067     717.0829  0.020741725  0.020356891            6 
 2882000   0.78914527   -7.7061989    719.51381  0.020804818  0.020351234            2 
 2883000   0.80258983   -7.7124182    718.59222  0.020770963  0.020345585            2 
 2884000   0.76948431   -7.7089267    718.81073  0.020770074  0.020339918            3 
 2885000   0.79761329   -7.7226829    718.34117  0.020749312  0.020334256            3 
 2886000   0.78639067   -7.7177975    717.74106  0.020724794   0.02032858            2 
 2887000   0.78965118    -7.757042    715.64116  0.020657001  0.020322915            1 
 2888000   0.79096536   -7.7354481    717.77866  0.020711527   0.02031726            3 
 2889000   0.77630045    -7.733146    718.23722  0.020717585  0.020311629            3 
 2890000   0.78643813   -7.7516226    715.50759  0.020631707  0.020305972            2 
 2891000   0.78538441   -7.7475629    717.28885  0.020675915  0.020300305            2 
 2892000   0.77844852   -7.7507876    718.24967  0.020696452  0.020294626            2 
 2893000   0.80358457   -7.7412661     718.7704  0.020704298  0.020288948            4 
 2894000   0.78357522   -7.7338887    719.07107  0.020705801    0.0202833            2 
 2895000   0.77724825   -7.7401207    718.95668  0.020695356  0.020277668            6 
 2896000   0.78970008   -7.7404093    717.42234  0.020644059  0.020272056            4 
 2897000   0.78460625   -7.7017248     720.9767  0.020739176  0.020266459            1 
 2898000   0.80800656   -7.7621417    717.69138  0.020637548  0.020260841            4 
 2899000    0.7842383   -7.7576944    719.28259   0.02067617  0.020255171            2 
 2900000   0.80095806   -7.7225088    717.30636  0.020612252  0.020249506            4 
 2901000    0.7925217   -7.7370117    718.48446  0.020638988  0.020243823            4 
 2902000   0.78414872    -7.752917    717.28696  0.020597489  0.020238159            4 
 2903000   0.80518357    -7.749962    718.34017  0.020620627    0.0202325            4 
 2904000   0.78655903   -7.7485353    718.53442  0.020619101  0.020226839            4 
 2905000   0.79491155   -7.7468708    718.28735  0.020604915  0.020221194            3 
 2906000   0.78615443   -7.7337293    718.38494  0.020600623  0.020215564            1 
 2907000   0.77439037   -7.7413968    717.27806  0.020561807  0.020209911            2 
 2908000   0.78953654    -7.737034    717.87367  0.020571804  0.020204233            1 
 2909000   0.79722424   -7.7189697    718.34824  0.020578327  0.020198566            3 
 2910000   0.78535545   -7.7591969    718.05405  0.020562831  0.020192893            2 
 2911000   0.77356273   -7.7525097    719.63078  0.020600904  0.020187236            3 
 2912000   0.79856931   -7.7468774    719.32041  0.020584947  0.020181551            2 
 2913000    0.7834358   -7.7425248    719.17568  0.020573741  0.020175859            2 
 2914000   0.79095305   -7.7545383    718.74889  0.020554475  0.020170184            3 
 2915000   0.79376424   -7.7356595     720.0492  0.020584597  0.020164521            4 
 2916000   0.78692537   -7.7351089    720.28548   0.02058429  0.020158904            2 
 2917000   0.79579684   -7.7302691    720.43349  0.020581462  0.020153294            2 
 2918000   0.77249034   -7.7800636    719.49199  0.020547521  0.020147678            4 
 2919000   0.79262334   -7.7133266    720.43927  0.020567525  0.020142041            4 
 2920000   0.77094715   -7.7303285    720.35085  0.020557958  0.020136429            3 
 2921000   0.79063956   -7.7229883    719.66578  0.020531376  0.020130803            2 
 2922000   0.76301402    -7.698673    720.39337    0.0205451  0.020125182            4 
 2923000   0.78050494    -7.736577    720.85767  0.020551308  0.020119523            2 
 2924000   0.78742528   -7.7614373     719.2928  0.020499681  0.020113878            2 
 2925000   0.78850578    -7.736819    719.65531     0.020503  0.020108255            6 
 2926000   0.78432655   -7.7516135    719.72807  0.020498065  0.020102633            4 
 2927000   0.78179943   -7.7198249    719.47552  0.020483872  0.020097028            4 
 2928000   0.77215678   -7.6762864    722.46133  0.020561855   0.02009143            1 
 2929000   0.77231544   -7.7228246    721.82655  0.020536774  0.020085874            3 
 2930000   0.78698253   -7.7563621    720.76369  0.020499536  0.020080292            5 
 2931000    0.7798909   -7.7300386    721.40663  0.020510822  0.020074714            1 
 2932000   0.77931529   -7.7474943    720.45121  0.020476672   0.02006911            2 
 2933000   0.79286578   -7.7738819    720.59752  0.020473847  0.020063509            2 
 2934000   0.78251945   -7.7402245    721.62027  0.020495918  0.020057926            3 
 2935000   0.78735166    -7.786584    720.49428  0.020456964  0.020052346            6 
 2936000   0.77881877    -7.764329    719.75007  0.020428874  0.020046761            4 
 2937000   0.77335792   -7.7671034    721.98952  0.020485459  0.020041148            3 
 2938000   0.77586712   -7.7374662    722.03937  0.020479901  0.020035556            3 
 2939000   0.79885542   -7.7546806    721.20103  0.020449162  0.020029995            2 
 2940000   0.79179585   -7.7596825    721.30301  0.020445097  0.020024442            2 
 2941000   0.78848342   -7.7754482    719.87275  0.020397618  0.020018881            3 
 2942000   0.78470631   -7.7480281    721.61388  0.020440003  0.020013296            3 
 2943000   0.78098852   -7.7833539    721.02173  0.020416291  0.020007673            3 
 2944000   0.78042974    -7.751466    721.53238   0.02042381  0.020002039            4 
 2945000   0.77957926   -7.7531067    720.82109  0.020396748  0.019996429            3 
 2946000   0.77735763   -7.7543771    720.53842  0.020381829  0.019990835            2 
 2947000   0.77658826   -7.7580722    719.16534  0.020336086  0.019985237            2 
 2948000   0.77409694    -7.747683    722.35289  0.020419293  0.019979627            2 
 2949000   0.78309861   -7.7402753    721.88179  0.020399056  0.019974034            5 
 2950000   0.78392265   -7.7612172    721.84896  0.020391213  0.019968481            3 
 2951000   0.77947349   -7.7785969    721.18774  0.020365631  0.019962938            4 
 2952000   0.78897117   -7.7681786    721.86764  0.020377926  0.019957389            3 
 2953000   0.78948919   -7.7461243    721.62022  0.020364043  0.019951816            2 
 2954000   0.77377618   -7.7348767    722.26622  0.020375373  0.019946241            6 
 2955000   0.78138925   -7.7486514    722.04749  0.020362309   0.01994065            2 
 2956000    0.7982798   -7.7611513    723.23275  0.020388835  0.019935065            5 
 2957000   0.78404792   -7.7487324    721.61393  0.020336319  0.019929478            2 
 2958000    0.7695252   -7.7441387    720.99034  0.020311876  0.019923865            3 
 2959000   0.78461852   -7.7665621    721.79715  0.020327733  0.019918239            3 
 2960000   0.78562529   -7.7347456    721.32398  0.020307544  0.019912661            3 
 2961000   0.78135591   -7.7435465    722.70742  0.020339621  0.019907074            7 
 2962000    0.7779111   -7.7517557     721.5096  0.020299055  0.019901462            2 
 2963000   0.78452656   -7.7720037    721.69553  0.020297433   0.01989585            7 
 2964000   0.77702431    -7.736987    721.03317  0.020271963  0.019890221            3 
 2965000   0.77568622   -7.7912863    721.56308  0.020280019  0.019884575            1 
 2966000    0.7684578   -7.7571365    720.89198  0.020254326  0.019878937            2 
 2967000    0.7825845   -7.7653811    724.04882  0.020336165  0.019873304            3 
 2968000    0.7632482   -7.7773007    720.90529  0.020241051  0.019867663            2 
 2969000   0.78526109   -7.8139864    721.65163  0.020255182  0.019862028            4 
 2970000   0.77025608   -7.7445926    721.29989  0.020238493  0.019856377            3 
 2971000   0.77844012   -7.7619027    721.63061  0.020240957  0.019850747            3 
 2972000   0.78494607   -7.7431515    721.84757   0.02024023  0.019845137            3 
 2973000    0.7656001   -7.7399261     723.0784  0.020267922   0.01983953            2 
 2974000   0.77914632   -7.7688224     722.3298  0.020240131  0.019833926            6 
 2975000   0.77025469   -7.7350615    722.93638  0.020250319  0.019828318            3 
 2976000   0.80350338    -7.772149    721.84355  0.020212913  0.019822686            4 
 2977000   0.78023948   -7.7380813      721.334   0.02019186  0.019817063            2 
 2978000    0.7873068   -7.7410229    723.14359  0.020235717  0.019811446            3 
 2979000   0.76454587   -7.7382255     722.9837  0.020224452  0.019805847            3 
 2980000   0.75298954   -7.7461118     723.0074  0.020218328  0.019800242            2 
 2981000   0.76061533   -7.7703267     721.9818  0.020182875  0.019794665            2 
 2982000   0.77976779   -7.7641658    722.75714  0.020197774  0.019789065            4 
 2983000   0.75813129    -7.782378    721.76746  0.020163355  0.019783463            4 
 2984000   0.77816795   -7.7630991    722.82004  0.020185993  0.019777883            4 
 2985000   0.76913509   -7.7892344     722.9564  0.020183038  0.019772303            3 
 2986000   0.75300177   -7.7570004    724.06676  0.020207266  0.019766728            3 
 2987000   0.77319956   -7.7597917    723.91021  0.020196134  0.019761141            1 
 2988000   0.77855573   -7.7372913    725.61575  0.020236941  0.019755584            1 
 2989000   0.77298769   -7.7607038    722.26687  0.020136803  0.019750026            7 
 2990000   0.77549655    -7.751518    723.65289  0.020168698  0.019744458            4 
 2991000   0.78338765   -7.7488638    722.26266  0.020123221  0.019738876            5 
 2992000   0.78210717   -7.7582333    723.84521  0.020160573  0.019733306            4 
 2993000   0.76690444   -7.7634764    723.87995  0.020154804  0.019727721            7 
 2994000   0.78181072   -7.7749395    723.19637  0.020129046  0.019722132            2 
 2995000   0.76707574   -7.7735296    723.18119  0.020121903  0.019716556            4 
 2996000    0.7643882   -7.7857143    722.29233  0.020090463  0.019710953            3 
 2997000   0.78259224   -7.7758169    723.69551  0.020122776  0.019705362            2 
 2998000   0.76835065   -7.7533466    723.99478  0.020124382  0.019699738            5 
 2999000   0.77137326   -7.7758678    723.00082  0.020090053  0.019694131            4 
 3000000   0.79542661   -7.7731769    723.66289  0.020101747  0.019688536            2 
 3001000   0.78110052   -7.7671528    723.07824  0.020078814  0.019682968            2 
 3002000   0.77600423   -7.7672225    724.37217  0.020108044  0.019677387            1 
 3003000   0.80157702   -7.7562228    725.34511  0.020128347  0.019671812            1 
 3004000   0.76558842   -7.7492835    722.36096  0.020038864  0.019666252            3 
 3005000    0.7744379   -7.7715282    723.17365  0.020054732  0.019660651            3 
 3006000   0.78731872   -7.7741524    723.03572  0.020044237  0.019655065            2 
 3007000   0.74855171    -7.787808    723.72738  0.020056739  0.019649476            4 
 3008000     0.775781   -7.7909128    723.32842  0.020039019  0.019643844            1 
 3009000   0.78580241    -7.777813    724.07132  0.020052933  0.019638229            3 
 3010000    0.7663362    -7.795397    723.73159  0.020036866  0.019632641            2 
 3011000    0.7493488   -7.7768114    724.16308  0.020042153  0.019627049            2 
 3012000   0.77252251   -7.8094013    723.10888  0.020006332  0.019621428            4 
 3013000   0.78733422   -7.7918124    723.68866  0.020015728  0.019615803            2 
 3014000    0.7621757    -7.804368    721.74461  0.019955337  0.019610162            3 
 3015000   0.79219825     -7.77929    722.59021   0.01997209  0.019604526            3 
 3016000   0.75595346    -7.810542    723.65588  0.019994913  0.019598879            6 
 3017000   0.77476052   -7.8062558     722.2047  0.019948202  0.019593218            4 
 3018000   0.77060036   -7.8138416    722.84398  0.019959244  0.019587588            5 
 3019000    0.7740124   -7.7754723    725.31909  0.020020953  0.019581957            3 
 3020000   0.77361062   -7.8097447    723.61013  0.019967167  0.019576349            5 
 3021000   0.77907938   -7.8038526    722.71033  0.019935737  0.019570732            4 
 3022000   0.77305886   -7.7905348    724.91076  0.019989818  0.019565139            4 
 3023000   0.78542036   -7.7905479    723.04886  0.019931879  0.019559545            3 
 3024000   0.76807602   -7.7970281    723.97926  0.019950928  0.019553956            3 
 3025000    0.7762687   -7.8085462    724.34909   0.01995452  0.019548332            1 
 3026000   0.76309685   -7.7968883    723.86887  0.019934701   0.01954272            5 
 3027000   0.76576841   -7.7801499    725.65925  0.019977405  0.019537135            2 
 3028000   0.75219175   -7.7921143    724.76246  0.019946127  0.019531569            3 
 3029000   0.77429935   -7.7809546    725.13427  0.019949771  0.019525996            3 
 3030000   0.76042546   -7.7700339    725.06078  0.019941165  0.019520422            4 
 3031000   0.77271396   -7.7823621    724.02246  0.019906039  0.019514832            9 
 3032000   0.76840728   -7.8136008    723.82791  0.019894127  0.019509239            8 
 3033000   0.77100693   -7.7706029    725.85908  0.019943375  0.019503663            2 
 3034000   0.76323909   -7.7968613    724.60889  0.019902464  0.019498119            2 
 3035000    0.7790277   -7.7826319    724.67894  0.019897829  0.019492564            3 
 3036000   0.76184035    -7.802785    724.47794  0.019885758  0.019486982            3 
 3037000   0.77609983   -7.7862436    726.13476  0.019924672  0.019481411            4 
 3038000   0.78693456   -7.8009114    727.28454  0.019949653  0.019475857            3 
 3039000   0.76975476   -7.8285518    723.77019   0.01984672  0.019470277            5 
 3040000   0.76572562   -7.7858086    724.24782  0.019853284  0.019464705            3 
 3041000   0.75319747   -7.7954063    725.14151  0.019871246  0.019459184            2 
 3042000   0.77317661   -7.8005909    725.03479   0.01986179  0.019453654            4 
 3043000   0.75827892   -7.7621501     727.4528  0.019921481  0.019448102            4 
 3044000   0.76651429    -7.788086    727.77887  0.019923863  0.019442588            2 
 3045000   0.76694573   -7.7808202    725.34118  0.019850607   0.01943707            4 
 3046000   0.76656358   -7.7769521    726.89941  0.019886721  0.019431583            7 
 3047000   0.75400717   -7.7743192     726.6731  0.019874004  0.019426103            2 
 3048000   0.75671602   -7.7907004    726.84245  0.019872114  0.019420626            3 
 3049000   0.77679971   -7.7770119    728.50108  0.019910929  0.019415125            2 
 3050000   0.75510739   -7.8213823    725.14842  0.019812798  0.019409619            3 
 3051000   0.76210572   -7.7936228    726.40148   0.01984053  0.019404078            4 
 3052000   0.76279427   -7.7848482    724.19857   0.01977388  0.019398522            3 
 3053000   0.74975394   -7.7882103    726.89975  0.019841133   0.01939296            3 
 3054000   0.77604552   -7.7964559    726.16062  0.019814468  0.019387376            2 
 3055000   0.75542513   -7.7914097    726.94331  0.019829332  0.019381788            2 
 3056000   0.75819536   -7.8028434    724.98979  0.019769573   0.01937623            9 
 3057000   0.76780024   -7.8118979    725.45529  0.019775796   0.01937067            4 
 3058000   0.75929923   -7.7802589    725.87042  0.019780641   0.01936512            3 
 3059000   0.75310848   -7.8003818    726.13505  0.019781384  0.019359564            4 
 3060000   0.75670149   -7.7929249    725.70503  0.019763209   0.01935397            3 
 3061000   0.77030212   -7.8004723    723.64696  0.019700723  0.019348403            1 
 3062000   0.75814472     -7.78852    725.09114  0.019733593  0.019342855            3 
 3063000   0.78108088   -7.8126294    727.35288  0.019788684  0.019337305            3 
 3064000   0.77165926   -7.7714917    726.51128  0.019759336  0.019331787            2 
 3065000   0.74433487   -7.7859251    726.19245  0.019744221  0.019326249            6 
 3066000   0.78746411   -7.7644376    726.00981  0.019732817  0.019320743            3 
 3067000   0.76237448    -7.817029    727.30807  0.019761658  0.019315229            3 
 3068000   0.74920236   -7.8058155    728.27929  0.019781597  0.019309701            2 
 3069000    0.7833774   -7.8060074    726.55564  0.019728349   0.01930418            7 
 3070000   0.75254141   -7.8090181    726.18872  0.019711963  0.019298653            4 
 3071000   0.75895861   -7.8249653     727.2782  0.019735108  0.019293115            3 
 3072000   0.74873172   -7.7957896    728.73859    0.0197683  0.019287564            1 
 3073000   0.76766969   -7.8244589    727.04863  0.019716038  0.019282046            2 
 3074000   0.76083519   -7.8339881    727.39454  0.019719002  0.019276475            3 
 3075000   0.75652646   -7.7983675    727.89813  0.019726237  0.019270942            4 
 3076000   0.74786642   -7.7853013    725.99552  0.019668279  0.019265429            1 
 3077000    0.7610995   -7.8002579    726.84276  0.019684833  0.019259909            2 
 3078000   0.76992538   -7.8215615    728.56288  0.019725008  0.019254379            1 
 3079000   0.75248878   -7.7995573    727.71413   0.01969563  0.019248865            9 
 3080000   0.77527182   -7.8124517    728.87753  0.019720712  0.019243346            4 
 3081000   0.75718623   -7.8130679    727.09215  0.019666022  0.019237823            5 
 3082000   0.77853826   -7.7937594     727.6576   0.01967493  0.019232294            2 
 3083000   0.76590438   -7.8104207      727.869  0.019674262   0.01922678            2 
 3084000   0.76742737   -7.8330642    728.96792  0.019697577  0.019221254            4 
 3085000   0.75533324   -7.8185041    726.55516  0.019626017  0.019215704            4 
 3086000   0.75645024   -7.8149726    727.45348  0.019643915  0.019210169            6 
 3087000   0.75346963   -7.8228142       727.37  0.019635299  0.019204656            5 
 3088000    0.7491343   -7.7981866    727.94649  0.019644497  0.019199166            4 
 3089000   0.75019247   -7.8101137    728.84353  0.019662338   0.01919368            3 
 3090000   0.74605974    -7.797675    727.65085  0.019623809  0.019188199            4 
 3091000    0.7549555   -7.8392704    728.06902  0.019628735  0.019182706            2 
 3092000   0.74467502    -7.825104    727.97603   0.01961988  0.019177196            2 
 3093000   0.74112769    -7.814799    727.34327  0.019596489  0.019171686            2 
 3094000   0.75926928    -7.802822    727.59875  0.019597036  0.019166138            3 
 3095000   0.77029302   -7.8033962    727.45751  0.019586901  0.019160618            3 
 3096000   0.74761993   -7.8010723    727.99558  0.019595058  0.019155091            1 
 3097000   0.75865384   -7.8418139    727.75297  0.019582202  0.019149537            3 
 3098000   0.76076763   -7.8194794    726.98419  0.019555202  0.019144011            3 
 3099000   0.77752479   -7.8490009     726.3909  0.019532938  0.019138439            3 
 3100000    0.7515529   -7.8299528    725.49835  0.019502644   0.01913286            3 
 3101000   0.75655897   -7.8404647    728.01833  0.019564074   0.01912729            2 
 3102000   0.76186263   -7.8458106    726.88024  0.019527193  0.019121725            3 
 3103000   0.75861274   -7.8316444    726.61032  0.019513651  0.019116159            6 
 3104000   0.75018338    -7.828316    726.41758   0.01950219  0.019110605            2 
 3105000   0.75245956   -7.8192095    726.95158  0.019510241  0.019105042            6 
 3106000   0.77386944   -7.8253137    727.36097  0.019514943  0.019099494            3 
 3107000   0.77124838   -7.8422775    726.09101  0.019474601  0.019093937            7 
 3108000   0.73624188   -7.8415042    727.20395  0.019498175  0.019088371            6 
 3109000   0.75768604   -7.8405927    726.93781   0.01948477  0.019082799            3 
 3110000   0.75452819   -7.8226867    727.57096  0.019495471  0.019077225            2 
 3111000    0.7562217   -7.8149689    727.44648  0.019485869  0.019071684            2 
 3112000   0.76078895   -7.8228155    727.53479  0.019481973  0.019066158            4 
 3113000   0.75740285   -7.8240752    729.77168  0.019535595  0.019060646            1 
 3114000   0.74473993   -7.8017976    728.70284  0.019500718  0.019055131            4 
 3115000   0.74845584   -7.7976709    729.72061  0.019521686  0.019049646            1 
 3116000   0.74667306   -7.8007597    729.20337  0.019501588  0.019044152            3 
 3117000   0.76436269   -7.8376799    728.06718  0.019464955  0.019038652            4 
 3118000   0.73889121   -7.8273807    727.90365  0.019454342  0.019033158            5 
 3119000   0.73878219   -7.8134762    730.37273  0.019514073  0.019027652            2 
 3120000   0.75093889   -7.7969904    729.38771  0.019481509  0.019022168            4 
 3121000   0.74734937   -7.8164578    727.41292  0.019422539  0.019016672            3 
 3122000    0.7531793   -7.8314597    729.75272  0.019478772  0.019011199            3 
 3123000   0.77194329   -7.8415494    727.95005  0.019424433  0.019005718            5 
 3124000    0.7626988    -7.809595    731.41953  0.019510764  0.019000259            5 
 3125000   0.77155908   -7.8289982    729.86014  0.019462937  0.018994817            2 
 3126000   0.74548291   -7.8359741     728.7763  0.019427818  0.018989362            3 
 3127000   0.75147688   -7.8400863    729.59095  0.019443315  0.018983873            2 
 3128000   0.74663057   -7.8273307    729.49551  0.019434557  0.018978423            2 
 3129000     0.750977   -7.8325466    730.82514  0.019463757  0.018972969            3 
 3130000   0.73265458   -7.8182594    730.59062  0.019451294  0.018967517            3 
 3131000    0.7648355   -7.8360833    730.16318  0.019433705   0.01896208            4 
 3132000   0.74978749    -7.796648    729.97179  0.019422408   0.01895667            3 
 3133000   0.76163632   -7.8308571    731.12391  0.019446854  0.018951231            2 
 3134000   0.74206312   -7.7895177     730.2419  0.019417196  0.018945815            5 
 3135000   0.75850621   -7.8052012    730.74567  0.019424393  0.018940419            3 
 3136000   0.75792258   -7.8050485    728.18997  0.019350286  0.018934988            2 
 3137000   0.74795507   -7.8246451    730.98404  0.019418341   0.01892957            5 
 3138000   0.75315288   -7.8379418    729.76966  0.019379904  0.018924163            1 
 3139000   0.75727534   -7.8531198    731.22102   0.01941226  0.018918733            4 
 3140000   0.74864653   -7.8189605     732.0107  0.019427035  0.018913317            4 
 3141000   0.75151326   -7.8180475    731.38247  0.019404183  0.018907885            4 
 3142000   0.75539199   -7.8412492    729.79045  0.019355783   0.01890244            2 
 3143000   0.75135534   -7.8510304     729.7696  0.019349072  0.018896989            3 
 3144000   0.75962521   -7.8490076    728.62376  0.019312547  0.018891555            3 
 3145000   0.78459189   -7.8362407    731.15357  0.019373438  0.018886117            4 
 3146000   0.74520654   -7.8361435    729.06854  0.019312051  0.018880655            2 
 3147000   0.74193384   -7.8269011    727.45039  0.019263065  0.018875188            3 
 3148000   0.74616372   -7.8596327    730.84849    0.0193469   0.01886972            2 
 3149000   0.74825814   -7.8178696    730.19643    0.0193235  0.018864235            2 
 3150000   0.74433313    -7.821674    728.97749  0.019285119  0.018858757            3 
 3151000   0.74495218   -7.8388579    731.42763  0.019343796  0.018853307            4 
 3152000   0.75415949   -7.8156457    730.99495   0.01932622  0.018847869            2 
 3153000   0.74392731   -7.8153172    730.56698   0.01930878  0.018842435            2 
 3154000    0.7387319     -7.82255    730.82476  0.019309468  0.018836996            4 
 3155000   0.74442675   -7.8440161    731.17602  0.019312626  0.018831571            5 
 3156000   0.73289727   -7.8242107    731.70978    0.0193206  0.018826135            1 
 3157000   0.74918098   -7.8294929    731.22436  0.019301667    0.0188207            2 
 3158000   0.75576108    -7.850002    728.47729  0.019223066  0.018815246            3 
 3159000    0.7427593   -7.8523246    728.91804  0.019228607  0.018809797            2 
 3160000    0.7438793   -7.8577804    729.49667  0.019237781  0.018804329            3 
 3161000   0.74301203   -7.8455094    731.72376  0.019290408  0.018798888            2 
 3162000   0.74720567   -7.8381507    732.38559   0.01930175  0.018793447            6 
 3163000    0.7598353   -7.8463959    731.51849  0.019272803  0.018788022            2 
 3164000   0.75653726   -7.8296845    730.86028  0.019249375  0.018782623            2 
 3165000   0.73967539   -7.8658537    733.13848  0.019303278  0.018777198            2 
 3166000   0.75962995   -7.8398759    730.55074  0.019229068  0.018771771            3 
 3167000    0.7659148   -7.8415254    731.17068  0.019239308  0.018766358            5 
 3168000   0.74139507   -7.8401984    732.31838  0.019263425  0.018760949            1 
 3169000    0.7482618   -7.8297317    732.01844  0.019249459  0.018755556            3 
 3170000   0.74723018   -7.8526022    730.80587  0.019211511  0.018750158            5 
 3171000   0.75617242   -7.8317061    730.96887  0.019209736  0.018744732            3 
 3172000   0.74485304   -7.8452916    731.89231   0.01922794  0.018739323            4 
 3173000   0.74229046   -7.8458775    731.48651  0.019211223  0.018733895            2 
 3174000   0.73988318   -7.8439142    732.56904  0.019233592  0.018728497            1 
 3175000   0.75184181   -7.8469009    730.51569   0.01917364  0.018723083            1 
 3176000     0.736488   -7.8393716    731.21004  0.019185822  0.018717661            2 
 3177000   0.73385077   -7.8241597    731.75775  0.019194149  0.018712219            2 
 3178000   0.75109782   -7.8477728    730.87314  0.019164914  0.018706822            3 
 3179000   0.73222205   -7.8216391    731.28325  0.019169635  0.018701414            3 
 3180000   0.75477325    -7.822197    732.24668  0.019188854  0.018696029            3 
 3181000   0.74922983    -7.835611    731.19514  0.019155275  0.018690666            6 
 3182000   0.75559997   -7.8210999    731.04901  0.019145428  0.018685277            6 
 3183000   0.73678174   -7.8469001     731.7057  0.019156606  0.018679887            3 
 3184000   0.73769915   -7.8502491    733.24128  0.019190779  0.018674501            1 
 3185000   0.73987113   -7.8379593    732.37076  0.019161977   0.01866911            2 
 3186000   0.74198268   -7.8439467    731.40205  0.019130625  0.018663705            2 
 3187000   0.75548671   -7.8451929    732.16383  0.019144541  0.018658284            3 
 3188000   0.73100627   -7.8443215    731.52466  0.019121828  0.018652887            2 
 3189000   0.74079946   -7.8509639    731.99367  0.019128088    0.0186475            2 
 3190000   0.72732156   -7.8280494    732.61925  0.019138434  0.018642132            5 
 3191000    0.7474773   -7.8311672    733.47626  0.019154817  0.018636759            4 
 3192000   0.72277692   -7.8664266    733.33951  0.019145246  0.018631365            3 
 3193000   0.73538326   -7.8680395     729.8019  0.019046923  0.018625937            4 
 3194000   0.74500157   -7.8512449    732.99365  0.019124234  0.018620506            3 
 3195000   0.73351995   -7.8272071    734.24147  0.019150795  0.018615105            2 
 3196000   0.74382726   -7.8679358    730.39077  0.019044398  0.018609697            3 
 3197000   0.72734835   -7.8903564    731.56642  0.019069086   0.01860428            1 
 3198000   0.74325233   -7.8576865     731.9827  0.019073971  0.018598853            4 
 3199000   0.74391546   -7.8488006    731.40141  0.019052866  0.018593451            2 
 3200000   0.74104998   -7.8502172    732.98031  0.019088029  0.018588052            2 
 3201000   0.74729833   -7.8636753    731.18581  0.019035349  0.018582647           10 
 3202000   0.74342793   -7.8378453     732.7374  0.019069784  0.018577244            3 
 3203000   0.73355481   -7.8323846    732.64612  0.019061456  0.018571839            2 
 3204000   0.74769685   -7.8891785    732.21134  0.019044198  0.018566439            1 
 3205000   0.74303108    -7.861248    731.81098  0.019027847  0.018561028            5 
 3206000   0.75025838   -7.8623658    732.22457  0.019032662    0.0185556            2 
 3207000   0.74318532   -7.8603257     730.1036  0.018971614  0.018550187            3 
 3208000    0.7434394   -7.8596547    732.23035  0.019020946  0.018544783            3 
 3209000    0.7404694    -7.853979    732.88011  0.019031892  0.018539383            5 
 3210000   0.74084749   -7.8579306    732.90033  0.019026488  0.018533985            2 
 3211000   0.74012996     -7.88331    731.86623  0.018993725  0.018528603            2 
 3212000   0.72780071   -7.8695498     732.5644  0.019005926  0.018523185            2 
 3213000   0.73934721   -7.8506519     732.2072  0.018990746  0.018517774            4 
 3214000   0.74115973   -7.8513113    732.39325  0.018989661  0.018512351            3 
 3215000   0.72740091   -7.8730521    733.66883  0.019016818  0.018506953            3 
 3216000   0.75859813   -7.8699233    733.75843  0.019013226  0.018501548            3 
 3217000   0.73426187   -7.8716745    733.46791  0.018999791  0.018496153            3 
 3218000   0.73792952   -7.8405051    732.65104  0.018972732  0.018490744            4 
 3219000    0.7330317   -7.8976017    732.85045  0.018972001  0.018485348            5 
 3220000   0.73989216   -7.8742063    732.46892  0.018956235   0.01847996            4 
 3221000   0.73881699   -7.8670541    732.85325  0.018960293  0.018474519            2 
 3222000   0.73035863   -7.8860021    731.42359  0.018917432  0.018469073            2 
 3223000   0.74055567    -7.870955    732.21946   0.01893214  0.018463634            4 
 3224000   0.72059832   -7.8716718    732.65463  0.018937516  0.018458209            6 
 3225000   0.73174976   -7.8584455    732.70036  0.018932826  0.018452789            5 
 3226000   0.73258094   -7.8727769    732.38805   0.01891889  0.018447343            3 
 3227000   0.73870202   -7.8816067    732.91555  0.018926649  0.018441917            3 
 3228000   0.73760468   -7.8831896    732.57516  0.018911998  0.018436484            2 
 3229000   0.71668467   -7.8724484    731.72795  0.018884277  0.018431049            3 
 3230000   0.73834359   -7.8541295     733.0476  0.018912477   0.01842563            5 
 3231000   0.73917089   -7.8856658    732.26856   0.01888653    0.0184202            3 
 3232000   0.71986499   -7.8669424     732.6665  0.018890947   0.01841477            2 
 3233000   0.74655473   -7.8885327     730.1932  0.018821353  0.018409346            2 
 3234000   0.74551204   -7.8688574    731.88002  0.018858999  0.018403927            2 
 3235000   0.72084832   -7.8705794    732.58797  0.018871406  0.018398536            2 
 3236000   0.74099794   -7.8685365    731.42713   0.01883568  0.018393131            7 
 3237000    0.7472685   -7.8819181    731.53887  0.018832738  0.018387734            4 
 3238000   0.74584813   -7.8600729    733.27677  0.018871648  0.018382325            3 
 3239000   0.74071731   -7.8615606    733.35141  0.018867742  0.018376931            2 
 3240000   0.72561224   -7.8391558    733.27672  0.018859998  0.018371574            3 
 3241000   0.74735751   -7.8353827     732.4445  0.018832781  0.018366245            2 
 3242000   0.74129926   -7.8674201    733.39068  0.018851292  0.018360897            3 
 3243000   0.74028876   -7.8393521    736.22088  0.018918205  0.018355566            2 
 3244000   0.74947779   -7.8389367    733.90089  0.018852777  0.018350229            5 
 3245000   0.74160367   -7.8426543     733.3285  0.018832268  0.018344867            3 
 3246000   0.73631435   -7.8496831    734.33086  0.018852199  0.018339513            4 
 3247000   0.72697221   -7.8472057    732.30471  0.018794392  0.018334185            4 
 3248000   0.73787301   -7.8442379    735.20346  0.018862979  0.018328843            4 
 3249000   0.72745824   -7.8363612    734.09872  0.018828837  0.018323477            3 
 3250000   0.73877639   -7.8427473    733.63381  0.018811123  0.018318099            4 
 3251000   0.73781349   -7.8623064    732.33153  0.018771956   0.01831271            2 
 3252000   0.73577235   -7.8905498    731.14716  0.018735833  0.018307319            2 
 3253000   0.72379206   -7.8510915    734.14942  0.018806984  0.018301921            4 
 3254000   0.71687649   -7.8666209    731.29982  0.018728227  0.018296527            6 
 3255000    0.7289894   -7.8630832    733.21208  0.018771431  0.018291125            4 
 3256000   0.73149874   -7.8759056    733.73238  0.018778982  0.018285715            2 
 3257000   0.71876082   -7.8570566    732.84648   0.01875055  0.018280302            3 
 3258000   0.72249121   -7.8915552    732.39124   0.01873315  0.018274885            4 
 3259000   0.74187005   -7.8568174    733.12877  0.018746261   0.01826946            3 
 3260000   0.74055929   -7.8796348    732.09689  0.018714133  0.018264032            3 
 3261000   0.71979346   -7.8770999    733.23981  0.018737601  0.018258632            2 
 3262000   0.73441285   -7.8897364    731.75859  0.018694017  0.018253206            6 
 3263000   0.73310519   -7.8909292    731.80388  0.018689444  0.018247764            4 
 3264000   0.74240019   -7.8645125    733.65207  0.018730905  0.018242343            3 
 3265000   0.72921502   -7.8720504    733.19857  0.018713593  0.018236925            2 
 3266000   0.72787196   -7.8752973    733.38211  0.018712546  0.018231502            4 
 3267000   0.71958905   -7.8943453    732.35455  0.018680608  0.018226058            5 
 3268000   0.72911131   -7.8724608    732.02308  0.018666439  0.018220633            3 
 3269000   0.73715434    -7.867002     733.1654  0.018689849  0.018215218            2 
 3270000   0.72219741   -7.8785208    733.68436  0.018697359  0.018209788            4 
 3271000   0.74435088   -7.8731142    733.13647  0.018677684  0.018204353            3 
 3272000   0.71873655   -7.8894475    731.70204  0.018635443  0.018198893            5 
 3273000    0.7276682   -7.8870225    731.64919  0.018628404  0.018193446            3 
 3274000   0.72898443   -7.8295497     732.9526   0.01865589  0.018187991            4 
 3275000   0.71746885   -7.8972679    731.93264   0.01862424   0.01818254            2 
 3276000   0.71501931   -7.8934229     730.7878  0.018589433  0.018177083            8 
 3277000   0.72385726   -7.8623064     731.0662   0.01859084  0.018171615            6 
 3278000   0.72183884   -7.8911371    732.83637   0.01863017  0.018166143            4 
 3279000   0.73206418   -7.8722879    731.49512  0.018590402  0.018160658            5 
 3280000   0.73727887   -7.9018204    730.76336  0.018566142  0.018155176            4 
 3281000   0.74222711   -7.8918019    731.35805  0.018575588  0.018149693            2 
 3282000   0.71717238   -7.8936656    730.92716  0.018558987  0.018144234            2 
 3283000   0.72792184   -7.9045704    731.67517  0.018572321   0.01813877            4 
 3284000   0.70832156   -7.8988106    733.09817  0.018602775  0.018133325            2 
 3285000   0.71880631   -7.8821641     733.2189  0.018600175  0.018127884            4 
 3286000   0.73343078   -7.8627477    733.27205  0.018595863  0.018122442            4 
 3287000   0.72188898   -7.8901654    732.97073  0.018582566  0.018117002            4 
 3288000   0.74400179   -7.8767668    732.57831  0.018566969  0.018111551            2 
 3289000   0.71541514   -7.9155773    729.83932  0.018491926   0.01810609            5 
 3290000   0.73110928   -7.9203015    732.60098  0.018556256  0.018100638            3 
 3291000   0.72977767   -7.8749336    730.52498   0.01849805  0.018095188            4 
 3292000   0.72353205   -7.8811226    731.80136  0.018524741  0.018089761            3 
 3293000   0.71358389   -7.9118292    731.57715  0.018513441  0.018084325            2 
 3294000   0.72348976   -7.8752617    732.44053  0.018529663  0.018078883            2 
 3295000    0.7150985   -7.8997175    730.65406  0.018478858  0.018073425            2 
 3296000   0.72229912   -7.8937341    732.38658  0.018517055  0.018067963            1 
 3297000    0.7285812    -7.874005    731.57905  0.018491028  0.018062487            4 
 3298000   0.72947295   -7.9056739    732.11203  0.018498889   0.01805704            4 
 3299000   0.72245976   -7.8859321    733.72544  0.018534037  0.018051616            3 
 3300000   0.74458147   -7.8798145    732.08653  0.018487034  0.018046189            4 
 3301000   0.71298204   -7.8721811    735.11304  0.018557837  0.018040764            2 
 3302000   0.73219592   -7.8884519    732.21643  0.018479114  0.018035332            3 
 3303000   0.73163206   -7.9062248    731.70394   0.01846059  0.018029883            3 
 3304000   0.72925077   -7.8922955    732.42624   0.01847322  0.018024424            2 
 3305000   0.71356602   -7.8876871    732.88727  0.018479255  0.018018993            2 
 3306000   0.73656777   -7.9128614    732.70819  0.018469152  0.018013554            5 
 3307000   0.72903423   -7.8993348    731.73256  0.018438982  0.018008115            1 
 3308000   0.72739861   -7.8689222    732.33738  0.018448644  0.018002685            3 
 3309000   0.71837823   -7.8980068    732.13813  0.018438051  0.017997268            2 
 3310000   0.70310147   -7.9225692    730.88474  0.018400925  0.017991828            2 
 3311000   0.72344366   -7.9291087    731.34816  0.018407031   0.01798639            7 
 3312000   0.72934799   -7.8978053     732.1051  0.018420519  0.017980945            3 
 3313000   0.72634614   -7.8924292     732.4127  0.018422696  0.017975533            6 
 3314000   0.71455096   -7.8840171    732.35745  0.018415748  0.017970112            4 
 3315000   0.71952289    -7.925173    733.02591  0.018426996   0.01796467           15 
 3316000    0.7196948   -7.8934194    732.03555  0.018396551  0.017959221            5 
 3317000    0.7275235    -7.918625    733.19325   0.01842009  0.017953771            7 
 3318000   0.73224017   -7.9060906    732.04365  0.018385665  0.017948338           14 
 3319000   0.70687812   -7.8928317    733.24208  0.018410216    0.0179429            3 
 3320000   0.73410395   -7.9110292    731.15086   0.01835218  0.017937462            4 
 3321000   0.72147108   -7.8973115    732.48369  0.018380099  0.017932042            4 
 3322000   0.70431243   -7.8805683    732.46531  0.018374105  0.017926622            2 
 3323000   0.71354983   -7.8905183    733.15014  0.018385749  0.017921219            3 
 3324000   0.71543997   -7.9028353    732.51441   0.01836428  0.017915817            2 
 3325000   0.72769788   -7.8841538    734.03669   0.01839691  0.017910427            2 
 3326000   0.72284123   -7.9169906    732.27419  0.018347219  0.017905022            2 
 3327000   0.71873296   -7.8874576    731.74404  0.018328425  0.017899594            4 
 3328000   0.71624642   -7.9063478    732.95718  0.018353295  0.017894174            3 
 3329000   0.70555108   -7.8862509    732.18373   0.01832842  0.017888754            2 
 3330000    0.7222833   -7.9109505    732.24362  0.018324415  0.017883345            6 
 3331000   0.71466926   -7.9129087    730.89495  0.018285173  0.017877929            3 
 3332000   0.71458777   -7.8968543    733.28545  0.018339472  0.017872491            3 
 3333000   0.70867456   -7.9250631    730.34149  0.018260363  0.017867065            2 
 3334000   0.70917752    -7.914538    733.11573  0.018324228   0.01786164            3 
 3335000   0.70705201   -7.9136565    732.71395  0.018308695  0.017856225            3 
 3336000    0.7105695   -7.8938562    733.70626  0.018327994  0.017850804            3 
 3337000   0.71665632   -7.8967571    733.47662  0.018316767  0.017845406            4 
 3338000   0.71169666   -7.8834626    733.69711  0.018316784  0.017840008            4 
 3339000   0.73069425   -7.9144225    733.10016    0.0182964   0.01783462            2 
 3340000   0.71538612   -7.8978739    733.70778  0.018306082   0.01782922            3 
 3341000    0.7052202   -7.8719973    732.17187  0.018262294  0.017823848            3 
 3342000   0.71356199    -7.904196    732.83797  0.018273438   0.01781846            3 
 3343000   0.72752234   -7.8861936     733.2725  0.018278804   0.01781307            2 
 3344000   0.71668928    -7.919149    734.87626  0.018313304  0.017807677            5 
 3345000   0.70045283   -7.8779489    734.37232  0.018295275  0.017802299            2 
 3346000   0.72995055   -7.9048561    733.11861  0.018258583   0.01779691            3 
 3347000   0.72962054   -7.9061441    732.86293  0.018246762  0.017791539            3 
 3348000   0.72959475   -7.8978345    734.82153  0.018290062  0.017786186            3 
 3349000   0.71309254     -7.91361     733.7619  0.018258234  0.017780831            2 
 3350000   0.71092117    -7.920341    734.23024  0.018264434  0.017775456            3 
 3351000   0.71350286   -7.8911486    733.62404  0.018243908  0.017770081            3 
 3352000   0.71088708   -7.9252539    735.52801    0.0182858  0.017764711            3 
 3353000   0.71775153   -7.8961704    735.05487  0.018268587   0.01775937            5 
 3354000   0.72133571   -7.9118506    733.43071  0.018222786  0.017754008            3 
 3355000   0.70856492   -7.9227462    734.08277  0.018233551  0.017748633            3 
 3356000   0.71379403   -7.8891915    733.70043  0.018218624  0.017743282            3 
 3357000   0.71170051   -7.9243663    735.04074  0.018246469  0.017737919            1 
 3358000   0.71801895   -7.9088407    734.23082  0.018220936   0.01773255            2 
 3359000   0.72188752   -7.9309589    734.46182  0.018221242  0.017727186            3 
 3360000   0.70469448   -7.9256275    734.01133  0.018204646  0.017721813            2 
 3361000   0.70733661   -7.9245141    733.40068  0.018184089  0.017716474            3 
 3362000   0.72077602   -7.9086177    733.96103   0.01819257  0.017711136            3 
 3363000   0.71520072   -7.9065932    734.05323  0.018189445  0.017705792            3 
 3364000   0.68978679   -7.9212524    733.37297  0.018167186  0.017700427            3 
 3365000   0.71872644    -7.917947    734.25841  0.018183715  0.017695063            5 
 3366000   0.72776553   -7.9270282    733.87592  0.018168843   0.01768975            4 
 3367000   0.72181089   -7.9090741    735.98836   0.01821573  0.017684414            2 
 3368000   0.71437837   -7.9065329    734.96751  0.018185063  0.017679084            3 
 3369000   0.71727389   -7.9212259    736.78044  0.018224509  0.017673761            4 
 3370000   0.69803881   -7.9003029    735.07854  0.018177016  0.017668436            3 
 3371000   0.69566358   -7.8932034    735.40026  0.018179577  0.017663119            4 
 3372000   0.69556301   -7.9318925    734.39264  0.018149284  0.017657796            3 
 3373000   0.72230778   -7.9239733    735.29364  0.018166164  0.017652461            2 
 3374000   0.71393881   -7.9172182    734.82864  0.018149295  0.017647122            3 
 3375000   0.71393811   -7.9323452    735.05327  0.018149463  0.017641795            8 
 3376000   0.69218721   -7.9167071    735.91361  0.018165324  0.017636459            4 
 3377000   0.71263095   -7.9126403    734.53861  0.018126015  0.017631115            4 
 3378000    0.7036018    -7.941591    736.53468   0.01816989  0.017625772            3 
 3379000   0.69949951   -7.9174832    735.06037  0.018128153  0.017620443            4 
 3380000   0.72358284   -7.9203288    735.68567  0.018138207  0.017615127            3 
 3381000   0.72840208    -7.912031    735.12585  0.018119044  0.017609815            6 
 3382000   0.71571639   -7.9060755    736.39742  0.018145018  0.017604514            4 
 3383000   0.70486409   -7.9081841    735.38071   0.01811461   0.01759922            2 
 3384000   0.71907345   -7.9081654    736.21213  0.018129731  0.017593912            5 
 3385000   0.71247064   -7.9256982    734.35103  0.018078558  0.017588596            2 
 3386000   0.70278607   -7.9285344    735.72322   0.01810699  0.017583251            3 
 3387000   0.70673972   -7.9241627    734.74522  0.018077581   0.01757793            2 
 3388000   0.70779688    -7.922801    734.90501  0.018076176  0.017572609            2 
 3389000   0.71197045   -7.9080511    737.40817  0.018132393  0.017567312            4 
 3390000   0.71557922   -7.9082703    735.32917  0.018075938  0.017562022            4 
 3391000   0.69838258   -7.9264414    733.57642  0.018027534  0.017556714            2 
 3392000   0.70440386    -7.922433    734.35945  0.018041457  0.017551395            2 
 3393000   0.71309398   -7.9109691    736.33912  0.018084761  0.017546075            6 
 3394000   0.70156698   -7.9067281    734.83306  0.018042454  0.017540776            3 
 3395000   0.70779434   -7.9436557    734.12469  0.018019752  0.017535463            3 
 3396000    0.6983569   -7.9195517    735.58769  0.018050346  0.017530153            5 
 3397000   0.72199543   -7.9140726    734.99415  0.018030472  0.017524858            6 
 3398000   0.70876435    -7.917539    735.45942  0.018036576  0.017519555            4 
 3399000   0.70628645   -7.9267824    733.77422  0.017989954   0.01751425            7 
 3400000   0.69378388   -7.9153826    734.60751  0.018005086  0.017508958            3 
 3401000   0.72294065   -7.9391616    735.41462  0.018019568  0.017503671            2 
 3402000   0.70619019   -7.9043337    734.52075  0.017992376  0.017498376            6 
 3403000   0.69091421   -7.9221489    734.86247  0.017995457  0.017493087            3 
 3404000   0.70884405   -7.9257196     735.1977  0.017998377  0.017487792            2 
 3405000   0.70463841   -7.9204077    735.63387  0.018003766  0.017482486            3 
 3406000   0.72273022   -7.9255213    735.68326  0.017999688  0.017477191            3 
 3407000   0.70719629   -7.9498074    735.64711  0.017993521  0.017471888            3 
 3408000   0.69744246   -7.9291138    736.48034  0.018008615  0.017466587            3 
 3409000   0.71472227   -7.9465671    735.72623  0.017984899  0.017461293            4 
 3410000     0.717156   -7.9372488    735.38534  0.017971294  0.017455999            1 
 3411000   0.70454172   -7.9153235    736.96708  0.018004668  0.017450736            4 
 3412000   0.70563196   -7.9548547    735.14702  0.017954939  0.017445457            2 
 3413000   0.70956706   -7.9120643    736.69447  0.017987462  0.017440191            4 
 3414000   0.70877967   -7.8989603    737.48327  0.018001447  0.017434949            4 
 3415000   0.71727918   -7.9224217    736.14831    0.0179636  0.017429704            2 
 3416000   0.71340047    -7.911903    737.38373  0.017988479  0.017424431            2 
 3417000   0.70966229   -7.9407535     734.6102  0.017915574  0.017419159            2 
 3418000   0.71174024   -7.8963462    735.63418  0.017935298  0.017413897            2 
 3419000   0.70803597   -7.9079499     737.1687  0.017967454  0.017408635            4 
 3420000    0.6868699   -7.9641625    735.46979  0.017920804  0.017403364            4 
 3421000   0.68391229   -7.9341776     737.0699  0.017954543  0.017398097            6 
 3422000   0.69716479   -7.9287465    735.69011  0.017915695  0.017392843            7 
 3423000   0.70127239   -7.9509446    735.08093  0.017895631  0.017387581            9 
 3424000   0.69761593   -7.9711211    734.89692  0.017885926  0.017382298            6 
 3425000   0.71444459   -7.9450187    735.35326  0.017891807  0.017376994            2 
 3426000   0.69491139   -7.9499984    733.82088  0.017849311  0.017371686            3 
 3427000   0.70439225    -7.957399    733.77378  0.017842957  0.017366384            4 
 3428000   0.69473212   -7.9304259    735.41184  0.017877573  0.017361077            4 
 3429000   0.70132142   -7.9494716    735.65361  0.017878235  0.017355774            9 
 3430000   0.70199102   -7.9501575    735.44492  0.017867952   0.01735048            4 
 3431000   0.69042622   -7.9534598    735.04771  0.017853097  0.017345179            3 
 3432000   0.69532469   -7.9541032    735.73178  0.017864505  0.017339888            1 
 3433000   0.70960642   -7.9298448    736.11015  0.017868486    0.0173346            2 
 3434000   0.69706036    -7.937376    735.02621  0.017836979  0.017329331            1 
 3435000   0.69484269   -7.9541583    735.58644  0.017845377  0.017324046            2 
 3436000    0.6890937   -7.9384489    735.85554   0.01784671   0.01731877            5 
 3437000   0.68117988   -7.9642895    734.93349  0.017819161  0.017313482            2 
 3438000   0.69530824    -7.927022    734.13243  0.017794561   0.01730819            2 
 3439000   0.70047364   -7.9274546    733.64543  0.017777586  0.017302908            3 
 3440000   0.69338663   -7.9394234    735.61395  0.017820105  0.017297645            5 
 3441000   0.68075009   -7.9301598    735.63392   0.01781541   0.01729239            6 
 3442000   0.71093842   -7.9363834     736.5508  0.017832433  0.017287136            3 
 3443000   0.70577062   -7.9278659    736.83158  0.017834049  0.017281896            2 
 3444000   0.69865032   -7.9401808    735.18323  0.017788986  0.017276641            4 
 3445000   0.70863781   -7.9166318    735.87938  0.017800662  0.017271388            6 
 3446000   0.68832762   -7.9436648    737.50312  0.017834763  0.017266147            3 
 3447000   0.70684848   -7.9388306    736.57547  0.017807163  0.017260886            4 
 3448000   0.70148958   -7.9497749    735.78158  0.017782811  0.017255631            7 
 3449000   0.68611255   -7.9342837     736.2007  0.017787782  0.017250383            3 
 3450000    0.6877796   -7.9361528    736.59763  0.017792213  0.017245133            3 
 3451000   0.70350303   -7.9492589    735.54646  0.017761674  0.017239898            3 
 3452000   0.71101864   -7.9657512    735.48079  0.017754944  0.017234631            6 
 3453000   0.70296939   -7.9734812    736.22227  0.017767696  0.017229368            7 
 3454000    0.7059809   -7.9605353    734.03005  0.017709661  0.017224107            4 
 3455000   0.70243504   -7.9419802     736.4057  0.017761836  0.017218835            3 
 3456000   0.69677852   -7.9608518    736.70538  0.017763922  0.017213572            4 
 3457000   0.68736704   -7.9375222    736.56165  0.017755319  0.017208307            4 
 3458000   0.70070683   -7.9452574    735.77211  0.017731157   0.01720304            7 
 3459000   0.70465479   -7.9407121    734.35416   0.01769187  0.017197764            2 
 3460000   0.69780864   -7.9614061    736.24522  0.017732303  0.017192505            6 
 3461000   0.68427161   -7.9412211     735.6265  0.017712282  0.017187257            3 
 3462000   0.69031517   -7.9648255     735.5329  0.017704913  0.017181978            2 
 3463000   0.70457755   -7.9430311    736.51493  0.017723432  0.017176709            7 
 3464000   0.69916029   -7.9625365    734.65891  0.017673665  0.017171444            4 
 3465000   0.70750363   -7.9707523    735.89731  0.017698348  0.017166176            4 
 3466000   0.69722508   -7.9420255    735.11618  0.017674461  0.017160909            4 
 3467000   0.70164688   -7.9337776    736.03627  0.017691479  0.017155645            3 
 3468000   0.69006833   -7.9633362    735.36032  0.017670135  0.017150376            4 
 3469000   0.70143431   -7.9439614    736.11205  0.017683099  0.017145135            6 
 3470000   0.70158401   -7.9472892     734.8977   0.01764884  0.017139893            2 
 3471000   0.69268674   -7.9513582    735.12681  0.017649256  0.017134645            6 
 3472000   0.69922852   -7.9607405    735.76538  0.017659499  0.017129384            4 
 3473000   0.69719087   -7.9605198    734.20107   0.01761688  0.017124134            3 
 3474000   0.69546429   -7.9686896    736.51508  0.017667316   0.01711887            3 
 3475000   0.70400887   -7.9838432    734.94164    0.0176245  0.017113602            6 
 3476000   0.68512708   -7.9513256    736.66328  0.017660704  0.017108361            4 
 3477000   0.68870678   -7.9587286    734.96783   0.01761499  0.017103123            2 
 3478000   0.68701288   -7.9568626     734.7734  0.017605267  0.017097912            6 
 3479000   0.69895941   -7.9575202    737.65396  0.017669205  0.017092697            4 
 3480000   0.68508836    -7.939987    736.04349  0.017625563  0.017087462            4 
 3481000   0.68832295   -7.9596122    735.68756  0.017611978  0.017082234            7 
 3482000   0.68412334   -7.9742784    736.09784  0.017616739  0.017077001            2 
 3483000   0.68064736   -7.9690973    738.22946  0.017662682  0.017071768            4 
 3484000   0.69309614   -7.9627281    736.84747  0.017624557  0.017066547            4 
 3485000   0.69710582   -7.9671921    734.90778  0.017573118  0.017061313            2 
 3486000   0.67977044   -7.9500035    735.29339  0.017577295  0.017056089            4 
 3487000   0.68213614   -7.9461035    736.56105  0.017602549  0.017050859            2 
 3488000   0.69408947   -7.9615283    736.27549   0.01759068  0.017045648            9 
 3489000   0.69627188   -7.9497314    737.23087  0.017608457   0.01704043            2 
 3490000   0.67950221   -7.9412583    736.61538  0.017588715  0.017035196            2 
 3491000   0.69562487   -7.9580554    736.23466  0.017574588  0.017029951            2 
 3492000   0.69433612   -7.9601529    737.43418  0.017598181  0.017024713            2 
 3493000   0.67922129   -7.9653488    736.29175  0.017565888  0.017019475            1 
 3494000   0.70080107   -7.9572727    736.66629  0.017569793  0.017014244            3 
 3495000   0.69083742   -7.9520211    735.41864  0.017535018  0.017009026            2 
 3496000    0.6819391    -7.949687    737.22646  0.017573094  0.017003805            2 
 3497000   0.67572262    -7.981049     735.4931  0.017526763  0.016998582            3 
 3498000   0.69122534   -7.9614963    735.98492   0.01753347  0.016993344            3 
 3499000   0.69744973   -7.9624609    733.61489  0.017472013  0.016988106            4 
 3500000   0.69363298   -7.9628474    736.24152   0.01752956  0.016982864            7 
 3501000   0.69506749   -7.9881688    736.19032  0.017523334  0.016977626            5 
 3502000   0.68829413   -7.9761969    735.36782  0.017498758  0.016972394            5 
 3503000   0.70806066   -7.9763672    737.39234  0.017541924  0.016967164            3 
 3504000   0.69718798    -7.992854    735.41009  0.017489776  0.016961926            3 
 3505000   0.69354542   -7.9775622    736.65778   0.01751445  0.016956693            3 
 3506000    0.7101702   -7.9713384     734.8185  0.017465737  0.016951453            3 
 3507000   0.69773506   -8.0068184    733.89493  0.017438811  0.016946194            2 
 3508000   0.69726964   -8.0035306    735.44502  0.017470663  0.016940941            2 
 3509000   0.68987611   -7.9905311    736.09569  0.017481136  0.016935681            7 
 3510000    0.6888269   -7.9605129    735.13895  0.017453441  0.016930416            2 
 3511000   0.69008173    -7.968431    736.47205  0.017480111  0.016925175            5 
 3512000   0.67984928   -7.9974249    736.60386  0.017478262  0.016919937            4 
 3513000   0.68068766    -7.977935    734.50969   0.01742361  0.016914694            3 
 3514000   0.67748355     -7.99803    735.80226  0.017449304  0.016909461            3 
 3515000   0.66715653    -7.969944    736.25521  0.017455079  0.016904226            2 
 3516000   0.68683145   -7.9821708    735.03795  0.017421263  0.016898998            2 
 3517000   0.68553973    -7.960728    736.53181  0.017451706  0.016893771            6 
 3518000   0.67949506   -7.9792261    736.95963   0.01745688  0.016888554            3 
 3519000   0.69396915   -7.9571477    736.11467  0.017431909  0.016883331            2 
 3520000   0.69543175   -7.9964949    735.87531   0.01742129  0.016878107            4 
 3521000   0.68989057   -7.9714173     736.0658  0.017420851  0.016872869            3 
 3522000   0.70596125   -7.9898463    736.35736  0.017422803  0.016867621            3 
 3523000   0.69203434   -7.9962256    735.27961  0.017392365  0.016862393            3 
 3524000   0.70044938   -7.9887683    735.60351  0.017395089  0.016857176            2 
 3525000   0.69422819   -7.9844491    735.54208  0.017388702  0.016851955            8 
 3526000   0.69562642   -8.0024226    734.50766  0.017359323  0.016846718            3 
 3527000   0.67536072   -7.9870595    735.16398  0.017369908  0.016841494            4 
 3528000   0.68578033   -8.0035206    734.65603  0.017352986  0.016836277            2 
 3529000   0.70153213   -8.0083487    736.03632  0.017380663   0.01683106            4 
 3530000   0.68307522   -7.9815396    736.48273  0.017386278  0.016825857            3 
 3531000    0.6899511   -7.9819782     735.4047  0.017355912  0.016820651            2 
 3532000   0.70130657   -7.9857252    734.77612  0.017336167  0.016815422            3 
 3533000   0.68745957   -7.9932081    735.20033  0.017341266  0.016810183            1 
 3534000   0.69056351   -7.9963107    735.64073  0.017346744  0.016804962            6 
 3535000   0.69064864   -7.9764875    735.78133  0.017345152  0.016799738            2 
 3536000   0.69234978    -7.963086    736.39262  0.017354653  0.016794534            2 
 3537000    0.6815073   -7.9957231    735.80833   0.01733598  0.016789314            2 
 3538000   0.68757443   -7.9619039    736.04228   0.01733659  0.016784109            2 
 3539000   0.68870527   -8.0077176    735.03481  0.017307969  0.016778892            1 
 3540000   0.69932304   -7.9858946    734.86723  0.017299134  0.016773669            2 
 3541000   0.67891127   -7.9821718    736.28041  0.017327507  0.016768445            2 
 3542000   0.67951581   -7.9832549    735.27886  0.017299051  0.016763216            3 
 3543000   0.68759508   -7.9988453    735.24849  0.017293454  0.016757985            3 
 3544000   0.66818105   -7.9908764    736.91213  0.017327693  0.016752771            3 
 3545000   0.68854045   -7.9848264     735.9644  0.017300526  0.016747554            4 
 3546000   0.67862845    -8.005447    735.29148  0.017279834  0.016742322            3 
 3547000   0.69673483   -8.0244765    735.12201   0.01727098  0.016737107            4 
 3548000   0.68665467   -8.0108205    735.06353  0.017264739  0.016731877            3 
 3549000   0.68031106   -7.9777325    736.00562  0.017281995  0.016726655            2 
 3550000   0.69106962   -7.9982066    734.85804  0.017250189  0.016721449            2 
 3551000   0.69994318   -8.0125149    734.22445  0.017230462  0.016716229            4 
 3552000   0.68337103   -7.9874823    736.09251  0.017269438  0.016711024            3 
 3553000    0.6893544   -7.9776387    736.78396  0.017280795  0.016705815            4 
 3554000   0.68097234   -7.9769624    736.99671  0.017280921  0.016700622            5 
 3555000   0.68030881    -7.979486    735.94335  0.017251368  0.016695423            4 
 3556000   0.67568467   -7.9935581    735.18852  0.017228827  0.016690241            2 
 3557000   0.68581694   -7.9933398    735.77295  0.017237676  0.016685031            3 
 3558000   0.68838902   -8.0197083    735.97152  0.017237482  0.016679818            5 
 3559000    0.6923901    -7.996301      735.904  0.017231057  0.016674611            4 
 3560000   0.68075492   -8.0147848    734.50168  0.017193391  0.016669407            2 
 3561000   0.69625445   -7.9671851    736.40031  0.017232994  0.016664216            2 
 3562000   0.68895458   -8.0181317    734.52794  0.017184352  0.016659034            2 
 3563000   0.68519854   -8.0181954    735.07836  0.017192402   0.01665384            4 
 3564000   0.68865103   -7.9800966    734.18592  0.017166711   0.01664866            2 
 3565000   0.68234621   -7.9909694    736.59111  0.017218119  0.016643491            3 
 3566000   0.67671064   -7.9807228    735.50857  0.017187992  0.016638322            3 
 3567000   0.67858333   -7.9575718    737.22611    0.0172233  0.016633167            3 
 3568000   0.67896867    -7.986392     736.0862  0.017191849  0.016628013            4 
 3569000   0.67732827   -7.9703883    737.01158  0.017208639  0.016622867            2 
 3570000   0.68131774   -7.9920503     736.0837  0.017182159  0.016617707            3 
 3571000   0.68151477    -7.953676    735.71024  0.017168632  0.016612548            2 
 3572000   0.68389033    -7.995843    735.96088  0.017169673  0.016607401            2 
 3573000   0.68226158   -7.9993018    736.57094  0.017179097  0.016602245            3 
 3574000   0.69766574   -7.9826661    736.96535  0.017183486  0.016597091            4 
 3575000    0.6777014   -7.9973222    738.18127  0.017207023  0.016591936            3 
 3576000   0.67252435    -7.991223    736.67668  0.017167149   0.01658677            3 
 3577000   0.67785696   -8.0200631    735.03104  0.017124011  0.016581609            3 
 3578000   0.67900204   -8.0096124    735.00093  0.017118524  0.016576437            6 
 3579000   0.67543041   -7.9748639    735.80278  0.017132411  0.016571281            4 
 3580000   0.67378149   -7.9764594    736.69164  0.017148316  0.016566103            4 
 3581000   0.67196322   -8.0014842    734.74349  0.017098192  0.016560935            3 
 3582000   0.66869349   -7.9978572    735.05157  0.017100585  0.016555772            3 
 3583000   0.66930928   -7.9946472    736.94913  0.017139946  0.016550596            2 
 3584000   0.69075068   -8.0192138    735.18404  0.017094123  0.016545409            3 
 3585000   0.66515571   -7.9793543    735.42686  0.017094999  0.016540231            2 
 3586000   0.67315001   -8.0096554     734.6407  0.017071963  0.016535049            4 
 3587000   0.69181883   -8.0108525    735.56633  0.017088708  0.016529868            3 
 3588000   0.69072953   -8.0134532    734.64576  0.017062564  0.016524688            2 
 3589000   0.68510306   -8.0096306    735.64294  0.017080964  0.016519515            4 
 3590000   0.68010557   -7.9949039     734.7188  0.017054754  0.016514354            4 
 3591000   0.66184689   -8.0080191    734.64822  0.017048367  0.016509176            5 
 3592000   0.68485172   -8.0161755     734.3392  0.017036451  0.016503985            4 
 3593000   0.67778307    -8.036371     734.5896  0.017037517  0.016498791            2 
 3594000   0.67979099   -8.0293454    734.94768   0.01704108  0.016493598            2 
 3595000   0.67843231   -8.0222511    736.28366  0.017067308  0.016488426            4 
 3596000   0.65126983   -8.0166748    735.23789  0.017038327   0.01648325            7 
 3597000   0.66867536   -7.9941635    735.24003   0.01703364  0.016478095            3 
 3598000   0.67417947   -8.0108888    735.90896  0.017044399  0.016472953            5 
 3599000   0.68084482   -8.0125785    735.55607  0.017031492  0.016467806            7 
 3600000   0.66649888   -8.0225905    735.69163  0.017029899  0.016462651            4 
 3601000   0.67325712   -8.0166557    735.58625  0.017022731  0.016457496            5 
 3602000   0.67604347   -8.0300782    734.57373   0.01699458  0.016452352            3 
 3603000   0.67554314   -8.0080219    736.01393  0.017023173  0.016447183            3 
 3604000   0.66987861   -8.0349596    735.43996  0.017005178  0.016442032            4 
 3605000   0.67254014   -8.0218612    736.96827   0.01703579  0.016436878            2 
 3606000    0.6575497   -8.0187094    735.62038  0.016999916  0.016431736            1 
 3607000   0.67692769   -8.0483284    735.63591  0.016995562  0.016426599            2 
 3608000   0.66964001   -8.0402857    735.02901  0.016976834  0.016421442            4 
 3609000   0.68090172   -8.0272932    735.16712  0.016975319  0.016416291            4 
 3610000   0.67022406   -8.0256716    735.27465  0.016973099  0.016411141            2 
 3611000   0.69119032   -8.0353025    735.41993  0.016971751  0.016405982            4 
 3612000   0.67775015   -8.0045464    736.17133  0.016984388   0.01640083           11 
 3613000   0.67853305   -8.0373343    735.59875  0.016966481  0.016395687            4 
 3614000   0.66808311   -8.0525897    735.62222  0.016962328  0.016390542            9 
 3615000   0.67952937   -8.0294955    735.39613  0.016952423  0.016385395            2 
 3616000   0.65975164   -8.0420027    736.57042  0.016974798  0.016380255            5 
 3617000   0.64238761   -8.0257039    735.04853  0.016935041  0.016375108            5 
 3618000   0.66293622   -8.0318603    735.48679  0.016940455  0.016369959            3 
 3619000   0.68162606   -8.0604339    735.09567  0.016926768   0.01636481            2 
 3620000   0.67866319   -8.0447372    735.91812  0.016941025  0.016359663            3 
 3621000   0.68126743   -8.0422551    735.34989  0.016923269  0.016354525            3 
 3622000   0.67906683    -8.041047    733.94534  0.016886282  0.016349385            5 
 3623000   0.69110338   -8.0199181    736.38566  0.016937751  0.016344259            3 
 3624000   0.66912807   -8.0268524    735.33136  0.016908834  0.016339119            4 
 3625000   0.68257899   -8.0147656    735.30241  0.016903504  0.016333992            2 
 3626000   0.67705853   -8.0372848    736.35114  0.016922944  0.016328855            2 
 3627000    0.6884796   -8.0146051    735.58362  0.016900644  0.016323726            4 
 3628000   0.67342242   -8.0399075    735.54908  0.016895192  0.016318597            8 
 3629000   0.67342186   -8.0299883    735.74027  0.016894927  0.016313474            3 
 3630000   0.65609818   -8.0474714    736.74272  0.016913286  0.016308354            4 
 3631000   0.65705959   -8.0351735     736.1644  0.016895355  0.016303238            5 
 3632000   0.66342756   -8.0165953     737.2755  0.016916196  0.016298118            4 
 3633000   0.68039581   -8.0330953    734.88923  0.016856804  0.016293023            3 
 3634000   0.66839167   -8.0145139    737.19943  0.016905142  0.016287925            2 
 3635000   0.67511756   -8.0215067    737.44862  0.016906204  0.016282825            2 
 3636000   0.67654777   -8.0265483    734.99562  0.016845334   0.01627772            2 
 3637000   0.66524555   -8.0362495    735.21616  0.016845756  0.016272615            6 
 3638000   0.68603231   -8.0341586    735.44555   0.01684638   0.01626752            3 
 3639000   0.65896815   -8.0328231       737.27   0.01688353  0.016262422            4 
 3640000    0.6686064   -8.0257784    736.37776  0.016858465   0.01625733            5 
 3641000   0.67937946    -8.020005    735.55303  0.016834959  0.016252234            2 
 3642000   0.67569121   -8.0103888     736.5539  0.016853238  0.016247128            2 
 3643000   0.66540041   -8.0153059     735.9192  0.016834093  0.016242025            2 
 3644000   0.66122033   -8.0201036    736.49164  0.016842564  0.016236937            1 
 3645000   0.66745053   -8.0180915    736.30575  0.016833693  0.016231846            4 
 3646000    0.6739073   -8.0267245     734.8828  0.016796553  0.016226778            4 
 3647000   0.67078907    -8.020934    736.18155  0.016821624  0.016221691            4 
 3648000   0.66639218   -8.0212685    735.44496  0.016800187  0.016216611            2 
 3649000   0.67037958   -8.0073871    737.50117  0.016842541   0.01621155            3 
 3650000   0.67069002   -7.9958941    737.61943  0.016840626  0.016206483            4 
 3651000   0.67045999   -8.0309948    736.71267  0.016815317  0.016201401            4 
 3652000   0.67921535   -8.0601343    736.35158  0.016802473   0.01619632            3 
 3653000   0.67539771     -8.04217    736.58075  0.016803101  0.016191247            3 
 3654000   0.66759413   -8.0204185     736.1192  0.016787977  0.016186178            4 
 3655000   0.65282669   -8.0251901    737.13345  0.016806508  0.016181108            3 
 3656000   0.66777832    -8.020908     737.1613  0.016802546  0.016176032            3 
 3657000   0.67052947   -8.0454612    735.49622  0.016760009  0.016170969            2 
 3658000    0.6680978   -8.0455282    737.21121  0.016794496  0.016165907            4 
 3659000    0.6776047   -8.0289027    737.46235  0.016795626  0.016160848            3 
 3660000   0.67193628   -8.0262355    735.73462  0.016751699  0.016155787            2 
 3661000   0.67786023   -8.0496669    736.62463  0.016767382  0.016150722            4 
 3662000   0.66869637   -8.0235076    737.11614  0.016773988  0.016145647            3 
 3663000   0.65855913   -8.0300769    736.83769  0.016763074  0.016140576            6 
 3664000   0.67766126   -8.0239422    737.01558  0.016762545  0.016135506            6 
 3665000   0.66128311   -8.0267933     735.6575  0.016727092  0.016130439            6 
 3666000   0.66580226   -8.0309297     735.3896  0.016716439  0.016125373            2 
 3667000   0.67447598   -8.0337808    735.83816  0.016722074  0.016120313            6 
 3668000   0.66956925   -8.0336863    735.58555  0.016711776   0.01611525            2 
 3669000   0.67531183   -8.0247161    738.07852  0.016763844  0.016110197            4 
 3670000   0.65817628   -8.0333511    735.79059  0.016707325   0.01610513            3 
 3671000   0.65827387   -8.0000541     735.3555  0.016692897  0.016100074            5 
 3672000   0.66454904   -8.0375666    737.64997  0.016740422  0.016095005            3 
 3673000   0.68640466   -8.0654756    735.76555  0.016693111  0.016089931            2 
 3674000    0.6569684   -8.0522862    736.38477  0.016702612  0.016084844            4 
 3675000   0.66982123   -8.0733634     735.4278  0.016676367  0.016079763            4 
 3676000   0.66750496   -8.0627551    735.92605  0.016683126  0.016074689            5 
 3677000   0.65649285   -8.0627778    735.37594  0.016666121  0.016069611            4 
 3678000   0.66668019   -8.0322278    736.64512  0.016690346  0.016064542            6 
 3679000   0.66298657   -8.0461067    735.86926  0.016668235  0.016059475            3 
 3680000   0.67506231   -8.0416188    735.65408  0.016658833  0.016054417            3 
 3681000   0.65494632   -8.0674227    735.57207  0.016652451  0.016049344            3 
 3682000   0.66719518   -8.0346465     735.2101  0.016639736  0.016044276            5 
 3683000    0.6446109   -8.0342289    736.70414  0.016669023  0.016039219            2 
 3684000   0.66116641   -8.0314848     735.3255  0.016633313  0.016034158            2 
 3685000   0.67035846   -8.0380857    736.68987  0.016659653  0.016029083            3 
 3686000   0.65114578   -8.0374322    737.06588  0.016663634  0.016024032            3 
 3687000   0.64458615   -8.0440859    737.24784  0.016663228  0.016018991            3 
 3688000   0.67795941   -8.0434614    735.67556  0.016623182  0.016013949            8 
 3689000   0.64578504   -8.0405518    736.39382  0.016634901  0.016008901            3 
 3690000   0.66383953   -8.0477788    736.22504  0.016626582  0.016003863            3 
 3691000    0.6498658   -8.0231235    736.31781  0.016624172   0.01599883            5 
 3692000   0.64713018    -8.034856     735.4223  0.016599456  0.015993779            3 
 3693000   0.66144366   -8.0448992    735.80808  0.016603666  0.015988727            3 
 3694000   0.65584197   -8.0477921    736.44947  0.016613641  0.015983671            4 
 3695000   0.66567798   -8.0320152    736.93542  0.016620104  0.015978624            2 
 3696000     0.673306   -8.0398899    734.55406  0.016561915  0.015973574            4 
 3697000   0.65759715   -8.0420502    736.37823  0.016598554  0.015968539            3 
 3698000   0.67483211   -8.0206896    736.23985  0.016590947  0.015963493            7 
 3699000   0.66693838   -8.0367811    735.87145  0.016578162  0.015958451            4 
 3700000   0.66005837   -8.0442102     734.9732  0.016553451  0.015953413            4 
 3701000   0.66199804    -8.032152     736.0999  0.016574347  0.015948375            4 
 3702000   0.65959209   -8.0203381    735.40064  0.016554129   0.01594333            2 
 3703000   0.66445079   -8.0350176    736.69466   0.01657878  0.015938291            3 
 3704000   0.67655104   -8.0399551     736.5918   0.01657199  0.015933245            4 
 3705000   0.67401528   -8.0408581    735.73553  0.016548258  0.015928204            6 
 3706000    0.6688125   -8.0356795    735.60522  0.016540862  0.015923164            5 
 3707000   0.65552676   -8.0303077      735.214  0.016527605  0.015918133            4 
 3708000   0.65386305   -8.0486942    735.01937  0.016518774  0.015913099            4 
 3709000   0.66274466   -8.0631637    735.20582  0.016518509  0.015908058            5 
 3710000   0.65302937   -8.0712228    736.28838  0.016538373   0.01590301            2 
 3711000   0.65302209     -8.05479    735.10537  0.016507351  0.015897957            4 
 3712000   0.65673669   -8.0541821    735.85419  0.016519715  0.015892917            5 
 3713000   0.65204616   -8.0622338    735.11825  0.016498749  0.015887866            2 
 3714000   0.65840203   -8.0504317    735.29683  0.016498313  0.015882824            4 
 3715000   0.66067794   -8.0347642    734.67134  0.016479842  0.015877779            4 
 3716000   0.64531327   -8.0648228    735.25865  0.016488578   0.01587274           12 
 3717000   0.67170422   -8.0604703    735.29203   0.01648489  0.015867706            7 
 3718000    0.6596807   -8.0398355    735.78197  0.016491437  0.015862684            6 
 3719000   0.66670713   -8.0651223    734.79019   0.01646478  0.015857657            5 
 3720000   0.66000718   -8.0552896    735.73218  0.016481456  0.015852619            5 
 3721000   0.66099236   -8.0806726    735.46782  0.016471106  0.015847574            8 
 3722000   0.64612398   -8.0453342    735.27129   0.01646228  0.015842534            3 
 3723000   0.66641115   -8.0471256    735.63555  0.016466012    0.0158375            5 
 3724000   0.66506939    -8.063305    735.04928  0.016448471  0.015832465            6 
 3725000   0.66677719   -8.0625236    734.86412  0.016439913  0.015827433            8 
 3726000    0.6662768   -8.0683398     734.9861  0.016438229  0.015822392           10 
 3727000   0.64791042    -8.051517    735.92828  0.016454885  0.015817371            6 
 3728000     0.658604   -8.0642996    735.62659  0.016443727  0.015812354            7 
 3729000   0.66090314   -8.0744362    735.39505  0.016434143  0.015807335            3 
 3730000   0.66214222   -8.0734708    735.22383  0.016425912  0.015802314            5 
 3731000   0.66361687   -8.0732601    734.41206  0.016403378  0.015797289            4 
 3732000   0.65637296   -8.0782945    735.40168  0.016421081  0.015792268            8 
 3733000   0.65437878   -8.0731003      735.884  0.016427449  0.015787251            6 
 3734000   0.65648464   -8.0485835    737.02239  0.016448455  0.015782243            2 
 3735000    0.6601097   -8.0616996    734.35884  0.016384624  0.015777238            6 
 3736000   0.64768539   -8.0532704    736.39386   0.01642563  0.015772226            3 
 3737000   0.65110091   -8.0577838    735.11884  0.016392803  0.015767224            2 
 3738000   0.65054592   -8.0589655    734.65618  0.016378103  0.015762208            6 
 3739000   0.65927414   -8.0746286    735.45803  0.016391594  0.015757188            3 
 3740000   0.64659421   -8.0586653    735.76782  0.016394114  0.015752171            3 
 3741000   0.65766262    -8.068655     735.6465  0.016387029  0.015747155            2 
 3742000   0.65877083   -8.0883645    734.98203  0.016367852  0.015742133            7 
 3743000   0.66300856   -8.0730262    735.65425  0.016378445  0.015737113            3 
 3744000   0.66219175    -8.060586    734.50767   0.01634855  0.015732102            3 
 3745000   0.65545548   -8.0688294    733.16596  0.016314329   0.01572709            3 
 3746000   0.64662294   -8.0389626    734.83293  0.016347057  0.015722071            4 
 3747000   0.66014182   -8.0759109    734.41306  0.016333357  0.015717066            1 
 3748000   0.64292248   -8.0425257    735.97149  0.016363649  0.015712079            4 
 3749000    0.6569128    -8.058712    735.12165  0.016340394  0.015707075            3 
 3750000   0.64415996    -8.063345    735.80042   0.01635112  0.015702078            4 
 3751000   0.64854643   -8.0614585    737.82193  0.016391672  0.015697085            3 
 3752000   0.64557219   -8.0526084    734.58717  0.016315458  0.015692089            2 
 3753000   0.65098943   -8.0509035    735.39645   0.01632908  0.015687093            3 
 3754000   0.66866557   -8.0742009    735.50379  0.016327113  0.015682085            3 
 3755000   0.64533908   -8.0672396    736.06546   0.01633523    0.0156771            4 
 3756000   0.64646504   -8.0839454    736.28372  0.016335723   0.01567211            2 
 3757000   0.65849804   -8.0802055     735.0192  0.016303327   0.01566712            8 
 3758000    0.6526543   -8.0709745     734.3242  0.016283577  0.015662126            3 
 3759000   0.65025596   -8.0671363    734.31088   0.01627895  0.015657132            3 
 3760000   0.64394371   -8.0660234    735.13636  0.016292916  0.015652136            3 
 3761000   0.64453851   -8.0799626    734.21458   0.01626816  0.015647139            4 
 3762000   0.64115374   -8.0691436    736.01809  0.016303785  0.015642162            2 
 3763000   0.63163766   -8.0564427    735.69655  0.016292332  0.015637172           10 
 3764000   0.63489321   -8.0917789    734.95007  0.016271477  0.015632182            4 
 3765000   0.64226983    -8.081321    736.14418  0.016293585  0.015627192            4 
 3766000   0.65662863   -8.0800256    734.71216  0.016257571  0.015622208            5 
 3767000    0.6475848   -8.1016762    735.22454   0.01626459  0.015617219            5 
 3768000   0.66222781   -8.0865277     735.9259  0.016275785  0.015612226            3 
 3769000    0.6577528   -8.0609412     736.0336  0.016273848  0.015607236            2 
 3770000   0.64863047   -8.0603129    735.15114  0.016250025   0.01560226            4 
 3771000   0.65044311   -8.0652193    734.49167  0.016231143  0.015597276            2 
 3772000   0.64345418   -8.0591941     735.5108  0.016249355  0.015592302            1 
 3773000   0.63517671   -8.0833087    736.27882  0.016262011  0.015587326            2 
 3774000   0.64706682   -8.0782834    735.65207  0.016243863  0.015582357            4 
 3775000   0.65854518   -8.0545655     735.5235  0.016236722  0.015577373            2 
 3776000   0.64083595   -8.0889196    735.16386  0.016224485  0.015572395            5 
 3777000   0.64600795   -8.0948976    734.62628  0.016208328  0.015567426            4 
 3778000   0.65196387    -8.080424    735.27831  0.016218421  0.015562448            2 
 3779000   0.63774584   -8.0765178    734.63068  0.016199847  0.015557464            1 
 3780000   0.66361463   -8.0755747    734.61732  0.016195267  0.015552479            4 
 3781000   0.64569783   -8.1312222    734.13093  0.016180264   0.01554749            2 
 3782000   0.65027135   -8.1095348    736.24038  0.016222466  0.015542496            4 
 3783000   0.65912765   -8.0823842    734.73896  0.016185104  0.015537503            2 
 3784000   0.65672898   -8.0960906    735.03922  0.016187439  0.015532514            2 
 3785000   0.64959896   -8.1005453    733.24667  0.016143696  0.015527527            2 
 3786000   0.64519516    -8.084931    735.11112   0.01618047   0.01552254            5 
 3787000   0.65371797   -8.0917668    733.65799  0.016144221  0.015517545            1 
 3788000   0.65219873   -8.1003578    735.47017  0.016179826  0.015512558            2 
 3789000   0.63660561   -8.0897474    735.81367  0.016183111  0.015507584            3 
 3790000   0.63669493   -8.1093166    733.93183  0.016137463  0.015502608            2 
 3791000   0.65557062   -8.0979521      732.482  0.016101337   0.01549763            3 
 3792000   0.63687997   -8.0928775    734.48378  0.016141082  0.015492663            5 
 3793000   0.63732742   -8.0853138    734.05868  0.016127487  0.015487697            3 
 3794000   0.64692846   -8.0875801    735.51967  0.016155326  0.015482734            6 
 3795000   0.63456804   -8.1001812    734.38658  0.016126188   0.01547778            5 
 3796000   0.64187019   -8.1044471    734.32244  0.016120531  0.015472816            6 
 3797000   0.64610351   -8.0831825    735.07213  0.016132739   0.01546786            3 
 3798000   0.64677866   -8.1054095    735.43236  0.016136395  0.015462908            2 
 3799000   0.65528832   -8.1250093    735.83228   0.01614092   0.01545795            3 
 3800000   0.65189126   -8.1035075    735.57762  0.016131088  0.015452999            6 
 3801000   0.62484178   -8.0999889    735.79704  0.016131655  0.015448053            2 
 3802000   0.64440665   -8.0988965    737.25575  0.016159384  0.015443106            3 
 3803000   0.62065891   -8.0866561    734.70565  0.016099256  0.015438159            3 
 3804000   0.64145095    -8.108818    735.42415  0.016110764  0.015433224            2 
 3805000   0.63800895   -8.0868268      735.119  0.016099847  0.015428277            2 
 3806000   0.64694554   -8.0773971    735.00574  0.016093137  0.015423339            6 
 3807000   0.63140391   -8.0831234    734.24298  0.016072213  0.015418411            6 
 3808000   0.64161289    -8.085354    735.22234  0.016089425  0.015413481            7 
 3809000   0.64414314   -8.0939424    735.08519    0.0160822  0.015408546            6 
 3810000   0.64452352   -8.0719843    735.60457  0.016089339  0.015403622            8 
 3811000   0.64517907    -8.089114    735.83345  0.016090122  0.015398712            4 
 3812000   0.62712771   -8.0980129    735.93039   0.01608802  0.015393786            3 
 3813000   0.63868323   -8.1168182    734.08076  0.016043377   0.01538886            5 
 3814000   0.61661561   -8.1143421    735.66617  0.016073811  0.015383945            3 
 3815000   0.64427008   -8.0855673     736.3442  0.016084408  0.015379036            5 
 3816000   0.61715307   -8.0942327    734.29136  0.016035363  0.015374131            6 
 3817000   0.63026818   -8.0767353    735.89368  0.016066145  0.015369232            4 
 3818000    0.6506007   -8.0813424    735.51768   0.01605373  0.015364338            4 
 3819000    0.6515649   -8.0971174    736.53675  0.016071763  0.015359438            7 
 3820000   0.63466527   -8.0698637     736.0398  0.016056715  0.015354535            3 
 3821000   0.63452567   -8.0874205    735.97152  0.016051023  0.015349625            2 
 3822000   0.65714547   -8.0862774    735.40892  0.016034557  0.015344713            3 
 3823000   0.63591849   -8.1182996    735.13857   0.01602447  0.015339808            4 
 3824000   0.64460567   -8.0741354    735.24175  0.016022528  0.015334888            4 
 3825000   0.63962163   -8.1128493    734.78188   0.01600832  0.015329974            2 
 3826000   0.63668539   -8.0887373    734.55597  0.015999215  0.015325067            5 
 3827000    0.6446833   -8.0934374    734.91959  0.016002952  0.015320151            3 
 3828000   0.64347195   -8.0897532    734.59615  0.015991731  0.015315237            3 
 3829000   0.63728836   -8.0940826    735.57661  0.016008893  0.015310328            3 
 3830000   0.62976496   -8.1049608    734.08924  0.015972351  0.015305411            3 
 3831000   0.63559183   -8.1173978    733.44642  0.015954199  0.015300485            3 
 3832000   0.62639033   -8.1150716    733.25563  0.015945886   0.01529555            5 
 3833000   0.64149215   -8.1273205    734.24523  0.015963241  0.015290624            3 
 3834000   0.64895527   -8.1230317     733.8392  0.015950252  0.015285701            3 
 3835000   0.64415619   -8.1038423    735.54454  0.015983149  0.015280785            2 
 3836000    0.6369298   -8.0851979    734.78986  0.015962588  0.015275875            2 
 3837000   0.64332905   -8.0824661    735.55374  0.015975018  0.015270966            2 
 3838000   0.64763119   -8.0914309    733.00577  0.015915533  0.015266067            7 
 3839000   0.63698305   -8.1081953     735.2699  0.015960535  0.015261167            6 
 3840000   0.64310081   -8.0913235    735.63781  0.015964362  0.015256263            2 
 3841000    0.6529752    -8.108601    735.51441  0.015957529  0.015251365            3 
 3842000   0.63992271   -8.1052564    733.95805  0.015919618  0.015246464            4 
 3843000   0.63368559    -8.106064    734.31451  0.015923205  0.015241566            3 
 3844000   0.64808799   -8.1130009    733.29394  0.015896938  0.015236672            3 
 3845000   0.63431126   -8.0985504    735.00658  0.015929921  0.015231776            5 
 3846000   0.63790903   -8.1048782    734.95084  0.015924572  0.015226887            4 
 3847000   0.62382471   -8.0917513    736.22441   0.01594802     0.015222            3 
 3848000   0.65073012   -8.0858268    736.97183  0.015960062  0.015217114            4 
 3849000    0.6388942   -8.1084017    734.49117  0.015902208  0.015212228            3 
 3850000   0.64199256   -8.0859598    735.05615  0.015910306  0.015207337            3 
 3851000   0.63342752   -8.1073631    735.06436  0.015906353  0.015202449            2 
 3852000   0.62296447   -8.1166449     735.4064  0.015909623  0.015197567            5 
 3853000   0.63141694    -8.097648    735.58768  0.015909414  0.015192668            3 
 3854000   0.63305892   -8.0988398     733.5141   0.01586045  0.015187777            3 
 3855000   0.62343606   -8.1104364    734.69577   0.01588188  0.015182879            4 
 3856000   0.63585447   -8.1142482    734.34393  0.015870158  0.015177976            3 
 3857000   0.62860506   -8.1282437    733.93874  0.015857288  0.015173072            6 
 3858000   0.64704423    -8.115013    734.09292  0.015856509  0.015168155            2 
 3859000   0.63756047   -8.1242021    733.76321   0.01584528  0.015163249            4 
 3860000   0.63548263   -8.1125184    732.77076  0.015819749  0.015158351            5 
 3861000   0.63483951    -8.132605    732.42045  0.015808091  0.015153447            2 
 3862000   0.64207413     -8.11448    732.94843   0.01581539  0.015148537            3 
 3863000   0.62727375   -8.1044525    734.67447   0.01584853  0.015143633            5 
 3864000   0.62911639   -8.1060148    733.63215  0.015821949  0.015138738            3 
 3865000   0.62249538   -8.1141087    732.82693  0.015800494  0.015133841            1 
 3866000   0.64428331   -8.1294365    733.64314  0.015814001  0.015128946            4 
 3867000   0.62893341   -8.1108482    733.84935  0.015814356  0.015124043            2 
 3868000   0.62199322   -8.1193845    734.45568   0.01582333  0.015119149            4 
 3869000   0.62187557   -8.1264982    733.23926   0.01579304  0.015114254            3 
 3870000   0.63328098   -8.1163251    734.02664  0.015805914   0.01510937            3 
 3871000   0.62850443   -8.1318083     733.6333  0.015793363  0.015104474            3 
 3872000   0.62749272   -8.1242803    734.18979  0.015801261  0.015099587            2 
 3873000   0.62610156   -8.1298354    733.49774  0.015782291  0.015094701            2 
 3874000    0.6290885   -8.1257656    733.63401  0.015781148  0.015089813            2 
 3875000   0.64205312   -8.1386776     734.3982   0.01579351  0.015084933            3 
 3876000   0.63903355   -8.1234279    733.82099  0.015777025  0.015080053            3 
 3877000   0.62955423   -8.1068969    734.33744  0.015784056  0.015075179            3 
 3878000   0.61972287   -8.1175932    733.24592  0.015756531  0.015070302            4 
 3879000   0.63631507    -8.129441    733.81583  0.015764712  0.015065427            3 
 3880000   0.62836477   -8.1400427    734.80815  0.015781962  0.015060559            3 
 3881000   0.63803079   -8.1295991    733.09978  0.015741213  0.015055676            1 
 3882000   0.64274292   -8.1132117    732.76512  0.015729974  0.015050798            3 
 3883000   0.63478256   -8.1243993    732.69264  0.015724368  0.015045912            3 
 3884000   0.64020452   -8.1335572    733.92383  0.015746735  0.015041029            2 
 3885000   0.62770738    -8.136428    732.92496  0.015721256  0.015036145            4 
 3886000    0.6369552   -8.1411519    733.12449  0.015721489  0.015031261            3 
 3887000   0.61573915   -8.1521024    732.04814  0.015694369  0.015026375            3 
 3888000   0.62889213   -8.1119451    734.75872  0.015748429   0.01502149            2 
 3889000   0.63446887    -8.141918    733.73884  0.015722526  0.015016618            3 
 3890000   0.63317725   -8.1254896    733.08988  0.015704582  0.015011734            3 
 3891000   0.62367432   -8.1215304    734.28626  0.015726169  0.015006865            3 
 3892000   0.64409901   -8.1242994    733.65341  0.015708578  0.015002002            1 
 3893000   0.62848669   -8.1270998     733.8643  0.015709057  0.014997132            3 
 3894000   0.62215506   -8.1184797    733.25807  0.015692049  0.014992274            3 
 3895000   0.63617978   -8.1489711    734.04367  0.015704828   0.01498741            5 
 3896000   0.62242848   -8.1497026    733.36104  0.015686196  0.014982547            2 
 3897000   0.62141318   -8.1318878    734.17176  0.015699507  0.014977681            3 
 3898000   0.62513883   -8.1383801    732.59944  0.015661866  0.014972814            3 
 3899000   0.61640042   -8.1261527    733.84356   0.01568444   0.01496795            4 
 3900000   0.62921299   -8.1441789    732.27365  0.015646873  0.014963094            3 
 3901000   0.64011216   -8.1423855    732.11533   0.01563948  0.014958238            5 
 3902000   0.62271259   -8.1283885    733.16395  0.015657867  0.014953372            3 
 3903000    0.6367636    -8.113201    732.30707   0.01563556  0.014948508            2 
 3904000   0.62919316    -8.137261    732.46551  0.015634937  0.014943655            2 
 3905000   0.62788364   -8.1247968    732.74314  0.015636858  0.014938803            4 
 3906000   0.62769753   -8.1275552    733.98572  0.015659364  0.014933942            4 
 3907000    0.6304109   -8.1103228    733.45804  0.015644101  0.014929101            2 
 3908000   0.63215043   -8.1561782    733.38532  0.015638547  0.014924243            8 
 3909000   0.62406773   -8.1371671    733.80793  0.015643556  0.014919386            4 
 3910000   0.62135348   -8.1427676    732.36743  0.015608854  0.014914537            3 
 3911000   0.64007679   -8.1568437    733.23047  0.015623252  0.014909687            2 
 3912000   0.61723039   -8.1615158    731.85847  0.015590032  0.014904832            2 
 3913000   0.63113732   -8.1498141    733.22626  0.015615177  0.014899986            2 
 3914000   0.62746914   -8.1487223    732.19528  0.015589237  0.014895138            2 
 3915000   0.61149128   -8.1605763    732.96587  0.015601657   0.01489029            4 
 3916000   0.62926469   -8.1342126    733.28641  0.015604495  0.014885452            2 
 3917000   0.61913124   -8.1669007    732.84721  0.015591167  0.014880612            5 
 3918000   0.62321255   -8.1433187    734.82575   0.01562927   0.01487578            5 
 3919000   0.62809434    -8.149115    732.98895  0.015586224  0.014870947            4 
 3920000   0.61579655   -8.1207284    733.17733  0.015586253  0.014866113            4 
 3921000   0.62261051   -8.1297122    733.38414  0.015586673  0.014861286            6 
 3922000   0.64069748   -8.1449603    732.56185  0.015565227  0.014856459            4 
 3923000   0.63621586   -8.1256529    734.27442  0.015597638  0.014851641            3 
 3924000   0.62227779   -8.1209424    732.58294  0.015557742  0.014846822            4 
 3925000   0.61222501   -8.1299001    733.63617  0.015576139  0.014842008            6 
 3926000   0.63072808   -8.1398397    733.36169  0.015566346   0.01483719            4 
 3927000   0.63575634   -8.1153152    732.05656  0.015534686  0.014832369            5 
 3928000   0.63441554   -8.1243993    733.15496  0.015554034  0.014827559            4 
 3929000    0.6167603   -8.1364136    734.41981  0.015576903  0.014822755            3 
 3930000   0.62940681   -8.1421912     731.9147   0.01551982  0.014817957            3 
 3931000   0.62598112   -8.1149397     735.1476  0.015584406  0.014813167            4 
 3932000   0.61525156   -8.1229113    732.45433  0.015523362  0.014808382            2 
 3933000   0.62851888   -8.1509587    733.38581  0.015539152  0.014803592            2 
 3934000   0.63544235   -8.1244121    734.63648  0.015561695  0.014798802            3 
 3935000   0.64556302   -8.1258206    733.62146  0.015536244  0.014794015            3 
 3936000   0.61512356    -8.143284    733.95687  0.015539399  0.014789227            6 
 3937000   0.62513581   -8.1253544    734.70866  0.015551364  0.014784442            1 
 3938000     0.609011   -8.1420601    733.66493  0.015525329  0.014779663            3 
 3939000   0.61991696   -8.1171448    733.35475  0.015514825  0.014774873            2 
 3940000   0.61956972    -8.152955    733.66587  0.015517468  0.014770094            2 
 3941000   0.61328225   -8.1240645    732.76371  0.015494454  0.014765305            4 
 3942000   0.61979203   -8.1302991    734.55986  0.015528494  0.014760515            4 
 3943000   0.61938296   -8.1721138    733.80288  0.015508557  0.014755729            3 
 3944000    0.6182566   -8.1288801    733.37787  0.015495645  0.014750945            3 
 3945000   0.62340173   -8.1543526    733.20142  0.015487989  0.014746148            3 
 3946000   0.63742156   -8.1274681    733.42125  0.015488707  0.014741352            2 
 3947000   0.62517481   -8.1467548     733.9246   0.01549541  0.014736569            3 
 3948000   0.62418158   -8.1465628    734.34764  0.015500414   0.01473179            2 
 3949000   0.62384313   -8.1286857    732.93398  0.015466658  0.014727002            3 
 3950000   0.62055723    -8.162701     732.0469  0.015444027  0.014722207            3 
 3951000   0.62289397    -8.156485    733.17384  0.015463888  0.014717417            3 
 3952000   0.62407978   -8.1277051    732.85995  0.015453356   0.01471263            2 
 3953000   0.60789456   -8.1304102    734.01762  0.015473852  0.014707847            4 
 3954000   0.62798466   -8.1574311    732.77317   0.01544371   0.01470307            2 
 3955000   0.63082937   -8.1511707     731.6164  0.015415432   0.01469828            5 
 3956000   0.63043253   -8.1530224     732.5293  0.015430766  0.014693496            3 
 3957000   0.63298622   -8.1685324    732.14348  0.015418741  0.014688715            6 
 3958000   0.60219883   -8.1608764     733.1307   0.01543563  0.014683934            8 
 3959000   0.61514237   -8.1527521    732.56459  0.015419815  0.014679144            3 
 3960000   0.60997091   -8.1659679    732.59855  0.015416636  0.014674362            3 
 3961000   0.62013884    -8.156563    732.68115  0.015414482  0.014669579            3 
 3962000   0.60808308   -8.1426056    733.63933  0.015430745  0.014664795            7 
 3963000   0.61296349   -8.1478271    733.44871  0.015422843  0.014660009            3 
 3964000   0.60904547   -8.1604497    732.36502   0.01539617  0.014655225            2 
 3965000   0.60958155   -8.1582107    732.49064  0.015394927  0.014650447            3 
 3966000   0.62735842   -8.1427982    732.56995  0.015392712  0.014645672            1 
 3967000   0.61222401   -8.1511188    733.21659  0.015402415  0.014640903            4 
 3968000   0.61694226   -8.1545706    732.48083  0.015383082  0.014636132            4 
 3969000   0.61061365   -8.1649011     732.0511  0.015370184  0.014631367            1 
 3970000    0.6171602   -8.1426582    733.40429  0.015394716  0.014626603            3 
 3971000   0.62383737   -8.1607126    733.13322  0.015385151   0.01462185            4 
 3972000   0.61179562   -8.1529104    732.23419  0.015362416  0.014617076            4 
 3973000   0.61784095   -8.1621588    733.14282  0.015377608  0.014612315            5 
 3974000   0.61340952   -8.1628147    732.94303  0.015369549  0.014607552            3 
 3975000   0.60804644   -8.1584207    731.85413  0.015342854  0.014602783            3 
 3976000    0.6145884   -8.1709668    732.50369  0.015352609  0.014598027            7 
 3977000   0.61508041   -8.1540535    732.09187   0.01534012  0.014593265            5 
 3978000   0.60888303   -8.1719025    733.13051  0.015358021  0.014588497            5 
 3979000   0.61752151   -8.1711972    732.54034  0.015341802  0.014583742            3 
 3980000   0.60698171   -8.1616309    732.53995  0.015337939  0.014578987            3 
 3981000   0.61141679   -8.1612178    732.37344    0.0153306  0.014574232            4 
 3982000   0.60621972   -8.1735596    733.03524    0.0153406   0.01456948            4 
 3983000   0.62307638   -8.1470803    732.67682   0.01532925  0.014564728            4 
 3984000   0.61314277   -8.1610685    732.41485  0.015319922  0.014559974            5 
 3985000    0.6336733   -8.1414314     732.9244  0.015326734  0.014555231            3 
 3986000   0.61896129   -8.1515028    733.43645  0.015333594  0.014550488            3 
 3987000   0.60968386   -8.1451858    733.54223  0.015331959  0.014545748            2 
 3988000   0.60884196   -8.1609412    732.27396  0.015301612  0.014541012            5 
 3989000   0.61646761   -8.1597743    732.12336   0.01529463  0.014536283            4 
 3990000    0.6087842   -8.1805767    732.64963  0.015301788  0.014531545            6 
 3991000   0.62907298   -8.1362656    731.81625  0.015280553  0.014526812            7 
 3992000   0.61095175   -8.1431456    732.20127  0.015284763   0.01452208            5 
 3993000    0.6124685   -8.1677583    731.11859  0.015258339   0.01451735            5 
 3994000   0.61925428   -8.1466083    734.23931  0.015319632  0.014512625            8 
 3995000   0.60642156   -8.1759413     732.5843  0.015281275  0.014507901            4 
 3996000   0.60582974   -8.1680922    732.62801  0.015278362  0.014503174            7 
 3997000   0.59442594   -8.1648616    732.56951   0.01527332  0.014498455            3 
 3998000   0.61335347   -8.1477254    732.16911  0.015261154  0.014493733            6 
 3999000    0.6177897   -8.1396924    730.87218  0.015230311  0.014489019            4 
 4000000   0.60814952   -8.1792202    731.93022  0.015248546  0.014484294            5 
 4001000    0.6181791     -8.15691    730.56242  0.015216246  0.014479567            4 
 4002000   0.61498382   -8.1559564    734.23152  0.015288846  0.014474854            4 
 4003000   0.61037996   -8.1645595    732.91697   0.01525766  0.014470132            5 
 4004000    0.6268616   -8.1661027    732.49691  0.015245107  0.014465415            5 
 4005000   0.61174796   -8.1542884    732.19009  0.015234917  0.014460699            4 
 4006000   0.62547598   -8.1732816    732.81411  0.015244094   0.01445598           10 
 4007000   0.60101911   -8.1611702    732.34459  0.015230526  0.014451268            3 
 4008000   0.62059953   -8.1669455    732.15294  0.015222741  0.014446556            6 
 4009000    0.6125415   -8.1662917    733.47103  0.015246342  0.014441839            3 
 4010000   0.60729999   -8.1867646    731.54813   0.01520258  0.014437127            5 
 4011000   0.61015773   -8.1875162    732.48023  0.015218155  0.014432415            4 
 4012000   0.60759458   -8.1601249     733.1028  0.015227293  0.014427705            6 
 4013000    0.6068819   -8.1785934    731.57974  0.015191871  0.014422997            4 
 4014000   0.60427567   -8.1753305    732.40677  0.015205256  0.014418291            3 
 4015000   0.60488531   -8.1636949    733.07034  0.015215242  0.014413589            5 
 4016000   0.61362205   -8.1533974    732.79102  0.015205657  0.014408889            5 
 4017000   0.60574503   -8.1719076    732.57739   0.01519744  0.014404203            4 
 4018000   0.60073903   -8.1556346    735.22681  0.015248606  0.014399515            3 
 4019000   0.59830408   -8.1654134    732.37345  0.015185648  0.014394825            4 
 4020000   0.60622863   -8.1815286    733.38382  0.015202816  0.014390136            2 
 4021000   0.60920883   -8.1752862    732.65096  0.015183846   0.01438545            3 
 4022000   0.61723715   -8.1754397    732.93751  0.015186008  0.014380765            6 
 4023000   0.61209144   -8.1747082    733.25723  0.015188856  0.014376082            8 
 4024000   0.60541504   -8.1721321    731.45243  0.015147706  0.014371397           10 
 4025000   0.61182013   -8.1591656    732.79889   0.01517182   0.01436671            8 
 4026000   0.61300327   -8.1719775    732.57222  0.015163359  0.014362031            7 
 4027000   0.62833882   -8.1660525    732.84125  0.015165161  0.014357353           13 
 4028000   0.60185084   -8.1804825     734.1459  0.015188388   0.01435268            4 
 4029000   0.59915573   -8.1553855    733.39279  0.015169041  0.014348004            8 
 4030000   0.59825494   -8.1834267    733.54585  0.015168442  0.014343325            4 
 4031000   0.58862447   -8.1683596     733.4388  0.015162466  0.014338644            3 
 4032000   0.61463268   -8.1746375    733.47435   0.01515944  0.014333966            4 
 4033000   0.60453961   -8.1738877    732.57202  0.015137037  0.014329288            3 
 4034000   0.60162662   -8.1609566    732.49797  0.015131754  0.014324621            5 
 4035000    0.6101092   -8.1787502    733.10152  0.015140469  0.014319952            4 
 4036000   0.61619627   -8.1519535    731.05912  0.015094547  0.014315282            5 
 4037000    0.6004638   -8.1888783    732.52146  0.015120994  0.014310611            6 
 4038000   0.61310381    -8.175183     732.3997  0.015114737  0.014305944            7 
 4039000   0.61338769   -8.1773567    731.15022  0.015085215   0.01430128            5 
 4040000   0.60665648   -8.1860685    733.26372  0.015125077  0.014296615            3 
 4041000   0.61188132   -8.1821171    732.34546  0.015102398  0.014291954            4 
 4042000   0.61284745   -8.1888001    732.54982  0.015102874    0.0142873            3 
 4043000   0.60259859   -8.1918932    731.99985  0.015087803  0.014282646            3 
 4044000    0.5912796   -8.1792565     732.4963  0.015094302  0.014277994            4 
 4045000    0.6022821   -8.1692651    732.51696  0.015090996   0.01427335            3 
 4046000   0.59792331   -8.1879401    732.54694  0.015087884  0.014268705            5 
 4047000   0.60432119   -8.1807557    732.45032  0.015082166  0.014264051            6 
 4048000   0.59997435   -8.1607083    731.20273  0.015052757  0.014259399            9 
 4049000   0.60428179   -8.1863799    731.82813  0.015061911  0.014254758            6 
 4050000   0.60326248   -8.1788869    732.09102  0.015063601  0.014250117            5 
 4051000   0.60294451    -8.171392    731.63978    0.0150506  0.014245474            8 
 4052000   0.60112627   -8.1657985    733.64361  0.015088097  0.014240846            5 
 4053000   0.61004954   -8.1807373    733.06752  0.015072529  0.014236214            6 
 4054000   0.59462136   -8.1842657    732.46708  0.015056469  0.014231573            7 
 4055000   0.60736712   -8.1820903    731.04802  0.015023593  0.014226938            4 
 4056000   0.60496289   -8.1780284    732.53273  0.015050393  0.014222299            4 
 4057000   0.61056168   -8.1681669    732.57535  0.015047559  0.014217674            3 
 4058000   0.60385183   -8.1935152    732.47281  0.015041745  0.014213047            3 
 4059000   0.60305465   -8.2163725    732.19902  0.015032418  0.014208412            2 
 4060000   0.60345765   -8.1889108    733.59128  0.015057292   0.01420379            2 
 4061000   0.59527286   -8.1750184    733.89004  0.015059715   0.01419917            4 
 4062000   0.58983189   -8.1480717    734.12144  0.015060755  0.014194559            2 
 4063000    0.6015729   -8.1731765      731.613  0.015005599  0.014189944            4 
 4064000   0.58580891    -8.172545    732.06282  0.015011131  0.014185322            8 
 4065000   0.61127706   -8.1798592     730.9198  0.014984006  0.014180708            3 
 4066000   0.61781717   -8.1868456    732.70746  0.015016959  0.014176094            5 
 4067000   0.59732547   -8.1856182    733.26297  0.015024649  0.014171476            7 
 4068000   0.60262318   -8.1697963    733.10866  0.015017795  0.014166855            5 
 4069000   0.58691207   -8.1930278    733.54451   0.01502303  0.014162238            4 
 4070000   0.60366517   -8.1757078    732.40095  0.014995924   0.01415762            5 
 4071000   0.59596529   -8.1963124    732.07292  0.014985526  0.014152997            3 
 4072000   0.59284436   -8.1953357    732.89653  0.014998701  0.014148378            2 
 4073000   0.60167899   -8.1879661    732.53053   0.01498753  0.014143766            6 
 4074000   0.59706024   -8.1881296    731.50629  0.014962901  0.014139153            6 
 4075000   0.59713917   -8.1978721    732.99487   0.01498967  0.014134545           14 
 4076000   0.59635341   -8.2096721    731.23973  0.014950109   0.01412993            5 
 4077000   0.59938897   -8.1815698    732.12214  0.014964478  0.014125319            3 
 4078000   0.61317614    -8.197043    731.65816  0.014951328  0.014120711            4 
 4079000   0.59695525   -8.1988631    733.18849  0.014978926  0.014116104            2 
 4080000   0.59026989   -8.1885181    731.97248  0.014950418    0.0141115            4 
 4081000   0.61534618   -8.1951611    731.30932  0.014933213  0.014106896            2 
 4082000   0.58677757    -8.193251    732.07944  0.014945277  0.014102293            4 
 4083000   0.61530071   -8.2024558    732.10058  0.014942048  0.014097698            8 
 4084000   0.60105825   -8.1841951     732.3728  0.014943944    0.0140931            2 
 4085000   0.59846067   -8.2016056    731.69285  0.014926415  0.014088508            5 
 4086000   0.59987513   -8.2041444     732.0054  0.014929136   0.01408391            9 
 4087000   0.60347608   -8.1917624    731.99998  0.014925373   0.01407932            4 
 4088000    0.5951196   -8.1958341    732.67169  0.014935414  0.014074732            2 
 4089000    0.5928874   -8.1826519    732.53948  0.014929067  0.014070143            5 
 4090000   0.60437567   -8.1961683    732.00378  0.014914503  0.014065556            4 
 4091000   0.59787472   -8.2117987    731.91636  0.014909076  0.014060964            5 
 4092000   0.61201496   -8.1933984     731.7272   0.01490158   0.01405637            2 
 4093000    0.6069986   -8.1953646    731.35332  0.014890327  0.014051791            3 
 4094000   0.59083954   -8.1848546    730.07392  0.014860648  0.014047206            5 
 4095000   0.60174456   -8.1747698    732.19054  0.014900092   0.01404262            3 
 4096000    0.5952558    -8.196127     731.7492  0.014887475  0.014038034            5 
 4097000   0.57361523   -8.2044182    732.25926  0.014894217  0.014033458            3 
 4098000   0.59255277   -8.2068024    732.21823  0.014889748  0.014028876            4 
 4099000   0.60379883   -8.2068792    731.30684  0.014867586    0.0140243            5 
 4100000   0.58959549   -8.2020811    733.00893  0.014898556  0.014019714            4 
 4101000   0.60119269   -8.2157336    731.54937  0.014865264   0.01401513            2 
 4102000    0.5849207   -8.2093448    731.70201  0.014864741  0.014010546            8 
 4103000   0.58349057   -8.2173029     729.9748  0.014826038  0.014005955            3 
 4104000   0.59773687   -8.2024717    732.29231  0.014869483  0.014001372            3 
 4105000   0.58622349   -8.1915592       731.49  0.014849574    0.0139968            5 
 4106000   0.57902918   -8.1891595    732.49333   0.01486632  0.013992214            3 
 4107000   0.59087975    -8.221966    731.82766  0.014849194  0.013987638            3 
 4108000   0.58199004   -8.2330434    731.23368   0.01483353  0.013983062            3 
 4109000    0.5929533    -8.196427    730.10875  0.014807105  0.013978482            5 
 4110000   0.59014727   -8.1938346    730.81373  0.014817797  0.013973904            2 
 4111000   0.60110827   -8.2177105    730.35183  0.014804829   0.01396933            2 
 4112000   0.59257406   -8.2185788    731.04381  0.014815252  0.013964753            2 
 4113000   0.60462918   -8.2172591    732.02782  0.014831587  0.013960182            7 
 4114000   0.60323661   -8.1972807     731.4007  0.014815279  0.013955614            2 
 4115000   0.57691002   -8.1978871    731.62125  0.014816145  0.013951037            3 
 4116000   0.59479538    -8.225843    730.71207  0.014794138  0.013946467            3 
 4117000   0.61011241   -8.2160393    730.19769  0.014780133  0.013941897            4 
 4118000   0.58883466   -8.1879598      731.459  0.014802068   0.01393733            3 
 4119000   0.59891705   -8.1959089     730.6835  0.014782785  0.013932766            9 
 4120000   0.59714369   -8.2016321    731.21286  0.014789904  0.013928209            2 
 4121000   0.59425851   -8.1743468     731.7444  0.014797064   0.01392365            2 
 4122000   0.58311019   -8.2159487     730.6145  0.014770631  0.013919099            2 
 4123000   0.59869871    -8.209896    731.82534  0.014791522   0.01391455            3 
 4124000   0.58524606   -8.2039577    731.36882   0.01477871  0.013909997            5 
 4125000   0.60121459   -8.2062716    731.22105  0.014772142  0.013905446            3 
 4126000   0.60465144   -8.1933475    732.46866   0.01479376  0.013900896            2 
 4127000   0.58442258    -8.213348    730.81028  0.014756689  0.013896347            2 
 4128000   0.58366664   -8.2038891    732.95517  0.014796414  0.013891797            1 
 4129000   0.59789457   -8.2146946    730.79619  0.014749257  0.013887245            3 
 4130000   0.59077077   -8.2037143     731.9726  0.014769423  0.013882699            4 
 4131000   0.57247957   -8.2063938    732.09447  0.014768306  0.013878153            2 
 4132000   0.59941388   -8.2318984    731.48773  0.014752495    0.0138736            4 
 4133000   0.58521252   -8.1918444    731.33593  0.014745865  0.013869059            2 
 4134000   0.58835267   -8.2022523     732.2998  0.014761728  0.013864517            5 
 4135000   0.59638593    -8.224738    731.03306  0.014732629  0.013859984            5 
 4136000   0.59638048   -8.2171899    729.48016  0.014697779  0.013855451            4 
 4137000   0.57259267   -8.2197163    731.28283  0.014730538  0.013850918            5 
 4138000   0.60361465   -8.2036078     729.9183  0.014699499  0.013846387            5 
 4139000   0.59088497   -8.2172917    730.26916  0.014703011  0.013841865            9 
 4140000   0.58106948    -8.201461    730.77567  0.014709655  0.013837338           13 
 4141000   0.58801687   -8.2289864    731.72637  0.014725235  0.013832813            6 
 4142000   0.59710859   -8.1953809    731.43262   0.01471577  0.013828293           10 
 4143000    0.5925333   -8.1950773    731.70676  0.014717732  0.013823771            9 
 4144000    0.6075876    -8.221837    731.45403  0.014709098  0.013819255           15 
 4145000   0.57948533   -8.2128179    730.69146  0.014690218  0.013814741           19 
 4146000   0.58893154   -8.2032118    731.92384  0.014711446  0.013810226           17 
 4147000   0.58800645    -8.234495    731.54677  0.014700321   0.01380571           11 
 4148000   0.59901464     -8.21992    730.88697  0.014683522   0.01380119           13 
 4149000   0.58411145   -8.2101889    730.04473  0.014663066  0.013796662            8 
 4150000   0.56788196   -8.2239294    730.34912  0.014665645  0.013792144            6 
 4151000   0.58916048   -8.2184246    731.86797  0.014692604   0.01378763           11 
 4152000   0.58859668   -8.2124384    730.86447  0.014668924  0.013783112           15 
 4153000   0.58353102   -8.2019762    730.76108  0.014663317  0.013778598            7 
 4154000   0.57531372   -8.1915075     732.1746  0.014688144  0.013774084            6 
 4155000   0.58225994   -8.2062787    730.96615  0.014660372  0.013769571            6 
 4156000    0.5744401   -8.2136559    731.59196  0.014669393  0.013765066            5 
 4157000   0.58557244   -8.2133369    730.49319  0.014643838  0.013760564            5 
 4158000    0.5798552   -8.2242856    731.16188  0.014653717  0.013756067            4 
 4159000   0.59147623   -8.2048507    730.98626  0.014646675   0.01375156            6 
 4160000   0.58465022   -8.2099227    731.93083  0.014662076  0.013747057            3 
 4161000   0.59516171   -8.2306648    731.09083  0.014641729   0.01374256            5 
 4162000    0.5812532   -8.2241683    731.34176  0.014643236   0.01373806           10 
 4163000   0.58754541   -8.2233337    731.77157  0.014648322  0.013733562            6 
 4164000    0.5821982   -8.2105324    731.76968  0.014644766  0.013729061            6 
 4165000    0.5710366   -8.2354814    731.98507   0.01464556  0.013724569            4 
 4166000    0.5862426   -8.2148724    730.52814  0.014612901  0.013720073            3 
 4167000   0.59253204   -8.2187842    731.99083  0.014638645  0.013715586            7 
 4168000   0.59306294   -8.2090048    731.78772  0.014631072  0.013711099            3 
 4169000    0.5916302   -8.2328296    731.34805  0.014618774  0.013706614            2 
 4170000   0.57812944   -8.2207293     731.2732  0.014613773  0.013702128            7 
 4171000   0.59159499    -8.219519    731.72665  0.014619329  0.013697649            7 
 4172000   0.57118827   -8.2318359    731.84026  0.014618094  0.013693174            6 
 4173000    0.5726559   -8.2256483    730.29259  0.014583685    0.0136887            3 
 4174000   0.57720738   -8.2082699    730.59455  0.014586219  0.013684214            2 
 4175000   0.58231649   -8.2265349    731.59881  0.014602771  0.013679733            4 
 4176000   0.56695233   -8.2341267    729.99855   0.01456734  0.013675254            2 
 4177000   0.58955985   -8.2288815    730.75222  0.014578889  0.013670772            5 
 4178000   0.57071261   -8.2217229    730.81045  0.014576561  0.013666297            6 
 4179000    0.5870647   -8.2308577    729.97611  0.014556435  0.013661817            4 
 4180000   0.58503478    -8.217145    730.59329  0.014565257  0.013657337           10 
 4181000   0.58244199   -8.2317848    730.02614  0.014550469  0.013652852            6 
 4182000   0.58562233   -8.2466382    730.32115  0.014552868  0.013648367            7 
 4183000    0.5819343   -8.2461833    730.82419  0.014559411  0.013643887            2 
 4184000   0.58733644   -8.2298291    730.37863  0.014547057  0.013639414            6 
 4185000   0.58893087   -8.2269338    729.30759  0.014522254  0.013634941            7 
 4186000   0.58676312   -8.2379215    730.27962  0.014538135  0.013630477            5 
 4187000    0.5902659   -8.2305064    731.02871  0.014549572  0.013626022            4 
 4188000   0.58965928   -8.2312713    730.18023  0.014529215  0.013621559            6 
 4189000   0.59304383   -8.2331561    730.36225  0.014529368    0.0136171            8 
 4190000   0.58052061   -8.2401762    729.96789  0.014518057  0.013612641           10 
 4191000   0.56684556   -8.2151511    729.74263  0.014510113   0.01360818            6 
 4192000   0.57649986   -8.2264376    729.24196  0.014496699  0.013603723            3 
 4193000   0.59330805   -8.2453962    729.85083  0.014505343  0.013599268            7 
 4194000   0.58359219   -8.2337617    730.62438  0.014517254  0.013594812            5 
 4195000   0.57982056   -8.2254526    730.75009  0.014516291  0.013590355            4 
 4196000   0.58952607   -8.2226712    730.11712  0.014500261  0.013585906            5 
 4197000   0.57875867   -8.2185573    731.47716   0.01452381  0.013581455            5 
 4198000   0.57660515   -8.2444344    729.80914  0.014487239  0.013577011            6 
 4199000   0.58649719   -8.2375376    730.19505  0.014491447  0.013572563            5 
 4200000   0.57611284   -8.2413915    730.65156  0.014497055  0.013568114            3 
 4201000   0.59052103   -8.2302928    730.35116  0.014487645  0.013563665            5 
 4202000   0.59000518   -8.2253267    731.63962   0.01450975  0.013559216           10 
 4203000   0.57411331   -8.2384196    731.71481  0.014507788  0.013554774            8 
 4204000   0.58223615   -8.2529905     731.5275  0.014500624  0.013550325            2 
 4205000   0.57906377   -8.2391438    731.13176  0.014489333  0.013545884            9 
 4206000   0.58107387   -8.2365518    731.40191  0.014491241  0.013541447           12 
 4207000   0.57490268   -8.2371454    730.43884   0.01446872  0.013537005            9 
 4208000   0.57735859   -8.2466964    731.84723  0.014493172  0.013532568            6 
 4209000   0.57043572   -8.2431696    730.52173  0.014463486  0.013528133            4 
 4210000   0.56858309   -8.2386109    729.88581  0.014447463  0.013523699           10 
 4211000   0.57616799   -8.2415843    732.03413  0.014486546  0.013519267            4 
 4212000   0.57185241   -8.2282817    730.35135  0.014449813  0.013514836            3 
 4213000   0.57938539   -8.2568754    730.92481  0.014457726  0.013510414            5 
 4214000   0.57327122   -8.2519129    730.20707  0.014440102  0.013505982            4 
 4215000   0.57523348   -8.2641142    731.10408  0.014454411  0.013501558            6 
 4216000   0.57863123   -8.2540863    730.16942  0.014432508  0.013497134            5 
 4217000   0.58165085   -8.2498491    730.61302  0.014437851  0.013492715            4 
 4218000   0.56738067   -8.2458675    731.68539  0.014455615  0.013488297            9 
 4219000    0.5831041   -8.2498263    731.07624  0.014440156  0.013483879            4 
 4220000   0.58112432   -8.2354271    730.39171  0.014423217  0.013479463            3 
 4221000   0.58713346   -8.2257116     730.0623  0.014413297  0.013475049           11 
 4222000   0.57289755   -8.2544856    731.16233  0.014431595  0.013470638            3 
 4223000    0.5847174   -8.2450584    731.35875  0.014432054  0.013466228            6 
 4224000   0.56860879   -8.2448651    729.17483  0.014385551  0.013461819            5 
 4225000   0.58177801   -8.2537367    731.24075  0.014422894  0.013457414            2 
 4226000   0.57811149   -8.2518234    730.32585  0.014401441  0.013453006            2 
 4227000    0.5608903   -8.2544591    730.80849  0.014407549  0.013448601            3 
 4228000   0.57060066   -8.2534153     731.4228  0.014416249  0.013444193            4 
 4229000   0.56401076   -8.2496116    730.65756  0.014397761  0.013439794            2 
 4230000   0.56054548   -8.2430244    731.01531  0.014401405  0.013435396            3 
 4231000   0.57924482   -8.2577194    730.80471  0.014393853  0.013430996            6 
 4232000   0.58224687   -8.2298078    730.61024  0.014386623  0.013426596            5 
 4233000   0.56678644   -8.2574417    729.79541  0.014367183  0.013422197            2 
 4234000   0.56715792   -8.2444022    731.30282  0.014393458  0.013417805            5 
 4235000   0.56522436   -8.2553098    730.28921  0.014370114  0.013413415            5 
 4236000   0.57456162   -8.2641506    731.57616   0.01439204  0.013409021            4 
 4237000   0.57943323   -8.2528704    730.31971  0.014363931  0.013404635           10 
 4238000   0.57494632   -8.2411707    730.37179  0.014361566  0.013400245            3 
 4239000   0.57497879   -8.2426222    730.62271  0.014363111   0.01339586            4 
 4240000   0.58511385   -8.2372123    729.57619  0.014339155  0.013391476            4 
 4241000   0.57316408   -8.2593815    729.66529  0.014337524  0.013387089            2 
 4242000   0.56767053    -8.266405    731.25436  0.014365362  0.013382707            4 
 4243000   0.58052677   -8.2568703    730.84785  0.014353992  0.013378321            5 
 4244000   0.57609611   -8.2726838    731.00558  0.014353707  0.013373935            3 
 4245000   0.57416396    -8.273926    729.46538   0.01432009   0.01336955            8 
 4246000   0.57447752   -8.2576871    729.91703  0.014325581   0.01336516            6 
 4247000   0.57286556   -8.2245063    729.41874  0.014312431   0.01336078            3 
 4248000   0.58442862   -8.2401456    730.01017  0.014320664  0.013356402            4 
 4249000   0.56926567   -8.2634367    730.09611  0.014318979  0.013352025            3 
 4250000   0.56259946   -8.2497975    729.82194  0.014310234  0.013347648            3 
 4251000   0.56795891   -8.2726771    730.27393  0.014315728  0.013343267            3 
 4252000   0.56454362   -8.2544076    729.91713  0.014305369  0.013338886            3 
 4253000   0.57569308   -8.2710507    729.54397  0.014294693   0.01333451            4 
 4254000   0.56683104   -8.2600393    728.94132  0.014279527  0.013330138            7 
 4255000   0.57495632   -8.2692882    729.68226  0.014290683  0.013325761            4 
 4256000   0.55675356   -8.2826942    729.09643  0.014275854  0.013321384            3 
 4257000   0.56607535   -8.2769687     730.2458     0.014295  0.013317007            4 
 4258000   0.58089524   -8.2564978    729.72313  0.014281414  0.013312641            5 
 4259000   0.55813511   -8.2509274    729.91883   0.01428189  0.013308273            4 
 4260000   0.56917597   -8.2531642    729.14086  0.014263319  0.013303908            6 
 4261000   0.55844528   -8.2645821    730.35751  0.014283766  0.013299541            3 
 4262000   0.55769412   -8.2506129    729.74006  0.014268342  0.013295179            6 
 4263000   0.56385501   -8.2312585    729.92578  0.014268625  0.013290815            3 
 4264000    0.5680059   -8.2847288    729.60163  0.014258944  0.013286461            4 
 4265000   0.56328149    -8.245671    730.15126   0.01426634  0.013282104            3 
 4266000   0.57777063   -8.2594337    728.74057  0.014235439  0.013277742            2 
 4267000   0.58226264   -8.2751111    729.23256  0.014241711  0.013273385            4 
 4268000   0.55686517   -8.2688109    729.51542  0.014243897  0.013269022            3 
 4269000   0.58183471   -8.2619902    729.17299  0.014233876  0.013264666            3 
 4270000   0.56013119   -8.2634928    729.24728  0.014231992  0.013260309            3 
 4271000   0.56820262    -8.267066    729.54704  0.014234509  0.013255954            5 
 4272000   0.56189195   -8.2612808      728.809   0.01421678    0.0132516            7 
 4273000   0.56110912   -8.2582537    729.28995  0.014222832  0.013247248            7 
 4274000   0.56516964    -8.257436    728.88899  0.014211687  0.013242905            3 
 4275000   0.56609893   -8.2593505    730.35909  0.014237019  0.013238563            2 
 4276000   0.56172864   -8.2716167    730.20974  0.014230779  0.013234217            4 
 4277000   0.56359053   -8.2674682    729.40072  0.014211689  0.013229873            4 
 4278000    0.5593536   -8.2875556    729.73635  0.014214905  0.013225532            4 
 4279000   0.56624624   -8.2652858    729.37049  0.014204458   0.01322119            2 
 4280000   0.58240032   -8.2779908    729.73548  0.014208245  0.013216851            3 
 4281000   0.56279952   -8.2741297    729.92903  0.014208694  0.013212508            3 
 4282000   0.56643847   -8.2689008    729.64613   0.01419987  0.013208172            5 
 4283000   0.57124637    -8.284123     728.8963  0.014181966  0.013203837            3 
 4284000   0.55832408    -8.260426    729.31649  0.014186829  0.013199504            5 
 4285000   0.56206534    -8.254646    729.66327  0.014190262   0.01319518            2 
 4286000   0.55942641   -8.2852466    730.82185  0.014209478   0.01319085            3 
 4287000   0.56394276   -8.2660291     728.4449  0.014159958  0.013186524            2 
 4288000   0.57159597   -8.2632685    729.18255  0.014170992  0.013182203            4 
 4289000   0.56841594   -8.2621497    729.78846   0.01417946  0.013177881            2 
 4290000   0.55070684   -8.2498159    728.75296   0.01415604  0.013173559            2 
 4291000   0.56030067   -8.2269768    730.71309  0.014190808   0.01316924            4 
 4292000   0.56915661   -8.2519343    729.35228   0.01416108  0.013164926            5 
 4293000   0.56628267   -8.2564378     729.5607  0.014161827  0.013160613            2 
 4294000    0.5603948   -8.2576733    728.94434  0.014146568  0.013156296            3 
 4295000   0.57437148   -8.2545243     729.8505  0.014160856  0.013151986            4 
 4296000   0.57229561   -8.2575559     730.5403   0.01417094   0.01314768            2 
 4297000   0.56189106   -8.2629718    730.07156  0.014158552  0.013143373            4 
 4298000   0.56699831    -8.257672    730.36519  0.014160951  0.013139074            2 
 4299000   0.56530594   -8.2608882    729.18176  0.014134717  0.013134766            4 
 4300000   0.55624263   -8.2671464    730.05693   0.01414839  0.013130463            5 
 4301000   0.56929017   -8.2538885    729.69091  0.014138009  0.013126161            4 
 4302000    0.5623217   -8.2643684    729.90266  0.014138824  0.013121858            5 
 4303000   0.55722602   -8.2732427    728.70862  0.014112414  0.013117561            3 
 4304000   0.55140409   -8.2719808    730.20901  0.014138186  0.013113257            2 
 4305000    0.5526709   -8.2424003     729.5713  0.014122557   0.01310896            4 
 4306000   0.57262178   -8.2693644    728.37079  0.014096044  0.013104664            2 
 4307000   0.55966568   -8.2628781    729.89051  0.014122175  0.013100373            6 
 4308000   0.56902504   -8.2556006    728.77759  0.014097369  0.013096079            6 
 4309000     0.572481   -8.2702517    729.76414  0.014113177  0.013091788            3 
 4310000   0.56128906   -8.2591802    729.91285  0.014112777  0.013087494            4 
 4311000   0.54665371    -8.288557    728.33293  0.014078963   0.01308321            2 
 4312000    0.5544119   -8.2769358    729.86892  0.014105383  0.013078922            2 
 4313000    0.5576236   -8.2735493    728.96388  0.014084626  0.013074629            2 
 4314000   0.56060329   -8.2619884    729.56151  0.014092905  0.013070343            2 
 4315000   0.57010937   -8.2761702    727.82185  0.014056042  0.013066053            2 
 4316000   0.55379906   -8.2753574    728.58816  0.014067581  0.013061767            3 
 4317000   0.56332815   -8.2673351    729.37851  0.014079579  0.013057487            2 
 4318000   0.55989954    -8.283659    729.83281  0.014085086  0.013053206            3 
 4319000   0.54869022   -8.2731679    729.99681  0.014084989  0.013048926            5 
 4320000    0.5524818   -8.2634883    730.54554  0.014092314  0.013044647            3 
 4321000   0.55908123   -8.2714556    729.59947  0.014070807  0.013040371            3 
 4322000   0.56150523   -8.2736679    729.06225  0.014057193  0.013036095            3 
 4323000   0.54403606   -8.2651984    729.40119  0.014060475  0.013031823            4 
 4324000   0.55760565   -8.2719165    729.51496  0.014059416   0.01302756            4 
 4325000   0.56619666   -8.2689117    729.41517  0.014054242  0.013023293            5 
 4326000   0.55038683   -8.2628713    728.48408  0.014033057  0.013019036            3 
 4327000   0.55913062   -8.2791384     728.2376  0.014025067  0.013014777            4 
 4328000   0.56055415   -8.2915842    729.25991  0.014041511  0.013010513            5 
 4329000   0.55192446   -8.2809755    728.86463  0.014030658  0.013006257            4 
 4330000   0.56589706   -8.2619495    730.50346  0.014058958  0.013002005            6 
 4331000   0.56009236   -8.2748206    727.82319   0.01400414  0.012997753            4 
 4332000   0.55295288   -8.2615878    730.14374  0.014045547  0.012993501            5 
 4333000   0.56312706   -8.2657302    729.04882  0.014021248  0.012989251            5 
 4334000   0.55100186   -8.2715994    728.85928  0.014014369  0.012984998            5 
 4335000   0.54632902    -8.277072    730.18325  0.014036587  0.012980747            5 
 4336000   0.55499162   -8.2918257      728.964  0.014009917  0.012976502            2 
 4337000   0.55517612   -8.2827877    728.73816  0.014002347  0.012972255            2 
 4338000   0.55454088   -8.2850073    728.54543  0.013995417  0.012968004            4 
 4339000    0.5708135   -8.2774151    730.29156  0.014025727  0.012963759            4 
 4340000    0.5609474   -8.2678014    730.27472  0.014022172  0.012959519            5 
 4341000   0.55479527   -8.2871472    728.08081  0.013976826  0.012955273            4 
 4342000   0.54978499   -8.2755507    729.01691  0.013991573  0.012951025            5 
 4343000   0.55316332   -8.2949694    727.82043  0.013965393   0.01294678            5 
 4344000   0.55405623   -8.2802531    728.88819  0.013982662  0.012942537            3 
 4345000   0.54811674   -8.2947078    727.99975  0.013962404  0.012938293            3 
 4346000   0.55552176    -8.282828    728.95414  0.013977492  0.012934048            7 
 4347000   0.55495567   -8.2923648    727.99807  0.013955948  0.012929808            5 
 4348000   0.55403448   -8.2760859    728.64372  0.013965113   0.01292557            2 
 4349000   0.56009024   -8.2906426    728.90886  0.013966982  0.012921329            3 
 4350000   0.55273926   -8.2831553    728.59787  0.013957814  0.012917088            4 
 4351000   0.56915342   -8.2733484     729.2175  0.013966473  0.012912852            4 
 4352000     0.558079   -8.3022111    728.77928  0.013954873  0.012908617            2 
 4353000   0.55690202   -8.3030248    728.64021  0.013949005  0.012904377            4 
 4354000    0.5506406   -8.2967742    728.87412  0.013950278  0.012900144           10 
 4355000   0.56419257   -8.2817159    729.14506  0.013952259  0.012895913            1 
 4356000   0.55361174   -8.2926425    728.38493  0.013934514  0.012891686            7 
 4357000   0.55278596   -8.3026448    727.12688  0.013907254  0.012887456            4 
 4358000   0.56366138   -8.3013822    727.64862   0.01391404  0.012883229            6 
 4359000   0.54239673   -8.2970515    729.13199  0.013939206  0.012879001            3 
 4360000   0.55919756   -8.2977686    727.61154  0.013906948  0.012874776            3 
 4361000   0.54953653   -8.2779612      727.816  0.013907666  0.012870547            4 
 4362000   0.55521625    -8.303422    728.42996  0.013916207  0.012866326            2 
 4363000   0.55846725   -8.2746213    728.89922  0.013921981   0.01286211            2 
 4364000   0.56307388   -8.2882428    728.32205  0.013907769  0.012857893            3 
 4365000   0.55239428   -8.2923474    728.69924  0.013911784  0.012853678            3 
 4366000   0.55631109   -8.2925345    728.42589   0.01390338  0.012849461            4 
 4367000   0.57562441   -8.2786114     728.2429  0.013896704  0.012845251            3 
 4368000   0.55079489   -8.2679308    728.83403  0.013904801  0.012841046            3 
 4369000     0.546562   -8.3132718    728.54844  0.013896171  0.012836834            4 
 4370000   0.56549755   -8.2931578     728.8093  0.013897965  0.012832628            4 
 4371000   0.55937458   -8.2915468    728.57802  0.013890376  0.012828422            2 
 4372000   0.55363661   -8.2830918    729.04644  0.013896128  0.012824219            3 
 4373000   0.53946462   -8.2887335    728.92379  0.013890613  0.012820028            2 
 4374000   0.55404904   -8.3055787    728.31955  0.013875925  0.012815828            2 
 4375000   0.54605845   -8.2977732    728.32635  0.013872883  0.012811625            2 
 4376000   0.55536352   -8.2883924    728.46339  0.013872322  0.012807428            3 
 4377000   0.54620049   -8.2861587    728.32805  0.013866576  0.012803227            4 
 4378000   0.54162446   -8.2968846    728.13859  0.013859803  0.012799036            3 
 4379000    0.5437492   -8.3005903     727.3176  0.013841014  0.012794838            2 
 4380000    0.5385252   -8.2888805    728.08177  0.013852393  0.012790647            3 
 4381000   0.55049691   -8.3002644    729.26461   0.01387173  0.012786457            2 
 4382000   0.56195576   -8.2925168    729.30219  0.013869279  0.012782276            3 
 4383000   0.55531748   -8.2869992    729.55314  0.013870886  0.012778097            4 
 4384000   0.54705946   -8.3102481    729.11776  0.013859446  0.012773919            3 
 4385000   0.55988244   -8.2960732    728.24403  0.013839681  0.012769735            2 
 4386000   0.53921267    -8.299174    730.15516  0.013872837  0.012765555            4 
 4387000   0.55710545   -8.2833348    729.40376  0.013855402   0.01276138            3 
 4388000   0.55534776   -8.2950534     728.0995  0.013827475  0.012757204            3 
 4389000   0.54221952   -8.3008253    727.60755  0.013814984  0.012753028            4 
 4390000   0.56707452   -8.2978575    728.02637  0.013819787  0.012748856            2 
 4391000   0.54623849   -8.2907303    728.37711  0.013823296  0.012744686            2 
 4392000   0.54531766   -8.2933348    728.48184  0.013822136  0.012740518            2 
 4393000   0.55904717   -8.2904816     728.4337  0.013818076   0.01273635            3 
 4394000   0.55739554   -8.2818518    729.42549  0.013833741  0.012732181            6 
 4395000   0.55303175   -8.3076907    729.74312  0.013836616  0.012728017            4 
 4396000   0.54689775   -8.2920588    729.37179  0.013826429  0.012723853            6 
 4397000   0.55916749   -8.3030746     729.0598  0.013817372  0.012719691            7 
 4398000   0.55135609   -8.2864867    728.31128  0.013800047  0.012715529            3 
 4399000   0.54807065   -8.2990438    728.73777  0.013804989  0.012711368            5 
 4400000   0.54077601   -8.2995256    727.37767  0.013776092  0.012707202            5 
 4401000   0.54459279   -8.2982647    727.73481  0.013779725  0.012703041            3 
 4402000   0.53898042   -8.3015615    727.52937  0.013772705  0.012698882            5 
 4403000   0.54255161   -8.2946068    726.84832  0.013756687  0.012694719            5 
 4404000   0.54557262   -8.3118916    728.75601  0.013789661  0.012690558            2 
 4405000   0.55687928   -8.2981514    727.43497  0.013761539  0.012686398            3 
 4406000   0.54768104    -8.297441    727.39132   0.01375759  0.012682236            7 
 4407000   0.54840217    -8.296856    727.86887  0.013763499  0.012678076            3 
 4408000   0.55119638   -8.3026828    727.99634  0.013762786  0.012673922            4 
 4409000   0.54750633   -8.2976631       728.01  0.013759923  0.012669766            2 
 4410000    0.5461207   -8.3094781    727.98246  0.013756282  0.012665613            5 
 4411000   0.54917326    -8.307864    728.99308  0.013772257  0.012661465            6 
 4412000   0.54412319   -8.2962731    726.83427   0.01372836  0.012657316            2 
 4413000   0.53732413   -8.3312368    728.37562  0.013754355  0.012653173            3 
 4414000   0.55003255   -8.2996065    728.40133  0.013751724  0.012649031            4 
 4415000   0.53960236   -8.3176957    728.34772  0.013747598   0.01264489            4 
 4416000   0.54177981   -8.3077663    728.81502  0.013753303  0.012640748            6 
 4417000   0.55320176   -8.3115251     726.6644  0.013709614  0.012636605            3 
 4418000   0.53831582   -8.3181338    727.23922  0.013717354   0.01263246            3 
 4419000   0.54273279   -8.3011757    727.87773  0.013726291  0.012628321            4 
 4420000   0.54022141   -8.2915335    729.27392  0.013749508  0.012624186            5 
 4421000    0.5409902    -8.310926    726.56578  0.013695351  0.012620045            7 
 4422000   0.56297986   -8.3090712    728.50999  0.013728893  0.012615907            3 
 4423000   0.54140771   -8.2961863    726.86654  0.013694825  0.012611772            2 
 4424000   0.54408008   -8.3211323    727.36683  0.013701153  0.012607635            4 
 4425000   0.54673969   -8.3296697    728.18643  0.013713492  0.012603502            4 
 4426000   0.54755042   -8.3141221    728.70642  0.013720184  0.012599368            2 
 4427000   0.54509002    -8.304076    728.12785  0.013706194  0.012595238            3 
 4428000   0.53484098   -8.3039913    726.66912  0.013675646  0.012591108            2 
 4429000   0.53546151   -8.3207397    728.55482  0.013708038  0.012586983            3 
 4430000   0.52763534   -8.3022522    727.72663  0.013689365  0.012582858            2 
 4431000   0.54029147   -8.3123827    727.41224  0.013680363  0.012578737            4 
 4432000   0.54509121   -8.3115407    727.64958  0.013681739  0.012574617            2 
 4433000   0.54285706   -8.3037237    728.89425   0.01370205    0.0125705            3 
 4434000   0.53210991   -8.3321537    727.90476  0.013680363  0.012566384            4 
 4435000   0.54668939    -8.318854    726.52327   0.01365132  0.012562267            1 
 4436000   0.53368405   -8.2957364    727.12174  0.013659486  0.012558148            3 
 4437000   0.53842615    -8.306929     727.5333  0.013664137  0.012554035            3 
 4438000   0.54412464   -8.3088121    727.48439  0.013660139  0.012549929            2 
 4439000   0.53548439   -8.3169475    728.30621   0.01367249  0.012545824            2 
 4440000   0.53676275   -8.3087165    727.11864  0.013647122  0.012541716            2 
 4441000   0.54389208   -8.3056561    727.16735  0.013644963  0.012537605            2 
 4442000    0.5485013   -8.3258657    727.63156    0.0136506  0.012533495            2 
 4443000   0.53405893   -8.3212036    728.50197  0.013663853  0.012529392            1 
 4444000   0.54528628   -8.3129347    727.40204  0.013640152   0.01252529            4 
 4445000   0.54548401    -8.307298    727.25665  0.013634358   0.01252119            4 
 4446000   0.54154346   -8.3284028    727.08248  0.013628027  0.012517088            2 
 4447000   0.54807921   -8.3221916    727.13458  0.013625938  0.012512987            2 
 4448000   0.53270527   -8.3210504    727.94386  0.013638037   0.01250889            3 
 4449000   0.53694638   -8.3276296    727.91707   0.01363447  0.012504794            1 
 4450000   0.54067463   -8.3195159    727.68741  0.013627105  0.012500691            2 
 4451000   0.53378883   -8.3346696    728.59882  0.013641107  0.012496595            3 
 4452000   0.54871424    -8.330641    729.07115  0.013646884  0.012492507            3 
 4453000   0.53390464   -8.3043427    728.08234  0.013625315  0.012488416            4 
 4454000   0.54156485   -8.3204804    727.18052  0.013605383  0.012484328            2 
 4455000   0.54317112   -8.3263357    726.23855  0.013584709   0.01248024            5 
 4456000   0.54137822   -8.3288488    727.35188  0.013602481  0.012476154            2 
 4457000   0.55716812   -8.3195307    727.87496  0.013609209  0.012472071            4 
 4458000    0.5476913   -8.3286072    727.99186  0.013608342  0.012467993            3 
 4459000   0.54549611   -8.2976689    728.54366  0.013615603  0.012463913            3 
 4460000   0.55136675   -8.3082976    727.08782  0.013585348  0.012459835            3 
 4461000    0.5425885   -8.3239475    728.00723  0.013599478  0.012455758            3 
 4462000   0.54310024    -8.321008    727.97093  0.013595752  0.012451678            3 
 4463000   0.52815428   -8.3179476    728.15882  0.013596214  0.012447604            2 
 4464000   0.54354262   -8.3226756    728.56134  0.013600682  0.012443529            2 
 4465000   0.54355776    -8.313071    727.17404  0.013571744  0.012439454            2 
 4466000    0.5344672   -8.3087084    726.85461  0.013562745  0.012435383            4 
 4467000   0.53166683    -8.323978    727.59742  0.013573566  0.012431317            2 
 4468000   0.53182633   -8.3134964    726.57885   0.01355153  0.012427248            2 
 4469000   0.53062224   -8.3289438    727.45049  0.013564751  0.012423183            6 
 4470000   0.52973165   -8.3278102    727.06611  0.013554551  0.012419119            3 
 4471000   0.53610023   -8.3428765    726.94996  0.013549354  0.012415052            3 
 4472000   0.53056943   -8.3191772    726.74659  0.013542535  0.012410986            3 
 4473000   0.54789603   -8.3233776     726.4681  0.013534319  0.012406923            1 
 4474000   0.52783184   -8.3208782    726.97263  0.013540691  0.012402864            3 
 4475000   0.54022563   -8.3436601    727.40824  0.013545777  0.012398808            4 
 4476000   0.53731381   -8.3127615    727.47573  0.013544007   0.01239475            2 
 4477000   0.52682405   -8.3439188    728.00263   0.01355079  0.012390695            2 
 4478000   0.53636451   -8.3463726    727.33134  0.013535271   0.01238664            3 
 4479000   0.54049219   -8.3268888    728.06487  0.013545897  0.012382586            4 
 4480000   0.54916532   -8.3289297    728.09177  0.013543374  0.012378536            5 
 4481000   0.53779805   -8.3440494    728.34506  0.013545062  0.012374488            2 
 4482000   0.53180206   -8.3232666     727.2571  0.013521811  0.012370439            3 
 4483000   0.53010975   -8.3261338    727.54372  0.013524123  0.012366394            2 
 4484000   0.53343097   -8.3237367    727.39782  0.013518395  0.012362351            2 
 4485000   0.53116783   -8.3160527    727.10974  0.013510029  0.012358309            2 
 4486000     0.528845   -8.3466492    727.40923   0.01351258  0.012354269            3 
 4487000   0.53696375   -8.3189113    727.10671  0.013503951   0.01235023            2 
 4488000   0.54165947   -8.3349733     728.3172  0.013523418  0.012346195            3 
 4489000   0.53430044   -8.3390458    727.44607  0.013504234  0.012342159            2 
 4490000   0.52509853   -8.3395205    726.85971  0.013490343  0.012338126            2 
 4491000   0.53047792   -8.3237162     727.1608  0.013492927  0.012334095            2 
 4492000    0.5251213   -8.3271389    726.94645  0.013485946  0.012330063            2 
 4493000   0.51935924   -8.3305793    727.54022  0.013493958   0.01232603            2 
 4494000   0.52686379   -8.3281762    727.98181  0.013499144  0.012322004            2 
 4495000   0.52589178   -8.3284441    727.74567  0.013491762  0.012317976            2 
 4496000   0.53602433   -8.3317357    726.91364   0.01347334  0.012313952            2 
 4497000   0.53719225   -8.3365231    726.74596  0.013467237  0.012309927            3 
 4498000   0.53999437   -8.3274102     727.5274   0.01347872  0.012305906            2 
 4499000   0.53325636   -8.3173629    726.01704  0.013447748  0.012301885            3 
 4500000   0.53688875   -8.3278931    727.96956  0.013480918  0.012297863            3 
 4501000   0.52110974   -8.3124865    727.52327   0.01346966  0.012293846            4 
 4502000   0.52758082   -8.3265841    727.95852  0.013474725  0.012289833            3 
 4503000   0.52086262   -8.3370982     727.4795  0.013462867  0.012285817            3 
 4504000   0.54005352   -8.3312815    727.72199  0.013464365  0.012281805            3 
 4505000   0.51361022    -8.319716    726.04916  0.013430432  0.012277795            2 
 4506000   0.54641374   -8.3415948    726.79653  0.013441273   0.01227379            3 
 4507000   0.53062414   -8.3180019    726.69048   0.01343633  0.012269784            2 
 4508000    0.5367441   -8.3463335    726.49006  0.013429645  0.012265776            1 
 4509000   0.52700259   -8.3467844    726.71675  0.013430856  0.012261772            4 
 4510000   0.51802491   -8.3188889    726.84282  0.013430207  0.012257766            3 
 4511000   0.52369297    -8.322599    727.10544  0.013432082  0.012253766            3 
 4512000    0.5299126   -8.3114094    727.33839  0.013433407  0.012249764            4 
 4513000   0.53148143   -8.3340924    727.90416  0.013440877  0.012245767            2 
 4514000   0.51769115   -8.3325002    726.69234  0.013415528  0.012241774            4 
 4515000   0.53702256   -8.3308556    726.44593  0.013408009  0.012237782            2 
 4516000   0.53275427   -8.3356804    727.20783  0.013419099  0.012233792            4 
 4517000   0.52306469   -8.3403795    727.17948  0.013415606  0.012229805            2 
 4518000   0.50947103   -8.3214576    728.54199  0.013437767  0.012225817            2 
 4519000   0.53288961   -8.3522798    726.95805  0.013405585  0.012221829            2 
 4520000   0.51179818   -8.3420133    726.40842  0.013392486  0.012217841            5 
 4521000   0.52471961   -8.3585111    727.26113  0.013405241  0.012213851            5 
 4522000   0.52026385   -8.3338573    727.73344   0.01341098   0.01220986            7 
 4523000   0.52702577   -8.3339018    726.20611  0.013379875  0.012205873            3 
 4524000   0.52409547   -8.3394577      727.268  0.013396478  0.012201886            3 
 4525000   0.51940207   -8.3396797    726.29261  0.013375554  0.012197901            3 
 4526000   0.50996519   -8.3377812    726.31917  0.013373088  0.012193919            4 
 4527000   0.52763144   -8.3397413    727.12051  0.013384885  0.012189935            2 
 4528000   0.51500556   -8.3517305    726.52684  0.013371003  0.012185956            2 
 4529000   0.52629302   -8.3530504    726.12587  0.013360673   0.01218198            2 
 4530000   0.53457864   -8.3556396    727.85066  0.013389453  0.012178005            2 
 4531000    0.5347075    -8.337212    726.40403  0.013359892   0.01217403            2 
 4532000   0.52088905   -8.3452294    727.47385  0.013376615  0.012170054            2 
 4533000   0.52182079   -8.3545109    726.41154  0.013354135  0.012166081            3 
 4534000   0.52042435   -8.3499581     726.9933  0.013361882   0.01216211            1 
 4535000   0.52707354   -8.3467359    726.43818  0.013348735  0.012158141            3 
 4536000   0.51891075   -8.3405871    727.09717  0.013357899  0.012154174            1 
 4537000   0.50775383   -8.3426849    726.64426  0.013346636  0.012150206            4 
 4538000   0.52046447    -8.359886    728.20478  0.013372352  0.012146239            4 
 4539000   0.52082182   -8.3632171    726.08835  0.013330549  0.012142276            3 
 4540000   0.52228597   -8.3381918    725.92479  0.013324611  0.012138317            3 
 4541000   0.53277295   -8.3422917    726.43159  0.013330977  0.012134357            2 
 4542000   0.52978071   -8.3736729    726.28756  0.013325399  0.012130398            3 
 4543000   0.52661322    -8.352554    726.47809  0.013325961  0.012126442            3 
 4544000    0.5203684   -8.3334094    727.05518  0.013333612  0.012122483            2 
 4545000   0.52495395   -8.3460316    726.97316  0.013329174  0.012118525            4 
 4546000   0.52924121   -8.3475987    726.69796  0.013321197   0.01211457            3 
 4547000   0.51844539   -8.3571836    726.59893  0.013316453  0.012110619            4 
 4548000   0.51452362   -8.3424141    728.01058  0.013339391  0.012106671            5 
 4549000   0.52608765   -8.3570604    727.43146  0.013325849  0.012102725            3 
 4550000   0.52903131   -8.3570419    727.29853  0.013320486  0.012098778            6 
 4551000   0.53154248   -8.3527043    726.01447  0.013294047  0.012094827            3 
 4552000   0.51980805   -8.3446888    726.71879   0.01330402  0.012090884            3 
 4553000   0.53034253   -8.3527202    726.62794  0.013299435  0.012086941            2 
 4554000   0.51978263   -8.3423065    726.00626  0.013285139  0.012083002            3 
 4555000   0.52476509   -8.3299865    726.70825  0.013295065  0.012079064            4 
 4556000   0.53241126   -8.3339059    726.40198  0.013286545  0.012075128            5 
 4557000   0.51637343   -8.3446149    726.69132   0.01328892  0.012071193            3 
 4558000   0.52807856    -8.352015    725.94736  0.013272403  0.012067259            2 
 4559000   0.52507359     -8.34312    727.25357  0.013293368  0.012063323            2 
 4560000   0.52767529   -8.3490022    727.60226  0.013296825  0.012059392            3 
 4561000   0.51480662   -8.3169159     726.8992  0.013281064  0.012055465            3 
 4562000   0.52005091   -8.3591634    727.34973  0.013286383  0.012051541            2 
 4563000   0.51607475   -8.3611358    726.69769  0.013271563  0.012047616            5 
 4564000   0.52293502   -8.3433666    725.85641  0.013253294  0.012043691            4 
 4565000   0.51877287   -8.3469971    725.74358  0.013248331   0.01203977            3 
 4566000   0.51304452   -8.3363161    726.40996  0.013257592  0.012035848            2 
 4567000   0.52016783   -8.3402652    725.03062   0.01322952  0.012031929            2 
 4568000   0.51306115   -8.3502227    727.52115  0.013272058  0.012028012            4 
 4569000   0.51249093   -8.3427695     726.4008   0.01324872  0.012024096            3 
 4570000   0.52755099    -8.348858    727.12531  0.013259032  0.012020184            1 
 4571000   0.52887308   -8.3510379    727.18745  0.013257264  0.012016269            3 
 4572000     0.518393   -8.3591379    725.86339  0.013230231  0.012012356            1 
 4573000   0.50834127   -8.3558553    726.29038  0.013235119  0.012008447            2 
 4574000   0.52397333    -8.344023     726.5263  0.013236523  0.012004541            3 
 4575000   0.52031447   -8.3564123    725.61347  0.013217003  0.012000635            3 
 4576000   0.51944751   -8.3466611     727.1152  0.013241463  0.011996731            2 
 4577000   0.51381553   -8.3515008    724.69651  0.013194533  0.011992827            2 
 4578000   0.53114078   -8.3462402    727.07801  0.013235001  0.011988925            1 
 4579000   0.53274366   -8.3644456    727.19269  0.013234198   0.01198503            3 
 4580000   0.52464437    -8.344903    727.31705  0.013233571  0.011981129            4 
 4581000   0.51249096   -8.3625473    726.32434  0.013212624  0.011977234            5 
 4582000   0.51706636    -8.343713    725.81238  0.013200429  0.011973334            2 
 4583000   0.51500536   -8.3654867    726.53926  0.013210765  0.011969437            5 
 4584000   0.52106779   -8.3654701    726.06847  0.013199325  0.011965539            3 
 4585000   0.51868146   -8.3396877    726.86511  0.013210925  0.011961644            5 
 4586000   0.51235911   -8.3622744     727.0909  0.013212148  0.011957748            2 
 4587000   0.51412456   -8.3463137    725.95497   0.01318863  0.011953852            1 
 4588000   0.52042916   -8.3483995    726.19544  0.013190124  0.011949958            5 
 4589000   0.51172837   -8.3417031    725.57611  0.013176003  0.011946065            6 
 4590000    0.5308883   -8.3551877    726.64911  0.013192613  0.011942175            3 
 4591000   0.53048846   -8.3567035    725.86995  0.013175596  0.011938289            2 
 4592000   0.51321279   -8.3700085    726.08092  0.013176556  0.011934402            3 
 4593000   0.52483621   -8.3457833    725.92749  0.013170903  0.011930517            1 
 4594000   0.51098086   -8.3917952    725.31491  0.013156924  0.011926634            5 
 4595000   0.51314815    -8.369791    725.97917  0.013166108  0.011922748            5 
 4596000    0.5225121   -8.3515071    725.91453  0.013162071  0.011918867            7 
 4597000   0.51917743   -8.3581868    726.56992  0.013171088  0.011914986            3 
 4598000   0.52136823   -8.3785607    725.65164  0.013151581  0.011911105            4 
 4599000   0.50625121   -8.3609304    726.36241  0.013161601  0.011907227            3 
 4600000   0.50483097   -8.3462551     725.4799  0.013142752  0.011903352            3 
 4601000   0.51274409   -8.3465382    726.99769  0.013167385  0.011899478            3 
 4602000   0.50759775   -8.3531022    725.93937   0.01314536  0.011895604            3 
 4603000   0.50683547   -8.3624487    725.91603  0.013142082  0.011891737            5 
 4604000   0.52101223   -8.3462522    726.58861  0.013151401  0.011887867            3 
 4605000   0.50682818   -8.3501901    725.67549  0.013132021  0.011883997            5 
 4606000   0.50536694   -8.3645641    725.60179  0.013127837  0.011880132            2 
 4607000   0.51747213   -8.3458998     727.0303  0.013150827   0.01187627            3 
 4608000   0.51266356   -8.3680587    726.19397  0.013132848  0.011872404            2 
 4609000   0.51494934   -8.3474656    726.37186  0.013133215  0.011868545            4 
 4610000   0.51054538   -8.3568759    725.80388  0.013120099  0.011864684            3 
 4611000   0.51759634   -8.3538563    725.03131  0.013103291  0.011860825            3 
 4612000   0.51097734   -8.3589839    726.12971  0.013120297  0.011856965            3 
 4613000   0.51259281   -8.3506543    725.77853  0.013111109  0.011853108            2 
 4614000   0.50808536   -8.3723751    725.65634   0.01310606  0.011849254            3 
 4615000   0.50733675   -8.3629573     725.5516  0.013101329    0.0118454            5 
 4616000   0.51173936   -8.3610021    725.98012  0.013106227  0.011841549            2 
 4617000   0.50958653   -8.3591357     726.0021  0.013103785    0.0118377            3 
 4618000   0.50708068   -8.3638283    726.06324  0.013102051  0.011833852            3 
 4619000    0.5128285   -8.3546242    727.50357    0.0131252  0.011830004            4 
 4620000   0.51341413   -8.3584592    725.42964   0.01308495  0.011826158            2 
 4621000   0.50907177    -8.364066    725.52471  0.013083833  0.011822313            2 
 4622000   0.50308054   -8.3663592    725.03423  0.013072159  0.011818467            2 
 4623000   0.51097242   -8.3712228    726.52099  0.013096132  0.011814624            3 
 4624000   0.49623418    -8.356932    725.22929   0.01307002  0.011810781            3 
 4625000   0.51139411   -8.3601244    725.57235  0.013073376  0.011806946            3 
 4626000   0.51136469   -8.3473424    726.34117  0.013084399  0.011803111            2 
 4627000   0.51701027   -8.3743283    725.85324  0.013072784  0.011799279            3 
 4628000   0.51364884   -8.3664738    725.04612  0.013055426  0.011795446            4 
 4629000   0.50889458   -8.3607926    725.27725  0.013056766  0.011791612            5 
 4630000    0.5066269   -8.3862778    725.76659  0.013062754  0.011787781            4 
 4631000   0.50151811   -8.3736798    726.90995  0.013080507  0.011783954            3 
 4632000   0.52032482   -8.3618958    725.05937   0.01304439  0.011780128            3 
 4633000   0.50913863    -8.379073    726.03545  0.013059131    0.0117763            3 
 4634000   0.50622751   -8.3759863    725.51881  0.013047022  0.011772478            2 
 4635000   0.51221953   -8.3626961    726.57357  0.013063171   0.01176865            5 
 4636000   0.50411361   -8.3553514    725.71973  0.013045005   0.01176483            3 
 4637000   0.51032397   -8.3495725    725.83402  0.013044246   0.01176101            1 
 4638000   0.50745645   -8.3741396    725.59489  0.013037137  0.011757192            2 
 4639000   0.51067934   -8.3587216    726.03033  0.013042149  0.011753371            3 
 4640000   0.51510495   -8.3723255      725.195  0.013024335  0.011749555            4 
 4641000   0.51556338   -8.3701185    725.33234  0.013023995  0.011745742            5 
 4642000   0.50806492   -8.3662354    725.69341  0.013027672   0.01174193            3 
 4643000   0.50547535   -8.3706043    725.82715  0.013027266  0.011738116            5 
 4644000   0.50301888   -8.3793011    725.52568  0.013019051  0.011734307            5 
 4645000   0.50399304   -8.3674167    724.82741  0.013003721  0.011730499            2 
 4646000   0.51140706   -8.3598585    726.46744  0.013030339  0.011726692            3 
 4647000   0.51233541   -8.3710393     726.1074  0.013021078  0.011722884            2 
 4648000   0.50712929   -8.3741905    726.03005   0.01301689  0.011719078            2 
 4649000   0.51100511    -8.370353    726.11579  0.013015627  0.011715273            5 
 4650000   0.51348496   -8.3775655     725.9779  0.013010357  0.011711469            6 
 4651000    0.5053311   -8.3712587    726.73014  0.013021037  0.011707666            3 
 4652000   0.50960956   -8.3706463    725.80771  0.013001714  0.011703865            3 
 4653000   0.51038358   -8.3775215    724.97905  0.012984079  0.011700065            2 
 4654000   0.49362425   -8.3602181    725.36537  0.012988207  0.011696273            4 
 4655000   0.50538805   -8.3667123    724.62546  0.012972171  0.011692479            3 
 4656000     0.502278   -8.3764211    726.41359  0.013001389  0.011688688            3 
 4657000   0.49805499   -8.3616943    726.35541  0.012997556  0.011684897            4 
 4658000   0.50126363   -8.3729867    727.42622  0.013013923  0.011681105            7 
 4659000    0.5080393   -8.3797294    725.37977  0.012974525  0.011677315            3 
 4660000   0.51339299     -8.36577    727.73167  0.013013799  0.011673522            2 
 4661000   0.50617338   -8.3814786    725.57945  0.012972528  0.011669737            4 
 4662000   0.51151402   -8.3694519    725.55655  0.012969336  0.011665948            3 
 4663000   0.50346367   -8.3751234    724.94137  0.012955561   0.01166216            4 
 4664000   0.52045512    -8.371186    725.54374  0.012963546  0.011658378            4 
 4665000    0.5017035   -8.3711819    725.82999  0.012965881  0.011654602            4 
 4666000   0.51053603   -8.3531007    725.76965  0.012962024  0.011650823            5 
 4667000   0.50829929   -8.3710447    725.15713   0.01294831  0.011647046            2 
 4668000   0.50684839   -8.3825826    725.62797  0.012953941  0.011643269            5 
 4669000   0.50545374   -8.3680196    726.41944  0.012965293  0.011639492            4 
 4670000   0.49906655   -8.3681488     724.9526  0.012936342   0.01163572            6 
 4671000   0.50163013   -8.3712432    725.26154  0.012939084  0.011631945            6 
 4672000   0.50586184   -8.3869817    725.33529   0.01293763  0.011628175            5 
 4673000   0.51269527   -8.3707044     725.9981  0.012946681  0.011624404            7 
 4674000   0.49881706   -8.3803592    725.14747  0.012928745  0.011620638            3 
 4675000   0.51332992    -8.376521    724.90697  0.012921693  0.011616873            4 
 4676000   0.49606551   -8.3756071     725.5237  0.012929921  0.011613109            3 
 4677000   0.49889099   -8.4027637    725.45923  0.012926007  0.011609345            4 
 4678000   0.50900681   -8.3856412    725.66554  0.012926919  0.011605586            3 
 4679000   0.49576114   -8.3708551    725.74896  0.012925642  0.011601828            4 
 4680000   0.50201006   -8.3821965    725.64695  0.012921064  0.011598071            6 
 4681000   0.48859889    -8.389833    725.04044  0.012907506  0.011594315            3 
 4682000   0.48362489   -8.3900424    725.31765  0.012909683  0.011590558            2 
 4683000   0.49719231   -8.3769898    725.91829  0.012917615  0.011586803            3 
 4684000   0.50451436    -8.373286    725.64749  0.012910039  0.011583047            3 
 4685000   0.50545575   -8.3678062    725.11323  0.012897781  0.011579302            5 
 4686000    0.5146794   -8.3957302    725.18549  0.012896313  0.011575553            4 
 4687000   0.49114306   -8.3671805    724.07707  0.012873855  0.011571806            4 
 4688000   0.50025355   -8.3824967    726.28405  0.012910339  0.011568066            2 
 4689000   0.50845837    -8.365649    723.97198  0.012866496  0.011564322            5 
 4690000   0.49406493   -8.3810733    726.24692  0.012904174   0.01156058            3 
 4691000   0.50516086   -8.3786548    725.55968  0.012889215  0.011556837            3 
 4692000   0.50142763   -8.3716767    723.98407  0.012858484  0.011553094            5 
 4693000   0.49207798   -8.3970005    725.09497   0.01287547  0.011549354            4 
 4694000   0.49221109   -8.3887922     725.3779   0.01287775  0.011545612            3 
 4695000   0.49437734   -8.3868055    724.95749  0.012867545  0.011541872            4 
 4696000   0.50498301   -8.3905008    724.45047  0.012855808  0.011538137            3 
 4697000   0.49051626   -8.3946093    725.13332  0.012865186  0.011534399            3 
 4698000   0.49616004   -8.3767602    724.66267  0.012854099  0.011530666            2 
 4699000   0.50558929   -8.3791934     725.4132  0.012864673  0.011526932            2 
 4700000   0.50186423   -8.3850132    725.46351  0.012862828  0.011523198            3 
 4701000   0.51241713   -8.3710423     724.4546  0.012842207  0.011519465            5 
 4702000   0.49334317   -8.3925535    725.19829  0.012852657  0.011515736            6 
 4703000   0.49979904   -8.3961665    724.15355  0.012831412  0.011512007            3 
 4704000   0.49636022   -8.3951206    725.49054  0.012852369  0.011508279            3 
 4705000   0.50634833   -8.3661217     724.9755  0.012840515  0.011504551            5 
 4706000   0.50168594   -8.3792162    723.45582  0.012810877  0.011500824            2 
 4707000   0.49880292   -8.3863916    723.76508   0.01281363  0.011497103            5 
 4708000    0.4923258   -8.4045204    724.54447  0.012824704   0.01149338            5 
 4709000   0.50085659   -8.3851375    725.85865  0.012845237  0.011489659            6 
 4710000    0.5021905   -8.3771436    725.09886  0.012829067  0.011485938            3 
 4711000   0.48702789   -8.3687495    724.62851  0.012818024  0.011482217            4 
 4712000   0.48785061   -8.3801874    724.73326  0.012817156  0.011478499            4 
 4713000   0.49541117   -8.4015085    725.91981  0.012835416  0.011474782            4 
 4714000   0.49325096   -8.3896782    725.01863  0.012816763  0.011471067            5 
 4715000   0.49294544    -8.363941    724.82367  0.012810599  0.011467354            7 
 4716000   0.49702542   -8.3883168     726.9554  0.012845551  0.011463642            5 
 4717000    0.4907943   -8.3841543    724.76793  0.012804182   0.01145993            4 
 4718000   0.49813532   -8.3819564    725.30771  0.012811002  0.011456222            3 
 4719000   0.49738251   -8.3817742    724.32517  0.012790937  0.011452512            3 
 4720000   0.49686806   -8.3930043    724.26679  0.012787196  0.011448808            6 
 4721000    0.4968529   -8.4002236    724.81246  0.012794119  0.011445103            3 
 4722000   0.50323344   -8.3816418    723.07738   0.01276079  0.011441403            3 
 4723000   0.50918498   -8.3937167    724.20087  0.012777911  0.011437704            4 
 4724000   0.50153472   -8.3834228    725.66787  0.012801084  0.011434007            4 
 4725000   0.49925047   -8.3898179    724.73752  0.012781967  0.011430309            3 
 4726000   0.48547225   -8.3872579    723.96118  0.012765573  0.011426611            3 
 4727000   0.49456684   -8.4019694    724.21868  0.012767412  0.011422914            4 
 4728000   0.49610337     -8.39438    725.13802  0.012780916  0.011419217            4 
 4729000   0.48916587   -8.3927161      725.674  0.012787658  0.011415525            3 
 4730000   0.50234565   -8.3778922    724.53945  0.012764966  0.011411835            5 
 4731000   0.49077691    -8.395765    724.21156  0.012756492  0.011408147            3 
 4732000   0.47819556   -8.3965275     725.0849  0.012769176  0.011404455            3 
 4733000   0.48546758   -8.3918195    726.24096  0.012786833  0.011400769            2 
 4734000   0.49580957   -8.3956187    724.52249  0.012753881  0.011397081            2 
 4735000   0.49961369   -8.3986516    723.88959  0.012740049  0.011393395            4 
 4736000   0.47650732   -8.3827456     724.5359  0.012748731  0.011389711            2 
 4737000   0.49075269   -8.3945561    725.40873  0.012761395  0.011386029            5 
 4738000   0.48705156   -8.3929906    723.94085  0.012732884  0.011382349            2 
 4739000    0.4757124      -8.3813    725.91806  0.012764966  0.011378668            3 
 4740000   0.49586408   -8.3905449    723.93254  0.012727365  0.011374988            3 
 4741000   0.48702734   -8.3828884    724.60339  0.012736472  0.011371312            7 
 4742000   0.48677174   -8.3966674    724.49573  0.012731895  0.011367641            4 
 4743000   0.50316714   -8.4028444    723.91865  0.012719071  0.011363965            4 
 4744000    0.4977298   -8.4026249    724.14421  0.012720352  0.011360294            6 
 4745000     0.499134   -8.3953981    725.61117  0.012743435  0.011356623            4 
 4746000   0.48999046   -8.3888406    723.51558  0.012703954  0.011352954            3 
 4747000   0.48163057   -8.3985099    724.11659  0.012711828  0.011349285            3 
 4748000   0.49422585   -8.3902886    724.41352  0.012714362  0.011345617            2 
 4749000   0.48269725   -8.4123453    723.97206  0.012703939  0.011341954            5 
 4750000   0.50112259   -8.3858615    723.34034  0.012690181  0.011338292            4 
 4751000   0.50221333   -8.3724121    723.82342  0.012695984   0.01133463            3 
 4752000   0.49306087   -8.4073112    724.44792  0.012704263  0.011330971            4 
 4753000   0.49311058   -8.3984977    722.86468  0.012673832  0.011327314            4 
 4754000   0.49687838   -8.4136678    724.86184  0.012706174  0.011323654            4 
 4755000   0.49499611   -8.3770787    724.27134  0.012693154  0.011320001            3 
 4756000   0.50174639   -8.3924053    725.33642  0.012709147  0.011316348            5 
 4757000   0.48671462   -8.3908357    724.06594  0.012684219  0.011312697            5 
 4758000   0.48328595   -8.4008966    725.37117  0.012704413   0.01130905            4 
 4759000    0.4837908   -8.4025831    724.37243  0.012684255  0.011305405            2 
 4760000    0.4958661   -8.3886059    724.75739   0.01268833  0.011301759            3 
 4761000     0.492962   -8.4166055    723.64686  0.012666227  0.011298113            4 
 4762000   0.47558247   -8.4140858    724.92354  0.012685908  0.011294463            2 
 4763000   0.48353834   -8.3918505    724.59622  0.012677518  0.011290818            4 
 4764000   0.48224095   -8.3959244    724.08019   0.01266583  0.011287176            6 
 4765000     0.487166   -8.4109216     723.9951  0.012661684  0.011283533            4 
 4766000   0.48859179   -8.4003505     723.8895  0.012657181  0.011279894            5 
 4767000   0.48538106   -8.3986754    724.81167  0.012670647  0.011276256            6 
 4768000   0.48437148   -8.4102785      724.517  0.012662839  0.011272619            3 
 4769000   0.48847243   -8.4118118    724.26849  0.012655841  0.011268983            2 
 4770000   0.49137812   -8.4022608    725.04378  0.012666733  0.011265352            6 
 4771000   0.49075412   -8.3984933    723.40193    0.0126354  0.011261721            4 
 4772000   0.48561421    -8.400921     724.2026  0.012646734  0.011258092            8 
 4773000   0.46887583   -8.4076973     725.2802  0.012662899  0.011254466            2 
 4774000   0.50313106   -8.4138045    725.38608  0.012662095  0.011250841            4 
 4775000   0.48538584   -8.4080523    724.05069  0.012636138  0.011247214            4 
 4776000   0.48331815    -8.411283    724.01185  0.012632814  0.011243585            3 
 4777000   0.49401083   -8.4063224    725.24314  0.012651649  0.011239961            3 
 4778000   0.48596702   -8.4072925    724.90135   0.01264304  0.011236334            2 
 4779000   0.49496371   -8.4189551    724.09481  0.012626331  0.011232713            4 
 4780000   0.49638001   -8.4132383    723.28437   0.01260956   0.01122909            2 
 4781000   0.48653573   -8.4067064    724.63251  0.012630421  0.011225471            3 
 4782000   0.48012551   -8.4145865    724.69836  0.012628927  0.011221851            3 
 4783000   0.48823219   -8.4053677    723.52154  0.012605783  0.011218235            4 
 4784000   0.49044617   -8.4232228    724.41075  0.012618638  0.011214621            5 
 4785000   0.48246829   -8.4132155    723.45598  0.012599373  0.011211006            3 
 4786000   0.47795935   -8.4034911    723.35459  0.012594975  0.011207391            4 
 4787000   0.50175287   -8.4108599    724.24935   0.01260792  0.011203779            4 
 4788000   0.47883945   -8.3956955    724.04955  0.012601809  0.011200173            2 
 4789000   0.48566596   -8.4033151    723.91224  0.012596789  0.011196566            3 
 4790000   0.48256938   -8.4028376    723.49179  0.012586844   0.01119296            5 
 4791000     0.486665   -8.4087229    723.87302  0.012590848  0.011189358            4 
 4792000   0.48597904   -8.3937957    724.43039  0.012597913  0.011185754            4 
 4793000   0.47369974   -8.4202676    725.37358  0.012611683  0.011182153            3 
 4794000   0.47403785   -8.4009969    724.55221  0.012594775  0.011178552            4 
 4795000   0.47357131   -8.4051526    723.91738  0.012581115  0.011174952            4 
 4796000   0.48923351   -8.3976514     723.6157   0.01257325  0.011171356            6 
 4797000   0.48985496   -8.4048158    723.54427  0.012569388  0.011167758            4 
 4798000   0.48338322    -8.402929    725.12671  0.012594253  0.011164161            2 
 4799000   0.49399007   -8.4098575    723.79499  0.012568504  0.011160568            3 
 4800000   0.49316768   -8.4127323    725.22049  0.012590633  0.011156978            4 
 4801000   0.47615796   -8.4198281    724.66638  0.012578393  0.011153388            5 
 4802000   0.50051965    -8.421481    723.71419  0.012559249  0.011149802            2 
 4803000   0.48773023   -8.4080489    724.00337  0.012561652  0.011146217            4 
 4804000   0.48676249   -8.4098344    724.78053  0.012572518  0.011142629            2 
 4805000    0.4779079   -8.4188726    724.85848  0.012571253  0.011139046            3 
 4806000   0.48469086   -8.4043129    725.19409  0.012574457  0.011135467            2 
 4807000   0.48541442   -8.4239854     724.5723  0.012561062  0.011131884            5 
 4808000   0.48307471   -8.4013255    723.82256  0.012545455  0.011128305            6 
 4809000   0.48250832   -8.4144926    724.88206  0.012561206  0.011124725            2 
 4810000   0.48005675   -8.4262564    723.45327  0.012533841  0.011121148            6 
 4811000   0.49314865   -8.4173629    723.83091  0.012537777   0.01111757            2 
 4812000   0.48139507   -8.4118564     723.9117   0.01253657  0.011113997            3 
 4813000   0.47348386   -8.4204819    724.64397  0.012546644  0.011110424            4 
 4814000   0.48163675   -8.3991241    724.13389  0.012535208   0.01110685            6 
 4815000   0.48298641   -8.4070596    722.82729  0.012509991  0.011103279            6 
 4816000   0.48257923   -8.4285407      723.935  0.012526561  0.011099705            7 
 4817000   0.47986702   -8.4282602    724.29268  0.012530148  0.011096139            6 
 4818000   0.47678999   -8.4195392     724.3254  0.012528113  0.011092571            4 
 4819000   0.48871463   -8.4050998    724.51387  0.012528773  0.011089006            4 
 4820000   0.48098035   -8.4198045     725.3721  0.012541011  0.011085441            7 
 4821000   0.47138821   -8.4084426    724.70914   0.01252695  0.011081878            3 
 4822000   0.48173944   -8.4188507    723.65248  0.012506092  0.011078317            8 
 4823000   0.48580518   -8.4168765    723.43389  0.012499722  0.011074755            6 
 4824000   0.47970298   -8.4275719    723.59956  0.012499992  0.011071194            3 
 4825000   0.47814794   -8.4113183    723.63749  0.012498057  0.011067637            5 
 4826000   0.48448532   -8.4392162    724.48196  0.012510049  0.011064078            3 
 4827000   0.47459326   -8.4291232     723.3953  0.012488697  0.011060522            7 
 4828000    0.4840094   -8.4233027    724.73379  0.012509214   0.01105697            6 
 4829000   0.48264032   -8.4287405    723.78727  0.012490289   0.01105342            3 
 4830000   0.47718775    -8.402824    723.32348  0.012479701  0.011049868            4 
 4831000   0.48127717   -8.4339172    724.27607   0.01249355  0.011046318            5 
 4832000   0.48393279   -8.4091134     723.9488   0.01248532  0.011042772            3 
 4833000   0.47300104   -8.4124112    724.13879  0.012486013  0.011039224            5 
 4834000    0.4615884    -8.424365     723.5692  0.012473611  0.011035681            6 
 4835000   0.47224843   -8.4088945    724.09476  0.012480089  0.011032138            5 
 4836000      0.48738   -8.4120569    723.17566   0.01246167  0.011028599            3 
 4837000   0.47327157   -8.4115891    724.60596  0.012483736   0.01102506            5 
 4838000    0.4765096   -8.4180964    723.59466  0.012463736  0.011021524            3 
 4839000   0.47928041   -8.4093071    723.55131  0.012460414  0.011017991            5 
 4840000   0.47268644   -8.4238646     724.0268  0.012466026  0.011014458            2 
 4841000   0.46624705    -8.406291    723.06464  0.012446888  0.011010927            3 
 4842000   0.48318779       -8.416    724.11074  0.012462322  0.011007397            5 
 4843000   0.47900838   -8.4079127     724.5033  0.012466503  0.011003865            3 
 4844000   0.47245434   -8.4201285    723.64163  0.012449106  0.011000338            4 
 4845000   0.46793528   -8.4235142      724.146  0.012455211   0.01099681            5 
 4846000   0.46423327   -8.4184414    723.37624  0.012439404  0.010993286            4 
 4847000   0.47156072   -8.4290675    724.82362  0.012461722  0.010989763            6 
 4848000   0.47791858   -8.4181013    724.02299   0.01244539  0.010986241            9 
 4849000   0.47033233   -8.4151428    723.93959   0.01244139  0.010982721            4 
 4850000   0.47082987   -8.3897503    724.17687  0.012442902    0.0109792            3 
 4851000   0.48539707   -8.4309945    723.19098    0.0124234  0.010975681            4 
 4852000   0.47140565   -8.4246472    723.93828  0.012433675  0.010972163            4 
 4853000   0.47233474   -8.4045018    723.18508  0.012418179  0.010968645            2 
 4854000   0.46784141   -8.4273682    723.65375  0.012423667  0.010965131            6 
 4855000   0.48030261    -8.425845    724.72293   0.01243946  0.010961616            4 
 4856000   0.46527816   -8.4163483    723.62052   0.01241798  0.010958104            5 
 4857000    0.4653363   -8.4238283     724.9566  0.012438347  0.010954592            6 
 4858000    0.4788252   -8.4246934    723.53932  0.012411475  0.010951084            4 
 4859000   0.48031229    -8.419223    723.18432  0.012402832  0.010947578            4 
 4860000   0.47451073   -8.4236611    724.00917  0.012414423  0.010944071            5 
 4861000   0.47825326   -8.4333494    723.70923  0.012406727  0.010940564            5 
 4862000    0.4701957   -8.4148907    723.53985  0.012401273  0.010937059            5 
 4863000   0.47662513    -8.425704    723.23504  0.012393499  0.010933557            9 
 4864000   0.47713898   -8.4372006    723.25236  0.012391248  0.010930052            6 
 4865000   0.46507046   -8.4327243    723.62215  0.012395035  0.010926553            2 
 4866000   0.48054493   -8.4138828    722.87113  0.012379626  0.010923052            4 
 4867000   0.46128934   -8.4126319     725.0191   0.01241386  0.010919557            3 
 4868000   0.47333752   -8.4211867    723.28274  0.012381586  0.010916062            4 
 4869000   0.47449373   -8.4256652    723.96731   0.01239076  0.010912567            3 
 4870000   0.48393378   -8.4317131    723.69657  0.012383583  0.010909073            7 
 4871000   0.48091779   -8.4283645    724.94081  0.012402327  0.010905581            4 
 4872000   0.46401106   -8.4239303    723.33794  0.012372365   0.01090209            7 
 4873000    0.4769406   -8.4308784    723.09696  0.012365705  0.010898604            3 
 4874000   0.47573649   -8.4243129    724.09968  0.012380312  0.010895114            5 
 4875000   0.46588122   -8.4306407    723.77816  0.012372276  0.010891623            8 
 4876000   0.47138797   -8.4298252    723.80252  0.012370155  0.010888136            7 
 4877000   0.47491732   -8.4344803     722.7709  0.012349991  0.010884649            3 
 4878000   0.47538544   -8.4245139    723.83256  0.012365597  0.010881166            6 
 4879000   0.46929422     -8.42203    723.56929  0.012358565  0.010877683            4 
 4880000   0.47183585   -8.4326492    723.29477  0.012351345    0.0108742            8 
 4881000   0.46695423   -8.4398282     723.4102  0.012350785  0.010870717            5 
 4882000   0.46537917   -8.4205659    723.93836  0.012357271  0.010867236            5 
 4883000   0.47653127   -8.4338829    723.51383  0.012347495  0.010863759            6 
 4884000   0.46773015   -8.4316639    724.69292  0.012365085  0.010860282            3 
 4885000   0.46310516   -8.4394328    722.38211  0.012323134  0.010856806            5 
 4886000   0.46963962   -8.4256681    722.70392    0.0123261   0.01085333            5 
 4887000   0.47719443   -8.4386991     723.7698  0.012341754  0.010849858            3 
 4888000   0.45809136   -8.4407188    723.43119  0.012333456  0.010846383            5 
 4889000   0.46842281   -8.4370627    723.77313  0.012336762  0.010842911            3 
 4890000    0.4824583    -8.433287    723.26152   0.01232552  0.010839443            4 
 4891000    0.4674694   -8.4484283    723.48631   0.01232683  0.010835976            9 
 4892000   0.46321094   -8.4440336    723.60118  0.012326267  0.010832509            8 
 4893000   0.47067682   -8.4428151    725.45081  0.012355249  0.010829044            3 
 4894000   0.45925757    -8.430932    722.98914  0.012310808  0.010825579            4 
 4895000   0.47312457    -8.445482    723.67343  0.012319943  0.010822116            8 
 4896000   0.46535369   -8.4311772    724.25068  0.012327251  0.010818656            8 
 4897000   0.46487082   -8.4404695    723.25631  0.012307813  0.010815197            6 
 4898000    0.4837201   -8.4330755    722.85226  0.012298426  0.010811736            2 
 4899000   0.46854906   -8.4302298    723.25016  0.012302684  0.010808276            4 
 4900000   0.45636491   -8.4453702    723.56218  0.012305479  0.010804823            8 
 4901000   0.46565825   -8.4408754     723.1645  0.012296207  0.010801365            4 
 4902000   0.46816277    -8.426799    722.97414  0.012290462  0.010797907            5 
 4903000   0.47085243   -8.4324396    721.97527  0.012270978  0.010794451            3 
 4904000    0.4779112   -8.4280911    722.67937  0.012280441  0.010790995            3 
 4905000   0.46404291   -8.4362973    724.36745  0.012306617  0.010787543            4 
 4906000   0.46033775   -8.4375061    723.46389   0.01228876  0.010784092            3 
 4907000   0.46899952   -8.4328982     724.2468  0.012299552  0.010780641            4 
 4908000   0.46996459   -8.4330223    723.31811  0.012281277  0.010777193            3 
 4909000    0.4694877   -8.4457396    723.99783  0.012290314  0.010773744            6 
 4910000   0.47849279   -8.4435679    723.11717  0.012272864  0.010770301            8 
 4911000   0.46330528   -8.4320626    724.78866  0.012298728  0.010766856            6 
 4912000    0.4646826   -8.4218701    722.86474  0.012263585  0.010763413            2 
 4913000   0.46637881   -8.4303122    723.27607  0.012268066  0.010759974            5 
 4914000   0.46170977   -8.4441957    723.46463  0.012268767  0.010756535            3 
 4915000   0.45255417   -8.4374388    723.41382  0.012265409  0.010753095            5 
 4916000   0.46894964   -8.4436519    723.19709   0.01225924  0.010749657            3 
 4917000   0.46288826   -8.4416021    722.23284  0.012240405   0.01074622            4 
 4918000   0.47104744   -8.4595059     723.1769  0.012253912  0.010742783            7 
 4919000   0.47299545   -8.4475751    722.96244  0.012247788  0.010739348            4 
 4920000   0.46914545   -8.4442241    724.11446  0.012264811  0.010735917            5 
 4921000   0.46547428   -8.4430795    722.29344  0.012231481  0.010732485            3 
 4922000   0.46085821   -8.4258794     723.0552  0.012241893  0.010729056            4 
 4923000   0.47768085   -8.4516642    721.15332  0.012207213  0.010725628            5 
 4924000    0.4712019   -8.4333628    723.10565  0.012237775  0.010722204            3 
 4925000   0.46732576   -8.4340277    722.81991  0.012230455   0.01071878            3 
 4926000   0.45711354    -8.433832    721.78329  0.012210436  0.010715357            3 
 4927000    0.4651157   -8.4540654    721.87052  0.012209433  0.010711932            5 
 4928000   0.46203267   -8.4403421    722.62683  0.012219745  0.010708511            2 
 4929000     0.467306   -8.4428832    722.96486  0.012222981  0.010705091            4 
 4930000   0.46892241   -8.4341218    721.82451  0.012201226  0.010701673            3 
 4931000   0.45895621   -8.4532374    722.62402  0.012212263  0.010698256            3 
 4932000   0.46581898   -8.4434718    721.89294  0.012197434   0.01069484            5 
 4933000    0.4661641   -8.4352352    722.96863  0.012213133  0.010691426            5 
 4934000   0.45947012   -8.4313896    723.88561  0.012226145  0.010688016            6 
 4935000    0.4711363   -8.4467648    722.85276  0.012206227  0.010684605            6 
 4936000   0.47070257   -8.4577868    722.30046   0.01219443  0.010681195            5 
 4937000    0.4626127   -8.4430679    723.40109  0.012210538  0.010677788            6 
 4938000   0.45569999   -8.4298303    722.65686  0.012195505  0.010674382            6 
 4939000   0.46401012   -8.4429211    723.09571  0.012200441  0.010670978            3 
 4940000   0.46412165   -8.4474242    722.84745  0.012193783  0.010667575            3 
 4941000   0.46094405   -8.4421711    723.34794  0.012199756  0.010664175            5 
 4942000   0.45844058   -8.4408709    722.33046   0.01218013  0.010660776            2 
 4943000    0.4668246   -8.4385256    723.76798  0.012201901  0.010657377            3 
 4944000    0.4652989   -8.4570581    722.69353  0.012181323   0.01065398            5 
 4945000   0.45625646   -8.4556126    722.73704  0.012179593  0.010650584            4 
 4946000   0.45426251   -8.4571815    722.39349  0.012171342  0.010647188            5 
 4947000    0.4624781   -8.4361102    723.07974  0.012180442  0.010643794            4 
 4948000   0.44581502   -8.4533497    723.00846   0.01217678  0.010640402            5 
 4949000   0.46947725   -8.4569044    723.56839  0.012183747  0.010637009            4 
 4950000   0.45976265    -8.460389    722.44328  0.012162345  0.010633616            2 
 4951000   0.45422947   -8.4335049     722.1073  0.012154233  0.010630227            3 
 4952000   0.46190394   -8.4366733    723.14464  0.012169235  0.010626838            5 
 4953000   0.46673721   -8.4516987     722.7215  0.012159659  0.010623453            4 
 4954000    0.4557757   -8.4610238    723.81287  0.012175563  0.010620069            4 
 4955000   0.46001047   -8.4553494    723.13621  0.012161726  0.010616687            5 
 4956000   0.45513689   -8.4536098    722.38319   0.01214661  0.010613304            4 
 4957000   0.46645379   -8.4630989    721.40653  0.012127741  0.010609921            6 
 4958000    0.4644021   -8.4394833    723.25918  0.012156434  0.010606541            4 
 4959000   0.45421078   -8.4647156    722.69972  0.012144581  0.010603163            4 
 4960000    0.4621098   -8.4697319    722.47284   0.01213832  0.010599787            5 
 4961000   0.46448734   -8.4305484    722.71563  0.012139952  0.010596412            3 
 4962000   0.46222833   -8.4685493    722.47769   0.01213351  0.010593037            5 
 4963000   0.45864899   -8.4608166    722.85805  0.012137451  0.010589661            4 
 4964000    0.4555985   -8.4698337    723.06374  0.012138459  0.010586288            5 
 4965000   0.47286383   -8.4481662    722.21104  0.012121703  0.010582917            4 
 4966000   0.46613618   -8.4640951    722.72901  0.012127954  0.010579547            4 
 4967000   0.45556856   -8.4531835    723.53621  0.012139055  0.010576177            4 
 4968000   0.45918967   -8.4537927    722.78993  0.012124093   0.01057281            4 
 4969000   0.46412582   -8.4520489    723.48464  0.012133304  0.010569445            4 
 4970000   0.45342643   -8.4298074    722.89224   0.01212093  0.010566082            6 
 4971000   0.45232865   -8.4497001    722.20421  0.012106957   0.01056272            3 
 4972000   0.45880703   -8.4505167    722.41634  0.012108078  0.010559357            3 
 4973000    0.4530055    -8.464605    722.66151  0.012109751  0.010555995            5 
 4974000    0.4590748   -8.4590231    723.36151  0.012119044  0.010552635            3 
 4975000   0.46589627   -8.4669211    723.11081  0.012112409  0.010549277            8 
 4976000   0.45621115    -8.450549    723.22835  0.012111943  0.010545921            4 
 4977000   0.45344357    -8.440616    722.43232  0.012096181  0.010542565            3 
 4978000    0.4554527   -8.4624635    723.05602  0.012104192  0.010539211            7 
 4979000   0.46818598   -8.4536778    722.64424  0.012094869  0.010535858            7 
 4980000   0.44736781   -8.4662717    722.69726  0.012093328  0.010532506            3 
 4981000   0.45103559   -8.4398363    722.98393  0.012095696  0.010529158            5 
 4982000   0.44997581   -8.4553756    722.51797  0.012085474  0.010525812            4 
 4983000   0.45607587   -8.4651973    723.25417   0.01209536  0.010522467            4 
 4984000    0.4422527   -8.4602595     722.5167  0.012080603  0.010519119            3 
 4985000   0.46019287   -8.4654351    721.45825  0.012060486  0.010515774            3 
 4986000   0.45911447   -8.4493139    722.81453  0.012080735  0.010512432            9 
 4987000   0.46289246    -8.461911    723.16263  0.012084129  0.010509091            5 
 4988000   0.45551983    -8.458656    722.75441  0.012074887   0.01050575            4 
 4989000   0.45436803   -8.4535195     721.9085  0.012058337  0.010502412            3 
 4990000   0.45882574   -8.4778764    721.88088  0.012055459  0.010499073            4 
 4991000   0.45714859   -8.4617253    723.32749  0.012077197  0.010495736            4 
 4992000   0.45726786   -8.4528347    722.82149  0.012066331    0.0104924            3 
 4993000   0.44642051   -8.4669139    722.36011  0.012056214  0.010489066            3 
 4994000   0.46292001   -8.4381139    723.59154  0.012074348  0.010485734            5 
 4995000    0.4511804   -8.4430856    723.10418    0.0120638  0.010482406            6 
 4996000   0.44111405   -8.4621174    722.34551  0.012048731  0.010479079            5 
 4997000   0.45125536   -8.4507947     722.8991  0.012055552  0.010475753            5 
 4998000   0.44903955   -8.4580714    722.09858  0.012039792   0.01047243            3 
 4999000   0.45275285   -8.4616586    723.60469  0.012062491  0.010469107            3 
 5000000    0.4454278   -8.4623006    722.57044  0.012042841  0.010465784            3 
 5001000   0.44310945    -8.457511    721.79808  0.012027563  0.010462463            8 
 5002000   0.45596334   -8.4695727    723.74455  0.012057586  0.010459144            4 
 5003000   0.44469277   -8.4650736    722.76029  0.012038782  0.010455822            6 
 5004000   0.45529796   -8.4582625    722.55302  0.012032924  0.010452503            6 
 5005000   0.45627209   -8.4691112    721.77358  0.012017542  0.010449186            8 
 5006000   0.45200062   -8.4417075    722.44247  0.012026276   0.01044587            4 
 5007000   0.44835731   -8.4788428    722.70297   0.01202821  0.010442555            6 
 5008000   0.46202909    -8.452395    722.73267  0.012026302  0.010439241            5 
 5009000   0.44729444   -8.4648826    722.66982  0.012022856  0.010435928            6 
 5010000   0.45417232   -8.4612033    722.98501  0.012025699  0.010432616            6 
 5011000   0.44492739   -8.4734149    722.73041  0.012019065  0.010429305            5 
 5012000   0.44948859   -8.4665657    721.84624  0.012001966  0.010425997            6 
Loop time of 11699.5 on 48 procs for 5000000 steps with 4000 atoms

Performance: 73849.407 tau/day, 427.369 timesteps/s
99.4% CPU use with 48 MPI tasks x no OpenMP threads

MPI task timing breakdown:
Section |  min time  |  avg time  |  max time  |%varavg| %total
---------------------------------------------------------------
Pair    | 750.37     | 805.04     | 851.15     |  85.5 |  6.88
Neigh   | 76.427     | 79.903     | 82.277     |  17.6 |  0.68
Comm    | 742.16     | 794.57     | 855.68     |  93.7 |  6.79
Output  | 13.659     | 13.663     | 13.757     |   0.4 |  0.12
Modify  | 9889.3     | 9903.5     | 9914.4     |   6.1 | 84.65
Other   |            | 102.8      |            |       |  0.88

Nlocal:        83.3333 ave          90 max          75 min
Histogram: 4 0 5 1 8 8 5 3 11 3
Nghost:        1994.02 ave        2013 max        1964 min
Histogram: 1 0 4 3 8 5 8 9 5 5
Neighs:        12793.4 ave       14310 max       11569 min
Histogram: 6 1 5 6 9 10 4 6 0 1
FullNghs:      25587.4 ave       27665 max       22897 min
Histogram: 2 3 2 6 3 12 4 6 6 4

Total # of neighbors = 1228197
Ave neighs/atom = 307.04925
Neighbor list builds = 268069
Dangerous builds = 0

#clear
#
#next RN
#
#jump SELF
Total wall time: 3:15:02
