
units lj                  # Use reduced LJ style units
atom_style atomic         # Uncharged point particles
atom_modify map hash      # Needed for indexing of clusters etc
                          # Used to be able to find where atoms are in relation to each other.

lattice fcc 1.0 spacing 1 1 1
Lattice spacing in x,y,z = 1.5874011 1.5874011 1.5874011
region box block 0 10 0 10 0 10 units lattice
create_box 2 box
Created orthogonal box = (0.0000000 0.0000000 0.0000000) to (15.874011 15.874011 15.874011)
  3 by 4 by 4 MPI processor grid
create_atoms 1 box
Created 4000 atoms
  using lattice units in orthogonal box = (0.0000000 0.0000000 0.0000000) to (15.874011 15.874011 15.874011)
  create_atoms CPU = 0.002 seconds
set type 1 type/fraction 2 0.83 78393
Setting atom values ...
  3314 settings made for type/fraction
mass 1 1.0
mass 2 1.0
pair_style lj/cut  3.5
pair_modify tail  yes
pair_coeff 1  1  1.0  1.0   # Intearaction between 1 and 1 set with epsilon = 1 and sigma = 1
pair_coeff 1  2  1.5  0.8
pair_coeff 2  2  0.5  0.88

write_data data.0
System init for write_data ...
Neighbor list info ...
  update every 1 steps, delay 10 steps, check yes
  max neighbors/atom: 2000, page size: 100000
  master list distance cutoff = 3.8
  ghost atom cutoff = 3.8
  binsize = 1.9, bins = 9 9 9
  1 neighbor lists, perpetual/occasional/extra = 1 0 0
  (1) pair lj/cut, perpetual
      attributes: half, newton on
      pair build: half/bin/atomonly/newton
      stencil: half/bin/3d
      bin: standard
WARNING: Not all mixed pair coeffs generated from mixing. Use write_data with 'pair ij' option to store all pair coeffs. (../write_data.cpp:312)


#############################
#   M E L T   S Y S T E M   #
#############################

velocity all create 2.4 6229865 mom yes dist gaussian # Assign velocities
                                                    # Temperature 2.4, random number seed, zero linear momentum
                                                                                # Gaussian distribution

timestep 0.002   # simulation timestep
thermo 1000       # output thermodynamic data every 1000 steps bf 100

# Define a fix  in this case with index 1 applied to all
# particles in the simulation. This fix is for simulations
# in the anisotropic NPT ensemble. Note that we use the MTK
# correction.
fix 1 all npt temp 2.4 2.4 0.1 iso 5.68 5.68 0.5 mtk yes tchain 5 pchain 5 # Use NPT ensemble
                                                                         # Set temperature and pressure and damping
                                                                         # Numbers of thermostats in chain and in barostat
run 10000          # run for 10000 steps
Per MPI rank memory allocation (min/avg/max) = 3.642 | 3.644 | 3.648 Mbytes
Step Temp E_pair E_mol TotEng Press Volume 
       0          2.4   -3.5381599            0  0.060940148   -3.0801753         4000 
    1000    2.4201142   -2.8085251            0   0.82073864    5.4407677    3881.9088 
    2000    2.4089721   -2.8391873            0    0.7733675    5.4809308    3866.5647 
    3000    2.3800178   -2.8153998            0   0.75373434    5.7422577    3834.5464 
    4000    2.3820194   -2.8067067            0    0.7654291    5.5675955    3867.7095 
    5000    2.3739973   -2.7899845            0   0.77012117    5.6622799    3862.8799 
    6000    2.4120472   -2.7988599            0   0.81830647    5.5228972    3864.4568 
    7000    2.4035631   -2.7844331            0   0.82001025     5.792642    3840.1391 
    8000    2.3771781   -2.8564815            0   0.70839425    5.3916872    3855.0813 
    9000    2.3748641   -2.8261297            0   0.73527588    5.8544851    3805.4886 
   10000    2.4272474   -2.8108556            0   0.82910534    5.5639894    3878.3614 
Loop time of 2.50624 on 48 procs for 10000 steps with 4000 atoms

Performance: 689478.018 tau/day, 3990.035 timesteps/s
99.6% CPU use with 48 MPI tasks x no OpenMP threads

MPI task timing breakdown:
Section |  min time  |  avg time  |  max time  |%varavg| %total
---------------------------------------------------------------
Pair    | 1.1165     | 1.1934     | 1.2692     |   2.8 | 47.62
Neigh   | 0.20752    | 0.21677    | 0.22557    |   0.8 |  8.65
Comm    | 0.75514    | 0.84478    | 0.91828    |   4.0 | 33.71
Output  | 0.00024084 | 0.00024714 | 0.00031674 |   0.0 |  0.01
Modify  | 0.21692    | 0.23584    | 0.26593    |   2.6 |  9.41
Other   |            | 0.01516    |            |       |  0.60

Nlocal:        83.3333 ave          95 max          74 min
Histogram: 4 5 5 7 7 7 6 4 1 2
Nghost:        1678.10 ave        1711 max        1638 min
Histogram: 1 3 5 2 7 7 12 6 2 3
Neighs:        9849.94 ave       11904 max        8412 min
Histogram: 3 8 4 6 11 9 3 1 2 1

Total # of neighbors = 472797
Ave neighs/atom = 118.19925
Neighbor list builds = 905
Dangerous builds = 179

# Equilibrate just above the melting temperature to avoid step fn in T

fix 1 all npt temp 1.25 1.25 0.1 iso 5.68 5.68 0.5 mtk yes tchain 5 pchain 5
run 2000
Per MPI rank memory allocation (min/avg/max) = 3.643 | 3.645 | 3.649 Mbytes
Step Temp E_pair E_mol TotEng Press Volume 
   10000    2.4272474   -2.8108556            0   0.82910534    5.5639894    3878.3614 
   11000     1.234074   -4.1807582            0     -2.33011    5.4646872    2965.2699 
   12000    1.2469574   -4.1535648            0   -2.2835962    5.9284926    2949.4072 
Loop time of 0.610559 on 48 procs for 2000 steps with 4000 atoms

Performance: 566038.469 tau/day, 3275.686 timesteps/s
99.7% CPU use with 48 MPI tasks x no OpenMP threads

MPI task timing breakdown:
Section |  min time  |  avg time  |  max time  |%varavg| %total
---------------------------------------------------------------
Pair    | 0.27673    | 0.30138    | 0.33318    |   2.2 | 49.36
Neigh   | 0.039173   | 0.042159   | 0.045409   |   0.6 |  6.91
Comm    | 0.18945    | 0.22089    | 0.25353    |   2.8 | 36.18
Output  | 4.7591e-05 | 4.9289e-05 | 6.2645e-05 |   0.0 |  0.01
Modify  | 0.035801   | 0.041501   | 0.047268   |   1.8 |  6.80
Other   |            | 0.004581   |            |       |  0.75

Nlocal:        83.3333 ave          91 max          73 min
Histogram: 1 2 2 4 2 15 9 6 3 4
Nghost:        2020.94 ave        2039 max        2003 min
Histogram: 2 1 4 7 7 12 10 3 1 1
Neighs:        12941.2 ave       14699 max       11231 min
Histogram: 2 3 4 11 4 9 6 5 2 2

Total # of neighbors = 621179
Ave neighs/atom = 155.29475
Neighbor list builds = 144
Dangerous builds = 12

#############################
# L I N E A R  Q U E N C H  #
#############################

# Define solid atoms. This closely follows ten Wolde  Ruiz-Montero and Frenkel  Faraday Discuss  1996  104  93-110
# Compute components of the per-atom q6 vector
compute q6 all orientorder/atom degrees 1 6 components 6 nnn NULL cutoff 1.3 # compute the Q6 parameter.
                                                                             # Use all neighbours within 1.3 unit cell.

# get number of connections
compute coord_number all coord/atom orientorder q6 0.5

# An atom is solid if it has 8 or more connections (of a possible 14)
variable is_solid atom c_coord_number>=8
group solid dynamic all var is_solid    # Must be dynamic to update
dynamic group solid defined

# do clustering
compute cluster solid cluster/atom 1.3 # Create a cluster where all atoms within are solid and max 1.3 units from another member

# define chunks one chunk per cluster
compute clus_chunks solid chunk/atom c_cluster nchunk every compress yes  # Says which atoms are in which chunk

# count the size of each chunk
compute size_chunks solid property/chunk clus_chunks count


# Find the maximum entry in the vector of chunk sizes
variable max_n equal max(c_size_chunks)


# Thermo style which includes this variable
# thermo_style custom step temp pe vol v_max_n

thermo ${N}  # Print the thermo information every 100 steps
thermo 1000  

# Reset the npt fix at a lower temperature (below freezing)
fix 1  all npt temp  ${temp} ${temp}  0.1  iso  5.68  5.68  0.5  mtk yes tchain  5  pchain  5
fix 1  all npt temp  0.45 ${temp}  0.1  iso  5.68  5.68  0.5  mtk yes tchain  5  pchain  5
fix 1  all npt temp  0.45 0.45  0.1  iso  5.68  5.68  0.5  mtk yes tchain  5  pchain  5

dump dmp2 all dcd ${N} traj.dcd
dump dmp2 all dcd 1000 traj.dcd


compute msd all msd com yes
variable twopoint equal c_msd[4]/6/(step*dt+1.0e-6)
fix 9 all vector 10 c_msd[4]
variable fit equal slope(f_9)/6/(10*dt)
thermo_style custom step temp pe c_msd[4] v_twopoint v_fit v_max_n

fix 1 all npt temp 1.25 ${temp} 0.1 iso 5.68 5.68 0.5 mtk yes tchain 5 pchain 5
fix 1 all npt temp 1.25 0.45 0.1 iso 5.68 5.68 0.5 mtk yes tchain 5 pchain 5
run 2000000 # 5000000  # Run for this many steps
Neighbor list info ...
  update every 1 steps, delay 10 steps, check yes
  max neighbors/atom: 2000, page size: 100000
  master list distance cutoff = 3.8
  ghost atom cutoff = 3.8
  binsize = 1.9, bins = 8 8 8
  4 neighbor lists, perpetual/occasional/extra = 1 3 0
  (1) pair lj/cut, perpetual
      attributes: half, newton on
      pair build: half/bin/atomonly/newton
      stencil: half/bin/3d
      bin: standard
  (2) compute orientorder/atom, occasional
      attributes: full, newton on
      pair build: full/bin/atomonly
      stencil: full/bin/3d
      bin: standard
  (3) compute coord/atom, occasional
      attributes: full, newton on
      pair build: full/bin/atomonly
      stencil: full/bin/3d
      bin: standard
  (4) compute cluster/atom, occasional
      attributes: full, newton on
      pair build: full/bin/atomonly
      stencil: full/bin/3d
      bin: standard
Per MPI rank memory allocation (min/avg/max) = 9.834 | 9.839 | 9.843 Mbytes
Step Temp PotEng c_msd[4] v_twopoint v_fit v_max_n 
   12000    1.2469574   -4.1535648 8.3895357e-31 5.8260662e-33 8.3333333e+20            2 
   13000    1.2508671   -4.1587335   0.87149334 0.0055864955   0.07374722            2 
   14000    1.2618562   -4.1152734    1.7583803  0.010466549  0.073885402            2 
   15000    1.2323299    -4.114272    2.7251197  0.015139553  0.074835922            2 
   16000     1.249833   -4.1739726    3.5716875  0.018602538  0.075150047            1 
   17000        1.239   -4.1660718    4.4375939  0.021752911  0.074855255            2 
   18000    1.2566208   -4.1539765    5.3180149  0.024620439  0.074527347            2 
   19000    1.2605073   -4.1776312    6.1520623  0.026982729  0.073891919            2 
   20000     1.264219   -4.1192855    7.0584643  0.029410267  0.073351281            1 
   21000    1.2522535   -4.1875264    7.9300878  0.031468602  0.073281106            3 
   22000    1.2563043   -4.1770359    8.7913434  0.033300542  0.073204702            1 
   23000    1.2543449   -4.1833541     9.702438   0.03515376  0.073312168            2 
   24000    1.2524323   -4.2061021    10.639339  0.036942149  0.073508267            1 
   25000    1.2272691   -4.1560798    11.434939  0.038116461   0.07362167            3 
   26000    1.2599636   -4.1642652    12.348506  0.039578543  0.073518645            3 
   27000    1.2326357   -4.1778542    13.108908  0.040459593  0.073358669            2 
   28000     1.239419   -4.1314741    14.066484  0.041864536  0.073281214            1 
   29000    1.2358826   -4.1932166    14.937219  0.042923043  0.073304355            2 
   30000    1.2445423    -4.165965      15.9074   0.04418722  0.073395916            2 
   31000    1.2674352    -4.155063    17.025016   0.04576617  0.073630574            2 
   32000    1.2461774   -4.1805149    17.703085  0.046101782  0.073795469            3 
   33000     1.205432   -4.1477454    18.602376  0.046975695  0.073869725            2 
   34000    1.2180491   -4.1835061    19.507968  0.047813646  0.073908848            1 
   35000    1.2092767   -4.1549653    20.546402  0.048920005  0.074014812            2 
   36000    1.2388683   -4.1653978    21.590641  0.049978334  0.074202408            1 
   37000    1.2751346   -4.1660716    22.342662  0.050321311  0.074360961            2 
   38000    1.2292906   -4.1727654    23.137976  0.050741175  0.074373047            2 
   39000    1.2547485   -4.1957515    23.996203  0.051273937  0.074357528            2 
   40000     1.233922   -4.1520852    24.909215  0.051894197  0.074341784            2 
   41000    1.2334206   -4.1271191    25.828539   0.05249703  0.074315301            1 
   42000    1.2220732   -4.1959151    26.649732  0.052876452  0.074287794            1 
   43000    1.2263062   -4.1761434    27.559929  0.053410714  0.074290413            1 
   44000    1.2449237    -4.195609    28.293619  0.053586399  0.074261916            2 
   45000    1.2205076   -4.1776569    28.976008  0.053659274  0.074151469            2 
   46000    1.2182844   -4.1679186    29.944524  0.054247325  0.074022884            2 
   47000    1.2380821   -4.1890111     30.75505  0.054530229  0.073954967            2 
   48000    1.2443189   -4.2026709    31.523995  0.054729157   0.07382264            3 
   49000    1.2279823   -4.1662174    32.414084  0.055125993  0.073651139            2 
   50000     1.234629   -4.1697511    33.177604  0.055296007  0.073513813            4 
   51000    1.2420578   -4.1664431    34.088558  0.055700258   0.07340919            2 
   52000    1.2181474   -4.1896963    34.814349  0.055792226   0.07330555            5 
   53000    1.2201246   -4.1412332    35.851823   0.05637079  0.073182727            1 
   54000    1.2250211   -4.2096653    36.100078  0.055709996  0.073020942            1 
   55000    1.2306704   -4.1614912    37.284901  0.056492274   0.07285645            2 
   56000    1.2450165   -4.2004863    38.129041  0.056739644  0.072731458            3 
   57000    1.2257572   -4.1963424    39.103338  0.057168623  0.072669753            3 
   58000    1.2315464   -4.2277984    39.941447  0.057387135   0.07260318            2 
   59000    1.2243422   -4.2078354    40.916316  0.057791406  0.072547762            1 
   60000    1.2371361   -4.1984568    41.955187  0.058271092  0.072509558            1 
   61000    1.2225422    -4.173379    42.364873  0.057875509  0.072418403            2 
   62000    1.2537468   -4.1949764    42.746143  0.057454493  0.072272945            3 
   63000    1.2277441   -4.1821566    43.865384  0.058022995  0.072119347            3 
   64000    1.2223599   -4.1711059     44.66713  0.058160326  0.071994433            3 
   65000    1.2429532   -4.1851106    45.487864  0.058317774  0.071895041            2 
   66000    1.2549206   -4.1978509    46.322508  0.058488015  0.071786622            2 
   67000     1.215649   -4.1773793    47.073028  0.058548541  0.071695058            2 
   68000    1.2089154   -4.1891358    47.907275  0.058709895  0.071597408            2 
   69000    1.2493803   -4.1916512    48.571374   0.05866108  0.071486678            2 
   70000    1.2300684   -4.2066656    49.547647  0.058985294  0.071371433            2 
   71000    1.2208038   -4.1892018    50.459933  0.059225273  0.071296875            2 
   72000    1.2195407   -4.2426722    51.018487  0.059049174   0.07122837            1 
   73000    1.2160826   -4.2143377    51.963848  0.059319461  0.071138255            1 
   74000    1.2287142   -4.1673333    52.803824  0.059463765  0.071035254            2 
   75000    1.2399811   -4.2130157    53.571669  0.059524076  0.070946617            2 
   76000    1.2330044   -4.2180601    54.169114  0.059395958  0.070872672            2 
   77000    1.2218201   -4.1841091    55.086187  0.059617085  0.070787696            1 
   78000    1.1887649   -4.1719093    56.160867  0.060000926  0.070708618            2 
   79000    1.2125559   -4.1898263    56.655911  0.059763618  0.070635526            3 
   80000    1.2225485   -4.2426761    57.415268  0.059807571  0.070566116            4 
   81000    1.2247771   -4.2169578    58.070865  0.059743688  0.070483071            2 
   82000     1.220129   -4.2197982    58.974886  0.059933827  0.070386102            2 
   83000    1.2114982   -4.1549036    59.852917  0.060093289  0.070311556            1 
   84000    1.2106593   -4.2115165    60.286155  0.059807693  0.070212147            2 
   85000     1.223751   -4.1904027    61.394552  0.060190736  0.070122588            2 
   86000    1.2306875   -4.2293491    62.406845  0.060471748  0.070063409            2 
   87000    1.2492834   -4.2449709    62.700819  0.060058255  0.069992159            7 
   88000     1.232902   -4.2043909     63.56905  0.060197963  0.069912579            1 
   89000    1.2152459    -4.206633    64.749209    0.0606266  0.069859026            2 
   90000    1.2185981   -4.2073659    65.903288  0.061021563  0.069832528            1 
   91000    1.2074376   -4.1996086    66.903046  0.061266525  0.069800551            3 
   92000    1.2069016   -4.2156948    67.487932  0.061130373  0.069778165            1 
   93000     1.192617   -4.1852037    69.174868  0.061984648  0.069769471            3 
   94000    1.2070757   -4.1999422     69.95984  0.062021134  0.069774345            2 
   95000    1.2132418   -4.2613089    70.399487  0.061753936  0.069787185            2 
   96000    1.2086865   -4.2340586    71.688732  0.062229802  0.069816066            2 
   97000    1.2213162   -4.1940853    72.371863   0.06217514  0.069848783            1 
   98000    1.2333926   -4.2243419    73.434841  0.062444592  0.069885671            1 
   99000    1.2032175   -4.2377031    73.747233  0.062076795  0.069909384            2 
  100000    1.2509038   -4.1981347     75.02553  0.062521275  0.069921606            2 
  101000    1.2061945   -4.2246274     75.55171  0.062336394   0.06992812            2 
  102000    1.2244389   -4.2227885    76.286169  0.062325301  0.069938225            4 
  103000     1.196753   -4.2160015    77.365665   0.06259358  0.069943627            6 
  104000    1.2068529   -4.1964116    77.998969  0.062499174  0.069954036            2 
  105000     1.218469     -4.21082     78.91743   0.06263288  0.069954107            1 
  106000    1.2551503   -4.2030082     79.53534  0.062527783  0.069945524            3 
  107000    1.2230418   -4.2226889    80.739916  0.062881554  0.069941582            1 
  108000    1.2290537    -4.187673    81.079459  0.062561311  0.069936986            3 
  109000    1.2024591   -4.2253384    81.923078  0.062632323  0.069931334            1 
  110000    1.1995117    -4.148585    83.060216  0.062924406  0.069915156            1 
  111000    1.2025952   -4.1951205    83.309473  0.062544649  0.069896098            2 
  112000    1.1937486   -4.2474014     84.20139  0.062649843  0.069875526            4 
  113000    1.1905341   -4.2396387    84.944227  0.062643235  0.069858922            3 
  114000    1.2436012   -4.2490067    85.828072  0.062739818  0.069833337            1 
  115000    1.1949067   -4.2479185     86.05108  0.062355855  0.069801927            1 
  116000    1.2115224   -4.2289564     86.96973  0.062478254  0.069763126            6 
  117000    1.1875618   -4.2372957    87.675889  0.062447214  0.069713996            1 
  118000    1.2089089   -4.2350188    88.062183  0.062190807  0.069661958            1 
  119000    1.2041331   -4.2424998     88.98001  0.062310931  0.069609409            1 
  120000    1.2261947    -4.260314    89.642053  0.062251426  0.069554438            1 
  121000    1.2111931   -4.2007779    91.022263  0.062687509  0.069499649            5 
  122000    1.2255281    -4.227093    91.296529  0.062361017  0.069446742            4 
  123000    1.1967991   -4.2163492    91.795084  0.062191791  0.069378723            2 
  124000    1.1879982   -4.1688751    92.599957  0.062231154  0.069307251            3 
  125000    1.1984013   -4.2198334     93.00701  0.062004673  0.069232942            2 
  126000    1.2230095   -4.2276067    93.845216  0.062066942  0.069161141            1 
  127000    1.1832233   -4.2243558    95.098595  0.062400653  0.069090753            1 
  128000    1.2066017   -4.2616392    95.733589  0.062326555  0.069025524            2 
  129000    1.1853913   -4.2128606    96.475773   0.06232285  0.068960968            3 
  130000     1.200663   -4.2243111    97.766257  0.062670677  0.068917849            2 
  131000     1.191709   -4.2384378    98.346353  0.062561293  0.068878195            3 
  132000    1.1900458   -4.2283086    99.373808   0.06273599  0.068839581            1 
  133000    1.2127997   -4.2311096    100.16401  0.062759401  0.068803223            2 
  134000    1.2281586    -4.200993    101.16843  0.062915688  0.068771064            2 
  135000    1.2079422   -4.2510093    101.70661  0.062781858  0.068736098            1 
  136000    1.1899672   -4.2214203    103.33863  0.063320237  0.068715508            4 
  137000    1.1839948   -4.2347567    104.09776  0.063319803  0.068693747            4 
  138000    1.2113676   -4.2145338    105.08296  0.063455893  0.068678676            2 
  139000    1.2010346   -4.2811259    105.11917  0.063021087  0.068662228            1 
  140000    1.1892166    -4.250079    106.45752  0.063367569  0.068639023            1 
  141000    1.1747336   -4.2567301    107.21503  0.063365857  0.068628851            3 
  142000    1.1932237   -4.2524665    107.57969  0.063133618  0.068615187            4 
  143000    1.1978666   -4.2412941    108.70486  0.063347821   0.06859666            1 
  144000    1.2030437   -4.2442384    109.28835   0.06324557  0.068572947            4 
  145000    1.2096395   -4.2435853    109.50938  0.062936427  0.068544679            2 
  146000    1.1788337   -4.2213993    110.75099  0.063214036  0.068517691            1 
  147000    1.1830699   -4.2309015     111.5249  0.063222734  0.068499613            5 
  148000    1.2018297   -4.2650269    112.70044  0.063457454  0.068475535            1 
  149000     1.205551   -4.2171162     113.3902  0.063417336  0.068455477            4 
  150000    1.1891533   -4.2504168    113.91469   0.06328594  0.068432586            2 
  151000    1.1670245   -4.2340867    114.08547  0.062961078  0.068409066            2 
  152000     1.177969   -4.2690033    115.57683  0.063364491  0.068377817            6 
  153000    1.2045494   -4.2322279    115.21257  0.062751943    0.0683436            2 
  154000    1.2124869    -4.208757    117.39804   0.06352708  0.068314832            4 
  155000    1.2037041   -4.2750209    117.34501  0.063088716  0.068288622            1 
  156000    1.2005569   -4.2433099     118.5531  0.063329645  0.068264464            1 
  157000    1.1917576   -4.2515226    119.27183  0.063307765  0.068245654            1 
  158000    1.1862404   -4.2302991    120.09734  0.063342481  0.068229572            1 
  159000    1.1924156    -4.237066    121.36227  0.063607059  0.068206844            3 
  160000    1.1544898   -4.2680715    121.88699  0.063482809  0.068190501            2 
  161000    1.1994776   -4.2735535    122.95417  0.063640875  0.068177167            1 
  162000    1.1697588   -4.2789527    124.04236  0.063807797  0.068164109            2 
  163000    1.1797209   -4.2742851    124.44993   0.06362471  0.068144075            3 
  164000    1.1947719   -4.2905026     124.7987  0.063413975  0.068131554            1 
  165000    1.1950789   -4.2512559    126.11242  0.063693141   0.06811954            3 
  166000    1.2121837   -4.2497392    127.01495  0.063762527  0.068110608            3 
  167000    1.1965641   -4.2456308    127.40586   0.06357578  0.068098978            1 
  168000    1.1551785   -4.2818781    127.90908  0.063446964  0.068083966            1 
  169000    1.1947245   -4.2719098    129.21148  0.063713749  0.068068979            2 
  170000    1.1737961   -4.2355231    130.07932  0.063764372  0.068048546            2 
  171000    1.1874596   -4.3051095    130.09309   0.06339819   0.06802687            2 
  172000    1.1536647   -4.2563373    131.15153   0.06354241  0.068001729            1 
  173000    1.1824033   -4.2576839    132.10408   0.06363395  0.067978844            3 
  174000    1.1971298   -4.2570019    133.65618  0.064011578  0.067957727            2 
  175000     1.187237   -4.2583833    133.42826  0.063537269  0.067936238            1 
  176000    1.1945389   -4.2861428    134.09351  0.063491244  0.067913157            2 
  177000    1.1909109   -4.2548474    135.46899  0.063780128  0.067890211            5 
  178000    1.2077141   -4.2558043    136.10525  0.063719686  0.067875512            2 
  179000    1.2092854   -4.2615771    136.96678  0.063764796  0.067863072            1 
  180000    1.1656624   -4.2476789    137.34959  0.063587775  0.067848284            1 
  181000     1.180937   -4.2504667    138.53309  0.063781348    0.0678288            1 
  182000    1.1755875   -4.2225536    138.73568  0.063523665  0.067805139            2 
  183000    1.2106281   -4.2640139     140.3649  0.063918442  0.067789917            2 
  184000    1.1829291   -4.2479907    140.90312   0.06381482  0.067775885            1 
  185000    1.1726057   -4.2728879    141.24168  0.063622378  0.067757686            1 
  186000    1.1864298   -4.2762192    142.29115  0.063750514  0.067734382            2 
  187000    1.1819495    -4.295405    143.08525  0.063763481  0.067713021            1 
  188000    1.1599874   -4.2712508    143.64318  0.063671624  0.067694394            2 
  189000    1.1863668   -4.2760892    145.11828  0.063985133  0.067678491            3 
  190000    1.1903148   -4.2858477    145.18726  0.063678621  0.067664344            1 
  191000    1.1953037   -4.2668605    146.03163  0.063713626  0.067648364            1 
  192000    1.1660328    -4.273274    147.07243  0.063833519  0.067631827            2 
  193000    1.1765528   -4.2549258    148.66059   0.06418851  0.067618466            2 
  194000    1.1694878   -4.2507826    148.67051  0.063861902  0.067605176            2 
  195000    1.1443186    -4.256842    150.04053  0.064119886  0.067590719            2 
  196000    1.2038794   -4.2472848    150.70911  0.064077004  0.067575597            1 
  197000    1.1637612   -4.3213054    150.76201  0.063774118  0.067559439            2 
  198000    1.1740255   -4.2876461    150.91783  0.063517604   0.06753849            2 
  199000     1.154716   -4.2787259    151.93151  0.063622911  0.067514444            2 
  200000    1.1434294   -4.2642758    152.58081  0.063575336  0.067487761            4 
  201000    1.1581108   -4.2687877    152.74637  0.063327684  0.067463327            3 
  202000    1.2069832   -4.2502909    154.50835  0.063741069  0.067434897            1 
  203000    1.1604422   -4.2774257    155.10842  0.063673406    0.0674116            2 
  204000    1.1764039   -4.2604896    155.90408  0.063686307  0.067388297            3 
  205000      1.17435   -4.2770822    156.34737  0.063555841   0.06735967            3 
  206000    1.1539595   -4.2757178    157.00684  0.063514093  0.067335455            1 
  207000    1.2040421   -4.2785296    157.19146  0.063281585  0.067305662            2 
  208000    1.1451409   -4.2645955    158.82572  0.063632101  0.067276773            1 
  209000    1.1767376   -4.2647691    159.79828  0.063715423  0.067249006            3 
  210000    1.1934108   -4.2539177    160.29553  0.063609336  0.067227509            2 
  211000    1.1785873   -4.3063959    160.77503  0.063497248  0.067206296            2 
  212000    1.1946911   -4.2850219    161.99117  0.063675772  0.067182699            2 
  213000    1.1654032   -4.2742981    163.09161   0.06380736  0.067162819            5 
  214000    1.1751975   -4.2575443    163.84311  0.063801833  0.067139483            1 
  215000    1.1792406   -4.3149585    164.21759  0.063650229  0.067119619            1 
  216000     1.168293    -4.271965    164.90419  0.063620442  0.067103766            2 
  217000    1.1606489    -4.311923    166.07567  0.063777138  0.067088091            3 
  218000    1.1817387   -4.2970608    166.81925  0.063768824  0.067068144            5 
  219000    1.1880736   -4.3074304    167.93552  0.063902403  0.067050849            3 
  220000    1.1704905   -4.2794454    169.33689  0.064142762   0.06703705            5 
  221000    1.1738916   -4.2936436    169.47138  0.063903234  0.067026752            2 
  222000    1.1882318   -4.2931291     170.5898  0.064035209  0.067018796            3 
  223000    1.1977198   -4.3112471    171.29733  0.064012454  0.067010715            1 
  224000    1.1768596   -4.3003864    172.65992  0.064233603   0.06700012            1 
  225000    1.1455591   -4.2674522    173.63136  0.064307913  0.066989953            2 
  226000    1.1571396   -4.2918042    173.19181  0.063861289  0.066981324            4 
  227000    1.1649701    -4.300228    174.04921  0.063894715  0.066968606            3 
  228000    1.1537664   -4.2928369    174.70422  0.063853882  0.066954404            4 
  229000    1.1392645   -4.3047488    175.85016  0.063992053  0.066943649            2 
  230000    1.1725622   -4.2935096    175.46598  0.063574632  0.066928078            5 
  231000    1.1663205   -4.3270149    176.83988  0.063795051  0.066912621            1 
  232000    1.1624724   -4.3078319    177.19507  0.063647653  0.066895302            1 
  233000    1.1393951   -4.2871003    178.08189  0.063691661  0.066878332           10 
  234000    1.1692825   -4.2848643    178.15747  0.063446392  0.066862578            4 
  235000    1.1751282   -4.2902842    179.50636  0.063654739  0.066844059            2 
  236000    1.1699875   -4.2975563    180.59786   0.06377043  0.066828392            3 
  237000     1.180619    -4.294627    181.30697  0.063750693  0.066812333            3 
  238000    1.1757842   -4.3095913    181.91707  0.063696453  0.066797464            2 
  239000    1.1580244   -4.2980938    182.90401   0.06377406  0.066780926            3 
  240000    1.1480371   -4.3232765    182.80398  0.063473603  0.066760827            5 
  241000    1.1709984   -4.2729957     185.2192  0.064045366  0.066741255            2 
  242000     1.180357   -4.3124787    184.63473  0.063579453  0.066723222            2 
  243000    1.1632744   -4.3357128    185.51725  0.063620457  0.066705278            2 
  244000    1.1384538   -4.2857349    187.21774  0.063940485  0.066693587            2 
  245000    1.1449166   -4.3496291    187.59473  0.063807731  0.066681166            2 
  246000    1.1811101   -4.3189214    188.12659   0.06372852  0.066668872            1 
  247000    1.1680859   -4.3136711    188.63507  0.063642061   0.06665458            2 
  248000    1.1516938   -4.3167756    188.79949  0.063440688  0.066635585            5 
  249000    1.1853179   -4.3179939    188.92203  0.063226918  0.066618757            2 
  250000    1.1626663   -4.2874758     190.4728  0.063490934  0.066600934            2 
  251000    1.1807538   -4.3113186    192.06203  0.063765614  0.066581231            2 
  252000    1.1706518   -4.2779915    193.23996  0.063902104  0.066565347            4 
  253000    1.1594371    -4.340792    192.51128  0.063409513  0.066549288            4 
  254000    1.1529236   -4.3069698    194.23885  0.063726658  0.066535253            1 
  255000    1.1421293   -4.3170983    195.20311  0.063791866  0.066518378            2 
  256000     1.142846   -4.3115278    195.16523  0.063530348  0.066500771            5 
  257000    1.1641335   -4.3198419    196.00625  0.063555852  0.066483812            1 
  258000    1.1395415   -4.3313631    197.03477  0.063641723  0.066466295            2 
  259000    1.1453137   -4.3137757    198.22703   0.06377961  0.066447552            4 
  260000    1.1306594   -4.3376529    199.03122  0.063792056  0.066431905            3 
  261000    1.1746201   -4.3166391    199.26819  0.063623303  0.066413268            4 
  262000    1.1464831   -4.3077733    200.31615  0.063713787  0.066394081            2 
  263000    1.1516069   -4.3230168    200.40864  0.063500836  0.066376358            3 
  264000    1.1601796   -4.2923645    202.00809  0.063765181  0.066359158            3 
  265000    1.1572961   -4.2675376    203.46774  0.063983565  0.066344324            2 
  266000    1.1687616   -4.3242037    204.02255  0.063916838  0.066330952            4 
  267000    1.1432708   -4.3246401    203.45132  0.063499163  0.066315498            1 
  268000    1.1480816   -4.3123663    205.22852  0.063814838  0.066297745            3 
  269000    1.1430573   -4.3323895    205.30994  0.063602831  0.066277609            1 
  270000    1.1465006    -4.304441     206.1869  0.063637931   0.06625847            2 
  271000    1.1859824   -4.3119814    205.89849  0.063314418  0.066240042            2 
  272000    1.1448974   -4.3345527    207.66204  0.063621947  0.066221405            1 
  273000    1.1506851   -4.3258278    207.49751  0.063338679  0.066199658            2 
  274000    1.1072008   -4.3160761    208.41121  0.063385405  0.066178352            5 
  275000    1.1513879   -4.2814255    209.28546  0.063419838  0.066156171            4 
  276000    1.1650423   -4.3311004     208.9663   0.06309369  0.066130855            2 
  277000    1.1686347   -4.3030441    211.13222  0.063517514  0.066108521            2 
  278000    1.1270507   -4.3383255    211.24075  0.063321568   0.06608537            4 
  279000    1.1441399   -4.3478212    210.55117  0.062888642  0.066065328            4 
  280000    1.1634406    -4.336862    212.79718  0.063332495  0.066043656            2 
  281000    1.1588712   -4.3271054    213.17035  0.063217778  0.066020651            2 
  282000    1.1344811   -4.3089907    213.97585  0.063231634  0.065997511            3 
  283000    1.1578472   -4.3074124    215.16106  0.063357203  0.065977656            1 
  284000    1.1526787   -4.3546026    215.17207  0.063137344  0.065956742            4 
  285000    1.1170838   -4.3261559    216.06193  0.063176003  0.065935915            2 
  286000    1.1460274   -4.3279181    217.28971  0.063312853  0.065915841            2 
  287000    1.1399982      -4.2938    218.11912  0.063333078  0.065895251            1 
  288000    1.1381729   -4.3168913    218.71631  0.063285969  0.065876845            3 
  289000    1.1423944   -4.3427073    219.27057  0.063226809  0.065855922            2 
  290000    1.1736259   -4.3115401    221.06174  0.063523488  0.065834392            2 
  291000    1.1419132   -4.3406591    221.07525  0.063309063  0.065815615            1 
  292000    1.1463818   -4.3523434    221.99209  0.063353908  0.065794592            2 
  293000    1.1480727   -4.3298487    221.82574   0.06309037   0.06577279            1 
  294000    1.1285407   -4.3329147    222.75686  0.063139701  0.065749672            2 
  295000    1.1191258      -4.3515    223.24322  0.063063056  0.065727111            1 
  296000    1.1094993   -4.3359782    223.68464  0.062974278  0.065703061            3 
  297000    1.1473261   -4.3198195    225.12422  0.063166167  0.065681885            2 
  298000    1.1414229     -4.35226    225.86847  0.063162324  0.065659673            2 
  299000    1.1454451    -4.353841    226.55996  0.063143802  0.065638313            2 
  300000     1.116394    -4.313742    226.18689  0.062829693  0.065617671            4 
  301000    1.1595667   -4.3595762    228.19056  0.063175681  0.065596779            1 
  302000    1.1239077   -4.3400272    228.51477  0.063055951   0.06557417            2 
  303000    1.1234537   -4.3721722    229.84343  0.063213265  0.065553445            3 
  304000    1.1361234   -4.3186161    231.37506  0.063425181  0.065535333            3 
  305000    1.1411332   -4.3645591    231.11183  0.063145309  0.065518101            1 
  306000    1.1349478   -4.3455443    231.98539  0.063176849  0.065499881            2 
  307000    1.1186242   -4.3323046    232.41721  0.063088276  0.065481846            2 
  308000    1.1225092   -4.3467572     234.2312  0.063374243   0.06546452            6 
  309000    1.1429124   -4.3703677    233.66524  0.063016516  0.065445778            3 
  310000    1.1256109   -4.3640513    233.93937  0.062886927  0.065425773            2 
  311000    1.1178901   -4.3046729    235.28689  0.063045791  0.065406477            3 
  312000    1.1109112   -4.3483539    235.56182  0.062917153  0.065385202            3 
  313000    1.1266824   -4.3353483    237.04019  0.063109742  0.065365994            2 
  314000    1.1116429   -4.3784332    237.72331  0.063090051  0.065348773            3 
  315000    1.1553125   -4.3394744    238.40175  0.063069245  0.065330688            3 
  316000    1.0986027   -4.3316386    239.35284  0.063120473  0.065311404            3 
  317000    1.0974252   -4.3306823    239.76253  0.063029057  0.065293846            2 
  318000     1.150802   -4.3258889    240.92689  0.063135979  0.065276353            3 
  319000    1.1304705   -4.3651998    241.63005  0.063121747  0.065258962            2 
  320000    1.1441291   -4.3458654    242.83597  0.063238532  0.065243662            3 
  321000    1.1226774   -4.3711461    242.06977  0.062842618  0.065225115            4 
  322000    1.1338348   -4.3556848      242.799   0.06283618  0.065208592            4 
  323000    1.1220798   -4.3247776    244.11682  0.062981636  0.065190682            2 
  324000    1.1285824   -4.3535575    244.75895  0.062952405  0.065170393            2 
  325000    1.1178252    -4.374283    245.05582  0.062834827  0.065146649            1 
  326000    1.1325199   -4.3735536    244.81135  0.062579588  0.065124319            2 
  327000    1.1399594   -4.3654787    246.35149  0.062780705  0.065102245            1 
  328000     1.130047   -4.3293823    247.32495  0.062836624  0.065082558            2 
  329000    1.1147617   -4.3699618    247.59349   0.06271365  0.065060876            2 
  330000    1.1200467   -4.3844472    248.71882  0.062807783  0.065040266            2 
  331000    1.1380928   -4.4104719    247.85882  0.062401515  0.065016413            2 
  332000    1.1254802   -4.3302051    249.04365  0.062510956  0.064991624            1 
  333000    1.1044883   -4.3473914    250.07674  0.062581767  0.064967817            1 
  334000    1.1262172   -4.3615167    251.78101  0.062819613  0.064944013            2 
  335000    1.1099574   -4.3996712      250.304  0.062264676  0.064918918            4 
  336000    1.1351441   -4.4083643    252.07876  0.062519533  0.064893969            2 
  337000    1.1060041   -4.3484593    252.54368  0.062448982  0.064870073            2 
  338000    1.1273903   -4.3404807     252.6854  0.062299162   0.06484491            3 
  339000    1.1152421   -4.3700644    252.56123  0.062084864  0.064816367            8 
  340000    1.1278716   -4.3882927    252.95557  0.061998914  0.064786929            1 
  341000    1.1326224   -4.3533738    255.03332  0.062324859  0.064759004            3 
  342000     1.104533   -4.3668433    254.97242  0.062127783    0.0647315            4 
  343000    1.1290067   -4.3516733     256.3539  0.062282288  0.064702438            2 
  344000    1.1101639   -4.4029293    256.68284  0.062180921  0.064673656            2 
  345000    1.1267706   -4.3451364    258.13527  0.062351516  0.064646868            2 
  346000    1.0936116   -4.3504115    258.56542  0.062274909   0.06462118            4 
  347000       1.1366   -4.3421431    260.18588  0.062484601  0.064597387            1 
  348000    1.1278706   -4.3736097    259.64533  0.062175606  0.064573087            3 
  349000    1.1154646   -4.3667345    260.58075  0.062220809  0.064549269            1 
  350000    1.0930842    -4.357704    261.74409  0.062320022  0.064526512            2 
  351000    1.1262741    -4.386759    263.14781  0.062475739  0.064502898            2 
  352000     1.122308    -4.388617    262.07077  0.062043269  0.064478133            2 
  353000    1.1299852   -4.3447857    262.97717  0.062081485   0.06445197            2 
  354000    1.1215781   -4.3478033    263.69646  0.062075438  0.064426636            2 
  355000    1.1054801   -4.3930297    265.20349  0.062254341  0.064403384            4 
  356000    1.0999354   -4.3905472    266.12709  0.062295668  0.064379777            3 
  357000    1.1308903   -4.3478543    267.15174   0.06236035   0.06435719            4 
  358000    1.1044773   -4.3705155    265.88493  0.061891279  0.064333951            2 
  359000    1.1431769   -4.4087319    267.59875  0.062116702  0.064308072            3 
  360000    1.1157426   -4.3791801     267.5794  0.061939676  0.064282866            3 
  361000    1.1193876   -4.3733805    269.01639  0.062099813  0.064258576            1 
  362000    1.1088387   -4.4071083    268.98876  0.061921906  0.064231612            3 
  363000      1.12423   -4.3468513    270.56267  0.062112643  0.064205513            3 
  364000    1.1122252   -4.3872803      268.557  0.061482831  0.064178048            2 
  365000    1.0900763   -4.3937623    269.74398  0.061585384  0.064149439            2 
  366000    1.1312047   -4.3653143    271.38914  0.061791698  0.064120123            2 
  367000    1.1216757   -4.4077611    271.98569  0.061758786  0.064090362            3 
  368000    1.0960538   -4.3747799    272.62018  0.061734643  0.064062244            1 
  369000    1.1019239   -4.3705703    273.45266  0.061755342  0.064034901            1 
  370000    1.0730032    -4.395702     274.1796  0.061752162  0.064007807            1 
  371000    1.1213362   -4.3879606    274.65385  0.061692239  0.063980076            3 
  372000    1.0888583    -4.402893    274.51446  0.061495175  0.063953469            2 
  373000    1.1090953   -4.3766595    276.71718  0.061822425  0.063927408            2 
  374000    1.0902034   -4.3874485    276.34412  0.061574001  0.063902468            3 
  375000     1.097715   -4.4124835    275.86471  0.061303269  0.063875733            2 
  376000    1.1157425   -4.3616935    279.06756  0.061850079  0.063848627            3 
  377000    1.1051176   -4.4268025    278.11558  0.061475591  0.063821594            3 
  378000     1.118654   -4.3903621    279.64557  0.061650257  0.063793872            2 
  379000     1.087456    -4.407578    279.84638  0.061531746  0.063767625            2 
  380000    1.1164261     -4.40345    281.06656  0.061637404  0.063742562            3 
  381000     1.105478   -4.3884352    282.58467  0.061807671  0.063716803            5 
  382000    1.0825077   -4.4124527    282.42378  0.061610771  0.063690967            5 
  383000    1.1003741   -4.4352322    281.89573  0.061335016  0.063664492            1 
  384000    1.1118372   -4.3880978     284.0377  0.061640126  0.063639636            3 
  385000    1.0683232   -4.3946999    284.26098  0.061528351  0.063612823            2 
  386000    1.0926439   -4.4084343    284.33961  0.061385925  0.063587506            5 
  387000    1.0987368   -4.3599936    286.47943  0.061688077  0.063562808            2 
  388000    1.1036381   -4.3792457    286.08881  0.061445191  0.063536397            3 
  389000     1.109146   -4.3530148    288.32927  0.061767196  0.063511051            4 
  390000    1.0887687   -4.3927106     287.7492  0.061484872  0.063485963            2 
  391000    1.1192002   -4.3888644    289.32057  0.061662525  0.063460712            2 
  392000    1.0814291   -4.3987695    287.55962  0.061130871  0.063434895            3 
  393000    1.1001445   -4.4041215    289.95266  0.061482751  0.063409267            3 
  394000    1.0993654   -4.4286677    289.30107   0.06118889  0.063383946            2 
  395000    1.1197812   -4.3998218    290.77806  0.061345582  0.063356793            2 
  396000    1.1132475   -4.4092322    291.77935  0.061401378  0.063329759            2 
  397000    1.1144844   -4.3989944    291.42076  0.061171444  0.063303616            3 
  398000    1.0923729   -4.4034767    292.71261  0.061288236  0.063277361            3 
  399000    1.1021062   -4.4012142    293.63255  0.061326765  0.063253764            3 
  400000    1.1129746   -4.4124343    293.96096  0.061241868  0.063228512            5 
  401000    1.1268641   -4.4027005    294.86371  0.061276748  0.063203171            2 
  402000    1.1188808   -4.4022586    294.78938   0.06110891  0.063177518            3 
  403000    1.0896709    -4.405772     295.4693   0.06109787  0.063152989            2 
  404000    1.0943131   -4.4194694    295.79285  0.061013378  0.063125635            2 
  405000    1.1043757   -4.3818071    297.40034  0.061193485  0.063100353            5 
  406000    1.1100621   -4.4291156    297.95913  0.061157457  0.063074915            3 
  407000    1.0953412   -4.4255924    297.70632  0.060955429  0.063049652            4 
  408000    1.0938849   -4.4243956    299.45015  0.061162204  0.063023757            2 
  409000    1.1034279   -4.4395262    299.67478  0.061058432  0.062998769            3 
  410000    1.1030136   -4.4051796    301.63183  0.061307283  0.062974006            1 
  411000    1.0566274   -4.3965015    301.14907  0.061060233  0.062950261            1 
  412000    1.0882272   -4.3999611    301.08489  0.060899047  0.062924672            1 
  413000     1.095091   -4.4080625    301.94578  0.060925299  0.062898861            3 
  414000    1.0883397   -4.4001957    302.88678  0.060967548  0.062873418            3 
  415000    1.0804831   -4.4267857    304.64095  0.061172881  0.062850027            4 
  416000    1.1112176   -4.4056236    304.93523  0.061084782  0.062826786            2 
  417000    1.0962647    -4.425192    305.74652  0.061100423  0.062802851            2 
  418000    1.1135075   -4.4143875    306.13777   0.06103225  0.062779767            7 
  419000    1.0918429   -4.4286261    308.18131  0.061293022  0.062758704            4 
  420000    1.1185813   -4.3878797    308.75942   0.06126179  0.062736931            3 
  421000    1.0876738   -4.4409488    308.67493  0.061099551  0.062714216            2 
  422000    1.1095216   -4.3793723    310.25858  0.061267491  0.062694229            2 
  423000    1.0675686   -4.4410031     309.4898  0.060971197  0.062673069            2 
  424000    1.0607311   -4.4808096    309.78421   0.06088526  0.062650895            5 
  425000    1.0962137    -4.415131    310.11667  0.060807189  0.062629183            4 
  426000     1.085481   -4.4319189     311.1564   0.06086784   0.06260577            2 
  427000    1.0734832   -4.4257139     309.4647  0.060395141  0.062582703            7 
  428000    1.0647078    -4.420343    313.30636  0.061002017  0.062558948            3 
  429000     1.092692   -4.4072325    313.99184  0.060992977  0.062536002            5 
  430000     1.087029   -4.4241792     313.5295   0.06076153   0.06251146            4 
  431000    1.0928075   -4.4584013    314.81687  0.060869464  0.062487906            3 
  432000     1.099859   -4.4611964    314.99943  0.060763779  0.062464276            2 
  433000    1.0818539   -4.4371631    314.72907  0.060571415  0.062439964            2 
  434000    1.0664628   -4.4234911    315.76643  0.060631035  0.062416622            2 
  435000    1.0703187   -4.4263218    315.98968  0.060534422  0.062394866            5 
  436000    1.1092267   -4.4129685    317.51333  0.060686799  0.062371725            2 
  437000     1.074326   -4.4592593    319.29773  0.060888202  0.062350807            5 
  438000    1.0787702   -4.4259628    319.27796  0.060745426  0.062328598            7 
  439000    1.0829096   -4.4206584    320.73295  0.060883248  0.062307358            3 
  440000    1.0849111   -4.4593712    321.06522  0.060807807  0.062284679            2 
  441000    1.0810676   -4.4096036    321.88168  0.060824202  0.062263609            5 
  442000    1.0880643   -4.4171567    322.50733  0.060804549  0.062243531            3 
  443000    1.0532239   -4.4451489    323.78044   0.06090678  0.062222575            4 
  444000    1.0867838   -4.4329452    324.49786  0.060904254  0.062204348            2 
  445000    1.0677184   -4.4352327    323.90722  0.060656783  0.062185633            4 
  446000    1.0830708   -4.4256127    324.01811    0.0605415  0.062165207            6 
  447000    1.0721616   -4.4404689    326.40915  0.060851818   0.06214608            3 
  448000    1.0853129     -4.47256    325.94161   0.06062902  0.062126829            6 
  449000    1.0728196   -4.4272077    327.52333  0.060787551  0.062106639            2 
  450000    1.1040136   -4.4178368    328.59587  0.060851086   0.06208662            2 
  451000    1.0658838   -4.4282406    328.50132  0.060698692  0.062067687            2 
  452000    1.0637339   -4.4558066     329.1038  0.060675479  0.062048976            3 
  453000    1.0737097   -4.4767332    329.22685  0.060564175   0.06202895            4 
  454000    1.0831965   -4.4625945    330.57781  0.060678746  0.062009267            7 
  455000    1.0972819   -4.3923656    332.03774  0.060812773   0.06198981            3 
  456000    1.0596962   -4.4516905    331.43637  0.060569513  0.061970311            3 
  457000    1.0666686   -4.4470544    331.58234  0.060463592  0.061950566            3 
  458000    1.0390999   -4.4659243    332.83594  0.060559668   0.06192941            3 
  459000    1.0850416    -4.444059    333.56048  0.060559274   0.06191004            3 
  460000    1.0994508   -4.4289862    335.72173  0.060819153   0.06189121            2 
  461000    1.0692403   -4.4449438    335.44464  0.060637137  0.061873353            3 
  462000    1.0611582   -4.5003145    335.84406  0.060577932  0.061854913            2 
  463000    1.0397481   -4.4510251    336.53145  0.060570816  0.061836153            2 
  464000    1.0985368   -4.4239532    338.08593  0.060719455  0.061818141            3 
  465000    1.0597841    -4.455941    337.31625   0.06045094  0.061799714            3 
  466000    1.0741955   -4.4617367     338.0043   0.06044426  0.061780114            1 
  467000    1.0801966   -4.4423066     339.2065  0.060529354  0.061761739            3 
  468000    1.0631373   -4.4759202    339.74578  0.060496044   0.06174332            8 
  469000    1.0590095   -4.4679024     341.2913  0.060641667  0.061725868            2 
  470000    1.0615893   -4.4178345    341.32714  0.060518996  0.061707203            1 
  471000    1.0458244   -4.4680737    340.62559  0.060266382   0.06168824            2 
  472000    1.0702988   -4.4307025    342.84908  0.060531265  0.061669754            2 
  473000    1.0643095   -4.4394883    342.89345  0.060411108  0.061650577            6 
  474000    1.0388123   -4.4660755    343.58712  0.060405612   0.06163106            3 
  475000    1.0793801   -4.4390025    345.17623  0.060557233  0.061611683           10 
  476000    1.0705227   -4.4610816    344.55447  0.060321161  0.061592298            2 
  477000     1.075255    -4.465376     345.6524  0.060386513  0.061571616            3 
  478000    1.0680192      -4.4648    344.75569   0.06010385  0.061551558            2 
  479000    1.0932024   -4.4685706    346.61254  0.060301416   0.06153267            1 
  480000    1.0634705   -4.4466102    347.16545   0.06027178  0.061513728            4 
  481000    1.0591627   -4.4529355    348.16904  0.060320347   0.06149421            3 
  482000     1.073111   -4.4737145    347.79971  0.060131348  0.061473358            3 
  483000    1.0469827   -4.4465976     348.3949  0.060109541  0.061452563            2 
  484000    1.0778275   -4.4726914    349.82541  0.060231647  0.061432449            2 
  485000    1.0740661   -4.4614107    349.68013  0.060082496  0.061413207            4 
  486000    1.0866328   -4.4860497    349.67727   0.05995838  0.061394372            3 
  487000    1.0636971    -4.455495     350.5042  0.059976763  0.061375178            2 
  488000    1.0571588   -4.4593001    352.26837  0.060155117  0.061355945            4 
  489000    1.0798305   -4.4896002    353.45824  0.060234873  0.061337306            3 
  490000    1.0573424   -4.4671368    353.41026  0.060103785  0.061318101            3 
  491000    1.0615207   -4.4691878    353.74271  0.060037799  0.061299044            3 
  492000     1.043723   -4.4596247    354.96555  0.060122891   0.06128148            2 
  493000    1.0379979   -4.4543212    356.49838  0.060260038  0.061262938            3 
  494000    1.0515704   -4.4645053      357.282  0.060270243  0.061245888            1 
  495000    1.0512297   -4.4417876    358.44507  0.060344288  0.061227277            6 
  496000    1.0932677   -4.5080539    357.56989  0.060075586   0.06120809            2 
  497000    1.0722864   -4.4627204    358.89925  0.060177606  0.061190342            6 
  498000    1.0540339    -4.474081    357.45115  0.059814449  0.061171399            2 
  499000    1.0458469   -4.4501812    361.16574   0.06031492  0.061154304            2 
  500000    1.0574857   -4.4783135    360.66494  0.060110823  0.061136352            3 
  501000    1.0607971   -4.4688973    360.29302  0.059928979    0.0611182            2 
  502000    1.0625374   -4.4834934    361.10104  0.059943731    0.0610999            3 
  503000    1.0500545   -4.4908186    361.94734  0.059964768  0.061080932            2 
  504000    1.0597364   -4.4718543    362.17284  0.059883075  0.061061383            6 
  505000    1.0484076   -4.4475194    362.49957   0.05981841  0.061041766            4 
  506000    1.0631693   -4.4701623     363.2947  0.059831143  0.061022653            1 
  507000    1.0603237   -4.4808549    363.08087  0.059677987  0.061003865            4 
  508000      1.04667     -4.46527    363.77225  0.059673925  0.060983678            2 
  509000    1.0565389   -4.4621862    364.31948   0.05964628  0.060964383            2 
  510000    1.0576023   -4.5058382    365.23493  0.059678909   0.06094426            7 
  511000    1.0430708   -4.4982252    366.59424  0.059783796  0.060925134            2 
  512000    1.0160867   -4.4785327    367.48743  0.059812408  0.060905792            1 
  513000    1.0689347   -4.4640207    369.80172  0.060071755  0.060887204            2 
  514000    1.0601178   -4.4593142    368.49634  0.059743246  0.060867665            2 
  515000    1.0419423   -4.4979711    368.61644  0.059646674  0.060848264            2 
  516000    1.0483597   -4.4609763    370.91741  0.059902682  0.060828322            9 
  517000    1.0544074   -4.4650178    371.12237  0.059819853  0.060809826            5 
  518000    1.0393923   -4.4946542    370.39871  0.059587952  0.060790703            3 
  519000    1.0274921   -4.4807829    371.58159  0.059663069  0.060770789            4 
  520000    1.0582467    -4.533174    369.85903   0.05927228  0.060749536            4 
  521000     1.065476   -4.4873376    371.22142  0.059376427  0.060728356            2 
  522000    1.0433722    -4.526027    371.64243   0.05932989  0.060709162            2 
  523000    1.0499957   -4.5004398    374.02412  0.059595939  0.060687539            5 
  524000    1.0339114   -4.4645093      374.732  0.059594784  0.060666677            3 
  525000    1.0466146   -4.4681765    373.88903  0.059347465  0.060645505            3 
  526000    1.0279887    -4.482818    375.54002  0.059496201   0.06062458            2 
  527000    1.0286305   -4.4747374    374.88789  0.059280185  0.060603022            6 
  528000    1.0623108   -4.5264235    375.07089  0.059196794  0.060581571            6 
  529000    1.0366302   -4.5003412    375.44346  0.059143583  0.060559761            2 
  530000    1.0372335   -4.5066023    376.10128  0.059135421  0.060537937            5 
  531000    1.0511031   -4.4909999    376.87422  0.059145357  0.060515631            5 
  532000    1.0121981   -4.5340763    376.65683  0.059000131  0.060493454            4 
  533000    1.0268842   -4.5091212    376.58723  0.058878554  0.060470789            3 
  534000     1.050113    -4.472836    379.30818  0.059192912  0.060447869            4 
  535000    1.0260617   -4.4982837    377.94357  0.058869715  0.060425251            3 
  536000    1.0487777   -4.4942547    379.48154  0.058998995  0.060401942            3 
  537000    1.0437081   -4.4599252    378.86735  0.058793815  0.060379711            6 
  538000    1.0438801   -4.5005084    381.85491  0.059147291  0.060357079            3 
  539000    1.0360546   -4.5022402    380.25573  0.058790311  0.060334737            3 
  540000    1.0342218   -4.5016072    381.23371  0.058832363  0.060311968            3 
  541000    1.0209071   -4.5073645     384.2187   0.05918341  0.060287773            4 
  542000    1.0418125   -4.5053157    383.76628  0.059004655  0.060264757            3 
  543000   0.99936506   -4.5272283    383.53665   0.05886075   0.06024189            5 
  544000    1.0570509   -4.5194767    384.07775   0.05883544  0.060219048            5 
  545000    1.0478564   -4.4810832    385.92089  0.059009311  0.060196874            2 
  546000    1.0139004   -4.5209329     384.3213  0.058657097  0.060175134            4 
  547000    1.0055318    -4.509282    387.18286  0.058985811  0.060153295            5 
  548000    1.0287107   -4.5069034    386.02513  0.058702118  0.060132168            2 
  549000    1.0143812   -4.4938424    387.78085  0.058861696  0.060110883            2 
  550000    1.0280195   -4.5131197    388.75394  0.058902111  0.060089548            3 
  551000    1.0282247   -4.5005655    388.83956  0.058808161  0.060066576            3 
  552000    1.0105546   -4.5274092    388.09948  0.058589897    0.0600438            2 
  553000    1.0174647   -4.5263571    387.94492  0.058460657  0.060019419            2 
  554000    1.0229822     -4.51271    388.44912  0.058430975  0.059995013           11 
  555000    1.0413717   -4.5079097    389.71019  0.058515043  0.059970521            4 
  556000     1.046214   -4.4928119    389.69419  0.058407403   0.05994683            2 
  557000    1.0379015   -4.4883624    391.00902  0.058499256  0.059921938            3 
  558000    1.0225343   -4.4987539    391.81178  0.058514304  0.059897593            3 
  559000    1.0425645   -4.4797459    392.22828  0.058471717  0.059873579            3 
  560000    1.0200747   -4.5049613    391.39627  0.058243492  0.059849041            5 
  561000    1.0305091   -4.5265749    392.86463  0.058357788  0.059824274            2 
  562000    1.0154395   -4.5230812    392.72285  0.058232926  0.059798665            5 
  563000    1.0268999    -4.536149    392.63002  0.058115752   0.05977274            5 
  564000    1.0336106   -4.5313538    393.06464  0.058076927  0.059746435            2 
  565000    1.0182052   -4.5402855    394.49852  0.058185623  0.059719302            5 
  566000    1.0336283   -4.4961237    394.65093   0.05810526  0.059693677            2 
  567000    0.9984761   -4.5307288    395.78522  0.058169491  0.059668291            1 
  568000    1.0291852   -4.5328041    395.24025  0.057987125  0.059641482            2 
  569000    1.0311939   -4.5371978    396.01004  0.057997955  0.059616004            2 
  570000    1.0241306   -4.5380142    396.51947  0.057970683  0.059589997            4 
  571000    1.0310091    -4.533396    398.05783   0.05809367   0.05956478            2 
  572000      1.03031   -4.4765691    397.94837  0.057976161  0.059538529            2 
  573000    1.0264011   -4.5571129    397.38645   0.05779326   0.05951202            3 
  574000    1.0333601   -4.5216692    398.65687  0.057877014  0.059484961            3 
  575000   0.99098791    -4.568714    397.77407  0.057648416  0.059457512            2 
  576000    1.0237442   -4.5513943    399.65495   0.05782045  0.059430097            4 
  577000    1.0116294   -4.5294376    398.61581  0.057570163  0.059402969            7 
  578000   0.99896113    -4.504523    400.41328  0.057729711  0.059376462            4 
  579000    1.0539803   -4.5278031    399.99614  0.057569968  0.059349344            2 
  580000    1.0360699   -4.5047866    402.25083  0.057794659  0.059321977            3 
  581000     1.030675   -4.5288466    401.23918  0.057550084  0.059295006            2 
  582000    1.0186743   -4.5377477    403.10888  0.057718912  0.059267619            5 
  583000    1.0300188   -4.5513924    402.12903   0.05747985  0.059241323            4 
  584000    1.0032529   -4.5285311    405.73008  0.057895275   0.05921477            4 
  585000    1.0124564   -4.5270542    403.38394  0.057462099  0.059189762            2 
  586000     1.021562    -4.560606    403.95259  0.057444907  0.059162782            9 
  587000    1.0199089   -4.5260551    406.47137  0.057704623  0.059134895            2 
  588000    1.0065571   -4.5354456    407.06105  0.057690058  0.059107498            2 
  589000     1.030174   -4.5595889    406.71096   0.05754258  0.059079627            6 
  590000    1.0033716   -4.5388325    406.05762  0.057352771  0.059050813            4 
  591000    1.0148596   -4.5244708    406.80456  0.057361049   0.05902324            2 
  592000     1.004058   -4.5628662    405.24502  0.057044626  0.058995183            5 
  593000    1.0187343     -4.54708    404.92332  0.056903222  0.058966149            3 
  594000    1.0146819   -4.5374927    406.70943  0.057058001  0.058937531            8 
  595000    1.0006127    -4.543376    408.18976  0.057169434  0.058908954            3 
  596000    1.0121584   -4.5028009    409.15156  0.057207992  0.058880652            2 
  597000    1.0323565   -4.5302467    409.62063  0.057177642  0.058852212            2 
  598000    1.0357976   -4.5820063    409.28994  0.057035945  0.058823402            4 
  599000    1.0108613   -4.5459071    410.07669   0.05705018  0.058794089            7 
  600000    1.0166578   -4.5339122    410.38445  0.056997841  0.058765354            8 
  601000    1.0084293   -4.5678567    409.23755  0.056743976  0.058735447            3 
  602000    1.0367146   -4.5250907    412.53585  0.057106291  0.058705507            2 
  603000    1.0338282   -4.5590279    412.57373  0.057016823  0.058676653            3 
  604000    1.0211916   -4.5857167     412.0953  0.056856415  0.058647544            2 
  605000    1.0207627   -4.5505766    413.61581  0.056971874  0.058618218            2 
  606000   0.99323179    -4.539335    412.71191  0.056753563  0.058588345            7 
  607000    1.0204967   -4.5142603    414.53589  0.056910474  0.058559144            2 
  608000    1.0217082   -4.5754948    413.13636  0.056625049  0.058530416            1 
  609000    1.0372266   -4.5485872    414.43305  0.056709503  0.058501224            2 
  610000    1.0067093   -4.5561976     415.6208  0.056778798  0.058471853            1 
  611000    1.0151083   -4.5378196    414.92765  0.056591333  0.058442164            4 
  612000    1.0239145   -4.5434794    415.82996  0.056621726  0.058413304            3 
  613000    1.0235733   -4.5617769    416.00495  0.056553147  0.058384182            2 
  614000   0.99995699   -4.5609021    417.50701  0.056664904  0.058354854            3 
  615000   0.97211601   -4.5417898    416.77352  0.056473377  0.058324538            4 
  616000    1.0085084   -4.5180924    418.47989  0.056612539  0.058294222            3 
  617000    1.0065914   -4.5713089    418.22964  0.056486986  0.058264617            4 
  618000    1.0205596   -4.5466226    418.26798  0.056400752  0.058234206            1 
  619000   0.98856958   -4.5373195    418.96027  0.056402836  0.058205028            4 
  620000    1.0157253   -4.5554733    421.24746  0.056619282  0.058176232            3 
  621000    1.0095704   -4.5556243     422.2741  0.056665875  0.058147181            2 
  622000   0.99957153   -4.5444075     422.1578   0.05655919  0.058118482            2 
  623000    1.0108358   -4.5650957    421.27839  0.056350775  0.058089498            2 
  624000   0.99278727   -4.5514008    422.08097  0.056367651  0.058059848            4 
  625000    1.0118771   -4.5704485    423.36154  0.056448205  0.058030901            5 
  626000    1.0056574   -4.5338786    423.59604  0.056389249  0.058001972            6 
  627000    1.0008215   -4.5952503    424.72326  0.056449131  0.057973442            1 
  628000    1.0076364   -4.5539358    424.97932  0.056393222  0.057944404            4 
  629000   0.98652457   -4.5678633    425.33505  0.056350696  0.057915599            8 
  630000   0.98031761   -4.5627433     425.0227  0.056219934  0.057887049            3 
  631000    1.0379076   -4.6078525     424.6429  0.056080679  0.057858701            2 
  632000    1.0164401     -4.57662    427.02749  0.056306367  0.057831281            4 
  633000   0.98587479   -4.5738612    427.68897  0.056304498  0.057803326            3 
  634000    1.0143096   -4.5767173    427.80354  0.056230749  0.057774641            4 
  635000    1.0166742   -4.5800614    427.58595  0.056113642  0.057746188            6 
  636000    1.0123779   -4.5683238    429.08019  0.056221198  0.057718038            2 
  637000     1.020458   -4.5774383    428.26875  0.056026785  0.057690669            5 
  638000    1.0258394   -4.5484673    428.97495   0.05603121  0.057662046            2 
  639000   0.98971022   -4.5958139    430.54302   0.05614802    0.0576341            4 
  640000   0.98678226   -4.6122806    429.17423  0.055882061  0.057605727            4 
  641000    1.0096718   -4.5980139     432.0869  0.056173544  0.057577277            1 
  642000    1.0142138   -4.5735278    430.47194   0.05587642  0.057548584            5 
  643000    1.0004117   -4.5922081    430.87811  0.055842161  0.057519652            2 
  644000   0.97047024   -4.5569936    432.78217  0.056001834  0.057490015            3 
  645000   0.98454582   -4.5952957    430.89124  0.055670703  0.057460276            2 
  646000    1.0159806   -4.5732427    432.87452  0.055840366  0.057430821            4 
  647000   0.97593345   -4.6078914    432.15487   0.05566137  0.057400903            3 
  648000   0.99455436   -4.5959873    431.55731  0.055498625  0.057370717            3 
  649000    1.0018507   -4.5961866    433.58906  0.055673993  0.057340508            4 
  650000    1.0022419   -4.5836237    434.40055  0.055692378  0.057310788            3 
  651000   0.98837632   -4.5970386    432.83493  0.055406418  0.057281291            4 
  652000   0.98458967   -4.6214267    435.70336  0.055688057  0.057252044            4 
  653000   0.98045374   -4.5878416    435.92282  0.055630784  0.057222472            3 
  654000   0.99613839   -4.6090298    435.68563  0.055515499  0.057193156            2 
  655000    1.0066155    -4.593624    436.51738  0.055536562  0.057164001            3 
  656000     1.004284   -4.6015056    436.94908  0.055506743  0.057135131            2 
  657000    1.0035928   -4.6044034    438.85185  0.055663603  0.057106662            2 
  658000   0.99204536   -4.5735216    438.29902  0.055508995  0.057077735           10 
  659000   0.99753734   -4.5790636    438.11042  0.055400913  0.057048379            4 
  660000   0.97221483   -4.5759484    439.37692  0.055476884  0.057019258           11 
  661000   0.99004172   -4.6020364    439.05968  0.055352961  0.056989052            5 
  662000   0.98695937   -4.5454982    441.17534  0.055535667   0.05695991            2 
  663000   0.98421142    -4.593651    438.89285  0.055165013  0.056929304            4 
  664000   0.97715387   -4.5845191    439.45294  0.055152226  0.056898272            2 
  665000   0.98861652    -4.569368    440.49906  0.055200384  0.056867146            2 
  666000    1.0045319   -4.5904911    440.89587  0.055167151   0.05683624            2 
  667000   0.98188015   -4.5652881    441.91501  0.055211771  0.056804717            3 
  668000   0.98926752   -4.5997588    439.94685  0.054883589   0.05677342            6 
  669000   0.99620143   -4.5925091    439.54502  0.054751498  0.056741363            9 
  670000   0.97689623   -4.5920229    440.65821  0.054808235  0.056709704            3 
  671000   0.98289249   -4.5882019    442.12041  0.054908149  0.056677141            5 
  672000   0.98375606    -4.594221      442.725  0.054901414  0.056644875            1 
  673000   0.98674529   -4.6020193    443.93692    0.0549699   0.05661303            5 
  674000   0.97369011   -4.5622204    443.82747   0.05487481  0.056581608            5 
  675000   0.98154775   -4.6237756    444.57068  0.054885269  0.056550558            2 
  676000   0.97718805   -4.6328548    441.92481   0.05447791  0.056518598            6 
  677000   0.99443066   -4.5755946    445.74495   0.05486767  0.056486476            4 
  678000   0.95926948   -4.6072523    445.40308  0.054744725  0.056455232            2 
  679000   0.98208004   -4.6061376     443.9871  0.054490317  0.056424324            3 
  680000   0.98545112   -4.5717664    446.09022  0.054667919  0.056393184            5 
  681000   0.97991178   -4.6191254    445.03355   0.05445834  0.056361589            4 
  682000   0.98584913   -4.5952215    447.81904  0.054718847  0.056329989            4 
  683000   0.98328181   -4.5682736    448.98339  0.054780794  0.056298674            3 
  684000   0.96961184   -4.6018469    449.48955  0.054762372  0.056266447            2 
  685000    0.9541221   -4.6336357    448.65768  0.054581227  0.056235388            2 
  686000    0.9660025   -4.6176754    449.37547  0.054588857  0.056203396            3 
  687000    0.9699171   -4.5864017     451.7876   0.05480199  0.056172012            2 
  688000   0.97855393   -4.5900346    450.20707  0.054530895  0.056140993            3 
  689000   0.96818542   -4.6227349     449.9019   0.05441484  0.056109869            2 
  690000    1.0025332   -4.6009426    450.04477  0.054353233  0.056079483            3 
  691000   0.98091346   -4.6091968    451.35673  0.054432794  0.056047956            5 
  692000   0.95969203   -4.6085784    451.64362  0.054388682  0.056017696            4 
  693000   0.95201538   -4.6011423    452.46712  0.054409226  0.055987372            5 
  694000   0.97700311   -4.6179945     452.1653  0.054294584  0.055956684            3 
  695000   0.97805713   -4.6073109    454.34473  0.054477785  0.055926195            4 
  696000   0.96066697   -4.6180137    452.46217  0.054174111  0.055896149            3 
  697000   0.96782763   -4.6205716    454.20099  0.054304279  0.055866073            2 
  698000   0.95404225   -4.6236526    454.98564  0.054320158  0.055836622            3 
  699000   0.97936456   -4.6025743    455.49664  0.054303367  0.055807756            3 
  700000   0.99107859   -4.6189969    456.19102  0.054308455  0.055778304            4 
  701000   0.97479296    -4.622984    456.02579  0.054211339  0.055748548            4 
  702000   0.97695302   -4.6498459    455.06665  0.054020257  0.055718474            3 
  703000    1.0010048   -4.5900136    457.92346   0.05428206  0.055688396            9 
  704000   0.99048798   -4.6505818    455.96671  0.053973333  0.055658036            3 
  705000   0.98681056   -4.6365258    457.34147  0.054059275  0.055627969            4 
  706000   0.97539172    -4.578758    460.57144  0.054363956  0.055598716            2 
  707000   0.95184698   -4.6224518    457.33619  0.053905727  0.055568567            2 
  708000   0.95340347   -4.6265775     459.4131  0.054074046  0.055538685            1 
  709000    0.9693536   -4.6667559    458.53104  0.053894104  0.055509347            5 
  710000   0.97716265   -4.6238243    460.15507  0.054008811  0.055479342            6 
  711000   0.95456487   -4.5959392    461.49902  0.054090368  0.055450842            3 
  712000   0.94956401   -4.6170236    461.77481  0.054046678   0.05542181            5 
  713000   0.97654631   -4.6296591    462.92024   0.05410475  0.055393382            2 
  714000   0.96127694   -4.6264231    462.53326  0.053983807  0.055364227            3 
  715000   0.98168409   -4.6431958    462.45519  0.053899206  0.055335712            3 
  716000   0.97936758   -4.6267164    463.20161  0.053910802  0.055307133            5 
  717000   0.97185376   -4.6433888    463.74502  0.053898771   0.05527883            4 
  718000   0.97265003   -4.6403501    463.27477  0.053769124  0.055249684            4 
  719000   0.99226846   -4.6344065    464.84779  0.053876656  0.055221535            3 
  720000   0.98138859   -4.5989675    465.40767  0.053866628  0.055192636            8 
  721000   0.99637991   -4.6337266     465.2042    0.0537684  0.055164184            6 
  722000   0.96009117   -4.6093877    468.44935  0.054068485  0.055135849            4 
  723000   0.98386982   -4.6398901    466.39035   0.05375638  0.055107722            3 
  724000   0.96900114   -4.6259605    467.09207  0.053762899  0.055079524            2 
  725000   0.96362772   -4.6459641    465.55778  0.053512388  0.055050523            2 
  726000   0.95947245   -4.6023414    468.34258  0.053758331  0.055022418            5 
  727000   0.95298459    -4.627914    470.07919  0.053883447  0.054993957            3 
  728000   0.95688069   -4.6258426    468.95837  0.053681132    0.0549654            8 
  729000   0.96041838   -4.6242406    469.42182  0.053660473  0.054937106            7 
  730000   0.96575839   -4.6284568    470.77426  0.053741354  0.054909679            3 
  731000   0.98229859   -4.6358539    468.67195  0.053428175  0.054881524           19 
  732000   0.97679062   -4.6384004    471.84726  0.053716674  0.054853737            2 
  733000   0.96203378   -4.6382365    471.35113  0.053586986  0.054826152            4 
  734000    0.9846049   -4.6468608    472.31361  0.053623253  0.054797311            5 
  735000   0.93571328   -4.6491453    471.96646  0.053510936  0.054768357            3 
  736000    0.9616133   -4.6518712     470.7319  0.053298449  0.054739749            2 
  737000   0.94827867   -4.6528624    470.36719  0.053184892  0.054710957            5 
  738000   0.96758609   -4.6058609    473.97556  0.053520275  0.054681547            2 
  739000   0.95213091   -4.6830165    470.77021  0.053086401  0.054652028            3 
  740000   0.93781632   -4.6465154    472.69789  0.053231745   0.05462251            4 
  741000   0.96173399   -4.6751407    474.20592    0.0533295  0.054592932            3 
  742000   0.95700266   -4.6404766    474.59061  0.053300832  0.054563633            3 
  743000   0.96201159   -4.6430871    473.10694  0.053062689  0.054534044            3 
  744000   0.95413581   -4.6247506    474.02439  0.053094129  0.054504322            2 
  745000   0.96760062   -4.6168047    474.20078  0.053042593  0.054474949            3 
  746000   0.95395543   -4.6548311    473.13736  0.052852699  0.054444904            3 
  747000   0.95815095   -4.6538791    473.92878  0.052870234  0.054414734            5 
  748000   0.93576938   -4.6532013     476.5428  0.053090776  0.054384211            5 
  749000   0.96196076   -4.6115512    475.30027   0.05288165  0.054353604            3 
  750000   0.94687406   -4.6330486    477.00317  0.053000353  0.054323374            3 
  751000   0.95114686   -4.6747803    474.80148  0.052685473  0.054292054            3 
  752000   0.98075042   -4.6451828    476.08334  0.052757462  0.054260832            3 
  753000   0.95177099   -4.6461747     476.1241   0.05269191  0.054229808            4 
  754000   0.95799095   -4.6795026    477.81683  0.052809111  0.054199108            5 
  755000   0.94373166   -4.6718565    477.54953  0.052709661  0.054168401            5 
  756000   0.94589001    -4.658641    477.51768  0.052636429  0.054138061            4 
  757000   0.96416395   -4.6478217    478.72475  0.052699774  0.054108037            5 
  758000   0.96719415    -4.667757    478.13404  0.052565308   0.05407742            4 
  759000   0.94045617     -4.66048    478.18995   0.05250219  0.054046705            2 
  760000   0.92498293   -4.6416301    479.95201  0.052626317  0.054016157            6 
  761000   0.95058423   -4.6808282    478.11151  0.052355618   0.05398592            4 
  762000   0.94817019   -4.6510624    480.33301  0.052529857  0.053955077            2 
  763000   0.92176659   -4.6457785    480.91203  0.052524249  0.053924551            2 
  764000   0.92601181    -4.649318    483.76088  0.052766239  0.053894537            5 
  765000   0.96101137   -4.6746825    481.50212  0.052451212  0.053864527            5 
  766000   0.92903757   -4.6514778    482.14721  0.052452916  0.053834668            3 
  767000   0.95534512   -4.6808767    480.58877  0.052215207  0.053804376            2 
  768000   0.94947662   -4.6714249    482.86439  0.052394139  0.053774325            3 
  769000   0.94422361   -4.6901651    483.30517  0.052373772  0.053744136            2 
  770000   0.93355591   -4.6910761    483.91828  0.052372108  0.053714686            3 
  771000   0.94621497   -4.6611422    484.36422   0.05235238  0.053684805            7 
  772000   0.94949151   -4.6562703    485.16595  0.052371108  0.053655231            8 
  773000   0.94977318   -4.6766962    482.71811  0.052039469  0.053625795            5 
  774000   0.93142183   -4.6583487    484.37296  0.052150405  0.053595636            5 
  775000   0.94871542   -4.6948977    486.17144  0.052276498  0.053565632            5 
  776000   0.94573194   -4.6773934    485.73384  0.052162139  0.053535185            2 
  777000   0.94413206   -4.6858693    485.62738  0.052083588  0.053504799            3 
  778000   0.95074545   -4.6689919    486.84124  0.052146662  0.053474457            6 
  779000    0.9335699   -4.6697019    488.50184  0.052257365  0.053443661            3 
  780000   0.96516353   -4.6773995    487.67149  0.052101655  0.053413696            8 
  781000    0.9497422   -4.7035077    486.45419  0.051905057  0.053383673            4 
  782000   0.92455874   -4.7070959    487.11381  0.051908973  0.053353259            5 
  783000   0.93640338   -4.6960386    487.74426  0.051909777  0.053323543            2 
  784000   0.94570533   -4.6799827    488.12723  0.051884272  0.053293148            2 
  785000   0.93827139   -4.6890817    488.75271  0.051884576  0.053262741            3 
  786000   0.92685965   -4.7025907    488.85647  0.051829567  0.053232672            3 
  787000   0.93336829   -4.6726737    490.68811  0.051957657  0.053203072            3 
  788000   0.96579575   -4.7074061    489.68089  0.051785204  0.053173649            7 
  789000   0.93773176   -4.6552891    491.14312  0.051874009   0.05314432            6 
  790000   0.92092333   -4.7197835    491.39082  0.051834475  0.053115613            5 
  791000   0.95038957     -4.68235    493.48614   0.05198969  0.053087343            3 
  792000   0.94430788   -4.6848803    494.73903  0.052055875  0.053058846            3 
  793000   0.93856478   -4.6982025    493.80841  0.051892435  0.053030398            7 
  794000   0.92768179   -4.6708155     495.4903  0.052003599  0.053002296            6 
  795000   0.93109542   -4.6988577    494.61681  0.051846626  0.052972963            3 
  796000   0.92369294   -4.6900887    494.69121  0.051789281  0.052943436            3 
  797000   0.94489082   -4.7285283    494.47656  0.051701857  0.052914012            5 
  798000   0.93891928   -4.6923084     494.5694  0.051646763  0.052884235            5 
  799000   0.95194704   -4.6584753    497.30151  0.051867074  0.052854759            4 
  800000   0.95089188   -4.6751689     496.5342  0.051722312  0.052825082            4 
  801000    0.9423845    -4.661739    494.70177  0.051467101  0.052795157            4 
  802000   0.92697117   -4.7030622    494.81169  0.051414348  0.052765203            6 
  803000   0.93334152   -4.7291332    494.12304  0.051278854  0.052734042           10 
  804000   0.95527398   -4.7085433    495.77728  0.051386534   0.05270287            3 
  805000   0.91214993   -4.7031855    494.69334  0.051210491  0.052671961            3 
  806000   0.91428112   -4.7126157    494.34183  0.051110611   0.05264039            3 
  807000   0.93937351   -4.6707446    494.87529  0.051102364  0.052609472            3 
  808000   0.92565683   -4.7160011    494.71357  0.051022439  0.052578964            5 
  809000   0.92791376   -4.7021345    497.92022   0.05128968  0.052548688            3 
  810000    0.9376573   -4.6942731    498.85662  0.051322698  0.052518846            6 
  811000   0.91927583   -4.6887621    498.25364  0.051197456  0.052489354            3 
  812000   0.93378164   -4.6895307    501.06452  0.051422878  0.052459874            6 
  813000    0.9250847   -4.7114409    500.15474  0.051266373      0.05243            2 
  814000   0.92532211   -4.7118434    499.96222  0.051183683  0.052400887            8 
  815000   0.91965604   -4.7106474    499.31615  0.051054821  0.052371598            2 
  816000   0.92402194   -4.7152322    500.22663  0.051085236  0.052342419            4 
  817000   0.92186861   -4.7029467     502.1152   0.05121534  0.052313528            4 
  818000   0.93128468   -4.6605911    503.06239  0.051249225  0.052284516            7 
  819000   0.95092979   -4.6942019    503.48503  0.051229653   0.05225635            3 
  820000   0.92138706   -4.6945678    503.33832  0.051152269  0.052227923            4 
  821000   0.92770875   -4.7186952    503.80796  0.051137633  0.052198771            6 
  822000   0.92208591   -4.6916988     504.9446  0.051190653  0.052170403            2 
  823000   0.92214497   -4.7195575    503.86083  0.051018716   0.05214147            2 
  824000   0.92329566    -4.703294    504.32168  0.051003406  0.052112676            3 
  825000   0.92192141   -4.7077842    503.88871  0.050897849  0.052084358            3 
  826000    0.9541845   -4.7208815     507.2203  0.051172346  0.052056174            2 
  827000    0.8877649   -4.7120289    507.81421  0.051170315  0.052028691            3 
  828000   0.90470941   -4.6773921    509.69049  0.051297352  0.052001287            4 
  829000   0.90462829   -4.7213158    506.71263  0.050936131  0.051973945            6 
  830000   0.92124578   -4.7077432    508.29138  0.051033271  0.051945974            4 
  831000   0.91290913   -4.7123978    509.79614  0.051122757  0.051918007            4 
  832000   0.92283908   -4.7112937    509.19062  0.051000663  0.051889947            3 
  833000    0.9362334   -4.7141544      510.026  0.051023009  0.051862705            4 
  834000   0.90687262   -4.7372404    509.45675  0.050904951  0.051835264            3 
  835000   0.91396403    -4.734591    509.83757  0.050881993  0.051807538            4 
  836000   0.91957503    -4.710204    509.42962  0.050780465  0.051780308            5 
  837000   0.91624199    -4.699986    512.74633  0.051050013  0.051753266            2 
  838000   0.90802685   -4.7162116    511.65176  0.050880246  0.051726476            4 
  839000   0.91414547    -4.719799     511.2599  0.050780682  0.051698991            4 
  840000   0.92989603    -4.723246    512.39774  0.050833109   0.05167139            4 
  841000   0.91558261   -4.7010552    514.00345  0.050931772  0.051643735            5 
  842000   0.91674067    -4.723871    514.27681  0.050898338  0.051616457            6 
  843000    0.9158528   -4.7530631    512.26628  0.050639213  0.051589466            6 
  844000   0.90344152    -4.707728     515.1811  0.050867012  0.051561945            4 
  845000   0.91401565   -4.7251688    512.55012   0.05054735  0.051534855            5 
  846000   0.92944057   -4.7183874    514.59991  0.050689511  0.051507315            2 
  847000   0.91842165   -4.7094316    514.89245  0.050658446   0.05148022            2 
  848000   0.91191477   -4.7340311    514.76589  0.050586271  0.051453109            8 
  849000   0.91209148   -4.7211744    514.95303  0.050545056  0.051425599            4 
  850000   0.91148113   -4.7506555    515.69166  0.050558006  0.051398064            4 
  851000   0.90204724   -4.7251541      514.692  0.050400705  0.051370732            7 
  852000   0.90718583     -4.72882    515.67376  0.050437575  0.051342583            4 
  853000    0.8981274   -4.7284097    515.70056  0.050381062  0.051314888            4 
  854000   0.91901675   -4.7328105    516.51174  0.050401224  0.051286536            6 
  855000   0.90870649   -4.7381446    514.16326  0.050113378  0.051258266            6 
  856000   0.93599376   -4.7392007    517.79199  0.050408099  0.051230454            3 
  857000   0.90642766   -4.7312674     515.5323  0.050129551  0.051202273            8 
  858000   0.93716645   -4.7424828    517.00835  0.050214486  0.051173756            5 
  859000    0.8973018    -4.726178    516.68133  0.050124305  0.051145086            4 
  860000   0.90913067   -4.7026604    517.03376   0.05010017  0.051116739            7 
  861000    0.9165223   -4.7398546    516.17947  0.049959298  0.051087655            4 
  862000   0.90285248   -4.7417769    517.42062  0.050021328   0.05105826            6 
  863000   0.91601724   -4.7679924     517.3053  0.049952231  0.051028965            5 
  864000   0.89978156   -4.7455244    518.40297  0.050000286  0.051000391            2 
  865000   0.90207399   -4.7658382    519.37766  0.050036383  0.050971845            2 
  866000    0.9108078   -4.7630874     518.8576  0.049928561  0.050943186            7 
  867000   0.90046344   -4.7352264    517.62962  0.049752943  0.050915035            6 
  868000   0.88188371    -4.760739    518.68446  0.049796895  0.050886351            2 
  869000   0.89536833   -4.7523885    517.87955  0.049662404  0.050857635           10 
  870000   0.89699048   -4.7252579    521.75156  0.049976203  0.050829313           10 
  871000   0.90084911   -4.7570374    521.89407   0.04993246  0.050800603            4 
  872000    0.8915955   -4.7351338    520.30535   0.04972337  0.050771953            6 
  873000    0.9003107   -4.7152853    520.63176  0.049697572  0.050743119            3 
  874000   0.92075932   -4.7329472     520.7602  0.049652956   0.05071443            6 
  875000   0.90348381   -4.7281502    519.84345    0.0495089  0.050686048            4 
  876000   0.90238921    -4.748076    521.74633  0.049633402  0.050657125            5 
  877000   0.89926617   -4.7489116    524.14853  0.049805067   0.05062875            5 
  878000   0.91682662   -4.7795614    521.82484  0.049527794  0.050600076            3 
  879000   0.89805547   -4.7477816    523.43837  0.049624418  0.050571568            4 
  880000   0.90994327   -4.7543519    522.79309  0.049506922  0.050542995            5 
  881000   0.90323682   -4.7463139    524.85136  0.049645418  0.050514109            6 
  882000   0.91750429   -4.7741621    524.06503  0.049514837  0.050486036            3 
  883000   0.89224176   -4.7704369    526.60196  0.049698184   0.05045804            3 
  884000    0.9029451    -4.742164    527.26166  0.049704153  0.050430262            8 
  885000   0.88325128   -4.7716434    524.30003  0.049369118  0.050402274            7 
  886000   0.90397379   -4.7358365    525.70749  0.049445776  0.050374364            4 
  887000   0.89616303   -4.7622451    527.15262    0.0495258  0.050346058            3 
  888000   0.88947043   -4.7579433    527.44839  0.049497785  0.050318263            5 
  889000   0.91460277   -4.7395279    528.51944  0.049542505  0.050290336            3 
  890000   0.89879957   -4.7589144    526.71464   0.04931785  0.050262526            9 
  891000   0.89481117   -4.7656057    526.85992  0.049276087  0.050234383            6 
  892000   0.90852116   -4.7782405    528.16535  0.049342802  0.050206534            3 
  893000    0.9002412   -4.7629374    527.69567  0.049243717  0.050178947            3 
  894000   0.89173677   -4.7415646    529.38403  0.049346013  0.050151184            4 
  895000   0.89596342   -4.7461682    528.22475  0.049182938  0.050123496            4 
  896000   0.89456945   -4.7919303    529.62247  0.049258042  0.050095499            4 
  897000   0.91828949   -4.7498287    530.48562  0.049283316  0.050067785            4 
  898000   0.89980462   -4.7787708    532.18391  0.049386035  0.050040371            4 
  899000   0.90862838   -4.7661126    533.78983  0.049479962  0.050013223            5 
  900000   0.88637871   -4.7768277    531.13037  0.049178738  0.049985802            4 
  901000   0.90505094   -4.7503212    532.44905   0.04924612  0.049958697            3 
  902000   0.88323252    -4.758814     532.7825   0.04922233  0.049931394            3 
  903000   0.89244611    -4.774636    532.13177  0.049107768  0.049903896            4 
  904000   0.91287107   -4.7754348    534.03261  0.049228669  0.049876869            2 
  905000   0.90262758   -4.7792047    533.73943  0.049147277  0.049849724            4 
  906000   0.88063204   -4.7767938    533.44512   0.04906596  0.049822337            3 
  907000   0.87879624   -4.7746406    534.83528  0.049139588  0.049794623            5 
  908000   0.88637654   -4.7687845    535.53236  0.049149445  0.049767323            3 
  909000   0.86724786   -4.7871015    533.79515  0.048936116  0.049740052            5 
  910000   0.90807543   -4.7999727    533.92463  0.048894197   0.04971258            3 
  911000   0.89861739   -4.7835496    533.85075  0.048833768  0.049684872            6 
  912000   0.89313488    -4.772985    533.73662  0.048769793  0.049657487            4 
  913000   0.88967559   -4.7534538    537.27599  0.049039429  0.049630132            3 
  914000   0.88153847   -4.7849295    537.39992  0.048997075  0.049602967            7 
  915000   0.85938985   -4.7805955     536.0966  0.048824827  0.049575602            3 
  916000   0.89060824   -4.7458466    537.00284   0.04885397  0.049548165            4 
  917000   0.88304164   -4.7860552    536.29055  0.048735964  0.049520454            2 
  918000   0.88529944   -4.7707945    537.41602  0.048785042  0.049492503           10 
  919000   0.88565223   -4.8214617    534.28146   0.04844772  0.049464729            6 
  920000   0.90151113   -4.7763384    536.84234  0.048627024  0.049437035            4 
  921000   0.88868074   -4.7893123    534.53898  0.048365814  0.049409396            2 
  922000   0.88011783   -4.7746394      538.502  0.048671548  0.049381763            6 
  923000   0.89122393   -4.8082217    535.69646  0.048365516  0.049354257            5 
  924000   0.87214253   -4.7609782    538.04245  0.048524752  0.049326565            6 
  925000   0.88945542   -4.7869359    538.94198  0.048553332  0.049298862            7 
  926000   0.90237571   -4.8163834    537.21038  0.048345066   0.04927072            7 
  927000   0.89255172   -4.7749036    539.26822  0.048477906   0.04924301            4 
  928000   0.86499841   -4.7805969    540.78248  0.048561645   0.04921506            3 
  929000   0.87382962   -4.8095252    537.93199  0.048253677   0.04918752            3 
  930000   0.89029919   -4.7928751    537.30853  0.048145925   0.04915988            3 
  931000   0.87105706   -4.7860992    540.91699  0.048417203  0.049132496            5 
  932000   0.85234759   -4.7826396     540.0217  0.048285202  0.049105177            5 
  933000   0.89797311   -4.8191371    540.94984  0.048316349  0.049077595            6 
  934000   0.86643224   -4.7740639    540.99789  0.048268905  0.049050101            3 
  935000   0.87946352   -4.7999746    543.56174  0.048445788  0.049022993            9 
  936000   0.87932565   -4.8044747    542.49802  0.048299325  0.048995645            4 
  937000   0.85836201   -4.7908681     542.6538  0.048261633  0.048968618            4 
  938000   0.86625094   -4.8072999    541.38606  0.048097553  0.048941526            2 
  939000   0.87463645   -4.7938942    543.16307  0.048204035  0.048914252            3 
  940000   0.87026485   -4.7496426    544.46878  0.048268509  0.048887203            2 
  941000   0.88697966   -4.7991869    545.26207  0.048287466  0.048860358            5 
  942000    0.8643202   -4.7963612    545.55741  0.048262332  0.048833626            5 
  943000   0.87014321   -4.8274494    544.10615  0.048082904  0.048806916            5 
  944000   0.88980019   -4.7901934    545.44868  0.048150483  0.048780233            3 
  945000   0.87628573   -4.7992367    545.14975   0.04807317  0.048753658            4 
  946000    0.8662963   -4.7948784    544.90216  0.048000543   0.04872689            4 
  947000   0.87732269   -4.8015693    546.30568  0.048073362  0.048700505            3 
  948000   0.87445281      -4.8207    546.34309  0.048025939  0.048673422            3 
  949000   0.87848693   -4.7816361    549.09126  0.048216654  0.048646805            8 
  950000    0.8776173    -4.797377     546.5218  0.047940509  0.048620291            6 
  951000   0.88558533   -4.8207431     546.1862   0.04786069  0.048593834           11 
  952000   0.88024249    -4.805105    548.46849  0.048010197  0.048566949            6 
  953000   0.85155886   -4.7931081    548.93231  0.048000377  0.048540579            8 
  954000   0.87092865    -4.795287    549.59512  0.048007959  0.048514178            5 
  955000   0.87348485   -4.8106763    550.18662  0.048009304  0.048487659            4 
  956000   0.87451247   -4.7738532    550.49679  0.047986122  0.048461158            4 
  957000   0.86157382   -4.8180546    547.48892  0.047674061  0.048434489            3 
  958000   0.87504704   -4.7939395    550.82028  0.047914081  0.048408141            5 
  959000    0.8341219   -4.8109221    549.15241  0.047719188  0.048381906            4 
  960000   0.85666047   -4.7922037    549.30937  0.047683105  0.048354945            6 
  961000   0.87166529   -4.8294769    549.14943  0.047619618   0.04832833            2 
  962000   0.86633745   -4.8070248    550.98814  0.047729395  0.048302294            3 
  963000   0.87080195   -4.7960076    551.61089  0.047733722   0.04827625            5 
  964000    0.8576279   -4.8417213    549.34896  0.047488672  0.048250185            4 
  965000   0.86835096   -4.8229873    552.01004  0.047669261  0.048223727            4 
  966000   0.85780779   -4.8088442    552.25664  0.047641187  0.048197983            6 
  967000   0.89019284   -4.8501463    554.00041  0.047742193  0.048171886            7 
  968000   0.89308134   -4.8304923    552.40911  0.047555881  0.048145549            3 
  969000   0.88144766   -4.8166907    552.93902  0.047552375   0.04811938            6 
  970000   0.87629953   -4.8275408    556.20314  0.047783775  0.048093186            5 
  971000   0.87703028   -4.8119757    555.44621  0.047669603  0.048067184            9 
  972000   0.86419674   -4.8215145    554.62342  0.047550019   0.04804122            3 
  973000   0.86041442   -4.8168799    554.94903  0.047529037  0.048015462            5 
  974000   0.85539911   -4.8443024    555.55145  0.047531781  0.047989723            4 
  975000   0.88855791   -4.8424861    554.96241  0.047432685  0.047963824            7 
  976000   0.88009128   -4.8507339    555.08807  0.047394815  0.047937955            4 
  977000   0.86207055   -4.8372347    556.34583  0.047453585  0.047912235            4 
  978000   0.86977021   -4.8446815     556.7288  0.047437696  0.047886446            8 
  979000   0.88699674   -4.8490644    555.19792  0.047258931  0.047860688            7 
  980000   0.86243268   -4.8308542    558.18162  0.047464424  0.047834679            3 
  981000   0.85747062   -4.8210087    557.69781  0.047374941  0.047809121            2 
  982000   0.84883771   -4.8392613    559.50426  0.047479994  0.047783392            5 
  983000   0.84796809   -4.7989912    559.94126  0.047468741   0.04775837            4 
  984000   0.86766189   -4.8488026    558.35098  0.047285821  0.047732975            5 
  985000   0.86518943   -4.8468802     559.5585  0.047339975  0.047707278            3 
  986000   0.85653972    -4.874301    557.85234  0.047147763  0.047681704            6 
  987000   0.86572628   -4.8192567    561.35968  0.047396123  0.047656081            5 
  988000   0.86472962   -4.8208025    561.19179  0.047333991   0.04763087            4 
  989000   0.85175625   -4.8463687    559.55646  0.047148336  0.047605483            6 
  990000   0.86358098    -4.825838    559.80262  0.047121433  0.047579954            3 
  991000   0.84667246   -4.8280648    560.73178  0.047152016   0.04755412            6 
  992000   0.87588682   -4.8405261     560.1729  0.047057536  0.047528392            6 
  993000   0.84647665    -4.843742    561.63927  0.047133205  0.047502867            3 
  994000   0.86261634   -4.8573325    559.81774  0.046933077   0.04747709            6 
  995000   0.85065231    -4.846754    561.84942  0.047056066  0.047451806            5 
  996000   0.82775499   -4.8266883    562.67553   0.04707794  0.047426708            3 
  997000   0.85755148   -4.8480207     563.0495  0.047061978    0.0474015            5 
  998000   0.85611804   -4.8355634    562.49278  0.046968335    0.0473758            1 
  999000   0.85505476   -4.8319822    564.50608  0.047089263  0.047351029            7 
 1000000   0.85615453   -4.8754715     563.3887  0.046949058  0.047326072            7 
 1001000   0.89032721   -4.8648882    563.82025  0.046938083  0.047300575            9 
 1002000   0.84139903   -4.8769681    562.16758  0.046753791  0.047274704            5 
 1003000   0.86403843   -4.8592866     563.5203  0.046819567  0.047249094            4 
 1004000   0.85495509   -4.8308047    565.90469  0.046970841  0.047223786            5 
 1005000   0.85667434   -4.8338141    563.86864  0.046755277  0.047198192            5 
 1006000    0.8587366   -4.8698526    563.39445   0.04666952  0.047172698            7 
 1007000    0.8612051   -4.8616032    564.10442  0.046681928  0.047147303            4 
 1008000   0.82685899   -4.8427265    565.25104   0.04673041  0.047121749            4 
 1009000   0.86736277   -4.8387814    564.80969  0.046647645  0.047095943            4 
 1010000   0.84700773   -4.8211662    564.79461  0.046600215  0.047070168            3 
 1011000     0.853899   -4.8497117    566.39467   0.04668601  0.047044827            7 
 1012000   0.85342018   -4.8537656     566.2178  0.046625313  0.047019176            4 
 1013000   0.83607809   -4.8595209    567.86501  0.046714792  0.046993545            4 
 1014000   0.86538685   -4.8446128    566.47391  0.046554398  0.046968061            3 
 1015000   0.86093434   -4.8213971    566.79425  0.046534832  0.046942895            9 
 1016000   0.86049908    -4.848163    568.42812  0.046623041  0.046917573            3 
 1017000   0.85002861   -4.8480586    565.61635    0.0463468    0.0468919            7 
 1018000   0.84918951   -4.8817833    566.92556  0.046408445   0.04686621            6 
 1019000   0.84982085   -4.8400633    569.45825  0.046570023  0.046840065            5 
 1020000   0.86243798   -4.8631364    567.54892  0.046368376  0.046814053            4 
 1021000    0.8224846   -4.8674633    567.14576  0.046290055  0.046788084            6 
 1022000   0.85742814   -4.8619954    568.20258  0.046330935  0.046762213            6 
 1023000   0.86328891   -4.8773994    569.31054  0.046375899  0.046736443            4 
 1024000   0.84921592   -4.8629172    569.81372  0.046371559   0.04671054           10 
 1025000   0.84483707   -4.8457839    567.34712  0.046125782  0.046685052            6 
 1026000   0.83548367    -4.846934    570.72263  0.046354989  0.046659751            3 
 1027000   0.84308475   -4.8693057    570.48334  0.046290437  0.046634638            5 
 1028000   0.84253775   -4.8511069    570.69629  0.046262669  0.046609265            2 
 1029000   0.83397948   -4.8592293    571.39321   0.04627415  0.046583848            8 
 1030000   0.83727581   -4.8884995    570.01379   0.04611762  0.046558326            8 
 1031000   0.84887084   -4.8851997    570.07884  0.046078147  0.046532889            4 
 1032000   0.82682855    -4.869115    572.04525  0.046192284  0.046507305            5 
 1033000   0.82988361   -4.8736659    571.19617  0.046079071  0.046481793            5 
 1034000    0.8494349   -4.8838535    571.09033  0.046025978  0.046456384            3 
 1035000   0.84288578   -4.8557873    572.62023  0.046104689  0.046431494            6 
 1036000   0.84359068   -4.8715891    571.79153  0.045993527   0.04640642            5 
 1037000   0.84364914   -4.8709957    573.61314   0.04609556  0.046381356            6 
 1038000   0.83251121   -4.8744529    573.28318  0.046024661  0.046356275            4 
 1039000   0.83784115   -4.8763079    574.80387  0.046102331  0.046331184            6 
 1040000   0.83141417   -4.8858783    573.21986  0.045931078  0.046306066            7 
 1041000    0.8385049   -4.8840217    573.65406  0.045921714  0.046281093            4 
 1042000   0.83340558   -4.8962481    574.14446  0.045916864  0.046256115           12 
 1043000   0.82400055   -4.8698152     574.8004  0.045925248  0.046231189            8 
 1044000   0.84802576   -4.8709574    575.43312  0.045931762  0.046206405            5 
 1045000    0.8391559   -4.8667202    576.75143  0.045992937  0.046181594            4 
 1046000   0.83451892    -4.917794    575.49009  0.045848478  0.046157271            7 
 1047000   0.83971338   -4.9006981    574.83659  0.045752673  0.046132688            3 
 1048000   0.84229951   -4.8955472     578.4719  0.045998084  0.046108126            8 
 1049000   0.84156914   -4.8800421    579.01328  0.045997242  0.046083504            4 
 1050000   0.83683308   -4.9028691    578.28285  0.045895464  0.046058627            5 
 1051000   0.83384306   -4.8982014    578.10642  0.045837806  0.046033639            3 
 1052000   0.83680043   -4.8606984    578.92303  0.045858922  0.046008911            4 
 1053000   0.82276799   -4.8978261    579.48459  0.045859812  0.045984136           10 
 1054000   0.82548687   -4.8728944    577.74309  0.045678612   0.04595956            6 
 1055000    0.8216989   -4.8944414    576.24172  0.045516723  0.045934283            5 
 1056000   0.82968432   -4.9059712     576.3174  0.045479592   0.04590905            3 
 1057000   0.84374357   -4.9141743    577.58399  0.045536423  0.045883711            2 
 1058000   0.82115557    -4.901082    577.42981  0.045481239  0.045858334            3 
 1059000    0.7917722   -4.9077169    575.99131  0.045325095  0.045832971            4 
 1060000    0.8330835   -4.8890774    578.59615  0.045487119  0.045807601            6 
 1061000   0.82948249   -4.8759636    577.98469  0.045396221  0.045781854            4 
 1062000   0.82050144   -4.8943615    576.97446  0.045274204   0.04575605            7 
 1063000   0.84722336   -4.9017544    576.13867  0.045166092  0.045730412            8 
 1064000   0.81486992   -4.8885234    577.81135  0.045254649    0.0457051            7 
 1065000    0.8466513   -4.8975029    581.39461  0.045492536  0.045679594            2 
 1066000   0.83134856   -4.8873852    578.14682  0.045195968  0.045654433            4 
 1067000   0.82179222   -4.9245907    578.08098  0.045148468  0.045628928            5 
 1068000   0.85433286   -4.9025618    578.54325  0.045142264  0.045603314            3 
 1069000   0.83819273   -4.8983149    580.75039  0.045272092  0.045577631            4 
 1070000   0.82719926    -4.883032    579.82265  0.045157527   0.04555242            5 
 1071000   0.81816266   -4.9162756    582.29349  0.045307617  0.045527234            3 
 1072000   0.82530271    -4.925237    579.14573  0.045020657  0.045502131            5 
 1073000    0.8417445   -4.8814278    583.30705  0.045301883  0.045477107            4 
 1074000   0.82292881   -4.9328649    580.66778  0.045054918  0.045451655            4 
 1075000   0.81432193   -4.8990462    584.13178  0.045281534  0.045426563            6 
 1076000   0.81729769   -4.9018661    585.56666  0.045350578  0.045401619            4 
 1077000   0.81773089   -4.8853411    583.75636  0.045168397  0.045376981            8 
 1078000   0.81209109   -4.9205542    584.08382   0.04515181  0.045352409            1 
 1079000   0.80901697   -4.9107548    582.95984  0.045023157  0.045327564            4 
 1080000   0.81900042   -4.8777224    584.04524  0.045065219  0.045302921            5 
 1081000   0.82852329   -4.9177307    582.18668  0.044880256  0.045278285            4 
 1082000   0.83101853   -4.9038937    583.84441  0.044966452  0.045253796            5 
 1083000      0.81597   -4.8865263    585.67047  0.045065441  0.045228975            5 
 1084000   0.83928066    -4.921912    585.89069  0.045040798  0.045204117            3 
 1085000   0.81067858   -4.9222207    584.57018  0.044897863  0.045179324            6 
 1086000   0.80958235    -4.911598    586.15892  0.044978431  0.045154483            9 
 1087000   0.82461256   -4.9288275    585.57719  0.044892455  0.045129648            5 
 1088000   0.81818781   -4.9297066     587.5931  0.045005599  0.045105056            5 
 1089000   0.83313755   -4.9445788    587.15739   0.04493093   0.04508056            7 
 1090000   0.83391899   -4.9360293    585.82709  0.044788004  0.045055641            4 
 1091000   0.81328888   -4.9195661    586.55689  0.044802695  0.045030687            4 
 1092000   0.82780729   -4.8975854    588.00401  0.044872101  0.045006073            9 
 1093000   0.81909372   -4.9039469    586.74281   0.04473489  0.044981434            4 
 1094000   0.81146549   -4.9237859    589.10591  0.044874003  0.044956824            8 
 1095000    0.8111163   -4.9116528     588.3241  0.044773523  0.044932025            6 
 1096000   0.81953635   -4.9228797    589.61213  0.044830606  0.044907477            5 
 1097000   0.84041752   -4.9214249    587.61323  0.044637893  0.044883087            2 
 1098000   0.81453261   -4.9463808    588.53269  0.044667023  0.044858877            7 
 1099000   0.81898244    -4.923624    589.94821  0.044733713  0.044834772            7 
 1100000   0.80901071   -4.8960568    591.27488  0.044793552  0.044811092            5 
 1101000   0.79942236   -4.9330657    588.87527  0.044571243   0.04478721           10 
 1102000   0.81213522   -4.9278154    591.78133  0.044750554    0.0447633            3 
 1103000   0.81555727   -4.9508939    591.51462  0.044689833  0.044739349            7 
 1104000   0.81574203   -4.9383809    591.94477  0.044681822  0.044715539            7 
 1105000   0.82388279   -4.9398812    592.24292   0.04466387  0.044691782            2 
 1106000   0.82424726   -4.9036704    593.84165  0.044743946  0.044668149           18 
 1107000   0.80843834    -4.916388    593.00213  0.044640329  0.044644882            6 
 1108000   0.81339921    -4.931014    594.55681  0.044716968   0.04462174            3 
 1109000   0.78779819   -4.9184899    596.08334  0.044791354  0.044598431            9 
 1110000   0.81135124   -4.9062233    594.00411  0.044594903  0.044575218            6 
 1111000   0.80697822   -4.9352095      595.008  0.044630063  0.044551774            7 
 1112000   0.80743701   -4.9331416    594.46744  0.044549419   0.04452828            8 
 1113000   0.82135219   -4.9127912    594.14643  0.044485357  0.044504747            7 
 1114000   0.82444095   -4.9631951    594.77997  0.044492816  0.044481054           11 
 1115000   0.80798714   -4.9567189    595.77583  0.044527342  0.044457722            8 
 1116000    0.8079211    -4.920458     597.3623  0.044605907  0.044434581            9 
 1117000   0.79568108   -4.9481143    597.70176  0.044591298  0.044411278            8 
 1118000   0.80542156   -4.9186599    597.30687  0.044521979  0.044388119            6 
 1119000   0.80030591   -4.9414447    597.49902  0.044496501   0.04436502            7 
 1120000   0.79496955   -4.9480795    596.18323  0.044358871   0.04434184            8 
 1121000   0.79566963   -4.9716474    596.75319   0.04436167  0.044318473            4 
 1122000   0.79796266   -4.9406314    597.30021  0.044362761  0.044295256            5 
 1123000   0.80530192    -4.940728    597.12419  0.044310195  0.044271798            7 
 1124000   0.79093414   -4.9426713    598.01873  0.044337095  0.044248406           13 
 1125000   0.82639095   -4.9626332    599.01062  0.044371157  0.044225114            7 
 1126000   0.79503591   -4.9225561     600.1988  0.044419686   0.04420232            5 
 1127000   0.79643346   -4.9554186    601.12653  0.044448871  0.044179655            4 
 1128000   0.81814112   -4.9413771    601.37463  0.044427795  0.044157108            9 
 1129000   0.80963338   -4.9574379    600.41136  0.044317343   0.04413438            5 
 1130000   0.81541142    -4.965821    600.14324  0.044258351  0.044111317            5 
 1131000   0.79843319   -4.9602211    600.87181  0.044272901  0.044088228            9 
 1132000   0.80440123   -4.9698146    599.06146   0.04410052  0.044065332            3 
 1133000   0.79137743    -4.943228    600.97818  0.044202572  0.044042114            6 
 1134000   0.78684583   -4.9445289    599.79436  0.044076599  0.044018946            5 
 1135000    0.8112671   -4.9498557    599.93069  0.044047775  0.043995493            4 
 1136000   0.79189178   -4.9433578    601.54734  0.044127593  0.043972245            7 
 1137000   0.79723541   -4.9511573    600.48016  0.044010565  0.043949509            2 
 1138000   0.78287768   -4.9449777    599.84534  0.043925406  0.043926343            7 
 1139000   0.79503179   -4.9653359    599.64448  0.043872145  0.043903091           10 
 1140000   0.81419976   -4.9606387    600.46074  0.043893329  0.043879758            7 
 1141000   0.79277663   -4.9589547     600.1842  0.043834662  0.043856432            9 
 1142000   0.81106206   -4.9654312    599.35207  0.043735556  0.043832854            8 
 1143000   0.80068869   -4.9411009    602.34225  0.043915299  0.043809207            4 
 1144000   0.79480216   -4.9542167    603.73905   0.04397866  0.043785767            6 
 1145000   0.80154505   -4.9598171    602.68014  0.043863183  0.043762638            8 
 1146000   0.79171276   -4.9547033    599.68156  0.043606861  0.043739036            6 
 1147000   0.79049682   -4.9547819    603.17435  0.043822606  0.043715697            5 
 1148000   0.79253271   -4.9782849     598.3121  0.043431482  0.043692035            7 
 1149000   0.80407125   -4.9944023      601.862  0.043651146  0.043668321            5 
 1150000   0.78864189   -4.9735622    604.12716   0.04377733  0.043644654            7 
 1151000   0.80701532   -4.9507686    602.86507   0.04364792  0.043621195            7 
 1152000   0.81454816   -4.9770068    602.08687  0.043553738  0.043597568            3 
 1153000   0.79315035   -4.9645128    602.99805  0.043581819  0.043573847           12 
 1154000   0.78506203   -4.9738353    602.36795  0.043498552  0.043550366            4 
 1155000   0.80535825   -4.9611658    603.14265  0.043516786  0.043526889            6 
 1156000   0.78333511   -4.9950189    602.31811  0.043419702  0.043503456           17 
 1157000   0.78618882   -4.9678844    603.11788  0.043439778  0.043479835            4 
 1158000   0.77540014   -4.9776015    604.19413  0.043479716  0.043456052            5 
 1159000   0.79210989   -4.9800731    602.84294  0.043345049  0.043432339            3 
 1160000   0.78416274   -4.9580012    605.14673  0.043473184   0.04340855            7 
 1161000   0.78131152   -4.9898013    603.66417  0.043329326   0.04338497            7 
 1162000    0.7955824   -4.9623821    606.73302  0.043512122  0.043361369            5 
 1163000   0.79613823   -4.9990496    604.77863  0.043334668  0.043337866           13 
 1164000    0.7926158   -4.9842959    602.21837  0.043114144  0.043314111            7 
 1165000   0.77452745   -4.9586928    604.95882  0.043273163  0.043290556            4 
 1166000   0.78810071   -4.9625478    606.18313  0.043323551  0.043267008            7 
 1167000   0.78466419   -4.9939132    604.05823  0.043134693  0.043243435           12 
 1168000   0.77038017   -4.9983473    604.26018   0.04311217  0.043219858            6 
 1169000    0.7860945   -4.9780472    607.56075  0.043310575  0.043196348            8 
 1170000   0.79303795   -5.0084612    605.92817  0.043157277  0.043173069           10 
 1171000   0.77149272   -4.9867182    606.41254  0.043154892  0.043149467            3 
 1172000   0.80832041   -4.9555203    607.52945  0.043197487  0.043125947            7 
 1173000   0.79215928   -4.9534272    608.68352  0.043242648  0.043102429            4 
 1174000   0.79191145   -4.9984414    605.88561  0.043007213  0.043078424            5 
 1175000   0.79431663   -4.9652071    608.36008  0.043146105  0.043054425           16 
 1176000   0.76930381   -4.9747391     605.3966  0.042899419  0.043030622            5 
 1177000    0.7939497   -4.9846213    606.20473  0.042920188  0.043006867            5 
 1178000    0.7886781   -4.9846255    607.16499  0.042951683  0.042982979           10 
 1179000   0.79750602   -5.0091689    605.68185  0.042810422  0.042959171            6 
 1180000   0.78513114   -4.9827576     607.6515  0.042913241  0.042935794            6 
 1181000   0.79198512    -5.018501    608.66335  0.042948303  0.042912224            5 
 1182000   0.78817738   -5.0085552    608.71709  0.042915756  0.042888522            5 
 1183000   0.77527284   -5.0228526    608.03375  0.042831343  0.042864757            6 
 1184000   0.77252317    -4.998955    607.92863   0.04278777  0.042840875            5 
 1185000   0.78540162    -5.009907    607.04438  0.042689478  0.042816944            5 
 1186000   0.76738287   -5.0053731    608.39243  0.042748203   0.04279315           12 
 1187000   0.78047861    -4.985109    608.23361   0.04270104   0.04276933            7 
 1188000    0.7873477   -4.9980594    608.37244  0.042674835   0.04274559            5 
 1189000   0.77255364   -5.0157159    607.53121  0.042579984   0.04272204            8 
 1190000   0.78270096   -5.0022469    610.02722  0.042718993  0.042698406            6 
 1191000   0.76628505   -5.0083921    611.51641  0.042787323  0.042674749            7 
 1192000   0.78470734    -5.001971     609.5001  0.042610465  0.042650875            4 
 1193000   0.77537122    -4.994169    611.51769  0.042715681  0.042627183            7 
 1194000   0.78606246   -5.0069535    608.33876  0.042458038  0.042603391            5 
 1195000   0.77793357   -5.0062977    610.05111  0.042541918  0.042579537            5 
 1196000   0.77547559    -5.005222    610.41397  0.042531631  0.042556008            7 
 1197000   0.76075342   -5.0107103    610.42069  0.042496567  0.042532247            8 
 1198000   0.79022305   -4.9958987    610.15754  0.042442789  0.042508325            5 
 1199000   0.77784271   -4.9939294    611.00402  0.042466224  0.042484599            5 
 1200000    0.7669695    -5.011104     611.5608    0.0424695  0.042460656            3 
 1201000   0.77197093   -5.0289069     611.1876  0.042408243   0.04243688            7 
 1202000   0.77840629   -5.0178516    612.19466   0.04244278  0.042413117            6 
 1203000    0.7715885   -5.0232508    609.08673  0.042192209  0.042389275            5 
 1204000   0.75615078    -4.983458    613.67174  0.042474512  0.042365826            3 
 1205000   0.78871805   -5.0167583    613.78685  0.042447223  0.042342538            4 
 1206000   0.77682663    -5.028333    614.08406  0.042432564  0.042319038            9 
 1207000   0.78071788   -5.0047481    613.53506  0.042359504   0.04229546            5 
 1208000   0.75712788   -5.0125351    613.06454   0.04229198  0.042272099            4 
 1209000   0.76452846    -5.031821    613.94745  0.042317855  0.042248524            4 
 1210000   0.78365579   -5.0117584     613.5527  0.042255695  0.042224997            8 
 1211000   0.77275748   -5.0137279    613.70487  0.042231274  0.042201747            8 
 1212000   0.76450307   -5.0108999     616.1253  0.042362851  0.042178536            4 
 1213000   0.77585059   -5.0246725    615.26742   0.04226899  0.042155002           12 
 1214000   0.77101569   -5.0384338    613.72714  0.042128442   0.04213157            4 
 1215000   0.76373343   -5.0333233    612.33844  0.041998521  0.042108296            8 
 1216000   0.77097937   -5.0189144     615.4219  0.042175294  0.042084959            8 
 1217000    0.7699283   -5.0294108    616.02106  0.042181667  0.042061746            4 
 1218000   0.77349265   -5.0059699    618.29542  0.042302642  0.042038805            8 
 1219000   0.75565913   -5.0071028    616.41574  0.042139441  0.042015485           17 
 1220000   0.77735381   -5.0300144    616.19852  0.042090063  0.041992129            8 
 1221000   0.76704573   -5.0081283    615.99244  0.042041526  0.041968645            9 
 1222000   0.77358494   -5.0347341    615.58056  0.041979034  0.041945259            5 
 1223000   0.77414481   -5.0364119    614.82703  0.041893365  0.041921666           19 
 1224000    0.7726285   -5.0081255    615.81809  0.041926613  0.041898075            3 
 1225000   0.74936943   -5.0182093    616.85608  0.041962999  0.041874776            6 
 1226000   0.77806814    -5.043344    616.64537  0.041914449  0.041851242            5 
 1227000   0.77396066   -5.0373157    615.23618  0.041784582  0.041827401            4 
 1228000   0.76227518   -5.0408591    615.17059  0.041746104  0.041803529           12 
 1229000   0.75662286   -5.0228543    616.45774  0.041799413  0.041779837            8 
 1230000   0.76344208    -5.025313    615.59429   0.04170693  0.041756118           11 
 1231000   0.75500428   -5.0124372    614.29385  0.041585015  0.041732417           21 
 1232000   0.76020079   -5.0114315    617.97498  0.041800255  0.041708925            8 
 1233000   0.77928359   -5.0286746    615.98098  0.041631589  0.041685438           24 
 1234000   0.75618903     -5.03967    616.74743   0.04164961  0.041661771            6 
 1235000   0.75014099   -5.0566501    615.32542  0.041519934  0.041637952            4 
 1236000   0.77680969   -5.0390413    616.91729  0.041593669  0.041614287            6 
 1237000   0.75523021   -5.0088835    617.82185  0.041620982  0.041590733            4 
 1238000   0.75398496   -5.0701498    617.92387  0.041594229  0.041567151           11 
 1239000    0.7861556   -5.0254213     618.6875  0.041612019  0.041543492            5 
 1240000   0.75744568    -5.043705    617.98835  0.041531475  0.041520136            7 
 1241000   0.75709537   -5.0258593    619.42515  0.041594491  0.041496557            7 
 1242000   0.75956468   -5.0276812    619.00746  0.041532975  0.041472731            4 
 1243000   0.76992421   -5.0672879    617.71662  0.041413021  0.041448897            3 
 1244000   0.76714471   -5.0355102    618.75217    0.0414491  0.041424909            4 
 1245000    0.7644102   -5.0267621    619.86829  0.041490515  0.041401315            6 
 1246000   0.74999294   -5.0430014    619.55937  0.041436555  0.041377816            5 
 1247000   0.76976053   -5.0495923    619.27237  0.041384147  0.041354304           11 
 1248000   0.77050922   -5.0583443    617.74738  0.041249157  0.041330763            4 
 1249000   0.76148935    -5.069604    619.25366  0.041316631  0.041307107            5 
 1250000   0.74212042    -5.053701    618.55502  0.041237002  0.041283386            5 
 1251000   0.75496531    -5.046498    620.26584  0.041318002  0.041259668            5 
 1252000   0.74468887   -5.0401798    621.24938  0.041350465   0.04123609            4 
 1253000   0.73764099   -5.0531666    619.67169  0.041212536  0.041212647            7 
 1254000   0.73394552   -5.0518822    619.38383  0.041160542  0.041189078            6 
 1255000   0.74330462   -5.0465434    621.50458  0.041268565  0.041165645            8 
 1256000   0.75436655   -5.0539066    621.00965  0.041202869  0.041142273            9 
 1257000   0.74841341    -5.065233    619.81889  0.041091149   0.04111846           10 
 1258000   0.75996418   -5.0623238    619.76892  0.041055175  0.041094509           16 
 1259000   0.75300634   -5.0443928    619.86147  0.041028691   0.04107054            4 
 1260000   0.74736539   -5.0693326    618.94475    0.0409355  0.041046568            5 
 1261000   0.75165118   -5.0547668    620.29662  0.040992375   0.04102249            5 
 1262000   0.73920123   -5.0614917    619.65686  0.040917648  0.040998655            8 
 1263000   0.73577403   -5.0815366     618.4498  0.040805608  0.040974613           17 
 1264000     0.767545   -5.0559461    622.44134  0.041036481  0.040950527            9 
 1265000   0.75391111   -5.0683587    621.16968  0.040920269  0.040926742            7 
 1266000   0.73423352   -5.0774566     619.3728  0.040769668  0.040902506            3 
 1267000   0.75136326   -5.0717978     622.4165  0.040937681  0.040878486            8 
 1268000   0.74404824   -5.0630198    621.16222  0.040822964  0.040854762            7 
 1269000   0.74323416   -5.0537128    621.59826  0.040819429  0.040830917            4 
 1270000   0.75106662   -5.0553275    622.00141  0.040813741  0.040807334            7 
 1271000   0.73535489    -5.071471     622.6607  0.040824856  0.040783358            5 
 1272000   0.75128499   -5.0726426    621.18589  0.040696141  0.040759582            8 
 1273000   0.74950693   -5.0813553    621.39229  0.040677683  0.040735648            5 
 1274000   0.74858781   -5.0552951    622.33732  0.040707569  0.040711591            9 
 1275000   0.75076773   -5.0894774    622.12686  0.040661886  0.040687601           11 
 1276000   0.73303103   -5.0483019    622.37741  0.040646383  0.040663544            5 
 1277000   0.75467359   -5.0867027    621.27319  0.040542495  0.040639545            7 
 1278000   0.73008141   -5.0872144    621.65731  0.040535818   0.04061538            6 
 1279000   0.74179459   -5.0517247    621.77497  0.040511791  0.040591333           15 
 1280000   0.74651346   -5.0897158    620.87227  0.040421372  0.040567347            7 
 1281000   0.74615096   -5.0805256    622.47298  0.040493949  0.040543386            6 
 1282000     0.755345   -5.0739496    624.09431  0.040567753  0.040519724            7 
 1283000   0.74006629   -5.0808374     622.8076  0.040452559  0.040495796            8 
 1284000   0.72458696   -5.0654748    624.29883  0.040517837  0.040472058            6 
 1285000   0.73335735   -5.0524905    624.66612  0.040510124  0.040448047           10 
 1286000   0.74054004   -5.0855937    621.59252  0.040279453  0.040424145           10 
 1287000   0.73126837    -5.068457    622.91043   0.04033349  0.040400093            4 
 1288000   0.73629717   -5.0788709    623.65945  0.040350637  0.040376114           14 
 1289000    0.7300575   -5.0978735    621.16718  0.040158209  0.040351916            6 
 1290000   0.75333031   -5.0900914    622.47297  0.040211432  0.040327698            4 
 1291000   0.75214554    -5.096953     622.1878  0.040161877  0.040303677           11 
 1292000   0.74157699   -5.0990925    623.40067  0.040209021  0.040279528            9 
 1293000    0.7408446   -5.0977151     622.9805  0.040150844  0.040255424            7 
 1294000    0.7556926   -5.0681151    623.93315  0.040181166   0.04023141            5 
 1295000   0.73831086   -5.0872891    625.03357   0.04022095  0.040207529            5 
 1296000   0.73380665   -5.0708597    623.66212  0.040101731  0.040183592           11 
 1297000   0.74246897   -5.0900894    624.47946  0.040123327  0.040159595            9 
 1298000   0.73055376   -5.0683713    624.70869  0.040107132  0.040135783            6 
 1299000   0.73858645   -5.1086425    625.74239  0.040142571  0.040111898            8 
 1300000   0.71087415   -5.0924727    625.37387  0.040088068   0.04008824           12 
 1301000   0.73105793   -5.0722762    625.71684  0.040079223  0.040064547           10 
 1302000   0.73443096   -5.1185107    623.26022  0.039891207  0.040040799            7 
 1303000   0.72015297   -5.1129475    625.29314  0.039990607  0.040016932            5 
 1304000   0.72254981   -5.0795183    624.92098  0.039936157    0.0399932           10 
 1305000   0.73673737   -5.0776912    628.61045  0.040141152  0.039969535            7 
 1306000   0.72920699   -5.1067319    625.80213  0.039931223  0.039945763            5 
 1307000   0.73617408   -5.1054522    624.21324  0.039799365  0.039921892           12 
 1308000   0.73429193   -5.0871744    626.02139  0.039884136  0.039898218            5 
 1309000     0.740047   -5.1009418    623.63332  0.039701638  0.039874532            7 
 1310000   0.71815994   -5.1207935    627.05108  0.039888745  0.039850726            7 
 1311000   0.73692688   -5.1008635    627.31519  0.039875107  0.039826873            7 
 1312000   0.73410556   -5.1182412    627.22586  0.039839041  0.039803065            6 
 1313000   0.74515294   -5.1048499    628.42046  0.039884518  0.039779308           13 
 1314000   0.72377657   -5.0889302    628.31687  0.039847594  0.039755645            9 
 1315000   0.74493518   -5.0992674    627.98224  0.039796086  0.039731853            6 
 1316000   0.72976235   -5.0811042    628.39848  0.039792204  0.039708209            9 
 1317000   0.73472204   -5.0911279    627.12497  0.039681408  0.039684517            5 
 1318000   0.72345916    -5.110364    628.39101  0.039731349  0.039660549           13 
 1319000   0.70141832   -5.1072497    626.42702  0.039577143  0.039636521            8 
 1320000   0.72989357   -5.1132276    626.84537  0.039573572  0.039612583            5 
 1321000   0.72173054   -5.1322153    626.28596  0.039508325  0.039588524            7 
 1322000   0.71697424   -5.1260465    627.41405  0.039549549  0.039564369            8 
 1323000   0.72852529   -5.1181531    627.99718  0.039556386  0.039540474            4 
 1324000    0.7223532   -5.1484572    626.21188  0.039414142  0.039516408           12 
 1325000   0.71071982   -5.1183021     628.1949  0.039509113  0.039492436            5 
 1326000   0.71796709   -5.0791806    628.02554  0.039468674   0.03946852            6 
 1327000   0.71715395   -5.1260845     626.4318  0.039338847  0.039444639           14 
 1328000    0.7229166   -5.0968886    626.65333  0.039323126  0.039420671            7 
 1329000    0.7097512   -5.0802615    629.13062  0.039448872  0.039396757           14 
 1330000   0.72075749    -5.112751    626.56587  0.039258513  0.039372603            7 
 1331000    0.7170962   -5.1195519    628.11252  0.039325853  0.039348601            5 
 1332000   0.71624102   -5.0881693    628.19373  0.039301409  0.039324595            9 
 1333000   0.72124043   -5.1382071     627.3926  0.039221843  0.039300556            8 
 1334000   0.71314472   -5.1355827    627.88298  0.039223075  0.039276479           10 
 1335000   0.72487189   -5.1261184    628.19336  0.039213069  0.039252428           10 
 1336000   0.71291301   -5.0961398    628.58505  0.039208149  0.039228346            7 
 1337000   0.72721441   -5.1192829    628.79669  0.039192015  0.039204257            7 
 1338000   0.72793889   -5.0922484    628.10594  0.039119702  0.039180443            9 
 1339000   0.72076211   -5.1211582    628.58982  0.039120601  0.039156618           10 
 1340000   0.71053559   -5.1465075    629.11677  0.039124177  0.039132668            4 
 1341000     0.725602   -5.1197922    626.90901  0.038957806  0.039108658            8 
 1342000   0.72265582   -5.1494501    628.67786  0.039038615  0.039084697            7 
 1343000   0.72481611   -5.1305869     629.3397  0.039050614  0.039060849            5 
 1344000   0.70565977   -5.0959451    628.72329  0.038983339  0.039036794            4 
 1345000   0.71907957   -5.1113722     630.7046  0.039077113  0.039012935            5 
 1346000   0.72431865   -5.1124912    629.37974  0.038966056  0.038989062            9 
 1347000   0.68384494   -5.0991468    631.87236  0.039091337   0.03896527            6 
 1348000   0.70577569   -5.1438464    628.75248  0.038869466  0.038941275            9 
 1349000   0.72684517   -5.1299126    628.21104  0.038807205  0.038917285            8 
 1350000   0.70880789   -5.1098379    630.03432  0.038891007  0.038893226            4 
 1351000     0.702766   -5.1510781     629.0397   0.03880087  0.038869227            4 
 1352000    0.7169641   -5.1399715    628.86033  0.038761115   0.03884514            6 
 1353000   0.69836023   -5.1442386    630.22435  0.038816479  0.038821214            7 
 1354000   0.70247136   -5.1331124    631.92051  0.038892202  0.038797331           22 
 1355000   0.71735449   -5.1248699     630.8468  0.038797466  0.038773468            6 
 1356000   0.70565625   -5.1421008    629.86205  0.038708336  0.038749569            7 
 1357000   0.72156072   -5.1222263    631.20694  0.038762401  0.038725684            6 
 1358000   0.71132954   -5.1601389    629.74697  0.038644267  0.038701657           12 
 1359000   0.71841478   -5.1180549     631.5985  0.038729366  0.038677803           12 
 1360000   0.71362118    -5.139916    629.53605  0.038574513  0.038653885            7 
 1361000   0.71231569   -5.1529454    630.24139  0.038589358  0.038629971           10 
 1362000   0.70868477   -5.1662513    632.29166  0.038686469  0.038606011            8 
 1363000   0.69868901   -5.1493512    629.57952  0.038492267  0.038582118           10 
 1364000   0.70584229   -5.1402251    631.83109  0.038601606  0.038558253            9 
 1365000   0.71795502   -5.1408005    629.93621  0.038457644  0.038534143           10 
 1366000    0.7043452   -5.1592604    631.00485  0.038494684  0.038510031           13 
 1367000   0.72076021   -5.1646772    630.91986  0.038461342  0.038485881            8 
 1368000   0.72254072   -5.1467757    632.77935    0.0385465  0.038461806           21 
 1369000   0.69734428   -5.1706965     631.1785  0.038420897  0.038437972            5 
 1370000   0.71526498   -5.1178278    632.30606  0.038461439  0.038414095           10 
 1371000   0.71808051   -5.1327236    630.24048  0.038307834  0.038390329            9 
 1372000   0.69402515   -5.1635829    632.77993  0.038434155  0.038366314            9 
 1373000   0.71023039   -5.1454489    630.43743  0.038263986  0.038342412           16 
 1374000   0.70764735   -5.1471197    632.27946  0.038347857  0.038318481           10 
 1375000   0.69073678   -5.1604367    632.84061  0.038353976  0.038294566           17 
 1376000   0.70634097   -5.1532207    631.62144  0.038252267  0.038270727            6 
 1377000   0.71049288   -5.1607464    632.17782  0.038258159  0.038246847            6 
 1378000   0.69895723    -5.173117     633.0448  0.038282825  0.038222909            9 
 1379000   0.70664523   -5.1585597    630.49085  0.038100728  0.038199028            7 
 1380000   0.69323519   -5.1700102    631.25234  0.038119102  0.038175118           14 
 1381000   0.71417437   -5.1555325     631.7757  0.038123081   0.03815114            7 
 1382000   0.71768735   -5.1552164    632.55423   0.03814244  0.038127163           10 
 1383000   0.68720801   -5.1624685    633.55375  0.038175087  0.038103347            6 
 1384000   0.70329283   -5.1707559    632.21059   0.03806663  0.038079448            5 
 1385000   0.70600641   -5.2073023    630.59375  0.037941862  0.038055558           10 
 1386000   0.70787654   -5.1563429    631.89297  0.037992603  0.038031748            6 
 1387000    0.7040805    -5.176519    633.24928    0.0380467  0.038008087            6 
 1388000   0.69529191   -5.1721612    633.21787  0.038017403  0.037984226            9 
 1389000   0.71845018   -5.1678366    631.85769  0.037908428  0.037960508            5 
 1390000   0.71672944   -5.1775045    633.83699   0.03799982  0.037936765            7 
 1391000   0.70112013   -5.1536699    632.93874  0.037918688  0.037913063           12 
 1392000   0.71019825   -5.1948057    632.58448  0.037870239  0.037889251           13 
 1393000   0.69403263   -5.1871542    630.74501  0.037733011  0.037865217            9 
 1394000    0.6822803   -5.1890129    632.74643  0.037825587   0.03784131            5 
 1395000   0.71017719   -5.1705311    632.95439  0.037810895  0.037817464            7 
 1396000   0.69352917   -5.1689104    633.80644  0.037834673  0.037793831            5 
 1397000   0.70262613   -5.1562793    633.74143  0.037803712   0.03777008           14 
 1398000   0.69092793   -5.1844738    632.95468  0.037729774  0.037746159            5 
 1399000   0.69711165    -5.195007     631.6461  0.037624857  0.037722039            9 
 1400000   0.70518416   -5.1825452    632.60588  0.037655112  0.037697911           10 
 1401000   0.70196627   -5.1926803     632.4037  0.037616208  0.037673842            5 
 1402000   0.70176913   -5.1779259    632.99297  0.037624404  0.037649842            5 
 1403000   0.69359689    -5.171086    633.50764  0.037628156  0.037625827            7 
 1404000   0.71264324   -5.1931834    632.68075  0.037552276  0.037601998            8 
 1405000   0.69282903   -5.2222612    633.34509  0.037564952  0.037578068           11 
 1406000   0.70334089   -5.1712836    634.09667  0.037582781  0.037553996           15 
 1407000   0.69185579   -5.1875675    635.38408   0.03763232  0.037530286            8 
 1408000   0.68916783   -5.2137424    632.68442  0.037445811  0.037506676            6 
 1409000   0.67871977   -5.1984623    632.38491   0.03740152  0.037482873            8 
 1410000   0.68861077   -5.1948418    635.49115  0.037558579  0.037459136            6 
 1411000   0.69789442   -5.1806367    635.49253  0.037532042  0.037435499            4 
 1412000   0.68970271   -5.1875059    634.56682  0.037450828  0.037411908            6 
 1413000   0.68853046   -5.2002644    635.71708  0.037492161  0.037388315            7 
 1414000   0.69883502   -5.2199556    633.66734  0.037344845  0.037364714            6 
 1415000   0.69567067   -5.1892784    634.19228  0.037349369  0.037341036            8 
 1416000   0.68954224   -5.1830395    636.08416  0.037434332  0.037317315            7 
 1417000   0.69066003   -5.1877718    635.93865  0.037399356  0.037293795           12 
 1418000   0.69329803   -5.1773805    635.52807  0.037348852  0.037270299            9 
 1419000   0.67450156   -5.1953198    636.83711  0.037399407  0.037246729           20 
 1420000   0.68831324   -5.1869926    636.68138  0.037363931  0.037223369           10 
 1421000   0.67459623   -5.1824364    635.63975  0.037276551   0.03720001           11 
 1422000    0.6886149    -5.210053    636.81676  0.037319313  0.037176457           11 
 1423000   0.67704212   -5.1899391    636.51723  0.037275546  0.037153003            9 
 1424000   0.66976884   -5.1900067     635.9909  0.037218569  0.037129438           17 
 1425000   0.68414485   -5.1924394    638.20771  0.037322088  0.037105946            9 
 1426000   0.68176127   -5.2027343    635.87222  0.037159433  0.037082495           15 
 1427000   0.68360984   -5.2157512    635.51015  0.037112249  0.037059133            8 
 1428000    0.6820071    -5.202926    637.59482  0.037207915  0.037035854            4 
 1429000   0.69057334   -5.1913772    637.11587  0.037153946  0.037012569           12 
 1430000   0.69628307   -5.1886404    637.50566   0.03715068  0.036989437            5 
 1431000   0.66716616   -5.2210523    637.53311  0.037126316  0.036966274            5 
 1432000   0.68818105    -5.206871    636.77271   0.03705614  0.036943066           10 
 1433000   0.67547311   -5.1917701    636.51954  0.037015558   0.03691986           17 
 1434000   0.68025165   -5.2255213    637.75431  0.037061501  0.036896538           10 
 1435000   0.68083989   -5.1851995    638.74267   0.03709307   0.03687348            8 
 1436000   0.68075184   -5.1887489     638.0506  0.037027077  0.036850409            8 
 1437000    0.6867096   -5.2060219    638.65763  0.037036513  0.036827194           17 
 1438000   0.67567552   -5.2042404    639.20817  0.037042662  0.036804045           14 
 1439000   0.68636298   -5.2199272     635.5636  0.036805861  0.036780852            4 
 1440000   0.67908901   -5.2354416    638.32881  0.036940325  0.036757626           11 
 1441000   0.66780553   -5.2020581    637.44703  0.036863696  0.036734334           11 
 1442000   0.68436843   -5.1858074    638.91014  0.036922685  0.036711155            8 
 1443000   0.67969483   -5.2082927    637.67457  0.036825743  0.036688007            7 
 1444000   0.68258785   -5.2109431    638.10023  0.036824806   0.03666487            6 
 1445000   0.67662926   -5.2256214    638.50557  0.036822697  0.036641585            6 
 1446000   0.66331247   -5.2127583    637.18734  0.036721262  0.036618272           11 
 1447000   0.66643896   -5.2350592    636.19748  0.036638878  0.036594881            8 
 1448000   0.67737796   -5.2289381    636.87581  0.036652613  0.036571498           11 
 1449000   0.66499454    -5.241467    636.90084  0.036628758  0.036547941           11 
 1450000    0.6725446   -5.2450956    637.54616  0.036640584  0.036524529            5 
 1451000   0.67330194   -5.2471972    636.51837  0.036556304  0.036501108           15 
 1452000   0.68390651   -5.2291601    637.30914  0.036576512  0.036477688            7 
 1453000   0.67377384   -5.2289826    636.50226  0.036505062  0.036454282           13 
 1454000   0.67105529   -5.2326267     638.6052  0.036600481  0.036430852            9 
 1455000   0.67751959   -5.2341073    636.50326  0.036454941  0.036407389            4 
 1456000   0.67598207   -5.1964582    637.82623  0.036505622  0.036384266            8 
 1457000   0.67444802   -5.2121634    638.78778  0.036535563  0.036360983            4 
 1458000   0.68122237   -5.2336292    639.38842  0.036544834  0.036337723            9 
 1459000   0.67089344   -5.2227519    637.49688  0.036411748  0.036314283            9 
 1460000   0.67368211   -5.2500211    636.60268  0.036335769  0.036290989            8 
 1461000   0.65425161   -5.2205493    638.39796  0.036413299  0.036267643           16 
 1462000   0.66472074   -5.2454843    634.96031  0.036192448  0.036244162           21 
 1463000   0.68269632   -5.2355489    639.85922  0.036446754  0.036220746           21 
 1464000   0.69235511   -5.2388981    637.55105  0.036290474  0.036197399           11 
 1465000   0.67750834    -5.247753    637.86063  0.036283313  0.036173923            7 
 1466000   0.65204636   -5.2338528    639.47352  0.036350245  0.036150474           11 
 1467000   0.65894884    -5.233817     638.0808  0.036246353  0.036127274           12 
 1468000   0.67296859   -5.2439642    637.28619  0.036176555  0.036104016           14 
 1469000   0.66475586    -5.198052    639.31743  0.036267156  0.036080817            8 
 1470000    0.6670849     -5.23076    638.85823  0.036216453  0.036057507           14 
 1471000   0.66437979     -5.20291    637.70515   0.03612651  0.036034068            8 
 1472000   0.66801136   -5.2216261     639.5657  0.036207297  0.036010669           12 
 1473000   0.66184617   -5.2368824    637.95843  0.036091787  0.035987304           15 
 1474000   0.65004227     -5.25985    638.97339  0.036124683  0.035963863           13 
 1475000   0.67471415   -5.2498936     637.7155  0.036029124  0.035940372            9 
 1476000   0.66189774   -5.2362224    638.98801  0.036076559  0.035916964           10 
 1477000   0.66620914   -5.2230152    639.05394  0.036055853  0.035893605            9 
 1478000      0.64702   -5.2530531    637.03999  0.035917906  0.035870162           10 
 1479000    0.6729601   -5.2490368    639.60289  0.036038026  0.035846685            7 
 1480000   0.65124629   -5.2479041    638.77536  0.035967081  0.035823158           19 
 1481000   0.67495415   -5.2525737    637.49603   0.03587081  0.035799801           19 
 1482000   0.65945362   -5.2550023    636.30042  0.035779376   0.03577633           14 
 1483000   0.65756916   -5.2431203    638.32993  0.035869293  0.035753021           13 
 1484000   0.64549236   -5.2578843     637.1757  0.035780307  0.035729652           11 
 1485000    0.6561813   -5.2344196    639.36477  0.035879056  0.035706282           15 
 1486000   0.67843197   -5.2524727    638.68405  0.035816736  0.035682988            8 
 1487000   0.65196041   -5.2768485    640.64048  0.035902291  0.035659808           17 
 1488000   0.65048307   -5.2514558    640.10661  0.035848264  0.035636666           24 
 1489000   0.65416236   -5.2506663    638.44681  0.035731297  0.035613349           23 
 1490000   0.67189342   -5.2403034    640.49528  0.035821883  0.035590128           19 
 1491000   0.63768678   -5.2747309    639.26673  0.035729194  0.035566891            8 
 1492000   0.67083586   -5.2734356     638.6889  0.035672972  0.035543592           11 
 1493000   0.66039153   -5.2836618    640.41818  0.035745601  0.035520381            9 
 1494000   0.66339929   -5.2575197    640.08326  0.035702993   0.03549717           16 
 1495000   0.65301825   -5.2687499    639.44046  0.035643281  0.035474007            7 
 1496000   0.65790758   -5.2441405    640.57066  0.035682412  0.035450986            6 
 1497000    0.6617791   -5.2478598    640.83587  0.035673339  0.035428133           13 
 1498000   0.65610887   -5.2608146     640.1021  0.035608706  0.035405168           12 
 1499000   0.63770865    -5.230948    639.80212  0.035568274  0.035382194            9 
 1500000   0.65101737   -5.2743586    639.83349  0.035546305  0.035359252           13 
 1501000   0.66546608   -5.2568497    639.85493  0.035523813   0.03533637            8 
 1502000   0.66035754    -5.266193     641.3871   0.03558517  0.035313453           11 
 1503000   0.65893076   -5.2416598    641.88175   0.03558892  0.035290599            8 
 1504000   0.66364085   -5.2696196    641.39724  0.035538411  0.035267982           10 
 1505000   0.65445718   -5.2482005    640.30044  0.035454067  0.035245191           25 
 1506000   0.64149888    -5.267927    643.04897  0.035582612   0.03522251           14 
 1507000   0.65869321   -5.2664178    644.13076  0.035618821  0.035199933           15 
 1508000   0.65064917   -5.2329026    645.22265   0.03565554  0.035177495            7 
 1509000   0.63969565   -5.2746114    642.23563  0.035466956  0.035155039            6 
 1510000   0.64922863   -5.2705782    642.02455  0.035431819  0.035132561           17 
 1511000   0.66642504   -5.2752345    642.84163  0.035453432  0.035110024           12 
 1512000   0.63635772   -5.2781708    643.51861  0.035467295  0.035087558            9 
 1513000   0.62917486   -5.2789124     643.5746  0.035446937  0.035065119           10 
 1514000    0.6614862   -5.2579481    644.29247  0.035463038  0.035042852            5 
 1515000   0.65254352   -5.2844503    643.56382   0.03539955  0.035020534            8 
 1516000   0.65168133   -5.2619621    644.57572  0.035431823  0.034998365            8 
 1517000   0.64393731   -5.2901235    642.38559  0.035288156  0.034975927           11 
 1518000   0.65881787   -5.2790977    642.63592  0.035278652   0.03495351            7 
 1519000   0.65007394   -5.3138209    642.41302  0.035243198  0.034930925            5 
 1520000   0.65304154    -5.288532    642.86442   0.03524476  0.034908384            6 
 1521000   0.64410781   -5.2879755    643.82373  0.035274147  0.034885838           10 
 1522000   0.64399481   -5.2881656    642.36198  0.035170936  0.034863423           14 
 1523000   0.64277377   -5.2948288     643.3511  0.035201964  0.034841002           10 
 1524000   0.64658815   -5.3242215    644.16962  0.035223623  0.034818614            8 
 1525000   0.64433217   -5.3120022    643.45721  0.035161596  0.034796276            6 
 1526000   0.63862598   -5.3116758    644.48861  0.035194878  0.034773923            9 
 1527000   0.65258587   -5.3026593    644.89547  0.035194033   0.03475164           14 
 1528000   0.65245432   -5.2960015    643.83932  0.035113401  0.034729316            8 
 1529000   0.64870353   -5.2909401    643.00369  0.035044893  0.034707162            7 
 1530000   0.62811963   -5.2679198    646.18347  0.035195178  0.034685098           12 
 1531000   0.64300479   -5.2842555    645.62638  0.035141867  0.034663162           10 
 1532000    0.6432137    -5.290638    645.75695  0.035126031  0.034641115           12 
 1533000    0.6451772   -5.2793742    645.68014  0.035098942  0.034619104           11 
 1534000   0.63474681   -5.2909131    643.23058  0.034942991  0.034596971           11 
 1535000   0.64425467    -5.315265    644.37568  0.034982393  0.034574859           13 
 1536000   0.63391065   -5.3116166    645.30906  0.035010257  0.034552735           22 
 1537000   0.63892197   -5.2790732    644.39549  0.034937947  0.034530597           11 
 1538000   0.65161419   -5.3013942     644.8987  0.034942495   0.03450864            7 
 1539000   0.63006901   -5.3041296    644.88743  0.034919181  0.034486455           14 
 1540000    0.6403855    -5.308027    645.44746  0.034926811  0.034464251           10 
 1541000   0.64197537   -5.3129043    645.11358   0.03488609  0.034442126           23 
 1542000   0.64672859   -5.3031866    646.35375  0.034930488  0.034420059            9 
 1543000   0.64348126   -5.2990737    645.33456  0.034852806   0.03439797           10 
 1544000   0.63970337   -5.3261623    646.13603   0.03487349  0.034375933           12 
 1545000   0.64101196   -5.3046715     647.0451  0.034899951  0.034353991           20 
 1546000    0.6406534   -5.3363744    644.32778  0.034730907    0.0343319           11 
 1547000   0.63792027   -5.3238534     648.2344  0.034918897  0.034309903           17 
 1548000   0.64659874   -5.3012601    645.66561  0.034758054  0.034288113           10 
 1549000   0.63439623   -5.3175494     647.0247  0.034808731  0.034266333           11 
 1550000   0.63318103   -5.3262313    647.82226  0.034829154  0.034244591            7 
 1551000   0.63801059   -5.2844123     647.0752  0.034766559  0.034222802           17 
 1552000    0.6298706   -5.3378495    645.67381  0.034668912  0.034200918           11 
 1553000   0.63924469   -5.3040246    645.91198  0.034659368  0.034179011           14 
 1554000   0.63604633   -5.3108582    646.95004  0.034692731  0.034157208            7 
 1555000   0.62323191   -5.3288471     646.6757  0.034655718  0.034135428            7 
 1556000   0.63217459    -5.301442      647.701  0.034688357  0.034113649           12 
 1557000   0.63260407   -5.3106344    646.98294  0.034627646  0.034091923            7 
 1558000   0.63770541   -5.3081243    647.49686  0.034632909   0.03407018           16 
 1559000   0.61609389   -5.3298216    646.10957  0.034536539  0.034048238           12 
 1560000   0.62921466   -5.3294831     646.3935  0.034529567  0.034026283            6 
 1561000   0.63841386   -5.3384021    645.95648  0.034484117  0.034004334            9 
 1562000   0.62142225   -5.3457409    644.48413   0.03438349  0.033982397           25 
 1563000   0.62647569   -5.3240178    646.50116  0.034469032  0.033960355           31 
 1564000   0.62075037   -5.2998612    644.59225  0.034345282  0.033938319           18 
 1565000   0.64341054   -5.3564288    645.79475  0.034387367  0.033916216           11 
 1566000   0.61523053   -5.2995974    646.15622  0.034384643  0.033894202            8 
 1567000   0.62927401   -5.3315567    646.77702  0.034395715  0.033872207            9 
 1568000   0.62489612   -5.3443313    646.08844  0.034337183   0.03385017           12 
 1569000   0.62570268   -5.3176182    645.51555  0.034284871  0.033828271            6 
 1570000   0.61967386   -5.3148325    646.02683  0.034290171   0.03380628            9 
 1571000   0.62570656    -5.319724    647.57867  0.034350662  0.033784352            9 
 1572000   0.62607193   -5.3344467    646.75043  0.034284904  0.033762352           12 
 1573000    0.6171138   -5.3412309    644.17231  0.034126526  0.033740465            8 
 1574000   0.61544662   -5.3162986    648.01538  0.034308311  0.033718546           15 
 1575000   0.61786513   -5.3233109    644.52608  0.034101909   0.03369676           10 
 1576000   0.62851008    -5.328677    646.25035  0.034171444  0.033674835           15 
 1577000   0.62670492   -5.3282615    646.82341  0.034180058  0.033652913           11 
 1578000   0.61886332   -5.3340839    646.48488  0.034140519  0.033630996           10 
 1579000   0.62338639   -5.3432905    645.98803  0.034092676  0.033609012            5 
 1580000   0.60846743   -5.3389821    646.10089  0.034077051  0.033587033           12 
 1581000   0.62617872   -5.3357613    646.18395  0.034059875  0.033565038            8 
 1582000   0.61953627   -5.3498678    646.61227  0.034060908  0.033543102           15 
 1583000   0.61086971   -5.3477422    645.14262  0.033962025  0.033521196            7 
 1584000   0.62789148   -5.3348205    646.71725  0.034023424  0.033499296            8 
 1585000   0.61574321   -5.3569697    646.25731  0.033977776  0.033477428            8 
 1586000   0.61614675   -5.3343237    645.71997  0.033928119   0.03345543            8 
 1587000   0.61487622   -5.3483097    646.65073  0.033955615  0.033433535           16 
 1588000   0.61813369   -5.3448348    646.89872  0.033947246  0.033411818           12 
 1589000   0.61467462   -5.3616817    646.74285  0.033917708  0.033390126           10 
 1590000   0.62345368   -5.3350636     647.1549  0.033917972  0.033368376           14 
 1591000   0.62819694   -5.3363347    647.23168  0.033900675   0.03334664           16 
 1592000   0.60315845   -5.3596952    646.86893  0.033860392  0.033324913           11 
 1593000    0.6062813   -5.3384722    647.28374  0.033860836  0.033303154            6 
 1594000   0.60712303   -5.3371932    647.85572  0.033869496  0.033281444           10 
 1595000   0.63663363   -5.3535456    648.65668  0.033890109  0.033259968           17 
 1596000   0.62459669   -5.3271438    648.44682  0.033857917   0.03323848           11 
 1597000   0.60888559   -5.3615234     646.9587  0.033759064  0.033216948            9 
 1598000    0.6189411   -5.3540466    648.06007  0.033795373  0.033195345           15 
 1599000      0.61033   -5.3423408    648.58211  0.033801444  0.033173789           12 
 1600000   0.62752914   -5.3554778    645.83775  0.033637383  0.033152167           12 
 1601000   0.62602998   -5.3538332    646.50317  0.033651008  0.033130536           23 
 1602000   0.60512779   -5.3561228    648.20854  0.033718713  0.033108971           30 
 1603000   0.61642767   -5.3422432    647.75082  0.033673883   0.03308741           12 
 1604000   0.62222417   -5.3569847    645.95939  0.033559819  0.033065756           11 
 1605000   0.62072497    -5.380682    644.74342  0.033475775   0.03304402           13 
 1606000   0.61150999   -5.3441106    647.10231   0.03357733  0.033022363           14 
 1607000   0.62466594    -5.361372    647.66644  0.033585689  0.033000691           16 
 1608000   0.61091365   -5.3596566    646.40831  0.033499602  0.032978949            9 
 1609000   0.61585512   -5.3755659    646.17904  0.033466907  0.032957273           17 
 1610000   0.61826846   -5.3560082    646.22482   0.03344849  0.032935677           17 
 1611000   0.59803857   -5.3588197    647.41642  0.033489366  0.032914068           31 
 1612000   0.61338013   -5.3659405    649.68215  0.033585719  0.032892507           27 
 1613000   0.62222363   -5.3607856    647.06678  0.033429778  0.032871016           14 
 1614000   0.62416924   -5.3520292    647.07083  0.033409274  0.032849538           17 
 1615000   0.61490301   -5.3533569     648.2365  0.033448736   0.03282799           13 
 1616000    0.6093784   -5.3428548    646.42612   0.03333468  0.032806532            7 
 1617000   0.60688331   -5.3431602    649.48303  0.033471605  0.032785175           21 
 1618000   0.61711625   -5.3714113    646.82137  0.033313832  0.032763782            8 
 1619000   0.60138963   -5.3689841    648.38669  0.033373826  0.032742381           17 
 1620000   0.60339191   -5.3812831    646.77855  0.033270502  0.032720883           11 
 1621000   0.60651719   -5.3737395    648.57695   0.03334243  0.032699455           23 
 1622000   0.60115887   -5.3628769    648.51079  0.033318474  0.032678073            6 
 1623000   0.60069597   -5.3614237    648.05102  0.033274339  0.032656575           15 
 1624000    0.6016986   -5.3623766    648.58107  0.033281048  0.032635157           12 
 1625000   0.60046639   -5.3673575    647.73425  0.033217141  0.032613652           21 
 1626000   0.60220625   -5.3595389    648.35562  0.033228558   0.03259222            9 
 1627000   0.60627749   -5.3573413    647.99344  0.033189584  0.032570808           18 
 1628000   0.60610475   -5.3529458    647.55861  0.033146939  0.032549337           12 
 1629000   0.59484176   -5.3722596    647.51983  0.033124608  0.032528011           23 
 1630000   0.60817181   -5.3613236    649.37864  0.033199317  0.032506689           12 
 1631000   0.60408897    -5.378978     645.9529  0.033003929  0.032485213           22 
 1632000   0.61334269   -5.3937921    646.69233  0.033021463   0.03246372           23 
 1633000   0.60031986   -5.3794235    647.56763  0.033045909  0.032442248           12 
 1634000   0.58896722     -5.38256     648.7003  0.033083451  0.032420822           25 
 1635000    0.6096188    -5.390007    648.08185  0.033031695  0.032399425            8 
 1636000   0.60473495   -5.3969176    647.40977   0.03297727  0.032378051            7 
 1637000   0.59802941   -5.3716775    647.09427  0.032941065  0.032356717            6 
 1638000   0.61222125   -5.3884074    646.70992    0.0329014  0.032335308            9 
 1639000    0.5987337   -5.3930296     648.2808  0.032961196  0.032313858           12 
 1640000   0.59403732   -5.3780294    648.12456  0.032933159  0.032292587            8 
 1641000   0.60890491   -5.3774453    646.48102  0.032829627  0.032271177           12 
 1642000   0.59022014   -5.4081119    646.89786  0.032830789  0.032249761           21 
 1643000   0.59861472   -5.3814335    647.38871  0.032835703  0.032228403           18 
 1644000   0.58862707    -5.409861    647.25271  0.032808836  0.032207004           17 
 1645000   0.60886744   -5.4038724    649.14639  0.032884822  0.032185711           11 
 1646000   0.58476068   -5.4275145    646.67875  0.032739912  0.032164285           14 
 1647000   0.60284221   -5.4199467    648.84199  0.032829488  0.032142913           14 
 1648000   0.58326712   -5.4092554    648.82507  0.032808711  0.032121552           18 
 1649000   0.58746275   -5.3833354    648.65047  0.032779991  0.032100244           28 
 1650000   0.60665431   -5.3910608    648.21757  0.032738261  0.032078994           12 
 1651000    0.5959349   -5.4083031    648.61851  0.032738669  0.032057775           14 
 1652000   0.58594736   -5.4012403    646.76855  0.032625532  0.032036568           10 
 1653000     0.590117   -5.4046638    648.41888  0.032688994  0.032015282           15 
 1654000   0.58997987    -5.375564    648.86903   0.03269191  0.031994109           15 
 1655000    0.5912091   -5.3944024     647.5339   0.03260493  0.031972883            5 
 1656000   0.59494191   -5.4013822    648.39089  0.032628366  0.031951716           13 
 1657000    0.5896101   -5.3982743    647.36473  0.032557067  0.031930604            5 
 1658000   0.60188773   -5.3889211    647.66659  0.032552603  0.031909525           17 
 1659000   0.59330276   -5.4066617    648.52494  0.032576097  0.031888427           20 
 1660000   0.59268857    -5.414056    647.06543  0.032483204  0.031867175           11 
 1661000   0.58687423   -5.4205667    647.09519  0.032465141  0.031846016           20 
 1662000   0.59039716   -5.4239551    645.93785  0.032387578  0.031824843            7 
 1663000   0.59251262   -5.3983172    646.73675  0.032408135  0.031803701           15 
 1664000   0.60777518   -5.4187179    648.39307  0.032471608  0.031782553           11 
 1665000   0.58578046   -5.4117926    648.32497  0.032448697  0.031761318            6 
 1666000   0.58803651   -5.4220396    647.32821  0.032379362   0.03174022           12 
 1667000   0.59016682   -5.4181275    647.41225   0.03236414  0.031719169           14 
 1668000    0.5967308   -5.4394485    647.23145  0.032335704  0.031698037            6 
 1669000   0.58413849    -5.435942    648.27763  0.032368565   0.03167689           11 
 1670000   0.59022285   -5.4139389    646.76868  0.032273886  0.031655726           13 
 1671000   0.59016161   -5.4138429    647.37789  0.032284953  0.031634574            9 
 1672000   0.57356778   -5.4150949    647.27569  0.032260551  0.031613416           15 
 1673000   0.58519453   -5.4267565    648.34666  0.032294614   0.03159238           12 
 1674000   0.59244536    -5.410711    649.11929  0.032313784  0.031571345           25 
 1675000   0.57522967   -5.4161427    648.64186  0.032270739  0.031550266           15 
 1676000   0.58881061   -5.4201446    648.35799   0.03223737  0.031529204           16 
 1677000   0.57915403   -5.4309769    647.54562  0.032177779  0.031508176           25 
 1678000   0.58054572   -5.4164095    648.32522  0.032197319  0.031487064           20 
 1679000   0.58715028   -5.4103646    647.80426  0.032152286  0.031466131           10 
 1680000   0.58549969    -5.421276    648.18801  0.032152183  0.031445214           15 
 1681000   0.57436015   -5.4203915    647.10758  0.032079495  0.031424169           21 
 1682000   0.57897294   -5.4079338    650.10266  0.032208812  0.031403116           13 
 1683000   0.58271118   -5.4433973    648.59199  0.032114874  0.031382108            7 
 1684000   0.58222006   -5.4240855     646.7227  0.032003301  0.031361064           15 
 1685000    0.5873001   -5.4330949    647.58128   0.03202677  0.031340035           18 
 1686000   0.57631095   -5.4369386    649.26381  0.032090935  0.031319107           16 
 1687000   0.57516268   -5.4323094    649.21807  0.032069654  0.031298167           23 
 1688000   0.57418492   -5.4455742    647.53145   0.03196739  0.031277269           28 
 1689000   0.58553313   -5.4135699    648.96834  0.032019357  0.031256364           16 
 1690000   0.58298342   -5.4317055    649.25594  0.032014593  0.031235513           20 
 1691000   0.58007452   -5.4416633    647.07548  0.031888206  0.031214599           26 
 1692000   0.57967127   -5.4568465    646.29961  0.031831147  0.031193555           21 
 1693000   0.57402338   -5.4447705    647.93464  0.031892826  0.031172619           15 
 1694000      0.58189   -5.4493761    648.14382  0.031884289  0.031151716           15 
 1695000    0.5753018   -5.4378797    648.33744  0.031874997  0.031130907           21 
 1696000   0.56327395   -5.4291111    651.11805  0.031992829  0.031110081           11 
 1697000   0.57643444   -5.4109546    648.97551  0.031868764  0.031089331           32 
 1698000   0.56212336   -5.4349672    649.42734   0.03187217  0.031068592           16 
 1699000   0.57147355   -5.4524857    648.63109  0.031814356  0.031047821           16 
 1700000   0.57275572   -5.4359496    648.10235  0.031769723  0.031027056           16 
 1701000   0.57347678   -5.4394153    646.82565  0.031688499  0.031006326           15 
 1702000   0.57641901   -5.4358611    649.13874  0.031783135  0.030985656           12 
 1703000   0.55705661   -5.4570739     647.7894  0.031698444  0.030964907           11 
 1704000   0.57747989   -5.4280606    648.33127  0.031706341   0.03094414           10 
 1705000      0.57861    -5.457868     647.7857   0.03166108   0.03092342           28 
 1706000   0.56109037    -5.452908    647.80447  0.031643438  0.030902652           12 
 1707000   0.56386763   -5.4565759    647.94959  0.031631985  0.030881912           23 
 1708000   0.56042011   -5.4413662    647.80594  0.031606457  0.030861105           31 
 1709000   0.55915552   -5.4565488    647.25247  0.031560975  0.030840298           15 
 1710000   0.57765767   -5.4596521    649.09591  0.031632354  0.030819471           20 
 1711000   0.56797604   -5.4716366    648.50244  0.031584962   0.03079859           31 
 1712000   0.58180224   -5.4565042      648.912  0.031586449  0.030777828           34 
 1713000    0.5676705   -5.4536362     648.2847  0.031537493  0.030757075           22 
 1714000   0.56964234   -5.4511875    648.05746  0.031508044  0.030736282            8 
 1715000   0.56622824    -5.478945    647.60396  0.031467637  0.030715574           22 
 1716000   0.56400601   -5.4512349    648.58415  0.031496899  0.030694769           15 
 1717000   0.56969667   -5.4583081    647.97327  0.031448906  0.030674002           13 
 1718000   0.55482733   -5.4650308    648.20392  0.031441789  0.030653264           11 
 1719000   0.58451204   -5.4618437    647.90523  0.031409018  0.030632566           18 
 1720000   0.57265501   -5.4791612     648.0205  0.031396342  0.030611873           33 
 1721000   0.56699831   -5.4722453    649.28063  0.031439116  0.030591233           22 
 1722000   0.55765821   -5.4720169    647.44829  0.031332186  0.030570624           22 
 1723000   0.56628744   -5.4580565    649.17161   0.03139735  0.030550003            7 
 1724000   0.56798808   -5.4692856    649.39273  0.031389827  0.030529433           22 
 1725000    0.5582195   -5.4519449     648.1681  0.031312468  0.030508912           18 
 1726000   0.56718189   -5.4623072    649.21835  0.031345034  0.030488382           22 
 1727000   0.58047463   -5.4461834    649.73416  0.031351774  0.030467865           25 
 1728000   0.55772246   -5.4475581    648.55595  0.031276811  0.030447346           23 
 1729000   0.55589131   -5.4580679    647.87492  0.031225897  0.030426788           14 
 1730000   0.54984726   -5.4585176     649.4296  0.031282736  0.030406319           12 
 1731000   0.55684099   -5.4632723    646.73691  0.031135033  0.030385781           21 
 1732000   0.55355411   -5.4753849    647.16832  0.031137814  0.030365213           34 
 1733000   0.54983444   -5.4657638    647.68244  0.031144568  0.030344619           30 
 1734000   0.56012384   -5.4711985    646.84607  0.031086413  0.030324041           21 
 1735000   0.56044666   -5.4683549    648.04342  0.031126005  0.030303502           23 
 1736000    0.5633786   -5.4761692    649.02269  0.031155083   0.03028289           31 
 1737000   0.55681449   -5.4846457    647.47933  0.031063103   0.03026235           15 
 1738000   0.54932018   -5.4723245    648.06248  0.031073192  0.030241854           25 
 1739000   0.56207934   -5.4670878    648.50016  0.031076297  0.030221387            9 
 1740000   0.55385981   -5.4730085    649.23937  0.031093839   0.03020099           23 
 1741000   0.55179806   -5.4784142    648.56093  0.031043506  0.030180581           13 
 1742000   0.55263248   -5.4683756    647.96065  0.030996969  0.030160124           12 
 1743000    0.5661863   -5.4489913    649.13713  0.031035434  0.030139693            6 
 1744000   0.55653536   -5.4911201    647.28357   0.03092907  0.030119238           17 
 1745000   0.55346064   -5.4784902    649.17885  0.031001855   0.03009879           14 
 1746000   0.56277534   -5.4608505    648.42437   0.03094809   0.03007842            8 
 1747000   0.55007782   -5.4723762    647.67023  0.030894401  0.030058014           27 
 1748000   0.55088937   -5.4658501    647.09557  0.030849331  0.030037666           10 
 1749000   0.54562898   -5.4856799     649.1463  0.030929402  0.030017285           18 
 1750000   0.55127864   -5.4958996    648.02437  0.030858303  0.029996923           36 
 1751000   0.56483687   -5.4849127    648.80966  0.030878054  0.029976548           26 
 1752000   0.55669655   -5.4745267    647.84921  0.030814745  0.029956237           24 
 1753000   0.54271909   -5.4816549    647.65141  0.030787764  0.029935927           29 
 1754000   0.55464306    -5.488638    648.72897  0.030821407  0.029915646           42 
 1755000   0.54369909   -5.4884237     648.0067  0.030769549  0.029895339           28 
 1756000   0.56105941    -5.467456    647.75118    0.0307399  0.029875059           17 
 1757000   0.54855203    -5.479286     648.9563  0.030779563  0.029854811           17 
 1758000   0.54876116   -5.4826098    647.84333  0.030709297  0.029834586           44 
 1759000   0.54935383   -5.4813003    647.22245  0.030662424  0.029814354           34 
 1760000   0.54651154   -5.4979958    647.45946  0.030656225    0.0297941           21 
 1761000   0.55429497   -5.5038153    648.68719  0.030696914  0.029773902           41 
 1762000   0.55794351   -5.4950476    649.55451  0.030720512  0.029753746           44 
 1763000   0.54345312   -5.5083816    647.82815  0.030621486  0.029733563           34 
 1764000   0.54869287   -5.4944352      647.571  0.030591978  0.029713357           32 
 1765000   0.54894413   -5.5140664    647.24856  0.030559422  0.029693159           21 
 1766000   0.54865814   -5.4859585    648.90525  0.030620293  0.029672901           36 
 1767000   0.54121015   -5.5070973    648.63778   0.03059035  0.029652755           18 
 1768000   0.55903754   -5.5090958    646.79787  0.030486325  0.029632598           23 
 1769000   0.54505238   -5.5166913    649.18159  0.030581383  0.029612531           46 
 1770000   0.56207035   -5.5201385    649.18078  0.030564067  0.029592488           22 
 1771000   0.53887773   -5.5098758    649.28504  0.030551715    0.0295725           40 
 1772000   0.55866765   -5.5010231    649.39135  0.030539473  0.029552483           21 
 1773000   0.53510469   -5.5312733    649.33229  0.030519472   0.02953245           33 
 1774000   0.55440081   -5.5203395    648.84743  0.030479492  0.029512409           29 
 1775000    0.5479479   -5.5132479    648.16278  0.030430178  0.029492424           74 
 1776000   0.54762561   -5.5206395    649.38089    0.0304702  0.029472376           37 
 1777000   0.54154276   -5.5187903    646.87973  0.030335759  0.029452334           31 
 1778000   0.53807273   -5.5045268    649.74981  0.030453216  0.029432299           33 
 1779000   0.53836803   -5.5035979     649.8865  0.030442501  0.029412324           17 
 1780000   0.54351703    -5.539848    647.91785  0.030333233  0.029392281           30 
 1781000   0.53380215   -5.5276207    648.82076  0.030358449  0.029372231           34 
 1782000   0.54685853    -5.529203    648.39401  0.030321456  0.029352215           37 
 1783000   0.53488143   -5.5243765    649.16394  0.030340434  0.029332206           40 
 1784000   0.54143536   -5.5579733    648.93251  0.030312617  0.029312212           44 
 1785000    0.5397851   -5.5274307    648.83089  0.030290891  0.029292257           64 
 1786000   0.54046429   -5.5453907    649.12904  0.030287843  0.029272339           86 
 1787000   0.53933094   -5.5212135    647.45272  0.030192722  0.029252376           47 
 1788000   0.53879175    -5.523364    646.17053  0.030116076  0.029232417           32 
 1789000    0.5473565   -5.5287915      647.852  0.030177566  0.029212531           34 
 1790000   0.53626454   -5.5337993     647.7801   0.03015736  0.029192595           37 
 1791000   0.53734213   -5.5179293    647.98966  0.030150273  0.029172684           19 
 1792000   0.54625207   -5.5173621    648.04656  0.030136094  0.029152771           49 
 1793000   0.54828867   -5.5281051    647.69604  0.030102995  0.029132926           38 
 1794000   0.54085037   -5.5328565    647.53256  0.030078621  0.029113112           32 
 1795000   0.55289743   -5.5456595    646.80306  0.030027997   0.02909325           39 
 1796000   0.54391538   -5.5363877    647.10231  0.030025163  0.029073358           38 
 1797000   0.53324426   -5.5346959    648.37497  0.030067472   0.02905347           19 
 1798000   0.53326818   -5.5172236    647.85134   0.03002648  0.029033555           21 
 1799000   0.53386071   -5.5208168    648.59421  0.030044201  0.029013771           39 
 1800000   0.52598629   -5.5404381     647.8047  0.029990958  0.028993945           21 
 1801000   0.54274602   -5.5346268    648.12039  0.029988913  0.028974143           45 
 1802000   0.52527538   -5.5444653    646.83997  0.029913058  0.028954323           51 
 1803000   0.53814473    -5.538933    648.45919  0.029971307  0.028934534           93 
 1804000   0.53212878   -5.5535764     648.7239  0.029966921  0.028914789          104 
 1805000   0.52722461   -5.5435612    649.64448   0.02999282  0.028895042           58 
 1806000    0.5345186   -5.5470633    648.65461  0.029930538  0.028875292           80 
 1807000   0.53771837    -5.564558    647.13109  0.029843714  0.028855518           57 
 1808000   0.53382129   -5.5330594    648.51587  0.029891034  0.028835795           38 
 1809000   0.52463038   -5.5370158    647.70376  0.029837099  0.028816121           46 
 1810000   0.53176767    -5.542602    648.41079  0.029853167  0.028796425           32 
 1811000    0.5211372   -5.5303096    647.82192  0.029809586  0.028776754           58 
 1812000   0.52788337   -5.5422601     647.3669  0.029772208  0.028757088           22 
 1813000   0.54077655   -5.5463854    649.03379  0.029832404  0.028737513           36 
 1814000   0.53084529   -5.5144318    648.73676  0.029802314  0.028717911           52 
 1815000   0.52812123   -5.5261378    648.28905  0.029765337  0.028698329           23 
 1816000   0.53162465   -5.5592116    647.97129  0.029734365  0.028678747           22 
 1817000    0.5245087   -5.5542946    647.18479  0.029681929  0.028659201           18 
 1818000   0.52711242   -5.5464008    648.66533  0.029733468  0.028639629           19 
 1819000   0.52644117   -5.5228913    647.41956  0.029660049  0.028620064           58 
 1820000   0.53611986   -5.5494668    647.47394  0.029646243  0.028600526           13 
 1821000   0.52984576   -5.5710319    645.90436  0.029558135  0.028580913           28 
 1822000   0.52985058   -5.5417036    648.39987  0.029656049  0.028561328           80 
 1823000   0.51160074   -5.5447616    647.63577  0.029604853  0.028541737           93 
 1824000   0.51493796   -5.5457465    647.02745   0.02956083  0.028522156          114 
 1825000   0.52693415   -5.5435991    647.26684  0.029555564  0.028502597          112 
 1826000   0.51488093   -5.5449319    647.78968  0.029563238  0.028483035           52 
 1827000   0.51809563   -5.5624665    648.16327  0.029564098  0.028463508           48 
 1828000   0.52598566     -5.53961    647.28413  0.029507847  0.028443962           66 
 1829000   0.53160603    -5.555471    647.43797  0.029498723  0.028424486           63 
 1830000   0.51804289   -5.5600127     646.8484  0.029455756  0.028404919           42 
 1831000   0.51659774   -5.5699163    647.58362  0.029473131  0.028385383           38 
 1832000   0.51321762   -5.5633604    647.37759   0.02944767  0.028365859           19 
 1833000   0.53620007   -5.5585668     647.9578  0.029457983  0.028346365           22 
 1834000   0.51718744   -5.5464559    647.20438  0.029407687  0.028326898           57 
 1835000   0.52239424   -5.5667394    646.63929  0.029365999  0.028307411           19 
 1836000   0.51808735   -5.5777578    647.02607  0.029367559  0.028287962           47 
 1837000   0.51173336   -5.5668728    646.75427  0.029339243  0.028268468           77 
 1838000   0.52869088    -5.579037    646.79443  0.029325101  0.028248956           75 
 1839000   0.52300911    -5.578892    645.98786  0.029272606  0.028229518           74 
 1840000   0.51761564   -5.5946866    647.20349  0.029311752  0.028210063          102 
 1841000    0.5202767   -5.5719202    647.90956  0.029327791  0.028190594           96 
 1842000    0.5197642   -5.5696121    645.80074  0.029216465  0.028171105          101 
 1843000   0.50812988   -5.5840933    645.41565    0.0291832  0.028151571           93 
 1844000   0.52186501   -5.5878604    647.27934  0.029251597  0.028132026          104 
 1845000   0.51283076   -5.5560204    646.58873   0.02920455  0.028112481          110 
 1846000   0.52380385   -5.5911201    645.41597  0.029135788  0.028092959           77 
 1847000   0.51260152   -5.5874269    645.53257  0.029125274   0.02807344           75 
 1848000   0.51923514   -5.5802826     646.3616  0.029146898   0.02805398          117 
 1849000   0.52308891   -5.5890625    647.06979  0.029163051  0.028034544          105 
 1850000   0.51253874   -5.5881696    645.58411  0.029080365  0.028015068           85 
 1851000   0.52339938   -5.5854588    646.38242  0.029100595  0.027995617          147 
 1852000   0.50733193   -5.5907367    646.12415  0.029073261  0.027976197           90 
 1853000   0.51470124   -5.5959753    645.88263  0.029046709  0.027956777          108 
 1854000   0.50700845   -5.5901727    646.86014  0.029074979  0.027937347          223 
 1855000   0.52314673   -5.5851913    646.15645  0.029027693  0.027917967          148 
 1856000   0.51085538   -5.5937772    645.57514  0.028985953  0.027898577           68 
 1857000   0.50727422   -5.5871488    646.22577  0.028999541  0.027879211           84 
 1858000   0.51054874   -5.5966529    645.65275  0.028958233  0.027859855          112 
 1859000    0.5094111   -5.6032246     645.7552  0.028947248  0.027840525          101 
 1860000   0.50961934   -5.5973012    646.95154  0.028985284  0.027821259           78 
 1861000   0.51597398   -5.5926752    647.39078  0.028989377  0.027802018           88 
 1862000   0.51501171   -5.6056333    644.90618  0.028862611  0.027782789          120 
 1863000   0.49577383   -5.5886383    647.89066  0.028980617  0.027763611          111 
 1864000   0.50714075   -5.5866621    645.86851  0.028874665  0.027744413          110 
 1865000   0.51291305   -5.6062671    645.27272  0.028832561  0.027725208          145 
 1866000   0.51364835   -5.6048169    644.76521  0.028794445  0.027705973          124 
 1867000   0.50836848    -5.594258    645.78402  0.028824496   0.02768673           90 
 1868000   0.49402518   -5.6080033    645.82362  0.028810833  0.027667529          146 
 1869000    0.5036323   -5.5986129    646.47823  0.028824604  0.027648307          111 
 1870000   0.49827297   -5.5887379    645.00277  0.028743439  0.027629152          122 
 1871000   0.50115921   -5.5964082    646.94592  0.028814623  0.027609945          159 
 1872000   0.50347862   -5.6036068    647.08553  0.028805446  0.027590776           90 
 1873000   0.49849373   -5.6012287    645.23728  0.028707834  0.027571614           78 
 1874000   0.49918723   -5.6098864    645.22033  0.028691761  0.027552441           37 
 1875000   0.51607397   -5.6193362     646.2592  0.028722631  0.027533297           58 
 1876000   0.50688587    -5.609181    644.86077  0.028645201  0.027514132           74 
 1877000   0.49349562    -5.618936    645.90918  0.028676486  0.027494961           59 
 1878000   0.50574938   -5.6014152     644.7789  0.028611062  0.027475816           54 
 1879000   0.49789381   -5.6104538    645.63728  0.028633905  0.027456654           83 
 1880000   0.50921144   -5.6233508    645.01164  0.028590941  0.027437544           93 
 1881000   0.50433855   -5.6222314    644.93561  0.028572373  0.027418395           73 
 1882000   0.50901785   -5.6320737    645.58169  0.028585799  0.027399278           75 
 1883000    0.5030648   -5.6261028    645.77217  0.028579048  0.027380128           70 
 1884000   0.50061916   -5.6183148    645.56642  0.028554778  0.027361017           57 
 1885000   0.50009482   -5.6401271    645.92896  0.028555657  0.027341923           64 
 1886000   0.49597182   -5.6229974    644.63344  0.028483273  0.027322788           42 
 1887000    0.5113009   -5.6365075    645.51223  0.028506988  0.027303667           49 
 1888000   0.49498342   -5.6485922    643.13914  0.028387144  0.027284526           80 
 1889000   0.50679986    -5.635485    644.61879  0.028437392  0.027265397           97 
 1890000   0.51248262   -5.6469084    645.59492  0.028465385  0.027246311           47 
 1891000   0.50216862   -5.6217648    644.86377  0.028418111   0.02722722           43 
 1892000   0.50095493   -5.6437609    644.48939  0.028386601  0.027208084           51 
 1893000   0.49292042    -5.646881    644.16935  0.028357517  0.027188992           36 
 1894000   0.49589618   -5.6383487    643.45891  0.028311286  0.027169929           46 
 1895000   0.49917501   -5.6214775    644.59087  0.028346125  0.027150901           27 
 1896000   0.49562258   -5.6537193    643.79836  0.028296341  0.027131883           54 
 1897000   0.50278347   -5.6222782    644.05047    0.0282925  0.027112873           36 
 1898000   0.49655872   -5.6328242    645.46261  0.028339595  0.027093891           35 
 1899000   0.48889882   -5.6327255    645.11043  0.028309217   0.02707493           34 
 1900000   0.51414039   -5.6346915    643.34219  0.028216763  0.027055995           39 
 1901000   0.49360008   -5.6331246    644.26957  0.028242573   0.02703699           26 
 1902000   0.48870265   -5.6274747    643.99417  0.028215658  0.027018012           32 
 1903000   0.49174621   -5.6122767    643.68847  0.028187444  0.026999038           29 
 1904000   0.48456165   -5.6355972    643.99927  0.028186243  0.026980118           63 
 1905000   0.49661172   -5.6440489    643.41527    0.0281459  0.026961194           47 
 1906000   0.48855707   -5.6336569    644.16535  0.028163927  0.026942297           46 
 1907000   0.47721963   -5.6368952    644.86277  0.028179635  0.026923358           38 
 1908000     0.487012   -5.6462961    643.88557  0.028122186  0.026904433           51 
 1909000   0.49376491   -5.6410221    643.91122  0.028108574  0.026885508           83 
 1910000   0.48409056    -5.652973    644.73199  0.028129668  0.026866603           68 
 1911000   0.48814294   -5.6592871    644.78682  0.028117339  0.026847737          119 
 1912000   0.49305445   -5.6467235     642.2507  0.027992098  0.026828851           95 
 1913000   0.47407966   -5.6327496    644.51759  0.028076215  0.026809958           90 
 1914000   0.48983677   -5.6503625    643.87984  0.028033779   0.02679108           82 
 1915000   0.49000448   -5.6652197    643.68311  0.028010579  0.026772207           82 
 1916000   0.48790707    -5.640431    644.78398  0.028043841  0.026753374           91 
 1917000   0.48196937   -5.6521909    643.60558  0.027977986  0.026734555           86 
 1918000    0.5001427   -5.6473505    644.19997  0.027989223  0.026715746          170 
 1919000   0.50006318   -5.6442436     646.3875  0.028069633  0.026696922           59 
 1920000   0.48998901   -5.6599486    644.01097  0.027951865  0.026678141           39 
 1921000   0.48487808   -5.6609632    644.29788   0.02794976  0.026659339          176 
 1922000   0.48630318   -5.6484547    643.42742  0.027897478  0.026640542           81 
 1923000   0.49028345   -5.6540256    643.22965    0.0278744  0.026621727           65 
 1924000   0.48629102   -5.6655113    643.44922  0.027869422  0.026602957           41 
 1925000    0.4799319   -5.6681632    642.81313  0.027827408  0.026584218           83 
 1926000   0.47648974   -5.6629583    642.38004  0.027794221  0.026565405          102 
 1927000   0.49873716   -5.6727681    642.48579  0.027784371  0.026546639          207 
 1928000   0.48185352   -5.6725955    642.89294  0.027787558  0.026527849          201 
 1929000   0.47790696   -5.6758912    644.12766  0.027826493  0.026509051          229 
 1930000   0.48750357   -5.6790079    643.43058  0.027781976  0.026490284          100 
 1931000   0.48004696   -5.6760312    642.95604   0.02774711  0.026471519          309 
 1932000   0.47221806    -5.671739    642.14942  0.027697956  0.026452802          280 
 1933000   0.48939338   -5.6844525    643.47918  0.027740954  0.026434061           99 
 1934000   0.47937779   -5.6776981    643.10263  0.027710385  0.026415347          137 
 1935000   0.47996153   -5.6868061    642.54488  0.027672045  0.026396605          116 
 1936000   0.48098076   -5.6733575    642.78912  0.027668264  0.026377933          179 
 1937000   0.48095308   -5.6749623    642.54874  0.027643639  0.026359241          138 
 1938000    0.4850676   -5.6742682    642.99234  0.027648449  0.026340582           89 
 1939000   0.48676741   -5.6701682    642.45864  0.027611253  0.026321949          111 
 1940000    0.4832469   -5.6808395    642.51158  0.027599295  0.026303344          114 
 1941000   0.47245816   -5.6606883    643.62706  0.027632967  0.026284787          133 
 1942000    0.4862883   -5.6832903    643.17718  0.027599433  0.026266211          189 
 1943000   0.47582309   -5.6707325    641.81392  0.027526759  0.026247657          109 
 1944000   0.48723281   -5.6892658    642.23312  0.027530569  0.026229072          108 
 1945000   0.47900395     -5.67823    642.32158  0.027520205   0.02621055          117 
 1946000   0.48459563   -5.6781756    643.54478  0.027558444  0.026192015          179 
 1947000   0.48271958    -5.675827    642.72565   0.02750923  0.026173547          189 
 1948000   0.47014147   -5.6667344     644.7495  0.027581686   0.02615509          188 
 1949000   0.47215794   -5.6774216    642.08947    0.0274538  0.026136649          236 
 1950000    0.4843589   -5.6764285     641.9951  0.027435688  0.026118169          250 
 1951000   0.47356134   -5.6861524    641.87755  0.027416605  0.026099721          133 
 1952000   0.47055147   -5.7031612    642.53276  0.027430531  0.026081269          296 
 1953000   0.48586852   -5.7003542    642.38201  0.027410053  0.026062816          306 
 1954000   0.46972486   -5.6957475    641.25834  0.027348104  0.026044367          297 
 1955000   0.46398884   -5.6925611    643.68162  0.027437409  0.026025938          175 
 1956000   0.47198482   -5.6920587    642.17845  0.027359341  0.026007542          293 
 1957000   0.47550809   -5.6782156    640.86921   0.02728961  0.025989144          141 
 1958000   0.46838564   -5.6889753    642.22353  0.027333313  0.025970794          323 
 1959000   0.46413666   -5.6756376    643.38015  0.027368562  0.025952474          115 
 1960000   0.46323146   -5.6816261    642.85749  0.027332376  0.025934151          243 
 1961000   0.47234699   -5.6742553    642.72454  0.027312788  0.025915874          101 
 1962000   0.47058857   -5.6860854     642.4414  0.027286842  0.025897596          356 
 1963000   0.46639655   -5.6728573    642.82969  0.027289425  0.025879344          223 
 1964000   0.46801917   -5.6763499    642.29832  0.027252984  0.025861054          367 
 1965000   0.47305444   -5.6747224    642.65197  0.027254112  0.025842782          320 
 1966000   0.48255821   -5.6822148    641.82832  0.027205337  0.025824497          369 
 1967000    0.4679577   -5.7032759    641.51984  0.027178437  0.025806237          444 
 1968000   0.47090414   -5.6890988    642.17021  0.027192167  0.025787965          263 
 1969000   0.47155362   -5.7012431    641.90029  0.027166933  0.025769704          220 
 1970000   0.47307142   -5.6939794    641.70779     0.027145  0.025751458          374 
 1971000   0.47517358   -5.7027396    640.99769  0.027101204  0.025733192          380 
 1972000   0.46851115   -5.6892144    641.95506  0.027127918  0.025714953          471 
 1973000   0.47093646   -5.7132624    640.94086  0.027071332  0.025696677          409 
 1974000   0.46821654   -5.6932766    642.13223  0.027107912  0.025678435          423 
 1975000   0.46028643   -5.6954067    642.18868  0.027096569  0.025660243          290 
 1976000   0.46695708   -5.6989387    642.00667   0.02707518  0.025642079          438 
 1977000   0.46389362   -5.7033745     642.6635  0.027089171  0.025623914          297 
 1978000   0.45671538   -5.6944902    641.98261   0.02704679  0.025605768          346 
 1979000    0.4699052    -5.690457    640.72472  0.026980155  0.025587606          394 
 1980000   0.45243783   -5.7133793    641.97369  0.027019095  0.025569472          417 
 1981000   0.46934554    -5.700598    642.13516  0.027012248  0.025551327          328 
 1982000    0.4591635   -5.7023234    640.99415  0.026950645  0.025533234          266 
 1983000   0.46905723   -5.7040377    640.81348  0.026929462  0.025515116          368 
 1984000   0.45561484    -5.701958    640.72247  0.026912066  0.025497005          365 
 1985000   0.45419861    -5.693459    640.75649  0.026899937  0.025478927          293 
 1986000   0.46554895     -5.69941    642.19941  0.026946937  0.025460869          345 
 1987000   0.45567647   -5.7024265    641.00084  0.026883108  0.025442814          261 
 1988000   0.46769167    -5.704607    640.94788  0.026867366  0.025424785          420 
 1989000   0.45423614   -5.7141963    640.29033  0.026826309   0.02540673          434 
 1990000   0.46275519   -5.7176144     640.3837  0.026816738  0.025388654          408 
 1991000   0.45316805   -5.7107548    641.31419  0.026842214  0.025370565          466 
 1992000   0.45806101   -5.7380698    641.69543  0.026844688  0.025352491          363 
 1993000   0.45620311   -5.7079393    640.50336  0.026781375  0.025334438          338 
 1994000   0.45166939   -5.7336161    640.08829  0.026750597   0.02531641          402 
 1995000   0.45290099   -5.7076931    640.20419   0.02674203   0.02529844          453 
 1996000   0.45961573   -5.7224677    639.71511  0.026708212  0.025280447          454 
 1997000   0.46546113   -5.7313211     640.1741  0.026713992  0.025262437          531 
 1998000   0.45266107   -5.7376906    639.98232  0.026692623  0.025244482          437 
 1999000   0.46203242   -5.7109176    641.54603  0.026744457  0.025226525          598 
 2000000   0.46274765   -5.7211837    640.88128  0.026703387  0.025208536          579 
 2001000    0.4564292   -5.7352576    639.59046  0.026636284   0.02519056          410 
 2002000     0.447469   -5.7388494    640.04283   0.02664181  0.025172583          564 
 2003000   0.45201686   -5.7274044    640.88475  0.026663536  0.025154606          516 
 2004000   0.45730789   -5.7346388    639.99765  0.026613342  0.025136647          567 
 2005000   0.45980472   -5.7218848    639.10514  0.026562973  0.025118674          593 
 2006000   0.45670661   -5.7447558    640.09573  0.026590883  0.025100723          644 
 2007000   0.44591005   -5.7364947    639.76098  0.026563735  0.025082782          703 
 2008000   0.44829117   -5.7454879    639.22746  0.026528364  0.025064857          637 
 2009000   0.44948602   -5.7258394    641.02995  0.026589927   0.02504695          651 
 2010000   0.45159086   -5.7397975    640.78813  0.026566672  0.025029063          589 
 2011000   0.44437386   -5.7377087    640.20628   0.02652935  0.025011172          599 
 2012000   0.45663598   -5.7359485    639.23662  0.026476003  0.024993311          650 
Loop time of 5050.6 on 48 procs for 2000000 steps with 4000 atoms

Performance: 68427.499 tau/day, 395.992 timesteps/s
99.4% CPU use with 48 MPI tasks x no OpenMP threads

MPI task timing breakdown:
Section |  min time  |  avg time  |  max time  |%varavg| %total
---------------------------------------------------------------
Pair    | 360.66     | 383.48     | 416.09     |  70.9 |  7.59
Neigh   | 34.362     | 35.538     | 36.933     |   9.8 |  0.70
Comm    | 318.32     | 350.18     | 375.9      |  74.9 |  6.93
Output  | 4.5312     | 4.5334     | 4.5678     |   0.2 |  0.09
Modify  | 4216.9     | 4230.7     | 4243.6     |   9.2 | 83.77
Other   |            | 46.13      |            |       |  0.91

Nlocal:        83.3333 ave          91 max          76 min
Histogram: 2 2 6 6 9 7 8 2 2 4
Nghost:        2337.71 ave        2365 max        2309 min
Histogram: 3 3 1 6 7 11 7 6 3 1
Neighs:        15926.1 ave       17799 max       13603 min
Histogram: 2 1 4 3 7 12 6 6 6 1
FullNghs:      31852.7 ave       35329 max       28944 min
Histogram: 3 5 3 7 12 8 3 1 4 2

Total # of neighbors = 1528929
Ave neighs/atom = 382.23225
Neighbor list builds = 107677
Dangerous builds = 2

#clear
#
#next RN
#
#jump SELF
Total wall time: 1:24:14
