
units lj                  # Use reduced LJ style units
atom_style atomic         # Uncharged point particles
atom_modify map hash      # Needed for indexing of clusters etc
                          # Used to be able to find where atoms are in relation to each other.

lattice fcc 1.0 spacing 1 1 1
Lattice spacing in x,y,z = 1.5874011 1.5874011 1.5874011
region box block 0 10 0 10 0 10 units lattice
create_box 2 box
Created orthogonal box = (0.0000000 0.0000000 0.0000000) to (15.874011 15.874011 15.874011)
  3 by 4 by 4 MPI processor grid
create_atoms 1 box
Created 4000 atoms
  using lattice units in orthogonal box = (0.0000000 0.0000000 0.0000000) to (15.874011 15.874011 15.874011)
  create_atoms CPU = 0.002 seconds
set type 1 type/fraction 2 0.24 78393
Setting atom values ...
  997 settings made for type/fraction
mass 1 1.0
mass 2 1.0
pair_style lj/cut  3.5
pair_modify tail  yes
pair_coeff 1  1  1.0  1.0   # Intearaction between 1 and 1 set with epsilon = 1 and sigma = 1
pair_coeff 1  2  1.5  0.8
pair_coeff 2  2  0.5  0.88

write_data data.0
System init for write_data ...
Neighbor list info ...
  update every 1 steps, delay 10 steps, check yes
  max neighbors/atom: 2000, page size: 100000
  master list distance cutoff = 3.8
  ghost atom cutoff = 3.8
  binsize = 1.9, bins = 9 9 9
  1 neighbor lists, perpetual/occasional/extra = 1 0 0
  (1) pair lj/cut, perpetual
      attributes: half, newton on
      pair build: half/bin/atomonly/newton
      stencil: half/bin/3d
      bin: standard
WARNING: Not all mixed pair coeffs generated from mixing. Use write_data with 'pair ij' option to store all pair coeffs. (../write_data.cpp:312)


#############################
#   M E L T   S Y S T E M   #
#############################

velocity all create 2.4 5300450 mom yes dist gaussian # Assign velocities
                                                    # Temperature 2.4, random number seed, zero linear momentum
                                                                                # Gaussian distribution

timestep 0.002   # simulation timestep
thermo 1000       # output thermodynamic data every 1000 steps bf 100

# Define a fix  in this case with index 1 applied to all
# particles in the simulation. This fix is for simulations
# in the anisotropic NPT ensemble. Note that we use the MTK
# correction.
fix 1 all npt temp 2.4 2.4 0.1 iso 5.68 5.68 0.5 mtk yes tchain 5 pchain 5 # Use NPT ensemble
                                                                         # Set temperature and pressure and damping
                                                                         # Numbers of thermostats in chain and in barostat
run 10000          # run for 10000 steps
Per MPI rank memory allocation (min/avg/max) = 3.642 | 3.644 | 3.648 Mbytes
Step Temp E_pair E_mol TotEng Press Volume 
       0          2.4   -6.7864136            0   -3.1873136   -3.7949501         4000 
    1000    2.3795162   -4.9146655            0   -1.3462835    5.7380115    4329.1664 
    2000    2.4098833   -4.8762922            0    -1.262371    5.4969147    4376.8716 
    3000    2.4294836   -4.9171745            0   -1.2738602    5.5462135     4343.858 
    4000    2.4097514   -4.8619977            0   -1.2482743    5.9767563    4324.3491 
    5000    2.4368968    -4.836994            0   -1.1825627    5.8793663    4354.7442 
    6000    2.3882912   -4.8617052            0    -1.280164    5.6279284    4368.3204 
    7000    2.4046278   -4.8757966            0   -1.2697566    6.0712165    4309.9204 
    8000    2.3715519   -4.8628433            0   -1.3064048     6.113854    4319.5196 
    9000    2.3961637    -4.882541            0    -1.289194    5.9440216    4316.1708 
   10000    2.4325871   -4.9005009            0   -1.2525324    5.5684301    4350.6906 
Loop time of 2.34106 on 48 procs for 10000 steps with 4000 atoms

Performance: 738125.626 tau/day, 4271.560 timesteps/s
99.6% CPU use with 48 MPI tasks x no OpenMP threads

MPI task timing breakdown:
Section |  min time  |  avg time  |  max time  |%varavg| %total
---------------------------------------------------------------
Pair    | 1.0229     | 1.0696     | 1.139      |   2.5 | 45.69
Neigh   | 0.20236    | 0.20893    | 0.23563    |   1.3 |  8.92
Comm    | 0.7375     | 0.80681    | 0.87315    |   3.6 | 34.46
Output  | 0.00024741 | 0.00025317 | 0.00031986 |   0.0 |  0.01
Modify  | 0.21321    | 0.24065    | 0.26694    |   2.5 | 10.28
Other   |            | 0.01482    |            |       |  0.63

Nlocal:        83.3333 ave          91 max          77 min
Histogram: 5 5 6 4 4 9 5 6 1 3
Nghost:        1556.29 ave        1581 max        1533 min
Histogram: 2 1 5 11 9 8 5 2 1 4
Neighs:        8771.85 ave       10025 max        7648 min
Histogram: 2 1 11 4 7 8 7 5 2 1

Total # of neighbors = 421049
Ave neighs/atom = 105.26225
Neighbor list builds = 908
Dangerous builds = 216

# Equilibrate just above the melting temperature to avoid step fn in T

fix 1 all npt temp 1.25 1.25 0.1 iso 5.68 5.68 0.5 mtk yes tchain 5 pchain 5
run 2000
Per MPI rank memory allocation (min/avg/max) = 3.643 | 3.645 | 3.649 Mbytes
Step Temp E_pair E_mol TotEng Press Volume 
   10000    2.4325871   -4.9005009            0   -1.2525324    5.5684301    4350.6906 
   11000    1.2323431   -6.6950066            0    -4.846954    5.6534381    3512.4582 
   12000    1.2795027   -6.7263878            0   -4.8076136    5.7315777    3503.0327 
Loop time of 0.527306 on 48 procs for 2000 steps with 4000 atoms

Performance: 655406.506 tau/day, 3792.862 timesteps/s
99.6% CPU use with 48 MPI tasks x no OpenMP threads

MPI task timing breakdown:
Section |  min time  |  avg time  |  max time  |%varavg| %total
---------------------------------------------------------------
Pair    | 0.23762    | 0.25756    | 0.28306    |   2.2 | 48.84
Neigh   | 0.033527   | 0.0358     | 0.040903   |   0.8 |  6.79
Comm    | 0.14708    | 0.17887    | 0.20391    |   3.1 | 33.92
Output  | 5.1953e-05 | 5.2806e-05 | 6.7406e-05 |   0.0 |  0.01
Modify  | 0.043622   | 0.05031    | 0.058574   |   1.7 |  9.54
Other   |            | 0.004719   |            |       |  0.89

Nlocal:        83.3333 ave          93 max          76 min
Histogram: 1 8 7 5 7 9 4 5 1 1
Nghost:        1790.35 ave        1807 max        1774 min
Histogram: 3 4 6 5 5 4 10 5 4 2
Neighs:        10905.5 ave       12304 max        9371 min
Histogram: 1 0 8 6 8 9 5 2 6 3

Total # of neighbors = 523464
Ave neighs/atom = 130.86600
Neighbor list builds = 141
Dangerous builds = 10

#############################
# L I N E A R  Q U E N C H  #
#############################

# Define solid atoms. This closely follows ten Wolde  Ruiz-Montero and Frenkel  Faraday Discuss  1996  104  93-110
# Compute components of the per-atom q6 vector
compute q6 all orientorder/atom degrees 1 6 components 6 nnn NULL cutoff 1.3 # compute the Q6 parameter.
                                                                             # Use all neighbours within 1.3 unit cell.

# get number of connections
compute coord_number all coord/atom orientorder q6 0.5

# An atom is solid if it has 8 or more connections (of a possible 14)
variable is_solid atom c_coord_number>=8
group solid dynamic all var is_solid    # Must be dynamic to update
dynamic group solid defined

# do clustering
compute cluster solid cluster/atom 1.3 # Create a cluster where all atoms within are solid and max 1.3 units from another member

# define chunks one chunk per cluster
compute clus_chunks solid chunk/atom c_cluster nchunk every compress yes  # Says which atoms are in which chunk

# count the size of each chunk
compute size_chunks solid property/chunk clus_chunks count


# Find the maximum entry in the vector of chunk sizes
variable max_n equal max(c_size_chunks)


# Thermo style which includes this variable
# thermo_style custom step temp pe vol v_max_n

thermo ${N}  # Print the thermo information every 100 steps
thermo 1000  

# Reset the npt fix at a lower temperature (below freezing)
fix 1  all npt temp  ${temp} ${temp}  0.1  iso  5.68  5.68  0.5  mtk yes tchain  5  pchain  5
fix 1  all npt temp  0.45 ${temp}  0.1  iso  5.68  5.68  0.5  mtk yes tchain  5  pchain  5
fix 1  all npt temp  0.45 0.45  0.1  iso  5.68  5.68  0.5  mtk yes tchain  5  pchain  5

dump dmp2 all dcd ${N} traj.dcd
dump dmp2 all dcd 1000 traj.dcd


compute msd all msd com yes
variable twopoint equal c_msd[4]/6/(step*dt+1.0e-6)
fix 9 all vector 10 c_msd[4]
variable fit equal slope(f_9)/6/(10*dt)
thermo_style custom step temp pe c_msd[4] v_twopoint v_fit v_max_n

fix 1 all npt temp 1.25 ${temp} 0.1 iso 5.68 5.68 0.5 mtk yes tchain 5 pchain 5
fix 1 all npt temp 1.25 0.45 0.1 iso 5.68 5.68 0.5 mtk yes tchain 5 pchain 5
run 2000000 # 5000000  # Run for this many steps
Neighbor list info ...
  update every 1 steps, delay 10 steps, check yes
  max neighbors/atom: 2000, page size: 100000
  master list distance cutoff = 3.8
  ghost atom cutoff = 3.8
  binsize = 1.9, bins = 8 8 8
  4 neighbor lists, perpetual/occasional/extra = 1 3 0
  (1) pair lj/cut, perpetual
      attributes: half, newton on
      pair build: half/bin/atomonly/newton
      stencil: half/bin/3d
      bin: standard
  (2) compute orientorder/atom, occasional
      attributes: full, newton on
      pair build: full/bin/atomonly
      stencil: full/bin/3d
      bin: standard
  (3) compute coord/atom, occasional
      attributes: full, newton on
      pair build: full/bin/atomonly
      stencil: full/bin/3d
      bin: standard
  (4) compute cluster/atom, occasional
      attributes: full, newton on
      pair build: full/bin/atomonly
      stencil: full/bin/3d
      bin: standard
Per MPI rank memory allocation (min/avg/max) = 9.802 | 9.806 | 9.808 Mbytes
Step Temp PotEng c_msd[4] v_twopoint v_fit v_max_n 
   12000    1.2795027   -6.7263878 5.9164568e-34 4.1086504e-36 8.3333333e+20            2 
   13000    1.2360915   -6.7093711   0.53255165 0.0034137925  0.044277869            1 
   14000    1.2589392   -6.6755622    1.0418088 0.0062012424  0.043155383            4 
   15000    1.2315322   -6.7141073    1.5329769 0.0085165383  0.042541373            2 
   16000    1.2663813     -6.72388     2.030521   0.01057563  0.042077714            1 
   17000    1.2453843   -6.6933677     2.533031  0.012416818  0.042137671            1 
   18000    1.2500748    -6.688437     2.983979  0.013814717  0.041549753            2 
   19000    1.2366444   -6.7128926    3.4729008  0.015232021  0.041245083            2 
   20000    1.2783722   -6.7289154    3.9345422  0.016393925  0.040896814            2 
   21000    1.2222648   -6.7214313    4.3346501  0.017200992  0.040439577            1 
   22000    1.2258717   -6.7350106     4.768018  0.018060674  0.039977336            4 
   23000    1.2660246   -6.7088398    5.2238515  0.018926998  0.039502826            1 
   24000    1.2232818   -6.7344113    5.6999165  0.019791376  0.039133054            1 
   25000    1.2743862   -6.7239528    6.2498492   0.02083283   0.03907581            3 
   26000    1.2332862   -6.7107948    6.7353006  0.021587501  0.039165208            1 
   27000     1.259057   -6.7098104    7.2239725  0.022296211  0.039259983            1 
   28000    1.2274507   -6.7173761    7.7952452  0.023200134  0.039425306            2 
   29000    1.2552294   -6.7110546    8.3081745  0.023874064  0.039641913            1 
   30000    1.2355046   -6.6996887    8.7495762  0.024304378  0.039817029            2 
   31000    1.2516178   -6.7059427    9.2097844  0.024757484  0.039909185            2 
   32000    1.2418147   -6.7208602    9.6303279  0.025078979  0.039880366            1 
   33000    1.2355325   -6.7915109    10.133968  0.025590828  0.039874352            1 
   34000    1.2470759    -6.739899    10.625233  0.026042237   0.03989789            2 
   35000    1.2285257    -6.720791    11.175437  0.026608183   0.03996112            2 
   36000    1.2592136   -6.7041456    11.668551  0.027010534  0.040061515            1 
   37000    1.2428281   -6.7295683     12.18199  0.027436914  0.040130063            1 
   38000    1.2556334   -6.6928791    12.528401  0.027474563  0.040142345            1 
   39000     1.228833   -6.7303057     13.01369  0.027807029  0.040129708            2 
   40000    1.2446362   -6.7041747    13.466608  0.028055433  0.040118588            3 
   41000    1.2442265   -6.7115024    13.940831  0.028335021  0.040081851            2 
   42000    1.2320103   -6.7461989    14.283098   0.02833948  0.040048182            2 
   43000    1.2536567   -6.6997785    14.825089  0.028730792  0.040000618            1 
   44000    1.2436458   -6.7516813    15.508669  0.029372478  0.040007254            3 
   45000    1.2188349   -6.7077998    15.924158  0.029489181  0.040026013            1 
   46000    1.2559406   -6.7429695    16.389872  0.029691796  0.040036208            1 
   47000    1.2028245   -6.7234672    16.832509  0.029844874  0.040030228            1 
   48000    1.2483137   -6.7305206    17.225927  0.029906122  0.040005785            2 
   49000    1.2308859   -6.6821428    17.721754  0.030139038  0.039955289            2 
   50000    1.2466687   -6.7794346     18.22925  0.030382083  0.039934712            3 
   51000    1.2408574   -6.7316308    18.777616  0.030682378  0.039928249            1 
   52000    1.2274012   -6.7487406    19.327202  0.030973079  0.039946321            2 
   53000    1.2321157   -6.7360014    19.786308  0.031110547  0.039984025            2 
   54000    1.2224974   -6.7025494    20.410641  0.031497902  0.040011331            5 
   55000     1.225059   -6.7284353    20.777479  0.031481029  0.040043235            1 
   56000    1.2373825    -6.734863     21.23793  0.031604062  0.040049669            4 
   57000    1.2378115   -6.7067472     21.69009  0.031710657  0.040061247            2 
   58000    1.2274456   -6.7185089    22.161753  0.031841599  0.040056834            2 
   59000    1.2286065   -6.7381037    22.547546  0.031846816  0.040039298            1 
   60000    1.2191431   -6.7339149    22.920157  0.031833551  0.040011773            1 
   61000    1.2113773   -6.7457341     23.37016  0.031926448  0.039969295            2 
   62000    1.2491152   -6.7750348    23.888072  0.032107623  0.039939863            1 
   63000    1.2561525   -6.7478436    24.322737  0.032172932  0.039911037            1 
   64000    1.2113678      -6.7789    24.711616  0.032176582  0.039869415            1 
   65000    1.2139123   -6.7415927    25.219394  0.032332556  0.039824542            1 
   66000    1.2040937   -6.7340575     25.58025  0.032298295   0.03977096            2 
   67000    1.2195321   -6.7745659    26.043736  0.032392706  0.039727865            1 
   68000    1.2345236   -6.7031427    26.629632  0.032634353  0.039689852            1 
   69000    1.2092834   -6.7504235    26.998191  0.032606511  0.039653812            1 
   70000    1.2225605   -6.7941206    27.352681  0.032562715  0.039604627            1 
   71000    1.2139737   -6.7771353    27.777129  0.032602263  0.039551216            3 
   72000    1.2367287   -6.7438387    28.275919  0.032726758  0.039492683            1 
   73000    1.2331963   -6.7534237    28.754838  0.032825157  0.039438937            2 
   74000    1.1930448   -6.7725752    29.142733  0.032818392  0.039388085            2 
   75000    1.2157138   -6.7174814     29.73901  0.033043345  0.039335591            1 
   76000    1.2455975   -6.7713731    30.006399  0.032901754  0.039294486            1 
   77000    1.2083259   -6.7478581    30.616866  0.033135136  0.039261061            1 
   78000    1.2008887   -6.7247956    31.027941  0.033149509  0.039222849            2 
   79000    1.1992844   -6.7735346     31.37801  0.033099166  0.039179594            1 
   80000    1.2131243   -6.7403347    31.750901  0.033073855  0.039135035            1 
   81000    1.2529142   -6.7970938    32.173565  0.033100375  0.039084628            1 
   82000    1.2147751   -6.7710482    32.770619  0.033303474    0.0390523            1 
   83000    1.2111401   -6.7586722    33.368863  0.033502874  0.039034106            2 
   84000    1.2293707   -6.7207352    33.877185  0.033608319   0.03902032            1 
   85000    1.2418374   -6.7435408     34.20927    0.0335385   0.03899523            3 
   86000    1.2111966    -6.789314    34.466965  0.033398221  0.038958379            1 
   87000     1.219068   -6.7491497    34.882425  0.033412285  0.038914077            1 
   88000    1.2503563   -6.7236784    35.716446  0.033822392   0.03888473            1 
   89000     1.247755   -6.7576953    36.044892  0.033749899  0.038866321            1 
   90000    1.2129231   -6.7912617     36.41533  0.033717898  0.038846213            4 
   91000    1.2170344   -6.7474801    36.852667  0.033747863  0.038829091            2 
   92000    1.2087565   -6.7708644    37.420283  0.033895184   0.03880858            2 
   93000    1.2076737   -6.7327616     37.68119  0.033764507  0.038782585            2 
   94000    1.2446718   -6.7427053    38.094176  0.033771433  0.038748745            1 
   95000    1.2087899   -6.7770883    38.513492  0.033783765  0.038716087            2 
   96000    1.2020811   -6.7802857    38.930805  0.033794101  0.038685016            3 
   97000    1.1953249   -6.7781499    39.459873  0.033900235  0.038652901            2 
   98000    1.2243255   -6.7771911    39.649358   0.03371544  0.038618695            1 
   99000    1.2040803   -6.8004315    40.135203  0.033783841  0.038579309            1 
  100000    1.2210991   -6.7331484    40.409582  0.033674651  0.038539279            1 
  101000    1.2000465   -6.7618125    40.836251  0.033693276  0.038490591            2 
  102000    1.2359469   -6.7809467    41.260671  0.033709698   0.03843878            4 
  103000    1.2158458   -6.8047966    41.638176  0.033687845  0.038388525            2 
  104000    1.2145271   -6.7916182    42.011179  0.033662804  0.038346553            1 
  105000     1.184528   -6.7480132    42.599365   0.03380902  0.038312679            1 
  106000    1.2328542   -6.7846736    43.229508  0.033985462  0.038279535            2 
  107000    1.2229616   -6.7953459    43.544721  0.033913334  0.038243677            2 
  108000    1.2031682   -6.7480626    44.102868  0.034029991  0.038212114            2 
  109000    1.2154615   -6.7348488    44.357342  0.033912341  0.038175764            3 
  110000    1.2101723   -6.7687565    45.015713  0.034102813  0.038144717            2 
  111000    1.1856709   -6.7450914    45.445443    0.0341182  0.038118415            3 
  112000    1.2372782   -6.8198229    45.893357  0.034146843  0.038092871            5 
  113000    1.2254425   -6.7750009    46.362823  0.034190873  0.038069577            2 
  114000    1.2097928   -6.7776387    46.913432  0.034293444  0.038056364            2 
  115000    1.1975474   -6.7330999    47.385464  0.034337293  0.038042828            2 
  116000    1.1914427   -6.7109587    47.812633  0.034348156  0.038023746            1 
  117000    1.2386391   -6.8427285     47.88068  0.034103049   0.03800088            1 
  118000    1.2022388   -6.8213232    48.482406  0.034238987  0.037978341            1 
  119000    1.2095693   -6.7745175    49.079667  0.034369514  0.037959348            3 
  120000    1.1644176   -6.7908388    49.401813  0.034306815  0.037943444            2 
  121000     1.209038   -6.8206746    50.097245  0.034502235  0.037930706       -1e+20 
  122000    1.2024902   -6.7827558     50.48659  0.034485376  0.037925054            2 
  123000    1.2194427   -6.7727103    51.145211  0.034651227  0.037918956            2 
  124000    1.2320394   -6.7617154    51.491092  0.034604228   0.03791199            2 
  125000    1.2086099   -6.8249863    51.636821  0.034424547  0.037897643            3 
  126000    1.2166749   -6.7795953    51.992931  0.034386859  0.037878874            2 
  127000    1.2063651   -6.8160009    52.671411  0.034561293  0.037862414            1 
  128000    1.1909559   -6.7876523    53.052149  0.034539159  0.037847969            2 
  129000    1.2102476   -6.7472752    53.459435  0.034534518  0.037832764            2 
  130000    1.2063982   -6.8298714    53.696428  0.034420787  0.037814433            3 
  131000    1.2159018   -6.7866523    54.312725  0.034550079  0.037798799            3 
  132000    1.2263015   -6.8411323      54.4344  0.034365152  0.037782212            2 
  133000    1.2131728   -6.8338079    55.074588  0.034507887  0.037763323            2 
  134000    1.1930445   -6.7711664    55.496329  0.034512642  0.037744975            1 
  135000    1.1979208   -6.7673443     56.31556  0.034762691  0.037729164            2 
  136000    1.1831975   -6.7657618    56.497012  0.034618267  0.037717159            2 
  137000    1.1968623   -6.8154953    56.826976  0.034566287  0.037700628            2 
  138000    1.2036673   -6.8255101     57.29707   0.03459968  0.037685289            1 
  139000    1.2029977   -6.7685164    58.192099  0.034887349  0.037676286            1 
  140000    1.2104374   -6.7943993    58.432365  0.034781169   0.03767023            1 
  141000    1.2007928   -6.8098415    58.688569  0.034685915  0.037660702            2 
  142000    1.1770502   -6.8075742    59.146166  0.034710191  0.037646927            2 
  143000    1.1833276   -6.7549207    59.390399  0.034609789  0.037631264            1 
  144000    1.1956978   -6.7901035    59.863826  0.034643418  0.037615448            2 
  145000    1.1967509   -6.7971015    60.296109  0.034652936  0.037600686            2 
  146000    1.2051507   -6.8159961    60.734521  0.034665822  0.037584801            2 
  147000    1.1800826   -6.7911181    61.082821   0.03462745  0.037567941            2 
  148000    1.1919767   -6.7965531    61.599807  0.034684576  0.037552714            2 
  149000    1.1874859   -6.7828103    62.292389  0.034839144  0.037539194            1 
  150000    1.2018743   -6.8218649    62.305237   0.03461402   0.03752688            3 
  151000    1.2006546   -6.8011395    62.806849  0.034661616   0.03750982            2 
  152000    1.1968434   -6.8290978    63.410526  0.034764543  0.037494235            2 
  153000     1.192161   -6.8218531    63.323668  0.034490015  0.037476501            2 
  154000    1.1933932   -6.8355133    63.957804  0.034609201  0.037456189            1 
  155000    1.1749279   -6.7962887    64.399926  0.034623616  0.037432029            1 
  156000    1.1620438   -6.7996646    64.527772  0.034469963  0.037408621            1 
  157000    1.1963683   -6.7989348    64.869953  0.034432034  0.037385086            2 
  158000    1.1835463   -6.8129038    65.732436  0.034669006  0.037368233            4 
  159000    1.1919408   -6.8061244    66.235177  0.034714453  0.037353766            1 
  160000    1.1828753   -6.8545465    66.621036  0.034698456  0.037337276            3 
  161000    1.2053916   -6.8215865    66.765739  0.034557836  0.037319192            1 
  162000    1.1724927   -6.7742622     67.15521  0.034544861  0.037297923            1 
  163000    1.2044868    -6.830625    67.448706  0.034482978  0.037272193            2 
  164000    1.1878467   -6.8240488     67.60117  0.034350188  0.037245388            1 
  165000    1.1832332   -6.8057907    68.400624  0.034545769  0.037220409            2 
  166000    1.1614341   -6.7992372    68.932618  0.034604728  0.037197272            2 
  167000    1.1729929   -6.8847108    69.259457  0.034560607  0.037174822            1 
  168000    1.1851971     -6.81161    69.851239  0.034648432  0.037158022            1 
  169000    1.1900087   -6.8317173    70.202966  0.034616847  0.037141658            2 
  170000    1.1853454    -6.831588    70.603814  0.034609713  0.037124349            1 
  171000    1.1929908   -6.8274493     70.68869  0.034448679  0.037106754            2 
  172000    1.1697655   -6.7988112    71.546445  0.034663975   0.03708944            1 
  173000    1.1843362   -6.7972371    71.984414  0.034674573  0.037073353            3 
  174000    1.1979912   -6.8117649    72.374262  0.034662003  0.037057879            2 
  175000    1.1909526    -6.809885    72.637836  0.034589446  0.037039945            5 
  176000    1.1847406   -6.8448074    72.945558  0.034538616  0.037018919            2 
  177000    1.1993065   -6.8234774    73.420808  0.034567235  0.036997801            2 
  178000    1.2154233   -6.8222886    73.666568  0.034488093  0.036979135            2 
  179000    1.1817331   -6.7794703     74.21131  0.034549027  0.036958728            2 
  180000    1.1818107   -6.8517974    74.457987   0.03447129  0.036938903            2 
  181000    1.2074653   -6.8048638    75.172345  0.034609735  0.036919265            2 
  182000    1.1661701   -6.8392909    75.463725  0.034552987  0.036899338            3 
  183000    1.1704647    -6.847354    75.810604  0.034522133  0.036876414            1 
  184000     1.177963   -6.8493633    76.048185  0.034442113  0.036852317            2 
  185000    1.1819315   -6.7973658    76.678638  0.034539927  0.036830109            1 
  186000     1.176446   -6.8436701    76.693617  0.034360939  0.036808837            2 
  187000    1.1426436   -6.8243097    77.150979  0.034381007  0.036785448            1 
  188000    1.1894254   -6.8721068    77.623477   0.03440757  0.036762507            2 
  189000    1.1717469   -6.8654969    78.087393  0.034430067  0.036740684            1 
  190000     1.154272   -6.8787666    78.357462  0.034367308  0.036720581            2 
  191000    1.1830916    -6.818925    79.267873  0.034584587  0.036700052            3 
  192000    1.1340928    -6.852068    79.028994  0.034300779  0.036679258            2 
  193000    1.1999538   -6.8096351    80.031392  0.034555869   0.03665766            3 
  194000    1.1901452   -6.8749673    80.309869  0.034497366  0.036639614            3 
  195000    1.1512812    -6.890898    80.995443  0.034613437  0.036624018            2 
  196000    1.1761475   -6.8345335    81.582816  0.034686572  0.036610571            3 
  197000    1.1795932   -6.8381908    81.916383    0.0346516  0.036599675            2 
  198000    1.1379794   -6.8465918     82.49287  0.034719221  0.036588778            1 
  199000    1.1855554   -6.8621266    82.930979  0.034728216  0.036578563            2 
  200000    1.1737488   -6.8352758    83.241491  0.034683954  0.036568811            2 
  201000    1.1625635   -6.8728724    83.634522  0.034674346  0.036555185            2 
  202000    1.1681776   -6.8432363    83.952352  0.034633808  0.036542132            4 
  203000    1.1640914   -6.8745241    84.548208  0.034707803  0.036531735            2 
  204000    1.1827026   -6.8499657    84.798044  0.034639724  0.036522007            2 
  205000     1.165994   -6.8266976    85.698125  0.034836636  0.036513037            1 
  206000    1.1851368   -6.8474313    85.747212  0.034687383  0.036503128            2 
  207000    1.1688311   -6.8656736    85.879329  0.034572999  0.036490581            3 
  208000    1.1333335   -6.9294417    86.195774  0.034533563  0.036477128            1 
  209000     1.186745   -6.8400144    86.798366  0.034608599  0.036463531            2 
  210000    1.1932392   -6.8709883    87.175709  0.034593535  0.036449834            2 
  211000    1.1451653   -6.8357567    87.762382  0.034661288  0.036434684            2 
  212000    1.1791955   -6.8751478     87.82717  0.034523258  0.036418085            1 
  213000    1.1156443   -6.8871058    88.309085   0.03454972  0.036402964            1 
  214000    1.1915737   -6.8126518    88.753101  0.034561176  0.036387626            1 
  215000    1.1718785   -6.8693701     89.17835  0.034565252  0.036373842            1 
  216000     1.160104   -6.8873401    89.829487  0.034656438  0.036359772            2 
  217000    1.1905904   -6.8848126    89.974417  0.034552387  0.036347891            2 
  218000      1.14789   -6.8227033    90.620735  0.034640953  0.036336369            2 
  219000    1.1669877   -6.8814688    90.876349  0.034580041  0.036325699            1 
  220000    1.1431596   -6.8630814    91.787726  0.034768078  0.036316408            1 
  221000    1.1806943   -6.8700787    92.364431  0.034828217  0.036309616            1 
  222000    1.1591399   -6.8710037    92.841885  0.034850557  0.036303552            1 
  223000    1.1730458   -6.8660274    92.890767  0.034712544  0.036296163            2 
  224000    1.1855535   -6.8771421     93.09536   0.03463369  0.036285815            1 
  225000    1.1860708   -6.8544325    93.271985   0.03454518  0.036273965            4 
  226000    1.1578925   -6.8765402    93.462713  0.034462652  0.036260563            1 
  227000    1.1693547   -6.8628596    93.992095  0.034505174  0.036246524            2 
  228000    1.1738532   -6.8337476    94.647114  0.034593243  0.036230867            1 
  229000    1.1666032   -6.9143307    94.701792  0.034462079  0.036217427            2 
  230000    1.1451663    -6.859893    95.527531  0.034611424  0.036204703            2 
  231000    1.1517862   -6.8501422     96.00521  0.034633914  0.036192882            1 
  232000    1.1832075   -6.8860162    96.223579  0.034563067  0.036182698            1 
  233000    1.1551265   -6.8149207    96.914091  0.034661692  0.036171976            1 
  234000    1.1769095   -6.8326926    97.220449  0.034622667  0.036164215            1 
  235000    1.1640433   -6.9117115    97.563769  0.034597081  0.036153683            5 
  236000    1.1691665   -6.8383316    97.935998   0.03458192  0.036145549            3 
  237000    1.1507767    -6.875466    98.382925  0.034593152  0.036137326            2 
  238000    1.1722953   -6.8367976    99.469121  0.034828123  0.036131522            2 
  239000    1.1162811   -6.9063384    99.864965   0.03482042  0.036127007            2 
  240000    1.1655912   -6.8744335    100.75338  0.034983812   0.03612496            1 
  241000    1.1351306   -6.8620075    100.87462  0.034880575  0.036122671            1 
  242000    1.1423107   -6.8532691    101.21139  0.034852408   0.03611872            2 
  243000    1.1738704   -6.8958464    101.47526  0.034799472   0.03611289            1 
  244000    1.1306087   -6.8971931    101.91419   0.03480676   0.03610863            1 
  245000    1.1526669   -6.8740693    102.50537  0.034865772  0.036105097            1 
  246000    1.1519596   -6.8834056    103.10303  0.034926499  0.036101213            2 
  247000    1.1759771   -6.8751283    103.22483  0.034826191  0.036097857            2 
  248000    1.1301047   -6.8962317    103.64732   0.03482773  0.036093872            2 
  249000    1.1341601   -6.9076682    104.40398  0.034941092  0.036091217            1 
  250000    1.1489886   -6.9189621    104.53947  0.034846489  0.036088917            5 
  251000    1.1432192    -6.900838    105.35831  0.034979519  0.036087377            2 
  252000    1.1549158   -6.9047312    105.85058  0.035003498  0.036088464            1 
  253000    1.1374929    -6.870696    106.51634  0.035084434  0.036090213            2 
  254000    1.1649519   -6.9077115    106.95844  0.035091352  0.036092812            3 
  255000    1.1596035   -6.9127594    107.37765  0.035090736  0.036095028            3 
  256000    1.1346998   -6.9101988    107.51653  0.034998871  0.036096102            2 
  257000    1.1440309   -6.8784936    108.47762  0.035174325  0.036097404            2 
  258000    1.1340794    -6.891009    109.10541  0.035240767  0.036100279            1 
  259000    1.1444434   -6.9192123    109.15638    0.0351211  0.036104546            2 
  260000    1.1334911   -6.8844775    109.43318  0.035074737  0.036105908            2 
  261000    1.1122702   -6.9217778    109.97443  0.035113163  0.036107634            5 
  262000    1.1422667   -6.8907303    110.10693  0.035021289  0.036105924            2 
  263000    1.1152767   -6.8952204    110.03595  0.034865637  0.036103438            1 
  264000    1.1631414   -6.9244672    110.72147   0.03494996  0.036101603            4 
  265000    1.1617477   -6.8949728     111.3409   0.03501286  0.036101316            2 
  266000    1.1515662   -6.8865453    111.81214  0.035028865  0.036100567            3 
  267000    1.1314766   -6.8819614    112.14368  0.035001148  0.036098436            4 
  268000    1.1573816      -6.9041    112.31464  0.034923705  0.036095939            1 
  269000    1.1499179   -6.8911481    113.24762  0.035082906  0.036093705            2 
  270000    1.1361163   -6.8938247    113.72743  0.035101059  0.036092449            1 
  271000    1.1328716    -6.908037    114.03488  0.035066077  0.036090682            1 
  272000    1.1425248   -6.9248816    114.50983  0.035082668  0.036089963            3 
  273000    1.1236257   -6.8711898    114.65114  0.034997294  0.036088293            2 
  274000    1.1730665   -6.8909467    115.07809  0.034999419  0.036087779            1 
  275000    1.1508847   -6.8923853    115.59797  0.035029689  0.036086604            2 
  276000    1.1352853   -6.9060553     115.9591  0.035011804  0.036085659            1 
  277000    1.1713347     -6.92285    116.47203   0.03503972  0.036084756            2 
  278000    1.1110615    -6.924214    116.78406  0.035007211   0.03608335            1 
  279000    1.1250843   -6.8992262    117.46869  0.035086227  0.036081656            2 
  280000    1.1218891   -6.8967551    117.52792  0.034978548  0.036077811            2 
  281000    1.1594189   -6.9132026    118.04774  0.035008228  0.036074239            2 
  282000    1.1584161   -6.8935125    118.72432   0.03508402  0.036071147            2 
  283000    1.1187846   -6.9207492    118.89912   0.03501152  0.036069129            4 
  284000    1.1407348   -6.8820978    119.21499  0.034980925  0.036066703            2 
  285000    1.1391138    -6.905442     119.7027  0.035000789   0.03606305            2 
  286000    1.1547026    -6.902995    119.83374  0.034916591  0.036059268            2 
  287000    1.1354899   -6.9117922    120.51443  0.034992574  0.036055463            2 
  288000    1.1370959   -6.9226505    120.86115  0.034971397  0.036051827            1 
  289000    1.1422418   -6.9378339    121.04472   0.03490332  0.036046404            2 
  290000     1.162482   -6.9013283    121.60713  0.034944578  0.036040511            1 
  291000    1.1483765    -6.912867    121.93496  0.034918372  0.036035218            4 
  292000    1.1416342   -6.9404904    122.27499  0.034895829  0.036030132            2 
  293000     1.141941   -6.9183551    122.38831  0.034808961  0.036024189            1 
  294000    1.1169222   -6.9515116    122.88968  0.034832677  0.036018648            1 
  295000    1.1350744   -6.9395846    123.52741   0.03489475  0.036012167            2 
  296000    1.1540648   -6.9440777     124.1515  0.034952562  0.036006565            1 
  297000    1.1024126   -6.9167785    123.88632  0.034760472  0.036000509            1 
  298000    1.1298575   -6.9370722    124.26669  0.034750193  0.035993363            2 
  299000    1.1168212   -6.9207048    124.85547  0.034798068  0.035986522            2 
  300000    1.1356817   -6.9652462    124.95434  0.034709538  0.035979722            2 
  301000    1.1340214   -6.9394863    125.42609  0.034724832  0.035973092            2 
  302000    1.1503304   -6.9049689    126.39831  0.034878122  0.035966106            2 
  303000    1.1386551   -6.9031417    126.81514  0.034877651  0.035960534            2 
  304000    1.1428348   -6.9498006    126.90965   0.03478883  0.035954324            2 
  305000    1.1468218   -6.9467829    127.16001  0.034743173   0.03594823            4 
  306000    1.1370703   -6.9310804    128.08591  0.034881783  0.035942079            2 
  307000    1.1248172   -6.9338957    127.96721  0.034735942   0.03593674            2 
  308000    1.1311604   -6.9246542    128.50768  0.034769394  0.035930036            1 
  309000    1.1451834   -6.9342326    128.81953  0.034740972  0.035923192            1 
  310000    1.1519704   -6.9090721    129.25465  0.034745873  0.035916182            1 
  311000    1.1415649   -6.9364953    129.78601  0.034776531   0.03590907            2 
  312000     1.135409   -6.8915968    129.99872  0.034721879  0.035901909            4 
  313000    1.1169923   -6.9143751    130.75917   0.03481341  0.035895384            1 
  314000    1.1330224   -6.9704702    130.64958  0.034673457  0.035887643            3 
  315000    1.1130278    -6.946679    130.55284  0.034537789  0.035879969            1 
  316000    1.1511389   -6.9310462    131.42208  0.034657722   0.03587137            4 
  317000     1.124304   -6.9247728    132.16356  0.034743313  0.035863121            5 
  318000    1.1352498   -6.9557987    132.58116   0.03474349  0.035854978            5 
  319000    1.1131203   -6.9329503    132.96219  0.034734114  0.035846848            1 
  320000    1.1083948   -6.9882062    132.94973  0.034622326   0.03583891            1 
  321000    1.1209756   -6.9796848    133.04511   0.03453923  0.035831148            3 
  322000    1.1187386   -6.9544509     133.7999  0.034627303  0.035822842            2 
  323000    1.1197071    -6.976694    134.55327  0.034714467  0.035815423            2 
  324000     1.131902   -6.9533467    134.85752  0.034685576  0.035807913            3 
  325000    1.1327554   -6.9205706    135.28213  0.034687725   0.03580084            3 
  326000    1.1317531   -6.9281273    135.85716  0.034728313  0.035793234            3 
  327000    1.0997209   -6.9346623    135.87411   0.03462643  0.035786412            3 
  328000    1.1309617   -6.9376128      136.814  0.034759653  0.035778333            1 
  329000    1.1077246   -6.9605898    136.30227  0.034524383  0.035769785            1 
  330000    1.1568076   -6.9441315     137.2599   0.03466159  0.035761238            4 
  331000    1.1536328   -6.9847227    137.82986  0.034700367   0.03575261            2 
  332000    1.1226427   -6.9154883    138.63913  0.034798977  0.035745915            2 
  333000     1.112653   -6.9787617    138.44615  0.034646182   0.03573927            2 
  334000    1.1043412   -6.9933921    139.11644  0.034709692  0.035732578            2 
  335000    1.1178013   -6.9994019    139.33231  0.034659779  0.035726438            1 
  336000    1.1330827    -6.954537    139.85288  0.034685734  0.035720201            3 
  337000    1.1292931   -6.9816082    139.46934  0.034487966  0.035712783            1 
  338000    1.0961094   -6.9413153    140.50606  0.034641534  0.035704908            1 
  339000    1.1131567   -6.9424423    140.59842  0.034562049     0.035697            1 
  340000    1.1257788   -6.9848451    140.80605  0.034511287  0.035688036            2 
  341000     1.099502   -6.9795076    141.41702  0.034559389  0.035679364            1 
  342000    1.1176893     -6.98617    141.92519   0.03458216  0.035670592            2 
  343000     1.126465   -6.9579305    142.37978  0.034591783  0.035662173            1 
  344000     1.130637   -7.0112427    142.08876  0.034420727  0.035652491            2 
  345000    1.1229159   -6.9801017    142.52926  0.034427358  0.035641923            3 
  346000    1.1258978   -6.9457412    142.57554  0.034339003  0.035630306            3 
  347000     1.135189   -6.9634809     142.7322  0.034277665  0.035617828            1 
  348000     1.123228   -6.9685707    142.79967  0.034195322   0.03560529       -1e+20 
  349000    1.1044455   -7.0018485    143.11229   0.03417199  0.035592371            2 
  350000    1.1123421   -7.0019627    143.65865   0.03420444  0.035578573            2 
  351000     1.102195   -7.0056084    143.38813  0.034042766  0.035563813            2 
  352000    1.1115075   -6.9858966    144.13537  0.034122958  0.035548463            1 
  353000    1.1239437   -6.9522433    144.39791   0.03408827  0.035532276            2 
  354000    1.1098101   -6.9515141    144.73191  0.034070601  0.035517054            3 
  355000      1.08876   -6.9408595     145.1991  0.034084295  0.035501589            3 
  356000      1.11496   -6.9736464    145.83459  0.034137311  0.035486981            2 
  357000    1.1188264    -6.967359    145.99845  0.034079937  0.035470998            2 
  358000    1.1433011   -6.9937393    146.47672  0.034096072  0.035454693            1 
  359000    1.1158305   -6.9649387    146.47911   0.03400165  0.035438817            4 
  360000    1.0945846   -6.9536282    147.09876  0.034050639  0.035423169            2 
  361000    1.1132405   -6.9686068    147.11397  0.033959827  0.035406624            2 
  362000    1.0945203   -7.0003287    147.01874  0.033844092  0.035390082            2 
  363000    1.1029933   -6.9816463    147.54987  0.033872788  0.035374124            2 
  364000    1.1235682   -6.9550903    147.45917  0.033758966   0.03535742            2 
  365000    1.1394688   -7.0180617    148.16186  0.033826909  0.035340599            3 
  366000    1.1096646   -6.9923221    148.39526  0.033787627  0.035323303            6 
  367000    1.0774061   -6.9936499    148.63385  0.033749738  0.035305738            1 
  368000    1.1047738   -6.9922302    149.29413  0.033807547  0.035287375            2 
  369000    1.1120818   -6.9486014    149.45343  0.033751904  0.035269327            1 
  370000    1.1140058   -7.0137043    150.15434  0.033818546   0.03525131            2 
  371000    1.1094139   -6.9771265    150.70753  0.033851645  0.035233573            3 
  372000    1.0986751   -7.0024882    150.58838  0.033733957  0.035215937            2 
  373000    1.1103347   -6.9680181    150.84896  0.033701734  0.035197677            2 
  374000    1.1131538   -6.9702174    151.53458   0.03376439  0.035180646            3 
  375000    1.0864827   -7.0335162    152.21276  0.033825059  0.035163241            1 
  376000    1.1303446   -6.9869412    151.74044  0.033630416  0.035145415            1 
  377000    1.0977828    -6.988623    152.48979   0.03370685  0.035127289            1 
  378000    1.0969159   -7.0087674    152.65817  0.033654799   0.03510892            2 
  379000    1.1096532   -7.0206511    152.97771  0.033636261  0.035091084            2 
  380000    1.1209249   -7.0380773    152.34618   0.03340925  0.035072253            3 
  381000    1.1201655   -7.0318067    153.40034  0.033552131  0.035053723            3 
  382000    1.1050633   -7.0247986    153.91492  0.033576553  0.035035484            3 
  383000    1.1113172   -6.9813816    154.27566  0.033567375  0.035017308            1 
  384000    1.1037633   -7.0100551    154.84556  0.033603638  0.034999896            2 
  385000    1.1006943    -7.017025    155.11951  0.033575652  0.034982724            1 
  386000    1.0900823   -7.0012663    155.22595  0.033511646   0.03496572            1 
  387000    1.0976876   -6.9944965    156.15234  0.033624534  0.034948299            1 
  388000    1.0953089   -7.0331338    156.10699  0.033528134   0.03493144            1 
  389000    1.1017868   -7.0443854     156.4849  0.033522901   0.03491524            2 
  390000    1.0906294   -7.0101511    157.09338  0.033566961  0.034899163            2 
  391000    1.0931654   -7.0128479    157.36139  0.033538233  0.034882295            2 
  392000      1.10829   -6.9974745    157.69417   0.03352342  0.034865492            4 
  393000    1.1235003   -6.9985164    158.06801  0.033517391   0.03484923            2 
  394000    1.1189403   -6.9997043    158.36113  0.033494316  0.034833204            4 
  395000    1.0836313   -6.9736207    159.23513  0.033593909  0.034817694            2 
  396000    1.1124261   -6.9780144    160.01074  0.033672293  0.034802243            3 
  397000    1.1129253   -6.9930239     160.1233  0.033611104  0.034786745            4 
  398000    1.0763261   -6.9803624    160.04189  0.033509608  0.034771105            2 
  399000    1.1185504   -7.0212917    160.24424  0.033467887  0.034754728            2 
  400000    1.1192781   -7.0187567    160.51311  0.033440232  0.034738413            1 
  401000    1.1188468   -7.0083624    161.73443  0.033610646  0.034723049            1 
  402000    1.0961466   -6.9946927    161.90359  0.033562104  0.034708067            3 
  403000    1.0706922   -7.0341243     161.2758  0.033349007  0.034691764            3 
  404000    1.0947151   -7.0005658    161.95673  0.033406917  0.034675004            2 
  405000     1.088794   -6.9980321     162.6675  0.033470679  0.034658541            3 
  406000    1.0948398   -7.0280976    161.97343  0.033245779  0.034641329            1 
  407000    1.0794987   -7.0456829    162.12622  0.033195376  0.034623442            1 
  408000    1.0670555   -7.0138114    162.22409  0.033134006  0.034605136            3 
  409000    1.0958599   -7.0345629    162.61065  0.033131755  0.034586567            1 
  410000    1.0959704   -7.0035961    163.15898  0.033162394  0.034567378            3 
  411000    1.1009937   -7.0008993    163.10453  0.033070667  0.034548493            2 
  412000    1.0884984   -7.0368618    164.14755  0.033201365  0.034529002            1 
  413000    1.1049659   -7.0347901    164.33667  0.033159135  0.034509535            4 
  414000    1.0870134   -7.0096969    163.81015  0.032973057  0.034489716            1 
  415000    1.0960942   -7.0491549    164.07248  0.032946281  0.034469736            3 
  416000    1.0962017   -7.0150752    165.22317   0.03309759  0.034450388            2 
  417000    1.0802245   -7.0026767    165.18867  0.033011325  0.034431764            1 
  418000    1.0982604   -7.0113293    165.51882   0.03299817  0.034412807            2 
  419000    1.0817098   -7.0200026    165.48921  0.032913527  0.034393695            1 
  420000    1.0879297   -7.0164005    166.46853  0.033029471  0.034375033            1 
  421000    1.0787878   -7.0352254     166.2056  0.032898971   0.03435549            4 
  422000    1.0730308   -7.0235677    165.86828  0.032754399  0.034335564            1 
  423000    1.1070739   -7.0438095    167.18281  0.032935936  0.034315645            3 
  424000    1.0899758   -7.0128263     166.9222  0.032807037  0.034295138            1 
  425000    1.0792039   -7.0590908    167.54572  0.032852103  0.034275178            1 
  426000    1.0803377   -7.0392948    167.47343  0.032760843  0.034255054            3 
  427000    1.0800219   -7.0291091    168.05486  0.032797592  0.034234793            2 
  428000    1.0672578   -7.0387663    168.15262  0.032739997  0.034214102            3 
  429000    1.0920841   -7.0267262    168.09154  0.032651814  0.034192675            2 
  430000    1.0586017   -7.0664673    168.62938  0.032680112  0.034171529            1 
  431000    1.0689289   -7.0306382    168.78552  0.032634477  0.034149959            2 
  432000    1.1070032   -6.9850955    169.57394  0.032711022  0.034128579            3 
  433000    1.0639459   -7.0397827    169.32507  0.032587581  0.034106706            2 
  434000    1.0801474    -7.005996    169.75051  0.032594184  0.034084238            1 
  435000    1.0872967   -7.0448391    169.64692   0.03249941  0.034062012            2 
  436000    1.0842203    -7.059174    170.40804  0.032570344  0.034039447            1 
  437000    1.0490923    -7.040038    170.44938  0.032503695  0.034017226            2 
  438000    1.0948834   -7.0229766    170.73553  0.032483929  0.033995632            3 
  439000    1.0771627   -7.0740051    171.41933  0.032539735  0.033973707            3 
  440000    1.0646474   -7.0206075    171.58651  0.032497444  0.033952486            1 
  441000    1.0726519   -7.0562998    172.52568  0.032601224  0.033931854            2 
  442000    1.0610174    -7.030896    172.10341  0.032447853  0.033910298            5 
  443000    1.0786673   -7.0762114    172.51848  0.032452685  0.033888774            4 
  444000    1.0610151    -7.070577    172.95391   0.03246132  0.033867159            2 
  445000    1.0956082   -7.0527072    173.47067  0.032485145  0.033845948            2 
  446000    1.0777855   -7.0369003    173.94459  0.032500858  0.033825261            3 
  447000    1.0791809   -7.0721133    173.74962  0.032391801  0.033805172            2 
  448000    1.0747207   -7.0276519    174.50219  0.032459486   0.03378495            2 
  449000    1.0763777   -7.0405037    174.50591  0.032387883  0.033764836            2 
  450000    1.0663423   -7.0391536    174.95659  0.032399369  0.033744632            1 
  451000    1.0928142   -7.0602263    175.68244  0.032461648  0.033724952            2 
  452000    1.0880121   -7.0586707    175.42768  0.032342862  0.033704794            2 
  453000    1.0659476   -7.0536339    176.19592  0.032412788  0.033685464            5 
  454000    1.0854868    -7.027926    176.77634  0.032447933  0.033665268            2 
  455000    1.0644067   -7.0699205    175.98684  0.032232021   0.03364437            4 
  456000    1.0591726   -7.0907316    176.43081  0.032242473  0.033623572            1 
  457000    1.0967896   -7.0084742    176.75301  0.032230673   0.03360237            4 
  458000    1.0875377   -7.0654476    175.82499  0.031991447  0.033580439            2 
  459000    1.0479013   -7.0640456    176.47799  0.032040304  0.033557615            3 
  460000    1.0612849   -7.0645911     176.9305  0.032052627  0.033534948            1 
  461000    1.0569458   -7.0604578    177.32449  0.032054319  0.033513213            2 
  462000    1.0571331    -7.057355    178.25847  0.032153404  0.033491579            3 
  463000    1.0672126   -7.0823566    177.84886  0.032010234  0.033470078            2 
  464000    1.0709527   -7.0639123    178.46216  0.032051393  0.033448567            3 
  465000    1.0525795   -7.0759648    178.94662  0.032069286  0.033427417            2 
  466000    1.0529744   -7.0836863    179.51334  0.032101813   0.03340649            2 
  467000    1.0729386   -7.0819275    179.51394  0.032033181  0.033386398            1 
  468000    1.0751156    -7.067076    179.61699  0.031983083  0.033366151            4 
  469000    1.0567355   -7.0397369    180.48522  0.032069157  0.033345213            2 
  470000    1.0661473   -7.0703596     180.3955  0.031985017  0.033324682            3 
  471000    1.0657671   -7.0953904    180.42371  0.031922101  0.033303262            2 
  472000    1.0581963   -7.0835905    180.52906  0.031873069  0.033281227            5 
  473000    1.0759435   -7.0543936    181.12462   0.03191061  0.033259374            1 
  474000    1.0521599   -7.0736727    181.10037  0.031839025  0.033237318            2 
  475000    1.0605617     -7.10736    181.74446  0.031884993  0.033215547            2 
  476000    1.0817722   -7.1020092    181.99105  0.031861178  0.033194079            2 
  477000    1.0689951   -7.0838848    182.44397   0.03187351  0.033172258            4 
  478000    1.0586728   -7.0824454    182.68608  0.031849038  0.033150524            2 
  479000    1.0588568   -7.0943176    182.43503   0.03173887   0.03312886            2 
  480000    1.0681657   -7.0669174    183.29903  0.031822749  0.033107191            2 
  481000    1.0644084   -7.0707861    182.93928  0.031694262  0.033086153            1 
  482000    1.0746329   -7.0800867    183.35578  0.031700516  0.033064366            6 
  483000    1.0676345   -7.0689374    184.04035  0.031752993  0.033042654            2 
  484000    1.0829615   -7.0689294     184.0603  0.031690822  0.033020469            2 
  485000    1.0537033    -7.066362    184.00729  0.031616372  0.032998311            1 
  486000    1.0499896   -7.0442436    184.32483  0.031605767  0.032976013            4 
  487000    1.0681614   -7.0501793    185.15486  0.031682899  0.032953629            1 
  488000    1.0693647   -7.1196109    184.91754  0.031577449  0.032931375            1 
  489000    1.0806743   -7.0839518    185.80453  0.031664031  0.032909947            3 
  490000    1.0812206   -7.0901378    185.47393  0.031543185  0.032888201            3 
  491000    1.0712331    -7.082593    186.43778  0.031642528  0.032866176            5 
  492000    1.0556738   -7.1019546    185.68795  0.031451212  0.032844072            1 
  493000    1.0465708   -7.1209934    186.12095  0.031460607  0.032821753            2 
  494000    1.0599224   -7.0938986    186.62767    0.0314824   0.03279962            3 
  495000    1.0424881   -7.0867026    186.49202  0.031395962  0.032777377            6 
  496000    1.0490722   -7.0875276    187.52316  0.031505907  0.032755117            2 
  497000    1.0878734   -7.1210676    187.07929   0.03136809  0.032732618            1 
  498000    1.0598765   -7.0573946    187.91761  0.031445383  0.032709811            2 
  499000    1.0467414   -7.1214216    187.16704   0.03125702  0.032687371            5 
  500000    1.0745539   -7.0988101    187.57797  0.031262995  0.032664359            3 
  501000    1.0575629   -7.0804812    188.05847  0.031280518   0.03264162            2 
  502000    1.0600711   -7.0996795    188.03814  0.031214831  0.032619014            8 
  503000    1.0589502   -7.0687754    189.27327    0.0313574  0.032596641            2 
  504000    1.0424311   -7.0870141    189.42072  0.031319563  0.032574397            1 
  505000     1.052941   -7.0944127    188.99935  0.031188012  0.032551797            4 
  506000    1.0443978   -7.0717678    189.63506   0.03123107  0.032529189            1 
  507000    1.0432084   -7.1037201    190.38664  0.031293005  0.032506819            2 
  508000    1.0532254   -7.1339352    190.01947  0.031171174   0.03248382            4 
  509000    1.0535036   -7.0992129    189.85993  0.031083813  0.032461521            2 
  510000    1.0676428   -7.0573126     191.2025  0.031242239  0.032439172            3 
  511000    1.0315636   -7.0962973    190.95296  0.031140405  0.032416976            2 
  512000    1.0613067   -7.1158918    190.82521  0.031058791  0.032394291            2 
  513000    1.0508116   -7.1310462    191.07206  0.031038347  0.032371621            5 
  514000    1.0659552   -7.1187477    190.85677  0.030943056  0.032348584            2 
  515000    1.0520949   -7.1369847    191.89005   0.03105017  0.032325647            2 
  516000    1.0634097    -7.108986    191.64488    0.0309504  0.032302924            2 
  517000    1.0389561   -7.0867241    192.10196   0.03096421  0.032280061            6 
  518000     1.018376   -7.1014589    192.55683   0.03097761  0.032257358            2 
  519000    1.0319085   -7.1011975    192.73011  0.030945747  0.032234685            2 
  520000    1.0268605   -7.1235085    192.92349  0.030917226  0.032211701            1 
  521000    1.0506093   -7.1419746    192.48524  0.030787786  0.032189192            1 
  522000    1.0639817   -7.1542159    192.87334  0.030790763  0.032166125            3 
  523000     1.038077   -7.1205774    193.61593  0.030850211   0.03214318            1 
  524000    1.0370563    -7.118897    194.17895  0.030880876  0.032121121            2 
  525000    1.0399722   -7.1074292    193.61408  0.030732393   0.03209865            1 
  526000    1.0369196   -7.1049558    194.42219  0.030801995  0.032075671            2 
  527000    1.0707342   -7.0822136    194.59124  0.030770279  0.032052859            2 
  528000    1.0527629   -7.1089885     194.9795  0.030773279  0.032030252            2 
  529000    1.0253805   -7.1412681    194.79663    0.0306863  0.032007597            2 
  530000    1.0348398   -7.1292093    195.11523  0.030678495  0.031984053            2 
  531000    1.0617615    -7.118761    195.00138  0.030602852  0.031960349            5 
  532000    1.0443186   -7.1388869    195.59914  0.030638963  0.031936241            1 
  533000    1.0368854   -7.1430614    195.46145  0.030559951  0.031912625            1 
  534000    1.0323914   -7.0892979    196.16395  0.030612352  0.031889803            2 
  535000    1.0560498   -7.1124459    196.73253  0.030643696   0.03186677            2 
  536000    1.0312903   -7.1611898    195.72023   0.03042914  0.031843467            2 
  537000    1.0346667   -7.1193685    196.18154  0.030444063  0.031820326            1 
  538000    1.0395668   -7.1391485    196.72613  0.030471829  0.031797047            3 
  539000    1.0369062   -7.1172054    197.29983  0.030503994  0.031774104            2 
  540000    1.0563028   -7.0956036    197.56013  0.030487674  0.031751658            5 
  541000    1.0430523   -7.1123082      198.296   0.03054467  0.031729137            3 
  542000    1.0118497   -7.1507099    197.99618  0.030442216  0.031706227            1 
  543000    1.0279421   -7.1665433    198.39846  0.030447891   0.03168317            1 
  544000    1.0283493   -7.1500513    198.23962   0.03036759  0.031660465            1 
  545000     1.037408   -7.1343667    199.06381  0.030437891  0.031637505            1 
  546000      1.05989   -7.1132188    199.10753  0.030388817  0.031614732            2 
  547000    1.0423968   -7.1378825    199.73404  0.030428708  0.031591918            2 
  548000    1.0545379   -7.1288158    199.19083  0.030290576  0.031568748            1 
  549000    1.0450701   -7.1447081    199.03989  0.030212491  0.031545714            3 
  550000    1.0373248   -7.1629567    199.95358  0.030295997  0.031522365            2 
  551000    1.0227917     -7.14122    200.07672  0.030259636  0.031499241            3 
  552000    1.0325166   -7.1481063    200.02857  0.030197549  0.031476287            2 
  553000    1.0310531   -7.1609056    200.44772  0.030206106  0.031453308            3 
  554000    1.0084897   -7.1174232    200.79262  0.030203463  0.031430298            3 
  555000    1.0365241   -7.1063744     201.4983     0.030255  0.031407393            1 
  556000    1.0398936   -7.1272191     201.4581  0.030194559  0.031384834            3 
  557000    1.0508325   -7.1525079    202.14647  0.030243337  0.031362511            3 
  558000    1.0446497   -7.1316308    202.31411  0.030214174  0.031340586            4 
  559000    1.0451955   -7.1517778    202.26254  0.030152436  0.031318817            1 
  560000    1.0269938   -7.1374975    203.00988  0.030209803  0.031296563            1 
  561000    1.0255351   -7.1800231    202.52778   0.03008434  0.031274287            2 
  562000    1.0200889   -7.1523038    203.85219  0.030227194  0.031252611            3 
  563000    1.0135185   -7.1694381    203.27833  0.030088562  0.031231195            2 
  564000    1.0113719   -7.1636319    203.81442  0.030114424  0.031209197            2 
  565000    1.0384169    -7.163055    204.14969  0.030110573  0.031187513            2 
  566000    1.0234821   -7.1796757    204.16547  0.030059698  0.031165804            2 
  567000    1.0346164   -7.1255151    204.22345  0.030015204  0.031143538            7 
  568000    1.0418962   -7.1611204    204.42391  0.029991771  0.031121178            3 
  569000    1.0241561   -7.1572431    204.77759   0.02999086  0.031098877            6 
  570000    1.0454683   -7.1367836    204.85196  0.029949117   0.03107638            1 
  571000    1.0375749    -7.127196    205.22494    0.0299511  0.031054023            1 
  572000    1.0420027   -7.1604417    205.78608   0.02998049  0.031031768            2 
  573000    1.0418902   -7.1504057    205.18827  0.029841226  0.031009579            2 
  574000    1.0168862    -7.193568    205.50351  0.029835004  0.030986816            2 
  575000    1.0063235   -7.1589014    205.67188   0.02980752  0.030964324            2 
  576000    1.0151148   -7.1567343        205.7  0.029759839  0.030941567            1 
  577000    1.0169711   -7.1635536    206.43652  0.029814633  0.030919445            2 
  578000    1.0358449   -7.1494346    206.93657  0.029835146  0.030897195            2 
  579000    1.0367758   -7.1498119    206.43502  0.029711431  0.030874832            2 
  580000    1.0160438   -7.1964923     206.7927  0.029711595  0.030851987            1 
  581000    1.0188942   -7.1832192    207.60667  0.029777205  0.030829705            2 
  582000    1.0240434    -7.189809    207.62804    0.0297291   0.03080796            6 
  583000     1.027503   -7.1566321    208.02955    0.0297355  0.030786316            2 
  584000    1.0201879    -7.165122    207.98727  0.029678549  0.030764866            1 
  585000    1.0218909   -7.1795347    208.34158  0.029678288  0.030743076            3 
  586000    1.0083049   -7.1434263    209.00197  0.029721554  0.030721248            1 
  587000   0.99887107   -7.1686548    208.80187  0.029642514  0.030699079            2 
  588000    1.0376695   -7.1553504    209.26627  0.029657918  0.030677069            3 
  589000    1.0178475   -7.1504892    208.97211  0.029565946  0.030655105            2 
  590000    1.0087417   -7.2022323    209.57284  0.029600683  0.030632919            2 
  591000    1.0127631   -7.1416478    210.29186  0.029651982  0.030611034            1 
  592000    1.0427331   -7.1899234    210.48089  0.029628503  0.030589454            2 
  593000    1.0017394   -7.1977562    209.75244  0.029476172  0.030567553            3 
  594000    1.0145877   -7.1909922    210.59991  0.029545442  0.030545671            2 
  595000    1.0284024    -7.189063     210.3047   0.02945444  0.030524024            2 
  596000    1.0150741   -7.2016855    211.06653   0.02951154  0.030502456            1 
  597000    1.0268458   -7.1970904    210.80902  0.029426161  0.030480603            5 
  598000   0.99744388   -7.1488769    211.73902  0.029506552  0.030459001            2 
  599000    1.0151577   -7.1521389    212.00294  0.029494009  0.030437558            2 
  600000    1.0194342   -7.1594563    212.49035  0.029512549  0.030416292            3 
  601000     1.004162   -7.1859533    211.82077    0.0293706  0.030394819            2 
  602000    1.0209265   -7.1415524    213.05482  0.029492638  0.030373682            2 
  603000     1.020832   -7.2152904    212.80574  0.029409306   0.03035221            2 
  604000    1.0045283   -7.1848016    212.60319   0.02933267  0.030330303            2 
  605000    1.0265435   -7.1910635    212.65614  0.029291479  0.030308535            3 
  606000    1.0132689   -7.2043313     212.9938  0.029289576  0.030286468            2 
  607000    1.0226563   -7.1513102    213.96379   0.02937449  0.030264631            5 
  608000    1.0171502   -7.1892533    213.48084  0.029259983  0.030243068            2 
  609000   0.97556439   -7.1555532    213.96525  0.029278222  0.030221505            4 
  610000    1.0209379   -7.2176363    213.98673  0.029233159  0.030199471            2 
  611000    1.0269999   -7.1999071    213.98438  0.029184994  0.030177622            1 
  612000    1.0191363   -7.1700884     214.9053  0.029262704  0.030156204            2 
  613000    1.0191271   -7.1687957    215.55765   0.02930365  0.030135024            3 
  614000    1.0011238   -7.2354285    214.66551  0.029134841  0.030113964            2 
  615000   0.99576235   -7.1651416     214.6837  0.029089933  0.030092336            2 
  616000   0.99678823   -7.1557393     215.5562  0.029160741  0.030070698            4 
  617000    1.0020832   -7.1977052    215.87435  0.029156449  0.030049082            2 
  618000   0.99801305   -7.2346747    215.23913  0.029023615  0.030027146            2 
  619000    1.0082842   -7.1978203    216.29807  0.029119288  0.030005421            4 
  620000    1.0156494   -7.2135604    215.49073  0.028963807  0.029983747            3 
  621000    1.0173596   -7.2118294    216.57688   0.02906292  0.029962116            1 
  622000    1.0092803   -7.1886568    216.60517  0.029019986  0.029940588            3 
  623000    1.0118345   -7.2231791    216.05493  0.028899803  0.029919233            1 
  624000   0.99987023    -7.196745    216.86958  0.028962283  0.029897663            4 
  625000   0.96933334   -7.2052135    217.32699  0.028976933  0.029876401            3 
  626000    0.9979234   -7.2052583    216.83476  0.028865117  0.029854834            5 
  627000   0.99693109    -7.199584    217.39496  0.028893536  0.029833306            5 
  628000    1.0048657   -7.2062719    218.17111  0.028950519  0.029812123            1 
  629000   0.98340801   -7.2147141    218.02673  0.028885364  0.029790901            5 
  630000   0.98351031   -7.1742456    218.56832  0.028911154  0.029769696            2 
  631000    1.0124469   -7.2066872    218.63634  0.028874318  0.029748445            3 
  632000    1.0308999   -7.2022361     218.2664  0.028779852  0.029726955            1 
  633000    1.0022438   -7.2132707    218.60539  0.028779014  0.029705682            2 
  634000   0.99639896   -7.2082725    219.06704    0.0287943  0.029684032            3 
  635000    1.0227375   -7.1973076    219.72057   0.02883472  0.029662664            1 
  636000     1.000795   -7.2283282     218.6389  0.028647655  0.029641048            4 
  637000    1.0065576   -7.2167886    219.66091  0.028736383  0.029618969            2 
  638000    1.0055385   -7.2392001    219.25755  0.028638656  0.029597089            5 
  639000   0.99190157   -7.1817681    219.71692  0.028653746     0.029575            2 
  640000   0.99996678    -7.247062    219.66359   0.02860203  0.029553299            2 
  641000    1.0212627   -7.2099265    220.57109  0.028675388  0.029531221            1 
  642000    0.9995084   -7.2211164    219.75366  0.028524619  0.029509125            2 
  643000    1.0026091   -7.2288989    219.99211   0.02851116  0.029486804            1 
  644000   0.97802531   -7.2119494    220.44981  0.028526114  0.029464041            3 
  645000   0.99829492   -7.2354218    219.98828  0.028422258  0.029441297            2 
  646000   0.99024924   -7.2201506    220.13431  0.028397099  0.029418512            2 
  647000   0.98081193   -7.2982329    219.84092   0.02831542  0.029395676            3 
  648000   0.98082131   -7.2399479    220.85203  0.028401752  0.029372739            3 
  649000   0.98577499   -7.2436512    220.55783  0.028320215  0.029350166            1 
  650000   0.99421867   -7.2574136    221.08222  0.028343874    0.0293277            2 
  651000     1.010804   -7.2070951    220.88769  0.028275434  0.029305159            2 
  652000    1.0138206   -7.2002098     221.8943  0.028360724  0.029282783            2 
  653000   0.98833681   -7.1982881     221.7861  0.028303484   0.02926062            1 
  654000   0.97786356   -7.2197603    221.96261  0.028282697  0.029238347            2 
  655000    1.0017553   -7.2307557    221.92463  0.028234686  0.029215986            2 
  656000   0.99762623   -7.2539528    222.68703  0.028288495  0.029193258            2 
  657000   0.99690072   -7.2265436    222.86951  0.028268583   0.02917091            2 
  658000    1.0003792   -7.2656325    222.90282   0.02822984  0.029148877            2 
  659000   0.99224429   -7.2254743     223.7325   0.02829192  0.029127307            2 
  660000    1.0045758   -7.2449997    223.75561  0.028251971  0.029105601            6 
  661000   0.98993385   -7.2695189    223.28323  0.028149676   0.02908372            2 
  662000   0.97076031   -7.2657921    223.95471  0.028191681  0.029061573            1 
  663000   0.97859745   -7.2306295    224.18879  0.028178581  0.029039998            3 
  664000   0.99160269     -7.22629    224.56295  0.028183101  0.029018353            2 
  665000   0.98013505   -7.2295536    224.30731  0.028108686  0.028997079            5 
  666000    1.0125948   -7.2863958    224.60131  0.028103267  0.028975736            2 
  667000   0.98564035   -7.2429928    225.81933   0.02821331  0.028954675            1 
  668000    0.9841065   -7.2222801    225.65393   0.02815044  0.028933528            3 
  669000   0.99603467   -7.2197981    225.30169  0.028064485  0.028912234            3 
  670000   0.96238594   -7.2494454    226.12934   0.02812554  0.028890781            1 
  671000   0.99918534   -7.2481145    226.17008  0.028088683  0.028869466            3 
  672000    1.0024197   -7.2303274     225.4944  0.027963096  0.028847936            2 
  673000   0.95584563   -7.2624682    226.15645  0.028003522  0.028826491            4 
  674000   0.99801652   -7.2515799    226.64954  0.028022941  0.028805142            3 
  675000   0.99049035   -7.2497935    227.03386  0.028028871  0.028784127            4 
  676000   0.99889934   -7.2401809    227.27046  0.028016575  0.028763018            2 
  677000   0.97809909   -7.2617596    227.11376  0.027955904  0.028741916            1 
  678000   0.98257702   -7.2734796     227.3903   0.02794866  0.028721415            2 
  679000   0.99505464    -7.251685      227.871  0.027966495  0.028700674            4 
  680000   0.98769312   -7.3144523    227.80764  0.027917603  0.028679812            1 
  681000   0.97440285   -7.2576222    227.55016    0.0278451   0.02865914            3 
  682000    1.0198748   -7.2868198     227.6037  0.027810814  0.028637789            1 
  683000   0.97104546   -7.2685314    228.39774  0.027866976  0.028616456            3 
  684000   0.98172471   -7.2993968    227.66731  0.027737245  0.028595018            2 
  685000   0.97563713   -7.2639307    228.41386  0.027787574  0.028573782            4 
  686000   0.98273472   -7.2941759    228.42194  0.027748049  0.028552494            5 
  687000   0.97539486   -7.2957563    228.96055  0.027772992  0.028531317            3 
  688000   0.98177379     -7.26817    229.46683  0.027793947  0.028510422            2 
  689000   0.97973847   -7.2648927     229.9084  0.027807015  0.028489835            2 
  690000   0.98083348    -7.264338    229.80043  0.027753675  0.028469432            2 
  691000   0.96347878    -7.277374    230.13274  0.027753586  0.028448677            1 
  692000   0.98289337   -7.2810869    229.52193  0.027639925  0.028428256            3 
  693000   0.98637181   -7.2262178    230.79566  0.027753206  0.028407633            3 
  694000   0.96865029   -7.2667785    231.06949  0.027746096  0.028387438            1 
  695000   0.96218669   -7.2789589    230.91894  0.027688122  0.028367137            1 
  696000   0.99022096   -7.2620523    231.27588  0.027691078  0.028346902            2 
  697000   0.95902211   -7.2530557    231.94577  0.027731441  0.028326676            1 
  698000   0.97712877   -7.2697301    231.54634  0.027644024  0.028306393            4 
  699000   0.96827911   -7.3203647     231.1484  0.027557034  0.028285663            2 
  700000   0.98288964   -7.2419517    231.83849   0.02759982  0.028265176            2 
  701000   0.97361483   -7.2960025    231.89045  0.027566625  0.028244736            3 
  702000   0.97634214   -7.2777082    231.37712   0.02746642  0.028224318            1 
  703000   0.98620261   -7.2862241    231.98561  0.027499479  0.028203686            2 
  704000   0.96454698   -7.2725321    232.29177  0.027496658  0.028183315            1 
  705000   0.95409996   -7.2993295    232.52962   0.02748577  0.028162802            5 
  706000   0.97316897   -7.2626895    232.67867  0.027464433  0.028142104            2 
  707000   0.96548335   -7.3071172    232.45755  0.027399522  0.028121513            3 
  708000   0.97081507   -7.2669238    232.74262  0.027394377  0.028100795            1 
  709000   0.96892063    -7.240252    233.36304   0.02742866  0.028080229            1 
  710000   0.97340863   -7.2655502    233.78976  0.027440113  0.028059579            3 
  711000   0.95586211   -7.2826044    233.74704  0.027396512  0.028039124            1 
  712000   0.97849943   -7.2881024     234.1307  0.027402937  0.028018789            4 
  713000   0.96932494   -7.2965442    233.61182  0.027303859  0.027998165            3 
  714000   0.96349762   -7.2657843     234.6376  0.027385341  0.027977792            2 
  715000   0.97157848   -7.2551019    235.19479  0.027411981  0.027957521            1 
  716000   0.95668746   -7.2634214    234.87983  0.027337038  0.027937367            3 
  717000   0.95268229   -7.2890676    234.40777  0.027244045  0.027916844            2 
  718000   0.94049841   -7.3008147    234.96028  0.027270228  0.027896416            5 
  719000   0.97060587    -7.250237    235.11885  0.027250677  0.027876401            5 
  720000   0.96153795   -7.2880748    235.50581  0.027257617  0.027856555            4 
  721000   0.97264476   -7.2838469    236.23827   0.02730447  0.027837174            3 
  722000   0.96258527   -7.3172778    236.83811  0.027335885  0.027817708            4 
  723000   0.97111451   -7.2733898    236.84573  0.027298955  0.027798222            3 
  724000   0.97161055   -7.2872539     236.7889  0.027254708  0.027778494            2 
  725000   0.97884124   -7.2993768    236.72877  0.027210204  0.027758669            3 
  726000   0.95757893   -7.2990402    236.52513  0.027149349  0.027738939            2 
  727000   0.95391849   -7.3199156    236.64295   0.02712551  0.027719317            3 
  728000   0.96606393   -7.2861276    236.79619  0.027105791  0.027699597            3 
  729000   0.97600947   -7.2960466    236.97103  0.027088595  0.027679795            1 
  730000    0.9696224    -7.281803    237.45717  0.027106983  0.027660161            1 
  731000   0.97099392    -7.293592    237.94955  0.027126031  0.027640651            2 
  732000    0.9622422   -7.2959395    237.88316  0.027081417  0.027620996            2 
  733000   0.95495783   -7.3050312    237.86231  0.027042099  0.027601243            2 
  734000   0.96932886   -7.2882184    237.98995  0.027019749  0.027581497            2 
  735000   0.96750489    -7.307287    237.70331  0.026950488  0.027561572            3 
  736000   0.93580985   -7.3249921    238.48804  0.027002722  0.027541741            3 
  737000   0.95887005   -7.3225904    237.70591  0.026877647  0.027521768            1 
  738000   0.96377289   -7.2756862    238.55229  0.026936799  0.027501673            2 
  739000   0.97292421   -7.3332181    238.54099  0.026899075   0.02748164            1 
  740000   0.93149553   -7.2966417    238.99408  0.026913747  0.027461756            3 
  741000   0.97071288   -7.3201699    239.03712  0.026882267  0.027441743            1 
  742000   0.95729281   -7.3052204    238.84001  0.026823901  0.027421603            2 
  743000   0.98388958   -7.2633195    239.68755  0.026882857   0.02740177            4 
  744000   0.94228312   -7.3183522    239.84205  0.026864029  0.027382267            1 
  745000   0.95915557   -7.2852357    240.07441  0.026853961  0.027362761            3 
  746000   0.96553791   -7.3322964    239.35223  0.026737291  0.027343168            2 
  747000   0.97377841   -7.3145873    240.44047  0.026822899  0.027323479            1 
  748000   0.97088486   -7.2989175    239.90278  0.026727137  0.027303585            3 
  749000    0.9529048   -7.3164625    240.30156  0.026735821   0.02728377            1 
  750000    0.9671273   -7.3072772    240.47602  0.026719557  0.027264169            2 
  751000   0.97313781   -7.3097944    240.62619  0.026700642  0.027244442            2 
  752000   0.93447882    -7.294699    240.90672  0.026696223  0.027224866            2 
  753000   0.95125303   -7.3309865    241.02872  0.026674272  0.027205049            3 
  754000   0.95489037   -7.3159032    241.21662  0.026659662  0.027185107            2 
  755000   0.94893518   -7.3122199    241.06088  0.026607161  0.027165099            2 
  756000   0.95295775   -7.3391324     241.2022  0.026587544  0.027145141            2 
  757000   0.95344968   -7.3344763    240.98652  0.026528679  0.027125052            1 
  758000   0.94993135   -7.3300533    240.62769  0.026454232   0.02710479            3 
  759000   0.95341486   -7.3303554    242.04332  0.026574804  0.027084668            3 
  760000   0.94540727   -7.3124663    242.05069  0.026540646  0.027064825            1 
  761000   0.93300393    -7.317181    241.87965  0.026487041   0.02704503            3 
  762000    0.9540217   -7.3495121    241.53656  0.026414759  0.027024867            3 
  763000   0.92338249   -7.3359384    241.70748  0.026398808  0.027004814            4 
  764000   0.96708116   -7.3628826    241.68358  0.026361647  0.026984568            3 
  765000    0.9322834   -7.3297308    242.42188  0.026407613  0.026964319            2 
  766000   0.94568175   -7.3135358    242.79115  0.026413311  0.026944163            3 
  767000   0.96352817   -7.3193273    243.91691  0.026501185  0.026924258            1 
  768000    0.9483519   -7.3413861    242.99542  0.026366691  0.026904571            2 
  769000   0.95649938    -7.321389    243.44151  0.026380744  0.026884721            1 
  770000   0.95388409   -7.3286249    243.83914  0.026389517  0.026864929            4 
  771000   0.93698632   -7.3576578    242.99402  0.026263945  0.026844942            2 
  772000   0.94674571   -7.3276854    243.44689   0.02627881  0.026824771            9 
  773000   0.94441235   -7.3557089     243.4729  0.026247618  0.026804746            4 
  774000   0.92939893   -7.3400175    243.58561  0.026225841  0.026784859            2 
  775000   0.94773324   -7.3401951    243.17389   0.02614773  0.026764756            1 
  776000   0.95802204   -7.3738865    243.89824  0.026191822  0.026744709            3 
  777000   0.94416361   -7.3501109    244.22034  0.026192658  0.026724636            4 
  778000    0.9423069   -7.3507633    244.09341  0.026145395  0.026704515            1 
  779000   0.95290757   -7.3398614    243.74555   0.02607462  0.026684428            6 
  780000   0.93485677     -7.34966    244.11314  0.026080463  0.026664093            3 
  781000   0.95315534   -7.3564794    243.79362  0.026012977  0.026643541            2 
  782000   0.94522497   -7.3630201    244.58537  0.026064085  0.026623022            5 
  783000   0.93430029   -7.3743586    244.11025  0.025980231  0.026602436            2 
  784000   0.92811913    -7.342255    245.29778  0.026073318  0.026581933            3 
  785000   0.93330616   -7.3536915    244.00119  0.025902462   0.02656134            2 
  786000    0.9284698   -7.3634125    244.19542    0.0258901  0.026540653            3 
  787000   0.94635825    -7.376709    244.33738  0.025872234  0.026519978            3 
  788000   0.95020737   -7.3442683    244.91562  0.025900552  0.026499261            2 
  789000   0.93636234   -7.3487422    245.27667  0.025905859  0.026478577            5 
  790000    0.9243158   -7.3405489    245.16146  0.025860913  0.026458118            2 
  791000   0.94916428   -7.3554219    245.55128  0.025869288  0.026437622            2 
  792000   0.92397308    -7.341676    245.21613  0.025801361  0.026417174            3 
  793000   0.91787907   -7.3580709    245.76443  0.025826443  0.026396841            4 
  794000   0.93901916   -7.3444062    245.72454  0.025789729  0.026376773            4 
  795000   0.92535088   -7.3786525    246.13285  0.025800089  0.026356644            3 
  796000   0.91804539   -7.3744084    245.99315  0.025753052  0.026336233            1 
  797000   0.96158782   -7.3451658    246.28423  0.025751174  0.026315845            2 
  798000   0.94736798   -7.3685365    245.61242  0.025648749  0.026295566            3 
  799000   0.93796008   -7.3759422    246.43563  0.025702506  0.026275277            2 
  800000   0.93960906   -7.3774032     246.5078  0.025677896  0.026255077            2 
  801000   0.94404098   -7.3607633     246.4284  0.025637578  0.026234727            3 
  802000   0.90739018   -7.3528707     246.2654  0.025588674  0.026214436            2 
  803000   0.94745629    -7.352375    246.98658   0.02563165  0.026194105            1 
  804000   0.94758283   -7.3652399    247.94279  0.025698879  0.026174004            1 
  805000   0.93093102   -7.3544864    247.71083  0.025642943   0.02615394            2 
  806000   0.92873528   -7.3997847    247.63695  0.025603489  0.026133908            3 
  807000   0.92648413   -7.3767694    247.64787   0.02557289  0.026113794            2 
  808000   0.92345848   -7.3502228    248.68446  0.025648149  0.026093817            2 
  809000   0.92854604     -7.38124    247.58407  0.025503098  0.026073866            5 
  810000   0.93250975   -7.3567654    248.77556  0.025594193  0.026054062            2 
  811000    0.9215422   -7.3452716    248.84201  0.025569462  0.026034436            2 
  812000   0.92710215   -7.3638133    249.24144  0.025578965  0.026014583            2 
  813000   0.94291882   -7.3783831    249.07501  0.025530444   0.02599494            1 
  814000   0.92994205     -7.40277     248.5411   0.02544442  0.025975308            3 
  815000    0.9216561    -7.335313    249.79641  0.025541555  0.025955748            2 
  816000   0.92435445     -7.39607     249.5411  0.025484181  0.025936146            5 
  817000   0.92209954   -7.3849441    249.94037  0.025493713  0.025916565            4 
  818000   0.91886822    -7.371492    249.76922  0.025445112  0.025897223            1 
  819000   0.93620123   -7.3747421    249.63096  0.025399976  0.025877681            1 
  820000   0.92083115   -7.3300898    250.28538  0.025435506  0.025858118            8 
  821000   0.91484375     -7.36558    249.69028  0.025344121  0.025838349            3 
  822000   0.91897188   -7.3645182    250.06441  0.025351218  0.025818501            2 
  823000   0.93242111   -7.3814978    250.44974  0.025359431  0.025799051            3 
  824000   0.91330095   -7.3562194    251.07263  0.025391649  0.025779596            3 
  825000   0.91947661   -7.3811837    251.29943  0.025383781  0.025759981            3 
  826000   0.91983567   -7.3920304    250.68171   0.02529073   0.02574043            3 
  827000   0.88999948   -7.3826195    250.84812  0.025276916  0.025720804            2 
  828000   0.93714221   -7.3787994    250.55921  0.025217312  0.025701121            2 
  829000   0.91408213   -7.3808496    251.15229   0.02524651  0.025681569            3 
  830000   0.90959932   -7.3546446    251.65168  0.025266233  0.025662041            2 
  831000   0.91672573   -7.3591477    251.56671  0.025227307  0.025642429            3 
  832000   0.91364769   -7.3885659     251.3991  0.025180198  0.025622883            2 
  833000   0.93522798    -7.361147     251.6232  0.025172388  0.025603464            3 
  834000   0.90825952   -7.4071884    251.38545  0.025118451  0.025584152            2 
  835000   0.92258433   -7.3836965    252.07108  0.025156795  0.025564998            3 
  836000   0.92051627   -7.3679826    252.64369  0.025183781  0.025545703            2 
  837000   0.93063534    -7.407464    252.86729  0.025175954  0.025526392            3 
  838000   0.92132563    -7.381089    252.74819  0.025134069  0.025507145            2 
  839000   0.91269019   -7.4073558    253.82727   0.02521129   0.02548816            2 
  840000   0.91013575     -7.39267    253.37689  0.025136597  0.025469372            2 
  841000   0.89958249    -7.395817    253.43643  0.025112607  0.025450642            2 
  842000   0.91348041   -7.4195814    253.11258   0.02505073  0.025431912            1 
  843000   0.91958007   -7.3853427    253.52606  0.025061889  0.025413001            4 
  844000    0.9289466    -7.404001    253.04985  0.024985175  0.025393966            2 
  845000   0.92972114   -7.4286343    253.27996  0.024978299   0.02537488            2 
  846000   0.91782019   -7.3751571     253.7894  0.024998956  0.025355713            1 
  847000   0.90848452   -7.4134699    253.57956  0.024948796  0.025336632            7 
  848000   0.93532515   -7.4061365    253.85685  0.024946625  0.025317455            2 
  849000   0.90410608   -7.4285274    254.17563  0.024948531  0.025298354            6 
  850000   0.93345513   -7.4357855    254.23473  0.024924973  0.025279231            7 
  851000   0.91275903   -7.3978099    254.79103  0.024950159  0.025260154            2 
  852000   0.92055729   -7.4143113    255.02864  0.024944116  0.025241362            3 
  853000      0.90665    -7.430628     254.5676  0.024869832  0.025222571            3 
  854000   0.92110659   -7.4248794    254.86681  0.024869907  0.025204025            1 
  855000   0.92624356   -7.3718803    255.72491  0.024924455   0.02518551            1 
  856000   0.91964021   -7.4137015    255.81356  0.024903968  0.025167191            1 
  857000   0.91320293   -7.4089284     256.1478  0.024907409  0.025148938            2 
  858000   0.91074304   -7.4151742    255.88715  0.024853065  0.025130585            4 
  859000   0.92482119   -7.4166316    257.10241  0.024942027   0.02511228            3 
  860000    0.9121173    -7.390756    256.48368   0.02485307  0.025094095            6 
  861000   0.90426533   -7.4119563    257.14785  0.024888487  0.025075945            3 
  862000   0.89539536   -7.4048884    257.05851  0.024850977  0.025057685            2 
  863000   0.90976822   -7.4154967    257.31672  0.024847115  0.025039599            2 
  864000   0.92738386    -7.386289    257.87309  0.024872019  0.025021526            3 
  865000   0.93276833   -7.4001268    256.90296  0.024749803  0.025003329            2 
  866000   0.91524321   -7.4193753    257.12394  0.024742488   0.02498501            3 
  867000   0.90851236   -7.4403849    256.60524  0.024664095  0.024966449            2 
  868000   0.92483883   -7.4145016    256.86437  0.024660557  0.024947718            2 
  869000   0.90883515   -7.3983129    256.79479  0.024625507  0.024929091            4 
  870000   0.91275854    -7.421651    256.96909  0.024613898  0.024910587            2 
  871000   0.90946562   -7.4135362    256.78213  0.024567751  0.024891968            3 
  872000   0.89322336   -7.4432196    257.41282  0.024599849  0.024873349            1 
  873000   0.90132378   -7.4209347    258.14509  0.024641571  0.024854686            3 
  874000   0.90311121   -7.4165039    257.90705  0.024590679  0.024836087            4 
  875000   0.88009217   -7.4067561    258.12198  0.024583046  0.024817398            3 
  876000   0.90704676   -7.4367529    257.86053  0.024530111   0.02479886            1 
  877000   0.91159575   -7.4195267    257.83206  0.024499435  0.024780383            2 
  878000   0.89384498   -7.3977841    258.70034  0.024553943  0.024762063            2 
  879000   0.90396443   -7.4104735    259.29347   0.02458224  0.024743952            6 
  880000    0.9033036    -7.423327    258.78577  0.024506228  0.024725674            2 
  881000   0.91105628   -7.4477003    258.14831  0.024418115  0.024707325            3 
  882000   0.89477035   -7.4295179    258.73127  0.024445509  0.024688959            2 
  883000   0.89177206   -7.4378866    259.21309  0.024463296  0.024670612            4 
  884000   0.88195347   -7.4248495    259.20158  0.024434538  0.024652212            2 
  885000   0.88858389   -7.4318914    259.34165  0.024420117  0.024633889            5 
  886000   0.88812551   -7.4375153     258.9873  0.024359227  0.024615601            2 
  887000   0.89270613   -7.4396226    259.42619  0.024372998   0.02459737            1 
  888000   0.91614747   -7.4524272    259.14146  0.024318831   0.02457935            3 
  889000   0.89893273   -7.4278636    259.94758   0.02436704  0.024561363            3 
  890000   0.89834646   -7.4048063    260.42269  0.024384147   0.02454351            4 
  891000   0.90087529   -7.4338963    259.86728  0.024304833  0.024525468            2 
  892000   0.88512172   -7.4561839    260.02162  0.024292005  0.024507304            2 
  893000   0.91024591   -7.4510001    260.01515  0.024264198  0.024489081            2 
  894000   0.91498014     -7.44287    260.19131  0.024253478   0.02447086            2 
  895000   0.91531754   -7.4427936    259.73888  0.024184253  0.024452591            2 
  896000   0.90053164   -7.4591537     260.2108  0.024201154  0.024434301            1 
  897000   0.88106522   -7.4529311    260.72127  0.024221597   0.02441613            3 
  898000    0.8790511   -7.4518897    260.91416  0.024212525  0.024398176            1 
  899000   0.89330263   -7.4062813    261.11706  0.024204399  0.024380071            1 
  900000   0.89057512   -7.4525345    260.71837   0.02414059  0.024362155            2 
  901000   0.87526163   -7.4534847    261.09697  0.024148814  0.024344243            2 
  902000   0.89298782   -7.4482448    261.16044  0.024127905  0.024326289            2 
  903000   0.88820473   -7.3929244    261.65311  0.024146651  0.024308248            2 
  904000   0.89759711   -7.4601638    261.43688  0.024100008   0.02429037            2 
  905000   0.88337428   -7.4478974      262.321  0.024154788  0.024272497            3 
  906000   0.89489425   -7.4614191    262.54909  0.024149107  0.024254677            2 
  907000     0.900289   -7.4471144    262.18171  0.024088727  0.024236867            3 
  908000   0.88795705   -7.4595114    262.90314  0.024128409  0.024219274            2 
  909000    0.8818014   -7.4553501    262.47727  0.024062823  0.024201673            2 
  910000   0.89194456    -7.459002    262.74194  0.024060618  0.024184018            2 
  911000   0.88623762   -7.4460633    263.10946  0.024067825  0.024166515            2 
  912000   0.88125022   -7.4668105     262.7029  0.024004285   0.02414897            2 
  913000   0.88670608   -7.4509573    263.37316  0.024039172  0.024131409            2 
  914000   0.87174851   -7.4936524    263.68028  0.024040872  0.024113866            4 
  915000   0.88778965   -7.5047525    263.45093  0.023993709  0.024096201            3 
  916000   0.91280747   -7.4515321    263.25106  0.023949332  0.024078536            2 
  917000   0.86789406   -7.4699708    263.77607  0.023970926  0.024060883            2 
  918000   0.88526698   -7.5020155    262.75022   0.02385169  0.024043156            2 
  919000    0.8937071   -7.4986746    263.16469   0.02386332  0.024025235            5 
  920000   0.89242184    -7.498188    263.40016   0.02385871  0.024007421            3 
  921000   0.89341607    -7.475303    263.56611   0.02384782  0.023989745            4 
  922000   0.87440837   -7.4620935    263.44747  0.023811232  0.023971969            2 
  923000    0.8683413   -7.4696699    263.82153  0.023819206  0.023954097            3 
  924000   0.89900167   -7.4978716    263.26376  0.023743124  0.023936173            2 
  925000   0.88455363   -7.4584969    264.27091   0.02380819  0.023918493            3 
  926000   0.87912084   -7.5011314    263.76875  0.023737289  0.023900832            4 
  927000   0.86858552   -7.4661241    264.81714  0.023805928  0.023883212            2 
  928000   0.87381386   -7.4694046    264.60829   0.02376152  0.023865588            2 
  929000   0.88561123    -7.491407    264.15414  0.023695205  0.023847923            3 
  930000   0.86680551   -7.4899937    265.01695  0.023747039  0.023830266            3 
  931000   0.88324523   -7.4667599    264.70893  0.023693961  0.023812702            2 
  932000   0.88749397   -7.4950726    264.21892  0.023624725  0.023795057            3 
  933000   0.85496864   -7.4747237    265.59133  0.023721984  0.023777433            6 
  934000   0.86792791   -7.4749009    265.09111  0.023651955   0.02375981            3 
  935000   0.88209265   -7.4666879    265.56975  0.023669318  0.023742207            3 
  936000   0.89070799   -7.4825339    265.57803  0.023644767  0.023724651            5 
  937000   0.87111461   -7.4807344    265.99372  0.023656503   0.02370725            1 
  938000    0.8693617   -7.5079591    265.63157  0.023599109  0.023689807            2 
  939000   0.86270953   -7.4997755     265.0493  0.023522302  0.023672052            2 
  940000   0.89990556   -7.4893378    265.97693  0.023579515  0.023654533            4 
  941000   0.88584716    -7.471791    266.59469  0.023609165  0.023637104            2 
  942000    0.8948221   -7.4729336    266.23026  0.023551863  0.023619779            8 
  943000   0.88851851   -7.4767788    266.07504   0.02351317  0.023602277            1 
  944000   0.87594796   -7.4508586    266.58093  0.023532921  0.023584809            2 
  945000   0.88226568    -7.452616    266.71662  0.023519984  0.023567336            1 
  946000   0.87550154   -7.5129925     266.2431  0.023453409  0.023549941            2 
  947000   0.88056685   -7.4869874    266.73632  0.023472045  0.023532445            4 
  948000    0.8681586    -7.479153    266.33549  0.023412051  0.023514877            2 
  949000    0.8728039   -7.4911544    266.83856  0.023431556  0.023497452            5 
  950000   0.86539234   -7.4868684     266.6373  0.023389237  0.023479928            2 
  951000   0.86867197   -7.4939824    266.80289  0.023379153  0.023462367            1 
  952000   0.86815854   -7.4746216    266.96124  0.023368456  0.023444987            2 
  953000   0.88008517   -7.4994261    267.36263  0.023379033  0.023427711            2 
  954000   0.84958026   -7.4887368    267.09804  0.023331415  0.023410334            3 
  955000   0.88252035   -7.4692932    267.64091  0.023354355  0.023393052            2 
  956000   0.86799467   -7.5317087    267.69441  0.023334589  0.023375769            3 
  957000    0.8647146   -7.5376026    267.60873  0.023302746  0.023358391            1 
  958000   0.86556992   -7.5227593     267.8545    0.0232998  0.023340975            1 
  959000    0.8725326    -7.505022    267.41287  0.023237128  0.023323717            3 
  960000   0.88082757   -7.5127081    268.52446  0.023309415  0.023306474            2 
  961000   0.87460085   -7.5018355    267.87328  0.023228692  0.023289313            3 
  962000   0.87109865   -7.4726848    268.06617  0.023221255  0.023272257            3 
  963000   0.86674548   -7.5049174    267.65203  0.023161304  0.023255099            2 
  964000   0.86990973   -7.5127807     268.0694  0.023173358  0.023237831            3 
  965000     0.879997   -7.4975518    268.34427   0.02317308  0.023220493            2 
  966000   0.85862957   -7.4883278    268.14939   0.02313228  0.023203237            2 
  967000   0.87968676   -7.5164532    268.20949  0.023113538  0.023185766            3 
  968000   0.84226694   -7.4942104    268.42571  0.023108274  0.023168293            2 
  969000   0.86895798   -7.5556085    268.03795  0.023051079  0.023150645            3 
  970000   0.84882713   -7.5471104    267.74592  0.023002227  0.023133017            1 
  971000   0.87416923   -7.5344693    268.86249  0.023074364  0.023115419            3 
  972000   0.86316554   -7.5176577    269.03227  0.023065181  0.023098114            1 
  973000   0.86040697   -7.5611459    268.72367  0.023015045  0.023080936            7 
  974000   0.85994031   -7.4792796    269.46868  0.023055158  0.023063633            3 
  975000   0.84203961   -7.5129047     269.5371  0.023037359  0.023046573            3 
  976000   0.84002179    -7.509609    270.52034  0.023097706  0.023029693            2 
  977000   0.85022066   -7.5043973    269.74258  0.023007726    0.0230127            2 
  978000   0.85249138   -7.5263754    269.90985  0.022998454  0.022995842            1 
  979000   0.85205493   -7.5021342    270.08865  0.022990182  0.022978918            6 
  980000    0.8431748   -7.5512209    270.21064  0.022977095  0.022962112            3 
  981000   0.86854711    -7.536889    270.63508  0.022989728  0.022945258            3 
  982000   0.85817752   -7.5589474    270.71443  0.022973051   0.02292838            3 
  983000   0.86033026   -7.5470268    269.69065   0.02286289  0.022911528            1 
  984000   0.87716588   -7.5213117     270.4082  0.022900423  0.022894547            2 
  985000   0.86023368   -7.5107209    271.00427  0.022927603  0.022877695            3 
  986000   0.87715668   -7.5314756    270.88914   0.02289462   0.02286084            2 
  987000   0.85209508   -7.5413191    270.96026  0.022877428  0.022843961            2 
  988000   0.86563114   -7.5401144    270.62838   0.02282628  0.022826965            2 
  989000   0.86481503   -7.5489975    270.65427  0.022805382  0.022810207            1 
  990000   0.83630079   -7.5291962    270.89064  0.022802243  0.022793332            1 
  991000   0.86032889   -7.5081979     270.9862  0.022787269  0.022776524            2 
  992000   0.85100303   -7.4806906    270.90861   0.02275778  0.022759745            3 
  993000   0.85639012   -7.5442691    271.08225  0.022749434  0.022742883            5 
  994000   0.84514691      -7.5463    271.06813  0.022725363  0.022725995            4 
  995000   0.85538716   -7.5330805    270.80454  0.022680447  0.022709113            3 
  996000   0.87223684   -7.5341549    271.63841  0.022727444  0.022692226            5 
  997000   0.85051902   -7.5357997    272.07555  0.022741186  0.022675402            3 
  998000   0.87486496   -7.5314644    272.07228  0.022718126   0.02265865            3 
  999000   0.86183087   -7.5049409    272.97648  0.022770811  0.022641999            2 
 1000000   0.86395197   -7.5598484    272.34849  0.022695707  0.022625533            4 
 1001000   0.84944459   -7.5440129    272.74781  0.022706278  0.022608963            4 
 1002000   0.86464698   -7.5719741    273.08745  0.022711863  0.022592421            4 
 1003000   0.83962434   -7.5443312    272.46531   0.02263753  0.022575831            3 
 1004000    0.8395359   -7.5740536    273.18032  0.022674329  0.022559373            2 
 1005000   0.87049835   -7.5653693    272.94733  0.022632449   0.02254295            2 
 1006000   0.84960795   -7.5562103    274.00957  0.022697943  0.022526596            7 
 1007000   0.84978663   -7.5430987    273.27486  0.022614602  0.022510161            2 
 1008000   0.86277187   -7.5392329    273.39547  0.022602139  0.022493727            2 
 1009000   0.84989052   -7.5845955    273.15652  0.022560004  0.022477248            5 
 1010000   0.83621037   -7.5276636    273.52349  0.022567945  0.022460949            3 
 1011000   0.83186146   -7.5233697    273.16782  0.022516305  0.022444477            2 
 1012000   0.83900981   -7.5480531    273.93727  0.022557417   0.02242806            6 
 1013000   0.83814349   -7.5724911    274.07628  0.022546584  0.022411702            3 
 1014000   0.86301122   -7.5630311    274.35321  0.022547108  0.022395436            5 
 1015000     0.836431   -7.5692425    273.91654  0.022489043  0.022379141            3 
 1016000   0.84143974   -7.5438437    274.51146  0.022515704  0.022362877            2 
 1017000   0.83461849   -7.5448575    274.56211  0.022497714  0.022346502            7 
 1018000   0.82451329   -7.5523024      274.153  0.022442125  0.022330173            3 
 1019000   0.84997014   -7.5450958    274.46914  0.022445955  0.022313818            3 
 1020000   0.83528058   -7.5949219    274.80242  0.022451178  0.022297436            3 
 1021000   0.85459908   -7.5728816    274.97902  0.022443603  0.022281079            2 
 1022000   0.85691841   -7.5495186    274.74788  0.022402795  0.022264784            4 
 1023000     0.851241   -7.5595855     275.4681  0.022439565  0.022248525            4 
 1024000   0.85743373   -7.5752301    275.19673  0.022395567    0.0222322            3 
 1025000   0.84954986   -7.5390508    275.31921  0.022383676     0.022216            5 
 1026000   0.83170858   -7.5435513    275.53382   0.02237929  0.022199875            1 
 1027000   0.83281313   -7.5706813    275.09112  0.022321578  0.022183808            3 
 1028000   0.86042369   -7.5668659    276.01388  0.022374666  0.022167698            1 
 1029000   0.82269043   -7.5781521    275.48908  0.022310421  0.022151603            2 
 1030000   0.85624882   -7.5696021    275.37713  0.022279703  0.022135563            2 
 1031000   0.84686808   -7.5823697    274.68979  0.022202537  0.022119516            3 
 1032000   0.84281218   -7.5725429    275.34223  0.022233707  0.022103387            2 
 1033000   0.83773039   -7.5693468    275.24079     0.022204  0.022087186            3 
 1034000   0.84698687   -7.5812962    274.87566  0.022153099  0.022070913            4 
 1035000   0.85453862   -7.5626988    275.78245  0.022204706  0.022054589            8 
 1036000   0.82707222   -7.5686621    275.84818   0.02218856  0.022038281            2 
 1037000   0.84036285   -7.5653813    275.43131  0.022133664   0.02202188            4 
 1038000   0.84042339   -7.5614246    275.45466  0.022114215  0.022005563            2 
 1039000   0.84059073   -7.5634791     275.4355  0.022091394  0.021989246            1 
 1040000    0.8064017    -7.561487    276.23458  0.022134181   0.02197297            3 
 1041000   0.83755312   -7.5880326    275.84651  0.022081853  0.021956768            2 
 1042000   0.85303088   -7.5467013    276.46739  0.022110316  0.021940539            3 
 1043000   0.83047453   -7.5914582    275.27666  0.021993981  0.021924384            2 
 1044000   0.84117439   -7.5889933    275.73847  0.022009776  0.021908161            3 
 1045000    0.8421265   -7.5714649    277.04071   0.02209256  0.021891953            2 
 1046000   0.82437268   -7.5991786    275.69563  0.021964279  0.021875745            2 
 1047000   0.83283157   -7.5899879    276.65654  0.022019782   0.02185954            4 
 1048000   0.81852279   -7.6178553    276.68661  0.022001162  0.021843309            2 
 1049000   0.82672353   -7.6179345    276.19545   0.02194117  0.021827173            3 
 1050000   0.85784552   -7.6020831    276.44209  0.021939848  0.021811008            2 
 1051000   0.84640272   -7.6064096    276.66556  0.021936692  0.021794838            3 
 1052000   0.81508291   -7.5989808    277.35652  0.021970574  0.021778785            2 
 1053000   0.84001098   -7.6082463    277.08786  0.021928447  0.021762728            4 
 1054000   0.83537001   -7.6151411    276.48157  0.021859706  0.021746606            3 
 1055000   0.83871872   -7.6077439    277.18135  0.021894261  0.021730591            4 
 1056000   0.84837134   -7.5960759    276.74732  0.021839277  0.021714602            6 
 1057000   0.83212234    -7.574414    277.90028  0.021909515  0.021698665            2 
 1058000   0.82952472   -7.6110595    277.71037  0.021873848  0.021682722            4 
 1059000   0.82888094     -7.57879    277.85183  0.021864324  0.021666833            4 
 1060000   0.84332393   -7.5897108    277.54142  0.021819294  0.021650941            6 
 1061000   0.82608801    -7.583064    278.48668  0.021872972  0.021635052            1 
 1062000   0.81315592   -7.5944731    277.76932  0.021796086  0.021619069            3 
 1063000    0.8599266   -7.5724953    277.05115  0.021719281  0.021602968            2 
 1064000   0.82288024   -7.5822028    278.24106  0.021792063  0.021586873            4 
 1065000   0.83832279   -7.5826289    277.70729  0.021729835  0.021570835            4 
 1066000   0.83303692   -7.5611894     277.5445  0.021696725  0.021554821            1 
 1067000    0.8206277   -7.6329809    278.10844  0.021720434  0.021538749            2 
 1068000   0.81883999   -7.5985099    278.57762  0.021736706   0.02152268            3 
 1069000   0.83280105   -7.5734688    277.97445  0.021669353  0.021506649            7 
 1070000   0.82422157    -7.595277    278.43647  0.021685083  0.021490688            3 
 1071000   0.83271315   -7.5896449    277.99137  0.021630203  0.021474708            6 
 1072000    0.8548941    -7.611965    278.02463  0.021612611   0.02145868            3 
 1073000   0.83947139   -7.5998427    278.21539  0.021607284   0.02144269            2 
 1074000   0.83179886   -7.6251681     278.7381  0.021627723  0.021426762            3 
 1075000   0.84785544   -7.6101597    278.49688  0.021588905  0.021410746            1 
 1076000   0.83085399   -7.5829534    278.92649  0.021602114  0.021394825            4 
 1077000   0.82638057   -7.5850045    278.91277  0.021580994  0.021378967            1 
 1078000   0.82335184   -7.6319743    278.37993  0.021519785  0.021363059            2 
 1079000   0.80670363    -7.622519    278.38438  0.021500184  0.021347053            4 
 1080000   0.82594334   -7.5988262    278.33438  0.021476418  0.021331083            2 
 1081000   0.82676677   -7.6272742    278.60559  0.021477459  0.021315056            1 
 1082000   0.82868092   -7.6158122    278.91379  0.021481346  0.021299135            6 
 1083000   0.82076801   -7.6137702    279.62172  0.021515983  0.021283173            3 
 1084000   0.83226396   -7.5981616    279.42312  0.021480867  0.021267265            3 
 1085000   0.83433015   -7.6343553    279.08925  0.021435426  0.021251303            1 
 1086000   0.82457109   -7.6284973    278.85103  0.021397409  0.021235262            4 
 1087000   0.80936335   -7.6234668     279.4013  0.021419909  0.021219342            2 
 1088000   0.79859378   -7.6278283    279.36206  0.021397217  0.021203386            8 
 1089000    0.8179234   -7.5840305    279.87692  0.021416967  0.021187617            4 
 1090000    0.8461397   -7.5900855    280.52596  0.021446939  0.021171984            1 
 1091000   0.81115204   -7.5984633    280.24331  0.021405691  0.021156509            3 
 1092000   0.79637387   -7.6097065    280.47471  0.021403748  0.021140877            4 
 1093000    0.8109405   -7.5974803    280.50027  0.021386114  0.021125397            2 
 1094000    0.8254239   -7.6011865    280.55262  0.021370553  0.021109881            3 
 1095000   0.80932712    -7.631036    280.98091  0.021383631  0.021094389            3 
 1096000    0.8210599   -7.6377601    279.90738  0.021282496  0.021078967            5 
 1097000   0.81816479   -7.6177541    281.11587  0.021354898  0.021063473            5 
 1098000   0.82284848   -7.6361715    280.55944  0.021293218  0.021047939            2 
 1099000   0.82108596   -7.6295867    281.07801  0.021313164  0.021032328            5 
 1100000   0.79957536    -7.629767    281.02648  0.021289885  0.021016894            2 
 1101000    0.8210743   -7.6548155     281.0372  0.021271359  0.021001473            2 
 1102000   0.81352578    -7.626088    281.02908  0.021251443  0.020986044            1 
 1103000   0.81391421   -7.6585358    281.50332  0.021268005  0.020970654            2 
 1104000   0.80827277   -7.6396747    281.49762   0.02124831  0.020955362            2 
 1105000   0.81428619   -7.6500907    281.95194  0.021263344  0.020940002            4 
 1106000   0.80662699   -7.6357612    282.27082  0.021268145  0.020924576            4 
 1107000   0.80711934   -7.6281639    281.74772  0.021209554   0.02090921            3 
 1108000   0.79528709   -7.6526076    281.82276  0.021196056  0.020893893            1 
 1109000    0.7951706   -7.6615065    281.77756  0.021173547   0.02087861            2 
 1110000   0.81870508   -7.6381349    281.84599  0.021159609  0.020863387            1 
 1111000   0.82164299   -7.6227832    282.27388  0.021172658  0.020848204            3 
 1112000    0.8071046   -7.6460997    281.94467  0.021128947  0.020832916            2 
 1113000   0.80645005   -7.6447385     282.4791  0.021149977  0.020817655            2 
 1114000   0.82356969   -7.6375012    281.97724   0.02109345  0.020802374            4 
 1115000   0.81012805   -7.6394161    282.42145  0.021107732  0.020787107            3 
 1116000   0.81743674   -7.6459781    282.14574  0.021068231   0.02077189            3 
 1117000   0.79860359   -7.6332679     282.5459  0.021079222  0.020756698            2 
 1118000   0.80762196   -7.6577866    282.40448  0.021049827  0.020741564            2 
 1119000   0.81486464   -7.6595525     282.2384  0.021018647  0.020726306            3 
 1120000   0.79158661   -7.6671965    281.64507  0.020955734  0.020711115            3 
 1121000   0.79890255   -7.6470168    283.00425   0.02103808  0.020695964            2 
 1122000   0.82138533   -7.6477987    282.75439  0.021000772  0.020680841            4 
 1123000    0.7988472   -7.6576976     283.6175  0.021046119   0.02066577            2 
 1124000    0.8098097   -7.6631622    282.90145  0.020974307  0.020650685            3 
 1125000   0.80958121   -7.6505977    282.90639  0.020956029  0.020635625            3 
 1126000   0.81624038   -7.6649635    283.62651  0.020990713   0.02062048            6 
 1127000   0.79538688   -7.6732387    282.81892  0.020912372  0.020605404            1 
 1128000   0.80160669   -7.6540251    283.09766  0.020914425  0.020590286            2 
 1129000   0.81326186    -7.632688    283.61881  0.020934368  0.020575242            2 
 1130000   0.79149435   -7.6602433    283.74156  0.020924894  0.020560196            8 
 1131000   0.79110569   -7.6822402    282.84583  0.020840394  0.020544996            6 
 1132000   0.80258783   -7.6869691     283.4927  0.020869604  0.020529757            4 
 1133000   0.79978923   -7.7065054    282.65268    0.0207894  0.020514535            3 
 1134000   0.80893289   -7.6528036    282.77883  0.020780337  0.020499302            4 
 1135000   0.78993244   -7.6764258    283.63235  0.020824695  0.020484121            2 
 1136000   0.79926082   -7.6462948    284.09372  0.020840208  0.020469031            5 
 1137000   0.79606428   -7.6812509    283.95622  0.020811801  0.020453973            3 
 1138000   0.80012601   -7.6977495    283.20281  0.020738343  0.020438917            2 
 1139000   0.80708441   -7.6804525    283.47704  0.020740199  0.020423786            4 
 1140000   0.78990233    -7.676083    283.42273  0.020718036  0.020408651            3 
 1141000   0.79748928   -7.7128389    283.61736  0.020714093  0.020393499            4 
 1142000   0.79480139   -7.6798714    283.37363  0.020678169  0.020378327            2 
 1143000    0.7819042   -7.6945324    283.54457  0.020672541  0.020363154            2 
 1144000   0.78320506   -7.6809444    283.21695  0.020630605  0.020347862            2 
 1145000   0.79824178   -7.6802991    283.61024  0.020641211  0.020332629            4 
 1146000   0.80503966   -7.6993803    283.86859  0.020641986  0.020317402            1 
 1147000   0.79768816   -7.6991956    283.82862  0.020621086  0.020302233            6 
 1148000   0.79123495   -7.6704662      283.698  0.020593641  0.020287064            3 
 1149000   0.79819788   -7.7130655    283.22335  0.020541293  0.020271719            2 
 1150000     0.800538   -7.7005544    283.65507  0.020554715  0.020256388            2 
 1151000   0.79117958   -7.6982672    283.93679  0.020557254  0.020241066            3 
 1152000    0.7950184   -7.7109094     283.4864  0.020506829  0.020225745            7 
 1153000    0.7841665   -7.6937183    283.48979  0.020489288  0.020210472            1 
 1154000   0.78343299    -7.711221    283.58434  0.020478361  0.020195158            4 
 1155000   0.79123516   -7.6770399    284.00547  0.020491015  0.020179854            4 
 1156000   0.80314389   -7.7198027     283.2781  0.020420855  0.020164556            4 
 1157000   0.79498364   -7.7116717    283.82488  0.020442587  0.020149185            4 
 1158000   0.79122352   -7.6825309    283.91109  0.020431138   0.02013384            1 
 1159000   0.79717211   -7.6767465    283.42718  0.020378716   0.02011846            3 
 1160000   0.79511623   -7.7259159    283.96849  0.020400035  0.020103123            1 
 1161000   0.79871457   -7.6833326    284.38483  0.020412348  0.020087883            4 
 1162000   0.80001902   -7.6713477    284.81066   0.02042532  0.020072785            4 
 1163000   0.79949415   -7.7034809      283.938  0.020345228  0.020057651            4 
 1164000   0.77003182   -7.6859683    284.27817  0.020352103  0.020042466            7 
 1165000   0.81087576   -7.7055267    285.13869  0.020396187  0.020027386            6 
 1166000   0.78800652   -7.6792435    284.57819  0.020338636  0.020012285            2 
 1167000   0.78071146   -7.7074157     283.9828  0.020278692  0.019997093            2 
 1168000   0.79274704   -7.6929317    284.91219  0.020327639  0.019981916            2 
 1169000   0.78284852   -7.6900124    283.50665  0.020210055   0.01996665            3 
 1170000   0.78007499   -7.7087358    284.03392  0.020230336  0.019951392            2 
 1171000   0.79586152   -7.7033882    283.98565  0.020209625  0.019936107            2 
 1172000   0.78372641    -7.702843    285.14119  0.020274544  0.019920939            3 
 1173000   0.78522353   -7.7025262    284.33159  0.020199744  0.019905793            4 
 1174000   0.78099744   -7.6825113    284.30397  0.020180577  0.019890629            2 
 1175000   0.78245851   -7.7012397    284.88397  0.020204537  0.019875442            4 
 1176000   0.77242531   -7.7034747    285.36455  0.020221411  0.019860315            2 
 1177000   0.79138293   -7.7179351    285.30083  0.020199719   0.01984515            3 
 1178000   0.76773292   -7.7046753    285.40435  0.020189895  0.019830005            2 
 1179000   0.78251182   -7.7030363    284.77325  0.020128163  0.019814933            1 
 1180000   0.79525787   -7.7285583    284.91673  0.020121238  0.019799847            4 
 1181000   0.78077511   -7.7219434    284.87447  0.020101219  0.019784688            7 
 1182000   0.78468032   -7.7172984     284.1543  0.020033439   0.01976951            3 
 1183000   0.78717912   -7.7263792     285.0447  0.020079227  0.019754308            4 
 1184000   0.76274955   -7.7168087    285.09183  0.020065585  0.019739108            4 
 1185000   0.77903277   -7.7278536    284.59926  0.020014013   0.01972386            3 
 1186000   0.78635466    -7.718221    285.16859  0.020037141   0.01970864            1 
 1187000   0.78012913   -7.7204703    284.73755  0.019989999  0.019693365            4 
 1188000   0.77596954   -7.7172931    284.77624  0.019975887   0.01967815            3 
 1189000   0.77580148   -7.7377026    284.39927  0.019932665  0.019662889            6 
 1190000   0.76685831   -7.7055444    284.99247  0.019957456    0.0196477            2 
 1191000   0.77658727   -7.7369794    284.98146  0.019939928  0.019632537            1 
 1192000   0.78697154   -7.7076945    285.49331  0.019958984  0.019617408            2 
 1193000   0.76285327   -7.7213794    285.34193   0.01993168  0.019602301            5 
 1194000   0.76420065   -7.6856924    285.30368  0.019912317  0.019587151            2 
 1195000   0.78742934   -7.7240623    284.35241  0.019829317  0.019571982            3 
 1196000   0.78280288   -7.7046442    285.37099  0.019883709  0.019556813            3 
 1197000   0.76611078    -7.736119    284.58283  0.019812227  0.019541616            2 
 1198000   0.76419825   -7.7523324    284.53448  0.019792326  0.019526411            2 
 1199000    0.7751309   -7.7462656    285.82827   0.01986574  0.019511249            3 
 1200000    0.7729198   -7.7513868    285.41821  0.019820709  0.019496112            4 
 1201000   0.76934342   -7.7434054    285.08798  0.019781292  0.019480998            4 
 1202000   0.78249223   -7.7273641    285.79191  0.019813637  0.019465995            2 
 1203000   0.78633653   -7.7283295    285.48886  0.019776175   0.01945093            4 
 1204000   0.76627535   -7.7525102    285.46301  0.019757961  0.019435841            5 
 1205000    0.7754544   -7.7335622    285.72262  0.019759518  0.019420701            5 
 1206000    0.7791716   -7.7563305    285.85386  0.019752202  0.019405597            2 
 1207000   0.79417119   -7.7382958    285.58373  0.019717187   0.01939055            3 
 1208000    0.7538862   -7.7332224    285.81753  0.019716993  0.019375573            1 
 1209000   0.77397964   -7.7464031    285.87167  0.019704416  0.019360596            5 
 1210000   0.76886976   -7.7528599    285.91032  0.019690794  0.019345595            1 
 1211000    0.7653312   -7.7623403    286.09558  0.019687282  0.019330531            3 
 1212000    0.7686484    -7.759383    286.43619  0.019694458  0.019315582            3 
 1213000   0.77972693   -7.7100793    285.68166  0.019626385  0.019300664            2 
 1214000   0.77400508   -7.7535526    286.21724  0.019646982  0.019285755            3 
 1215000   0.76649937   -7.7526244    286.48372  0.019649089  0.019270829            5 
 1216000   0.77364548   -7.7652754    286.19207  0.019612943  0.019255912            6 
 1217000   0.77440585   -7.7327429    286.43689  0.019613592  0.019241058            3 
 1218000   0.77810672   -7.7519112    286.75164  0.019619023  0.019226229            3 
 1219000   0.74429574   -7.7677156    286.62188  0.019594058  0.019211386            3 
 1220000   0.77065417   -7.7811403    285.78425  0.019520782  0.019196502            2 
 1221000   0.78357706   -7.7573697    286.18083  0.019531861  0.019181586            2 
 1222000   0.76311094   -7.7816032    286.27288  0.019522155  0.019166645            1 
 1223000   0.77094439   -7.7756314    286.73678  0.019537802  0.019151745            2 
 1224000   0.76051128   -7.7621138    286.53331  0.019507987  0.019136862            2 
 1225000   0.75552496    -7.705527    287.03473  0.019526172  0.019122051            3 
 1226000   0.77714191   -7.7452527    287.06169  0.019512078  0.019107216            4 
 1227000   0.75555687   -7.7221655    286.86555  0.019482855   0.01909235            4 
 1228000    0.7710077   -7.7226209    286.22656  0.019423627   0.01907752            5 
 1229000    0.7611493   -7.7436938     286.3932  0.019419121   0.01906268            4 
 1230000   0.76888273   -7.7365616    286.70136  0.019424211  0.019047758            2 
 1231000   0.75430977    -7.743589    286.80385  0.019415371  0.019032888            4 
 1232000   0.74432249   -7.7605746    286.67974  0.019391216   0.01901807            4 
 1233000   0.75205714   -7.7549081    286.34136   0.01935262  0.019003263            3 
 1234000   0.75970358   -7.7709047    286.92096  0.019376078  0.018988415            3 
 1235000    0.7823624   -7.7441031    287.59641  0.019405965  0.018973569            3 
 1236000   0.76053184   -7.7640165    286.62829  0.019324993   0.01895871            4 
 1237000   0.76432661   -7.8002575    286.63366  0.019309732  0.018943815            5 
 1238000   0.74392211   -7.7378991    287.03967  0.019321464  0.018928978            2 
 1239000   0.74631143   -7.7611291    287.13676    0.0193124  0.018914187            3 
 1240000   0.75050514   -7.7564067    287.37961  0.019313146   0.01889936            2 
 1241000   0.76284172   -7.7661282    287.60918  0.019312999   0.01888456            3 
 1242000   0.77586802   -7.7906664    286.87702  0.019248324  0.018869822            2 
 1243000   0.75631423   -7.7740168    286.78276  0.019226519  0.018854964            2 
 1244000   0.75799795   -7.7728903    287.04693   0.01922876  0.018840174            5 
 1245000   0.75219452   -7.7847952    287.38844  0.019236174  0.018825339            5 
 1246000   0.76036552   -7.7749093    286.83993  0.019184051  0.018810483            4 
 1247000   0.75015836    -7.796155    286.63791  0.019155166  0.018795645            7 
 1248000   0.77351388    -7.801534      286.815  0.019151643  0.018780735            2 
 1249000   0.76621897    -7.811536    286.48522  0.019114306  0.018765864            3 
 1250000    0.7746393   -7.8037872    286.76311   0.01911754  0.018751033            5 
 1251000    0.7500574   -7.7977762    286.89183  0.019110833  0.018736207            3 
 1252000   0.74997619   -7.7706321    287.05986  0.019106753  0.018721445            2 
 1253000    0.7563873   -7.7973133     287.0701  0.019092186  0.018706751            2 
 1254000   0.73653351   -7.7756161    287.56321  0.019109729  0.018692062            4 
 1255000   0.74993957   -7.8091863    287.20588  0.019070775  0.018677381            3 
 1256000   0.74532528   -7.7949292    287.07633  0.019046996  0.018662653            4 
 1257000    0.7573576   -7.8190992    286.70109  0.019006967  0.018647884            5 
 1258000   0.73579054   -7.8069846    287.44075  0.019040855  0.018633092            3 
 1259000   0.75425007   -7.8129927    286.32664  0.018951988  0.018618341            5 
 1260000   0.75977433   -7.8013477    286.80805  0.018968786    0.0186036            9 
 1261000   0.75358339   -7.8026237    286.85606  0.018956917  0.018588873            6 
 1262000   0.74298461   -7.8077548    287.47336  0.018982657  0.018574119            4 
 1263000   0.73560934    -7.817771    286.99101  0.018935802  0.018559363            3 
 1264000   0.76291878    -7.793826    287.05931  0.018925324  0.018544646            2 
 1265000   0.73848891   -7.8038288    287.07972  0.018911707  0.018529935            4 
 1266000   0.73650864   -7.8032086    287.63532  0.018933341  0.018515222            4 
 1267000   0.74873527   -7.8265845    287.26345  0.018893939  0.018500538            3 
 1268000   0.75221203   -7.7901462    287.90202  0.018921006  0.018485859            3 
 1269000   0.74523449   -7.8148442    286.93618   0.01884267  0.018471205            3 
 1270000   0.75312803   -7.7777844      287.458  0.018862073  0.018456542            4 
 1271000   0.73525586     -7.83172    287.81106  0.018870382  0.018441898            5 
 1272000   0.72740266   -7.8325156    286.75025  0.018786049  0.018427193            4 
 1273000   0.74313878   -7.7982234    287.09771  0.018794037  0.018412524            3 
 1274000   0.73259713   -7.8406421    287.52201  0.018807039  0.018397899            1 
 1275000   0.74981817   -7.8278862    287.65425  0.018800931  0.018383266            5 
 1276000   0.73651307   -7.7985496     287.8672  0.018800104    0.0183687            2 
 1277000   0.74143007   -7.8268543    287.05048  0.018732086  0.018354185            3 
 1278000   0.73168284   -7.8279281    287.13868  0.018723179  0.018339521            2 
 1279000   0.73686168   -7.8160541     287.4893  0.018731385  0.018324855            4 
 1280000    0.7519259   -7.8227871    287.25888   0.01870175  0.018310204            2 
 1281000   0.73225239   -7.8149222    287.34909  0.018693019  0.018295603            3 
 1282000   0.74309113     -7.82383     287.1998  0.018668734  0.018280983            4 
 1283000   0.72910154   -7.8070376    286.97351  0.018639485  0.018266401            4 
 1284000    0.7592841   -7.8086332    287.61221  0.018666421   0.01825187            3 
 1285000   0.73149926   -7.8181255    287.26565  0.018629419   0.01823731            2 
 1286000    0.7521502   -7.8052262    287.48525  0.018629163  0.018222759            4 
 1287000   0.73612117   -7.8071392    287.89184  0.018641015  0.018208212           10 
 1288000   0.72745423   -7.7870447    287.89108  0.018626494  0.018193573            5 
 1289000   0.74529248   -7.8014835    287.25906  0.018571183  0.018178995            2 
 1290000    0.7392161   -7.8061665    287.74626   0.01858826   0.01816447            2 
 1291000   0.74341526   -7.8465444    287.78461  0.018576337  0.018149907            2 
 1292000   0.73117501   -7.8229682    287.88293  0.018568301  0.018135289            2 
 1293000   0.74820778   -7.8367983    286.82174  0.018485546  0.018120679            3 
 1294000   0.75343351   -7.8512832    287.77978  0.018532959  0.018106075            5 
 1295000   0.72981293   -7.8266854    287.61968  0.018508345  0.018091502            2 
 1296000   0.73041715   -7.8107201    287.91848  0.018513277  0.018076966            3 
 1297000   0.73889341    -7.816676    287.04101  0.018442625  0.018062413            3 
 1298000   0.74298467   -7.8197851    287.23534  0.018440892  0.018047805            6 
 1299000   0.73139077   -7.7922787    288.14171  0.018484842  0.018033265            4 
 1300000   0.73612963   -7.8153596    287.38204  0.018421926  0.018018714            3 
 1301000   0.73739081    -7.852335    288.08894  0.018453045  0.018004122            6 
 1302000    0.7303086   -7.8264529    287.71293  0.018414806   0.01798956            3 
 1303000   0.73293644   -7.8350601    288.03988  0.018421584   0.01797508            2 
 1304000   0.73226475   -7.8467101    287.77975  0.018390833  0.017960557            3 
 1305000   0.73036439   -7.8265192    288.23297  0.018405682  0.017946013            2 
 1306000   0.73821778   -7.8397839    288.19043  0.018388874  0.017931478            4 
 1307000    0.7408522   -7.8194015    287.84201  0.018352589  0.017917018            3 
 1308000   0.71076341   -7.8683739    288.02935  0.018350494  0.017902538            4 
 1309000   0.72540718   -7.8425741    287.66597  0.018313342  0.017888016            3 
 1310000   0.74242658    -7.842926    287.46747  0.018286735  0.017873505            2 
 1311000     0.720414   -7.8204399    288.29177  0.018325182  0.017859061            4 
 1312000   0.72903478   -7.8402295    287.86588  0.018284164  0.017844697            4 
 1313000    0.7308852   -7.8425395    287.84443  0.018268877   0.01783029            5 
 1314000   0.72840255   -7.8270158    288.58287  0.018301805  0.017815911            4 
 1315000   0.72371507   -7.8497519    287.66934  0.018229996   0.01780158            4 
 1316000   0.72841296   -7.8547444    288.47316  0.018267044  0.017787279            6 
 1317000   0.73023159   -7.8286176    288.39808  0.018248423  0.017773063            4 
 1318000   0.72915035    -7.843567    288.29734  0.018228208  0.017758873            3 
 1319000   0.72411828   -7.8354322    288.77273  0.018244423  0.017744685            4 
 1320000   0.71609809   -7.8496816    288.75318  0.018229367  0.017730525            4 
 1321000   0.71451425   -7.8358296    288.65133  0.018209142  0.017716379            2 
 1322000   0.72724553   -7.8382028    289.09832  0.018223545  0.017702179            3 
 1323000   0.73440388   -7.8350067    289.05017  0.018206738  0.017688002            2 
 1324000    0.7338848   -7.8575005    288.91644  0.018184569  0.017673864            2 
 1325000   0.72335451   -7.8499991    288.87627  0.018168319  0.017659722            2 
 1326000    0.7334591   -7.8454413    288.39281  0.018124234  0.017645623            4 
 1327000    0.7147279   -7.8560007    288.91397  0.018143304   0.01763149            4 
 1328000   0.71823982   -7.8525019    289.28971   0.01815322  0.017617354            2 
 1329000   0.72397317   -7.8878596      288.537  0.018092363    0.0176032            7 
 1330000   0.73385131   -7.8807899     288.7323  0.018090996  0.017589081            4 
 1331000   0.72576236   -7.8630701     288.7618  0.018079251  0.017574985            2 
 1332000    0.7194312   -7.8799035    288.63143  0.018057522  0.017560869            6 
 1333000   0.73205687   -7.8729819    288.65915  0.018045709   0.01754673            3 
 1334000    0.7408499   -7.8714243     288.6167  0.018029529  0.017532568            5 
 1335000    0.7100814   -7.8735024    289.47212  0.018069421   0.01751845            4 
 1336000   0.71831345   -7.8979396    289.01178  0.018027182  0.017504313            1 
 1337000   0.72940017   -7.8687742    288.95915  0.018010418  0.017490191            3 
 1338000   0.71702955   -7.8881337    288.66285  0.017978503  0.017476073            5 
 1339000   0.73305955   -7.8886516    288.53013  0.017956816  0.017462001            9 
 1340000   0.71732775   -7.8730509    288.67776  0.017952597   0.01744796            4 
 1341000   0.72343703   -7.8767216    288.51928  0.017929361  0.017433913           10 
 1342000   0.72031456   -7.8681854    289.12905  0.017953865  0.017419864            5 
 1343000   0.72763609   -7.8873759    288.47114  0.017899674  0.017405802            5 
 1344000    0.7259597   -7.8631144    289.12072  0.017926632  0.017391772            3 
 1345000   0.71720335   -7.8503987    289.35096  0.017927569  0.017377769            4 
 1346000   0.72367655   -7.8830705    288.44515   0.01785817  0.017363758            3 
 1347000   0.74035734   -7.8371042    289.45772  0.017907555  0.017349733            3 
 1348000   0.71781011   -7.8673524    289.32581  0.017886116  0.017335766            2 
 1349000   0.71474623   -7.8832162    288.71204  0.017834942  0.017321741            3 
 1350000   0.73246482   -7.8635265    289.02772  0.017841217  0.017307801            4 
 1351000   0.70320349   -7.8756766    289.24299  0.017841289  0.017293761            3 
 1352000   0.71186386   -7.8841419    289.00313  0.017813309  0.017279718            2 
 1353000   0.71069149   -7.8806196      289.385  0.017823663  0.017265698            4 
 1354000   0.70413467   -7.8803066    289.24232  0.017801718  0.017251751            3 
 1355000   0.70720795   -7.8815016    289.14053   0.01778232  0.017237821            3 
 1356000   0.72037253   -7.9052225    289.34813  0.017781965  0.017223893            3 
 1357000   0.72063874   -7.8842025    289.72073  0.017791742  0.017209947            5 
 1358000   0.71443441   -7.8870524    288.91318  0.017729086  0.017195966            6 
 1359000   0.72023161   -7.9131078    289.02144  0.017722678  0.017181957            4 
 1360000   0.69751485   -7.9123164    288.28429  0.017664478  0.017167955            6 
 1361000   0.70475807   -7.9195861    288.89932  0.017689158  0.017153964            5 
 1362000   0.71656454   -7.8874676    288.77307  0.017668445  0.017139953            3 
 1363000   0.71886491   -7.8988775    288.44226  0.017635257   0.01712594            4 
 1364000   0.71215564   -7.9020294     288.7191  0.017639241  0.017111905            2 
 1365000   0.69696951   -7.8974171    287.64195  0.017560559  0.017097836            2 
 1366000   0.69982378   -7.8679772    288.67871  0.017610951  0.017083796            2 
 1367000   0.70740853    -7.908513    288.32573   0.01757655   0.01706978            2 
 1368000   0.70660605   -7.8923034    288.77773  0.017591236  0.017055765            2 
 1369000   0.71635403   -7.8983186    288.49898  0.017561418  0.017041822            3 
 1370000   0.70614943   -7.9245042    288.36992  0.017540749  0.017027838            6 
 1371000     0.706293   -7.8897829     288.8137   0.01755493  0.017013902            3 
 1372000   0.71832843   -7.8966242    288.87072  0.017545598  0.016999945            3 
 1373000   0.70165234   -7.8930991    288.84295  0.017531133  0.016985977            3 
 1374000   0.71931091   -7.9205607    289.19032  0.017539442  0.016972052            3 
 1375000   0.70858487   -7.9054819    288.70512   0.01749728  0.016958103            4 
 1376000   0.70842378   -7.9053467    289.16529  0.017512433  0.016944189            7 
 1377000   0.69919216   -7.9068691    288.30102  0.017447411  0.016930269            4 
 1378000   0.71175726   -7.9130073    288.96374  0.017474827  0.016916325            3 
 1379000   0.71051718   -7.8994514    288.31314  0.017422839  0.016902421            2 
 1380000    0.6996242   -7.9018039    288.96425  0.017449532  0.016888514            2 
 1381000   0.70704092   -7.9351809    288.16667  0.017388768  0.016874558            3 
 1382000   0.69107232   -7.9215387    288.65286  0.017405503  0.016860637            2 
 1383000   0.68547089   -7.9411164    288.62379  0.017391166  0.016846689            1 
 1384000   0.69839438   -7.9182872    288.93809  0.017397525  0.016832806            5 
 1385000   0.69490171   -7.8980218    288.89907  0.017382616  0.016818958            3 
 1386000    0.6887303   -7.9201057    289.02851  0.017377857  0.016805113            4 
 1387000   0.71400147   -7.9153642    289.33181   0.01738355  0.016791341            4 
 1388000   0.70488817   -7.9251859     288.8378  0.017341367  0.016777612            3 
 1389000   0.70408808   -7.8840644    288.99106  0.017338076  0.016763875            1 
 1390000   0.69793458   -7.9132435    289.48352  0.017355127  0.016750196            2 
 1391000   0.70177544   -7.9272391    289.11322  0.017320466   0.01673652            4 
 1392000   0.69158265   -7.9069319    288.76725  0.017287312  0.016722843            3 
 1393000   0.69540454   -7.9065288     289.3988  0.017312682  0.016709132            2 
 1394000   0.69713113   -7.9260703    288.25651  0.017231977  0.016695389            4 
 1395000   0.70135343   -7.9181852    288.73721   0.01724834  0.016681623            3 
 1396000   0.68549368   -7.9136495    289.19242  0.017263158   0.01666786            3 
 1397000   0.70034648   -7.9333503    288.60791  0.017215934  0.016654109            4 
 1398000   0.70199117   -7.9233553    288.61606  0.017204105  0.016640367            4 
 1399000   0.70452944    -7.956175    288.99163  0.017214179   0.01662663            5 
 1400000   0.70475891   -7.9243464    288.68199  0.017183452  0.016612878            2 
 1401000    0.7011257   -7.9220582    288.76646  0.017176211  0.016599148            1 
 1402000   0.69305082   -7.9316415    288.72721  0.017161627  0.016585409            2 
 1403000   0.68070589   -7.9357593    288.91945  0.017160813  0.016571693            2 
 1404000   0.68876072   -7.9204128    288.50128   0.01712377   0.01655801            5 
 1405000    0.6847826   -7.9357041    288.48065  0.017110359  0.016544367            2 
 1406000   0.70718674   -7.9277368     288.9997  0.017128953  0.016530737            2 
 1407000    0.6817191   -7.9610216    288.75856  0.017102497  0.016517093            4 
 1408000   0.69578993   -7.9395401    288.88905  0.017098074  0.016503446            2 
 1409000   0.66948006   -7.9553574    288.60717  0.017069267  0.016489825            4 
 1410000   0.70000554   -7.9505928    288.61535  0.017057645  0.016476202            3 
 1411000   0.69382248   -7.9485931     288.5106  0.017039369  0.016462558            2 
 1412000    0.6746983   -7.9269078    288.54086  0.017029087  0.016448932            7 
 1413000   0.69845191   -7.9464032    288.65834  0.017023964  0.016435323            4 
 1414000   0.69433975   -7.9453708    288.54559   0.01700528   0.01642167            2 
 1415000   0.69191325   -7.9500902    289.30783  0.017038152   0.01640807            3 
 1416000    0.6907338   -7.9589577    288.74983  0.016993281  0.016394468            8 
 1417000   0.68906694   -7.9626596    288.24011  0.016951312  0.016380824            5 
 1418000   0.69509702   -7.9396263    288.78724  0.016971511  0.016367232            7 
 1419000   0.68903101   -7.9489878    288.89012  0.016965593  0.016353713            3 
 1420000   0.69219831   -7.9583217    289.36736  0.016981652   0.01634019            3 
 1421000   0.68522332   -7.9350797    288.96602  0.016946166  0.016326638            3 
 1422000    0.6864555   -7.9753164    288.92497  0.016931843   0.01631305            3 
 1423000   0.69783947   -7.9579812    288.68666  0.016905989  0.016299531            2 
 1424000     0.680639   -7.9332167     288.9674  0.016910545  0.016286007            2 
 1425000   0.68408211   -7.9525296    288.98953  0.016899972  0.016272465            4 
 1426000    0.6826573   -7.9885952    288.73234  0.016873091  0.016258944            5 
 1427000    0.6922109   -7.9558685    288.09934  0.016824301  0.016245438            3 
 1428000   0.67168239   -7.9465126    288.53194  0.016837765  0.016231976            4 
 1429000   0.68858551   -7.9472554    288.90368   0.01684766   0.01621852            7 
 1430000   0.69771105   -7.9457493    288.95696  0.016838984  0.016205056            4 
 1431000   0.67871093   -7.9496062    288.96691  0.016827796  0.016191654            6 
 1432000   0.68111837   -7.9462165    289.01756  0.016818992  0.016178266            6 
 1433000   0.67765256   -7.9572762    288.97033  0.016804509  0.016164859            2 
 1434000   0.68102062   -7.9532409    288.82978  0.016784622  0.016151472            5 
 1435000   0.69700163   -7.9498549    289.18011   0.01679327  0.016138096            2 
 1436000   0.67450901   -7.9423237    288.97313  0.016769564  0.016124704            3 
 1437000   0.67391762   -7.9405044    288.99822   0.01675935  0.016111336            4 
 1438000   0.67790067   -7.9801804    288.81199  0.016736903   0.01609798            4 
 1439000   0.68258973   -7.9966228    289.11078  0.016742575  0.016084641            2 
 1440000   0.67649569   -7.9990268     288.5214  0.016696841  0.016071279            3 
 1441000   0.68787028   -8.0023161    288.82368  0.016702734  0.016057933            3 
 1442000    0.6773311   -7.9928469    288.55615   0.01667569   0.01604458            3 
 1443000   0.66636584   -7.9840108    288.51605  0.016661819  0.016031238            2 
 1444000   0.67631222   -7.9714693     288.8906  0.016671895  0.016017891            2 
 1445000   0.68362862   -7.9387182    289.54405  0.016698042   0.01600462            5 
 1446000   0.67642598   -7.9823652    289.11481  0.016661757  0.015991313            3 
 1447000   0.67094302   -7.9672584    289.28059   0.01665979  0.015978046            1 
 1448000   0.67130311   -7.9911028    289.08774  0.016637186  0.015964751            2 
 1449000   0.66875093   -7.9793552    289.45083  0.016646586  0.015951462            5 
 1450000   0.67897286   -7.9793161    288.77537  0.016596286  0.015938171            3 
 1451000   0.67298213   -7.9884703    288.44951  0.016566133  0.015924861            2 
 1452000   0.68117964   -7.9896071    289.40993  0.016609844  0.015911612            4 
 1453000   0.67563279   -7.9593691    288.78949  0.016562829  0.015898368            2 
 1454000   0.67350048   -7.9688167    288.68395  0.016545389  0.015885151            4 
 1455000    0.6684846   -7.9842055    288.80134  0.016540741  0.015871957            3 
 1456000   0.67822109   -7.9824618    288.85284  0.016532328   0.01585872            4 
 1457000   0.67125613   -8.0031764    288.56449  0.016504489  0.015845491            3 
 1458000    0.6586401   -7.9853945    288.88372  0.016511415  0.015832253            2 
 1459000     0.671799   -8.0045157    288.99699  0.016506568  0.015819036            1 
 1460000   0.66961921   -7.9989874    288.99223   0.01649499  0.015805823            2 
 1461000   0.66374195   -7.9830106    288.90862  0.016478931  0.015792654            3 
 1462000   0.66870517   -8.0207486    289.08614  0.016477778  0.015779495            4 
 1463000   0.68606811   -7.9973455     288.3885  0.016426777  0.015766335            3 
 1464000    0.6736831   -7.9804333    289.48686  0.016478077    0.0157532            5 
 1465000   0.68835057   -8.0007231    288.55289  0.016413703  0.015740065            3 
 1466000   0.65936857   -7.9917832    288.53807  0.016401664  0.015726924            2 
 1467000   0.66348098   -7.9739144    288.51788  0.016389337  0.015713759            3 
 1468000    0.6710176   -7.9833945    288.53586  0.016379193  0.015700627            4 
 1469000   0.65546651    -8.000395    288.56706  0.016369813  0.015687505            3 
 1470000   0.66213311   -7.9791215    288.64349   0.01636301  0.015674397            5 
 1471000   0.67680817   -7.9848463    289.09712  0.016377584  0.015661341            3 
 1472000   0.66375601   -7.9968427    289.13027  0.016368335  0.015648265            5 
 1473000   0.67319937   -8.0127594    288.55313  0.016324572  0.015635178            3 
 1474000   0.66442047   -7.9846486    288.79451  0.016327143  0.015622087            4 
 1475000   0.66892706   -8.0004804     289.0615  0.016331158  0.015609062            3 
 1476000   0.66243987   -8.0106185    289.07973  0.016321123  0.015596012            7 
 1477000   0.65484129   -8.0176441    288.65343  0.016286021   0.01558297            3 
 1478000   0.65722798   -8.0038957    288.27369  0.016253591  0.015569975            1 
 1479000   0.67387579   -8.0098096     288.5098  0.016255905  0.015556982            3 
 1480000   0.67510331    -8.037449    288.75214  0.016258567  0.015543982            2 
 1481000   0.69109734   -8.0193521    288.57323  0.016237522  0.015530991            3 
 1482000   0.67424707    -8.021873    288.58276  0.016227101  0.015518008            7 
 1483000   0.66367816   -7.9870099    288.75073  0.016225597  0.015505022            2 
 1484000   0.66443558   -8.0298628    288.55396  0.016203614  0.015492042            4 
 1485000   0.65387021   -7.9953794    288.65507  0.016198377  0.015479103            8 
 1486000   0.66240704   -7.9880143    288.86723  0.016199374  0.015466157            3 
 1487000   0.67468699   -7.9936869      288.816  0.016185608  0.015453255            2 
 1488000   0.67156258   -8.0000521    288.28288  0.016144875  0.015440374            8 
 1489000   0.67506767   -8.0216056    288.98291   0.01617321  0.015427464            7 
 1490000   0.65911549   -7.9999869    288.75148  0.016149411  0.015414584            3 
 1491000   0.65243667    -7.985328    288.84598  0.016143862  0.015401755            4 
 1492000   0.66434572   -7.9915002    288.96096  0.016139464  0.015388968            3 
 1493000   0.67656713   -7.9987709    289.69964  0.016169884  0.015376176            3 
 1494000   0.63777848    -7.996936    289.19884  0.016131126  0.015363368            3 
 1495000   0.64530772   -8.0090391     289.3011  0.016126037  0.015350611            4 
 1496000    0.6674945   -7.9989955    289.42374  0.016122089  0.015337866            7 
 1497000    0.6473782   -7.9819482    289.48585  0.016114777  0.015325129            6 
 1498000   0.67320083   -8.0128016     289.5351  0.016106759  0.015312427            5 
 1499000   0.64956798   -8.0077013    289.30283  0.016083102  0.015299696            5 
 1500000   0.65759408   -8.0266385     288.9267  0.016051483  0.015286997            3 
 1501000   0.65304633   -8.0190064     289.1919  0.016055513  0.015274303            2 
 1502000   0.65871848   -8.0139024    288.98435  0.016033308  0.015261597            6 
 1503000   0.65272903   -8.0209058    288.73469  0.016008798  0.015248912            6 
 1504000   0.64598035   -8.0171846    288.80731  0.016002178  0.015236225            3 
 1505000   0.65555217   -8.0343629    289.08187  0.016006748  0.015223532            5 
 1506000   0.63380308   -8.0163393     289.1433  0.015999519  0.015210899            2 
 1507000    0.6564078   -8.0371645    288.82275  0.015971176  0.015198222            4 
 1508000   0.65620438   -8.0543907    288.62278  0.015949535  0.015185539            2 
 1509000   0.65108176    -8.034297     288.8498  0.015951502  0.015172897            4 
 1510000   0.66296557   -8.0340516    288.76573  0.015936299  0.015160265            4 
 1511000   0.65538466   -8.0349624     288.9679  0.015936902  0.015147648            4 
 1512000   0.65562485   -8.0344205    288.99068  0.015927617  0.015135031            6 
 1513000   0.65298372   -8.0229491    288.74672  0.015903653  0.015122425            2 
 1514000   0.65558702   -8.0266487    288.82444  0.015897426  0.015109831            3 
 1515000   0.64787077   -8.0508612    288.73437  0.015881978   0.01509726            2 
 1516000   0.63998905   -8.0576846    288.57116  0.015862531  0.015084692            3 
 1517000   0.63376903   -8.0332048    289.25209   0.01588948  0.015072117            4 
 1518000   0.63869868   -8.0409505    289.35902  0.015884883  0.015059554            3 
 1519000   0.64289698   -8.0310679    288.98674  0.015854002  0.015047015            6 
 1520000   0.63648734   -8.0395513    288.83436  0.015835217   0.01503448            2 
 1521000   0.65253351   -8.0619868    288.89798  0.015828292  0.015021946            1 
 1522000   0.64270061   -8.0653471    288.69966  0.015807033  0.015009423            3 
 1523000   0.64631703   -8.0463162    288.16875  0.015767605  0.014996899            3 
 1524000    0.6412247   -8.0339064    289.22575  0.015815056  0.014984407            2 
 1525000   0.64321487   -8.0329025    289.63976  0.015827309   0.01497192            1 
 1526000   0.64650419   -8.0450301    289.05649  0.015785086  0.014959453            2 
 1527000   0.64024753   -8.0510739    289.22458  0.015783922  0.014946979            3 
 1528000   0.64898276    -8.039147    288.94453  0.015758318  0.014934486            5 
 1529000   0.62898435   -8.0428927    289.49778  0.015778166   0.01492204            5 
 1530000   0.64663449   -8.0551005    288.74542  0.015726875  0.014909577            2 
 1531000   0.64088956   -8.0254747    288.48483  0.015702418  0.014897081            3 
 1532000   0.63593639    -8.056403    288.78916  0.015708723  0.014884604            4 
 1533000    0.6559682   -8.0677142    289.22872   0.01572237  0.014872157            3 
 1534000   0.63689217   -8.0706534    288.91145  0.015694885  0.014859719            5 
 1535000   0.64044622   -8.0584599    288.73315  0.015674981  0.014847231            2 
 1536000   0.63738879   -8.0862749    288.27598  0.015639973  0.014834771            3 
 1537000   0.64351773   -8.0558865    288.52086  0.015643074    0.0148223            3 
 1538000   0.63854098   -8.0692405    288.55894  0.015634967  0.014809859            5 
 1539000   0.64217361   -8.0660582    288.47907  0.015620482  0.014797417            4 
 1540000   0.63738498   -8.0646654    289.50044  0.015665608  0.014784982            3 
 1541000   0.65086078   -8.0600707    288.78703  0.015616863  0.014772566            4 
 1542000   0.63625796   -8.0825656    288.35675  0.015583482  0.014760165            1 
 1543000   0.65018048   -8.0509313    289.17166  0.015617394  0.014747753            5 
 1544000   0.64864301    -8.076563    289.09609    0.0156032  0.014735362            6 
 1545000   0.63763133   -8.0731314    288.70397  0.015571951  0.014722958            5 
 1546000   0.63993915   -8.0573406    289.04533  0.015580279  0.014710559            4 
 1547000   0.64224362   -8.0907781    288.61938  0.015547262  0.014698206            4 
 1548000   0.64717685   -8.0763822    288.67972  0.015540467  0.014685859            2 
 1549000   0.63850303   -8.0463214    288.41874  0.015516395  0.014673519            3 
 1550000   0.63959468   -8.0667135    288.68619  0.015520763  0.014661175            2 
 1551000   0.63303651   -8.0748914     288.1619  0.015482586   0.01464883            4 
 1552000   0.63516844   -8.0659194    288.68949  0.015500939    0.0146365            3 
 1553000   0.62540738   -8.0713726     288.0052  0.015454239  0.014624188            2 
 1554000    0.6233152   -8.0803661    288.16861  0.015453057  0.014611869            2 
 1555000   0.63036933   -8.1002253     288.3613  0.015453446  0.014599534            6 
 1556000   0.64636931   -8.0889466    288.58864   0.01545569  0.014587212            2 
 1557000   0.62892024   -8.1010247    288.12505  0.015420951  0.014574892            7 
 1558000   0.62750751   -8.1096753    287.86207  0.015396987   0.01456259            4 
 1559000   0.63281355   -8.0856527    288.66179  0.015429859  0.014550304            1 
 1560000    0.6300931   -8.1003258    288.20933  0.015395798  0.014538039            4 
 1561000   0.63486523   -8.1259657    288.08147  0.015379109  0.014525779            3 
 1562000   0.63417773   -8.1086628    288.10447   0.01537049  0.014513501            3 
 1563000   0.63865299   -8.0948597    288.28793  0.015370438  0.014501229            2 
 1564000   0.62626287    -8.105653     288.0752  0.015349275  0.014488983            4 
 1565000   0.61692902   -8.1028878     288.1213  0.015341922  0.014476741            4 
 1566000   0.61400774   -8.0967898    288.55586   0.01535525  0.014464497            4 
 1567000   0.64438304   -8.0917147    288.08904  0.015320625  0.014452269            4 
 1568000   0.62475536   -8.0955119    288.09235   0.01531103  0.014440036            4 
 1569000   0.62975196   -8.1023196    287.82272  0.015286951  0.014427796            4 
 1570000   0.62318363   -8.0946339    288.30717  0.015302928  0.014415557            4 
 1571000   0.63182756   -8.0911836    288.02451  0.015278194  0.014403332            3 
 1572000   0.62917003   -8.0997022    288.43124  0.015290036  0.014391145            3 
 1573000    0.6131335   -8.1088228    287.80902  0.015247352  0.014378947            4 
 1574000   0.63054481   -8.1010991    287.98739  0.015247109  0.014366752            6 
 1575000   0.62532739   -8.0904864    287.93429  0.015234618   0.01435457            7 
 1576000   0.62280621   -8.1235012    287.93577   0.01522503  0.014342406            7 
 1577000   0.62008346   -8.0977179    288.41018  0.015240445  0.014330262            3 
 1578000   0.61764037   -8.0977594    288.28046  0.015223936  0.014318151            4 
 1579000   0.61793048   -8.1165717    288.04831  0.015202043  0.014306038            6 
 1580000   0.60387142   -8.1029926    288.06219  0.015193153  0.014293913            3 
 1581000   0.61580832   -8.1054823     288.0522  0.015183017  0.014281815            3 
 1582000   0.63636527   -8.0952601    288.47806  0.015195853  0.014269722            2 
 1583000   0.61436888   -8.1075025    287.94816  0.015158358  0.014257653            4 
 1584000    0.6134958   -8.1008246    288.25292  0.015164821  0.014245613            3 
 1585000   0.61878579   -8.0848725    288.31561  0.015158549  0.014233554            3 
 1586000   0.62046835   -8.0966167    288.12233  0.015138836  0.014221526            6 
 1587000   0.62419892   -8.1113588    287.70422  0.015107342  0.014209496            5 
 1588000    0.6220978   -8.1139449     288.0863  0.015117879  0.014197479            3 
 1589000   0.61638548   -8.0950431    287.73509  0.015089946  0.014185454            3 
 1590000   0.61696253   -8.1036793    288.66979  0.015129444  0.014173427            3 
 1591000   0.62396529   -8.0976738    287.90485  0.015079868  0.014161413            3 
 1592000     0.633313    -8.113589     287.9859  0.015074639  0.014149419            4 
 1593000   0.61710287   -8.1174177    288.08109  0.015070155  0.014137458            9 
 1594000   0.62457037   -8.0992183    287.98873  0.015055872  0.014125501            3 
 1595000   0.62319204   -8.1298192    288.09347  0.015051905  0.014113565            6 
 1596000   0.60873729   -8.1174055    288.07541  0.015041532  0.014101615            6 
 1597000    0.6185761   -8.1260583    287.75159  0.015015216  0.014089673            5 
 1598000   0.61289879   -8.1114516    288.00468  0.015019018  0.014077765            4 
 1599000   0.61927351   -8.1188379    287.88155  0.015003208  0.014065848            7 
 1600000   0.62663885   -8.1170941    288.07822  0.015004074  0.014053959            7 
 1601000   0.61996945   -8.1002405    288.39082  0.015010973  0.014042064            7 
 1602000   0.62692609   -8.1360536    287.86921   0.01497447    0.0140302            4 
 1603000   0.60771069   -8.1118219    287.83778  0.014963495  0.014018313            5 
 1604000   0.61666763   -8.1063063    287.78352  0.014951347  0.014006446            4 
 1605000   0.62033935   -8.1379979    287.93726  0.014950013  0.013994591            5 
 1606000   0.61473599   -8.1262399    288.58398  0.014974262  0.013982741            3 
 1607000   0.61037929   -8.1315164    287.77973  0.014923238  0.013970908            3 
 1608000   0.61308373   -8.1042133    287.73979  0.014911888  0.013959059            8 
 1609000   0.61533921   -8.1411931     287.2912  0.014879387  0.013947236            4 
 1610000   0.60452824   -8.1281296    287.51791  0.014881879  0.013935428            3 
 1611000   0.61895317   -8.1023494    287.82912   0.01488874  0.013923649            4 
 1612000   0.62374243   -8.1168416    287.95384  0.014885951  0.013911907            7 
 1613000   0.61364762   -8.1242141     287.9917  0.014878679  0.013900174            9 
 1614000   0.59902232   -8.1570032     287.6772  0.014853222  0.013888457            7 
 1615000   0.61897275   -8.1436572    288.07688  0.014864648  0.013876734            6 
 1616000   0.62545039   -8.1316721    288.66322  0.014885686  0.013865072            9 
 1617000   0.61647241   -8.1158215    288.29917  0.014857719  0.013853392            4 
 1618000    0.5943697   -8.1364305    288.22184  0.014844553  0.013841717            5 
 1619000   0.60627372   -8.1168131    288.13075  0.014830695   0.01383005            7 
 1620000   0.59574538   -8.1280712    287.97514  0.014813536  0.013818395            2 
 1621000   0.61773455   -8.1399349    288.56676  0.014834812  0.013806754            6 
 1622000   0.60246797   -8.1383231    287.70618  0.014781452  0.013795116            2 
 1623000   0.61110518   -8.1301717    288.11487  0.014793329  0.013783505            5 
 1624000    0.6152774   -8.1331268    288.03307  0.014780022  0.013771875            8 
 1625000   0.60647216   -8.1564072    287.75654  0.014756746  0.013760276            5 
 1626000   0.61244788   -8.1655218    287.85356  0.014752642  0.013748682            7 
 1627000   0.60106516   -8.1541707    288.06324  0.014754315  0.013737099            4 
 1628000   0.60251368    -8.131836    288.07494  0.014745851  0.013725521            7 
 1629000   0.60420161   -8.1390532    288.01752  0.014733861  0.013713965           11 
 1630000   0.60023716   -8.1481454    287.84302  0.014715901  0.013702388            6 
 1631000    0.5961396   -8.1131633    287.90731  0.014710163   0.01369084            5 
 1632000   0.60780782   -8.1356748     287.5496  0.014682884  0.013679295            2 
 1633000   0.59432068   -8.1496183    287.64476  0.014678749  0.013667725            6 
 1634000   0.59091065   -8.1361263    288.18631  0.014697384  0.013656174            5 
 1635000   0.59752822   -8.1440661    287.73548  0.014665417  0.013644646            7 
 1636000   0.59827295   -8.1335715    287.58642   0.01464886  0.013633115            3 
 1637000   0.60957669   -8.1627819    287.54526  0.014637816  0.013621577            8 
 1638000   0.60502926   -8.1556364    287.98055  0.014651025   0.01361005            5 
 1639000   0.59825425   -8.1681485    287.43014  0.014614101  0.013598518            7 
 1640000   0.59659833   -8.1508806    287.80129  0.014624049  0.013586995            8 
 1641000   0.59810563   -8.1763743    287.46064  0.014597838   0.01357549            9 
 1642000   0.60063992    -8.145342    287.45433  0.014588628  0.013563995            5 
 1643000   0.58566052   -8.1414578    287.60373  0.014587327  0.013552526            5 
 1644000   0.59898667   -8.1697392    287.40239  0.014568248  0.013541051            7 
 1645000   0.60572837   -8.1646541    287.89269  0.014584229  0.013529599           10 
 1646000   0.59262034   -8.1499583    287.63314  0.014562229  0.013518148            9 
 1647000   0.59221886       -8.156    287.66037  0.014554765  0.013506701            6 
 1648000   0.59128899   -8.1560628    287.79735   0.01455286  0.013495252            8 
 1649000   0.59410191   -8.1738299    287.46954  0.014527468  0.013483817            6 
 1650000   0.59967986   -8.1551028    287.62594  0.014526562  0.013472399            7 
 1651000   0.59772671   -8.1393817    287.76794  0.014524931   0.01346101            4 
 1652000   0.59960118    -8.132614     287.7723  0.014516359  0.013449645            3 
 1653000   0.60242508   -8.1483621    287.36889   0.01448724   0.01343827            4 
 1654000   0.58642614   -8.1518371    287.45301  0.014482719  0.013426897            9 
 1655000   0.59757805     -8.15759    287.72191  0.014487508   0.01341552            7 
 1656000    0.5772349   -8.1500281     287.3236  0.014458716  0.013404175            6 
 1657000   0.60926428    -8.150731    287.53987  0.014460867  0.013392842            9 
 1658000   0.58750139    -8.175179    286.96923  0.014423464  0.013381511            6 
 1659000   0.60342936   -8.1873172    287.78192  0.014455592  0.013370165            6 
 1660000   0.58486172    -8.141951    287.27034  0.014421202  0.013358842            7 
 1661000   0.57992897   -8.1589474    287.44125  0.014421094  0.013347542            8 
 1662000   0.57952605   -8.1684042    287.35157  0.014407921  0.013336234            7 
 1663000   0.59596617   -8.1606723    287.52401  0.014407898  0.013324955            9 
 1664000   0.58307538   -8.1804211    287.44371  0.014395218  0.013313671           12 
 1665000   0.59785182   -8.1823927    286.55431  0.014342058  0.013302405            8 
 1666000   0.58623056   -8.1679028    287.36017  0.014373758  0.013291128           14 
 1667000   0.58157055   -8.1738791    287.05172  0.014349716  0.013279881           11 
 1668000   0.58655838    -8.200069    287.32498  0.014354765  0.013268616            5 
 1669000   0.57917917    -8.176485    287.60413  0.014360102  0.013257372            3 
 1670000   0.59027816   -8.1855976     287.2762  0.014335139  0.013246137            7 
 1671000    0.5843638   -8.1867869      287.327  0.014329094   0.01323493            7 
 1672000   0.58844402   -8.1659676    287.34408  0.014321376  0.013223727            8 
 1673000   0.59638346   -8.1704617    287.46016  0.014318597  0.013212523            4 
 1674000   0.58475413   -8.1945305    287.45413  0.014309744  0.013201338            7 
 1675000   0.59418029   -8.1968557    286.96172  0.014276702  0.013190146            5 
 1676000    0.5810583   -8.1896114    287.09822  0.014274971  0.013178958           11 
 1677000     0.603597   -8.2054868    286.87882  0.014255557  0.013167779            7 
 1678000   0.57696977   -8.1731422    287.82288  0.014293945  0.013156621            6 
 1679000    0.5801037   -8.1861585    286.79456  0.014234393  0.013145479            6 
 1680000   0.57099427   -8.1928433    287.53351  0.014262575  0.013134342            5 
 1681000   0.57377643   -8.1967089    287.37236  0.014246102  0.013123215            3 
 1682000   0.58473257   -8.1730759    286.64752   0.01420172  0.013112116            9 
 1683000   0.57180024   -8.1788951    287.09816  0.014215595  0.013101016            5 
 1684000   0.57882462   -8.1786738     287.5214  0.014228098  0.013089933           13 
 1685000   0.58460475   -8.1954404    287.10364  0.014198993  0.013078861            7 
 1686000   0.57020886   -8.1886079    286.99937  0.014185418  0.013067788            5 
 1687000   0.59220098   -8.1748589    286.77207  0.014165781  0.013056735            8 
 1688000   0.56981976   -8.2079089    287.04674  0.014170949  0.013045685            7 
 1689000    0.5784567   -8.1887777    287.55714  0.014187741  0.013034657            7 
 1690000   0.57400002   -8.1898192    287.02881  0.014153294  0.013023627            6 
 1691000   0.58327028   -8.1932208     286.6626  0.014126878    0.0130126            5 
 1692000   0.57489576   -8.1928427    286.66173  0.014118486   0.01300159            4 
 1693000   0.59135359    -8.190483    287.26461  0.014139821  0.012990579            8 
 1694000   0.58353847   -8.2035474    286.74221  0.014105776  0.012979569           11 
 1695000   0.57061101   -8.2188803      287.238  0.014121829  0.012968567            7 
 1696000   0.57602677   -8.1966845    287.19565  0.014111421  0.012957586            4 
 1697000    0.5757271   -8.1857507    286.52832  0.014070336  0.012946603           11 
 1698000   0.57704291   -8.1952894    287.14573   0.01409235  0.012935644            6 
 1699000   0.57928609   -8.2177156    286.75443  0.014064863   0.01292468            7 
 1700000   0.57666013   -8.1935878    286.40165  0.014039296  0.012913723            6 
 1701000   0.59131161   -8.1852269    286.71757   0.01404652  0.012902793            8 
 1702000   0.56392838   -8.1956023    287.00438   0.01405231  0.012891848            4 
 1703000   0.57350282   -8.2114155     287.1856  0.014052926  0.012880926            6 
 1704000   0.57678173   -8.2133948    286.66579  0.014019258  0.012870019           11 
 1705000   0.57139903   -8.2097233    286.94578   0.01402472  0.012859138           12 
 1706000   0.56922848    -8.193917    286.53949  0.013996653  0.012848244            4 
 1707000   0.57284618   -8.2174171    286.44739  0.013983958  0.012837373            5 
 1708000   0.57123021   -8.2133101     286.8195  0.013993925  0.012826513            8 
 1709000   0.57096355   -8.2071923    286.50737  0.013970517  0.012815654            5 
 1710000   0.56677141   -8.2216763    286.55509  0.013964673   0.01280481            8 
 1711000   0.57733693   -8.2052577    287.29434  0.013992516   0.01279399           13 
 1712000   0.58194384   -8.2059588    287.11335  0.013975533  0.012783172            8 
 1713000   0.56950072   -8.2149799    286.97214  0.013960505  0.012772384            5 
 1714000   0.56346796   -8.1974856    286.55432  0.013932046  0.012761585            7 
 1715000   0.56285798   -8.2122385    286.97459  0.013944344  0.012750792            7 
 1716000   0.57280608   -8.1939509    286.81139  0.013928292  0.012740011            8 
 1717000   0.58016679   -8.2124478    286.99394   0.01392904  0.012729225            5 
 1718000   0.58217558   -8.2050741    287.07474  0.013924852  0.012718467            8 
 1719000   0.56254671   -8.2108884    286.55061  0.013891342  0.012707707            7 
 1720000   0.56925511   -8.2088269    286.74321  0.013892597   0.01269696            5 
 1721000   0.56575695   -8.1950886    286.86376  0.013890362  0.012686245            4 
 1722000   0.57315703   -8.1875735    286.15054  0.013847781  0.012675529            6 
 1723000   0.57601709   -8.2370177    286.99836  0.013880749  0.012664822            4 
 1724000   0.56946177   -8.2265668    286.55785  0.013851404  0.012654113            7 
 1725000   0.56740607   -8.2035722    286.49432  0.013840306  0.012643402            8 
 1726000   0.56897064   -8.2119237    286.81681  0.013847857  0.012632724            5 
 1727000   0.56240934   -8.2307735    286.15135  0.013807728  0.012622042            7 
 1728000   0.56393756   -8.2238911    287.22977  0.013851744  0.012611377            6 
 1729000    0.5728416   -8.2188421    286.43458  0.013805407  0.012600719            6 
 1730000   0.56773746   -8.2283681    286.73418  0.013811858  0.012590091            8 
 1731000   0.56735285   -8.2316628    286.68198  0.013801366  0.012579463            7 
 1732000   0.58026072   -8.2278134    286.71819   0.01379514  0.012568837            5 
 1733000   0.57248623    -8.229223    286.22942  0.013763677  0.012558238            8 
 1734000   0.55416897   -8.2455751    286.54018  0.013770674  0.012547625            9 
 1735000   0.55097373   -8.2096774    286.29322  0.013750875  0.012537036            6 
 1736000   0.55758056   -8.2121095    286.60699  0.013758016  0.012526452           10 
 1737000   0.56368944   -8.2284795    286.82546  0.013760577  0.012515885            5 
 1738000    0.5777503   -8.2252713    286.44519  0.013734426  0.012505317            5 
 1739000   0.56258071   -8.2512584    286.23333  0.013716376  0.012494755            4 
 1740000   0.55378896   -8.2324751    286.17699  0.013705795  0.012484203            6 
 1741000   0.55487145   -8.2412514    286.24189  0.013701029  0.012473652            5 
 1742000   0.55680125   -8.2322343    285.95464  0.013679422  0.012463121            8 
 1743000   0.56034818    -8.259184    286.03391  0.013675364  0.012452598            5 
 1744000   0.55886121   -8.2509029    286.08172  0.013669807  0.012442081            4 
 1745000   0.55780383   -8.2132259    286.14253  0.013664877   0.01243157            6 
 1746000   0.54951421   -8.2599515    285.98283  0.013649429  0.012421076            5 
 1747000   0.56396731   -8.2626075    286.36896  0.013660035  0.012410577            5 
 1748000     0.564398   -8.2468614    286.42155  0.013654727  0.012400106            5 
 1749000   0.54911344   -8.2522125    286.02582  0.013628064  0.012389628            8 
 1750000   0.54887237   -8.2394673    286.22456  0.013629741  0.012379179            4 
 1751000    0.5506471   -8.2382267     286.8483  0.013651642  0.012368729            6 
 1752000   0.55317277   -8.2517453    286.25241  0.013615507  0.012358295            4 
 1753000   0.55133799   -8.2419638    286.64193  0.013626256  0.012347889            6 
 1754000   0.55673401   -8.2561323    286.41296  0.013607609  0.012337461            4 
 1755000   0.54940778   -8.2546881    286.17162  0.013588396   0.01232705            9 
 1756000   0.54328587   -8.2319487    286.04399  0.013574601  0.012316652            4 
 1757000   0.55014147   -8.2491495    286.33091  0.013580483  0.012306267            8 
 1758000   0.54313908   -8.2354546    286.22094  0.013567545  0.012295889            7 
 1759000    0.5652883   -8.2360775    286.29193  0.013563196  0.012285526            8 
 1760000   0.55033562   -8.2492318    286.29626  0.013555694  0.012275163            8 
 1761000   0.55143762   -8.2608587    286.18222    0.0135426  0.012264807            4 
 1762000    0.5507441   -8.2552118    286.26715  0.013538931   0.01225447           10 
 1763000   0.53955267    -8.260781    286.15972  0.013526173  0.012244145            6 
 1764000   0.55138198   -8.2645694     286.6021  0.013539404  0.012233822            5 
 1765000   0.55390209   -8.2432814    286.01054  0.013503803   0.01222352            6 
 1766000   0.56732974   -8.2477657    286.17621  0.013503974  0.012213227            6 
 1767000   0.55928553   -8.2600286    285.68281  0.013473062   0.01220295            3 
 1768000   0.55802036   -8.2597681    286.24081  0.013491743  0.012192677            5 
 1769000    0.5535925    -8.263763     286.5205  0.013497292   0.01218242            5 
 1770000   0.55485879   -8.2636985    286.28626  0.013478638  0.012172166            5 
 1771000   0.54625576   -8.2733323    286.36992  0.013474963  0.012161933            3 
 1772000   0.55511773   -8.2400105    286.27692  0.013462986  0.012151709            3 
 1773000   0.54655905   -8.2536591    285.41875  0.013415057  0.012141501            3 
 1774000   0.54450112   -8.2488365    286.02565  0.013436004  0.012131299           11 
 1775000   0.54364884   -8.2799167    286.02468  0.013428389  0.012121096            5 
 1776000   0.54036368   -8.2656514    286.63065  0.013449261  0.012110918            5 
 1777000   0.54386928   -8.2629624    286.45757  0.013433576  0.012100754            5 
 1778000    0.5510472   -8.2800294    286.49033  0.013427556  0.012090589            2 
 1779000   0.55178161   -8.2738043    286.32619  0.013412319  0.012080431            4 
 1780000   0.54996323   -8.2597833    286.22354  0.013399979  0.012070287            6 
 1781000   0.54386821   -8.2696499    286.01396  0.013382648  0.012060157            5 
 1782000   0.54212026   -8.2760731    286.22318  0.013384922  0.012050032            5 
 1783000   0.53864908   -8.2622188    286.33655  0.013382714  0.012039912            2 
 1784000   0.55041019   -8.2832521     285.7599  0.013348276  0.012029809            8 
 1785000   0.54423012   -8.2658507    286.21818  0.013362193   0.01201972            3 
 1786000    0.5398264   -8.2828481     286.0222  0.013345567  0.012009634            5 
 1787000   0.55366282      -8.2706    286.82723   0.01337564  0.011999546            4 
 1788000   0.53101397   -8.2707811    285.97379  0.013328383   0.01198948            5 
 1789000   0.54083368   -8.2904605    286.18441  0.013330744  0.011979418            5 
 1790000   0.52323028   -8.2868837    285.92098  0.013311032  0.011969365            4 
 1791000    0.5374204    -8.262038    285.67295   0.01329206  0.011959312            5 
 1792000    0.5378129   -8.2757666    286.83176   0.01333853  0.011949277            3 
 1793000   0.53696062   -8.2532623    285.83449  0.013284741  0.011939257            5 
 1794000   0.53718388   -8.2826854     285.9822  0.013284197  0.011929237            5 
 1795000   0.53486746   -8.2985179    285.78861  0.013267809  0.011919208            3 
 1796000   0.53882663    -8.268857    286.46556  0.013291832  0.011909195            4 
 1797000   0.53763963   -8.2851549    285.45767  0.013237696  0.011899201            6 
 1798000    0.5349409   -8.2581915    286.17619  0.013263635  0.011889216            6 
 1799000   0.52403757   -8.2959493    285.80494  0.013239065  0.011879241            4 
 1800000   0.54256975    -8.297778     286.2076  0.013250352  0.011869274            4 
 1801000   0.53632381   -8.2855508    285.60117  0.013214935  0.011859329            4 
 1802000   0.53841343   -8.2916729    285.75725  0.013214819  0.011849381            4 
 1803000   0.52417434   -8.2819793    285.44431  0.013193026  0.011839445            3 
 1804000   0.52444883   -8.2824347    286.06392  0.013214335  0.011829528            6 
 1805000   0.54282346   -8.2770807    285.59694  0.013185454  0.011819622            4 
 1806000   0.53816918   -8.2685754    286.06179  0.013199603  0.011809724            6 
 1807000   0.52937539   -8.2952939    285.95479  0.013187363  0.011799848            9 
 1808000   0.53015279   -8.2791466    285.93132  0.013178988  0.011789971            7 
 1809000   0.53785272   -8.2832463    286.18215  0.013183257  0.011780116            6 
 1810000   0.52790569   -8.2887897    285.86697  0.013161463  0.011770257            5 
 1811000   0.52824691   -8.3024216    286.03394  0.013161879  0.011760395            7 
 1812000    0.5275028    -8.283336     285.6617  0.013137496  0.011750541            8 
 1813000    0.5418373   -8.2906164    285.84415  0.013138635  0.011740717            6 
 1814000   0.53954945   -8.2925212    285.80224  0.013129467  0.011730898            4 
 1815000   0.52051261   -8.2886979    285.93459   0.01312831  0.011721071            5 
 1816000   0.52950066   -8.2950265    285.87411  0.013118305  0.011711264            5 
 1817000   0.52153847    -8.290138    285.61124   0.01309903   0.01170146            5 
 1818000   0.53089439   -8.2869096    286.00048  0.013109666  0.011691675            6 
 1819000   0.52791379    -8.307555    285.88299  0.013097077    0.0116819           10 
 1820000   0.51901585   -8.2999625     285.9183  0.013091497  0.011672135            4 
 1821000   0.51892347    -8.296032    285.74972  0.013076594  0.011662373            8 
 1822000   0.52767713   -8.3159971    285.62247  0.013063596  0.011652631            4 
 1823000   0.53280308    -8.306688     285.8944  0.013068861  0.011642904            5 
 1824000   0.52356405   -8.2992644     285.7351  0.013054418  0.011633195            3 
 1825000     0.529251    -8.304031    285.71857   0.01304651  0.011623492            6 
 1826000    0.5289993   -8.2963745    286.32104   0.01306686  0.011613795            4 
 1827000   0.53039218   -8.2942106    285.56945  0.013025426  0.011604125            7 
 1828000   0.51785934   -8.3059947    285.74904  0.013026488  0.011594454            4 
 1829000   0.51694733   -8.3025975    285.93108   0.01302766  0.011584796            5 
 1830000   0.52253087     -8.30115    285.44551  0.012998429  0.011575151            5 
 1831000   0.52388804   -8.3201709    285.77437  0.013006298  0.011565517            5 
 1832000   0.51731017   -8.3103996     285.7966  0.013000209  0.011555886            4 
 1833000   0.52626583   -8.2926442    285.44375  0.012977075  0.011546267            4 
 1834000   0.52940678   -8.2983938     285.5532  0.012974973  0.011536661            6 
 1835000   0.53033569   -8.2985879    285.89069  0.012983228  0.011527062            3 
 1836000   0.51909772   -8.2938776    285.65889  0.012965636  0.011517464            3 
 1837000   0.50804068   -8.3287435    286.10828  0.012978964  0.011507881            4 
 1838000   0.52062789   -8.3121932    285.84042  0.012959758  0.011498313            6 
 1839000   0.52721393   -8.3214501    286.08616  0.012963846   0.01148875            3 
 1840000     0.512865   -8.3081316    285.82497  0.012944972  0.011479202            5 
 1841000   0.52594836   -8.3186197    285.53983  0.012925033  0.011469675            9 
 1842000   0.52316084    -8.296521    285.66981  0.012923897  0.011460137            3 
 1843000   0.52205086   -8.3077033    286.00632    0.0129321  0.011450611            7 
 1844000   0.52947541   -8.3119763    286.06363  0.012927677  0.011441101            5 
 1845000   0.51684155   -8.3169263    285.07539  0.012876034  0.011431595            4 
 1846000    0.5252051   -8.3182897    285.87077  0.012904964  0.011422094            8 
 1847000   0.52900593   -8.3091375    285.80592  0.012895052  0.011412605            7 
 1848000   0.51669601   -8.2986194    285.60898  0.012879193   0.01140312            5 
 1849000    0.5180124   -8.3188413    285.19318  0.012853488  0.011393646            6 
 1850000   0.52283972   -8.3353458    285.45589  0.012858373  0.011384184            6 
 1851000   0.51444814   -8.3139095     285.7573  0.012864997  0.011374729            7 
 1852000   0.50670297   -8.3013579     285.4447  0.012843984  0.011365273            4 
 1853000   0.50609671   -8.3095247     284.7691  0.012806669  0.011355836            8 
 1854000     0.517515   -8.3114834    285.40625    0.0128284   0.01134641            6 
 1855000   0.51995959    -8.317337    285.58485  0.012829508  0.011336997            7 
 1856000     0.518751   -8.2941838    285.34446  0.012811802  0.011327592            4 
 1857000   0.50692891   -8.3143146    285.33814  0.012804619  0.011318194            5 
 1858000     0.503896   -8.3195398    285.18832  0.012791008  0.011308804            7 
 1859000   0.50655213   -8.3182692    285.45544  0.012796102  0.011299426            8 
 1860000   0.51616172   -8.3209877    284.97377  0.012767642  0.011290049            4 
 1861000   0.50665575   -8.3270266    285.84886  0.012799967  0.011280693            6 
 1862000   0.51030489   -8.3099052    285.59075  0.012781541  0.011271349           10 
 1863000   0.50380195   -8.3442773    285.63937  0.012776855  0.011262009            9 
 1864000   0.51777067   -8.3031933    285.58924  0.012767759  0.011252679            8 
 1865000   0.51021921   -8.3356093    285.62504  0.012762513  0.011243352            7 
 1866000   0.51069875   -8.3082428    285.42273  0.012746638  0.011234045           11 
 1867000    0.5161649   -8.3302583     285.3014  0.012734396  0.011224751            8 
 1868000   0.50579897   -8.3129634    285.37237  0.012730744  0.011215462            6 
 1869000   0.50680497   -8.3274846    285.78231  0.012742211  0.011206182            6 
 1870000   0.51057147   -8.3145824    285.80339  0.012736336  0.011196909           10 
 1871000   0.50593924   -8.3294828    285.24486  0.012704652  0.011187658            9 
 1872000    0.5115438   -8.3236147    285.46712   0.01270776  0.011178407            8 
 1873000   0.49669488   -8.3419172    285.71464  0.012711988  0.011169166            7 
 1874000   0.50948077   -8.3127838    285.30852  0.012687145  0.011159931           11 
 1875000   0.50169215    -8.333633    285.44892  0.012686619  0.011150702            9 
 1876000   0.49969081   -8.3339373    284.86291  0.012653825  0.011141496            9 
 1877000   0.50412073     -8.34943    285.11079  0.012658089  0.011132293            7 
 1878000   0.49018816    -8.344567    285.46343  0.012666996  0.011123098            7 
 1879000   0.49352353   -8.3350523     285.1479  0.012646261  0.011113903            5 
 1880000    0.5097905   -8.3494966    285.10665  0.012637706  0.011104717           12 
 1881000   0.51460555   -8.3227161    285.45246  0.012646308  0.011095541            4 
 1882000   0.50115806   -8.3378279    285.87067  0.012658106  0.011086378            8 
 1883000   0.50075796    -8.326806    285.57086  0.012638116  0.011077221            8 
 1884000   0.49922998   -8.3296655    285.66723   0.01263567  0.011068083            8 
 1885000    0.4982517   -8.3408296    285.91892  0.012640094  0.011058946            8 
 1886000   0.49724225    -8.340954    284.82743  0.012585164  0.011049815            4 
 1887000   0.49554956   -8.3323725    285.11384  0.012591143  0.011040699            5 
 1888000   0.50464676    -8.351773    284.85447  0.012573026  0.011031589            9 
 1889000   0.49971121   -8.3460365    285.42059  0.012591344  0.011022491           12 
 1890000   0.48573943   -8.3332275     285.0308  0.012567496  0.011013399            7 
 1891000   0.49338447   -8.3262525    285.17206  0.012567075  0.011004313            6 
 1892000   0.49577701   -8.3444773    285.41673  0.012571209  0.010995236           10 
 1893000   0.49315829   -8.3343786    285.53563  0.012569802  0.010986172            8 
 1894000   0.49909319    -8.356067    285.30121  0.012552851  0.010977113            9 
 1895000   0.48558029   -8.3358047    285.03899  0.012534696  0.010968059            7 
 1896000    0.4916121   -8.3450709    285.24664  0.012537212   0.01095902            4 
 1897000   0.49156617   -8.3509001    285.38172  0.012536537  0.010949989            6 
 1898000   0.49577634   -8.3384553    285.23055  0.012523294   0.01094097           10 
 1899000   0.48578228   -8.3440334    285.12497  0.012512066  0.010931954            6 
 1900000   0.50434005   -8.3470673    284.82067  0.012492135  0.010922943            4 
 1901000   0.50738352   -8.3637861    285.49674    0.0125152  0.010913952            5 
 1902000    0.5044262   -8.3317803     284.7997   0.01247808  0.010904974            8 
 1903000   0.49171324   -8.3547253    284.97114  0.012479031  0.010895994            8 
 1904000   0.49091765   -8.3407809    285.14153  0.012479934  0.010887026            9 
 1905000   0.49159853   -8.3586151    285.00645  0.012467474  0.010878071            8 
 1906000   0.49308981   -8.3491843    285.02457  0.012461725  0.010869126            5 
 1907000   0.49756524   -8.3472635    285.27682  0.012466213  0.010860197            8 
 1908000   0.50120895   -8.3528587     285.5316  0.012470807  0.010851269            4 
 1909000   0.50274593   -8.3296036    285.87535   0.01247928  0.010842361           12 
 1910000     0.490036   -8.3423558    285.05048  0.012436757  0.010833452            6 
 1911000    0.4903723   -8.3679016    285.41072  0.012445959  0.010824556            5 
 1912000   0.49087593   -8.3623833    284.92356  0.012418216  0.010815667           12 
 1913000   0.49391454   -8.3451736    284.99476  0.012414827  0.010806789            7 
 1914000   0.49141853   -8.3403997     284.9631  0.012406962  0.010797913            9 
 1915000   0.49368432   -8.3505921    285.37231   0.01241829  0.010789052            7 
 1916000   0.48930769   -8.3681149    285.33511  0.012410191  0.010780204            3 
 1917000   0.48785166   -8.3537254    285.09938   0.01239347  0.010771367            5 
 1918000   0.47536369   -8.3648968    285.18971  0.012390933  0.010762527            9 
 1919000   0.48070914   -8.3407716    285.11772   0.01238135  0.010753703            7 
 1920000   0.47657469   -8.3697126    285.31294  0.012383374  0.010744888           11 
 1921000   0.48687547   -8.3460009    285.37871  0.012379781  0.010736075            6 
 1922000    0.4865241   -8.3564604    284.89405  0.012352326  0.010727287            5 
 1923000   0.49326395   -8.3458635    285.04887  0.012352612  0.010718491            8 
 1924000   0.48832547   -8.3538948    285.20273  0.012352855   0.01070971            6 
 1925000   0.48468456   -8.3457012    285.16128  0.012344644  0.010700941            9 
 1926000   0.48198074   -8.3709703    285.29798  0.012344149  0.010692183            8 
 1927000   0.49935965    -8.348805    285.09316  0.012328886  0.010683436            7 
 1928000   0.48532484   -8.3697878    284.69731  0.012305382  0.010674696            7 
 1929000   0.48244838   -8.3677063    284.36236  0.012284533  0.010665957           10 
 1930000   0.49037984   -8.3644317    285.18986  0.012313897  0.010657223            7 
 1931000   0.48086758   -8.3694388    284.46407  0.012276198   0.01064849            8 
 1932000   0.48429252   -8.3653086    284.99188  0.012292611  0.010639781            4 
 1933000   0.48613998   -8.3611557    284.70204  0.012273756  0.010631076           12 
 1934000   0.48756796   -8.3721594    285.02826  0.012281466  0.010622371            9 
 1935000   0.48186972   -8.3408745    284.52459  0.012253428   0.01061368            7 
 1936000   0.48665715   -8.3730407    284.84879  0.012261053  0.010605007            5 
 1937000   0.48220794   -8.3669178    284.93086  0.012258254  0.010596333            8 
 1938000   0.47073359   -8.3555086    285.14863  0.012261293  0.010587662            5 
 1939000   0.47806436   -8.3675742    285.30062  0.012261502   0.01057901            6 
 1940000   0.48999775   -8.3627477    284.57641  0.012224072  0.010570352           14 
 1941000   0.47835664   -8.3708984    284.85057  0.012229545  0.010561715           10 
 1942000   0.47969626   -8.3685255    285.02714  0.012230825  0.010553085            8 
 1943000    0.4689602   -8.3692012    284.64179  0.012208003  0.010544467            5 
 1944000   0.47929651   -8.3608997    284.53041  0.012196948  0.010535855           11 
 1945000   0.48089709    -8.374706    284.53087  0.012190697  0.010527243            8 
 1946000   0.47203319   -8.3662858     284.6041  0.012187568  0.010518641            9 
 1947000   0.46960734   -8.3791938    285.21685  0.012207535  0.010510051            9 
 1948000    0.4677083   -8.3873721    284.88898  0.012187242  0.010501471            9 
 1949000   0.48796479   -8.3707346    285.07035  0.012188744   0.01049291            7 
 1950000   0.47847036   -8.3777716    284.36502  0.012152351  0.010484351           11 
 1951000   0.47589142    -8.372064    284.52085  0.012152779  0.010475796            7 
 1952000   0.47084931   -8.3728918    285.05974  0.012169559   0.01046726            8 
 1953000   0.46246389   -8.3652093    285.02846  0.012161993  0.010458725            7 
 1954000   0.46813804   -8.3650738    285.01025  0.012154992  0.010450202            6 
 1955000   0.47003732   -8.3695246    284.68981  0.012135115  0.010441684           10 
 1956000   0.47536115   -8.3838236    285.00202  0.012142213  0.010433171            9 
 1957000   0.47265467   -8.3625054    284.69454  0.012122915  0.010424673            7 
 1958000   0.47863952   -8.3876009     284.6936  0.012116683  0.010416185           10 
 1959000   0.47903927   -8.3799022    284.52325  0.012103252  0.010407703            5 
 1960000   0.47500618   -8.3897424    284.75205  0.012106805  0.010399232            7 
 1961000   0.46535001   -8.3815058    285.04334   0.01211301  0.010390771            5 
 1962000   0.47098842   -8.3813532    284.70723   0.01209256  0.010382313            6 
 1963000   0.46472435    -8.389768    284.59996  0.012081846  0.010373863            8 
 1964000   0.47750051   -8.3716378    284.42013  0.012068064  0.010365427            7 
 1965000   0.47575546   -8.3818902    284.80715  0.012078335  0.010357002            9 
 1966000   0.47444715   -8.3909644    284.74691  0.012069638  0.010348576            3 
 1967000   0.46201712   -8.3768182    284.52374  0.012054047  0.010340154           12 
 1968000    0.4734674   -8.3962067    284.08509  0.012029348  0.010331746            8 
 1969000   0.47301384   -8.3863578    284.82482  0.012054546   0.01032335            5 
 1970000   0.47572527   -8.3918214     284.8548  0.012049695  0.010314959            8 
 1971000   0.46249062   -8.3842655    284.34342  0.012021961  0.010306585            5 
 1972000   0.46539415   -8.3777679    284.42399  0.012019269  0.010298215            7 
 1973000   0.46809175   -8.3939121    284.20682  0.012004005  0.010289848            5 
 1974000   0.46071755    -8.390396    284.51758  0.012011043  0.010281495           11 
 1975000   0.46004779    -8.399459    284.41429  0.012000603  0.010273147            5 
 1976000   0.47135011    -8.399162    284.64136  0.012004106  0.010264799            9 
 1977000   0.45156568    -8.385368    284.49315  0.011991787  0.010256465            9 
 1978000    0.4731756   -8.3917278    284.58362  0.011989536   0.01024814           11 
 1979000   0.45734277   -8.4040172    284.61024  0.011984598  0.010239816            8 
 1980000   0.46673315   -8.3942186    284.58184   0.01197735  0.010231501            7 
 1981000   0.46693606   -8.3829739    284.74775  0.011978283  0.010223202            4 
 1982000   0.45840487   -8.3990249    284.08472  0.011944363  0.010214912           11 
 1983000   0.46497532   -8.3942661    283.97154  0.011933583  0.010206621            7 
 1984000   0.46640391   -8.4043854    284.63867  0.011955589  0.010198342            4 
 1985000   0.45882963   -8.3968518    284.19754  0.011931047  0.010190063            9 
 1986000   0.46466734   -8.3936227    284.29305  0.011929047  0.010181797            6 
 1987000   0.46178186   -8.3851747    284.29219  0.011923007   0.01017354            9 
 1988000   0.45475504   -8.3822132    284.29005   0.01191692  0.010165295            7 
 1989000   0.45597056   -8.3950167    284.61438  0.011924517  0.010157062           10 
 1990000   0.45619793    -8.417468     284.4795  0.011912877  0.010148825           10 
 1991000   0.45809756   -8.4001346    284.30983  0.011899792  0.010140601            4 
 1992000   0.45682838   -8.3958292    284.36642  0.011896185  0.010132388            7 
 1993000   0.45350575    -8.402756     284.6815  0.011903391  0.010124186            8 
 1994000   0.45802242   -8.4132759    284.44946  0.011887724   0.01011599            6 
 1995000   0.45413727   -8.4068417    284.29397   0.01187527  0.010107798            6 
 1996000     0.452505   -8.3829549     284.5104  0.011878357  0.010099616           11 
 1997000   0.45989316   -8.4237125    284.19425  0.011859216  0.010091445            4 
 1998000   0.45911282   -8.4059741      284.358   0.01186011  0.010083284            7 
 1999000   0.46304362   -8.4044497    284.63133  0.011865572  0.010075123            6 
 2000000   0.45163241   -8.4057131    284.14951  0.011839563  0.010066976            7 
 2001000   0.45879045   -8.3994394    284.19901  0.011835707  0.010058836            6 
 2002000   0.45130529   -8.4074283    284.50036  0.011842339  0.010050708            8 
 2003000   0.45284286    -8.396468    284.14385  0.011821595  0.010042577            8 
 2004000   0.45398447   -8.3929206    283.97635  0.011808731  0.010034459            9 
 2005000   0.45124663   -8.4032364    284.16432  0.011810653  0.010026349           11 
 2006000   0.44783438   -8.4187256    284.51889  0.011819495  0.010018252           10 
 2007000   0.45192126   -8.3952277    284.23564  0.011801845  0.010010162            5 
 2008000   0.45324689   -8.4037127     284.0033  0.011786326  0.010002085            7 
 2009000   0.45352767   -8.4010771    284.69325  0.011809078 0.0099940111           12 
 2010000   0.44573432   -8.4010443    284.32192  0.011787808 0.0099859551            5 
 2011000   0.44890893    -8.404796    284.24718  0.011778849 0.0099778986            7 
 2012000   0.44817234   -8.4124471    284.05272   0.01176494 0.0099698484            4 
Loop time of 4709.3 on 48 procs for 2000000 steps with 4000 atoms

Performance: 73386.660 tau/day, 424.691 timesteps/s
99.4% CPU use with 48 MPI tasks x no OpenMP threads

MPI task timing breakdown:
Section |  min time  |  avg time  |  max time  |%varavg| %total
---------------------------------------------------------------
Pair    | 295.99     | 309.4      | 328.82     |  48.8 |  6.57
Neigh   | 30.604     | 31.985     | 36.01      |  16.2 |  0.68
Comm    | 292.03     | 312.51     | 330.43     |  54.5 |  6.64
Output  | 4.0944     | 4.0962     | 4.1321     |   0.3 |  0.09
Modify  | 3998.6     | 4008.7     | 4015.4     |   6.5 | 85.12
Other   |            | 42.56      |            |       |  0.90

Nlocal:        83.3333 ave          90 max          76 min
Histogram: 1 1 7 1 9 13 4 7 3 2
Nghost:        1990.00 ave        2006 max        1974 min
Histogram: 2 4 3 5 9 10 3 6 5 1
Neighs:        12677.8 ave       13774 max       10829 min
Histogram: 1 1 1 2 9 7 12 5 3 7
FullNghs:      25356.7 ave       27546 max       22907 min
Histogram: 1 3 2 5 13 9 3 7 3 2

Total # of neighbors = 1217121
Ave neighs/atom = 304.28025
Neighbor list builds = 107295
Dangerous builds = 0

#clear
#
#next RN
#
#jump SELF
Total wall time: 1:18:32
