
units lj                  # Use reduced LJ style units
atom_style atomic         # Uncharged point particles
atom_modify map hash      # Needed for indexing of clusters etc
                          # Used to be able to find where atoms are in relation to each other.

lattice fcc 1.0 spacing 1 1 1
Lattice spacing in x,y,z = 1.5874011 1.5874011 1.5874011
region box block 0 10 0 10 0 10 units lattice
create_box 2 box
Created orthogonal box = (0.0000000 0.0000000 0.0000000) to (15.874011 15.874011 15.874011)
  3 by 4 by 4 MPI processor grid
create_atoms 1 box
Created 4000 atoms
  using lattice units in orthogonal box = (0.0000000 0.0000000 0.0000000) to (15.874011 15.874011 15.874011)
  create_atoms CPU = 0.026 seconds
set type 1 type/fraction 2 0.98 78393
Setting atom values ...
  3920 settings made for type/fraction
mass 1 1.0
mass 2 1.0
pair_style lj/cut  3.5
pair_modify tail  yes
pair_coeff 1  1  1.0  1.0   # Intearaction between 1 and 1 set with epsilon = 1 and sigma = 1
pair_coeff 1  2  1.5  0.8
pair_coeff 2  2  0.5  0.88

write_data data.0
System init for write_data ...
Neighbor list info ...
  update every 1 steps, delay 10 steps, check yes
  max neighbors/atom: 2000, page size: 100000
  master list distance cutoff = 3.8
  ghost atom cutoff = 3.8
  binsize = 1.9, bins = 9 9 9
  1 neighbor lists, perpetual/occasional/extra = 1 0 0
  (1) pair lj/cut, perpetual
      attributes: half, newton on
      pair build: half/bin/atomonly/newton
      stencil: half/bin/3d
      bin: standard
WARNING: Not all mixed pair coeffs generated from mixing. Use write_data with 'pair ij' option to store all pair coeffs. (../write_data.cpp:312)


#############################
#   M E L T   S Y S T E M   #
#############################

velocity all create 2.4 2750902 mom yes dist gaussian # Assign velocities
                                                    # Temperature 2.4, random number seed, zero linear momentum
                                                                                # Gaussian distribution

timestep 0.002   # simulation timestep
thermo 1000       # output thermodynamic data every 1000 steps bf 100

# Define a fix  in this case with index 1 applied to all
# particles in the simulation. This fix is for simulations
# in the anisotropic NPT ensemble. Note that we use the MTK
# correction.
fix 1 all npt temp 2.4 2.4 0.1 iso 5.68 5.68 0.5 mtk yes tchain 5 pchain 5 # Use NPT ensemble
                                                                         # Set temperature and pressure and damping
                                                                         # Numbers of thermostats in chain and in barostat
run 10000          # run for 10000 steps
Per MPI rank memory allocation (min/avg/max) = 3.642 | 3.644 | 3.648 Mbytes
Step Temp E_pair E_mol TotEng Press Volume 
       0          2.4   -2.7962588            0   0.80284124   -1.8826162         4000 
    1000    2.3699945   -1.5479855            0    2.0061175     5.608038    4264.0848 
    2000    2.4056889   -1.5987838            0    2.0088474    5.7236916    4188.9666 
    3000     2.361991   -1.5212244            0    2.0208764    5.8383883    4237.2709 
    4000    2.3750122   -1.5464343            0    2.0151933     5.760066    4233.9254 
    5000    2.3973992    -1.587786            0    2.0074137    5.5721003    4235.6406 
    6000    2.3912835   -1.5935401            0    1.9924885    5.6554722     4206.426 
    7000    2.4424284   -1.5429491            0    2.1197776    5.7881239    4252.6959 
    8000    2.3940685   -1.6147168            0    1.9754881    5.5987402    4194.4534 
    9000    2.3936709   -1.5682391            0    2.0213696     5.730053    4227.9865 
   10000    2.3725876   -1.5993938            0    1.9585979    5.7376732    4186.8666 
Loop time of 2.35335 on 48 procs for 10000 steps with 4000 atoms

Performance: 734271.766 tau/day, 4249.258 timesteps/s
99.6% CPU use with 48 MPI tasks x no OpenMP threads

MPI task timing breakdown:
Section |  min time  |  avg time  |  max time  |%varavg| %total
---------------------------------------------------------------
Pair    | 1.0384     | 1.0941     | 1.1494     |   2.3 | 46.49
Neigh   | 0.20292    | 0.2112     | 0.22081    |   0.7 |  8.97
Comm    | 0.74443    | 0.80278    | 0.87909    |   3.2 | 34.11
Output  | 0.00024627 | 0.00025192 | 0.00031605 |   0.0 |  0.01
Modify  | 0.20776    | 0.2303     | 0.25635    |   2.5 |  9.79
Other   |            | 0.0147     |            |       |  0.62

Nlocal:        83.3333 ave          91 max          74 min
Histogram: 1 2 7 4 6 9 3 6 5 5
Nghost:        1596.69 ave        1624 max        1564 min
Histogram: 1 3 4 6 4 9 8 7 2 4
Neighs:        9123.77 ave       10180 max        8124 min
Histogram: 3 4 5 6 6 10 4 4 1 5

Total # of neighbors = 437941
Ave neighs/atom = 109.48525
Neighbor list builds = 913
Dangerous builds = 238

# Equilibrate just above the melting temperature to avoid step fn in T

fix 1 all npt temp 1.25 1.25 0.1 iso 5.68 5.68 0.5 mtk yes tchain 5 pchain 5
run 2000
Per MPI rank memory allocation (min/avg/max) = 3.643 | 3.645 | 3.649 Mbytes
Step Temp E_pair E_mol TotEng Press Volume 
   10000    2.3725876   -1.5993938            0    1.9585979    5.7376732    4186.8666 
   11000    1.2675786   -2.4474136            0  -0.54652109    5.5652589    3300.8758 
   12000    1.2666472   -2.4609996            0  -0.56150372    5.5080857     3292.899 
Loop time of 0.573688 on 48 procs for 2000 steps with 4000 atoms

Performance: 602418.501 tau/day, 3486.218 timesteps/s
99.7% CPU use with 48 MPI tasks x no OpenMP threads

MPI task timing breakdown:
Section |  min time  |  avg time  |  max time  |%varavg| %total
---------------------------------------------------------------
Pair    | 0.25559    | 0.27563    | 0.29963    |   1.7 | 48.05
Neigh   | 0.038987   | 0.04094    | 0.043364   |   0.5 |  7.14
Comm    | 0.1828     | 0.20811    | 0.23279    |   2.3 | 36.28
Output  | 7.0409e-05 | 7.1747e-05 | 8.7229e-05 |   0.0 |  0.01
Modify  | 0.041473   | 0.044343   | 0.047609   |   0.9 |  7.73
Other   |            | 0.004593   |            |       |  0.80

Nlocal:        83.3333 ave          93 max          76 min
Histogram: 2 7 7 3 12 7 3 4 2 1
Nghost:        1875.62 ave        1898 max        1850 min
Histogram: 1 4 2 6 5 9 12 5 2 2
Neighs:        11599.4 ave       13335 max       10321 min
Histogram: 3 6 5 11 6 9 2 2 1 3

Total # of neighbors = 556770
Ave neighs/atom = 139.19250
Neighbor list builds = 146
Dangerous builds = 15

#############################
# L I N E A R  Q U E N C H  #
#############################

# Define solid atoms. This closely follows ten Wolde  Ruiz-Montero and Frenkel  Faraday Discuss  1996  104  93-110
# Compute components of the per-atom q6 vector
compute q6 all orientorder/atom degrees 1 6 components 6 nnn NULL cutoff 1.3 # compute the Q6 parameter.
                                                                             # Use all neighbours within 1.3 unit cell.

# get number of connections
compute coord_number all coord/atom orientorder q6 0.5

# An atom is solid if it has 8 or more connections (of a possible 14)
variable is_solid atom c_coord_number>=8
group solid dynamic all var is_solid    # Must be dynamic to update
dynamic group solid defined

# do clustering
compute cluster solid cluster/atom 1.3 # Create a cluster where all atoms within are solid and max 1.3 units from another member

# define chunks one chunk per cluster
compute clus_chunks solid chunk/atom c_cluster nchunk every compress yes  # Says which atoms are in which chunk

# count the size of each chunk
compute size_chunks solid property/chunk clus_chunks count


# Find the maximum entry in the vector of chunk sizes
variable max_n equal max(c_size_chunks)


# Thermo style which includes this variable
# thermo_style custom step temp pe vol v_max_n

thermo ${N}  # Print the thermo information every 100 steps
thermo 1000  

# Reset the npt fix at a lower temperature (below freezing)
fix 1  all npt temp  ${temp} ${temp}  0.1  iso  5.68  5.68  0.5  mtk yes tchain  5  pchain  5
fix 1  all npt temp  0.45 ${temp}  0.1  iso  5.68  5.68  0.5  mtk yes tchain  5  pchain  5
fix 1  all npt temp  0.45 0.45  0.1  iso  5.68  5.68  0.5  mtk yes tchain  5  pchain  5

dump dmp2 all dcd ${N} traj.dcd
dump dmp2 all dcd 1000 traj.dcd


compute msd all msd com yes
variable twopoint equal c_msd[4]/6/(step*dt+1.0e-6)
fix 9 all vector 10 c_msd[4]
variable fit equal slope(f_9)/6/(10*dt)
thermo_style custom step temp pe c_msd[4] v_twopoint v_fit v_max_n

fix 1 all npt temp 1.25 ${temp} 0.1 iso 5.68 5.68 0.5 mtk yes tchain 5 pchain 5
fix 1 all npt temp 1.25 0.45 0.1 iso 5.68 5.68 0.5 mtk yes tchain 5 pchain 5
run 500000 # 5000000  # Run for this many steps
Neighbor list info ...
  update every 1 steps, delay 10 steps, check yes
  max neighbors/atom: 2000, page size: 100000
  master list distance cutoff = 3.8
  ghost atom cutoff = 3.8
  binsize = 1.9, bins = 8 8 8
  4 neighbor lists, perpetual/occasional/extra = 1 3 0
  (1) pair lj/cut, perpetual
      attributes: half, newton on
      pair build: half/bin/atomonly/newton
      stencil: half/bin/3d
      bin: standard
  (2) compute orientorder/atom, occasional
      attributes: full, newton on
      pair build: full/bin/atomonly
      stencil: full/bin/3d
      bin: standard
  (3) compute coord/atom, occasional
      attributes: full, newton on
      pair build: full/bin/atomonly
      stencil: full/bin/3d
      bin: standard
  (4) compute cluster/atom, occasional
      attributes: full, newton on
      pair build: full/bin/atomonly
      stencil: full/bin/3d
      bin: standard
Per MPI rank memory allocation (min/avg/max) = 9.814 | 9.818 | 9.822 Mbytes
Step Temp PotEng c_msd[4] v_twopoint v_fit v_max_n 
   12000    1.2666472   -2.4609996 1.8987882e-30 1.3186029e-32 8.3333333e+20       -1e+20 
   13000    1.2703518   -2.4324128    1.1588689 0.0074286462  0.098058128            3 
   14000     1.240756   -2.4265224    2.4291381  0.014459155   0.10286792            1 
   15000    1.2498782   -2.4326796    3.7329266   0.02073848   0.10548875            5 
   16000    1.2309356   -2.4548627    4.9355303  0.025705886   0.10544366            2 
   17000    1.2097087   -2.4423226    6.1899139  0.030342714   0.10469851            1 
   18000    1.2783281   -2.4737685    7.5581601  0.034991481   0.10549182            1 
   19000    1.2192381   -2.4690781    8.8920666  0.039000291   0.10605661            1 
   20000    1.2141034   -2.4572028    10.054408  0.041893366   0.10635967            1 
   21000    1.2105817    -2.451808    11.332455  0.044970059   0.10626883            1 
   22000    1.2668941   -2.4666951    12.644028  0.047894046   0.10617731            3 
   23000    1.2597506   -2.4683883    13.960576  0.050581795   0.10611755            1 
   24000    1.2121863   -2.4459209     15.43623  0.053598021   0.10676162            2 
   25000    1.2306784   -2.4388297    16.677007  0.055590023   0.10731653            2 
   26000    1.2468434   -2.4740802    17.829647  0.057146304    0.1073338            2 
   27000    1.2344856   -2.4441973    18.896442   0.05832235   0.10698519            1 
   28000    1.2106299   -2.4828442    20.049601  0.059671431    0.1064268            2 
   29000    1.1978601   -2.4564179    21.198364  0.060914839   0.10602131            1 
   30000     1.213493    -2.475676    22.612312  0.062811976   0.10567948            2 
   31000     1.210833   -2.4717402     23.96083  0.064410833   0.10548866            2 
   32000    1.1971574   -2.4991926    25.294345  0.065870689   0.10538743            1 
   33000    1.2023646   -2.4809972    26.616824  0.067214201   0.10546283            1 
   34000    1.2399473   -2.4926179     27.56733  0.067566984   0.10552995            2 
   35000      1.22239   -2.4904134    28.775816  0.068513846   0.10537067            1 
   36000    1.2089669   -2.4813426     30.02835  0.069510069   0.10512698            2 
   37000    1.2296783   -2.4927446    31.066274  0.069969086   0.10483902            2 
   38000    1.2253214    -2.485844    32.379415  0.071007488    0.1045618            2 
   39000    1.2267854   -2.4958302    33.699801  0.072008121   0.10442154            2 
   40000    1.1999763   -2.4656702    35.167174  0.073264944   0.10437981            2 
   41000    1.2046823   -2.4825217    36.292564  0.073765373   0.10432403            1 
   42000    1.2015271   -2.4732973    37.527481  0.074459288   0.10432555            1 
   43000    1.2063539   -2.5002789    38.734757  0.075067359   0.10431197            1 
   44000    1.1953875    -2.481884    40.162335  0.076065028   0.10428582            2 
   45000    1.1827257   -2.5202775    41.154758  0.076212514   0.10424898            1 
   46000    1.1919054   -2.4890573    42.555856  0.077093942     0.104226            1 
   47000    1.1792077   -2.5161733    43.566837  0.077246164   0.10422999            1 
   48000    1.1933385   -2.4965592    44.533697  0.077315446   0.10414548            1 
   49000    1.2164315   -2.4778512    46.032573  0.078286688   0.10400097            1 
   50000    1.2110317   -2.4838019    47.207987  0.078679978   0.10388574            2 
   51000    1.1683668   -2.5146515    48.242769  0.078828053   0.10373671            2 
   52000    1.1674652   -2.5135393     49.30556   0.07901532   0.10360804            1 
   53000    1.1565507   -2.5100645    50.577608   0.07952454   0.10346506            2 
   54000    1.1585763   -2.5041278    51.588804  0.079612351   0.10328445            3 
   55000    1.1689439   -2.5137783    53.065178  0.080401783   0.10313325            1 
   56000    1.1916551   -2.4880337    54.613648  0.081270308   0.10303689            2 
   57000    1.1801828   -2.4907355    55.648222   0.08135705   0.10293421            2 
   58000    1.1698739   -2.4974243    56.873331  0.081714555   0.10285755            2 
   59000    1.1742827    -2.517588     58.35067  0.082416199   0.10286272            3 
   60000    1.1663382   -2.5254564    59.194428  0.082214483    0.1028541            1 
   61000     1.168153   -2.5092051    60.679743  0.082895823   0.10286556            1 
   62000    1.1862005   -2.5108452    61.874586  0.083164765   0.10285133            1 
   63000    1.1719051   -2.5100733    62.775192  0.083035968   0.10282208            1 
   64000    1.1653457   -2.5153463    64.118234  0.083487284   0.10278303            1 
   65000    1.1386382   -2.5189266    65.178942  0.083562746   0.10270861            3 
   66000    1.1741769   -2.5282036    66.179048  0.083559403   0.10256944            1 
   67000    1.1477358   -2.5188887     67.30049  0.083707077   0.10247863            2 
   68000    1.1401269   -2.5221885     68.56529   0.08402609   0.10241415            1 
   69000    1.1628783   -2.5412613    69.859561   0.08437145   0.10232331            2 
   70000    1.1505835   -2.5025534    71.025948  0.084554699   0.10224809            2 
   71000    1.1279018    -2.536046    72.113253  0.084639968   0.10216049            2 
   72000    1.1324403   -2.5612132    72.714324  0.084160096   0.10205537            1 
   73000    1.1829381   -2.5134511    74.523092  0.085072022   0.10193301            1 
   74000    1.1288468   -2.5278695    75.524271  0.085049854   0.10182218            1 
   75000    1.1693808   -2.5376052    76.024122  0.084471246   0.10166888            3 
   76000    1.1449875   -2.5232704    77.395109  0.084863058   0.10149724            2 
   77000     1.164967   -2.5142627    77.991845  0.084406758   0.10131173            1 
   78000    1.1275237   -2.5248932    79.341079  0.084766109    0.1011159            1 
   79000    1.1542449   -2.5160487    80.157658  0.084554491   0.10091704            4 
   80000    1.1305116    -2.554585    81.235152   0.08461995   0.10074968            3 
   81000    1.1336304    -2.552365    82.467228  0.084842826    0.1005994            1 
   82000    1.1467482    -2.568846    83.642013  0.085002045   0.10044147            2 
   83000    1.1373002   -2.5688396    84.810322  0.085150926   0.10027937            2 
   84000    1.1592051   -2.5564103     85.78861  0.085107747   0.10012444            2 
   85000    1.1345967   -2.5740615    87.083099  0.085375587  0.099970358            1 
   86000    1.1301204    -2.558603    87.962873  0.085235342  0.099821038            1 
   87000    1.1335543   -2.5537205    89.154893  0.085397407  0.099682402            3 
   88000       1.1343   -2.5494829    90.302872  0.085514083  0.099537866            2 
   89000    1.1390333    -2.564487    91.246057  0.085436383  0.099390195            2 
   90000    1.1198504   -2.5673526    92.207266  0.085377098  0.099238534            3 
   91000    1.1208905   -2.5754832    93.698239  0.085804248   0.09910897            3 
   92000    1.1103903   -2.5721414    94.981478  0.086033947  0.098989912            6 
   93000    1.1152833   -2.5896691    95.966095  0.085991124  0.098887482            3 
   94000    1.1006263   -2.6023208    96.959531  0.085957031  0.098796012            2 
   95000    1.1063595   -2.5754493    98.617987  0.086507006   0.09868853            2 
   96000    1.0948891    -2.592373    99.539915  0.086406176  0.098583795            2 
   97000    1.1239441   -2.5747841    100.39548  0.086250411  0.098470959            1 
   98000    1.0897867   -2.6079062    101.60801   0.08640137  0.098366837            2 
   99000    1.1034202   -2.5798468    102.74031  0.086481739  0.098258076            3 
  100000    1.1239323   -2.5687737    102.93103  0.085775856  0.098127628            3 
  101000    1.1378702   -2.5805683    104.14961  0.085932021   0.09798258            3 
  102000    1.1321009   -2.6181451    104.74719   0.08557777  0.097852762            3 
  103000    1.1267599   -2.5943146    105.92446  0.085699403  0.097713748            1 
  104000    1.1149676   -2.5675464    106.75651  0.085542073  0.097572094            1 
  105000    1.1005895   -2.5910677    107.89294  0.085629313  0.097407352            2 
  106000    1.1040099   -2.5460217    108.67925  0.085439659  0.097222345            1 
  107000    1.1251079   -2.6105951    109.38173   0.08518826  0.097044467            1 
  108000    1.0972662   -2.6103885    110.38052  0.085170154  0.096857403            1 
  109000    1.0916748   -2.5868016    110.83456    0.0847359  0.096661617            4 
  110000    1.0808863   -2.5884594    112.88483  0.085518809  0.096467862            3 
  111000    1.0465169   -2.6098714    112.95047   0.08479765  0.096293046            2 
  112000    1.1015755   -2.6290395    113.75919  0.084642254   0.09611113            2 
  113000    1.0821563   -2.5840912    115.00992  0.084815577  0.095919631            1 
  114000     1.076516   -2.6469483     115.5565  0.084471127  0.095734464            1 
  115000     1.072654   -2.6072555    116.54598  0.084453609  0.095537564            2 
  116000    1.0978719    -2.581579    117.84246  0.084656938  0.095365416            1 
  117000    1.1047331   -2.6141743    119.20669   0.08490505   0.09518031            2 
  118000    1.0884533    -2.595108    119.91642   0.08468674  0.095007572            2 
  119000    1.1091604   -2.6012984     120.9871  0.084724863   0.09483512            2 
  120000    1.0755341   -2.6477813    121.57302  0.084425711  0.094660257            2 
  121000    1.0815466   -2.6351501    122.40889  0.084303642  0.094486242            3 
  122000    1.0846991   -2.6438572    123.23264  0.084175299  0.094304826            6 
  123000     1.080174   -2.6320897    124.53201  0.084371282  0.094139431            2 
  124000    1.0576406   -2.6059577    125.84843  0.084575555  0.093990194            1 
  125000    1.0738433   -2.6555756    126.59905  0.084399369  0.093834712            5 
  126000    1.0613762   -2.6006816    127.54144  0.084352802  0.093683023            3 
  127000    1.0780067   -2.6166871    128.53828    0.0843427  0.093525689            1 
  128000    1.0637743   -2.6507264    129.12383  0.084064993  0.093355325            2 
  129000    1.0469333   -2.6181911    129.88117  0.083902562  0.093179857            2 
  130000    1.1046858   -2.6464819    130.26644  0.083504125  0.092999287            3 
  131000    1.0557801   -2.6549311    132.09218  0.084028103  0.092825152            2 
  132000    1.0743111   -2.6497421      133.045  0.083993056  0.092659688            2 
  133000    1.0527197   -2.6631521    133.88196  0.083885942  0.092510001            2 
  134000    1.0463823    -2.681601    134.33287  0.083540341  0.092356974            2 
  135000    1.0119659   -2.6468278    135.60118  0.083704429  0.092202038            2 
  136000     1.044873    -2.649048    135.69524  0.083146594  0.092038849            1 
  137000    1.0593698   -2.6549739    136.37282  0.082951838   0.09187243            2 
  138000    1.0316157   -2.6647914    137.35448  0.082943527  0.091705955            2 
  139000    1.0633602   -2.6639791    139.22568  0.083468633  0.091540645            2 
  140000    1.0351904   -2.6483374    139.85643  0.083247877  0.091386862            4 
  141000    1.0396633   -2.6512439    141.18088  0.083440236  0.091237186            2 
  142000    1.0597271   -2.6823766    142.05161  0.083363618  0.091091291            8 
  143000    1.0410499    -2.666643     142.9724  0.083317249  0.090942171            3 
  144000    1.0480605   -2.6879032    143.32749  0.082944151  0.090793364            3 
  145000    1.0561348   -2.6804474    144.70015  0.083161008   0.09064905            4 
  146000    1.0096692   -2.6943975     145.0652  0.082799769  0.090499488            2 
  147000    1.0305531   -2.6688272    145.93496   0.08272957  0.090348353            2 
  148000    1.0352371   -2.6871387    146.89149  0.082709171  0.090196361            1 
  149000    1.0087463   -2.6646427    147.49005  0.082488841  0.090042268            2 
  150000    1.0435889   -2.6791359    148.28947  0.082383041  0.089885031            3 
  151000    1.0289766   -2.6851837    149.19646  0.082338003  0.089721078            1 
  152000    1.0226773   -2.6459697    149.34512  0.081877805  0.089559497            4 
  153000    1.0194959   -2.6596783    150.57444   0.08201222  0.089394413            5 
  154000    1.0141187   -2.6705684    150.73438  0.081566222  0.089235591            2 
  155000    1.0346816   -2.6761859    152.47941  0.081978179  0.089073536            3 
  156000    1.0247948   -2.6970947    153.23455  0.081856063  0.088916036            2 
  157000    1.0162914   -2.6980663    153.33526  0.081388141  0.088764016            2 
  158000    1.0358385   -2.6748401     154.6796  0.081582068  0.088610167            2 
  159000    1.0298467   -2.7385157    155.72149  0.081615034   0.08846227            3 
  160000    1.0056179    -2.661625    157.00652  0.081774227  0.088318143            2 
  161000   0.99830025   -2.7182551    158.15978  0.081863239  0.088177728            3 
  162000    1.0238982   -2.7016147    158.83547  0.081705488  0.088047641            2 
  163000    1.0149043   -2.7020217     159.4857  0.081536658  0.087919413            4 
  164000    1.0121527   -2.6813068    160.57604  0.081593516  0.087791262            2 
  165000    1.0035423   -2.7172935    161.19342  0.081410818  0.087659972            3 
  166000   0.99832313   -2.6880861    162.45581  0.081554123  0.087524299            3 
  167000    1.0136616   -2.7063223     162.8058  0.081240416    0.0873906            2 
  168000     1.002284   -2.6873753    163.85984  0.081279685  0.087255091            2 
  169000   0.98266751   -2.7346357    163.90457  0.080820795   0.08711495            2 
  170000    1.0202226   -2.6916662    164.91211  0.080839268  0.086974874            3 
  171000   0.98710457   -2.7147575    166.07511  0.080933288  0.086843227            2 
  172000   0.98857957   -2.7122862    167.01464  0.080917943  0.086711372            1 
  173000    0.9821115   -2.7303875    167.24033  0.080558924  0.086574579            3 
  174000   0.97813162   -2.7295484     168.1895  0.080550527  0.086437705            3 
  175000   0.98912169   -2.7109231    168.84348  0.080401658  0.086304317            1 
  176000     1.007942   -2.7397277     169.4586  0.080236077  0.086162699            4 
  177000   0.99758326   -2.7323596    170.44019  0.080244908    0.0860169            1 
  178000   0.97804333   -2.7232047    170.98209  0.080047793   0.08587298            3 
  179000   0.97704233   -2.7130074    172.44041  0.080279521  0.085731905            3 
  180000   0.97774167   -2.7442261    172.32743  0.079781218  0.085590918            4 
  181000   0.95996125   -2.7210851    172.65393   0.07949076  0.085444469            2 
  182000   0.98531058   -2.7363634    174.23704  0.079778863   0.08530262            2 
  183000   0.96016757   -2.7585702    174.70636  0.079556632  0.085160578            1 
  184000   0.97779365   -2.7158882    175.48023  0.079474742  0.085020886            2 
  185000   0.97060816   -2.7732087    176.48029  0.079495625  0.084878918            2 
  186000   0.97038631   -2.7497255    176.90629  0.079259092  0.084747063            2 
  187000   0.97919731   -2.7320107     179.4825  0.079983288  0.084613045            3 
  188000   0.95901931   -2.7315234     179.1663  0.079417688  0.084487233            2 
  189000   0.97258075   -2.7573583    179.94115   0.07933913  0.084356932            3 
  190000   0.95236834   -2.7444583    180.09121  0.078987372  0.084225659            3 
  191000   0.96797866   -2.7240341     180.4145  0.078714876  0.084090818            4 
  192000   0.96924249   -2.7719436    181.18788  0.078640571  0.083952856            1 
  193000   0.96420188   -2.7584701    181.78209  0.078489677  0.083809759            3 
  194000   0.94241704   -2.7492996     182.1139  0.078227621   0.08366279            1 
  195000   0.95612003   -2.7700002    182.94847  0.078183106  0.083522772            2 
  196000    0.9583198   -2.7251653     183.9493  0.078209736  0.083378883            1 
  197000   0.96388628   -2.7706992    184.75987  0.078155611  0.083238528            2 
  198000     0.969557   -2.7557403    185.05465  0.077884955  0.083094281            2 
  199000   0.93466023   -2.7631408    185.42629  0.077649201  0.082946327            2 
  200000   0.95247308   -2.7844186    185.79343  0.077413927  0.082801273            4 
  201000   0.94191151     -2.80125    186.93581  0.077502409  0.082657446            7 
  202000   0.94564258   -2.7683181     187.7044  0.077435808  0.082513128            3 
  203000   0.96203727   -2.7738652    188.15884  0.077240905  0.082370496            5 
  204000   0.96009817   -2.7912412    189.39477  0.077367144  0.082227649            2 
  205000   0.95099402   -2.7686564    189.86169  0.077179549  0.082084513            2 
  206000   0.91926136   -2.7759436    190.09366  0.076898728  0.081942493            3 
  207000   0.93847636   -2.7721044    190.55988  0.076714929  0.081795147            3 
  208000   0.92262533    -2.822571    191.17289  0.076591701  0.081647697            7 
  209000   0.93188795   -2.8289135    191.95488  0.076537035  0.081501212            3 
  210000   0.92319646   -2.7918941    193.48881  0.076781274   0.08135584            1 
  211000   0.94072492   -2.7908659    194.84687   0.07695374  0.081215486            2 
  212000    0.9320764   -2.7922697    194.52108  0.076462688  0.081071505            3 
  213000   0.92986123   -2.8150568    195.68596  0.076559453  0.080929541            2 
  214000   0.94406513   -2.8119349    195.38008  0.076082585  0.080788129            2 
  215000   0.91771757   -2.8008777    197.01059  0.076360693  0.080641386            3 
  216000   0.90809698   -2.8193212     197.0741  0.076031673  0.080498085            2 
  217000   0.93645455   -2.8153574     197.3389  0.075782989  0.080357645            3 
  218000   0.92047805    -2.802285    198.20862  0.075767822   0.08021624            2 
  219000   0.90615373   -2.8221003    198.32096  0.075464595   0.08007174            4 
  220000   0.92613173   -2.8298265     199.3617  0.075515797  0.079925284            2 
  221000   0.92955491   -2.8203208    199.49708  0.075225144  0.079779249            2 
  222000   0.91094281   -2.8217577    200.28535  0.075182189  0.079635395            3 
  223000   0.91045438   -2.8475964     200.9064  0.075077131  0.079491657            2 
  224000    0.9156055    -2.833414      201.671  0.075026414  0.079344204            3 
  225000   0.92100086   -2.8122449    202.25879  0.074910661  0.079199784            3 
  226000   0.90926825   -2.8134353    202.69818  0.074741215  0.079054035            3 
  227000   0.90543958    -2.830802    203.07423  0.074550012  0.078910889            5 
  228000   0.91392236   -2.8331529    203.74651  0.074468752  0.078766791            1 
  229000   0.91183488   -2.8233624    203.50794  0.074056745  0.078619735            4 
  230000   0.90389629    -2.844606    204.24677  0.074002452  0.078475321            2 
  231000   0.89797848   -2.8476165    205.14145  0.074004851  0.078327117            3 
  232000   0.89636184   -2.8362359    206.13431  0.074042495  0.078182834            3 
  233000   0.89524243   -2.8401726    207.67457  0.074275597   0.07803949            2 
  234000   0.90533581    -2.845114    207.23356  0.073801124  0.077899368            2 
  235000   0.88062022   -2.8449608    207.62927  0.073627402  0.077756401            3 
  236000   0.89563814   -2.8131745    209.19756  0.073869195  0.077615559            4 
  237000   0.91736485   -2.8516304    210.35654   0.07396503  0.077475368            3 
  238000   0.89523952    -2.804354    210.35181  0.073652593  0.077337348            2 
  239000   0.88668302   -2.8705083     210.0129  0.073226256  0.077196281            4 
  240000   0.85468568    -2.872107    210.75488  0.073178778  0.077054366            2 
  241000   0.89444068   -2.8460507     210.8131  0.072895263  0.076914917            4 
  242000   0.90335031   -2.8432873    211.88434  0.072962926  0.076774401            2 
  243000   0.88399857   -2.8501105    213.80041  0.073319758  0.076637546            3 
  244000   0.89383865   -2.8612203    213.31834  0.072854625  0.076503669            2 
  245000   0.88589692   -2.8743863    213.64672  0.072668952  0.076371373            2 
  246000   0.85092381   -2.8622367    215.21185  0.072903743  0.076237139            2 
  247000   0.87652363   -2.8907817    214.45997  0.072354915   0.07609859            2 
  248000   0.87026162   -2.8942119    215.52635  0.072421488    0.0759598            4 
  249000   0.86373299   -2.8569509    216.77762  0.072549403  0.075820397            5 
  250000    0.8843219   -2.8582226    215.50896   0.07183632  0.075679525            6 
  251000   0.87108095     -2.82591     216.6289  0.071921946  0.075539414            5 
  252000   0.85300107   -2.8854742    217.17549  0.071817292  0.075399577            5 
  253000   0.86569776   -2.8996076    216.99188  0.071472952  0.075258036            6 
  254000   0.85345773   -2.8837592    218.22582  0.071596397  0.075117319            3 
  255000   0.87702045   -2.8809331    218.72105  0.071477469  0.074973437            2 
  256000   0.84488547   -2.8954664    219.66687  0.071506142  0.074829944            3 
  257000   0.84832028   -2.8852563      218.962  0.070999351  0.074688953            5 
  258000   0.81969839   -2.8853034    220.62313  0.071260699   0.07454723            4 
  259000   0.84032806   -2.9016843     220.8446  0.071056822  0.074406103            3 
  260000    0.8491266   -2.8784916    221.52205  0.071000658  0.074266407            9 
  261000   0.83638471   -2.9295775    221.31602  0.070662841  0.074126197            5 
  262000   0.83890886   -2.9178804     222.0297  0.070620133  0.073986015            2 
  263000   0.84507804   -2.8989914    222.72848  0.070573029   0.07384566            2 
  264000   0.86494532   -2.9266408    222.74871  0.070312093  0.073704606            6 
  265000   0.83923084   -2.9066946    223.12948  0.070166504  0.073565031            6 
  266000   0.85943157    -2.915897    223.99589   0.07017415  0.073422433            4 
  267000   0.85569712   -2.8998249    223.67103  0.069809934  0.073281054            4 
  268000   0.82938311   -2.9127617    224.50637  0.069809195  0.073140608            4 
  269000   0.85018193    -2.910648    224.84216  0.069653704  0.072998593            8 
  270000   0.81901765     -2.92018    226.68394   0.06996418  0.072858179            4 
  271000   0.84683777   -2.9256071    226.21853  0.069562893   0.07271826            2 
  272000   0.84700399   -2.9374174    226.53506  0.069404124   0.07257813            1 
  273000   0.83476127   -2.9162712    226.43507  0.069119373  0.072436203            4 
  274000   0.83062585   -2.9074044    226.95372  0.069024853  0.072294493            7 
  275000   0.82490008   -2.9541363    227.42361  0.068916244  0.072150723            6 
  276000   0.82629297   -2.9337221    227.62865  0.068728457  0.072008256            5 
  277000   0.84379731   -2.9475292    228.47648  0.068735403  0.071867347            6 
  278000   0.82067499   -2.9381421    227.82089  0.068291634  0.071723462            4 
  279000    0.8160576   -2.9484535    229.54151  0.068560784  0.071577455            4 
  280000   0.80902805   -2.9173602    229.39028  0.068270917  0.071434411            3 
  281000   0.82231631   -2.9254967    229.68423  0.068115133  0.071293852            4 
  282000   0.81859617   -2.9495564    230.29904  0.068055272  0.071152369            4 
  283000   0.81284526   -2.9683714    230.33744    0.0678261   0.07100943            6 
  284000   0.80975888   -2.9455173    231.08202  0.067805756  0.070866233            6 
  285000   0.81071336   -2.9422847    232.06484  0.067855217  0.070722714            4 
  286000   0.82661695   -2.9450565    231.26017    0.0673835  0.070579589            3 
  287000   0.80726521   -2.9416921    232.20993  0.067424486  0.070435808            5 
  288000   0.80129157   -2.9297902    233.05139   0.06743385   0.07029251            7 
  289000   0.80029132   -2.9655274    232.24367   0.06696761  0.070147683            3 
  290000   0.81768623   -2.9636337    233.26312  0.067029633  0.070001857            3 
  291000   0.80369338   -2.9335955     233.4197  0.066844128  0.069854738            4 
  292000   0.78633149   -2.9450705     234.1387  0.066820406  0.069709576            4 
  293000   0.81483009   -2.9610848    234.54343  0.066707461  0.069563404            3 
  294000   0.80675292   -2.9713654    234.55009  0.066482451  0.069418662            3 
  295000    0.7917386   -2.9541692    235.80411  0.066611329  0.069273097            5 
  296000   0.78935735   -2.9789974    233.51273  0.065741197  0.069127263            3 
  297000   0.79261541   -2.9826417    234.58347  0.065820277  0.068978589            3 
  298000   0.81698392   -2.9706131    235.09835  0.065743386  0.068832052            4 
  299000   0.79188813   -2.9752949     235.6541  0.065678401  0.068685448            2 
  300000   0.79978689   -2.9770871    235.06404  0.065295567  0.068537935           13 
  301000   0.78658227   -2.9794255    235.81879  0.065287595  0.068389828            7 
  302000   0.79407907   -2.9815952    236.70975   0.06531726  0.068242527            6 
  303000   0.78344411   -2.9766547    237.52497  0.065325901  0.068096575            6 
  304000    0.7835363   -2.9904078     236.8052  0.064913706   0.06795184            3 
  305000   0.78489408   -2.9893281    237.59653  0.064917084  0.067807245            7 
  306000   0.78072615   -2.9843885    238.82284    0.0650389  0.067662076            4 
  307000   0.77901694   -2.9897236    238.65497   0.06478148  0.067518237            3 
  308000   0.77323931   -2.9907128    239.26036  0.064734947  0.067374439            3 
  309000   0.76475256   -3.0151212    238.75216  0.064388392  0.067231206            3 
  310000   0.78460373   -3.0034761    238.99932   0.06424713  0.067087113            3 
  311000   0.78427991   -3.0010392    240.03094  0.064316972  0.066942649            6 
  312000   0.76378654   -3.0011672    240.63813  0.064273006   0.06679853            3 
  313000   0.78017316   -3.0196152    240.94131   0.06414838  0.066655014            3 
  314000   0.75378306   -3.0058809    239.59537   0.06358688  0.066508262            3 
  315000   0.77750154   -3.0188154    240.37643  0.063591648  0.066362522            3 
  316000   0.76674394   -2.9977552    240.53449  0.063432092  0.066217391            3 
  317000   0.73901215   -3.0237534    241.84098  0.063575441  0.066073017            5 
  318000   0.75530837   -2.9998129    241.43065   0.06326799   0.06593068            4 
  319000   0.75721332   -3.0153143     242.5978  0.063374557  0.065789217            2 
  320000   0.75855231   -3.0606652    243.28057  0.063354314   0.06564943            4 
  321000    0.7487854   -3.0280504    242.90099  0.063058408  0.065508294            6 
  322000   0.77308527   -3.0294626    242.79383  0.062834843  0.065366565            7 
  323000    0.7645176   -3.0368541    244.45846  0.063069779  0.065225009            2 
  324000   0.75958666    -3.039685    243.24606  0.062563287  0.065084578            7 
  325000   0.73314231   -3.0345622    243.55531   0.06245008  0.064942815            3 
  326000   0.73554404   -3.0193895    244.74062  0.062561507  0.064801788            3 
  327000   0.74350444   -3.0467499    244.40214  0.062283929  0.064659952            4 
  328000   0.73774046   -3.0361909    244.43498  0.062102383  0.064518084            5 
  329000   0.73281916   -3.0452108    246.08283   0.06233101  0.064375652            4 
  330000   0.74527663   -3.0212286    245.51119  0.061997775  0.064235445            5 
  331000   0.74186028   -3.0650458    244.86738  0.061648384  0.064093974            4 
  332000    0.7416443   -3.0523856    245.13632    0.0615302  0.063950299            8 
  333000   0.72461175   -3.0552832    244.81731  0.061265594  0.063806566            3 
  334000   0.72181071   -3.0545075    244.72347  0.061058749  0.063662815            7 
  335000   0.75037081   -3.0847925    246.16425  0.061234887  0.063518839            3 
  336000    0.7476653   -3.0504478    246.57126  0.061153585  0.063375508            8 
  337000   0.71113935   -3.0719687    245.61952  0.060736776  0.063233223            5 
  338000   0.71686167   -3.0613563    246.71736  0.060827752  0.063090889            6 
  339000   0.73456423   -3.0740161    247.04175  0.060728061  0.062949875            5 
  340000   0.70722304   -3.0908588    247.94975  0.060771998   0.06280935            3 
  341000   0.73141538     -3.07969    247.31545  0.060438771  0.062670505            3 
  342000   0.72760988   -3.0680204    248.90575  0.060649548  0.062531735            7 
  343000   0.72192334   -3.0682139     249.2237  0.060549976  0.062393945            3 
  344000   0.71465935   -3.0759737    250.15429  0.060599393  0.062259161            6 
  345000   0.70939264   -3.0850752    249.81893  0.060342735  0.062123486           11 
  346000   0.70822612   -3.0843289      249.497  0.060090801  0.061988361           10 
  347000   0.72169686   -3.1016214    249.41948  0.059899009  0.061853207            3 
  348000   0.69583908   -3.0851303    250.84575  0.060068428  0.061716212            6 
  349000   0.71260031   -3.0946798    251.66532  0.060092006  0.061581809            4 
  350000   0.71722604   -3.1078833    251.21071  0.059812073  0.061447222            7 
  351000   0.70494668   -3.1034825    251.51085  0.059712927  0.061312619           10 
  352000   0.71487112   -3.1104534    251.02852  0.059429101  0.061179239            5 
  353000   0.69117657   -3.1215149    252.04095  0.059499751  0.061047246            4 
  354000   0.71240268   -3.1054815    252.08701  0.059342517  0.060915035            5 
  355000   0.67616752     -3.10272    253.02082  0.059394559   0.06078444            7 
  356000   0.69898657   -3.1115585    252.97022  0.059215875  0.060654051            6 
  357000   0.68622932   -3.1376014    252.15941   0.05886074  0.060521539            7 
  358000   0.68371905   -3.1185674     252.9696  0.058884917  0.060389261            5 
  359000    0.6928707   -3.1391814    252.69617  0.058657422  0.060257364            3 
  360000   0.69017422   -3.1191251     252.7514  0.058507269   0.06012532            4 
  361000   0.68911499   -3.1226063    255.10562  0.058888647  0.059994918           21 
  362000   0.70475514   -3.1350015    254.50455  0.058587603  0.059864902            4 
  363000   0.69386211   -3.1414935    254.49249  0.058423436  0.059735681            4 
  364000   0.67546203    -3.136934    254.30696  0.058220458   0.05960526            8 
  365000   0.68736695   -3.1344254    254.46682  0.058097448  0.059477101           16 
  366000   0.69345124   -3.1403848    256.37683  0.058373594  0.059349487            4 
  367000   0.66109718   -3.1224478    256.05711  0.058141941  0.059221955            6 
  368000   0.69117601   -3.1398153     255.6623  0.057894542  0.059095225           13 
  369000   0.67936908   -3.1429362    256.31966  0.057886103  0.058969255            5 
  370000   0.66843972     -3.13421    256.76031  0.057828897  0.058842918            8 
  371000   0.66995271   -3.1353369     256.4636  0.057606379  0.058716648            5 
  372000   0.68778287   -3.1367441    257.67069  0.057721929   0.05859224            7 
  373000   0.68400553   -3.1576399    257.27945   0.05747977  0.058468341            6 
  374000   0.66863474   -3.1735963    257.54863  0.057386057  0.058344025            5 
  375000   0.66176714   -3.1522804    258.04462  0.057343249  0.058219822            4 
  376000   0.66921058   -3.1775919     258.2922  0.057245612  0.058095619            5 
  377000   0.67344674    -3.163668    257.82028  0.056989452  0.057971051            6 
  378000   0.67310284   -3.1550339    258.64096  0.057019612  0.057847984            6 
  379000   0.66315272   -3.1641565    259.25699  0.057004615  0.057725061           10 
  380000   0.66179012   -3.1833131    259.09204   0.05681843  0.057603118            5 
  381000   0.65424105   -3.1934134    259.34193  0.056723956  0.057480636           11 
  382000   0.65273627   -3.1891432    259.67506  0.056648137  0.057358708            5 
  383000   0.66062792    -3.191663    259.27646  0.056413503  0.057236052            3 
  384000   0.64622228   -3.1843364    259.77929  0.056375714  0.057113257            7 
  385000   0.65069419    -3.179566     259.2601  0.056116906  0.056990558            6 
  386000   0.65875085   -3.1949372    260.23164  0.056181269  0.056867973            8 
  387000    0.6583899   -3.2172181    259.77697  0.055938193   0.05674578            4 
  388000   0.63123564     -3.18515     260.4097  0.055929918  0.056623065            8 
  389000   0.63523448   -3.1961117    260.20808  0.055742949  0.056499803            3 
  390000   0.65009957   -3.1919462    260.73801  0.055713251    0.0563767            4 
  391000   0.64956658   -3.2159492    260.37257  0.055492876  0.056254436            8 
  392000   0.64391624   -3.1855957     261.2735  0.055542835   0.05613353            3 
  393000   0.63399053   -3.2154737    261.15634  0.055376663  0.056012838            7 
  394000   0.64280606   -3.2086247    261.61554  0.055333236  0.055892251            7 
  395000   0.65861231   -3.2118264    261.90441  0.055254095  0.055770938            5 
  396000   0.62513113   -3.2217125    262.07607  0.055150688  0.055652953            5 
  397000   0.64156807   -3.2076067    262.66419  0.055135219  0.055534607            3 
  398000   0.63100127   -3.2216373    262.91336  0.055048862  0.055416425            4 
  399000   0.64796059   -3.2287353    263.26853  0.054985073  0.055299059            9 
  400000   0.63283808   -3.2175562    263.45546  0.054886554  0.055181938            6 
  401000   0.62249652   -3.2380906    262.21138  0.054491143  0.055065045            9 
  402000   0.62445858   -3.2248797    263.38565  0.054599015  0.054948143            9 
  403000   0.60785098   -3.2472361    263.28072  0.054441835  0.054830932            5 
  404000   0.61624847   -3.2302035    263.71661   0.05439699  0.054715406            6 
  405000   0.61743674   -3.2525343    263.75949  0.054271499   0.05459864           10 
  406000   0.61286271   -3.2277554    264.81067  0.054353586  0.054481864           15 
  407000   0.61748486   -3.2363335    263.22765  0.053895915  0.054365713           10 
  408000   0.60204545    -3.249363    263.67803  0.053855807  0.054248599            5 
  409000   0.62573603   -3.2464696    264.26623  0.053843974  0.054130137           10 
  410000   0.61539476   -3.2166348    264.63043  0.053786674  0.054013484            4 
  411000   0.61423519   -3.2529158    264.35405  0.053599766  0.053896358           14 
  412000   0.60603049    -3.235388    264.34308  0.053467451  0.053779186            8 
  413000   0.61836977   -3.2425103    264.22003  0.053313161  0.053661473            4 
  414000   0.60760524   -3.2683727    264.12281  0.053164816  0.053544222            9 
  415000   0.60973589   -3.2593777    265.33849  0.053280822   0.05342806            9 
  416000   0.60083937   -3.2550381    264.89957  0.053064817  0.053313117           10 
  417000   0.61214622   -3.2588067    265.74795  0.053107103  0.053198781            7 
  418000   0.59355334   -3.2748839    265.29729  0.052890209  0.053084292            9 
  419000   0.58652807   -3.2653639    265.91885    0.0528876  0.052970413           10 
  420000   0.59917152   -3.2715629    265.57061  0.052692582  0.052856891            7 
  421000   0.59294209   -3.2640629    265.88034   0.05262873  0.052742088            6 
  422000   0.59052925   -3.2699836    265.59452  0.052447575  0.052627505           20 
  423000    0.5832452   -3.2698981    266.39393  0.052481074  0.052513416            6 
  424000   0.60216523   -3.2815033    266.51648  0.052381383  0.052398461           11 
  425000   0.60118953   -3.2764595    265.96303  0.052149613  0.052283707            6 
  426000   0.59437278   -3.3089191    266.22601  0.052078641  0.052169455            5 
  427000   0.58404931   -3.2890565    266.49731  0.052009623   0.05205542           22 
  428000   0.59052569   -3.2842841    266.41468  0.051872018   0.05194081           10 
  429000   0.58032028   -3.3061356    266.33812  0.051736231  0.051825979            9 
  430000   0.58243499   -3.2954427    266.43905  0.051635474   0.05171098           11 
  431000   0.58106274    -3.292886     266.5612  0.051539288   0.05159624            9 
  432000   0.57414226   -3.3185734    266.38211  0.051385437  0.051481202            7 
  433000   0.57735663    -3.304675     266.8259  0.051352174  0.051365634           20 
  434000   0.58388087   -3.3074236    265.86202  0.051048775  0.051250352           13 
  435000   0.57471612   -3.3068323    266.29838  0.051015016     0.051135            5 
  436000    0.5677723   -3.3245151    266.41068  0.050919472  0.051020458            7 
  437000   0.56594895   -3.3263327    266.10948  0.050745514  0.050905353            9 
  438000   0.57623872    -3.316743    266.97923  0.050795134   0.05079067            6 
  439000   0.55928192   -3.3243858    267.04546  0.050692001  0.050676522            4 
  440000   0.56580569   -3.3306867    267.61083   0.05068387  0.050563151            8 
  441000   0.56377022   -3.3275526     267.6528  0.050576871   0.05044988           14 
  442000   0.56398711   -3.3231407    267.85189  0.050499979  0.050336675           11 
  443000    0.5602265    -3.327262    267.95432  0.050405252  0.050224598           13 
  444000   0.57024791   -3.3356682    268.16342  0.050330972  0.050112168           10 
  445000   0.55850231   -3.3337168    267.63398  0.050118722  0.050000009            9 
  446000   0.55700732   -3.3409952    267.22804  0.049930501  0.049887285           37 
  447000   0.55508119   -3.3537604    268.12858  0.049986686  0.049775094            6 
  448000   0.53791996   -3.3531969    266.82753  0.049633096  0.049662772           11 
  449000   0.54673585   -3.3578363    267.62384  0.049670348  0.049550125           15 
  450000   0.54243077   -3.3378108    267.60558   0.04955659  0.049437266            8 
  451000   0.55835491   -3.3666357     267.7202  0.049467887  0.049325536           11 
  452000   0.54398511   -3.3634075    268.00419  0.049410802  0.049213341           21 
  453000   0.55107443   -3.3411358    267.79043  0.049262404  0.049101833            5 
  454000   0.53203548    -3.363282     268.4949  0.049283204  0.048991149           16 
  455000   0.54086501   -3.3804497    268.30295  0.049139734  0.048880213           15 
  456000   0.54305971    -3.407554    269.14627  0.049186087  0.048769665            9 
  457000   0.52998869    -3.364711    268.66076  0.048989926   0.04865913           21 
  458000   0.53465799   -3.3791855    268.85041   0.04891747  0.048548899            6 
  459000   0.53206144   -3.3838535    269.08543  0.048853563  0.048438235           13 
  460000    0.5448938   -3.3913296    268.44367  0.048631099  0.048327422           16 
  461000   0.53281488   -3.3519094    268.62677  0.048558707   0.04821763           17 
  462000   0.52394253    -3.379982    269.83252  0.048671089  0.048108714           32 
  463000   0.52163848   -3.3993327    268.34232  0.048297753   0.04799934            8 
  464000    0.5238344   -3.3885956    268.74582  0.048266131   0.04789006           12 
  465000   0.52949383    -3.390884    268.38827  0.048098256  0.047780192           13 
  466000   0.53507706   -3.4082461    268.72699  0.048055613   0.04767068           22 
  467000   0.50861141   -3.3882764     269.2546   0.04804686  0.047561041           11 
  468000   0.52291037   -3.3947834    268.56866  0.047822055  0.047451777           26 
  469000   0.51160423   -3.4084512    268.44155  0.047697503  0.047342669            8 
  470000   0.52759057   -3.4056331    268.47395  0.047601764  0.047234053           16 
  471000   0.51940773   -3.4048973    269.03838  0.047600563  0.047124983           21 
  472000   0.49748452    -3.432546    268.84479  0.047465535  0.047016151           34 
  473000   0.51063141   -3.4138656    268.88217   0.04737177  0.046907385           12 
  474000   0.52092747   -3.4118156    268.60186  0.047222549  0.046798966           16 
  475000   0.50926778   -3.4217019    269.03704  0.047199481  0.046690668           12 
  476000   0.50450484   -3.4335639     268.7751  0.047054465  0.046582033            9 
  477000   0.50987267   -3.4363506    268.95773  0.046987723  0.046473561           13 
  478000   0.49860113   -3.4313706    268.75286  0.046853706  0.046365173           21 
  479000   0.49288688    -3.417725    268.78507  0.046761494  0.046256536           13 
  480000   0.49745461   -3.4534617    267.47347  0.046436367  0.046147669            8 
  481000   0.49261119   -3.4312103    267.99412  0.046430028  0.046039031            7 
  482000   0.49510205   -3.4369591    268.57965  0.046434932  0.045930622           19 
  483000   0.50261388   -3.4385635    268.12408  0.046260193  0.045822512           11 
  484000   0.50277245   -3.4433967    268.14574  0.046168343  0.045714388           24 
  485000   0.49425122   -3.4661812    268.06781  0.046059761   0.04560602           10 
  486000   0.48541549   -3.4617622    267.60581  0.045885769  0.045497441           28 
  487000   0.48964526   -3.4431491    267.94462  0.045849525  0.045389133           26 
  488000   0.48275619   -3.4580786    268.50641  0.045851504   0.04528142           13 
  489000   0.48866898   -3.4669518    268.78946  0.045805974  0.045173801           17 
  490000   0.49131761   -3.4544279    268.09301  0.045594049  0.045066331           14 
  491000   0.48956435   -3.4830064    267.72911  0.045439428  0.044959008            8 
  492000   0.48068127    -3.481166    269.10864  0.045580732  0.044852218           20 
  493000   0.47690822   -3.4726002    269.14017  0.045493605  0.044745564           21 
  494000   0.47786958   -3.4762632    268.87537  0.045356844  0.044639133           24 
  495000   0.47720554   -3.4767553    268.98613   0.04528386  0.044532723           27 
  496000   0.48142726    -3.480742    268.72821  0.045149228  0.044426778           30 
  497000    0.4798078   -3.4886386    268.85124  0.045079014  0.044321295           27 
  498000   0.46341748   -3.4727095    268.12051  0.044866217  0.044215996           13 
  499000   0.46928826   -3.4738637    268.18725  0.044787451  0.044110789           16 
  500000   0.47559514   -3.4982227    268.09353  0.044682254  0.044005364           14 
  501000   0.46050956   -3.4789757    268.42698  0.044648532  0.043900036            8 
  502000   0.47775755   -3.5053041    268.62253  0.044592054  0.043795419            7 
  503000   0.46451947   -3.4943713    269.25503  0.044608189  0.043690803           11 
  504000   0.46222915   -3.4989484    268.44624  0.044385952   0.04358667           31 
  505000   0.45864971   -3.5109345    268.55658  0.044316267   0.04348289           12 
  506000   0.45607383   -3.5025864     269.1061  0.044319186    0.0433795           13 
  507000   0.45546162   -3.5194764    269.26967  0.044258657  0.043276151           15 
  508000   0.46328108   -3.5110057    269.17579  0.044156133  0.043173076           43 
  509000   0.44833343   -3.5287333    268.54531   0.04396616  0.043070056           18 
  510000   0.45076607   -3.5383604    268.88469  0.043935407   0.04296668           29 
  511000    0.4456835    -3.521658     269.0109   0.04387001  0.042864032           25 
  512000   0.44458519   -3.5512248     268.9982  0.043782259  0.042761566           25 
Loop time of 1204.11 on 48 procs for 500000 steps with 4000 atoms

Performance: 71754.105 tau/day, 415.244 timesteps/s
99.4% CPU use with 48 MPI tasks x no OpenMP threads

MPI task timing breakdown:
Section |  min time  |  avg time  |  max time  |%varavg| %total
---------------------------------------------------------------
Pair    | 78.279     | 83.001     | 88.866     |  21.4 |  6.89
Neigh   | 8.1281     | 8.4423     | 9.023      |   6.5 |  0.70
Comm    | 74.718     | 82.44      | 87.559     |  25.3 |  6.85
Output  | 0.86207    | 0.86262    | 0.87248    |   0.2 |  0.07
Modify  | 1016.7     | 1019       | 1021.7     |   3.7 | 84.63
Other   |            | 10.37      |            |       |  0.86

Nlocal:        83.3333 ave          89 max          77 min
Histogram: 1 4 2 6 4 14 6 5 3 3
Nghost:        2178.42 ave        2193 max        2167 min
Histogram: 6 6 3 4 7 7 9 3 1 2
Neighs:        14409.3 ave       15708 max       12744 min
Histogram: 1 0 3 8 6 8 8 6 7 1
FullNghs:      28819.5 ave       30734 max       26458 min
Histogram: 1 4 2 6 7 7 8 5 4 4

Total # of neighbors = 1383335
Ave neighs/atom = 345.83375
Neighbor list builds = 27155
Dangerous builds = 0

#clear
#
#next RN
#
#jump SELF
Total wall time: 0:20:07
