
units lj                  # Use reduced LJ style units
atom_style atomic         # Uncharged point particles
atom_modify map hash      # Needed for indexing of clusters etc
                          # Used to be able to find where atoms are in relation to each other.

lattice fcc 1.0 spacing 1 1 1
Lattice spacing in x,y,z = 1.5874011 1.5874011 1.5874011
region box block 0 10 0 10 0 10 units lattice
create_box 2 box
Created orthogonal box = (0.0000000 0.0000000 0.0000000) to (15.874011 15.874011 15.874011)
  3 by 4 by 4 MPI processor grid
create_atoms 1 box
Created 4000 atoms
  using lattice units in orthogonal box = (0.0000000 0.0000000 0.0000000) to (15.874011 15.874011 15.874011)
  create_atoms CPU = 0.003 seconds
set type 1 type/fraction 2 0.4 78393
Setting atom values ...
  1612 settings made for type/fraction
mass 1 1.0
mass 2 1.0
pair_style lj/cut  3.5
pair_modify tail  yes
pair_coeff 1  1  1.0  1.0   # Intearaction between 1 and 1 set with epsilon = 1 and sigma = 1
pair_coeff 1  2  1.5  0.8
pair_coeff 2  2  0.5  0.88

write_data data.0
System init for write_data ...
Neighbor list info ...
  update every 1 steps, delay 10 steps, check yes
  max neighbors/atom: 2000, page size: 100000
  master list distance cutoff = 3.8
  ghost atom cutoff = 3.8
  binsize = 1.9, bins = 9 9 9
  1 neighbor lists, perpetual/occasional/extra = 1 0 0
  (1) pair lj/cut, perpetual
      attributes: half, newton on
      pair build: half/bin/atomonly/newton
      stencil: half/bin/3d
      bin: standard
WARNING: Not all mixed pair coeffs generated from mixing. Use write_data with 'pair ij' option to store all pair coeffs. (../write_data.cpp:312)


#############################
#   M E L T   S Y S T E M   #
#############################

velocity all create 2.4 6229865 mom yes dist gaussian # Assign velocities
                                                    # Temperature 2.4, random number seed, zero linear momentum
                                                                                # Gaussian distribution

timestep 0.002   # simulation timestep
thermo 1000       # output thermodynamic data every 1000 steps bf 100

# Define a fix  in this case with index 1 applied to all
# particles in the simulation. This fix is for simulations
# in the anisotropic NPT ensemble. Note that we use the MTK
# correction.
fix 1 all npt temp 2.4 2.4 0.1 iso 5.68 5.68 0.5 mtk yes tchain 5 pchain 5 # Use NPT ensemble
                                                                         # Set temperature and pressure and damping
                                                                         # Numbers of thermostats in chain and in barostat
run 10000          # run for 10000 steps
Per MPI rank memory allocation (min/avg/max) = 3.642 | 3.644 | 3.648 Mbytes
Step Temp E_pair E_mol TotEng Press Volume 
       0          2.4    -5.861415            0    -2.262315   -4.1716513         4000 
    1000    2.4282646    -4.987459            0   -1.3459727    5.5810681    3916.9608 
    2000    2.4344611   -5.0016153            0   -1.3508366    5.4711163     3923.133 
    3000     2.383545   -5.0655894            0   -1.4911658    5.4569128    3890.0259 
    4000    2.3688955   -5.0693508            0    -1.516896    5.5076359    3882.0021 
    5000    2.3913515   -4.9490472            0   -1.3629166    5.8764603    3911.4851 
    6000    2.3919563    -5.030568            0   -1.4435305    5.2616129    3929.1376 
    7000    2.4580186   -5.0485645            0   -1.3624583    5.6267885    3898.0948 
    8000    2.4096377   -5.0280294            0   -1.4144764      5.47646    3906.9514 
    9000    2.4121844   -5.1248372            0   -1.5074651    5.5068401    3869.1974 
   10000    2.4407926   -5.0118993            0   -1.3516256    6.0450234     3875.088 
Loop time of 2.50194 on 48 procs for 10000 steps with 4000 atoms

Performance: 690663.456 tau/day, 3996.895 timesteps/s
99.6% CPU use with 48 MPI tasks x no OpenMP threads

MPI task timing breakdown:
Section |  min time  |  avg time  |  max time  |%varavg| %total
---------------------------------------------------------------
Pair    | 1.1098     | 1.1742     | 1.2597     |   3.0 | 46.93
Neigh   | 0.20543    | 0.21471    | 0.22346    |   0.8 |  8.58
Comm    | 0.77117    | 0.85123    | 0.93401    |   3.8 | 34.02
Output  | 0.00023976 | 0.00024418 | 0.00030013 |   0.0 |  0.01
Modify  | 0.20323    | 0.24646    | 0.27963    |   4.5 |  9.85
Other   |            | 0.01511    |            |       |  0.60

Nlocal:        83.3333 ave          90 max          73 min
Histogram: 1 2 3 2 4 9 6 12 6 3
Nghost:        1680.90 ave        1715 max        1658 min
Histogram: 5 3 9 5 10 8 5 2 0 1
Neighs:        9859.90 ave       10923 max        8516 min
Histogram: 3 2 3 5 5 6 6 11 5 2

Total # of neighbors = 473275
Ave neighs/atom = 118.31875
Neighbor list builds = 903
Dangerous builds = 190

# Equilibrate just above the melting temperature to avoid step fn in T

fix 1 all npt temp 1.25 1.25 0.1 iso 5.68 5.68 0.5 mtk yes tchain 5 pchain 5
run 2000
Per MPI rank memory allocation (min/avg/max) = 3.643 | 3.645 | 3.649 Mbytes
Step Temp E_pair E_mol TotEng Press Volume 
   10000    2.4407926   -5.0118993            0   -1.3516256    6.0450234     3875.088 
   11000     1.241138   -7.0295607            0   -5.1683191    5.5775599    3090.5364 
   12000    1.2513774   -7.1033924            0   -5.2267955    5.5771575    3075.5202 
Loop time of 0.600196 on 48 procs for 2000 steps with 4000 atoms

Performance: 575811.823 tau/day, 3332.244 timesteps/s
99.7% CPU use with 48 MPI tasks x no OpenMP threads

MPI task timing breakdown:
Section |  min time  |  avg time  |  max time  |%varavg| %total
---------------------------------------------------------------
Pair    | 0.27046    | 0.29078    | 0.31645    |   1.9 | 48.45
Neigh   | 0.038773   | 0.041133   | 0.043942   |   0.6 |  6.85
Comm    | 0.19406    | 0.21927    | 0.24131    |   2.4 | 36.53
Output  | 5.487e-05  | 5.6079e-05 | 6.9723e-05 |   0.0 |  0.01
Modify  | 0.040624   | 0.04424    | 0.047604   |   0.9 |  7.37
Other   |            | 0.004716   |            |       |  0.79

Nlocal:        83.3333 ave          93 max          74 min
Histogram: 1 1 4 12 7 11 6 3 2 1
Nghost:        1957.21 ave        1980 max        1934 min
Histogram: 3 1 3 9 4 14 5 5 2 2
Neighs:        12424.4 ave       13734 max       11112 min
Histogram: 3 3 6 3 8 7 8 6 2 2

Total # of neighbors = 596369
Ave neighs/atom = 149.09225
Neighbor list builds = 143
Dangerous builds = 16

#############################
# L I N E A R  Q U E N C H  #
#############################

# Define solid atoms. This closely follows ten Wolde  Ruiz-Montero and Frenkel  Faraday Discuss  1996  104  93-110
# Compute components of the per-atom q6 vector
compute q6 all orientorder/atom degrees 1 6 components 6 nnn NULL cutoff 1.3 # compute the Q6 parameter.
                                                                             # Use all neighbours within 1.3 unit cell.

# get number of connections
compute coord_number all coord/atom orientorder q6 0.5

# An atom is solid if it has 8 or more connections (of a possible 14)
variable is_solid atom c_coord_number>=8
group solid dynamic all var is_solid    # Must be dynamic to update
dynamic group solid defined

# do clustering
compute cluster solid cluster/atom 1.3 # Create a cluster where all atoms within are solid and max 1.3 units from another member

# define chunks one chunk per cluster
compute clus_chunks solid chunk/atom c_cluster nchunk every compress yes  # Says which atoms are in which chunk

# count the size of each chunk
compute size_chunks solid property/chunk clus_chunks count


# Find the maximum entry in the vector of chunk sizes
variable max_n equal max(c_size_chunks)


# Thermo style which includes this variable
# thermo_style custom step temp pe vol v_max_n

thermo ${N}  # Print the thermo information every 100 steps
thermo 1000  

# Reset the npt fix at a lower temperature (below freezing)
fix 1  all npt temp  ${temp} ${temp}  0.1  iso  5.68  5.68  0.5  mtk yes tchain  5  pchain  5
fix 1  all npt temp  0.45 ${temp}  0.1  iso  5.68  5.68  0.5  mtk yes tchain  5  pchain  5
fix 1  all npt temp  0.45 0.45  0.1  iso  5.68  5.68  0.5  mtk yes tchain  5  pchain  5

dump dmp2 all dcd ${N} traj.dcd
dump dmp2 all dcd 1000 traj.dcd


compute msd all msd com yes
variable twopoint equal c_msd[4]/6/(step*dt+1.0e-6)
fix 9 all vector 10 c_msd[4]
variable fit equal slope(f_9)/6/(10*dt)
thermo_style custom step temp pe c_msd[4] v_twopoint v_fit v_max_n

fix 1 all npt temp 1.25 ${temp} 0.1 iso 5.68 5.68 0.5 mtk yes tchain 5 pchain 5
fix 1 all npt temp 1.25 0.45 0.1 iso 5.68 5.68 0.5 mtk yes tchain 5 pchain 5
run 5000000 # 5000000  # Run for this many steps
Neighbor list info ...
  update every 1 steps, delay 10 steps, check yes
  max neighbors/atom: 2000, page size: 100000
  master list distance cutoff = 3.8
  ghost atom cutoff = 3.8
  binsize = 1.9, bins = 8 8 8
  4 neighbor lists, perpetual/occasional/extra = 1 3 0
  (1) pair lj/cut, perpetual
      attributes: half, newton on
      pair build: half/bin/atomonly/newton
      stencil: half/bin/3d
      bin: standard
  (2) compute orientorder/atom, occasional
      attributes: full, newton on
      pair build: full/bin/atomonly
      stencil: full/bin/3d
      bin: standard
  (3) compute coord/atom, occasional
      attributes: full, newton on
      pair build: full/bin/atomonly
      stencil: full/bin/3d
      bin: standard
  (4) compute cluster/atom, occasional
      attributes: full, newton on
      pair build: full/bin/atomonly
      stencil: full/bin/3d
      bin: standard
Per MPI rank memory allocation (min/avg/max) = 9.823 | 9.829 | 9.835 Mbytes
Step Temp PotEng c_msd[4] v_twopoint v_fit v_max_n 
   12000    1.2513774   -7.1033924 1.6680464e-30 1.1583655e-32 8.3333333e+20            1 
   13000    1.2683898   -7.1166853   0.46476663 0.0029792731  0.037163977            2 
   14000    1.2309656   -7.1116956   0.89030478  0.005299433  0.036579816            1 
   15000    1.2464559   -7.1368876     1.344088 0.0074671552  0.036876161            2 
   16000    1.2464745   -7.0934243    1.7458483 0.0090929597  0.036146179            1 
   17000    1.2615389   -7.0889899     2.212976  0.010847921  0.036178948            1 
   18000    1.2497219   -7.0842347    2.5651426   0.01187566  0.035784424       -1e+20 
   19000    1.2401243   -7.1158301    2.9809022  0.013074132  0.035383372            1 
   20000    1.2480887   -7.0378641    3.4529615  0.014387339  0.035178818            2 
   21000    1.2370425   -7.0930226     3.948178  0.015667372  0.035475351            3 
   22000     1.240848   -7.0096152    4.4136448  0.016718351  0.035888892            2 
   23000    1.2564394   -7.1102654    4.7991959  0.017388391  0.036023982            1 
   24000    1.2273547   -7.0744805     5.285398  0.018352076  0.036205343            1 
   25000     1.247862   -7.0486524    5.7236642   0.01907888  0.036334151            1 
   26000    1.2517684   -7.1043558    6.1634172  0.019754542  0.036437534            3 
   27000    1.2815131   -7.1539197    6.5420508  0.020191514  0.036452295            4 
   28000     1.277999   -7.0819284    6.9356927  0.020641942  0.036369012            3 
   29000    1.2266938   -7.1369606    7.3307365  0.021065334  0.036286498            1 
   30000      1.23963     -7.12236    7.7601541  0.021555983   0.03618065            1 
   31000    1.2331544   -7.0739414    8.2544276  0.022189321  0.036101908            1 
   32000    1.2556167   -7.0893727    8.6457793   0.02251505  0.036065537            1 
   33000    1.2451031   -7.1030966    9.0130162  0.022760141  0.036000446            1 
   34000    1.2216084   -7.1266538    9.4712041  0.023213735  0.035945946            1 
   35000    1.2408709   -7.1250959    9.8950153   0.02355956  0.035891656            1 
   36000     1.232843   -7.1192297    10.343124  0.023942415  0.035839595            1 
   37000      1.25849   -7.0932794    10.765362   0.02424631  0.035811763            2 
   38000    1.2354583   -7.0978413    11.071095  0.024278716  0.035751752            1 
   39000    1.2055444   -7.1109131    11.600043  0.024786417  0.035672781            1 
   40000    1.2478797   -7.1131698    11.977114  0.024952319  0.035656408            2 
   41000    1.2569698   -7.1409879    12.354586  0.025110947  0.035592118            2 
   42000    1.2478515   -7.1122071    12.755628  0.025308785  0.035521228            2 
   43000    1.2403716   -7.1250691    13.082196  0.025353092  0.035449656            2 
   44000    1.2378584    -7.158873    13.372304  0.025326333  0.035333997            1 
   45000    1.2174668   -7.0810943    13.861278  0.025669034  0.035225295            1 
   46000    1.2332115   -7.1106997    14.260381  0.025834023  0.035129666            2 
   47000    1.2462574   -7.1228377    14.673312  0.026016511  0.035035287            3 
   48000    1.2629379   -7.1213197    14.999154  0.026040198  0.034944559            1 
   49000     1.249546   -7.1487402    15.438342  0.026255683  0.034858473            1 
   50000    1.2550704   -7.1431532    15.988417  0.026647361  0.034820939            1 
   51000    1.2435563   -7.0959436    16.451536  0.026881595  0.034815112            2 
   52000    1.2462759   -7.1686949    16.931109  0.027133187  0.034821381            2 
   53000    1.2816495   -7.1536244    17.403093  0.027363354  0.034849759            2 
   54000    1.2365401   -7.0823251    18.005261  0.027785897  0.034896703            2 
   55000     1.230457   -7.1278798     18.40841   0.02789153  0.034954539            1 
   56000    1.2276359    -7.117504    18.888805  0.028108341   0.03500617            2 
   57000    1.2642906    -7.101897    19.479355  0.028478588  0.035082167            1 
   58000    1.2287953   -7.1165427    19.878435  0.028560969  0.035180829            1 
   59000    1.2543332   -7.1112029    20.372134    0.0287742   0.03525924            1 
   60000    1.2531903   -7.1662191    20.565113  0.028562656  0.035318502            1 
   61000    1.2536896   -7.1344607    20.973052   0.02865171  0.035339974            3 
   62000     1.226547   -7.1478458    21.448046  0.028828018  0.035357626            3 
   63000     1.226622   -7.1313956    21.769322    0.0287954  0.035377272            4 
   64000    1.2265771   -7.1056284    22.314952  0.029055927  0.035386384            2 
   65000    1.2238216   -7.1456518    22.528183  0.028882285  0.035390633            2 
   66000    1.2514933   -7.1271935    22.861317  0.028865299  0.035376032            2 
   67000    1.2334195   -7.1144946    23.142178  0.028783804  0.035344305            3 
   68000    1.2342355   -7.1006816     23.61523  0.028940232  0.035304896            1 
   69000    1.2207775   -7.1523125    23.959338  0.028936398  0.035261212            3 
   70000    1.2691273    -7.139214    24.426702  0.029079407  0.035233348            1 
   71000    1.2280065   -7.1552486    24.953084  0.029287657  0.035216478            2 
   72000    1.2192983    -7.138795    25.230641   0.02920213  0.035202126            1 
   73000    1.2505262   -7.1073629    25.803893  0.029456499  0.035183373            3 
   74000    1.2479212   -7.0869677    26.445345  0.029780793  0.035174838            1 
   75000    1.2176129   -7.1138277    26.659943  0.029622158  0.035179415            3 
   76000    1.2706607   -7.1437839    27.062669  0.029673979  0.035174656            1 
   77000    1.2481092   -7.0834605    27.436254  0.029692916  0.035163236            1 
   78000    1.2375794   -7.1347356    27.913202  0.029821797  0.035145182            1 
   79000    1.2254168   -7.0799503    28.444717  0.030004975  0.035140686            1 
   80000    1.2519991   -7.1332672    28.654994  0.029848952  0.035134554            1 
   81000    1.2270894   -7.0796348    29.074095   0.02991162  0.035120982            1 
   82000    1.2289259   -7.1219814    29.281956  0.029758085  0.035095538            2 
   83000    1.2237715   -7.1411028    29.633151   0.02975216  0.035054964            2 
   84000    1.2144108   -7.1226362    29.825363  0.029588654  0.035010361            2 
   85000    1.2430163   -7.1687214    30.258058  0.029664762  0.034964232            1 
   86000    1.2542418   -7.1611351    30.748267  0.029794832  0.034923255            1 
   87000    1.2175668   -7.1027589    31.055442  0.029746592  0.034886737            1 
   88000    1.2287037   -7.1183219    31.510713   0.02983969  0.034837183            1 
   89000    1.2282579   -7.1383485    31.829946   0.02980332   0.03479668       -1e+20 
   90000    1.2578156    -7.125194    32.241079  0.029852851  0.034754019            1 
   91000     1.245257   -7.1558984    32.679648  0.029926418  0.034719227            2 
   92000    1.2279405     -7.14515    33.014585  0.029904515  0.034676775            3 
   93000    1.2613884   -7.1111328    33.343812  0.029877967   0.03463884            1 
   94000     1.223826    -7.144988    33.937342  0.030086296   0.03459828            1 
   95000    1.2497231   -7.1104412    34.258437  0.030051261  0.034562706            1 
   96000    1.2477898   -7.1486198    34.811977   0.03021873  0.034532744            2 
   97000    1.2417805   -7.1675348    35.024684  0.030089934  0.034500411            2 
   98000    1.2396347   -7.1575273    35.313544  0.030028524  0.034464379            1 
   99000    1.2272411   -7.1048666    35.815333  0.030147586  0.034425347            1 
  100000    1.2644015   -7.1211007    36.297965  0.030248304  0.034399425            1 
  101000    1.2291713   -7.1167203    36.659415  0.030247042  0.034371767            2 
  102000    1.2211033   -7.1392402    37.055562  0.030274152  0.034347764            1 
  103000    1.2377357   -7.1242575    37.556851  0.030385802  0.034324665            3 
  104000    1.2381721   -7.1580251    37.750841  0.030249071  0.034302359            2 
  105000    1.2445926    -7.128941    38.160157  0.030285839  0.034282157            3 
  106000     1.241931   -7.1151394    38.739348  0.030455462  0.034261729            2 
  107000     1.226025   -7.1425279    38.930191  0.030319463  0.034237144            2 
  108000    1.2351678   -7.1320373    39.408706  0.030407952  0.034212323            2 
  109000    1.2292345   -7.1469153    39.908872   0.03051137  0.034194445            3 
  110000    1.2190745    -7.109501    40.165657  0.030428528  0.034175385            1 
  111000    1.2380571   -7.1297831    40.431496  0.030353976  0.034150754            1 
  112000    1.2145102   -7.1246201    40.811061  0.030365373  0.034121857            1 
  113000    1.2076504   -7.1398851    41.028842  0.030257258  0.034091352            1 
  114000    1.2037713   -7.1397336    41.404336  0.030266327  0.034053675            1 
  115000     1.240195   -7.1064186    41.763097  0.030263114   0.03401565            1 
  116000    1.2001529   -7.1480007    42.128024  0.030264385  0.033978983            2 
  117000    1.2169448   -7.0868237     42.81707  0.030496489  0.033949506            1 
  118000    1.2226535   -7.1782291    42.968742  0.030345157  0.033918348            1 
  119000    1.2240033   -7.1549095    43.440048  0.030420202  0.033890257            2 
  120000    1.2480594   -7.1929527    43.622567   0.03029345   0.03385947            2 
  121000    1.2096467   -7.1217111    44.386578  0.030569269  0.033834017            3 
  122000    1.2088461   -7.1210912    44.725364  0.030550112  0.033811557            2 
  123000    1.1983273   -7.1346658    44.887451  0.030411552  0.033787429            3 
  124000    1.2338469   -7.1348444    45.410573  0.030517858  0.033764288            1 
  125000    1.2112159   -7.1346246    45.650597  0.030433731  0.033741778            3 
  126000    1.2313389   -7.1295569    46.242487  0.030583655  0.033719338            1 
  127000    1.2246955   -7.1153181    46.383386  0.030435293  0.033692508            1 
  128000    1.2149686   -7.1602077    46.586364  0.030329664  0.033661365            3 
  129000     1.241787   -7.1334002    47.228992  0.030509685  0.033630816            2 
  130000     1.229385   -7.1294973    47.519878   0.03046146  0.033600763            1 
  131000    1.2156716   -7.1212843    47.793329  0.030402881  0.033571221            2 
  132000    1.2311297   -7.1471601    48.185132  0.030419907  0.033540597            1 
  133000    1.2281795   -7.1480214    48.535055  0.030410435  0.033510291            1 
  134000    1.2177348   -7.1242724     48.84614  0.030376952  0.033478595            2 
  135000    1.2294156   -7.1718261    49.290463  0.030426212  0.033448592            1 
  136000    1.2351232    -7.108724    49.624622  0.030407244  0.033418219            2 
  137000    1.2537386   -7.1630802    49.890344  0.030346925  0.033388205            2 
  138000    1.2691878   -7.1575074    50.499828  0.030495065  0.033356911            2 
  139000    1.2119748   -7.1562023    50.930342  0.030533778  0.033334266            2 
  140000     1.232283   -7.1064378    51.510046  0.030660741  0.033313759            2 
  141000    1.2108068   -7.1215674    51.914454  0.030682301  0.033293295            3 
  142000    1.2063111   -7.1577167    52.293532  0.030688692  0.033274413            7 
  143000    1.2201509   -7.1614442     52.62504  0.030667272  0.033258527            2 
  144000    1.2408337    -7.136893    53.056105  0.030703764  0.033246738            1 
  145000    1.2248511   -7.1634231    53.296015  0.030629893  0.033232244            2 
  146000    1.2319394   -7.1467443    53.801565  0.030708656  0.033215847            1 
  147000     1.228552   -7.1573608    54.233963  0.030744877  0.033201964            2 
  148000    1.2173821   -7.0991066    54.816825  0.030865329  0.033190582            1 
  149000    1.2138201   -7.1588015    55.238687   0.03089412  0.033179846            1 
  150000    1.2448014   -7.1371516    55.470348   0.03081686  0.033171452            2 
  151000    1.2204068   -7.1868808    55.828927  0.030810666  0.033164352            2 
  152000    1.2071501   -7.1619698    56.219959  0.030822346   0.03315773            1 
  153000    1.2345845   -7.1458933    56.768446  0.030919633  0.033148715            1 
  154000    1.2044919   -7.1531453    56.967843  0.030826755  0.033138901            2 
  155000    1.2046008   -7.1558575    57.294241  0.030803355  0.033129056            1 
  156000     1.220901   -7.1746323    58.078578  0.031024881  0.033123492            2 
  157000    1.2448094   -7.1894997    58.193054  0.030888033  0.033116886            1 
  158000     1.250117   -7.1289135    58.908894  0.031070092  0.033112369            1 
  159000     1.234451   -7.1650763     59.35768  0.031109895  0.033111287            2 
  160000    1.2354253   -7.1720629    59.703401  0.031095521  0.033111004            1 
  161000    1.2550219   -7.1322002    60.232788  0.031176391  0.033108271            4 
  162000     1.248948   -7.1816614    60.162255  0.030947662  0.033106589            2 
  163000    1.2187482   -7.1756845    60.734218  0.031050214  0.033104553            1 
  164000    1.2103222   -7.1602075    61.608496   0.03130513  0.033107555            1 
  165000    1.2228393   -7.1394111    62.264559  0.031446747  0.033116866            2 
  166000    1.2298582   -7.1102822    62.722456  0.031487177  0.033128133            1 
  167000    1.2222334   -7.1805367    62.851717  0.031363132  0.033137946            1 
  168000    1.2034414   -7.1726025    63.441696  0.031469095  0.033144315            2 
  169000    1.2129906   -7.1566014      63.7047  0.031412574  0.033152054            2 
  170000    1.2222796    -7.167942    64.337765   0.03153812  0.033159393            1 
  171000    1.2137312    -7.113853    64.652416  0.031507025   0.03316771            1 
  172000    1.1880517   -7.1509945    65.107615  0.031544387   0.03317859            1 
  173000    1.2253011     -7.17285    65.090276  0.031353697  0.033184494            1 
  174000    1.2321523   -7.1548283    65.603737  0.031419414  0.033189468            2 
  175000    1.2190963   -7.2309194    66.071685  0.031462707  0.033193081            2 
  176000    1.1962224   -7.1498072    66.678548  0.031571282   0.03319865            1 
  177000    1.2396636    -7.137896    66.796298  0.031448351  0.033202815            2 
  178000    1.2149721    -7.190674     67.18787  0.031454995  0.033204053            1 
  179000    1.2080281   -7.1713739    67.444417  0.031398704  0.033203373            1 
  180000    1.2332678   -7.1584559     67.76557  0.031372949  0.033202606            1 
  181000    1.2157362   -7.1663964     67.97084  0.031294125  0.033200188            2 
  182000    1.2017102   -7.1912949    68.107984  0.031184974  0.033193626            1 
  183000    1.2127065   -7.1871356    68.511895  0.031198495  0.033185834            1 
  184000    1.2472989   -7.1282822    68.974544  0.031238471  0.033177634            1 
  185000    1.2314897   -7.1666772    69.307662  0.031219668  0.033172099            1 
  186000    1.2128915   -7.1488786    69.874425  0.031305746  0.033166471            1 
  187000    1.2255266    -7.175593    70.043654   0.03121375  0.033160034            1 
  188000    1.2046236   -7.1366759      71.0033  0.031473094  0.033156672            2 
  189000    1.2399782   -7.2193447    70.593631   0.03112594   0.03315276            1 
  190000    1.2363191   -7.1549832    71.179425  0.031219046  0.033145709            3 
  191000     1.233556   -7.1526188    71.869589  0.031356714  0.033139696            2 
  192000    1.2116431   -7.1530493    72.089102  0.031288672  0.033132936            2 
  193000    1.2062393    -7.195823    72.113603  0.031137134  0.033125291            1 
  194000    1.2306927   -7.1846465    72.825251  0.031282324  0.033118739            4 
  195000    1.1976471   -7.2005808    73.730428   0.03150873  0.033114132            2 
  196000    1.2002255   -7.2066659    73.801475  0.031378178  0.033110007            2 
  197000     1.183562   -7.1246076    74.271475  0.031417713  0.033108221            2 
  198000     1.224632   -7.1629881    74.773744  0.031470431  0.033108767            1 
  199000    1.2131238   -7.1670265    75.260862  0.031516274  0.033109463            1 
  200000    1.1973258   -7.1888369    75.319014  0.031382922  0.033109963            1 
  201000    1.2287533   -7.1563001    75.585298  0.031337188  0.033108226            2 
  202000    1.2311504   -7.1798697    76.031564  0.031366157  0.033104007            3 
  203000    1.2324765   -7.1851033    76.883557  0.031561394  0.033101279            1 
  204000    1.2172781   -7.1847372    77.087952  0.031490176  0.033101077            2 
  205000    1.2231713   -7.1993857    77.608855  0.031548315  0.033099764            1 
  206000    1.2252154   -7.1689149    78.014259  0.031559166   0.03309844            1 
  207000    1.2234588   -7.1521703    78.274894  0.031511632    0.0330968            1 
  208000     1.188884   -7.1158328    78.927509  0.031621598  0.033094815            2 
  209000    1.2204872   -7.1624398    78.797684  0.031418534   0.03309259            2 
  210000    1.2160555   -7.1750673    79.186841  0.031423349  0.033090642            1 
  211000    1.2167812   -7.1329727    79.813649  0.031521978  0.033087735            2 
  212000    1.2154516    -7.162761    79.946979  0.031425699  0.033083728            2 
  213000    1.2053428   -7.1654988    80.576543  0.031524469  0.033079836            2 
  214000    1.2283251   -7.1954977    80.909537  0.031506829    0.0330767            1 
  215000    1.2136485   -7.2115586     81.08839  0.031429608  0.033072038            1 
  216000    1.1885821   -7.1706516    81.911743  0.031601753   0.03307132            1 
  217000    1.2041111   -7.1868717     82.51222   0.03168672  0.033071366            1 
  218000    1.2186185    -7.189081    82.912854  0.031694516  0.033072036            1 
  219000    1.2349939    -7.170136    83.184233  0.031653057   0.03307215            1 
  220000    1.2097616   -7.2049848       83.449   0.03160947  0.033072925            2 
  221000      1.20982   -7.1510284    84.137593  0.031726091  0.033073286            1 
  222000    1.2177161    -7.168454    84.310622  0.031648131  0.033075272            1 
  223000    1.2153696   -7.1591223    84.780674  0.031681866   0.03307572            1 
  224000    1.2195255    -7.161009    85.002496  0.031622952  0.033075955            1 
  225000    1.2180142   -7.1849291    85.574122  0.031694119  0.033074208            3 
  226000     1.215063   -7.2196971    85.613374  0.031568353   0.03307232            2 
  227000    1.1910945   -7.2170441    85.918362  0.031541249  0.033069925            1 
  228000    1.2276686   -7.2173542    86.386802  0.031574123   0.03306783            1 
  229000    1.2158872   -7.1972498    87.043777  0.031675319  0.033066328            1 
  230000     1.226478   -7.2117367    87.485585  0.031697676  0.033064706            2 
  231000    1.2124041   -7.1822323    87.770384  0.031663198   0.03306317            1 
  232000    1.2404263   -7.2163963    87.765326  0.031524902  0.033062511            3 
  233000    1.1826566   -7.2247949    88.236972  0.031558287  0.033060034            3 
  234000    1.2305911   -7.1645462    88.822828  0.031632061  0.033057326            2 
  235000    1.2264507   -7.1720815    89.171913  0.031621246  0.033054657            1 
  236000    1.2448047   -7.1912137    89.451408  0.031585949  0.033051399            1 
  237000     1.214892   -7.2048097    89.586136  0.031500048  0.033047809            1 
  238000    1.1995587   -7.1435156    90.547997  0.031704481  0.033044245            1 
  239000    1.1804599   -7.1996368    90.843604  0.031674897  0.033041583            3 
  240000    1.2018318   -7.1878275    91.093354  0.031629637  0.033040519            1 
  241000    1.2170821   -7.1591286    91.502895  0.031640005   0.03304039            2 
  242000     1.224959   -7.1924936    92.337656  0.031796714  0.033039114            2 
  243000    1.2286114   -7.1439146    92.675076  0.031781576  0.033038728            2 
  244000    1.2111739   -7.1568113    92.940624  0.031742016  0.033038273            2 
  245000    1.2078736   -7.2226455    92.986322  0.031628001  0.033038071            2 
  246000    1.2035247   -7.2221744     93.60714  0.031709736  0.033035287            3 
  247000    1.2094798   -7.1790398    94.015394  0.031719094  0.033033311            4 
  248000    1.2418931   -7.1825805    94.385645  0.031715606  0.033030439            1 
  249000     1.215167     -7.19881     94.34727  0.031575391  0.033026386            2 
  250000    1.2432094   -7.1583251    95.094051  0.031698017  0.033023401            2 
  251000    1.2016668   -7.2076253    95.328587  0.031649597  0.033019315            2 
  252000    1.2174074   -7.1393853    96.064858  0.031767479   0.03301763            1 
  253000    1.2202416   -7.1780503    96.368828  0.031742038  0.033014394            2 
  254000    1.2209216   -7.1965782    96.585444  0.031688138  0.033012941            2 
  255000    1.2207595   -7.1797936     96.82077  0.031640774  0.033009608            4 
  256000    1.2105789   -7.1918268     97.11941  0.031614391  0.033006459            2 
  257000     1.210236   -7.1682495    97.436936  0.031594337  0.033002563            2 
  258000    1.1909157   -7.1634344     98.25696  0.031736744  0.032996979            4 
  259000    1.2047848   -7.1847756    98.120876  0.031570423  0.032992901            1 
  260000    1.2028483   -7.2041388     98.68212  0.031628885  0.032988447            2 
  261000    1.2214525   -7.1695199    98.814044  0.031549822  0.032982247            2 
  262000    1.2135006   -7.2361352    99.238475    0.0315644  0.032976806            2 
  263000    1.2115432    -7.186252    99.763094  0.031610613  0.032972169            2 
  264000    1.2184288   -7.1825179    100.68829   0.03178292  0.032968575            1 
  265000    1.1924128   -7.1903469    101.05473  0.031778217  0.032965739            1 
  266000    1.1935629   -7.1863712    101.58802  0.031825821  0.032964414            2 
  267000    1.2051259   -7.2003309    101.41673   0.03165316  0.032962435            1 
  268000     1.170445   -7.2225372    101.85962  0.031672768  0.032960744            1 
  269000    1.2075062   -7.2160639    102.22426  0.031667986  0.032958212            1 
  270000    1.2162597   -7.1980856    102.57246  0.031658166  0.032954537            2 
  271000    1.2155844   -7.1971458    103.33046  0.031774433  0.032952672            1 
  272000    1.1922409   -7.1988464    103.62446  0.031747691  0.032949623            1 
  273000    1.2137527   -7.1815099    104.34253  0.031850589  0.032947406            1 
  274000    1.2124771   -7.1768091    104.21909  0.031696804  0.032945086            1 
  275000    1.2401707   -7.2010206    104.76659  0.031747453  0.032944392            1 
  276000    1.1991206   -7.2328855    104.83625  0.031653458   0.03294239            1 
  277000    1.1858912   -7.1867401    105.60466  0.031770354  0.032940109            1 
  278000    1.1916379   -7.2183215     105.9881  0.031771012  0.032939835       -1e+20 
  279000    1.2368644   -7.2120951     106.7987  0.031899254  0.032938963            1 
  280000    1.1920225   -7.1756223    106.98255  0.031840045  0.032938783            2 
  281000    1.1832736    -7.209623    107.13189  0.031771024  0.032937556            2 
  282000    1.2159518    -7.193046     107.4675  0.031757535  0.032936025            1 
  283000    1.1892851   -7.1793643    108.53165  0.031958673   0.03293445            1 
  284000     1.223067   -7.1683199    108.45433  0.031823455  0.032932306            1 
  285000    1.2325858   -7.2115233    108.42647  0.031703647  0.032929737            1 
  286000    1.2040071   -7.2122105    108.99843  0.031759448  0.032924925            2 
  287000    1.2092877     -7.20639    108.81419  0.031595294  0.032920303            4 
  288000    1.2013741    -7.165463    109.92002   0.03180556  0.032915377            1 
  289000     1.206029   -7.2104747    109.84854  0.031674896  0.032909692            1 
  290000    1.1882711   -7.2100789    110.05786  0.031625821  0.032904327            1 
  291000    1.2188392   -7.2417714    110.38463   0.03161072  0.032899371            1 
  292000    1.2183404   -7.2108557    111.09885  0.031706293  0.032894253            1 
  293000    1.2137932   -7.2155181     111.1739  0.031619427   0.03289022            1 
  294000    1.2188136   -7.1475188     112.2693  0.031822365  0.032886388            1 
  295000    1.1946628   -7.1830623    112.76139  0.031853501  0.032884758            1 
  296000    1.2103494   -7.1893531    113.46785  0.031944776  0.032882851            2 
  297000    1.2274669   -7.2147152    113.30407  0.031791265  0.032881105            2 
  298000    1.1873308   -7.2241304    113.77095  0.031815142  0.032878811            3 
  299000    1.2020784   -7.1778603    114.17234  0.031820608  0.032876527            3 
  300000    1.2087937   -7.2071371    114.14111  0.031705864  0.032873851            1 
  301000    1.1945364   -7.1849192    114.76535  0.031773353  0.032870934            2 
  302000    1.2018564   -7.2724123    114.37502  0.031560435  0.032867169            1 
  303000    1.2144375   -7.2004354    114.72762   0.03155325   0.03286169            1 
  304000    1.2058166   -7.1758746    115.25505  0.031594039   0.03285684            1 
  305000    1.1934607   -7.2037979     116.2774  0.031769782  0.032852943            2 
  306000    1.1989637   -7.1986425     116.4434  0.031711165  0.032848792            1 
  307000    1.2208486   -7.2120481    116.90509  0.031733195  0.032844942            3 
  308000     1.215928   -7.1872861    117.32419  0.031743557  0.032841145            3 
  309000    1.2183974   -7.1981447     117.4749  0.031681472  0.032835971            2 
  310000     1.195637   -7.2545548    117.69497  0.031638432  0.032829702            3 
  311000     1.200892   -7.2069972    118.35914  0.031714668  0.032824376            2 
  312000    1.2134616    -7.275983    118.65716  0.031692617  0.032820028            1 
  313000    1.2075789   -7.2095969    119.24478  0.031747811  0.032816644            1 
  314000    1.1960089   -7.2069896    120.09536   0.03187244  0.032814286            2 
  315000    1.2043839   -7.1993067    120.13355  0.031781363  0.032812738            1 
  316000    1.2115725   -7.1879771    120.36222  0.031741092  0.032810274            1 
  317000     1.197275      -7.2009    120.87766  0.031776463  0.032808183            2 
  318000    1.2256759   -7.1975024    120.99306  0.031706776  0.032805397            1 
  319000    1.2341887   -7.1938234    121.83556  0.031827471   0.03280258            2 
  320000    1.2027081   -7.2349332    121.57027  0.031658925  0.032798066            1 
  321000    1.1856319   -7.1892731     122.2711  0.031742238  0.032793365            2 
  322000      1.15696   -7.1992775    122.54021  0.031713304  0.032788955            3 
  323000    1.2027398   -7.2278082    122.62577  0.031637196   0.03278435            3 
  324000    1.1941978   -7.1989059    123.45383  0.031752529  0.032780774            1 
  325000    1.1937317   -7.1858902    123.82944  0.031751139   0.03277782            3 
  326000    1.1866292   -7.2274821    123.54442  0.031580885  0.032773821            1 
  327000    1.1919389    -7.235528    124.15395  0.031639641  0.032769367            1 
  328000    1.1966653   -7.2078397    124.86871  0.031724775   0.03276517            1 
  329000    1.1859573   -7.2092613    124.88556  0.031632615  0.032761264            3 
  330000    1.2305562   -7.2340926    125.15231  0.031604118  0.032757064            2 
  331000    1.2030658   -7.1818196    126.00936  0.031724411  0.032752704            1 
  332000    1.1983153   -7.2379708    126.64448  0.031788272  0.032749136            4 
  333000    1.2107369   -7.2202654    126.69487  0.031705423  0.032745603            1 
  334000    1.1946236    -7.237256    127.07937  0.031706428  0.032741753            2 
  335000    1.2147985   -7.2273965    127.07706  0.031611209  0.032736966            2 
  336000    1.1863448   -7.1914978    127.43601  0.031606153  0.032732409            1 
  337000    1.2234948   -7.2509783    128.12463  0.031682648  0.032728131            3 
  338000    1.2083632   -7.2023352     128.7651  0.031746819  0.032725059            2 
  339000    1.1585382    -7.237999    129.18246  0.031755767  0.032721243            2 
  340000    1.2135419   -7.1837326    129.86751  0.031830272  0.032718422            2 
  341000    1.2036128   -7.2329797    129.99959  0.031769205  0.032716002            3 
  342000    1.1922431   -7.2231783     130.3277  0.031756262   0.03271297            2 
  343000    1.2118085   -7.2350631    130.52602  0.031711861  0.032710642            1 
  344000    1.2088583   -7.2353923    131.36121  0.031821998  0.032708498            3 
  345000    1.1869767   -7.2513029    131.08944  0.031664116  0.032704877            2 
  346000    1.1888672   -7.1773715    132.17599  0.031834294  0.032700533            1 
  347000    1.1956837   -7.2336097     132.0462  0.031711382  0.032697054            1 
  348000    1.2065306   -7.1950649    133.14633  0.031883699  0.032695633            1 
  349000    1.1926174   -7.1959494     133.6076  0.031902483   0.03269449            1 
  350000    1.1938552    -7.219318    133.94359  0.031891332  0.032693335            1 
  351000    1.1653566   -7.1805789    134.59823  0.031955894  0.032692844            2 
  352000    1.1667007   -7.2441381    134.94368  0.031946894  0.032691558            2 
  353000    1.1892188    -7.245042    134.38438  0.031724358  0.032690541            1 
  354000    1.2092788   -7.1972241    135.14267  0.031813247  0.032688675            1 
  355000    1.1883891   -7.2244127      135.234   0.03174507  0.032686225            1 
  356000    1.1674902   -7.2234251    135.52996  0.031725177  0.032683946            2 
  357000    1.2027271   -7.2111076    136.11734  0.031773421  0.032680712            3 
  358000    1.1971413   -7.2157725    136.74833  0.031831548  0.032678199            3 
  359000    1.2113409   -7.1574829    136.93747  0.031786785  0.032676078            1 
  360000    1.2090011   -7.2336619    136.75088  0.031655297  0.032674078            1 
  361000     1.207184   -7.1820234    137.61703  0.031767551  0.032670829            2 
  362000    1.1936565   -7.2174758     137.8038  0.031722789  0.032667711            1 
  363000    1.1858483   -7.2262962    138.35364  0.031761625  0.032664067            1 
  364000    1.2013366   -7.1903009    138.89121  0.031797437  0.032661155            2 
  365000    1.1782989   -7.2203626    138.78941  0.031687079  0.032657806            2 
  366000    1.2090109   -7.1626225    139.62067  0.031789769  0.032654653            1 
  367000    1.2308241   -7.2650547    139.86337  0.031758259  0.032651594            1 
  368000    1.2036794   -7.2372396     139.8583   0.03167081  0.032647468            2 
  369000    1.1935229   -7.2205763     140.3583    0.0316979  0.032643454            1 
  370000     1.173339    -7.203253    141.14457  0.031789317  0.032639408            1 
  371000    1.1948974   -7.2156845    141.04354  0.031680938  0.032636186            2 
  372000    1.2053298    -7.251656    141.07113  0.031601955  0.032631509            1 
  373000    1.1709535   -7.2376457    141.50012  0.031613074  0.032625398            1 
  374000    1.1756106   -7.1759056    142.45931   0.03174227  0.032619593            1 
  375000    1.1895103   -7.2004701    142.71225  0.031713834  0.032614579            1 
  376000    1.1830759   -7.1978974    142.37453  0.031554639   0.03260936            1 
  377000    1.1803084   -7.2214465    143.19869  0.031653115  0.032604082            2 
  378000    1.1702827   -7.1793552    143.80217  0.031702417   0.03259847            1 
  379000    1.1717982   -7.2615502    144.01603  0.031665794  0.032593373            1 
  380000    1.2170494   -7.2614696    143.78919  0.031532716  0.032587875            1 
  381000    1.1925819   -7.2101056    144.67607  0.031643934  0.032582907            2 
  382000    1.1805971   -7.1798953    145.08619  0.031650564  0.032577779            2 
  383000    1.1847745   -7.2195603     144.6941  0.031482616  0.032572391            1 
  384000    1.2132976   -7.2371133    145.08749  0.031486001  0.032566474            1 
  385000    1.1999133   -7.2194736    146.25605  0.031657154  0.032561079            2 
  386000    1.1999618   -7.2058793    146.61592  0.031652833   0.03255589            3 
  387000    1.1958711   -7.2171085    146.70931  0.031591151    0.0325514            1 
  388000    1.1971709    -7.174995    147.31791  0.031640445  0.032547379            2 
  389000    1.1888088   -7.2292936    147.32963  0.031561617  0.032542694            1 
  390000    1.1990536   -7.2466103    147.78148   0.03157724  0.032537815            1 
  391000    1.2181716   -7.2116012    148.20727  0.031587227  0.032532495            2 
  392000    1.1789686   -7.2614452    148.24998  0.031515726   0.03252733            1 
  393000      1.16932   -7.2002124    148.91393  0.031576321  0.032522143            1 
  394000    1.1863596   -7.2509907    148.95689  0.031505265  0.032516558            2 
  395000    1.1859283   -7.2293888    149.83045    0.0316098  0.032510547            2 
  396000    1.1867608   -7.2639199    149.49278  0.031458918  0.032504114            2 
  397000     1.172074   -7.2884962    149.99003  0.031484052  0.032497402            2 
  398000    1.1803179   -7.2500843     150.2936   0.03146851  0.032490265            1 
  399000    1.1615719   -7.2403637    150.85887  0.031507699  0.032483507            2 
  400000     1.151365   -7.2537103    150.47647  0.031349265  0.032476663            1 
  401000     1.180058   -7.2613069    150.68836  0.031315121  0.032468785            2 
  402000    1.1506845   -7.2370876    151.04928   0.03131204  0.032461064            2 
  403000    1.1782206   -7.2679154    151.30053  0.031286297  0.032453031            1 
  404000    1.2015211   -7.2539885    152.11868  0.031377616  0.032445098            1 
  405000     1.191809   -7.2575885    152.26145  0.031329517  0.032437343            4 
  406000    1.1932758   -7.2756908    152.72029  0.031346529  0.032429299       -1e+20 
  407000    1.1573201    -7.246318    152.63342  0.031251724  0.032420636       -1e+20 
  408000    1.1793321   -7.2643387    153.46735  0.031345454   0.03241198            1 
  409000    1.1641835   -7.2391946    154.09354  0.031396402  0.032404205            1 
  410000    1.1793736    -7.285111    154.56699  0.031416055  0.032397438            1 
  411000    1.1677419     -7.27302     155.1123  0.031450183   0.03239119            1 
  412000    1.1943202   -7.2590103    155.33185  0.031418254   0.03238495            4 
  413000    1.1897093   -7.2659077    155.46695  0.031369441  0.032378349            1 
  414000    1.1882704    -7.259766    156.08569  0.031418215  0.032371643            2 
  415000    1.1904797   -7.2470311    156.58831  0.031443435  0.032365274            1 
  416000    1.1891989    -7.225816    156.62445  0.031375091  0.032358101            6 
  417000    1.1740045   -7.2715156    156.40882  0.031256758  0.032350565            3 
  418000     1.170475   -7.2542746    156.75318  0.031250633  0.032342438            7 
  419000    1.2081052   -7.2468588    157.38638  0.031301985  0.032334374            2 
  420000    1.1878768   -7.2224122    157.75175   0.03129995  0.032326129            1 
  421000    1.1896329   -7.2700594    157.38121  0.031152258  0.032318005            2 
  422000    1.1905357   -7.2375128    158.47381  0.031294196   0.03230956            2 
  423000    1.1559322   -7.2515148    158.57454  0.031240059   0.03230054            1 
  424000    1.1841438   -7.2274258    158.67466  0.031186058  0.032292229            4 
  425000    1.1762513   -7.2705968    159.27719  0.031230821  0.032283415            2 
  426000    1.1801973   -7.2524887    160.09951  0.031318371  0.032275261            3 
  427000    1.1980648   -7.2452154    159.94799  0.031215455   0.03226755            1 
  428000    1.1735933    -7.224382    160.37096  0.031224876  0.032260518            1 
  429000    1.1688053   -7.2580638    160.22686  0.031124098  0.032252924            2 
  430000    1.1771275   -7.2775874    160.91376  0.031184837   0.03224506            1 
  431000     1.188087   -7.1959171    161.85443   0.03129436   0.03223678            2 
  432000    1.1927822   -7.2653216    161.33217  0.031121175  0.032229074            2 
  433000    1.1811582   -7.2532888    162.38949  0.031252789  0.032221491            2 
  434000    1.1825636   -7.2921085    162.91556  0.031281789  0.032215407            2 
  435000    1.1825997   -7.2413944    163.64187  0.031349017  0.032208483            2 
  436000    1.2018805   -7.2629677     164.0935  0.031363436  0.032201762            3 
  437000    1.1821834   -7.2788914    163.83544  0.031242456  0.032195034            2 
  438000    1.1896745   -7.2951099    164.23435  0.031247023  0.032188412            1 
  439000    1.1912254   -7.2908674    164.27386  0.031183345  0.032181619            2 
  440000    1.1702501   -7.2251194    164.97739  0.031245718  0.032174891            2 
  441000    1.1696187   -7.2910535    165.24483  0.031225402    0.0321678            1 
  442000    1.1690522   -7.2317842    166.19841  0.031334542  0.032161753            1 
  443000     1.180103   -7.2932436    165.81472  0.031191633  0.032155015            2 
  444000    1.1754463   -7.2660306    166.31409  0.031215107   0.03214767            1 
  445000    1.1916718   -7.2944213    166.70362  0.031217907  0.032141196            1 
  446000    1.1846925   -7.2328042    167.85478     0.031363  0.032135097            1 
  447000    1.1817026   -7.2671262    167.96847  0.031314033  0.032129259            2 
  448000    1.2023255    -7.300918    168.00539  0.031251003  0.032123709            2 
  449000     1.187742   -7.2752143    167.86079  0.031154563  0.032117493            1 
  450000    1.1620397   -7.2665899    169.04749   0.03130509  0.032111712            2 
  451000    1.1645217   -7.2685241    169.22579  0.031268623  0.032105881            1 
  452000    1.2061281   -7.2695599    169.07249  0.031171182  0.032099586            2 
  453000    1.1496227   -7.2764601    169.56974  0.031193844  0.032093471            2 
  454000      1.15193    -7.281556     170.0775  0.031218337  0.032087541            1 
  455000    1.2034586   -7.2152332    171.14291  0.031344856  0.032082355            3 
  456000    1.1652217   -7.3017448    170.61997   0.03118055  0.032076703            2 
  457000    1.1771842   -7.2488297    171.33975  0.031243572  0.032070974            2 
  458000    1.2107741   -7.2587949     171.5002  0.031204548  0.032064745            1 
  459000    1.1961303   -7.2377982    171.87289  0.031204228  0.032059297            1 
  460000    1.1476162   -7.2599566    172.12902  0.031182793  0.032053069            3 
  461000    1.1825032   -7.2696416    172.44621  0.031172488  0.032045852            1 
  462000    1.1860115   -7.3079436    172.17991  0.031056982  0.032038836            1 
  463000    1.1836573   -7.2330895    173.20921  0.031175164  0.032031855            1 
  464000    1.1905384   -7.2542788    173.38584  0.031139698  0.032024621            2 
  465000    1.1723512   -7.2534409    173.10756   0.03102286  0.032016685            1 
  466000    1.1499919   -7.2449207    173.95633  0.031108071  0.032008525            2 
  467000    1.1893962   -7.3147559    174.23743  0.031091619  0.032000134            1 
  468000    1.1857909   -7.2800808    174.17184  0.031013504  0.031991797            1 
  469000    1.1893847   -7.3008381    174.66072  0.031034244  0.031984109            4 
  470000    1.1833408   -7.2781134    174.68369  0.030972285  0.031975764            1 
  471000    1.1784395   -7.2983144    174.99378   0.03096139  0.031967641            1 
  472000    1.1734942   -7.2481027    176.18367  0.031105873  0.031959895            1 
  473000    1.1815943   -7.2917771    176.19377  0.031041891  0.031952677            4 
  474000    1.1636516    -7.267247    176.57026  0.031042591  0.031945094            2 
  475000    1.1765711   -7.3074134    176.63157  0.030987995  0.031937653            3 
  476000    1.1882335   -7.2550789    177.39954  0.031057343  0.031930387            2 
  477000     1.182304   -7.3247145     177.1562   0.03094972  0.031923511            3 
  478000    1.1608547   -7.2512959    177.94701   0.03102284  0.031915282            3 
  479000    1.1837654   -7.2408587    178.62975  0.031076852  0.031907871            1 
  480000    1.1771319   -7.2821633    177.98144  0.030899555  0.031900509            2 
  481000    1.1972826   -7.2736476    178.63025  0.030947721  0.031892696            1 
  482000    1.1695105   -7.3105533    179.21477  0.030984573  0.031884646            4 
  483000    1.1552757    -7.249258    180.16701  0.031084715  0.031877275            1 
  484000    1.1801709   -7.2412272    180.05201  0.031000691  0.031870031            1 
  485000    1.1647412   -7.2924421    180.14516  0.030952776  0.031862622            2 
  486000    1.1750156   -7.2830163    180.34025   0.03092254  0.031854661            2 
  487000    1.1766413   -7.2907965    180.44881   0.03087762  0.031845989            2 
  488000     1.151106   -7.2739997    180.66398  0.030851089  0.031836941            1 
  489000    1.1681492   -7.2866667    181.56236  0.030941098  0.031828504            2 
  490000    1.1530448   -7.2718551    181.97045  0.030947356  0.031819952            2 
  491000    1.1779274   -7.2791963    181.82844  0.030860225  0.031811186            3 
  492000    1.1579263   -7.2623078    182.14887  0.030851774   0.03180257            1 
  493000    1.1658401   -7.2910506    181.79997  0.030730219  0.031794088            2 
  494000    1.1916561   -7.2604362    182.49827  0.030785808  0.031785301            2 
  495000    1.1991711   -7.2648608    182.74342  0.030764886   0.03177643            1 
  496000    1.1704254   -7.2530579    182.80045  0.030712441   0.03176756            2 
  497000    1.1991135   -7.2482647    183.77632  0.030814273  0.031758253            2 
  498000    1.1794187   -7.2725014    184.28324  0.030837222  0.031748797            2 
  499000    1.1812748   -7.3169109    183.58944   0.03065956  0.031739247            1 
  500000    1.1479334   -7.2785336    184.17268  0.030695446  0.031729436            6 
  501000    1.1666467   -7.2818547    183.83246  0.030577588  0.031719211            2 
  502000    1.1464748    -7.256951    185.16845  0.030738454  0.031708848            2 
  503000    1.1706679   -7.2812265    184.78345   0.03061356   0.03169887            1 
  504000    1.1827364   -7.2918964    185.14829  0.030613143  0.031688761            3 
  505000    1.1854544   -7.3168325    185.60728  0.030628263  0.031678392       -1e+20 
  506000    1.1656199   -7.2694621     186.2915  0.030680419   0.03166888            1 
  507000    1.1634669   -7.2899176    185.58674  0.030504066  0.031659078            3 
  508000     1.176842   -7.2747601    187.00711   0.03067702  0.031649435            2 
  509000    1.1667139   -7.2713978    186.76601  0.030577278  0.031639463            1 
  510000    1.1888472   -7.3108488    187.87003  0.030697717  0.031628939            2 
  511000    1.1678007   -7.3040045    187.23134  0.030533487  0.031618581            2 
  512000    1.1861598   -7.2940504    188.02695  0.030603344  0.031609142            1 
  513000     1.151006   -7.3327719    187.53247  0.030463363  0.031598542            2 
  514000    1.1700593   -7.2305128    189.24434  0.030681638  0.031587958            2 
  515000    1.1706938   -7.2695044    188.34598  0.030476695  0.031577861            3 
  516000     1.164163    -7.281628    188.22809  0.030398593  0.031567111            1 
  517000    1.1700536   -7.3077348    189.33187  0.030517709  0.031555919            3 
  518000    1.1523174   -7.3251685    189.33336  0.030459034  0.031544885            1 
  519000    1.2118234   -7.2970499    189.85806  0.030484595  0.031533938            1 
  520000    1.1554568   -7.2536096    189.83325  0.030421994   0.03152298            1 
  521000    1.1758332   -7.2495111    190.91088  0.030535969  0.031512566            2 
  522000    1.1536956   -7.2809382    191.03489  0.030497268  0.031502225            2 
  523000    1.1597745   -7.2868438    191.30923  0.030482669  0.031491699            2 
  524000    1.1548664   -7.3151186    190.74789  0.030335224   0.03148078            2 
  525000    1.1583434   -7.2784324    191.14084  0.030339816  0.031470134            1 
  526000    1.1457162   -7.3035609    192.06725  0.030428906  0.031459225            1 
  527000     1.196257   -7.2393664    193.04856  0.030526337   0.03144903            1 
  528000    1.1864834   -7.2726284    193.13405  0.030482016   0.03143901            2 
  529000    1.1586908   -7.2641538    193.07431  0.030414983  0.031428977            1 
  530000     1.199745   -7.2668451    194.39452  0.030565176  0.031419508            2 
  531000    1.1662211   -7.3024386    193.90649  0.030431025  0.031410263            1 
  532000    1.1735715   -7.2676849    195.76852  0.030665496  0.031401665            1 
  533000    1.1622944   -7.2850709    195.24563  0.030526209  0.031392496            3 
  534000    1.1657535   -7.3029876    195.37377   0.03048904  0.031382915            1 
  535000    1.1600959   -7.2724116    195.86976  0.030509308  0.031373591            2 
  536000     1.161775   -7.2967219    196.40143  0.030535048   0.03136453            1 
  537000      1.18949   -7.3156236    196.20452  0.030447628   0.03135562            2 
  538000     1.147257   -7.3237647    196.32086  0.030409056  0.031346212            1 
  539000    1.1625074   -7.3080577    196.55628  0.030389036  0.031336681            1 
  540000    1.1509674   -7.2887842    196.88978  0.030384225  0.031327484            1 
  541000    1.1735538   -7.3214451    196.72406  0.030302535  0.031318239            2 
  542000     1.156678   -7.3573497    197.14202  0.030310888  0.031308222            2 
  543000    1.1566736    -7.303723    197.58281  0.030322715  0.031297837            2 
  544000    1.2182447   -7.2517754    198.00497  0.030331644   0.03128805            1 
  545000    1.1650488    -7.295446    198.18817  0.030304002  0.031277746            1 
  546000    1.1423098   -7.2950689    198.42644  0.030284866  0.031267467            1 
  547000    1.1597564   -7.3153592    198.02433  0.030168241  0.031257305            3 
  548000    1.1770888   -7.3376105    198.79502  0.030230386  0.031246343            1 
  549000    1.1509828   -7.3295529    198.76311  0.030170479  0.031235477            2 
  550000    1.1834693   -7.3029993    199.82958  0.030277209  0.031224642            2 
  551000    1.1530462   -7.3034912    200.27292   0.03028931  0.031214685            2 
  552000    1.1719847   -7.2442584    200.70819  0.030300149  0.031204639            3 
  553000    1.1517962   -7.2832399    201.56877  0.030375041  0.031194796            2 
  554000    1.1607635   -7.3159621     200.4967   0.03015895  0.031184897            2 
  555000    1.1580628   -7.2543534    202.28356  0.030372906  0.031174945            3 
  556000    1.1606978   -7.3409893    200.97891  0.030122739  0.031165243            2 
  557000    1.1791769   -7.3116376    201.35458  0.030124863  0.031155052            1 
  558000    1.1603905   -7.3404481    201.83425   0.03014251  0.031144867            4 
  559000    1.1765715    -7.323906    201.91438  0.030100534  0.031134461            2 
  560000    1.1736892   -7.2901645    202.74011   0.03016966  0.031124274            2 
  561000    1.1987224   -7.2873009    203.31789  0.030201707  0.031114245            3 
  562000    1.1664777   -7.3146875    203.14848  0.030122847   0.03110439            2 
  563000    1.1807406   -7.2855946    204.39605  0.030254004  0.031094414            2 
  564000     1.161031   -7.2951132    205.13023   0.03030884   0.03108496            3 
  565000     1.191795   -7.3366129    204.95157  0.030228845  0.031075872            1 
  566000    1.1748189   -7.2978408    205.98669   0.03032784  0.031066715            1 
  567000    1.1677659   -7.2964462    206.74496  0.030385797  0.031057661            2 
  568000    1.1725066   -7.2997941    206.29547  0.030266355  0.031049243            2 
  569000    1.1899271   -7.2458048    207.66908  0.030414335  0.031041724            1 
  570000    1.1912857    -7.296569    207.86985  0.030390329  0.031033903            2 
  571000    1.1484874    -7.343961    206.92742  0.030199564  0.031025823            5 
  572000    1.1287887   -7.2701073    207.90218   0.03028878  0.031017951            2 
  573000    1.1589167   -7.3017262    208.31081  0.030295348  0.031010146            1 
  574000     1.154859   -7.3441934    208.60578  0.030285392  0.031002233            3 
  575000    1.1569182   -7.3540809    208.78027  0.030258011  0.030993764            1 
  576000     1.175907   -7.2850839    208.73884  0.030199484  0.030985662            2 
  577000    1.1672346   -7.3595225    209.69482  0.030285214  0.030977404            2 
  578000    1.1474519   -7.3519025    208.98022  0.030129789  0.030969452            1 
  579000     1.157909   -7.3233463    210.02427  0.030228018  0.030961474            2 
  580000    1.1453091   -7.3206847    210.56389  0.030253433  0.030953487            1 
  581000    1.1421253   -7.2620619    211.19629  0.030292067  0.030945705            1 
  582000    1.1493916   -7.2827037    211.43381  0.030274028  0.030938157            2 
  583000    1.1641957   -7.3298171    211.23598  0.030193822  0.030930789            3 
  584000    1.1523471   -7.2746477    212.09491  0.030264685   0.03092365            1 
  585000    1.1497832   -7.3007551    213.28048  0.030381835  0.030915919            1 
  586000     1.144405   -7.3292669    213.34833  0.030339638  0.030908669            1 
  587000    1.1558345   -7.2987729      213.641    0.0303295  0.030901662            1 
  588000    1.1576835   -7.3383545    214.27005  0.030367071  0.030895248            2 
  589000    1.1610652   -7.3328676    214.77757  0.030387318  0.030888906            6 
  590000    1.1697676   -7.3060133    214.77052  0.030334819  0.030882558            1 
  591000    1.1815482   -7.2949314    215.23529  0.030349026  0.030876573            2 
  592000    1.1713674   -7.3208752    215.52846  0.030339029  0.030870938            2 
  593000    1.1466872   -7.2996674     215.9056  0.030340865  0.030864837            2 
  594000    1.1515218   -7.3117617    216.74985  0.030408228  0.030858526            2 
  595000    1.1816053   -7.3151241    216.63933  0.030341642   0.03085213       -1e+20 
  596000    1.1832264   -7.3394087    216.20651  0.030230217  0.030845326            1 
  597000    1.1390661   -7.3270075    216.89663  0.030275912  0.030838443            1 
  598000    1.1691111   -7.3415125    216.84228  0.030217709  0.030831644            1 
  599000    1.1198948   -7.3204713    216.92602  0.030178912  0.030824415            2 
  600000    1.1465431   -7.3417572    217.30601  0.030181391  0.030816575            4 
  601000     1.156785     -7.28614    218.06428  0.030236312  0.030808934            1 
  602000    1.1474789   -7.3252135    217.62032  0.030124628  0.030801536            2 
  603000    1.1626155     -7.29407    218.78075  0.030235041  0.030794277            2 
  604000    1.1675461   -7.3123793    217.79453  0.030048914  0.030786993            1 
  605000    1.1638997   -7.3340382      218.681   0.03012135  0.030779983            3 
  606000    1.1413403   -7.2944496    219.69327  0.030210846     0.030773            2 
  607000    1.1609802   -7.2954277    220.11862   0.03021947  0.030766674            1 
  608000    1.1638581   -7.3143236    220.33961  0.030200056  0.030760218            1 
  609000     1.145331   -7.3249381    220.55468  0.030179896   0.03075343            1 
  610000    1.1452607    -7.318077    220.85887  0.030171977  0.030746939            2 
  611000    1.1590849   -7.2898851    221.16356  0.030164152  0.030740445            2 
  612000    1.1520111     -7.36133    221.72867  0.030191812  0.030733421            4 
  613000    1.1822233   -7.3732004    221.83475  0.030156981  0.030726592            2 
  614000    1.1649755   -7.2726927    223.58766  0.030345774  0.030720951            2 
  615000    1.1771339   -7.3082072    222.81152  0.030191262  0.030714771            1 
  616000    1.1750878   -7.3308947    222.80909  0.030141922  0.030708102            1 
  617000    1.1559929    -7.338527    222.91361  0.030107186  0.030701491            1 
  618000    1.1551789    -7.341896    223.97698  0.030201859  0.030695225            2 
  619000    1.1472613   -7.3486268    224.22659  0.030186671  0.030688973            3 
  620000    1.1474685   -7.2700505    224.84361  0.030220915  0.030682815       -1e+20 
  621000    1.1533766    -7.319776    225.03339  0.030197718   0.03067695            1 
  622000    1.1742553   -7.2962864    225.28013  0.030182225  0.030670478            3 
  623000    1.1844128   -7.3334137    225.53198  0.030167466  0.030664184            1 
  624000    1.1599953   -7.3239646    225.05796  0.030055817  0.030657254            6 
  625000    1.1610845   -7.3403282    225.74083  0.030098777  0.030650347            2 
  626000    1.1385145   -7.3469692    226.14162  0.030104049  0.030643612            2 
  627000    1.1693253   -7.3292372    227.25934  0.030204591  0.030637127            1 
  628000    1.1256508   -7.3458958    226.81969  0.030098155  0.030630726            1 
  629000    1.1619718   -7.2830459    227.69999   0.03016693  0.030624411            1 
  630000    1.1304783   -7.3390023    227.53249  0.030096891  0.030618392            2 
  631000    1.1701058   -7.3418846     228.0445  0.030116813  0.030611614            2 
  632000    1.1494492   -7.3164524    228.17003  0.030085711  0.030604994            3 
  633000     1.132745   -7.3484923    228.55425  0.030088763  0.030598257            1 
  634000    1.1626263   -7.3392992    229.13281  0.030117352  0.030591632            1 
  635000     1.134413   -7.3597607    229.65282  0.030138166  0.030585574            1 
  636000    1.1602628   -7.3399881    230.14936  0.030155839  0.030579683            2 
  637000    1.1291056   -7.3090111    230.00147  0.030089151  0.030573944            2 
  638000    1.1624551     -7.35049    230.85426  0.030153377  0.030568311            1 
  639000    1.1401464   -7.3113609    230.99631  0.030124715  0.030562646            1 
  640000    1.1198935   -7.3110928    231.83352  0.030186657  0.030557257            2 
  641000    1.1288199    -7.342655    231.60156  0.030109407  0.030551731            2 
  642000     1.124255   -7.3566392    232.87068  0.030227243  0.030546349            1 
  643000    1.1486516   -7.3129015     232.7886  0.030169596  0.030541407            1 
  644000    1.1540456    -7.309693    233.47207   0.03021119  0.030536361            1 
  645000    1.1664022   -7.3393421    232.42702  0.030029331  0.030531387            2 
  646000    1.1497469   -7.3569307    233.76982  0.030156066  0.030526071            2 
  647000     1.133198   -7.3363816    234.21475  0.030166764  0.030521323            2 
  648000    1.1442229   -7.3393576    234.81719  0.030197684  0.030516468            2 
  649000    1.1519021    -7.329551    235.07447   0.03018419  0.030512148            1 
  650000    1.1756221   -7.3053995    235.76117  0.030225791  0.030507684            2 
  651000    1.1413893   -7.3236522    237.00279  0.030338299   0.03050345            4 
  652000    1.1609653   -7.2838635    237.02814  0.030295007   0.03049901            4 
  653000    1.1697987   -7.3378513     236.6673  0.030202565  0.030494659            1 
  654000    1.1655715   -7.3371609    236.55016  0.030141458  0.030490293            1 
  655000    1.1563072   -7.3705506    236.78241  0.030124988   0.03048547            2 
  656000    1.1273868   -7.3272519    237.07129  0.030115764  0.030480767            1 
  657000    1.1271765   -7.3356708    237.96617  0.030183431  0.030476423            2 
  658000    1.1541153   -7.3391436    238.27031  0.030176078  0.030471948            2 
  659000    1.1469658   -7.3377335    238.91246   0.03021149   0.03046715            1 
  660000     1.147766   -7.3400385    238.60352  0.030126707  0.030462142            1 
  661000    1.1510377   -7.3451346    238.70007  0.030093302  0.030456724            1 
  662000     1.158199   -7.3854474    238.42069  0.030012675  0.030451185            2 
  663000    1.1321031   -7.4115374    238.63918  0.029994869  0.030445777            1 
  664000    1.1278738   -7.3180641    240.23422  0.030149877  0.030440249            1 
  665000    1.1485686   -7.3526275    240.14898  0.030093857  0.030434955            2 
  666000     1.160639   -7.3564158    239.94373   0.03002299  0.030429212            3 
  667000    1.1581332   -7.3534531    240.91536   0.03009937  0.030423665            4 
  668000     1.124562   -7.3581399    240.38588  0.029988258  0.030418425            2 
  669000    1.1349136   -7.3452991    242.24074  0.030174482  0.030413027            3 
  670000    1.1318138    -7.368271    241.66359   0.03005766  0.030407863            3 
  671000     1.177812   -7.3246398    241.30987  0.029968936  0.030402654            1 
  672000    1.1453653   -7.3535038    241.99406  0.030009184  0.030397305            1 
  673000    1.1198259   -7.3839851    241.40897  0.029892146  0.030391613            1 
  674000    1.1564484   -7.3263193    242.48741  0.029981133   0.03038568            2 
  675000     1.148754   -7.3513974    242.35095  0.029919871  0.030379837            1 
  676000     1.181813   -7.3616151    243.18649  0.029978611  0.030373906            2 
  677000    1.1375261   -7.3684547    242.78782  0.029885256  0.030367632            2 
  678000    1.1303954   -7.3340377     243.0484  0.029873205  0.030361267            2 
  679000    1.1780306   -7.3367171    243.08439  0.029833626  0.030354909            1 
  680000    1.1545057   -7.3322577    244.41195  0.029952444  0.030348578            4 
  681000    1.1102409   -7.3757259    243.48017   0.02979444  0.030342278            1 
  682000    1.1183655   -7.3580314    243.89109  0.029800965  0.030335545            2 
  683000    1.1521952   -7.3475121    244.74401  0.029861397  0.030328857            1 
  684000    1.1470042   -7.3722066    245.34729  0.029891239  0.030322622            2 
  685000    1.1241736   -7.3659932    244.05677  0.029690604  0.030316247            1 
  686000    1.1581755   -7.3780954    244.86571  0.029745592  0.030309319            2 
  687000    1.1287967    -7.358428    244.65274  0.029676461  0.030302387            1 
  688000    1.1409903   -7.3493421    245.78025  0.029769894  0.030295882            3 
  689000    1.1422297   -7.3550775    246.57474   0.02982278  0.030289492            1 
  690000    1.1189573    -7.365562    246.16521  0.029730098  0.030282801            1 
  691000     1.174747   -7.4219266    245.85748  0.029649961  0.030275933            1 
  692000    1.1593365   -7.3559392    247.03385  0.029748778   0.03026891            2 
  693000    1.1262468   -7.3649322    247.24193  0.029730872  0.030262283            2 
  694000    1.1328341   -7.3326764    248.03581  0.029783358  0.030256058            3 
  695000    1.1399356   -7.3328758    248.00878  0.029737264  0.030249455            1 
  696000    1.1419202   -7.3464314    247.90086  0.029681616  0.030242387            1 
  697000    1.1109919   -7.3455521    248.46221  0.029706147  0.030235256            2 
  698000    1.1437442   -7.3958817    248.50454  0.029668642  0.030228186            1 
  699000    1.1333103    -7.322494    249.63596  0.029761083  0.030221078            2 
  700000    1.1439245   -7.3038496    249.88346  0.029748031  0.030214409            2 
  701000     1.129512   -7.3737614    249.09461  0.029611817  0.030207373            1 
  702000     1.153792   -7.3514583    249.53023  0.029621348  0.030200243            2 
  703000    1.1536257   -7.3460885     250.2166  0.029660574  0.030192885            2 
  704000    1.1345632   -7.3616492    250.13149  0.029608367  0.030185415            5 
  705000    1.1663286   -7.3120296    251.32905  0.029707925  0.030177946            2 
  706000    1.1490543   -7.3493881    250.33972   0.02954907  0.030170615            3 
  707000    1.1161335   -7.3719842    250.62447  0.029540838  0.030163341            2 
  708000    1.1448281   -7.3703248     251.7902  0.029636323  0.030156108            1 
  709000     1.126708   -7.3593516    251.58844  0.029570809  0.030148488            1 
  710000    1.1323343   -7.3613102    251.63525  0.029534654  0.030141217            3 
  711000    1.1205671   -7.3561975    252.30359  0.029571448  0.030133666            2 
  712000    1.1285707   -7.3267969    252.12283  0.029508758  0.030125614            2 
  713000    1.1266095   -7.3787852     253.4079  0.029617567  0.030117858            1 
  714000    1.1481785   -7.3098217    253.78744  0.029620383   0.03011037            1 
  715000    1.1446391   -7.3907432     253.6483  0.029562739  0.030102492            1 
  716000    1.1219394    -7.331166    254.31655  0.029599226  0.030094779            1 
  717000    1.1011685   -7.3821697    252.99697  0.029404576  0.030086881       -1e+20 
  718000    1.1277524   -7.3670008    253.47973  0.029419653  0.030078762            1 
  719000    1.1275281   -7.3476569    253.35948  0.029364798  0.030070766            3 
  720000     1.109698   -7.4181169    253.89512  0.029386009  0.030062566            1 
  721000    1.1094652   -7.3967475    254.20863  0.029381488  0.030054233            2 
  722000    1.1020013   -7.3388083    254.98733   0.02943067  0.030046028            1 
  723000     1.131902   -7.3566398    255.14425  0.029408051  0.030037985            2 
  724000    1.1291085   -7.3328297     254.9046  0.029339847  0.030029886            2 
  725000    1.1305061    -7.365001    255.47819  0.029365309  0.030021996            1 
  726000    1.1697958   -7.3670275    256.45983  0.029437537  0.030014115            2 
  727000    1.1456774   -7.3581406     257.0134    0.0294605  0.030006236            1 
  728000    1.1431797   -7.3350749    256.20269  0.029327231  0.029998266            1 
  729000    1.1625922   -7.3415333    257.32277   0.02941504  0.029990401            4 
  730000    1.1410174   -7.3486937    256.80789  0.029315969  0.029982544            2 
  731000    1.1229416   -7.3676668    258.41976  0.029459617  0.029974716            2 
  732000    1.1430812   -7.3633676    258.08237  0.029380962  0.029967145            2 
  733000    1.1151154   -7.3624716    258.42205  0.029379497  0.029958964            2 
  734000    1.1383135   -7.3870623    258.18061  0.029312058  0.029950905            1 
  735000     1.107942   -7.3371993    258.19585  0.029273906  0.029942908            1 
  736000    1.1448413    -7.364571    258.81638   0.02930439   0.02993464            2 
  737000    1.1354184   -7.3637893    258.47989  0.029226582  0.029926491            3 
  738000    1.1272244   -7.3902097    258.56214  0.029196266  0.029917934            2 
  739000    1.1406209   -7.3886315    259.50225  0.029262771  0.029909618            4 
  740000    1.1179003   -7.3722234    259.46659   0.02921921  0.029901415            1 
  741000    1.1551234   -7.4276924    259.33797  0.029165314  0.029892725            2 
  742000    1.1362579   -7.3777122    260.64152  0.029272408  0.029884207            2 
  743000    1.1358616   -7.3841735    260.59879  0.029228218  0.029875502            2 
  744000    1.1155343   -7.3418732    260.92879  0.029225895  0.029866857            2 
  745000    1.1125497   -7.3497287    261.36771  0.029235762  0.029858163            1 
  746000    1.1448975   -7.3635089    261.94721  0.029261305  0.029849679            4 
  747000    1.1418665   -7.3707864    262.45555  0.029278843  0.029841416            1 
  748000    1.1203298   -7.4188737    261.99632  0.029188538  0.029833246            1 
  749000    1.1112858   -7.3625471    262.88976  0.029248972  0.029825013            1 
  750000    1.1461229   -7.3741294    263.16535  0.029240595  0.029817108            1 
  751000    1.1417767   -7.3821602    262.45159  0.029122458  0.029808569            2 
  752000    1.1371016   -7.3871821    263.85355   0.02923909  0.029800636            2 
  753000    1.1093124   -7.3976519    264.75574  0.029300104  0.029792923            4 
  754000     1.130054   -7.3529493    264.43293  0.029225567  0.029784991            2 
  755000    1.1278794   -7.3520648    264.84499  0.029232339  0.029777043            1 
  756000    1.1338647   -7.4116225     263.8318  0.029081988  0.029768893            3 
  757000    1.1319468   -7.3860987    263.70191  0.029029272  0.029760552            2 
  758000    1.1317217   -7.3710897    264.85778   0.02911805  0.029752028            4 
  759000    1.1228716   -7.3672377     265.2785  0.029125878  0.029743767            2 
  760000    1.1230677   -7.3666023    266.11423  0.029179192  0.029735691            2 
  761000    1.1184247   -7.3595491    265.67463   0.02909271  0.029727922            1 
  762000    1.1408384   -7.3717402    266.71257  0.029168041  0.029719795            2 
  763000    1.1305483   -7.3934335    266.68752  0.029127078  0.029711441            2 
  764000    1.1600672   -7.3987424    266.32222  0.029049107  0.029702953            1 
  765000    1.1453867   -7.3802219    267.06053  0.029091561  0.029694873            4 
  766000    1.1363691   -7.3647422     267.7755  0.029131364  0.029686629            2 
  767000    1.1598385   -7.3948332     267.6133  0.029075761  0.029678417            1 
  768000     1.138415   -7.3882704    267.09055  0.028981179    0.0296702            2 
  769000    1.1095105   -7.4143487    267.65949  0.029005147  0.029662093            1 
  770000    1.1037237   -7.3943175    268.23629  0.029029902  0.029653859            2 
  771000    1.1428111   -7.4117765    267.94771  0.028961058  0.029645679            3 
  772000     1.112659   -7.3711503    268.50863  0.028984093  0.029637462            2 
  773000    1.1316527   -7.3792232      269.389  0.029041505  0.029629012            2 
  774000    1.1283377   -7.3492081    269.80488   0.02904876  0.029621191            1 
  775000    1.1367147   -7.3435793    269.76396  0.029006877  0.029613159            1 
  776000     1.120513    -7.367302    270.37048   0.02903463  0.029604871            2 
  777000    1.1097175   -7.3801145    270.14201   0.02897276  0.029596665            1 
  778000     1.146289   -7.3840935    270.47766  0.028971471   0.02958842            2 
  779000    1.1280863   -7.3558781    271.36469  0.029029171  0.029579971            3 
  780000    1.1458673    -7.369841    271.33519  0.028988802  0.029571448            1 
  781000     1.139298   -7.3684764    270.85263  0.028900195  0.029562518            5 
  782000     1.136957   -7.3918005    271.18822  0.028899001  0.029553601            1 
  783000    1.1070153   -7.4201843    271.25051  0.028868722  0.029544759            1 
  784000    1.1239974   -7.3399436    273.12951  0.029031623  0.029536183            1 
  785000    1.1634105   -7.4010013    272.12782  0.028888304  0.029527483            1 
  786000    1.0977957   -7.3928822    271.09316  0.028741853  0.029518778            1 
  787000    1.1304563   -7.3789202    272.65262  0.028870459  0.029510082            3 
  788000    1.1349373   -7.4111703     273.1192  0.028883164  0.029501539            1 
  789000    1.1460355   -7.4044374    272.14403  0.028743561  0.029492786            2 
  790000    1.0976231   -7.4128231     273.1714  0.028815549  0.029483751            1 
  791000    1.1017068   -7.3936929    273.77264  0.028842462  0.029474855            1 
  792000    1.1249921   -7.3778951    274.02436  0.028832529  0.029465962            1 
  793000    1.1299801   -7.4045672    273.72997  0.028765235  0.029456975            2 
  794000    1.1353136   -7.3896839    274.08534  0.028766303  0.029447901            1 
  795000    1.1400476   -7.3908321    275.62039  0.028891026  0.029439144            1 
  796000    1.1115868    -7.392206    275.92675  0.028886804  0.029430839            3 
  797000    1.1196949   -7.3750856    276.75054  0.028936694  0.029422805            1 
  798000    1.1139504   -7.3938992    276.17609  0.028840444  0.029414643            3 
  799000    1.1033023   -7.3752878    277.10496  0.028901227  0.029406292            2 
  800000    1.1157838   -7.3926898    276.65585  0.028818318  0.029398366            2 
  801000    1.1090067   -7.4194884    277.16552  0.028835364  0.029390244            1 
  802000    1.1106359   -7.3710079    277.98707  0.028884774  0.029382269            3 
  803000    1.1440331   -7.3852071    279.67411   0.02902388  0.029374725            1 
  804000    1.1334741   -7.4232719    278.16301  0.028831157  0.029367014            1 
  805000    1.1302866   -7.3854564    279.12765  0.028895202  0.029359719            1 
  806000    1.1414705   -7.3648497    279.95138  0.028944518  0.029352294            3 
  807000    1.1244349   -7.3990815    280.00297  0.028913979  0.029344719            3 
  808000    1.1385199   -7.4189323    279.29136  0.028804802  0.029337023            1 
  809000    1.1076497   -7.3988983    279.71142  0.028812466  0.029329287            1 
  810000    1.1327221   -7.3782938    279.95113  0.028801556  0.029321679            1 
  811000    1.1140875   -7.3910174    279.59378  0.028729324  0.029313975            1 
  812000    1.1421883   -7.3915124    280.77997  0.028815678  0.029306179            1 
  813000    1.1328673   -7.3915404    280.92206  0.028794799  0.029298209            1 
  814000    1.1334408   -7.3929817    280.74157  0.028740947  0.029290113            1 
  815000    1.1189042   -7.4019283    281.70553  0.028804247  0.029282138            1 
  816000    1.1323934    -7.384629    282.13636  0.028812945  0.029273957            1 
  817000    1.1119905    -7.395706    281.30387  0.028692765   0.02926592            3 
  818000    1.1197187   -7.4343852    281.55586   0.02868336  0.029257831            4 
  819000     1.109418    -7.416553    282.20182  0.028714064  0.029249872            1 
  820000    1.1233747   -7.4015437    282.70482  0.028730164  0.029241751            2 
  821000    1.1140549   -7.4245298     283.1036  0.028735648  0.029233722            4 
  822000    1.1011953   -7.4274553    282.52199  0.028641727  0.029225382            1 
  823000    1.1230029   -7.4110502    282.20749   0.02857508  0.029216729            2 
  824000    1.1519983   -7.4226364    282.86584  0.028606982  0.029208444            2 
  825000    1.1268469   -7.4165283    283.71089  0.028657665  0.029200304            1 
  826000    1.1183361   -7.3702655    284.04228  0.028656405  0.029191981            2 
  827000    1.1240996   -7.3948747    283.96766  0.028614234  0.029183827            1 
  828000    1.1105865   -7.3933659     284.0065  0.028583585  0.029175791            5 
  829000    1.1354637   -7.4265547     283.9234  0.028540752  0.029167141            4 
  830000    1.1184817   -7.4213157    284.94791  0.028609227  0.029158517            1 
  831000    1.1191666   -7.4271868    285.09862  0.028589914  0.029150158            1 
  832000     1.131078   -7.4008038    285.29438  0.028575158  0.029141885            1 
  833000    1.0999977   -7.3857304    286.04442  0.028615889  0.029133827            1 
  834000    1.1281173    -7.389698     286.3851  0.028615617  0.029125514            2 
  835000    1.1050235   -7.3907798    285.71951  0.028514921  0.029117064            1 
  836000    1.0963929   -7.4109283    286.63579  0.028572148  0.029108863            4 
  837000    1.1087655   -7.3978084    286.93625  0.028567926   0.02910065            2 
  838000    1.0919418   -7.4052909    287.19179  0.028559247  0.029092578            2 
  839000    1.1038504   -7.4033565    288.01944  0.028607414  0.029084579            2 
  840000     1.111612   -7.4049092    287.97344  0.028568793  0.029076904            3 
  841000    1.1062429   -7.3540761    289.27431  0.028663725  0.029069272            2 
  842000     1.086687   -7.4375967    288.12192   0.02851563  0.029061407            2 
  843000    1.1276094   -7.4428622    288.02988  0.028472704  0.029053413            2 
  844000    1.1157043   -7.4025584    288.79792  0.028514802  0.029045446            3 
  845000    1.1237948   -7.3910584    289.34424  0.028534935  0.029037379            1 
  846000    1.1003009   -7.4236464    288.87414    0.0284549  0.029029271            4 
  847000    1.1317437   -7.4271609    288.61687  0.028395993  0.029020947            2 
  848000     1.119083    -7.466946    288.10566   0.02831227  0.029012462            4 
  849000    1.1202366   -7.4590203    289.01104   0.02836779  0.029003964            3 
  850000    1.1295397   -7.3799071    290.88214  0.028517857  0.028995951            2 
  851000    1.1024593    -7.447698    290.00579   0.02839853   0.02898806            2 
  852000    1.1411805   -7.4874004    290.35506  0.028399361  0.028979794            3 
  853000    1.1307733   -7.4065172    290.29951   0.02836064  0.028971481            1 
  854000    1.1483329   -7.4323911    291.05609  0.028401257  0.028963373            1 
  855000    1.1238122   -7.4473015    290.67772  0.028331161  0.028954731            4 
  856000      1.12946   -7.4319313    291.95873  0.028422774    0.0289463            3 
  857000    1.0871304   -7.4245125    291.66111  0.028360668  0.028937908            2 
  858000    1.1020676   -7.4034516    292.85115  0.028443196  0.028929507            3 
  859000    1.1177763   -7.3964604    292.02799  0.028330228    0.0289211            4 
  860000    1.0989616   -7.4256056    293.27913   0.02841852  0.028912819            1 
  861000    1.1084164   -7.3962966    293.30677  0.028388189  0.028904414            4 
  862000    1.1137416   -7.4407166     293.4374  0.028367884  0.028896493            2 
  863000    1.1086628   -7.3993769    294.44172  0.028431993  0.028888509            1 
  864000    1.0886245   -7.4153928    294.92548  0.028445744  0.028880823            1 
  865000     1.120532   -7.3929888    294.58026  0.028379601  0.028873096            1 
  866000     1.119109   -7.4250619    295.23651   0.02840998   0.02886538            1 
  867000    1.1239273   -7.3934679    296.18309  0.028468194  0.028857961            1 
  868000    1.0986116   -7.4443603    295.71963  0.028390901   0.02885046            2 
  869000    1.1125428   -7.4654164    296.91579  0.028472938   0.02884284            2 
  870000    1.1425396   -7.4406208    295.92137  0.028344959  0.028835292            2 
  871000    1.1192164   -7.4037289     296.8699  0.028403167  0.028827321            4 
  872000    1.1143599   -7.4444253    296.65655  0.028350205   0.02881964            2 
  873000    1.1175363   -7.3982724    298.58617  0.028501926  0.028812218            1 
  874000    1.0925971   -7.4200609     298.2513  0.028437386  0.028804827            1 
  875000    1.1083591   -7.4620166    297.48277  0.028331692  0.028797377            2 
  876000    1.1279912   -7.4061294    298.63189  0.028408665  0.028790044            3 
  877000    1.0974973   -7.4121854    298.23433  0.028338496  0.028782413            2 
  878000    1.1297393   -7.4087634    298.73965  0.028354181  0.028774761            2 
  879000    1.1087174   -7.4419528    298.93963  0.028340883  0.028766857            1 
  880000    1.1370251   -7.3969267    298.87724  0.028302769   0.02875898            1 
  881000    1.0982837   -7.4051828    300.48377  0.028422604  0.028751541            1 
  882000    1.1220521   -7.4366058    299.65409  0.028311989  0.028743975            1 
  883000    1.1309187   -7.3888863    300.76489  0.028384758  0.028736553            2 
  884000    1.1339196   -7.4344295    300.25334  0.028304425  0.028728934            7 
  885000    1.1321724   -7.4296106    300.34902  0.028281452  0.028721312            3 
  886000    1.1088407   -7.4655704    299.82975  0.028200691  0.028713628            1 
  887000    1.1054008   -7.4296811    300.38849  0.028221391  0.028706158            2 
  888000    1.0879495   -7.4551011    301.36736  0.028281471    0.0286986            3 
  889000    1.1255622   -7.4451634    301.37903  0.028250753  0.028690751            2 
  890000    1.1085132   -7.4543425    301.22945  0.028205005  0.028682732            1 
  891000    1.1409033   -7.4447963    301.07656   0.02815905  0.028674772            2 
  892000    1.1255179   -7.4774687     301.8135  0.028196328  0.028666776            1 
  893000    1.1109646   -7.4286902    301.86013  0.028169105  0.028658646            3 
  894000    1.1220686   -7.4346959    302.75453  0.028220967  0.028650772            1 
  895000    1.0989744   -7.4186847    302.82793  0.028196269  0.028642694            2 
  896000    1.1195931   -7.4656241    302.42081  0.028126935  0.028634923            1 
  897000     1.104562   -7.4291436    303.66103  0.028210798  0.028627344            1 
  898000    1.1078999   -7.4083572    304.20999  0.028230326  0.028619655            1 
  899000    1.0916607    -7.396768    304.55001  0.028230442  0.028612009            2 
  900000    1.1086999   -7.4364707    303.58011   0.02810927    0.0286045            2 
  901000    1.0755611   -7.4303599     305.0948  0.028218165  0.028597068            2 
  902000     1.103691   -7.4496029    304.19425  0.028103682   0.02858922            3 
  903000    1.0838591   -7.4182433    304.92894   0.02814036  0.028581389            2 
  904000    1.1339688   -7.4073008    305.57426  0.028168719  0.028573732            2 
  905000    1.0928157   -7.4089059    306.41426  0.028214941  0.028566124            3 
  906000    1.1067001   -7.4118573    307.00148  0.028237811  0.028558793            1 
  907000    1.0893035    -7.454371    306.72427  0.028181208  0.028551767            1 
  908000    1.0935245    -7.441245    306.68789  0.028146833  0.028544531            2 
  909000    1.1410627   -7.3898885    307.50645   0.02819091   0.02853717            2 
  910000    1.0788395   -7.4080131    307.23761  0.028135313  0.028529832            2 
  911000    1.1045284     -7.43881     308.6105  0.028230013  0.028522379            2 
  912000    1.0989301   -7.4446064    308.43389  0.028182922  0.028515124            1 
  913000    1.1035793   -7.4734585    308.34183   0.02814365  0.028507898            1 
  914000    1.1133406   -7.4503599    308.87571  0.028161534  0.028500676            4 
  915000    1.0980308   -7.4450725    308.97088  0.028139424  0.028493286            1 
  916000    1.0867237   -7.4049337    309.12982  0.028123164  0.028485936            1 
  917000    1.1145568     -7.42197     309.4711   0.02812351  0.028478546            2 
  918000    1.1164253   -7.4516703    310.47414  0.028183927  0.028471469            1 
  919000    1.1345028   -7.4727254    309.78022  0.028090335  0.028464478            1 
  920000    1.0861136   -7.4516121    310.51978  0.028126791  0.028457275            1 
  921000    1.1206831   -7.4731424    310.70213  0.028112751  0.028450028            2 
  922000    1.1186359   -7.4702015     311.6798  0.028170625  0.028443024            6 
  923000     1.098642   -7.4600903    311.79684  0.028150672  0.028436362            3 
  924000    1.0905192   -7.4326436    311.18591  0.028065108  0.028429252            1 
  925000    1.0985802   -7.4366918    311.86294   0.02809576  0.028422215            1 
  926000    1.1051179   -7.4592414    311.17988  0.028003949   0.02841472            4 
  927000    1.1034007   -7.4365132    312.80819  0.028120118  0.028407287            3 
  928000    1.1247328   -7.4624425    310.66018  0.027896927  0.028399782            1 
  929000    1.1005565   -7.4471527    312.78037  0.028057084  0.028392193            1 
  930000    1.1427562   -7.4491902    313.30039  0.028073512  0.028384754            1 
  931000    1.1097636   -7.4526451    312.59774  0.027980463  0.028377228            2 
  932000    1.0949297   -7.4805412    312.01031  0.027897917    0.0283697            1 
  933000    1.1175593   -7.4221693    313.59058  0.028009162  0.028361974            3 
  934000    1.1007015   -7.4082035    312.41633  0.027874405  0.028354325            3 
  935000    1.1103869    -7.444266    313.72045  0.027960825  0.028346898            1 
  936000    1.1064605   -7.4316112    314.60608    0.0280098  0.028339573            1 
  937000    1.0928345   -7.4283233    314.34331  0.027956538  0.028332163            2 
  938000    1.1044265   -7.4515388    314.21735  0.027915543  0.028324787            1 
  939000    1.0939012   -7.4363397    314.64319  0.027923605  0.028317468            2 
  940000    1.1051567   -7.4179621    316.22631  0.028034247  0.028309921            3 
  941000    1.0716659   -7.4615978    315.30475  0.027922844  0.028302465            2 
  942000    1.0984519   -7.5037841    315.79519  0.027936588  0.028294931            1 
  943000    1.0941118   -7.4704708    315.37842  0.027870132  0.028287466            3 
  944000    1.0803267   -7.4317625    316.22583  0.027915416  0.028279807            3 
  945000    1.1216206   -7.4518696    316.70804  0.027928398  0.028272208            2 
  946000    1.1199732   -7.4448158    315.79437  0.027818391  0.028264711       -1e+20 
  947000    1.1166564   -7.4330117    316.21843  0.027826332   0.02825734            2 
  948000    1.0889223   -7.4625432    316.61116  0.027831502  0.028249757            1 
  949000    1.1311305   -7.4490568     318.2953  0.027950061   0.02824236            1 
  950000    1.0972736   -7.4226251    318.51048  0.027939516  0.028235011            2 
  951000    1.0962317   -7.4425801    317.28734  0.027802957   0.02822773            1 
  952000    1.1041203   -7.4762479    317.08188  0.027755767  0.028220217            3 
  953000    1.1023953   -7.4157199    318.52921  0.027853201   0.02821277            3 
  954000    1.1064037    -7.427026    319.78548  0.027933742  0.028205347            2 
  955000    1.0919879   -7.4755883    319.42939   0.02787342  0.028198181            1 
  956000    1.0929673   -7.4250953    318.75317  0.027785318  0.028190728            2 
  957000    1.1196386   -7.5013208    319.32044  0.027805681  0.028183435            4 
  958000    1.0943036   -7.4724993    319.59081  0.027800175  0.028175931            4 
  959000    1.1033715    -7.492361    320.57811  0.027856979  0.028168448            2 
  960000    1.0692418   -7.4476112     320.8689  0.027853203  0.028161104            1 
  961000     1.116736   -7.4999427    320.06273  0.027754312  0.028153961            4 
  962000     1.078024   -7.4940012    321.95999  0.027889812  0.028146655            1 
  963000    1.0856892   -7.4709257    321.43752  0.027815639   0.02813951            1 
  964000    1.1113982   -7.4219441    322.66992  0.027893319  0.028132298            2 
  965000    1.0654501    -7.438487    322.07466   0.02781301  0.028125401            1 
  966000    1.1015795   -7.4732124    321.48637  0.027733468  0.028118194            2 
  967000    1.0893146   -7.4915952    322.08616  0.027756477    0.0281109            1 
  968000    1.0912019   -7.4900629    322.57981  0.027770301  0.028103631            5 
  969000    1.0902479   -7.4784498    322.59294  0.027742771  0.028096174            3 
  970000    1.1160745   -7.4553649    322.39096  0.027696818  0.028088865            3 
  971000    1.1160091   -7.4560912    322.55783  0.027682615  0.028081544            2 
  972000    1.0816987   -7.4734935     323.2499  0.027713468  0.028074014            2 
  973000     1.076307   -7.4705767    323.92227  0.027742572  0.028066491            1 
  974000    1.0807891   -7.4294004    324.51267  0.027764602  0.028059175            1 
  975000    1.1093489   -7.4670792    323.87269  0.027681427  0.028051672            1 
  976000    1.1071494   -7.4888139    323.67983  0.027636598   0.02804415            2 
  977000    1.1097242   -7.4858946    323.94359  0.027630808  0.028036479            2 
  978000    1.1044781   -7.4669239    324.57058   0.02765598  0.028028936            3 
  979000    1.0952052    -7.423081    326.01498  0.027750679  0.028021467            1 
  980000    1.0824516   -7.4600572    325.12688  0.027646843  0.028013945            3 
  981000    1.0937911   -7.4730112    325.37556  0.027639786  0.028006559            2 
  982000    1.0972643   -7.4806406    325.83687  0.027650787  0.027998759            1 
  983000    1.0966259   -7.5297219    324.12903  0.027477877   0.02799067            1 
  984000    1.0865769   -7.4590877    325.35571  0.027553837  0.027982793            1 
  985000    1.0895029   -7.4609287    325.49737  0.027537848  0.027974872            2 
  986000    1.0971322   -7.4866661    325.88464  0.027542651  0.027967062            1 
  987000    1.0947423   -7.4227087    326.98847  0.027607943  0.027959223            2 
  988000     1.103645   -7.4978282    324.91176  0.027404838  0.027951271            2 
  989000    1.0951093   -7.5065703     325.2234  0.027403388  0.027943387            1 
  990000    1.0806061   -7.4520804    327.07468  0.027531539  0.027935408            5 
  991000    1.0592489   -7.4506209    327.34551  0.027526531  0.027927675            5 
  992000    1.0639162   -7.4648653    327.11894  0.027479749  0.027919951            3 
  993000    1.0994285   -7.4805455      327.755  0.027505455  0.027912162            2 
  994000    1.1242148   -7.4756074     328.4242  0.027533886  0.027904492            2 
  995000    1.0898192   -7.4802341    327.73296  0.027448322  0.027896867            1 
  996000    1.0819167     -7.47958    328.76389  0.027507019  0.027889307            2 
  997000    1.0918649   -7.4606533    328.82601  0.027484621  0.027881833            5 
  998000    1.0950889   -7.4617702    329.67324  0.027527825  0.027874338            2 
  999000    1.0907958   -7.4475136    330.25681   0.02754895  0.027866948            1 
 1000000    1.1283048   -7.4729582    329.78386  0.027481988  0.027859322            4 
 1001000    1.0594392   -7.4721702    330.26821  0.027494856  0.027851752            1 
 1002000    1.0869075   -7.4806729    330.19271  0.027461137   0.02784417            1 
 1003000    1.0936357    -7.487435    330.71222  0.027476921  0.027836637            3 
 1004000    1.0696604    -7.461156    330.88326   0.02746375  0.027829183            3 
 1005000     1.083906   -7.4369732    331.32695  0.027473213  0.027821816            1 
 1006000    1.1120454   -7.4759288    331.68139  0.027475264  0.027814422            4 
 1007000     1.105557   -7.4686049    332.42589  0.027509591  0.027807173            2 
 1008000    1.1071079   -7.4785397    332.18849  0.027462673  0.027799906            1 
 1009000    1.0870158   -7.4469331    333.97287  0.027582827  0.027792637            2 
 1010000    1.0926446   -7.4829949    332.11949  0.027402598  0.027785371            2 
 1011000    1.1107671   -7.4594984    334.02557  0.027532605  0.027778171            1 
 1012000    1.0560543   -7.4443916    334.06615  0.027508741  0.027770921            2 
 1013000    1.1076085   -7.4507163     333.7684  0.027457091  0.027763751            1 
 1014000    1.0922139   -7.4804649    333.21331  0.027384394  0.027756436            3 
 1015000    1.0726113   -7.4976154    333.78574  0.027404412  0.027749196            1 
 1016000    1.0777775   -7.4667105    334.42152  0.027429587  0.027741984            2 
 1017000    1.1035042    -7.488812    334.17272  0.027382229  0.027734605            2 
 1018000    1.0921831   -7.4830055    334.19102  0.027356829  0.027727155            2 
 1019000    1.0684551   -7.4541384    335.31338  0.027421768  0.027719771            2 
 1020000    1.1004148   -7.4772024    335.16651  0.027382884  0.027712289            1 
 1021000    1.0841109   -7.4929238    334.29196  0.027284685   0.02770478            1 
 1022000     1.083075   -7.5065163    334.80742  0.027300018  0.027696995            3 
 1023000    1.0760346   -7.4932555    335.51058  0.027330611    0.0276894            1 
 1024000    1.0788341    -7.468824    335.54828  0.027306989  0.027681679            1 
 1025000    1.0876791   -7.4896485    335.06819  0.027241316  0.027674026            1 
 1026000    1.0695269   -7.4814415    336.16994  0.027304251   0.02766646            1 
 1027000    1.0680563   -7.4808966    336.62935  0.027314943  0.027658818            3 
 1028000    1.0797513   -7.4801897    336.26725  0.027259018  0.027651082            3 
 1029000    1.0634992     -7.47818    336.37874  0.027241556  0.027643348            2 
 1030000    1.0954347   -7.4828958    336.13525  0.027195409  0.027635669            1 
 1031000    1.0974268   -7.4714157    337.22033  0.027256736  0.027628015            1 
 1032000    1.0793055   -7.4655862    337.40201  0.027244995  0.027620297            1 
 1033000    1.0990358    -7.491205    337.90336  0.027259064  0.027612676            3 
 1034000    1.0912605   -7.4588053    339.50658   0.02736191  0.027605271            4 
 1035000    1.0908258   -7.5234352    337.36518  0.027163058  0.027597753            2 
 1036000    1.0820459   -7.4906948    338.82803  0.027254507  0.027590399            3 
 1037000    1.0892097   -7.5064134    338.98614   0.02724093  0.027582925            1 
 1038000    1.0893072   -7.5386381    338.69112  0.027191002   0.02757545            3 
 1039000    1.0780931   -7.5303526    339.34173  0.027217014  0.027567861            3 
 1040000    1.0724017   -7.4752517    339.95823  0.027240243  0.027560319            2 
 1041000    1.0651164   -7.4631391    339.57286  0.027183226  0.027552969            1 
 1042000    1.0968566   -7.4805066    340.01584  0.027192566  0.027545707            1 
 1043000    1.0612045   -7.5088082    339.95954  0.027161996  0.027538327            1 
 1044000    1.0708895   -7.4805924    340.89342  0.027210522  0.027530915            2 
 1045000    1.0832876   -7.5320674    339.60843  0.027082012  0.027523367            3 
 1046000    1.0868002   -7.5162527    341.46152  0.027203754  0.027515933            1 
 1047000    1.0829056   -7.4653196    341.38904  0.027172003  0.027508617            2 
 1048000    1.1073352   -7.5184464    341.96461  0.027191843   0.02750111            2 
 1049000    1.1030914   -7.5153464    341.15852  0.027101884  0.027493815            2 
 1050000    1.0595843   -7.4915211    342.94918  0.027218189  0.027486533            2 
 1051000    1.0819887   -7.4911002     341.5324  0.027079956  0.027479131            2 
 1052000    1.0860464   -7.4992982    342.28032   0.02711346  0.027471406            5 
 1053000    1.0993514   -7.5047085    342.96716  0.027142067  0.027463621            2 
 1054000    1.0746324   -7.4661294    341.79176  0.027023384  0.027455639            1 
 1055000    1.0966975   -7.4948003    341.86959  0.027003917  0.027447618            1 
 1056000    1.0774409   -7.5093901    342.67804  0.027042143  0.027439704            5 
 1057000    1.1042578   -7.4919716    344.21251  0.027137536  0.027431918            2 
 1058000    1.0921729   -7.4532232    343.73194  0.027074035  0.027424221            7 
 1059000    1.0933196   -7.4950245    342.70937  0.026968002  0.027416221            4 
 1060000    1.0798059   -7.5084877    342.69783  0.026941653  0.027408232            1 
 1061000    1.0833906    -7.456168    343.88435  0.027009452  0.027400224            3 
 1062000    1.1011261   -7.5297677     344.6429  0.027043542  0.027392509            1 
 1063000    1.0605868   -7.5010817    345.05005   0.02705002  0.027384704            2 
 1064000    1.0631867   -7.4941168    345.76803  0.027080829  0.027377167            4 
 1065000    1.0689088   -7.4523919    346.35429  0.027101274  0.027369808            1 
 1066000    1.0738423   -7.5427614    346.48563  0.027086119  0.027362308            1 
 1067000    1.0940517   -7.4927319    345.57608  0.026989697  0.027355092            3 
 1068000    1.0951658     -7.46951     347.6762  0.027128293  0.027347921            2 
 1069000    1.0922342    -7.517563    346.88684  0.027041381  0.027340559            1 
 1070000    1.0536182   -7.4880318    346.85833  0.027013889  0.027333071            1 
 1071000    1.0844436   -7.5190168    348.65424  0.027128403  0.027325673            1 
 1072000    1.0690621   -7.5182044    347.63629  0.027023965  0.027318058            1 
 1073000     1.115888   -7.5188135    347.42632  0.026982473  0.027310886            1 
 1074000    1.0824347   -7.5136904    347.56742  0.026968298  0.027303283            1 
 1075000    1.1025824    -7.545281    347.42962  0.026932528  0.027295667            2 
 1076000     1.087884    -7.486268    347.85473  0.026940422   0.02728779            1 
 1077000    1.0484598   -7.5225522    348.04137  0.026929849  0.027280004            2 
 1078000    1.0994333   -7.5122638    348.94872  0.026975009  0.027272368            4 
 1079000    1.0632488   -7.5328929    348.34602  0.026903462  0.027264977            1 
 1080000    1.1047877   -7.5260308    348.88226  0.026919927  0.027257213            1 
 1081000    1.0908487   -7.4856649    349.43309  0.026937487  0.027249703            3 
 1082000    1.0736047    -7.488944    350.25717   0.02697606  0.027242387            1 
 1083000    1.0821368    -7.535713    349.56373  0.026897794  0.027234966            2 
 1084000    1.0865039   -7.4962501    349.94434   0.02690224  0.027227664            2 
 1085000    1.0775584   -7.5134138    350.35589  0.026909055  0.027220185            3 
 1086000    1.0893214   -7.4931311    351.05905  0.026938233  0.027212822            4 
 1087000    1.0575286   -7.5078205    350.23236  0.026850074  0.027205486            2 
 1088000    1.0900236   -7.5393463    350.38109  0.026836787  0.027197988            3 
 1089000     1.068402   -7.5104475    352.22068  0.026952914  0.027190633            2 
 1090000    1.0741898   -7.4998629    351.06834  0.026840087  0.027183447            1 
 1091000      1.06951   -7.4833735    352.79815  0.026947613  0.027176198            1 
 1092000    1.0860487   -7.4881449    353.35055  0.026965091  0.027169028            2 
 1093000    1.0728148   -7.5081349    354.15071  0.027001426  0.027161899            2 
 1094000    1.0654604   -7.4813233    352.83765  0.026876725  0.027154917            2 
 1095000     1.084251   -7.4847667    354.33227  0.026965926  0.027148025            2 
 1096000    1.0825397   -7.4865482    354.07732  0.026921937  0.027141069            2 
 1097000    1.0605422   -7.4960212    354.92424  0.026961732  0.027133985            1 
 1098000    1.0648303   -7.5212211    354.58794  0.026911653   0.02712695            1 
 1099000    1.1127652   -7.5414926    353.46955  0.026802362  0.027119947            3 
 1100000    1.0850338    -7.566341    354.28817  0.026840013  0.027112941            3 
 1101000    1.0943175   -7.5129438    355.23778   0.02688751  0.027106006            1 
 1102000    1.0787923   -7.5232607    355.53237  0.026885388  0.027099068            3 
 1103000    1.0844959   -7.5009135    355.58513  0.026864999   0.02709205            2 
 1104000     1.067741   -7.5146257    356.17909  0.026885499   0.02708512            1 
 1105000    1.0673686   -7.5068848    356.92748  0.026917607  0.027078405            1 
 1106000    1.0875771   -7.5025079    356.49853   0.02686095  0.027071528            2 
 1107000    1.0874987   -7.5246952    356.02311  0.026800896  0.027064602            4 
 1108000    1.0744776   -7.5062154    356.92934  0.026844866  0.027057662            2 
 1109000    1.0693892   -7.5303104    357.45683  0.026860297   0.02705079            1 
 1110000    1.0895486   -7.5230783    358.03214   0.02687929  0.027043824            1 
 1111000    1.0656051   -7.5147973    357.52349  0.026816944  0.027037098            1 
 1112000    1.0469456   -7.5535242    357.64787  0.026802149   0.02703037            4 
 1113000      1.08897   -7.5210078    358.91687  0.026873081  0.027023602            2 
 1114000    1.0722329   -7.5506688    358.03471  0.026782967  0.027016735            1 
 1115000    1.0750517   -7.4794655    360.29307  0.026927733   0.02701007            1 
 1116000    1.0705452   -7.4885856    359.51248  0.026845317  0.027003312            1 
 1117000    1.1001365   -7.5350554    358.76901  0.026765817  0.026996431            2 
 1118000    1.0784508   -7.5729734    358.43339   0.02671686   0.02698941            3 
 1119000    1.0475425   -7.5542328    359.66748  0.026784888  0.026982485            1 
 1120000    1.0834194   -7.4978981    360.86576  0.026850131  0.026975661            2 
 1121000    1.0553038   -7.5299548    359.74836  0.026743113  0.026968822            2 
 1122000    1.0868614   -7.5209415    359.77016  0.026720897  0.026961936            4 
 1123000    1.1005431   -7.5317692    359.95688  0.026710959  0.026955069            3 
 1124000    1.0509228   -7.5562527    361.08268  0.026770661  0.026948202            1 
 1125000    1.0663153   -7.5107213    360.59019  0.026710384  0.026941291            2 
 1126000    1.0751536   -7.5218041    361.52193   0.02675562   0.02693451            1 
 1127000    1.0769472   -7.5243404    361.77536  0.026750618  0.026927697            2 
 1128000     1.074853   -7.5149786    361.83042  0.026730971  0.026920726            2 
 1129000    1.0906938   -7.5001695    362.68876   0.02677065  0.026913915            2 
 1130000    1.0719763   -7.5131573    362.28661  0.026717302  0.026907087            1 
 1131000    1.0775237    -7.571015    361.02631  0.026600819  0.026900235            1 
 1132000    1.0505048   -7.5037158    362.66167  0.026697708  0.026893311            1 
 1133000    1.0773728   -7.5312813     362.4944  0.026661841  0.026886633            4 
 1134000    1.0547933   -7.5318676    364.37122  0.026776251  0.026879937            1 
 1135000    1.1048208    -7.534007     363.8671  0.026715646  0.026873357            1 
 1136000    1.0733752   -7.5595962    363.23911  0.026646061  0.026866686            1 
 1137000    1.0695916   -7.4869569    364.44303  0.026710864  0.026859918            2 
 1138000    1.0770721   -7.4850034    365.88365  0.026792886  0.026853252            1 
 1139000    1.0763865    -7.561813    364.39658  0.026660563  0.026846645            3 
 1140000    1.0864965   -7.5422916    364.93839  0.026676783  0.026839934            1 
 1141000     1.057771   -7.5057808    365.25841  0.026676776  0.026833284            1 
 1142000    1.0534932   -7.5270133    365.71366  0.026686636  0.026826473            2 
 1143000    1.0760497   -7.5504374    366.10094  0.026691523  0.026819651            3 
 1144000    1.0856067   -7.5317379    365.14858  0.026598818  0.026812798            2 
 1145000    1.0526698   -7.5506662    365.76329  0.026620327  0.026806105            3 
 1146000     1.064143   -7.4839724     367.5522  0.026727182  0.026799551            1 
 1147000    1.0873217   -7.5342199    366.96975  0.026661563  0.026792929            2 
 1148000    1.0614032   -7.5161285    367.69958  0.026691317  0.026786236            1 
 1149000    1.0688071   -7.5307997    367.72014  0.026669578  0.026779439            1 
 1150000    1.0644778   -7.5246581    367.41954  0.026624604  0.026772738            3 
 1151000    1.0769077   -7.5629389    367.26684  0.026590417  0.026766022            2 
 1152000    1.0492862   -7.5513274    367.08419  0.026554122  0.026759179            2 
 1153000      1.06356   -7.5371525     367.9501  0.026593676  0.026752299            2 
 1154000    1.0585617   -7.5344253    367.32939  0.026525808  0.026745619            2 
 1155000     1.065831   -7.5414254    368.14161  0.026561444  0.026738842            2 
 1156000    1.0639412   -7.5059275     369.1455  0.026610835  0.026732042            1 
 1157000    1.0644569   -7.5577752    368.28073  0.026525549   0.02672501            2 
 1158000    1.0782783    -7.503872    368.63318  0.026528007  0.026718128            1 
 1159000    1.0702494   -7.5082888    368.76139  0.026514336  0.026711357            2 
 1160000    1.0639228   -7.4800426    369.35017  0.026533776  0.026704391            2 
 1161000    1.0550833   -7.5627035    368.78931  0.026470665  0.026697368            3 
 1162000    1.0635234   -7.5465455    369.64589  0.026509315  0.026690163            2 
 1163000    1.0737842   -7.5539373    369.00788  0.026440805  0.026683017            1 
 1164000    1.0801725   -7.5471944    370.60551  0.026532468  0.026676017            2 
 1165000    1.0587853   -7.5151075    371.02766  0.026539889  0.026669289            2 
 1166000    1.0658192   -7.5089267    370.66757  0.026491393   0.02666263            2 
 1167000    1.0670261   -7.5163397    369.71075  0.026400368  0.026655725            1 
 1168000    1.0539977   -7.5047134    370.95276  0.026466379    0.0266487            1 
 1169000    1.0813329   -7.5615829    370.35359  0.026401026  0.026641689            1 
 1170000    1.0756197   -7.5383523    371.13947  0.026434435  0.026634709            1 
 1171000    1.0806026   -7.5410207    371.18941  0.026415415  0.026627702            1 
 1172000    1.0671168   -7.5519884    371.51511  0.026416034  0.026620695            2 
 1173000    1.0556301   -7.5408164    371.74365   0.02640975  0.026613749            3 
 1174000    1.0906079   -7.5053514    371.70597   0.02638458  0.026606755            1 
 1175000    1.0368983   -7.5252422    372.61719  0.026426751  0.026599766            2 
 1176000     1.064744   -7.5308834    373.51263  0.026467732  0.026592861            2 
 1177000    1.0635074   -7.5334588    373.03186  0.026411205  0.026586153            4 
 1178000    1.0768693   -7.5371767    373.84307  0.026446171   0.02657953            1 
 1179000    1.0707446   -7.5573139    372.95201  0.026360759   0.02657294            1 
 1180000    1.0490191   -7.5405592    374.80445  0.026469241  0.026566201            1 
 1181000    1.0848688   -7.5295756    374.29166  0.026410645  0.026559521            2 
 1182000    1.0553901   -7.5444571    373.46356  0.026329919  0.026552814            3 
 1183000    1.0573315   -7.5532649    374.06072  0.026349727  0.026545925            1 
 1184000    1.0573385   -7.5433132    375.45738  0.026425772  0.026538969            2 
 1185000     1.079207   -7.5045662    375.74836  0.026423936  0.026532122            3 
 1186000    1.0625268    -7.512219    375.83359  0.026407644  0.026525408            1 
 1187000    1.0612911   -7.5741868    375.62803  0.026370965  0.026518677            6 
 1188000    1.0351733   -7.5371934    375.20493  0.026319088  0.026511891            1 
 1189000    1.0453835   -7.5561483    375.66072  0.026328898  0.026505018            4 
 1190000    1.0591873   -7.5127951    375.91569  0.026324628  0.026498129            2 
 1191000    1.0694019   -7.5305598    375.46078  0.026270695  0.026491244            1 
 1192000    1.0498569   -7.5404092    376.99466  0.026355891   0.02648449            2 
 1193000    1.0772052   -7.5389313    376.82755  0.026322126  0.026477638            2 
 1194000       1.0622   -7.5217467    376.98413  0.026311008    0.0264708            2 
 1195000    1.0525018   -7.5473406    376.22887  0.026236323  0.026463959            2 
 1196000    1.0705758   -7.5522135    376.60048  0.026240279  0.026457139            2 
 1197000    1.0831715   -7.5788596    377.51872  0.026282283   0.02645022            1 
 1198000    1.0855124   -7.5394599    377.51756  0.026260265  0.026443481            4 
 1199000    1.0880776   -7.5483328    377.57796  0.026242561   0.02643678            1 
 1200000    1.0654489   -7.6065153    376.88868  0.026172825  0.026429768            2 
 1201000    1.0803409   -7.5261364    378.77422  0.026281864  0.026422768            1 
 1202000    1.0288572   -7.5439427    377.96011  0.026203557  0.026415933            1 
 1203000    1.0700671   -7.5488989    377.74966  0.026167197  0.026408957            5 
 1204000    1.0770622   -7.5177198    379.67234   0.02627854   0.02640204            3 
 1205000    1.0736198   -7.5835782    378.55123    0.0261792  0.026395228            2 
 1206000    1.0543157   -7.5595812    380.63308  0.026301346   0.02638836            3 
 1207000    1.0624749   -7.5590284    380.26285  0.026253994  0.026381686            3 
 1208000     1.069225   -7.5484189    380.99532  0.026282789  0.026375142            1 
 1209000    1.0756705   -7.5568333    380.44404  0.026223052  0.026368544            1 
 1210000    1.0454477   -7.5212336    381.54519  0.026277217  0.026362102            2 
 1211000    1.0428378   -7.5556404    382.36374  0.026311845  0.026355463            1 
 1212000     1.051013   -7.4924427    381.96284  0.026262571  0.026348948            2 
 1213000    1.0806277   -7.5498465    381.74628  0.026226043   0.02634248            1 
 1214000    1.0733476   -7.5349035    382.69947   0.02626987  0.026336062            1 
 1215000    1.0590604   -7.5206235    382.11597  0.026208228   0.02632969            3 
 1216000    1.0602072   -7.5283611    383.23418  0.026263308  0.026323171            2 
 1217000    1.0630755   -7.5447234    382.89176   0.02621828  0.026316687            1 
 1218000    1.0713609   -7.5635361    383.38558   0.02623054  0.026310122            1 
 1219000    1.0486766     -7.56525    382.13837  0.026123761  0.026303595            2 
 1220000    1.0688556   -7.6093643    382.46563  0.026124701  0.026297052            2 
 1221000    1.0684881   -7.5607359    383.32223  0.026161768  0.026290501            2 
 1222000     1.045349   -7.5864445    382.77271  0.026102885  0.026283895            2 
 1223000    1.0588506   -7.5536547    384.65892  0.026210066  0.026277277            6 
 1224000    1.0374053   -7.5919213    382.97682   0.02607413  0.026270763            1 
 1225000    1.0492063   -7.5838203    385.11158  0.026198067  0.026264322            2 
 1226000     1.085978   -7.5819426    384.38509  0.026127317  0.026257864            3 
 1227000    1.0578704   -7.6331194    383.85535  0.026070046  0.026251386            2 
 1228000    1.0606969   -7.5772268     386.1383  0.026203739  0.026244891            4 
 1229000    1.0533722   -7.5580784     386.7493  0.026223847  0.026238562            2 
 1230000    1.0798369   -7.6043446     385.4434  0.026114052  0.026232181            3 
 1231000    1.0652387   -7.5213185    387.70992  0.026246271  0.026225852            1 
 1232000    1.0591013   -7.5817829    387.07454   0.02618199  0.026219605            3 
 1233000    1.0435823   -7.5706156    386.20309  0.026101858  0.026213193            2 
 1234000     1.065688   -7.5149768    387.74262  0.026184672  0.026206659            1 
 1235000    1.0625721   -7.5718481    386.16726   0.02605717  0.026200324            1 
 1236000    1.0598745   -7.5428815    387.10577  0.026099364  0.026193744            2 
 1237000    1.0703982   -7.5771404    385.31641  0.025957721  0.026187205            1 
 1238000    1.0527864   -7.6263575    385.67847  0.025961125  0.026180387            2 
 1239000    1.0760522   -7.5740902    387.55717   0.02606653  0.026173756            4 
 1240000    1.0487294   -7.5738067    388.17149  0.026086793  0.026167025            2 
 1241000    1.0392633   -7.5593415    389.42635  0.026150037  0.026160641            1 
 1242000    1.0282849   -7.5638128    389.50722  0.026134408  0.026154204            2 
 1243000    1.0527903    -7.567343    388.32116  0.026033867  0.026147726            4 
 1244000    1.0729592   -7.5874553    388.15436  0.026001766   0.02614114            3 
 1245000    1.0564802   -7.5761317    390.71319  0.026152154  0.026134739            1 
 1246000    1.0337938   -7.6034974    389.81049  0.026070793   0.02612839            1 
 1247000    1.0603812   -7.5456352    390.70455  0.026109633     0.026122            2 
 1248000    1.0584656   -7.5351041     389.6262  0.026016706  0.026115733            2 
 1249000    1.0471851    -7.600421    389.38436  0.025979741  0.026109254            1 
 1250000    1.0225738   -7.5935909    389.62636   0.02597509  0.026102784            2 
 1251000    1.0361992   -7.5820718     390.5656  0.026016893    0.0260963            4 
 1252000    1.0716248   -7.5784654    390.46501  0.025989417  0.026089846            2 
 1253000    1.0516165    -7.558442     391.0977  0.026010754  0.026083581            2 
 1254000    1.0628353   -7.5527597    391.51231  0.026017565  0.026077195            2 
 1255000    1.0316245    -7.587127    390.96199  0.025960292  0.026070513            6 
 1256000    1.0730729   -7.5904909    390.83555  0.025931233  0.026063762            1 
 1257000    1.0443599   -7.5795057    390.76839  0.025906152  0.026056982            1 
 1258000     1.066731   -7.5483712    391.47127  0.025932119  0.026050241            3 
 1259000    1.0640662   -7.5839434    391.84012  0.025935936  0.026043446            1 
 1260000    1.0308488   -7.6064305    391.04496  0.025862762  0.026036755            2 
 1261000    1.0582134    -7.549727    392.79118  0.025957651  0.026030133            2 
 1262000    1.0567594   -7.5720519    392.94733  0.025947394  0.026023654            1 
 1263000    1.0280775   -7.5963422    392.75275  0.025914011  0.026017105            1 
 1264000    1.0466973   -7.5434342    394.61432   0.02601624  0.026010707            1 
 1265000    1.0583638   -7.5489817    393.10108  0.025895987  0.026004197            2 
 1266000    1.0587029   -7.6063925     392.9667  0.025866686  0.025997596            2 
 1267000    1.0493971    -7.561352    393.79983  0.025901068  0.025990961            2 
 1268000    1.0274111    -7.540899    394.03364  0.025896007  0.025984386            1 
 1269000    1.0431625   -7.6193931    392.69607  0.025787764  0.025977844            2 
 1270000    1.0350026   -7.5867976    394.13317  0.025861756  0.025971157            1 
 1271000      1.04209   -7.5888224    393.96764  0.025830556  0.025964483            2 
 1272000    1.0587347   -7.5810358    394.49102  0.025844537  0.025957949            1 
 1273000    1.0262872   -7.5906725    394.98635  0.025856661  0.025951372            1 
 1274000    1.0353402   -7.5879364    395.48471  0.025868963  0.025944705            2 
 1275000    1.0576244   -7.5702824    395.17234  0.025828257  0.025938169            2 
 1276000    1.0723852   -7.5996277     394.2728  0.025749269  0.025931589            3 
 1277000    1.0382244   -7.5783242    394.95143   0.02577339  0.025924912            3 
 1278000    1.0513064   -7.5753851     395.4017  0.025782583  0.025918316            2 
 1279000    1.0491426   -7.5988605    396.20942  0.025815052  0.025911622            1 
 1280000    1.0778989   -7.5375693    397.84514  0.025901377  0.025905041            4 
 1281000    1.0339064   -7.6066624    395.21825  0.025710269   0.02589852            2 
 1282000     1.061423   -7.5958449    396.64111  0.025782704  0.025891871            2 
 1283000    1.0730856    -7.585734    396.95127  0.025782753  0.025885355            1 
 1284000    1.0488478   -7.5630922    397.64542  0.025807725  0.025878833            1 
 1285000    1.0483714   -7.5614502    397.18006  0.025757462  0.025872247            1 
 1286000    1.0261005   -7.5509074    397.90884  0.025784658  0.025865624            1 
 1287000    1.0262445   -7.5743269    398.64951  0.025812582  0.025858941            1 
 1288000    1.0372798   -7.5608513    397.04575  0.025688778  0.025852268            1 
 1289000    1.0304115   -7.5685377      397.702  0.025711275  0.025845693            2 
 1290000    1.0526843   -7.5987843    397.68749  0.025690406  0.025839027            1 
 1291000    1.0500958   -7.6199035    397.58566  0.025663934  0.025832357            4 
 1292000    1.0474546   -7.6209462    398.71086  0.025716645  0.025825582            2 
 1293000    1.0442316   -7.5744073    399.39068   0.02574057  0.025819051            3 
 1294000    1.0381102   -7.5732239    399.48361  0.025726662  0.025812548            5 
 1295000    1.0243469   -7.5659794    400.18815  0.025752133  0.025806071            2 
 1296000    1.0507203   -7.5792337    399.34892    0.0256783  0.025799538            3 
 1297000    1.0436823   -7.6016384      399.556  0.025671806  0.025793008            2 
 1298000    1.0528065   -7.6050767    401.30929  0.025764592   0.02578655            2 
 1299000    1.0381773   -7.6258358    400.12383  0.025668708  0.025779978            2 
 1300000    1.0527236    -7.601328    401.06096  0.025709036  0.025773483            2 
 1301000    1.0631537   -7.6206073    400.53396  0.025655519  0.025767124            1 
 1302000    1.0626125   -7.6275776    400.91899  0.025660458  0.025760624            2 
 1303000    1.0417696   -7.5676717    401.63631   0.02568664  0.025754151            1 
 1304000    1.0512061   -7.6145219      401.667  0.025668903  0.025747719            3 
 1305000     1.054438   -7.6046996    401.78352  0.025656674  0.025741354            2 
 1306000    1.0695012   -7.6140912    402.00472  0.025651144   0.02573496            2 
 1307000    1.0469753   -7.6018215    402.48741  0.025662293  0.025728587            1 
 1308000    1.0412235   -7.6011723    402.58456  0.025648863  0.025722143            1 
 1309000    1.0484097   -7.5946146    401.88666  0.025584839  0.025715578            5 
 1310000    1.0169306   -7.6013957    402.77945  0.025622102  0.025709138            2 
 1311000    1.0461791   -7.5918662    403.18588  0.025628393  0.025702725            4 
 1312000    1.0406004   -7.5753864    403.98592  0.025659675  0.025696462            3 
 1313000    1.0437961   -7.5905937    402.75533  0.025562029  0.025689954            2 
 1314000    1.0429701   -7.5868616    403.90638  0.025615575  0.025683471            1 
 1315000    1.0533011   -7.6335348    403.61752  0.025577789   0.02567701            3 
 1316000     1.062867   -7.5517296     404.9483  0.025642623  0.025670773            3 
 1317000    1.0402985   -7.5583651    405.03649  0.025628733  0.025664472            3 
 1318000     1.045735   -7.5967897    404.51619   0.02557639  0.025658163            1 
 1319000    1.0539598   -7.5778115    405.11173  0.025594625  0.025651932            4 
 1320000    1.0362233   -7.5789134    406.55934  0.025666625  0.025645566            1 
 1321000    1.0523877   -7.5828098    405.05478  0.025552283  0.025639056            3 
 1322000    1.0626156   -7.6343064    402.64141  0.025380825  0.025632524            1 
 1323000    1.0636055   -7.6002935    406.10626  0.025579885  0.025625925            1 
 1324000    1.0436334   -7.6003627    405.23884  0.025505969  0.025619363            5 
 1325000    1.0354068   -7.6050185    405.09787  0.025477853  0.025612904            6 
 1326000    1.0244689   -7.6014547    406.79374  0.025565218  0.025606364            4 
 1327000     1.057032   -7.5998438    405.75462  0.025480697  0.025599836            5 
 1328000    1.0409719   -7.6057945    406.31812   0.02549687  0.025593312            2 
 1329000    1.0361877     -7.62366    406.60188  0.025495478  0.025586779            1 
 1330000    1.0541338   -7.5946116     406.6666  0.025480364  0.025580321            2 
 1331000      1.03522   -7.5880824    406.35086  0.025441451  0.025573869            2 
 1332000    1.0344493   -7.6174767    406.62423  0.025439454  0.025567348            2 
 1333000    1.0253069    -7.591006    406.94149  0.025440203  0.025560915            2 
 1334000    1.0752083   -7.6036309    408.07845  0.025492157  0.025554553            2 
 1335000    1.0304796   -7.6315579    407.25566  0.025421702   0.02554805            2 
 1336000    1.0409206   -7.6119547    408.01465  0.025450016    0.0255416            1 
 1337000    1.0516096   -7.6236262    408.79933  0.025479889  0.025535194            2 
 1338000    1.0368799   -7.6590107    407.19736  0.025361071  0.025528723            2 
 1339000    1.0419651   -7.5965425    410.11791  0.025523893  0.025522341            2 
 1340000    1.0310284    -7.610978    408.43349  0.025400092  0.025516008            5 
 1341000    1.0318429   -7.6363628    408.98666  0.025415527  0.025509562            3 
 1342000    1.0177706   -7.5896538    409.83623  0.025449344  0.025503196            3 
 1343000    1.0475152   -7.6151808    409.95313  0.025437647  0.025496636            2 
 1344000    1.0431754   -7.6230533    410.12208  0.025429196  0.025490111            2 
 1345000    1.0309853   -7.6031059    410.22456  0.025416639  0.025483774            3 
 1346000    1.0415157     -7.63391    410.27607  0.025400945  0.025477225            2 
 1347000    1.0389501    -7.616366    410.28054  0.025382365  0.025470766            3 
 1348000    1.0188308   -7.6186536    411.21586  0.025421357  0.025464243            5 
 1349000    1.0681843   -7.5955533    412.13248  0.025459135  0.025457773            3 
 1350000    1.0482136   -7.5997363    410.53688  0.025341783  0.025451345            2 
 1351000    1.0427398   -7.5996992    411.72446  0.025396278   0.02544481            2 
 1352000    1.0483215   -7.6566536     409.8851  0.025264121  0.025438275            2 
 1353000       1.0185   -7.5886259    412.48536  0.025405603  0.025431685            1 
 1354000    1.0459458   -7.6009617    412.20233   0.02536942  0.025425104            3 
 1355000    1.0336454   -7.5891501    412.00762  0.025338722  0.025418722            2 
 1356000    1.0221167   -7.5940116    411.13059  0.025266137  0.025412309            3 
 1357000    1.0429204   -7.5991245    412.54217  0.025334204  0.025405841            3 
 1358000    1.0427623   -7.6304771    412.75097  0.025328361  0.025399378            7 
 1359000    1.0300461   -7.5975237    413.44571  0.025352324  0.025392909            4 
 1360000    1.0536232   -7.6422426    412.00747  0.025245556  0.025386351            3 
 1361000    1.0295951    -7.642884    412.59136  0.025262758  0.025379659            3 
 1362000    1.0221839   -7.6366675    412.42336  0.025233931  0.025373013            2 
 1363000    1.0224717   -7.6000391    414.28287  0.025329107  0.025366522            1 
 1364000    1.0364129   -7.6531788    412.31284  0.025190179  0.025359963            1 
 1365000    1.0487599   -7.5826852    413.84058  0.025264993  0.025353401            1 
 1366000    1.0182013   -7.6104778    414.20521  0.025268741  0.025346769            3 
 1367000    1.0387513   -7.6222326    414.03025  0.025239591  0.025340121            4 
 1368000    1.0217748   -7.6299927    413.37114  0.025180991  0.025333357            3 
 1369000     1.021515   -7.6600536    413.09959  0.025146067   0.02532653            1 
 1370000    1.0382012   -7.6054633    414.54456  0.025215606  0.025319805            2 
 1371000    1.0301474   -7.5999672    414.03278  0.025166106   0.02531307            1 
 1372000    1.0323184   -7.6167249    415.37335  0.025229188  0.025306546            2 
 1373000    1.0200206     -7.61905    414.22617  0.025141185  0.025299879            2 
 1374000    1.0344994   -7.5920825    416.05553  0.025233838  0.025293229            1 
 1375000    1.0400849   -7.6397914    416.58256  0.025247428  0.025286632            2 
 1376000    1.0327188   -7.6569477    414.72326  0.025116477  0.025279817            2 
 1377000    1.0385515   -7.6548139    415.56695  0.025149295  0.025273064            2 
 1378000    1.0512167   -7.6424048    415.86956  0.025149344  0.025266371            3 
 1379000     1.030476   -7.6326715    414.97396  0.025076986  0.025259614            2 
 1380000    1.0203664   -7.6646141    415.49758  0.025090434  0.025252865            2 
 1381000    1.0266021   -7.6219845    416.21256  0.025115409   0.02524615            2 
 1382000    1.0158542   -7.6566285    416.80033  0.025132678  0.025239465            1 
 1383000    1.0234462   -7.6288624    416.76384  0.025112307   0.02523268            1 
 1384000    1.0163274   -7.6429056    418.05148  0.025171693  0.025226043            2 
 1385000    1.0410451   -7.6474075    417.20029  0.025102304  0.025219277            1 
 1386000    1.0144321   -7.6406439    416.89506  0.025065841  0.025212632            2 
 1387000    1.0229779   -7.6673571    417.23344  0.025068099  0.025205977            3 
 1388000    1.0447478   -7.6802677    416.49941  0.025005969  0.025199313            2 
 1389000    1.0293339   -7.6234041    418.94718   0.02513482  0.025192652            1 
 1390000    1.0232983   -7.6619547    417.51555  0.025030908  0.025185925            2 
 1391000    1.0205089   -7.6463914    417.79782  0.025029824   0.02517926            2 
 1392000    1.0169772   -7.6234151    419.39582  0.025107509  0.025172836            5 
 1393000    1.0323703   -7.6352904    419.23509  0.025079869  0.025166395            3 
 1394000    1.0361379   -7.6240523    419.23092  0.025061628  0.025159807            3 
 1395000    1.0255872   -7.6225373    419.15121  0.025038902  0.025153297            3 
 1396000    1.0268438   -7.6503766    418.53236  0.024984024  0.025146727            1 
 1397000    1.0277286   -7.5967114    420.20618  0.025065985  0.025140192            1 
 1398000    1.0370746   -7.6087222    420.78931  0.025082815  0.025133553            2 
 1399000     1.055664   -7.6108377    419.87352  0.025010336  0.025127091            2 
 1400000    1.0310266   -7.6419072    421.48429  0.025088351   0.02512048            1 
 1401000    1.0372212   -7.6370157     420.6239  0.025019266   0.02511393            1 
 1402000    1.0217441   -7.6115932    420.70366  0.025006162  0.025107408            3 
 1403000    1.0128648   -7.6421638    420.85648  0.024997415  0.025100824            1 
 1404000    1.0219096   -7.6488374     421.8308  0.025037441  0.025094204            2 
 1405000    1.0132439   -7.6063539    421.93781  0.025025967  0.025087698            1 
 1406000     1.042087   -7.6185575    421.60481  0.024988431  0.025081324            4 
 1407000    1.0252408   -7.6413704    423.02887  0.025055015  0.025074918            2 
 1408000    1.0277507    -7.633375    422.14745  0.024985053  0.025068538            1 
 1409000    1.0147158   -7.5623481    424.73066  0.025120101  0.025062126            2 
 1410000     1.040029   -7.6009405    424.04613  0.025061828  0.025055783            3 
 1411000    1.0220711   -7.6178636    422.73626  0.024966705  0.025049392            2 
 1412000    1.0263218   -7.6158818    424.04437  0.025026226  0.025042979            1 
 1413000    1.0239268   -7.6215475    423.06835  0.024950952  0.025036397            4 
 1414000    1.0336228   -7.6144524    423.19888  0.024940999  0.025029953            2 
 1415000    1.0327074   -7.6579257    423.72558  0.024954392  0.025023476            1 
 1416000     1.020737   -7.6453911    423.06973  0.024898171  0.025016869            7 
 1417000    1.0286394   -7.6679649    424.14455   0.02494381  0.025010207            2 
 1418000    1.0318084   -7.5916526    423.58512  0.024893343  0.025003594            4 
 1419000    1.0181145   -7.6407533    424.07848  0.024904773  0.024997042            1 
 1420000    1.0200041   -7.6067649     424.6386  0.024920105  0.024990495            3 
 1421000    1.0309638   -7.6441521    424.92803  0.024919542  0.024984005            3 
 1422000   0.99670642   -7.6485727    424.18129  0.024858256  0.024977415            2 
 1423000    1.0017983   -7.6064126    424.15148  0.024839042  0.024970697            2 
 1424000    1.0189525   -7.6251672    424.40841  0.024836634  0.024964143            3 
 1425000    1.0228207   -7.6434384    425.23646  0.024867629  0.024957507            3 
 1426000    1.0369909   -7.6202405     425.5152   0.02486648  0.024950737            1 
 1427000     1.032046    -7.635333    424.45031  0.024786867  0.024943839            2 
 1428000    1.0245815   -7.6765083    424.93883  0.024798018  0.024936968            1 
 1429000    1.0350379   -7.6231348    425.21509  0.024796774  0.024930083            2 
 1430000    1.0353339    -7.678481    424.07829  0.024713187  0.024923226            1 
 1431000     1.023393    -7.655052     425.5643  0.024782454  0.024916337            4 
 1432000    1.0187007   -7.6284722    425.45978  0.024759065  0.024909535            1 
 1433000    1.0086555   -7.6430265    425.28882  0.024731846  0.024902708            1 
 1434000    1.0435404   -7.5830035    426.52292  0.024786316  0.024895864            1 
 1435000    1.0302889   -7.6148361    427.76648  0.024841259  0.024889097            1 
 1436000    1.0077704   -7.6481151    426.68878   0.02476142  0.024882316            2 
 1437000    1.0192673   -7.6541638    426.10459   0.02471031  0.024875393            4 
 1438000    1.0197048   -7.6538302     425.5505  0.024661016  0.024868387            1 
 1439000     1.023813   -7.6903636     424.7003  0.024594643   0.02486136            2 
 1440000    1.0095159   -7.6322797    425.82958  0.024642916  0.024854439            2 
 1441000    1.0040666   -7.6207344    427.93681  0.024747676  0.024847581            1 
 1442000   0.99779737   -7.6375293    426.70929  0.024659575  0.024840803            2 
 1443000    1.0243134   -7.6292081    427.63014  0.024695666  0.024833957            1 
 1444000    1.0158419   -7.6243432    427.73446  0.024684583  0.024827143            3 
 1445000    0.9995736   -7.6501534    426.43732  0.024592695  0.024820327            2 
 1446000    1.0285316   -7.6651806    426.49801  0.024579184  0.024813425            1 
 1447000    1.0256995   -7.6892458    426.48715  0.024561573  0.024806521            3 
 1448000    1.0205522   -7.6367636    429.26868  0.024704689  0.024799624            2 
 1449000    1.0221435   -7.6435319    428.31117  0.024632573  0.024792882            2 
 1450000      1.02611   -7.6437837     429.0816  0.024659862  0.024786196            2 
 1451000    1.0310417   -7.6647394    428.71392   0.02462175   0.02477947            2 
 1452000    1.0235179   -7.6331505    429.18005  0.024631545  0.024772733            2 
 1453000    1.0120445   -7.6665133    427.67839  0.024528469  0.024765909            1 
 1454000    1.0004699   -7.6067629    429.42273  0.024611573  0.024759042            1 
 1455000     1.006426   -7.6357512     429.9965   0.02462752  0.024752069            2 
 1456000    1.0097069   -7.6758006    429.91803  0.024606115  0.024745136            1 
 1457000    1.0229895    -7.612083    430.51444  0.024623338  0.024738258            2 
 1458000    1.0180644     -7.62966    429.97401  0.024575561  0.024731312            1 
 1459000    1.0302213   -7.6406895    429.88873  0.024553846  0.024724348            1 
 1460000   0.99478111   -7.6471039    430.20234  0.024554928  0.024717465            1 
 1461000    1.0310274   -7.6780811    429.73553  0.024511495  0.024710645            2 
 1462000    1.0382215   -7.6776232    430.49355  0.024537936  0.024703668            2 
 1463000    1.0106199     -7.68609    430.74764  0.024535637  0.024696606            2 
 1464000    1.0068294   -7.6658738    430.33675  0.024495489  0.024689729            2 
 1465000   0.99918845   -7.6660317    430.60406  0.024493974  0.024682778            2 
 1466000    1.0300625   -7.6315618    432.97184   0.02461186    0.0246759            2 
 1467000    1.0160503   -7.6967154     431.0412  0.024485412  0.024669091            3 
 1468000   0.99552555   -7.6372045    431.83159  0.024513601  0.024662236            2 
 1469000    1.0093961    -7.640445    433.35119  0.024583117  0.024655423            5 
 1470000    1.0062297   -7.6673731    431.52703  0.024462983  0.024648688            1 
 1471000    1.0098853   -7.6402654    432.93187  0.024525939  0.024641899            1 
 1472000    1.0053721   -7.6750255    432.18382  0.024466928  0.024634991            2 
 1473000    1.0196819   -7.6471861    433.46079  0.024522561  0.024628158            3 
 1474000    1.0220243   -7.6439761    433.17652  0.024489853  0.024621443            4 
 1475000    1.0188075   -7.6414617    434.26887  0.024534965  0.024614732            1 
 1476000    1.0380915   -7.6482939     434.6822  0.024541678  0.024608124            5 
 1477000    1.0143893    -7.693921    433.52215  0.024459611  0.024601448            2 
 1478000    1.0181554   -7.6910996    433.98696  0.024469269  0.024594675            2 
 1479000    1.0065742   -7.6297792    435.24964  0.024523869  0.024588002            3 
 1480000    1.0102694   -7.6490231     435.6904  0.024532117  0.024581357            3 
 1481000    1.0087938      -7.6767    434.14102  0.024428372  0.024574648            1 
 1482000    1.0249332   -7.6500721    435.28555  0.024476246  0.024567972            3 
 1483000    1.0104136    -7.686082    435.81129  0.024489284   0.02456141            3 
 1484000    1.0136169   -7.6747143    435.39076  0.024449167  0.024554711            1 
 1485000    1.0253418   -7.6890512    435.03742  0.024412874  0.024548026            3 
 1486000    1.0514126   -7.6610693    435.59627  0.024427785  0.024541439            2 
 1487000    1.0174681   -7.6563846    436.39929   0.02445636  0.024534904            2 
 1488000    1.0116879   -7.6597782     436.1796  0.024427621  0.024528406            4 
 1489000    1.0128041   -7.6390762    437.32783  0.024475477    0.0245219            2 
 1490000    1.0042396    -7.652768    436.42733  0.024408687  0.024515428            1 
 1491000    1.0077393   -7.7026576    436.51125  0.024397007  0.024508797            2 
 1492000    1.0120818   -7.6594136    436.65287  0.024388565  0.024502186            3 
 1493000    1.0227233   -7.6303487    437.83186  0.024438036  0.024495596            1 
 1494000    1.0039847   -7.6848667    436.78529  0.024363302  0.024488955            3 
 1495000    1.0116993   -7.6912458    436.45634   0.02432867   0.02448234            3 
 1496000    1.0120193   -7.6834176    437.42257   0.02436623  0.024475634            1 
 1497000    1.0133036   -7.6840392    437.68671  0.024364657  0.024469108            1 
 1498000    1.0026281   -7.6766081    437.82211  0.024355925   0.02446255            1 
 1499000    1.0030566   -7.6466669     439.3767  0.024426101  0.024455981            2 
 1500000     1.000339   -7.6414985    439.16259  0.024397921  0.024449427            1 
 1501000    1.0373475   -7.6546198    439.79848  0.024416971  0.024442924            1 
 1502000    1.0143555    -7.656622    440.61212  0.024445857  0.024436465            2 
 1503000    1.0020357   -7.6398477    439.47229  0.024366394  0.024430063            2 
 1504000    1.0009559   -7.7010194    439.47473  0.024350329  0.024423629            4 
 1505000   0.99059434   -7.6458061    440.45825  0.024388607  0.024417067            2 
 1506000   0.99083412   -7.6645582    439.57907  0.024323764  0.024410565            2 
 1507000    1.0144179   -7.6523904     441.8458  0.024432969  0.024404113            3 
 1508000   0.99753575   -7.6906862    440.60893  0.024348415  0.024397627            1 
 1509000    1.0089068   -7.6829766    440.58903  0.024331181  0.024391172            3 
 1510000    1.0099934   -7.6761225    440.97984  0.024336636  0.024384794            2 
 1511000    1.0253251   -7.6780384    442.66017  0.024413201  0.024378425            1 
 1512000    1.0273987   -7.6783409    442.23647  0.024373703  0.024371904            3 
 1513000    1.0173452   -7.7060478    440.14127  0.024242194   0.02436546            1 
 1514000    1.0170141   -7.7415779    440.32254  0.024236159  0.024358925            2 
 1515000    1.0289848   -7.6680356    442.15215    0.0243208  0.024352329            4 
 1516000    1.0135315   -7.7011432    442.41631  0.024319278  0.024345795            1 
 1517000    1.0187278    -7.672827    441.84825  0.024272042  0.024339272            1 
 1518000    1.0188732   -7.6584056    442.22087  0.024276508  0.024332918            1 
 1519000    0.9916719   -7.6502728    442.40752  0.024270766  0.024326529            2 
 1520000     1.014031   -7.6623513    444.18547  0.024352274  0.024320102            2 
 1521000    1.0359019   -7.6955591    442.55638  0.024247007  0.024313738            1 
 1522000    1.0064182   -7.6618553    443.32312  0.024273058  0.024307314            2 
 1523000    1.0108136   -7.6457481    443.85023  0.024285961  0.024300918            2 
 1524000    1.0027032    -7.679583    443.35675  0.024243042  0.024294442            2 
 1525000    1.0082886   -7.6635295    443.91298   0.02425754  0.024288137            1 
 1526000    1.0103039   -7.6784693    444.94474  0.024297987  0.024281723            1 
 1527000    1.0064299   -7.6551556      443.976  0.024229207  0.024275273            1 
 1528000   0.99231354   -7.6875752    443.56181  0.024190762   0.02426884            2 
 1529000    1.0113992   -7.6709908    443.17758  0.024153999  0.024262352            2 
 1530000     1.004308   -7.6870866    443.51579  0.024156633  0.024255899            2 
 1531000    1.0180247   -7.7032909    442.37799  0.024078924   0.02424937            2 
 1532000    1.0229943   -7.6805913    444.38809  0.024172546  0.024242962            2 
 1533000   0.99283091   -7.6878411    444.66765  0.024171975   0.02423663            2 
 1534000     1.034612   -7.6743427    445.76546  0.024215855  0.024230164            1 
 1535000    1.0247069   -7.6524104    445.93963  0.024209535  0.024223745            3 
 1536000    1.0207155   -7.7161914    445.41986  0.024165574  0.024217369            1 
 1537000   0.97761832   -7.6534057     446.8883  0.024229468  0.024210974            4 
 1538000     1.022648   -7.7053189    445.41417  0.024133841    0.0242046            5 
 1539000   0.98817684   -7.6998976    446.28777  0.024165463  0.024198222            3 
 1540000    1.0097992   -7.7010634    446.60618  0.024167001  0.024191827            1 
 1541000   0.98992814   -7.6358792    447.62504  0.024206416  0.024185517            1 
 1542000    1.0332893   -7.6814024    446.63077  0.024136985  0.024179165            4 
 1543000   0.98910528   -7.6804214    447.47304  0.024166831  0.024172754            1 
 1544000   0.99283497   -7.6772229    447.05926  0.024128846  0.024166308            3 
 1545000    1.0036978   -7.6896962     446.8859  0.024103878  0.024159756            2 
 1546000   0.99165501   -7.6597404    446.33524  0.024058605  0.024153281            1 
 1547000   0.99995806   -7.6942281    447.60184  0.024111282  0.024146723            1 
 1548000   0.99687064   -7.7094121     447.7682  0.024104662  0.024140233            1 
 1549000    1.0291602   -7.6603576    448.16323  0.024110352  0.024133748            1 
 1550000   0.98516793   -7.6966999    447.72141  0.024071043  0.024127258            2 
 1551000    1.0139473   -7.6719974    447.05802  0.024019881  0.024120763            2 
 1552000    1.0137407   -7.7105455     447.8352  0.024046134  0.024114257            2 
 1553000   0.99251465   -7.6771968    447.59088   0.02401754  0.024107764            2 
 1554000    1.0057044   -7.6674075    448.58474   0.02405538  0.024101295            2 
 1555000   0.99182825   -7.6813795    449.13385  0.024069338  0.024094765            3 
 1556000    1.0013162   -7.6770813    448.12861  0.024000033  0.024088241            2 
 1557000    0.9968041   -7.6621357    448.03641  0.023979684  0.024081667            3 
 1558000    1.0069034   -7.6819428    448.09767  0.023967569  0.024075099            2 
 1559000    1.0091207   -7.6936586    449.10064  0.024005807  0.024068491            2 
 1560000    1.0176457    -7.726743    449.00896  0.023985521   0.02406201            4 
 1561000   0.98847597   -7.7294111    447.95935  0.023914123   0.02405531            4 
 1562000    1.0048527   -7.6912927    450.35668  0.024026711   0.02404869            2 
 1563000    1.0030211   -7.7058636    450.83666   0.02403693  0.024042272            2 
 1564000    1.0106472    -7.702573    450.54478  0.024006009  0.024035898            2 
 1565000   0.99628414   -7.6898983    451.46742  0.024039799  0.024029511            2 
 1566000    1.0020285   -7.7072796    450.35614  0.023965312   0.02402306            1 
 1567000   0.99691743   -7.7121058    450.80597   0.02397394   0.02401652            2 
 1568000    1.0135824   -7.6648541    450.57695  0.023946479   0.02400999            1 
 1569000    1.0133177   -7.7013793    452.28991  0.024022196  0.024003606            2 
 1570000    1.0065695   -7.7348016    451.08581  0.023942983   0.02399718            1 
 1571000    1.0409999   -7.7351571    451.37128  0.023942886  0.023990678            2 
 1572000    1.0058777   -7.7113607    452.79935  0.024003358  0.023984173            2 
 1573000    1.0080142   -7.6950905    451.45861   0.02391707  0.023977878            1 
 1574000    1.0009698   -7.6978749    453.61264  0.024015917  0.023971551            4 
 1575000   0.99745108   -7.6869464    451.15859  0.023870825  0.023965242            2 
 1576000   0.99918883   -7.7181879    452.40281  0.023921468  0.023958768            3 
 1577000   0.99680798   -7.7141407    452.86317  0.023930626  0.023952304            6 
 1578000    1.0104242   -7.7515458    453.14781  0.023930493  0.023945884            1 
 1579000   0.99028936   -7.6976773    452.46222  0.023879155   0.02393949            4 
 1580000    1.0285154   -7.6810131    453.48073   0.02391776  0.023933055            3 
 1581000    1.0055827   -7.6697481    452.75056  0.023864145  0.023926593            1 
 1582000   0.99652566   -7.7107449    453.77296  0.023902916  0.023920181            3 
 1583000    1.0089408   -7.6646647    454.38081  0.023919815  0.023913751            2 
 1584000    1.0031571   -7.7084148    453.27817  0.023846705  0.023907226            1 
 1585000    1.0089853   -7.7217357      452.341  0.023782387  0.023900651            2 
 1586000    1.0083041   -7.7076484    452.98748   0.02380136  0.023893965            1 
 1587000   0.99842144   -7.7199022    453.45348  0.023810832  0.023887298            2 
 1588000   0.97790222   -7.7098221    454.15793  0.023832805  0.023880734            1 
 1589000   0.99726265   -7.6882545    452.56179  0.023734098  0.023874015            1 
 1590000   0.99548376   -7.6985962    454.52238  0.023821928  0.023867493            3 
 1591000    1.0058466   -7.6825774    454.37079  0.023799015  0.023860962            2 
 1592000   0.99855294   -7.7098207    453.45552  0.023736156   0.02385436            4 
 1593000    0.9894846   -7.7129085    453.22424  0.023709157  0.023847627            1 
 1594000   0.99611524    -7.722113    453.69747  0.023719023  0.023840902            3 
 1595000   0.98546693   -7.7425042    453.63663  0.023700973  0.023834056            1 
 1596000   0.97830536    -7.699368    454.81942  0.023747881  0.023827272            1 
 1597000    1.0007691   -7.7210747    453.56548  0.023667579   0.02382059            2 
 1598000   0.99530648   -7.7406996    454.94558  0.023724738  0.023813847            2 
 1599000    1.0135178   -7.7314728      453.895  0.023655149  0.023807055            6 
 1600000   0.98632605   -7.7089561    455.28895  0.023712966  0.023800263            2 
 1601000   0.98699762   -7.7017519    454.80344  0.023672884  0.023793498            2 
 1602000   0.97355475    -7.746065    454.75306  0.023655486  0.023786746            4 
 1603000    0.9820202   -7.7068895    456.15337  0.023713525  0.023780047            1 
 1604000    1.0150346   -7.7243412    455.19717  0.023649063  0.023773378            3 
 1605000   0.99788165   -7.6886524    456.80716  0.023717921  0.023766617            2 
 1606000   0.98080656   -7.7392533    455.81281  0.023651557  0.023759926            2 
 1607000   0.99571025   -7.7196488    455.47399  0.023619269  0.023753236            2 
 1608000   0.99207292   -7.7212639    457.90768  0.023730705  0.023746632            1 
 1609000   0.98523448   -7.7244858    456.97075  0.023667431  0.023740042            1 
 1610000     0.996768   -7.7369903    456.29613  0.023617812  0.023733409            1 
 1611000   0.99366577   -7.7213526    455.83173   0.02357913  0.023726748            3 
 1612000     1.006219   -7.7296049    457.72468   0.02366236  0.023720001            3 
 1613000     0.986088   -7.6822341    458.34596  0.023679787    0.0237134            6 
 1614000    1.0093949   -7.6968468    455.71402  0.023529224  0.023706756            4 
 1615000    1.0028417   -7.7262999    457.99573  0.023632391  0.023700085            2 
 1616000    1.0118728    -7.688373    458.04508  0.023620311  0.023693481            5 
 1617000   0.98661301   -7.7157193     458.9491  0.023652293  0.023686835            1 
 1618000     1.030999   -7.7266361    458.01278  0.023589451  0.023680179            2 
 1619000   0.99164009   -7.6824598    457.96491  0.023572416  0.023673488            1 
 1620000   0.99698285   -7.7138491    458.94162  0.023608108  0.023666823            2 
 1621000   0.99091911   -7.7233074    458.77774  0.023585119  0.023660269            1 
 1622000    0.9952881   -7.7226176     459.2522  0.023594955   0.02365372            1 
 1623000   0.98474993   -7.7253368    457.70256  0.023500851  0.023647137            2 
 1624000   0.99382394   -7.7136723    458.45449  0.023524964  0.023640434            2 
 1625000    1.0032538   -7.7370228    458.57794  0.023516818  0.023633773            3 
 1626000   0.96444679   -7.7023455    460.47736  0.023599701  0.023627096            2 
 1627000   0.99667961   -7.7297504    459.64725  0.023542678  0.023620496            3 
 1628000   0.98531638   -7.7337885    458.65357  0.023477353   0.02361388            3 
 1629000   0.98678409   -7.7456977     461.0797  0.023587052  0.023607223            2 
 1630000   0.96969079   -7.7560451     459.2226  0.023477638  0.023600492            1 
 1631000    0.9968272   -7.7324648    460.22284  0.023514349  0.023593808            2 
 1632000    1.0014791   -7.7038931     459.7818  0.023477421  0.023587125            4 
 1633000   0.98089758   -7.7089456    461.24213  0.023537565  0.023580445            2 
 1634000   0.99473482   -7.7228158    459.97941  0.023458762   0.02357377            2 
 1635000   0.99779255   -7.7322717    460.08246  0.023449667  0.023567124            1 
 1636000   0.98325394   -7.7259838    461.00258  0.023482201  0.023560487            1 
 1637000   0.98921954   -7.7254531    462.06848  0.023522118  0.023553797            5 
 1638000   0.98107162   -7.7080371    462.81443  0.023545708   0.02354723            1 
 1639000   0.98720941   -7.7067299    462.47739  0.023514205   0.02354067            2 
 1640000   0.98981821   -7.6930352    462.59763  0.023505977  0.023534078            1 
 1641000   0.97688741    -7.706086    462.28589  0.023475822  0.023527587            2 
 1642000    1.0100332   -7.7072129    462.95974  0.023495724  0.023521088            1 
 1643000    1.0126582   -7.7197766    462.85671  0.023476197   0.02351458            5 
 1644000   0.99924217   -7.7303583    463.11203   0.02347486  0.023508158            1 
 1645000    1.0046189   -7.7326344    463.55463   0.02348301  0.023501676            1 
 1646000   0.99979805   -7.6998172    463.84292   0.02348334  0.023495265            2 
 1647000   0.99445189   -7.7002112    464.33328  0.023493892  0.023488901            4 
 1648000   0.96331502   -7.7045845    463.50129  0.023437565  0.023482469            3 
 1649000   0.99102814   -7.7130181    463.53679  0.023425146  0.023476042            1 
 1650000   0.97719269   -7.7536905    463.85327  0.023426933  0.023469503            1 
 1651000    1.0035661   -7.7010415    465.14575  0.023477981  0.023463144            5 
 1652000   0.98421616   -7.7269353    464.60233  0.023436356  0.023456806            2 
 1653000   0.98847011   -7.7184351     465.6033  0.023472641  0.023450444            1 
 1654000   0.97556048   -7.7105527    464.13177  0.023384309  0.023444105            3 
 1655000   0.99284237   -7.7520242    465.03217  0.023415517  0.023437683            2 
 1656000   0.99736179   -7.7304291     465.0454  0.023402043  0.023431218            5 
 1657000   0.98809298   -7.7402722    466.57412  0.023464802  0.023424825            4 
 1658000    1.0114839   -7.7606746    465.40976  0.023392127  0.023418368            2 
 1659000   0.98683127   -7.7448515    466.51452   0.02343352  0.023411981            4 
 1660000   0.98808829   -7.7425677    465.93555  0.023390339  0.023405523            2 
 1661000   0.97735809   -7.7523878    466.29739   0.02339441   0.02339906            1 
 1662000    0.9887285   -7.7286802    466.06167  0.023368515   0.02339262            2 
 1663000    0.9950121   -7.7488204    465.85106  0.023343909   0.02338618            2 
 1664000   0.99192963   -7.7321969    467.09085   0.02339197  0.023379829            4 
 1665000   0.97898236   -7.7528716    466.58143  0.023352424  0.023373356            6 
 1666000   0.99051286   -7.7468921    467.24671  0.023371684  0.023366904            1 
 1667000   0.96915736   -7.7614939    467.08723  0.023349692  0.023360538            1 
 1668000    1.0023331   -7.7336271    467.42043  0.023352339  0.023354227            4 
 1669000   0.98964375   -7.7271209    467.38467  0.023336562  0.023347875            2 
 1670000   0.99266667   -7.7038573     469.1112  0.023408743  0.023341547            1 
 1671000   0.97849164   -7.7325372    467.08994  0.023293933   0.02333531            2 
 1672000   0.98467111   -7.7225109     469.0644  0.023378409   0.02332901            1 
 1673000   0.98896485   -7.7748369     467.4751  0.023285271   0.02332259            1 
 1674000   0.98524288   -7.7226017    468.19679  0.023307287  0.023316252            2 
 1675000   0.97754025   -7.7217502    468.83052  0.023324901  0.023309939            3 
 1676000   0.97919563   -7.7232345    468.50672  0.023294885  0.023303664            1 
 1677000   0.98622732   -7.7236735    469.25737  0.023318295   0.02329732            1 
 1678000   0.95650873   -7.7594148    469.01784  0.023292503  0.023290955            2 
 1679000   0.98680892   -7.7873577    468.00064  0.023228144  0.023284536            1 
 1680000   0.97349672   -7.7150731     468.2936  0.023228849  0.023278221            1 
 1681000   0.99238188    -7.754727    470.22381  0.023310718  0.023271907            4 
 1682000   0.98999033   -7.7610085    468.53312  0.023213096  0.023265377            2 
 1683000   0.97946806   -7.7666931     468.5164  0.023198475  0.023258858            2 
 1684000   0.95713119   -7.7480259    470.18864  0.023267451  0.023252466            2 
 1685000   0.98853682   -7.7595895    469.47605    0.0232184  0.023246133            2 
 1686000    1.0009989     -7.74493    470.52293  0.023256373  0.023239845            2 
 1687000   0.98955548   -7.7129492    470.82734  0.023257624  0.023233582            1 
 1688000   0.98986319   -7.7795725    468.48959  0.023128436  0.023227199            3 
 1689000   0.98090962   -7.7299242    471.01354  0.023239271  0.023220773            2 
 1690000    1.0034736   -7.7578632    470.04148  0.023177588  0.023214338            1 
 1691000   0.98445883   -7.7551685    470.42686  0.023182873  0.023207874            2 
 1692000   0.97393132   -7.7230155    471.19511  0.023207009  0.023201444            2 
 1693000   0.96634478   -7.7875884    468.93713  0.023082159  0.023194964            2 
 1694000   0.98254254   -7.7680681    470.20912  0.023131106  0.023188461            3 
 1695000   0.98788767   -7.7675298     469.6793  0.023091411  0.023182055            3 
 1696000   0.98930694   -7.7548707    471.19725  0.023152381  0.023175586            3 
 1697000   0.98623066   -7.7463658     470.0293  0.023081384  0.023169046            2 
 1698000   0.99146924   -7.7137282    472.33119  0.023180761  0.023162531            2 
 1699000   0.97952755   -7.7503704    470.80168  0.023092097   0.02315612            1 
 1700000   0.96349656   -7.7370136    471.70594   0.02312284  0.023149718            4 
 1701000   0.96850925   -7.7584582    471.08581  0.023078866  0.023143378            2 
 1702000    0.9790762   -7.7677292    471.69286  0.023095028   0.02313707            2 
 1703000   0.95891599   -7.7950246    472.65758  0.023128674  0.023130627            2 
 1704000   0.96458948   -7.7687013    472.86307   0.02312515  0.023124165            1 
 1705000   0.97882293   -7.7484954    472.46504  0.023092133   0.02311767            3 
 1706000   0.97184734   -7.7254213    473.06269  0.023107791  0.023111295            1 
 1707000    0.9563061   -7.7250804    472.48806  0.023066201  0.023104915            1 
 1708000   0.95523076   -7.7875102    472.19908  0.023038597  0.023098485            1 
 1709000   0.98584452    -7.753312    473.80959  0.023103647  0.023092069            3 
 1710000   0.97679261   -7.7692285    474.18227  0.023108298  0.023085662            2 
 1711000   0.97391753   -7.7941918    471.76041  0.022976836  0.023079223            3 
 1712000   0.98693996   -7.7569947    472.91757  0.023019742  0.023072781            3 
 1713000    1.0233561   -7.7917174    472.65762  0.022993657  0.023066311            2 
 1714000   0.99807094   -7.8013378     473.8977  0.023040534   0.02305986            3 
 1715000   0.96993023    -7.752918    473.99922  0.023032032  0.023053369            1 
 1716000   0.97253708   -7.7848653    473.86302  0.023011996  0.023046874            1 
 1717000   0.97978316   -7.7304076    473.80122  0.022995594   0.02304033            2 
 1718000    1.0083888   -7.7808382    473.42306  0.022963866  0.023033897            3 
 1719000   0.96621317   -7.7710493    473.75968  0.022966826  0.023027448            2 
 1720000   0.96951015   -7.7692272    475.21074  0.023023776  0.023020934            1 
 1721000   0.97345551   -7.7518842    473.68547  0.022936542   0.02301444            1 
 1722000   0.98917227   -7.7685319    475.43043  0.023007667  0.023008011            2 
 1723000   0.98517336   -7.8525835    473.87255  0.022918966  0.023001503            1 
 1724000    0.9681577   -7.7737645    473.53203  0.022889212  0.022995005            4 
 1725000   0.97634048    -7.777848    475.34338  0.022963448  0.022988606            4 
 1726000   0.96182488   -7.7717889    475.66427  0.022965637  0.022982169            1 
 1727000   0.98283126   -7.8108664    475.52298  0.022945521  0.022975716            3 
 1728000   0.97398533   -7.7532729    476.71746  0.022989847  0.022969258            1 
 1729000   0.99376071   -7.7464311    475.55447  0.022920497  0.022962928            1 
 1730000   0.96232618   -7.7558517    476.40709  0.022948318  0.022956521            3 
 1731000   0.97664556   -7.7943198    475.63736  0.022898005  0.022950075            2 
 1732000   0.99511763   -7.7838807    475.64571  0.022885186  0.022943605            2 
 1733000    0.9906622   -7.7890788    475.74468   0.02287674  0.022937181            2 
 1734000   0.97625257   -7.7714468    476.64647  0.022906885  0.022930771            3 
 1735000   0.97122403    -7.744129    476.20698  0.022872573  0.022924325            1 
 1736000    0.9785915   -7.7862884    476.89255  0.022892307  0.022917796            2 
 1737000   0.97533204   -7.7319689     476.4659   0.02285866   0.02291133            1 
 1738000   0.96184667   -7.7667299     476.7698  0.022860078  0.022904825            3 
 1739000   0.94587995   -7.7846279    475.27217  0.022775166  0.022898289            2 
 1740000   0.97184654   -7.7906366    477.18728  0.022853797  0.022891714            1 
 1741000   0.96407646   -7.7596153    477.40476   0.02285108  0.022885285            6 
 1742000   0.98171953   -7.7931502     478.0986  0.022871154  0.022878782            1 
 1743000   0.97672598   -7.7705206    477.76267  0.022841971  0.022872296            1 
 1744000   0.98547713    -7.795272    477.31454  0.022807461  0.022865782            2 
 1745000   0.97690127   -7.7867698    477.51741  0.022804079  0.022859274            2 
 1746000   0.96479824   -7.7332073     478.1131  0.022819449  0.022852734            1 
 1747000   0.97520523   -7.7649357    478.50704  0.022825178  0.022846262            2 
 1748000   0.97505864   -7.7891329    478.63609  0.022818273  0.022839759            3 
 1749000   0.98799588   -7.7878313    477.76865  0.022763896  0.022833195            5 
 1750000   0.98141383   -7.7951956    477.83564  0.022754078  0.022826685            1 
 1751000   0.95844199   -7.8066384    478.06502     0.022752  0.022820073            2 
 1752000   0.97335416   -7.7707238    479.37488  0.022801317  0.022813616            3 
 1753000   0.95794719   -7.7720571    479.58036  0.022798078  0.022807109            1 
 1754000   0.95701188   -7.7718961    479.19617  0.022766827  0.022800535            3 
 1755000   0.96177981    -7.801718    478.88207   0.02273894  0.022793964            4 
 1756000   0.97055795   -7.8078726    479.07973   0.02273537  0.022787344            4 
 1757000   0.96441492   -7.7867215    478.57446  0.022698466  0.022780775            3 
 1758000   0.96063367   -7.7734719     479.2723  0.022718634  0.022774211            1 
 1759000   0.96813159   -7.7454597    479.05482  0.022695415  0.022767657            1 
 1760000   0.96654309   -7.7498017    480.57836  0.022754657  0.022761124            1 
 1761000    0.9652508    -7.749088    481.03297  0.022763248   0.02275463            4 
 1762000   0.97152953   -7.7471238    480.38983  0.022719913   0.02274821            2 
 1763000   0.98565285   -7.7542919    481.51981  0.022760437  0.022741736            2 
 1764000   0.98437716   -7.7710629    479.35753  0.022645386  0.022735285            2 
 1765000   0.97183215    -7.789928    481.04057  0.022712019   0.02272869            2 
 1766000   0.97414331   -7.7970072    480.16604  0.022657892  0.022722131            3 
 1767000   0.95444444     -7.78151    480.22396    0.0226478   0.02271554            4 
 1768000    0.9738548    -7.807569     480.4922  0.022647634  0.022708946            2 
 1769000   0.98504919   -7.7411205     480.7796   0.02264837  0.022702422            2 
 1770000   0.96883194   -7.7341792    482.75935  0.022728783  0.022695972            1 
 1771000   0.95744064   -7.7414106    481.51537  0.022657414  0.022689456            3 
 1772000   0.98451082   -7.7635071    481.59408   0.02264833  0.022683007            2 
 1773000   0.98740339   -7.7978522    480.41675   0.02258022  0.022676491            1 
 1774000   0.98636818   -7.7662515    481.28577  0.022608313  0.022670006            2 
 1775000   0.97471361   -7.7861344     482.3254  0.022644385  0.022663469            4 
 1776000   0.96470459   -7.7827357    481.50867  0.022593312  0.022656921            2 
 1777000   0.96745486   -7.7420843    483.69728  0.022683234  0.022650426            3 
 1778000   0.97598072   -7.7809215    481.70935  0.022577304  0.022643856            1 
 1779000   0.96358635   -7.7947062     482.0886  0.022582378  0.022637255           10 
 1780000   0.96986358   -7.7686646    482.10797  0.022570598  0.022630718            3 
 1781000    0.9619731   -7.7814624    482.77719  0.022589238  0.022624098            1 
 1782000   0.95989805   -7.7630811    481.06626  0.022496552  0.022617454            2 
 1783000   0.95739603   -7.7945551    481.06204  0.022483737  0.022610805            2 
 1784000    0.9648972   -7.8119076    481.90406  0.022510466  0.022604114            2 
 1785000   0.96264788   -7.7968093    482.20987  0.022512132  0.022597446            4 
 1786000   0.95088077    -7.778021    482.07088  0.022493042  0.022590786            1 
 1787000   0.96108883    -7.779207     482.2595  0.022489251  0.022584133            1 
 1788000   0.98080756   -7.7984443    482.26322  0.022476847   0.02257753            2 
 1789000   0.96282744   -7.7880549    482.70045  0.022484649  0.022570899            3 
 1790000   0.95090774   -7.8256776    482.54338  0.022464776  0.022564194            2 
 1791000   0.95973427   -7.7630133    484.14621  0.022526811  0.022557495            4 
 1792000   0.97242024   -7.7530711    483.99777  0.022507337  0.022550926            2 
 1793000   0.96723545   -7.7866623    483.55235  0.022474082  0.022544366            1 
 1794000   0.96002502   -7.7755238    484.57468  0.022509043  0.022537911            3 
 1795000   0.98412974    -7.793163    484.10289    0.0224746  0.022531415            1 
 1796000   0.97539803   -7.7833983    483.95161  0.022455067  0.022524836            2 
 1797000    0.9705759   -7.7944021    486.26008  0.022549623  0.022518341            2 
 1798000   0.97479974   -7.7990181    485.22209  0.022488974   0.02251184            3 
 1799000   0.97295324   -7.7889338    486.04405  0.022514547  0.022505317            1 
 1800000   0.99272882   -7.7753328    486.09476  0.022504387  0.022498803            2 
 1801000   0.96192011   -7.7832539    485.07751  0.022444823  0.022492254            1 
 1802000   0.96195236   -7.7645726    486.10637  0.022479947  0.022485748            3 
 1803000   0.95885968    -7.778708    485.01939  0.022417239  0.022479205            1 
 1804000   0.95928808   -7.7783054    486.42799  0.022469881  0.022472744            2 
 1805000   0.97485208   -7.7874394    486.59972  0.022465361    0.0224662       -1e+20 
 1806000   0.96547074   -7.8146914    484.57817  0.022359643  0.022459636            2 
 1807000   0.93844329    -7.773706    486.51136  0.022436421  0.022453095            1 
 1808000   0.95093692   -7.8326479    484.71579  0.022341251  0.022446552            1 
 1809000   0.97747864   -7.8438617    485.19434  0.022350946  0.022439947            1 
 1810000   0.97885391   -7.8175055    485.76267  0.022364764  0.022433402            2 
 1811000   0.97457567   -7.8056529    486.76608  0.022398587  0.022426871            3 
 1812000     0.946547   -7.8210617    486.31763  0.022365601   0.02242037            2 
 1813000   0.95365173   -7.7819612    487.23125  0.022395259   0.02241382            2 
 1814000   0.96938271   -7.8141152    487.22283  0.022382526  0.022407372            2 
 1815000   0.93704829   -7.8399525     486.9575  0.022358012  0.022400851            3 
 1816000   0.96890602   -7.7751563    487.93833  0.022390709   0.02239441            2 
 1817000   0.95005344    -7.821261     487.2773  0.022348069  0.022387968            3 
 1818000   0.96481563   -7.8062552    487.55603  0.022348553  0.022381534            2 
 1819000   0.96678678   -7.8172033    487.93898  0.022353811  0.022375196            1 
 1820000   0.97030295   -7.8042144    488.42941  0.022363984   0.02236884            2 
 1821000   0.95054136   -7.8255091    488.72851   0.02236539  0.022362524            2 
 1822000   0.96726163   -7.7832533    490.16008  0.022418591  0.022356247            2 
 1823000    0.9217027   -7.8047484    489.40182  0.022371632  0.022349968            1 
 1824000   0.94806465   -7.8033687    488.93613  0.022338091  0.022343638            3 
 1825000   0.97173679   -7.8098203    490.10018  0.022379004  0.022337264            2 
 1826000   0.96723085   -7.8613356    487.39254  0.022243179  0.022330917            1 
 1827000    0.9706717   -7.8501279    489.10789  0.022309245  0.022324452            2 
 1828000    0.9627585   -7.8051372    489.29437  0.022305542  0.022318092            1 
 1829000   0.95990514   -7.8520228    489.42799  0.022299435   0.02231176            2 
 1830000   0.97498669    -7.835105     489.9105  0.022309221  0.022305442            2 
 1831000   0.97876418    -7.808674    490.39771  0.022319211  0.022299128            2 
 1832000   0.95959244   -7.8065577    490.23597  0.022299671  0.022292853            1 
 1833000   0.95603327   -7.8016426    491.67631  0.022352988  0.022286554            2 
 1834000   0.94292432   -7.8111349    490.86882  0.022304108  0.022280193            2 
 1835000   0.94748937   -7.7962526    491.76272  0.022332549   0.02227395            2 
 1836000   0.94386932   -7.8089787     492.3295   0.02234611  0.022267728            3 
 1837000   0.97404554   -7.8028802    492.57348  0.022345014  0.022261571            2 
 1838000   0.96915107   -7.8258061    491.38459  0.022278953  0.022255378            2 
 1839000   0.95988597   -7.8174351    492.89422  0.022335247  0.022249181            2 
 1840000   0.96511032   -7.8285636    492.21468  0.022292331  0.022243037            3 
 1841000    0.9699687   -7.7923425    493.28729  0.022328774  0.022236849            1 
 1842000   0.92624164   -7.7908574      493.285  0.022316549  0.022230784            1 
 1843000   0.95390011   -7.8176597    492.01784  0.022247144    0.0222246            1 
 1844000   0.95879903   -7.7923698    492.81709  0.022271199  0.022218422            4 
 1845000   0.95537019   -7.7642886    492.69697  0.022253702  0.022212196            2 
 1846000   0.97946249   -7.7966319    493.87417  0.022294789  0.022206048            3 
 1847000   0.96499785   -7.8194316    493.60015  0.022270355  0.022199873            2 
 1848000   0.92919366   -7.8340905    492.66204  0.022216001  0.022193692            4 
 1849000   0.95689774    -7.823401    492.43194  0.022193615  0.022187453            2 
 1850000   0.96541173   -7.8251598    492.72975  0.022195034   0.02218126            1 
 1851000   0.94404161   -7.8397744     493.5507  0.022220003  0.022174997            2 
 1852000   0.93543034   -7.8276228     493.1366  0.022189372  0.022168746            1 
 1853000   0.96157677   -7.8177385     494.4518  0.022236544  0.022162416            4 
 1854000   0.95126371   -7.8342202    494.84132  0.022242058  0.022156171            4 
 1855000   0.96061198   -7.8147334    493.92589  0.022188944  0.022149975            2 
 1856000   0.94855694   -7.8218718    493.44909  0.022155581  0.022143751            2 
 1857000   0.93701871   -7.8470197    494.01064  0.022168849  0.022137456            2 
 1858000   0.94224232   -7.8155257    494.07112  0.022159631  0.022131224            2 
 1859000   0.95717472   -7.8578057    495.68116  0.022219883  0.022125051            1 
 1860000   0.94974012    -7.798838    495.83508  0.022214833  0.022118897            2 
 1861000   0.95979426   -7.7904452    496.68572  0.022240987  0.022112811            1 
 1862000   0.94717737   -7.8118817    495.31201  0.022167562  0.022106668            3 
 1863000   0.94013155   -7.8023815    495.87997  0.022181068   0.02210052            2 
 1864000   0.98014381   -7.8101707    498.17839  0.022271924  0.022094453            3 
 1865000   0.93804492   -7.8005718    497.43733  0.022226869  0.022088357            4 
 1866000   0.96464388   -7.7989748    496.03539  0.022152349  0.022082257            1 
 1867000   0.95228674   -7.8108533    497.10119  0.022188055  0.022076178            3 
 1868000   0.95517219   -7.8260863    496.07084  0.022130212  0.022070089            2 
 1869000   0.95509878   -7.8450548    495.76125  0.022104568  0.022063903            2 
 1870000   0.93759298   -7.8375613    496.03937  0.022105141   0.02205772            3 
 1871000   0.97202006    -7.852203    496.52607  0.022115004  0.022051555            2 
 1872000   0.95319291   -7.8460059    496.75981  0.022113596  0.022045411            2 
 1873000   0.95933742   -7.8429604     497.8758  0.022151441  0.022039294       -1e+20 
 1874000   0.93317492   -7.8472996    495.78764  0.022046764  0.022033083            2 
 1875000   0.95325256   -7.8251725    497.43262  0.022108116  0.022026943            2 
 1876000   0.95230209   -7.8096914    497.75676   0.02211073  0.022020824            1 
 1877000   0.95492754   -7.8091857    497.30119  0.022078724  0.022014696            2 
 1878000   0.94608385   -7.8159431    497.17292  0.022061276  0.022008577            1 
 1879000   0.94428065   -7.8232723      498.737  0.022118902  0.022002436            1 
 1880000   0.95313351   -7.8009566    498.08546  0.022078256  0.021996362            1 
 1881000    0.9374649   -7.8193836    498.55194  0.022087185  0.021990264            2 
 1882000   0.92975846   -7.8211608    498.56482  0.022076019  0.021984156            9 
 1883000   0.95017248   -7.8007217     499.5193  0.022106536  0.021978114            2 
 1884000   0.93492033    -7.793819    499.03825  0.022073525   0.02197206            1 
 1885000   0.94435868   -7.8399749     498.4891  0.022037537  0.021966008            2 
 1886000   0.94228546    -7.840233     498.6489  0.022032914  0.021959954            1 
 1887000   0.93036273   -7.8323955    498.53348   0.02201614  0.021953897            2 
 1888000   0.94988757   -7.8485381    500.79282  0.022104203  0.021947833            2 
 1889000   0.95671289   -7.8046747    500.16032  0.022064599  0.021941789            2 
 1890000   0.97986825   -7.8339511    499.94893  0.022043604  0.021935824            2 
 1891000   0.93463517   -7.8193392    499.95097  0.022032037  0.021929768            1 
 1892000   0.94189429   -7.8294287    499.29288  0.021991406  0.021923646            1 
 1893000   0.95762848   -7.8398206    501.07476   0.02205823  0.021917538            2 
 1894000   0.95972111   -7.8127795    500.74794  0.022032205  0.021911496            4 
 1895000   0.95863277   -7.8101941     500.9945   0.02203142  0.021905441            2 
 1896000   0.94826369   -7.8409614     500.3847  0.021992998  0.021899382            2 
 1897000   0.95990033   -7.8261688    501.20709  0.022017532  0.021893342            1 
 1898000   0.94179885   -7.8005117    500.35459  0.021968501   0.02188731            1 
 1899000   0.96446753   -7.8563522    499.92138  0.021937923  0.021881252            8 
 1900000   0.92615799   -7.8135202     500.3205  0.021943882  0.021875187            3 
 1901000   0.92947383   -7.8390483    500.09447   0.02192243  0.021869049            3 
 1902000   0.94515256   -7.8111791    501.55903  0.021975071  0.021862934            2 
 1903000   0.94048487    -7.874502    500.18749  0.021903463  0.021856797            7 
 1904000   0.95945049   -7.8298117    499.99312  0.021883452  0.021850631            5 
 1905000   0.94488109   -7.8382557     501.2644  0.021927577  0.021844471            4 
 1906000   0.96403967   -7.8279763    500.76561  0.021894264  0.021838363            3 
 1907000   0.94105595   -7.8266834    500.87507  0.021887566  0.021832298            1 
 1908000   0.93882273   -7.8501961    500.34493  0.021852941  0.021826223            3 
 1909000   0.93920832   -7.8508501    501.62509  0.021897376  0.021820084            3 
 1910000   0.95788687   -7.8574336    502.32584  0.021916485  0.021813932            1 
 1911000   0.93040855   -7.8511549    501.94778   0.02188853  0.021807834            2 
 1912000    0.9671978   -7.8754704    500.29333  0.021804974  0.021801698            2 
 1913000   0.94103802   -7.8526123    502.94338  0.021909016   0.02179561            4 
 1914000   0.97311709   -7.8706758    502.07498  0.021859761  0.021789589            5 
 1915000   0.95641422   -7.8779522    500.91946  0.021798062  0.021783508            1 
 1916000   0.95553643    -7.871514    501.54136  0.021813734  0.021777402            4 
 1917000   0.94400602   -7.8452663    503.81956  0.021901389  0.021771316            2 
 1918000   0.95512337   -7.8557926    503.00707  0.021854669  0.021765157            2 
 1919000   0.93292695   -7.8548431    503.28786  0.021855474   0.02175909            3 
 1920000   0.94664895   -7.8482514     503.8125  0.021866862  0.021753014            2 
 1921000   0.92234356   -7.8306433    504.89429  0.021902407  0.021746924            1 
 1922000   0.93810992   -7.8656722    502.90792  0.021804887  0.021740975            3 
 1923000   0.93868793   -7.8856718    504.36845  0.021856841  0.021735031            3 
 1924000     0.947279   -7.8522998     505.0514  0.021875061  0.021728993            1 
 1925000   0.95389538   -7.8495901    504.17638  0.021825817  0.021722964            4 
 1926000   0.93738957   -7.8516127    504.06661  0.021809736  0.021716967            2 
 1927000   0.96275335   -7.8449767    504.00856  0.021795907  0.021710978            2 
 1928000    0.9471653   -7.8489691    505.17329  0.021834945  0.021704929            4 
 1929000   0.95163558   -7.8477445    504.30818  0.021786253   0.02169893            3 
 1930000   0.96582662   -7.8641586    503.68463  0.021748041  0.021692865            2 
 1931000    0.9274571   -7.8567131    504.34387  0.021765228  0.021686778            3 
 1932000   0.94440811   -7.8756492    504.81617  0.021774335  0.021680678            2 
 1933000   0.92542801   -7.8825169    504.61649  0.021754462  0.021674545            5 
 1934000   0.93356318   -7.8272532       506.31  0.021816184  0.021668479            1 
 1935000   0.93424639   -7.8456128     505.1498  0.021754944  0.021662483            2 
 1936000    0.9493998   -7.8443507    505.82592   0.02177281  0.021656486            1 
 1937000   0.92698499   -7.8063472    505.38991  0.021742812  0.021650448            2 
 1938000   0.94252119   -7.8171265    504.78691  0.021705663  0.021644448            1 
 1939000    0.9329467   -7.8454433    505.96603  0.021745145  0.021638374            4 
 1940000   0.94131397   -7.8510608    505.69452  0.021722273   0.02163238            3 
 1941000   0.92713121   -7.8803273    505.03519  0.021682775  0.021626301            4 
 1942000   0.93688541   -7.8803428    506.09354  0.021717025  0.021620205            5 
 1943000   0.93946214   -7.8632519    506.25354   0.02171271   0.02161411            7 
 1944000   0.95216753    -7.839908    507.04651  0.021735533   0.02160809            2 
 1945000   0.95130122   -7.8790979    505.41389  0.021654408  0.021602112            2 
 1946000   0.93459544   -7.8422154    507.84235  0.021747274  0.021596067            2 
 1947000   0.93695306   -7.8759178    505.73466  0.021645894  0.021590019            2 
 1948000   0.92211258   -7.8370657     505.9371  0.021643442  0.021583962            3 
 1949000   0.93728621   -7.8426419    507.76789  0.021710616  0.021577995            1 
 1950000   0.92108781   -7.8650124    505.83337  0.021616811  0.021571993            4 
 1951000    0.9301782   -7.8112164    508.15149  0.021704745  0.021565946            7 
 1952000   0.96359928   -7.8357382    507.19174  0.021652653  0.021559875            2 
 1953000   0.95066919   -7.8444675     506.1374  0.021596578  0.021553824            4 
 1954000   0.92463474   -7.8591835    507.78815  0.021655926  0.021547739            4 
 1955000   0.93696836   -7.8588308    506.69364  0.021598194  0.021541645            2 
 1956000   0.94958027    -7.849487    508.45715  0.021662285  0.021535545            4 
 1957000     0.934476   -7.8886727    505.32421  0.021517808  0.021529428            3 
 1958000   0.93979229    -7.870765    507.61842  0.021604461   0.02152326            1 
 1959000   0.93281967   -7.8480175    508.80729  0.021644006  0.021517149            2 
 1960000   0.93297583   -7.8923796    508.31476  0.021612022  0.021510975            1 
 1961000   0.94386906    -7.881094    507.38342  0.021561424  0.021504852            2 
 1962000   0.95497447   -7.8825963     507.4241  0.021552162  0.021498677            1 
 1963000   0.92100629   -7.9094786    506.82834  0.021515891   0.02149256            3 
 1964000   0.92972113   -7.8783365    509.74343  0.021628625  0.021486462            2 
 1965000   0.93348067   -7.8781631    509.34391  0.021600675  0.021480343            1 
 1966000    0.9265479   -7.8465229    510.20795  0.021626312  0.021474318            2 
 1967000   0.93940492   -7.8509214    509.48958  0.021584883  0.021468305            1 
 1968000   0.95172967   -7.8707779    510.48395  0.021616021  0.021462265            5 
 1969000   0.95310643   -7.8846843    509.15286  0.021548707  0.021456265            2 
 1970000   0.96205836   -7.8858446    510.03547  0.021575105  0.021450214            1 
 1971000   0.95120637     -7.85032    509.64912  0.021547823  0.021444174            2 
 1972000   0.93363891   -7.8846178    509.35105    0.0215243  0.021438199            2 
 1973000   0.93609369   -7.8472017    511.11405  0.021587855  0.021432243            2 
 1974000   0.92956464   -7.8245738    511.69227  0.021601329  0.021426311            4 
 1975000   0.94804901   -7.8604849    509.61951  0.021502933  0.021420386            3 
 1976000   0.93332254   -7.8159011    511.27812  0.021561999  0.021414464            3 
 1977000   0.96536262   -7.8502674    510.51371  0.021518871    0.0214086            2 
 1978000   0.95991386   -7.8838432    510.30918  0.021499376  0.021402687            2 
 1979000   0.94140723    -7.853238    511.15753  0.021524235   0.02139674            4 
 1980000    0.9188911   -7.8619679    511.53209  0.021529128   0.02139088            4 
 1981000   0.96742616   -7.8683973     513.2778  0.021591696   0.02138508            2 
 1982000   0.92372304   -7.8603879    512.23583  0.021536993  0.021379224            5 
 1983000   0.95325648   -7.8715646     512.8848  0.021553404  0.021373391            2 
 1984000   0.94997178   -7.8716127    513.22089  0.021556657  0.021367458            2 
 1985000   0.91896152   -7.8887849    511.66171  0.021480341  0.021361615            1 
 1986000   0.94784477   -7.8751449    513.42159   0.02154337  0.021355763            1 
 1987000   0.94495033   -7.8568278    512.66448  0.021500775  0.021349863            3 
 1988000   0.93862743   -7.9087463    511.95626  0.021460272  0.021343955            6 
 1989000   0.92707372   -7.8830164    511.89067  0.021446735  0.021337996            2 
 1990000   0.90754159   -7.8917137    511.67827  0.021427063  0.021332008            2 
 1991000   0.95830827   -7.8838669    512.45638  0.021448869  0.021325979            1 
 1992000   0.92667783   -7.8774332    512.78028  0.021451652  0.021319969            1 
 1993000   0.94461184   -7.8501157    513.36128  0.021465181  0.021313974            4 
 1994000   0.93835253   -7.8451566    513.46035  0.021458557  0.021308075            2 
 1995000   0.93372684   -7.8383928    513.80585  0.021462232  0.021302123            3 
 1996000   0.93227361   -7.8524682     513.6071  0.021443182  0.021296139            3 
 1997000   0.94853841   -7.8844203    514.79608   0.02148206  0.021290163            1 
 1998000   0.93808079   -7.9025139    511.54044  0.021335521  0.021284155            1 
 1999000   0.91757283   -7.8817009    513.48908  0.021406081  0.021278223            1 
 2000000    0.9389191   -7.8793109     513.7972  0.021408217  0.021272267            1 
 2001000   0.92535655   -7.8825885    514.04196  0.021407711   0.02126634            1 
 2002000   0.94201417    -7.886039     514.0002   0.02139528   0.02126043            2 
 2003000   0.92992183   -7.8597858    514.07799  0.021387834  0.021254516            3 
 2004000   0.94663522   -7.8380672     515.2724   0.02142683  0.021248584            2 
 2005000   0.93253955   -7.8887426    514.46202  0.021382461  0.021242674            2 
 2006000   0.92984633   -7.8833058    515.01375  0.021394722  0.021236729            4 
 2007000   0.93536394   -7.8483441     515.1238  0.021388631  0.021230825            3 
 2008000   0.93304768   -7.8905063    514.26324  0.021342266  0.021224923            3 
 2009000   0.92241798   -7.8868721    514.80602  0.021354157  0.021219042            3 
 2010000   0.92734351   -7.8936785    514.30742  0.021322861  0.021213129            2 
 2011000   0.94549012   -7.9004703    515.93448  0.021379682   0.02120723            6 
 2012000   0.92189701   -7.8876128    514.90651  0.021326479  0.021201371            1 
 2013000    0.9310267   -7.9093487    516.27552  0.021372559  0.021195522            1 
 2014000   0.94383888   -7.8997523    517.07331  0.021394956  0.021189605            3 
 2015000   0.91047869   -7.8842911    515.15596  0.021305044  0.021183707            3 
 2016000   0.92192401   -7.8766481    514.89312  0.021283611   0.02117777            2 
 2017000   0.92669434    -7.892538    515.83928   0.02131215  0.021171849            4 
 2018000   0.91824629    -7.941106    515.89991  0.021304093  0.021165878            1 
 2019000   0.92913532   -7.8676045    515.21888  0.021265432   0.02115994            6 
 2020000   0.94694194   -7.8856464    516.93798  0.021325824  0.021154069            3 
 2021000   0.94053053   -7.8517177    515.75422  0.021266461  0.021148218            3 
 2022000   0.89351668   -7.8667342    517.13853  0.021312996  0.021142321            2 
 2023000   0.93343388   -7.8965621    516.12545  0.021260729  0.021136421            2 
 2024000   0.93528427   -7.8925602    517.08251  0.021289629  0.021130513            2 
 2025000    0.9150899   -7.8626942    516.80698  0.021267777   0.02112458            2 
 2026000   0.93345651   -7.8961434    517.15069  0.021271417  0.021118605            2 
 2027000   0.95317578   -7.8923488    516.07257    0.0212166  0.021112639            5 
 2028000   0.90802604   -7.8905955    516.25162  0.021213495  0.021106605            8 
 2029000   0.93915718   -7.9065371    516.36119   0.02120754  0.021100649            6 
 2030000   0.90744848   -7.8808999    518.12648   0.02126956  0.021094734            2 
 2031000   0.94290302   -7.8742854    517.95854  0.021252197  0.021088861            2 
 2032000   0.93475108   -7.8652804    518.34953  0.021257773  0.021082953            3 
 2033000   0.90883802   -7.8661772    518.02341  0.021233949  0.021077091            4 
 2034000   0.93698472   -7.8947932    517.58833  0.021205684  0.021071206            2 
 2035000   0.93199083   -7.8762915    518.69446  0.021240559  0.021065364            1 
 2036000   0.93585212   -7.8920508    518.21999  0.021210707  0.021059455            1 
 2037000   0.92510618   -7.8808152    518.32857  0.021204736  0.021053559            3 
 2038000   0.91510555   -7.8931311     519.1962  0.021229808  0.021047729            4 
 2039000   0.92839602   -7.8910571    518.14496  0.021176433  0.021041895            2 
 2040000   0.91164664   -7.9039466    520.08875  0.021245456  0.021036042            3 
 2041000   0.93988726   -7.9027882    519.76043  0.021221641  0.021030186            5 
 2042000   0.92867632   -7.9273231    520.01042   0.02122145  0.021024315            3 
 2043000    0.9127618   -7.8794445    519.21016  0.021178421  0.021018503            3 
 2044000   0.92555345   -7.8769669    520.08997  0.021203929  0.021012651            3 
 2045000   0.92109315    -7.849818    520.11109  0.021194421  0.021006936            1 
 2046000   0.92506494   -7.8790236     519.5345  0.021160578  0.021001105            4 
 2047000     0.930012   -7.8880671    520.87385  0.021204765  0.020995272            3 
 2048000    0.9220004   -7.9116815    519.17255  0.021125185  0.020989335            2 
 2049000   0.93011512   -7.9221434    519.58272  0.021131557  0.020983353            5 
 2050000   0.92687478   -7.9119721    518.16331  0.021063549  0.020977443            2 
 2051000   0.92640669   -7.9204113    519.96132  0.021126333  0.020971417            4 
 2052000   0.94080745   -7.9103613    520.54234  0.021139634  0.020965518            4 
 2053000   0.92575275   -7.9319209    520.08484  0.021110766  0.020959578            3 
 2054000   0.94970979   -7.9213155      519.441  0.021074367  0.020953675            4 
 2055000   0.91415982   -7.9411602    518.73446  0.021035461  0.020947757            2 
 2056000   0.95560341   -7.9136798    519.90629  0.021072726  0.020941796            2 
 2057000   0.93148503   -7.9544589    520.74888  0.021096616  0.020935854            2 
 2058000   0.90985738   -7.9366373    519.81699  0.021048631  0.020929862            2 
 2059000   0.95649983   -7.9540067    518.74955  0.020995206  0.020923816            2 
 2060000   0.90884914   -7.8871369    521.15724  0.021082413  0.020917832            3 
 2061000   0.92123089   -7.9317934    521.48692  0.021085514  0.020911895            2 
 2062000   0.92653668   -7.9286052    519.79054  0.021006731   0.02090596            2 
 2063000   0.93718441   -7.8927371    520.13225  0.021010351  0.020899997            3 
 2064000   0.91983549   -7.8771792    521.91388  0.021072104  0.020894055            2 
 2065000   0.92782488   -7.8738144    520.09808  0.020988623  0.020888148            4 
 2066000   0.93222805    -7.862231     521.2084   0.02102325  0.020882232            2 
 2067000    0.9125573    -7.895722    521.35914  0.021019156  0.020876284            2 
 2068000   0.93183239   -7.9312996    520.94126  0.020992153  0.020870306            2 
 2069000   0.91420844   -7.9124637    520.62594  0.020969307  0.020864321            1 
 2070000   0.91427554   -7.9111762    521.65435  0.021000578  0.020858381            2 
 2071000   0.92231682   -7.9029968    522.56232  0.021026972  0.020852495            2 
 2072000   0.91500846   -7.9358322    521.69974  0.020982132  0.020846651            2 
 2073000   0.93336464   -7.9027582     521.3221   0.02095683   0.02084077            5 
 2074000   0.91824096   -7.9310206    521.70031  0.020961922  0.020834895            2 
 2075000   0.91485149   -7.9480495    521.92569  0.020960871  0.020828933            3 
 2076000   0.91956109   -7.9119816    522.17786  0.020960897   0.02082301            2 
 2077000   0.94375711   -7.9151051     521.2965  0.020915443  0.020816967            1 
 2078000   0.90828167   -7.9503979    522.00473   0.02093378  0.020810998            4 
 2079000   0.90075053   -7.9119846    521.52144  0.020904339   0.02080501            4 
 2080000   0.93571441   -7.9306422    521.20091  0.020881447  0.020799038            2 
 2081000   0.89864939   -7.9018635    523.04852    0.0209454  0.020793031            2 
 2082000   0.91842688   -7.9001017    522.09517  0.020897181  0.020787081            1 
 2083000   0.91582134   -7.8963166    522.57578  0.020906376  0.020781118            2 
 2084000   0.90282975   -7.9507565    523.81376  0.020945848  0.020775098            1 
 2085000   0.92836518    -7.916251    521.88008  0.020858516  0.020769086            2 
 2086000    0.9203586   -7.8983204    522.51939  0.020874057  0.020763132            3 
 2087000   0.92353666   -7.9153682    523.19106  0.020890874  0.020757217            2 
 2088000   0.92416909   -7.9182455    523.06167  0.020875705  0.020751337            2 
 2089000   0.91964881   -7.9127888    523.63343   0.02088852  0.020745433            3 
 2090000   0.91401273   -7.8764808    524.00237  0.020893236  0.020739456            2 
 2091000   0.92199138   -7.8801454    524.53452  0.020904452  0.020733522            1 
 2092000   0.91459083   -7.9486435    523.32327  0.020846211  0.020727555            7 
 2093000   0.92550841   -7.9405879    522.62152   0.02080831  0.020721544            1 
 2094000   0.92079912   -7.9319883    522.46676  0.020792214  0.020715506            1 
 2095000   0.91226575   -7.9025835    525.09417  0.020886801  0.020709576            1 
 2096000   0.90152256   -7.9210192    523.80732  0.020825673  0.020703627            2 
 2097000   0.93934614   -7.9011413    522.99399   0.02078342  0.020697697            2 
 2098000   0.92541098   -7.9541496    524.01237  0.020813965  0.020691715            4 
 2099000   0.90848469   -7.9320832    524.11161  0.020807988   0.02068577            3 
 2100000   0.92152585   -7.9157502    526.22374  0.020881895   0.02067988            1 
 2101000   0.93395257   -7.9045918    526.19973  0.020871003  0.020673994            2 
 2102000   0.92554267   -7.9209965    525.24532  0.020823237  0.020668164            3 
 2103000   0.92381491   -7.9313454    525.44051   0.02082107  0.020662307            3 
 2104000   0.91011661   -7.9351594    525.40133  0.020809622  0.020656414            1 
 2105000   0.92429237   -7.9507884    524.57813  0.020767147   0.02065058            4 
 2106000   0.92055332   -7.9704203    523.95065  0.020732457  0.020644619            2 
 2107000    0.9171358   -7.9382933     524.8204  0.020757016  0.020638677            2 
 2108000   0.90099209    -7.952863    524.67234  0.020741317  0.020632773            2 
 2109000   0.90909991   -7.9373197    525.50341   0.02076432  0.020626902            2 
 2110000   0.91047876   -7.9384456    526.72438    0.0208027  0.020621066            1 
 2111000    0.9370751   -7.9160131    526.49553  0.020783812  0.020615245            1 
 2112000   0.91343006   -7.9205797    527.77011  0.020824263   0.02060944            2 
 2113000   0.90707831   -7.9012277    526.34389  0.020758159  0.020603685            2 
 2114000   0.90309175   -7.9250091    526.91141  0.020770711  0.020597911            2 
 2115000   0.91157038   -7.9262589    527.57753  0.020787137  0.020592143            1 
 2116000   0.90947521   -7.9241039     526.9584   0.02075293  0.020586358            2 
 2117000   0.90016685   -7.9265706    527.40784  0.020760819  0.020580546            3 
 2118000   0.91878552   -7.9175942    527.48228  0.020753946  0.020574766            2 
 2119000   0.92880452   -7.9492012    527.11248  0.020729608  0.020568957            2 
 2120000   0.93155441   -7.9561014    527.03413   0.02071675  0.020563106            1 
 2121000   0.91002235   -7.9378391    527.64275  0.020730895  0.020557254            2 
 2122000   0.88563757   -7.9212776    528.18561  0.020742445  0.020551422            2 
 2123000   0.92267785   -7.9132767    528.37488  0.020740104  0.020545669            2 
 2124000   0.90325251   -7.9250579    527.80001  0.020707785  0.020539868            4 
 2125000   0.90800378   -7.8973553    529.05847  0.020747391  0.020534081            2 
 2126000   0.91582717   -7.9182047    529.13775   0.02074074  0.020528357            1 
 2127000   0.92831228   -7.9365496    529.05117  0.020727596  0.020522648            2 
 2128000   0.89569549   -7.9260577    528.13458  0.020681962  0.020516857            4 
 2129000   0.91227341   -7.9548773    528.51735   0.02068723  0.020511011            5 
 2130000   0.92025172   -7.9668131    529.46015  0.020714403  0.020505154            4 
 2131000   0.91185789   -7.9450609    528.70875  0.020675299   0.02049932            2 
 2132000   0.90332058   -7.9321778    528.83907  0.020670695  0.020493533            1 
 2133000    0.9141288   -7.9166994     529.2862  0.020678473   0.02048775            1 
 2134000   0.90626731   -7.9470989    527.09718  0.020583301  0.020481938            2 
 2135000   0.91950453    -7.964938    527.67742  0.020596308   0.02047611            1 
 2136000   0.88995144   -7.9365668    528.13827  0.020604645  0.020470268            3 
 2137000   0.91478019   -7.9065194    529.94945  0.020665631  0.020464422            6 
 2138000   0.91164938   -7.9715195    527.53531  0.020561869  0.020458592            3 
 2139000   0.91334048   -7.9300957    530.00113  0.020648322  0.020452759            1 
 2140000   0.88915708   -7.9327931    529.58221   0.02062236  0.020446968            2 
 2141000   0.89940882   -7.9133018    529.67546  0.020616358  0.020441199            3 
 2142000   0.90259805   -7.9113705    531.18079  0.020665297  0.020435471            1 
 2143000   0.89537888    -7.950561    528.80719  0.020563353  0.020429659            1 
 2144000   0.91409778   -7.9142598      529.437  0.020578241  0.020423786            3 
 2145000   0.90545205   -7.9048454    531.32337  0.020641933  0.020417934            2 
 2146000   0.90686758    -7.947323    528.68101  0.020529707  0.020412107            2 
 2147000   0.93625808   -7.9539145    528.85407  0.020526862  0.020406234            2 
 2148000    0.8874665   -7.9331962    531.36372  0.020614669  0.020400344            3 
 2149000    0.8976393   -7.9406859    529.56368  0.020535276  0.020394508            3 
 2150000   0.88943107   -7.9460006     530.3771  0.020557252  0.020388647            2 
 2151000   0.92084336   -7.9584858    530.83256   0.02056534   0.02038276            2 
 2152000   0.89972123   -7.9046696    531.92936  0.020598256  0.020376902            2 
 2153000   0.91078039   -7.9194198    530.93872  0.020550345   0.02037109            2 
 2154000   0.90840724    -7.959354    529.20188   0.02047361  0.020365231            3 
 2155000     0.907179   -7.9565754     531.0139   0.02053418   0.02035942            2 
 2156000    0.9041735   -7.9542564    530.28113  0.020496333   0.02035352            2 
 2157000   0.90236719   -7.9282786    532.00188   0.02055331  0.020347695            3 
 2158000   0.91318273   -7.9644265      531.316    0.0205173  0.020341871            2 
 2159000   0.91954548   -7.9451851    533.39324  0.020587974  0.020336061            1 
 2160000   0.90465882   -7.9357015    532.04856  0.020526565  0.020330283            4 
 2161000   0.90140713   -7.9937752    530.88188  0.020472076  0.020324459            1 
 2162000   0.91431309   -7.9064937    531.32459  0.020479671   0.02031858            2 
 2163000   0.91119095   -7.9166615    532.56328  0.020517926  0.020312716            1 
 2164000   0.89916008   -7.9483337    532.17332  0.020493427  0.020306907            4 
 2165000   0.90254879   -7.9341462    531.30878  0.020450684  0.020301099            3 
 2166000    0.8961887   -7.9409164    532.60441   0.02049109  0.020295307            1 
 2167000   0.90584377   -7.9904804    531.27087  0.020430352  0.020289478            2 
 2168000    0.9030026    -7.970916    531.26067  0.020420536  0.020283632            3 
 2169000   0.91147643   -7.9318949    531.90973  0.020436058   0.02027777            5 
 2170000   0.90980713   -7.9490095    532.57286  0.020452107  0.020271935            2 
 2171000   0.90133319   -7.9684343    532.20199  0.020428451  0.020266117            2 
 2172000   0.88896583   -7.9556847    532.87096  0.020444712  0.020260274            1 
 2173000   0.90503963   -7.9539573    533.12163  0.020444916  0.020254426            3 
 2174000    0.8916079   -7.9953024    531.59261  0.020376901  0.020248598            6 
 2175000   0.88486054   -7.9513442    533.56662  0.020443165  0.020242792            1 
 2176000    0.9233412   -7.9647019     533.1522    0.0204179  0.020237017            3 
 2177000   0.89845912   -7.9405429    533.60337  0.020425791  0.020231234            6 
 2178000   0.92622255   -7.9639327    532.54288  0.020375837  0.020225451            1 
 2179000   0.88152388   -7.9827405    532.91811  0.020380836  0.020219676            4 
 2180000   0.88753104   -7.9573551    534.35663  0.020426477  0.020213892            1 
 2181000   0.88728212    -7.916773    534.16903  0.020409943  0.020208148            2 
 2182000   0.89452394   -7.9271796    533.65952  0.020381131  0.020202438            2 
 2183000    0.9016544   -7.9473251     534.5005  0.020403897   0.02019671            3 
 2184000   0.90308055    -7.974535    534.73993  0.020403691  0.020190978            6 
 2185000   0.88274338   -7.9501962    535.78184   0.02043409   0.02018526            1 
 2186000   0.92867013   -7.9654576    535.74328  0.020423272  0.020179497            2 
 2187000   0.89267196    -7.950581    534.56474  0.020369027   0.02017374            2 
 2188000    0.9041427   -7.9855677    533.04955  0.020302009     0.020168            7 
 2189000   0.91165346   -7.9501039    535.08982  0.020370406  0.020162232            3 
 2190000   0.89208456   -7.9701695    535.03529  0.020359029  0.020156496            3 
 2191000   0.88000027   -7.9343121    535.48914  0.020366999  0.020150841            2 
 2192000   0.90293342   -7.9636411    535.49556  0.020357952  0.020145173            2 
 2193000   0.90045503   -7.9402847    535.60866  0.020352966  0.020139496            2 
 2194000   0.92412943   -7.9250474    535.83357  0.020352232  0.020133828            3 
 2195000   0.90116085   -7.9277149    536.32628  0.020361666  0.020128166            1 
 2196000   0.89168966   -7.9271741    535.74867  0.020330475  0.020122412            3 
 2197000   0.89119912   -7.9534082    535.59706   0.02031547   0.02011665            1 
 2198000   0.90173993    -7.969657    535.30106  0.020295005  0.020110937            2 
 2199000   0.88649992   -7.9771278    535.91784   0.02030915   0.02010518           17 
 2200000   0.88641403   -7.9895775    534.56588  0.020248708  0.020099428            3 
 2201000   0.91941994    -7.965037    535.26578  0.020266007  0.020093663            3 
 2202000   0.90680019   -7.9875312    535.96649  0.020283322  0.020087927            3 
 2203000     0.909893   -7.9785397    537.25227  0.020322752  0.020082213            2 
 2204000   0.88813125   -7.9711098    535.65232  0.020253037  0.020076446            2 
 2205000   0.89176799   -7.9861756    536.22338  0.020265434  0.020070631            1 
 2206000   0.89583505   -7.9834911    536.03093  0.020248977  0.020064877            4 
 2207000   0.88897723   -8.0047842    536.22552   0.02024715  0.020059119            2 
 2208000   0.91712975   -7.9325787    536.00044  0.020229485  0.020053393            4 
 2209000   0.89085797   -7.9583464    536.61269  0.020243424  0.020047726            2 
 2210000   0.90152925   -7.9801428    535.64585  0.020197807     0.020042            3 
 2211000   0.89993732   -7.9581964    538.27455  0.020287749  0.020036345            1 
 2212000   0.88468162   -7.9531362    537.59265  0.020252888  0.020030678            2 
 2213000   0.89279596    -7.964134    537.49312  0.020239988  0.020024998            3 
 2214000   0.90699575   -7.9522078    537.67947   0.02023786    0.0200193            2 
 2215000   0.89246454   -7.9610715    538.14205  0.020246127   0.02001358            4 
 2216000   0.89066055   -7.9471907    538.13289  0.020236646  0.020007838            1 
 2217000   0.89390432   -7.9710868      536.933  0.020182416  0.020002103            2 
 2218000   0.89611943    -7.994729    537.44409  0.020192519  0.019996336            1 
 2219000   0.91413029   -7.9481478    537.83628  0.020198148  0.019990623            3 
 2220000   0.88555262    -7.958979    537.15753  0.020163571  0.019984899            1 
 2221000    0.8910567   -8.0114449    538.19625  0.020193466  0.019979146            3 
 2222000    0.8922479   -7.9870042    537.12805  0.020144316  0.019973424            2 
 2223000   0.91734367   -7.9830984    537.93405  0.020165469  0.019967663            3 
 2224000   0.89484201    -7.971775     537.6721  0.020146586  0.019961887            2 
 2225000   0.88946988   -7.9614783    538.81152  0.020180207  0.019956135            3 
 2226000   0.90217554   -7.9936282    537.04551  0.020105028   0.01995038            4 
 2227000   0.91494652   -7.9833575    539.22947  0.020177723  0.019944641            2 
 2228000   0.89367282   -7.9994388    538.30903   0.02013424   0.01993897            5 
 2229000   0.91886226   -7.9720545    538.68055  0.020139096  0.019933332            3 
 2230000    0.8942048   -7.9732473    539.68734  0.020167688  0.019927651            1 
 2231000   0.88991119   -7.9842305    538.38783  0.020110109  0.019921978            1 
 2232000   0.90506781   -7.9809874    539.72841   0.02015115  0.019916391            1 
 2233000   0.88942629   -7.9531203     541.0136  0.020190088  0.019910829            2 
 2234000   0.91115146   -7.9613988    540.10118  0.020147015  0.019905227            3 
 2235000    0.8966282   -7.9935705    540.11424  0.020138488  0.019899605            3 
 2236000   0.90122857   -7.9838911    538.54612  0.020071039  0.019893998            1 
 2237000   0.90097661   -7.9711138    539.49837   0.02009754  0.019888378            2 
 2238000   0.88067757   -7.9782858    539.73843  0.020097499  0.019882733            3 
 2239000   0.91639461   -7.9618442    540.93023   0.02013288  0.019877086            1 
 2240000   0.88708141   -7.9790997    540.72926  0.020116416  0.019871493            5 
 2241000    0.8963967   -7.9752753    540.96363  0.020116155  0.019865852            2 
 2242000   0.89232315   -7.9771646    541.81495  0.020138825  0.019860293            3 
 2243000   0.90091329    -7.994744    540.75946  0.020090632  0.019854682            3 
 2244000   0.90423012   -7.9897819    539.57233  0.020037594  0.019849059            5 
 2245000   0.89283382   -8.0264701    539.95726  0.020042957  0.019843378            4 
 2246000   0.90964434   -8.0065196    539.76062  0.020026737  0.019837689            3 
 2247000   0.89077415   -8.0026465    541.12671  0.020068488  0.019832018            2 
 2248000   0.89085846   -8.0105891    540.49761   0.02003624  0.019826297            2 
 2249000   0.90218293   -7.9639543    539.95664  0.020007286  0.019820629            7 
 2250000   0.90832317     -8.00202    540.46662  0.020017282  0.019814931            1 
 2251000   0.90201518   -8.0135784    540.06146  0.019993391  0.019809259            2 
 2252000   0.90764236   -8.0202719    541.21375  0.020027152  0.019803564            1 
 2253000   0.89517929   -7.9470192    540.98473  0.020009792  0.019797861            1 
 2254000   0.91710233   -7.9917067    540.54572  0.019984683  0.019792174            3 
 2255000   0.88956229   -7.9760509    541.82409  0.020023063  0.019786496            3 
 2256000   0.90054165    -7.999394     540.3789  0.019960804  0.019780791            2 
 2257000   0.88744933   -7.9819396    541.88044  0.020007401  0.019775113            2 
 2258000   0.91030342   -7.9515235    541.75495  0.019993909  0.019769406            3 
 2259000   0.86789541   -8.0026772    540.03108  0.019921465  0.019763679            1 
 2260000   0.87952635   -8.0052571    540.48184  0.019929271  0.019757952            1 
 2261000   0.89393985   -8.0023293    541.61468   0.01996221  0.019752173            2 
 2262000   0.87019381   -8.0008475    541.25466  0.019940122  0.019746399            2 
 2263000   0.88740849   -7.9934971    540.63597  0.019908527  0.019740617            2 
 2264000   0.89564627   -8.0178018    540.84325  0.019907363  0.019734831            1 
 2265000   0.89066754   -7.9912867     540.2012  0.019874952  0.019729088            1 
 2266000   0.88462009   -8.0202417    541.44301  0.019911849  0.019723317            3 
 2267000   0.90534427   -8.0089884    542.46398  0.019940596   0.01971756            3 
 2268000   0.89368733   -8.0070861     542.1945  0.019921903   0.01971182            1 
 2269000   0.89035255   -8.0122569    541.88118  0.019901615  0.019706149            2 
 2270000    0.8941395    -7.968983    542.20353  0.019904682  0.019700452            2 
 2271000   0.88134618   -8.0022995    542.62319  0.019911316  0.019694718            2 
 2272000   0.90088441   -8.0396854    540.63145  0.019829499  0.019688975            3 
 2273000   0.88398194    -7.980339    543.16105  0.019913516  0.019683281            3 
 2274000    0.8899181   -7.9965609    543.49904  0.019917145  0.019677555            2 
 2275000   0.89795364     -8.04683    541.38791  0.019831059  0.019671834            2 
 2276000   0.89083227   -8.0511386    541.57051  0.019829032  0.019666068            3 
 2277000   0.88860255   -8.0164152    542.92979   0.01987007  0.019660292            2 
 2278000   0.88896866   -8.0055974    541.36127  0.019803968  0.019654544            1 
 2279000   0.89051043   -8.0162885    542.41102  0.019833663   0.01964883            1 
 2280000   0.88869615   -8.0002037     542.6548  0.019833874  0.019643133            2 
 2281000   0.88397564    -8.005632    543.13868  0.019842857  0.019637429            1 
 2282000   0.87944886   -7.9898533    543.85488  0.019860316  0.019631782            1 
 2283000   0.88242902   -8.0143803    543.92061  0.019854016   0.01962613            9 
 2284000   0.88542816   -7.9814825    544.80549  0.019877608  0.019620438            4 
 2285000   0.89354194   -8.0116523    542.60627  0.019788704  0.019614782            2 
 2286000   0.88154071   -7.9594518    544.11845  0.019835172  0.019609103            4 
 2287000    0.8787839   -8.0096521    544.14271  0.019827383  0.019603425            1 
 2288000    0.8750951   -7.9652767    544.79291  0.019842399  0.019597762            1 
 2289000   0.90493555   -8.0072472    542.93488  0.019766087  0.019592056            1 
 2290000   0.86655428   -8.0177731    544.03691  0.019797559  0.019586355            2 
 2291000    0.9058362   -8.0132206    543.73441  0.019777914  0.019580643            4 
 2292000   0.88515488   -8.0111713    542.01246  0.019706677  0.019574923            2 
 2293000   0.90592919   -8.0219524    542.80273  0.019726804  0.019569183            4 
 2294000   0.88821158   -7.9838275    544.11318  0.019765809  0.019563407            3 
 2295000   0.90958177   -7.9876209    544.77052  0.019781064  0.019557629            3 
 2296000   0.88611409   -8.0061918    543.96709  0.019743289  0.019551858            4 
 2297000    0.8827905   -7.9788617    543.22789  0.019707876  0.019546049            4 
 2298000   0.87638666   -7.9965143    544.09015  0.019730568  0.019540273            3 
 2299000   0.86749999   -8.0111892    543.83651  0.019712792  0.019534431            3 
 2300000   0.86979691   -8.0238189    541.52471  0.019620461  0.019528529            1 
 2301000   0.88617806   -8.0281984    541.89194  0.019625233  0.019522628            2 
 2302000   0.85738687   -8.0278629    542.47123  0.019637679  0.019516748            2 
 2303000   0.89153715   -7.9962623    542.93014  0.019645757  0.019510873            7 
 2304000   0.88517833   -8.0059287    541.72028  0.019593471  0.019505005            2 
 2305000   0.87627708   -8.0044679    542.81339   0.01962449  0.019499099            2 
 2306000   0.87571502   -7.9910588    543.50582  0.019641002  0.019493241            4 
 2307000    0.9081283   -8.0118634    543.31447  0.019625577   0.01948739            1 
 2308000   0.86284677   -7.9985254    542.17343  0.019575875  0.019481479            3 
 2309000   0.89082444   -8.0211683    543.15568  0.019602847  0.019475545            4 
 2310000   0.87951789   -8.0237829    541.40384  0.019531163  0.019469622            2 
 2311000   0.90126144   -8.0134548    543.40076  0.019594719  0.019463699            1 
 2312000   0.87740865   -8.0121139    542.83532  0.019565864  0.019457846            2 
 2313000   0.88564894   -8.0108932    543.88711  0.019595299  0.019452004            3 
 2314000    0.8695455   -8.0369529    544.12268  0.019595314  0.019446118            1 
 2315000   0.90716794   -8.0076784    543.03804  0.019547805  0.019440256            2 
 2316000   0.87481331   -8.0174957    543.80353  0.019566909  0.019434391            2 
 2317000   0.87922581   -8.0332482    543.84905  0.019560101  0.019428555            3 
 2318000   0.88832042   -8.0477654    543.50793  0.019539399  0.019422662            1 
 2319000   0.88538757   -7.9620238    544.87823  0.019580215  0.019416802            3 
 2320000   0.89952534   -8.0163001    543.64518  0.019527485  0.019410959            2 
 2321000   0.89696816   -8.0316976    544.54198   0.01955127  0.019405073            2 
 2322000   0.87488685   -8.0483692    544.07825  0.019526208  0.019399161            2 
 2323000   0.88568682   -8.0159789     543.4604  0.019495638  0.019393245            3 
 2324000   0.85384177   -8.0113645    544.35511  0.019519331  0.019387334            4 
 2325000   0.87723862   -7.9876477    545.30456  0.019544966  0.019381424            2 
 2326000   0.86565506   -8.0179825    543.52801  0.019472915  0.019375474            6 
 2327000   0.88140529   -8.0294821    544.00756   0.01948172  0.019369539            2 
 2328000   0.87171744   -7.9844885    544.83485  0.019502966  0.019363618            2 
 2329000   0.86983278    -8.009569    544.45231  0.019480904  0.019357708            3 
 2330000   0.89116624   -8.0284214    544.37818  0.019469892  0.019351776            3 
 2331000   0.87568247   -8.0093704    544.80098  0.019476654  0.019345857            2 
 2332000   0.86827835   -8.0124922    543.98941  0.019439301  0.019339979            5 
 2333000   0.87421422   -8.0683187    545.01577   0.01946763  0.019334086            3 
 2334000   0.88451212   -8.0203005    545.59075  0.019479818  0.019328185            4 
 2335000    0.8692348   -8.0255016    544.55351  0.019434458  0.019322254            3 
 2336000    0.8836596   -8.0148119    545.13821  0.019446997  0.019316345            2 
 2337000   0.88362662   -8.0433043    544.25041  0.019407018  0.019310425            2 
 2338000   0.88291321   -8.0288046      544.477  0.019406794  0.019304449            1 
 2339000   0.85874781   -8.0380553    545.15591  0.019422685  0.019298542            4 
 2340000   0.87974472   -7.9981048    545.82336  0.019438154  0.019292656            2 
 2341000   0.89243172   -8.0238807    544.78222  0.019392789  0.019286773            3 
 2342000   0.88310677   -8.0265391    544.43411  0.019372122  0.019280877            4 
 2343000   0.88411908   -8.0050672    545.24269  0.019392612  0.019274961            4 
 2344000   0.88613435   -7.9995157    546.02917    0.0194123  0.019269109            3 
 2345000   0.88279572    -8.018007    546.03336  0.019404171  0.019263281            1 
 2346000   0.87163372   -8.0154657    547.04133  0.019431704  0.019257431            3 
 2347000   0.89269106   -8.0112879    547.49168  0.019439415  0.019251577            2 
 2348000   0.87825111   -8.0102369    545.57009  0.019362936  0.019245716            3 
 2349000   0.87541156   -8.0254252    546.43119  0.019385241   0.01923984            1 
 2350000     0.861698   -8.0475161    546.31438   0.01937285  0.019233932            3 
 2351000   0.86800579   -8.0278176    545.67638  0.019341996   0.01922807            6 
 2352000   0.88796334   -8.0219172    545.38912  0.019323594  0.019222216            2 
 2353000   0.86396779   -8.0646319    545.80338  0.019330053  0.019216318            2 
 2354000   0.83954086   -8.0485825     545.9903  0.019328459  0.019210412            3 
 2355000    0.8749453   -8.0076159    547.24084  0.019364502  0.019204512            2 
 2356000   0.87713813   -8.0659683    546.81883  0.019341356   0.01919864            4 
 2357000   0.87127119   -8.0475622    546.83021  0.019333553  0.019192731            1 
 2358000   0.87025629   -8.0351126    546.30892  0.019306931  0.019186876            3 
 2359000   0.87472637   -8.0173033    547.59592  0.019344211  0.019181025            1 
 2360000   0.87621869   -8.0543016    546.81717  0.019308516  0.019175153            1 
 2361000   0.88629444   -8.0350597    547.26042  0.019315983  0.019169312            2 
 2362000   0.88251706   -8.0377011    547.69618  0.019323179  0.019163509            2 
 2363000   0.86906854     -8.04779     547.3565  0.019303022  0.019157663            3 
 2364000   0.86709127   -8.0378239    547.44226   0.01929788  0.019151801            1 
 2365000   0.88804524   -7.9987976    548.50421  0.019327139  0.019145959            2 
 2366000   0.89001147   -8.0262893     547.3092  0.019276881  0.019140144            3 
 2367000   0.88142024   -8.0368807    547.86294  0.019288232  0.019134289            2 
 2368000   0.87153653   -8.0344377    548.47153  0.019301504  0.019128453            1 
 2369000   0.85913387   -8.0297692    549.42815  0.019327007   0.01912267            2 
 2370000   0.87266248   -8.0346943    549.13836  0.019308662  0.019116856            3 
 2371000   0.86329449   -8.0417942    546.71988  0.019215517  0.019111017            4 
 2372000    0.8614708     -8.03692    548.11011  0.019256257  0.019105135            2 
 2373000   0.87690444   -8.0293346    547.32549  0.019220589  0.019099253            3 
 2374000    0.8585755   -8.0335812    548.09048  0.019239346  0.019093434            4 
 2375000   0.87137618   -8.0236864    549.34096  0.019275121  0.019087621            2 
 2376000   0.87088272   -8.0196287    548.79928  0.019248011   0.01908182            3 
 2377000   0.89077132   -8.0224523     548.5357  0.019230672  0.019076013            3 
 2378000   0.87072846   -8.0141499    548.09265  0.019207059  0.019070188            2 
 2379000   0.87427269   -8.0293843    546.88603   0.01915672  0.019064326            3 
 2380000   0.86548624   -8.0377742    548.12964  0.019192214  0.019058488            1 
 2381000   0.88746656   -8.0338274    549.04412   0.01921616   0.01905271            1 
 2382000   0.87365189       -8.067    547.61259  0.019158011  0.019046894            1 
 2383000   0.87113364    -8.070476     549.0471  0.019200136  0.019041029            3 
 2384000   0.86818393   -8.0526965    548.60161  0.019176511  0.019035199            2 
 2385000   0.87121083   -8.0390893    548.95669  0.019180877  0.019029344            2 
 2386000   0.86936166   -8.0565465    549.69637  0.019198672  0.019023485            2 
 2387000   0.86650399   -8.0558494    548.62886  0.019153361  0.019017588            5 
 2388000   0.86528335   -8.0521635    547.56534  0.019108227  0.019011709            3 
 2389000   0.88673773   -8.0337392    548.96634  0.019149098  0.019005881            3 
 2390000    0.8788331   -8.0417692    549.08998  0.019145397  0.019000035            2 
 2391000   0.88410861   -8.0725943    549.12498  0.019138609  0.018994223            2 
 2392000   0.85822951   -8.0166253    550.42017  0.019175731  0.018988396            1 
 2393000    0.8789365   -8.0319737    548.80018  0.019111303  0.018982563            3 
 2394000   0.85229919   -8.0525637    550.10378  0.019148697  0.018976721            4 
 2395000   0.89465801   -8.0257748    550.39539  0.019150849  0.018970897            4 
 2396000     0.871186    -8.000958    550.18889  0.019135674  0.018965121            2 
 2397000   0.89153475   -8.0412313    550.31343   0.01913202  0.018959341            3 
 2398000   0.85804299   -8.0524652     548.9466  0.019076543  0.018953526            1 
 2399000   0.87451525   -8.0767198     550.8014  0.019133021  0.018947689            6 
 2400000    0.8712413   -8.0420845    551.20849  0.019139184  0.018941903            2 
 2401000   0.86310571   -8.0720999    549.58846  0.019074985  0.018936103            2 
 2402000   0.86785168   -8.0533756    552.17483  0.019156773  0.018930298            2 
 2403000   0.88336597   -8.0547421    549.64159  0.019060951  0.018924482            2 
 2404000   0.86912434   -8.0769482    550.77006   0.01909214  0.018918675            2 
 2405000   0.87362345   -8.0942081    549.19918  0.019029771  0.018912845            2 
 2406000    0.8715144   -8.1049753    549.71293  0.019039655  0.018907026            6 
 2407000   0.86005646   -8.1041812    550.09382  0.019044932  0.018901187            2 
 2408000   0.87416513   -8.0371202    550.78802  0.019061047  0.018895369            5 
 2409000    0.8620943   -8.0784966    549.94574  0.019023998  0.018889583            2 
 2410000   0.87779009   -8.1111945    552.38055  0.019100296   0.01888378            1 
 2411000   0.88728323    -8.075407    549.60093  0.018996299  0.018877982            3 
 2412000   0.86216344   -8.0541375     553.0015  0.019105912  0.018872239            2 
 2413000   0.85363275   -8.0787645    550.56656  0.019013903  0.018866498            2 
 2414000   0.88588773     -8.03123    550.79133  0.019013785  0.018860748            1 
 2415000   0.87188091    -8.065735    550.74996  0.019004484  0.018854984            2 
 2416000   0.88873216   -8.0229897    551.00857  0.019005539  0.018849207            4 
 2417000    0.8734555   -8.0684067    551.78951    0.0190246  0.018843421            3 
 2418000   0.84970915   -8.0741464    549.96347    0.0189538  0.018837592            2 
 2419000   0.85725082   -8.0852826     550.7875  0.018974352  0.018831703            2 
 2420000   0.85855877   -8.0583957     551.2435  0.018982214  0.018825866            3 
 2421000   0.85504058   -8.0813608    551.66009  0.018988713  0.018820015            1 
 2422000   0.87638395   -8.0383179    552.90942  0.019023858  0.018814203            2 
 2423000   0.85935392   -8.0584326    551.21775  0.018957826  0.018808398            1 
 2424000   0.85371417   -8.0489247    551.97872  0.018976166   0.01880259            3 
 2425000   0.87568775    -8.046325    550.80363   0.01892796  0.018796763            3 
 2426000   0.85624886   -8.0797083    551.65941  0.018949554  0.018790927            1 
 2427000   0.86600412   -8.1079776    551.39913  0.018932809  0.018785089            3 
 2428000   0.85725072   -8.0979786    551.59296  0.018931664   0.01877924            2 
 2429000   0.86730555   -8.0560617    552.39708  0.018951457  0.018773445            2 
 2430000   0.85726106   -8.0826221    551.69523   0.01891959  0.018767616            3 
 2431000   0.86501355   -8.0501496    553.70411   0.01898067  0.018761825            3 
 2432000   0.83836284    -8.089628    552.78446  0.018941353  0.018756034            4 
 2433000   0.86783443   -8.0663489    551.66447  0.018895207  0.018750221            9 
 2434000   0.84771788   -8.0791869    552.15744  0.018904322  0.018744432            4 
 2435000   0.85248774   -8.0537509    553.41354  0.018939546  0.018738661            1 
 2436000   0.86681753   -8.0550831    553.29525  0.018927725  0.018732909            2 
 2437000   0.86478533   -8.0503071    553.04277  0.018911324  0.018727168            8 
 2438000   0.88184761   -8.0606243    552.53273  0.018886134   0.01872136            1 
 2439000   0.88860762   -8.0852902    553.27985  0.018903917  0.018715577            3 
 2440000   0.85757012   -8.0574765    553.06967  0.018888991  0.018709818            6 
 2441000   0.86704438   -8.0703873    553.25667  0.018887637  0.018704035            3 
 2442000   0.85119727   -8.0800207    552.81599  0.018864865  0.018698253            2 
 2443000   0.85157927   -8.0673348     554.4614  0.018913269  0.018692516            2 
 2444000   0.86622006     -8.07334    552.39722  0.018835148    0.0186868            2 
 2445000    0.8543836   -8.0591599    553.51881  0.018865672  0.018681072            2 
 2446000   0.85094749   -8.0688384    552.68585  0.018829581  0.018675293            2 
 2447000   0.85453187   -8.0857833    554.04439  0.018868151  0.018669547            3 
 2448000   0.85284474   -8.0355198    554.98841  0.018892579  0.018663796            3 
 2449000   0.86692845   -8.0778755    553.49433  0.018834025  0.018658052            1 
 2450000   0.84519823   -8.0736361    553.40413   0.01882327  0.018652266            3 
 2451000   0.85896081   -8.0459515    552.82831  0.018796012  0.018646482            2 
 2452000   0.87478889   -8.0766166    552.94945  0.018792464  0.018640741            3 
 2453000   0.85181515   -8.0655152    554.62453  0.018841708  0.018635005            2 
 2454000   0.86175025   -8.0563486    553.98904   0.01881245  0.018629235            1 
 2455000   0.85328999   -8.0661012    553.95844  0.018803749  0.018623473            5 
 2456000   0.87148807   -8.0747845    554.21625   0.01880484  0.018617696            1 
 2457000   0.86612125   -8.0570284    554.60912  0.018810512  0.018611887            2 
 2458000   0.85255386   -8.0783034    554.75965  0.018807962  0.018606107            2 
 2459000   0.87710474   -8.0797659    553.53239  0.018758723  0.018600321            2 
 2460000   0.85434522   -8.0758562    553.74795  0.018758399  0.018594521            5 
 2461000   0.83410963   -8.0352297    554.85353  0.018788214  0.018588773            6 
 2462000   0.84853016   -8.0533925    554.30232  0.018761925  0.018583023            3 
 2463000   0.84400331   -8.0892943    553.10472  0.018713788  0.018577224            2 
 2464000   0.84653938   -8.0813625    553.73764  0.018727599  0.018571424            2 
 2465000   0.86534649   -8.0854719    553.25221   0.01870359  0.018565612            2 
 2466000   0.84982492   -8.1055844    553.12087  0.018691568  0.018559784            6 
 2467000    0.8778591   -8.0673744    554.82028  0.018741396  0.018553978            4 
 2468000   0.86247087   -8.0700786    554.63415  0.018727517  0.018548232            3 
 2469000   0.82988474   -8.0904759     554.0686  0.018700844  0.018542447            2 
 2470000    0.8797416   -8.0662438    554.70623  0.018714785  0.018536658            2 
 2471000   0.84941067   -8.0630369    554.70195  0.018707067  0.018530912            4 
 2472000   0.84445655    -8.064745    554.66539  0.018698267  0.018525169            2 
 2473000   0.84925782   -8.0740245    554.80196  0.018695308  0.018519393            2 
 2474000   0.87682468   -8.0964232    554.25957  0.018669482  0.018513576            2 
 2475000   0.85490338   -8.0936414    554.28926  0.018662938  0.018507807            1 
 2476000   0.84056438   -8.0806716     555.1499  0.018684367  0.018502048            1 
 2477000   0.87194976   -8.0667484    555.76663  0.018697572  0.018496277            2 
 2478000   0.83355977   -8.0818903    554.90905  0.018661187  0.018490524            2 
 2479000    0.8358828   -8.0354043    556.51571  0.018707668  0.018484824            3 
 2480000   0.86682592   -8.0557012    556.29906  0.018692845  0.018479114            3 
 2481000   0.84996379   -8.0701793    557.65924  0.018730997  0.018473441            1 
 2482000    0.8415969   -8.0825906    554.94185  0.018632214  0.018467749            3 
 2483000   0.85034966   -8.0915682    555.89818  0.018656805  0.018461988            2 
 2484000   0.85217897   -8.1004904    554.98283  0.018618586  0.018456245            4 
 2485000   0.89365579    -8.121034    555.39704  0.018624985  0.018450489            2 
 2486000   0.84307037   -8.0853162    555.96548  0.018636547  0.018444744            2 
 2487000   0.86698882   -8.1179665    556.55425  0.018648782  0.018439024            2 
 2488000   0.86700893   -8.0856863    556.32434  0.018633586  0.018433292            2 
 2489000   0.84358494   -8.0637499    557.55543  0.018667317  0.018427609            2 
 2490000   0.86325301   -8.0795551    557.92459  0.018672175  0.018421966            2 
 2491000   0.84036899   -8.0820694    556.28342  0.018609776  0.018416322            3 
 2492000    0.8402768   -8.0693001    556.56595  0.018611756  0.018410667            3 
 2493000   0.85439982   -8.0614786     556.6929  0.018608534  0.018405013            3 
 2494000    0.8523317   -8.0293601    558.20546  0.018651613  0.018399375            3 
 2495000   0.84623839   -8.0722358      556.569  0.018589479  0.018393708            5 
 2496000   0.84510986   -8.0960109    557.26663  0.018605323   0.01838802            2 
 2497000   0.84284287   -8.0703578    556.90228  0.018585712  0.018382359            6 
 2498000   0.86194469   -8.1333186    556.62476  0.018569014  0.018376662            2 
 2499000   0.86505009   -8.0880594    557.36819  0.018586374  0.018370964            4 
 2500000   0.85260816   -8.1028617    556.84644  0.018561548  0.018365202            2 
 2501000   0.86061315     -8.09146     556.0474  0.018527502  0.018359445            3 
 2502000   0.83746945   -8.0776323    556.58476  0.018537995  0.018353735            5 
 2503000    0.8337877    -8.076316     558.6212  0.018598389  0.018348014            1 
 2504000   0.85785327   -8.0986537    556.73025   0.01852803  0.018342324            3 
 2505000   0.86840594   -8.0907068    556.70712  0.018519864    0.0183366            2 
 2506000   0.86092296   -8.0819693    556.64175    0.0185103  0.018330879            2 
 2507000   0.84639048   -8.0910465    557.11231  0.018518558  0.018325167            3 
 2508000   0.85736482   -8.0805369    557.82026  0.018534698  0.018319409            2 
 2509000   0.84824407   -8.1090149    556.51796  0.018484056  0.018313651            1 
 2510000   0.85700674   -8.0982558    558.57848  0.018545102  0.018307919            2 
 2511000   0.86741653   -8.1021162    557.89286  0.018514963  0.018302182            2 
 2512000   0.86022558   -8.0593937    557.76555  0.018503369  0.018296461            1 
 2513000   0.85914598   -8.0938209    556.89352  0.018467089  0.018290716            3 
 2514000   0.85431845   -8.1083865    556.56074  0.018448712  0.018284931            2 
 2515000   0.87133057    -8.075512    557.17549  0.018461746   0.01827913            2 
 2516000   0.84553706   -8.0667443    557.93343  0.018479512  0.018273339            2 
 2517000   0.85691244   -8.1099848    556.66727   0.01843025  0.018267616            5 
 2518000   0.84061147   -8.0573269     557.3254  0.018444711  0.018261873            5 
 2519000   0.82855929     -8.08171    556.92012  0.018423982  0.018256156            4 
 2520000   0.84986382   -8.0561445    558.12898  0.018456646  0.018250445            4 
 2521000   0.85360049    -8.095282     556.5767  0.018398013  0.018244712            3 
 2522000    0.8372954   -8.1019512     556.6984   0.01839474  0.018238975            2 
 2523000   0.85576228   -8.1043474    558.82736  0.018457767   0.01823321            3 
 2524000   0.84803183    -8.101106    556.68731  0.018379798  0.018227478            3 
 2525000   0.85121092   -8.1083983    556.05419  0.018351624  0.018221754            1 
 2526000   0.85736362   -8.0870667    557.78025  0.018401302   0.01821601            3 
 2527000   0.86992998   -8.0846368    558.75938  0.018426309  0.018210296            2 
 2528000   0.85088682   -8.1201961    558.47551  0.018409662  0.018204564            2 
 2529000   0.83535936   -8.1156645    558.37337  0.018399017  0.018198831            2 
 2530000    0.8440331   -8.0730266     558.5863  0.018398758  0.018193111            2 
 2531000   0.86228934   -8.1331208    556.85245  0.018334402   0.01818738            4 
 2532000   0.83893973   -8.1212729    556.90015  0.018328731  0.018181625            1 
 2533000   0.82216966   -8.1233614    557.34837  0.018336241  0.018175844            3 
 2534000   0.82680032   -8.1334288    556.87763  0.018313524  0.018170042            3 
 2535000   0.84425081   -8.0986792    559.23666  0.018383848  0.018164256            3 
 2536000   0.85341557   -8.1291277    558.05735  0.018337847  0.018158476            4 
 2537000   0.84378016   -8.1132971    557.67696  0.018318124  0.018152667            3 
 2538000   0.82945468   -8.1154297    557.32375  0.018299309  0.018146879            2 
 2539000   0.85140372   -8.1286682    558.95266  0.018345565  0.018141102            1 
 2540000    0.8483002    -8.129061    558.15413  0.018312144  0.018135344            3 
 2541000   0.85598171   -8.1216779    558.36054  0.018311706  0.018129577            2 
 2542000   0.84716473   -8.0909163    559.01408  0.018325927  0.018123813            3 
 2543000   0.85161593   -8.1290637     556.6521  0.018241319  0.018118028            2 
 2544000   0.85263038   -8.1493267    557.67303  0.018267591  0.018112242            3 
 2545000   0.83644446   -8.1216359    557.87564  0.018267048  0.018106459            3 
 2546000   0.82809326   -8.1181547    558.55406  0.018282079  0.018100663            1 
 2547000   0.83468704   -8.1490818    558.10129  0.018260087  0.018094893            3 
 2548000   0.84957699    -8.106639    558.51338  0.018266398  0.018089076            2 
 2549000   0.85037574   -8.1160229    558.52855  0.018259728  0.018083273            3 
 2550000    0.8499194   -8.1228597    557.73104  0.018226505  0.018077463            2 
 2551000    0.8414876   -8.1742092    557.04074   0.01819681   0.01807162            2 
 2552000    0.8419205   -8.1479947    557.84558  0.018215961  0.018065808            2 
 2553000   0.84707282   -8.1804468    556.87498  0.018177144  0.018059989            3 
 2554000   0.82980066   -8.1114191    558.20386  0.018213386  0.018054208            2 
 2555000   0.84005268   -8.1488473    559.87307    0.0182607  0.018048467            1 
 2556000   0.85395819   -8.1279145    559.03903  0.018226364  0.018042705            2 
 2557000   0.83124235   -8.1358862    556.87037  0.018148558  0.018036902            2 
 2558000   0.85903116   -8.1694112    557.66139  0.018167233  0.018031109            2 
 2559000   0.85197587   -8.1296367    557.73225  0.018162441  0.018025303            1 
 2560000   0.84717046   -8.1139877     560.7955  0.018255062  0.018019524            2 
 2561000   0.86551906   -8.1330988    558.51129  0.018173607  0.018013757            1 
 2562000   0.87581388   -8.1066201    559.38965  0.018195084  0.018008005            1 
 2563000     0.855152   -8.0691273    559.82031  0.018201987  0.018002229            8 
 2564000    0.8378562   -8.1339231    556.97627  0.018102453  0.017996416            6 
 2565000   0.84300853   -8.1282358    558.79353  0.018154436  0.017990608            5 
 2566000   0.84118329   -8.1486515     557.2728  0.018097973  0.017984811            2 
 2567000   0.81531769   -8.1209969    558.98585  0.018146535  0.017978991            2 
 2568000   0.82631847   -8.1336885    557.97189  0.018106565  0.017973167            3 
 2569000   0.84886746   -8.1557865    559.67178  0.018154657  0.017967373            3 
 2570000   0.83536271   -8.0985243    560.01104  0.018158594  0.017961614            2 
 2571000    0.8147536   -8.1668593    558.63427  0.018106906  0.017955871            2 
 2572000   0.83926062   -8.1421919    558.28054  0.018088405   0.01795008            2 
 2573000   0.83438405     -8.14736    559.26845  0.018113371  0.017944278            2 
 2574000   0.85520094   -8.1843313    557.61666  0.018052857  0.017938456            3 
 2575000    0.8473271   -8.1363908     559.5346  0.018107916  0.017932648            3 
 2576000   0.84178999   -8.1518726    560.95621  0.018146875  0.017926887            1 
 2577000   0.83723336    -8.115087    558.88594  0.018072886  0.017921111            4 
 2578000   0.85525361   -8.1635878    559.20122  0.018076067  0.017915282            4 
 2579000   0.84763699    -8.146073    558.88663  0.018058893  0.017909458            1 
 2580000    0.8504818   -8.1504826    559.04427  0.018056986  0.017903625            2 
 2581000   0.83093124   -8.1679981    559.28515  0.018057767    0.0178978            1 
 2582000   0.85514696   -8.1454512    559.01818  0.018042157  0.017891994            5 
 2583000   0.83571582   -8.1464046    560.48246  0.018082413  0.017886185            3 
 2584000   0.81886695   -8.1377186    558.81443  0.018021621  0.017880392            4 
 2585000    0.8480602   -8.1480391    559.08785  0.018023464   0.01787461            3 
 2586000   0.84341106   -8.1264833    559.65194  0.018034672  0.017868835            4 
 2587000   0.84954873   -8.1078947    560.13616  0.018043299  0.017863098            2 
 2588000   0.84385917   -8.1251362    560.52299  0.018048782  0.017857352            2 
 2589000   0.81494985   -8.1082543    561.51458  0.018073728  0.017851631            1 
 2590000   0.82155519   -8.1429898    560.21575   0.01802496  0.017845858            4 
 2591000   0.82260066   -8.1536148    559.35035  0.017990169  0.017840063            1 
 2592000   0.83583766   -8.1214159    560.09926  0.018007307  0.017834329            3 
 2593000   0.84662163   -8.1224077    559.24687  0.017972968  0.017828621            2 
 2594000   0.82541687   -8.1528667     560.0301  0.017991201  0.017822896            2 
 2595000   0.85621013   -8.1122957    560.94766  0.018013733  0.017817175            3 
 2596000   0.84586055   -8.1572071    561.81829  0.018034742  0.017811436            2 
 2597000   0.82873675   -8.1644184    559.27105  0.017946061  0.017805688            3 
 2598000   0.82783536   -8.1536402    560.71622  0.017985509  0.017799942            2 
 2599000   0.83284429   -8.1461549    559.30747  0.017933419  0.017794181            6 
 2600000   0.84136597   -8.1109261    560.84688  0.017975862   0.01778842            3 
 2601000   0.84297437   -8.1217629    560.39376  0.017954433   0.01778268            3 
 2602000   0.84582589    -8.106875    560.28248  0.017943969  0.017776956            4 
 2603000   0.84092292   -8.1417435    561.20291  0.017966542  0.017771255            2 
 2604000   0.84554755   -8.1299702    561.00647  0.017953356  0.017765561            1 
 2605000   0.84817175   -8.1352226    561.77096   0.01797092  0.017759858            4 
 2606000    0.8186173   -8.1233457    562.64232  0.017991888  0.017754134            3 
 2607000   0.81116832   -8.1198699    560.21163  0.017907289  0.017748397            2 
 2608000   0.82761098   -8.1408959    560.90325  0.017922522  0.017742671            3 
 2609000   0.85781265   -8.1531667    561.04205  0.017920086   0.01773693            4 
 2610000   0.83365523   -8.1377393    561.64686  0.017932531  0.017731179            2 
 2611000   0.83448676   -8.1427508    561.88159  0.017933154  0.017725452            2 
 2612000   0.84343163   -8.1255323     560.6657  0.017887497  0.017719729            3 
 2613000    0.8315935   -8.1681137     560.6687  0.017880747   0.01771398            2 
 2614000   0.81871103   -8.1642151    562.90775  0.017945287  0.017708217            5 
 2615000   0.81819955   -8.1764154    560.38858  0.017858145  0.017702418            2 
 2616000    0.8376571   -8.1621798    562.29334  0.017911995   0.01769663            2 
 2617000   0.83123118   -8.1700973    560.94553  0.017862232  0.017690858            3 
 2618000   0.83212611   -8.1354023    561.01646  0.017857667  0.017685094            3 
 2619000   0.83144994   -8.1535836    559.51482  0.017803068  0.017679358            2 
 2620000   0.81972767   -8.1231549    562.29687   0.01788476  0.017673652            7 
 2621000   0.82120234   -8.1160846    563.42136   0.01791369  0.017667974            2 
 2622000   0.81936161   -8.1196856    561.89925  0.017858481  0.017662302            2 
 2623000   0.81401827   -8.1261897     561.8854  0.017851233  0.017656607            6 
 2624000   0.82669495   -8.1683753    560.30462  0.017794227  0.017650875            2 
 2625000   0.82990088   -8.1507181    561.91889  0.017838695  0.017645149            1 
 2626000   0.83716437   -8.1193082    563.03787  0.017867411  0.017639431            2 
 2627000   0.81657145   -8.1389767    561.17591  0.017801545  0.017633714            3 
 2628000   0.82590867   -8.1656446    560.71365  0.017780113  0.017627962            1 
 2629000   0.82866757   -8.1785131    560.18642  0.017756638  0.017622218            4 
 2630000    0.8376204   -8.1355429    560.66477  0.017765043  0.017616466            2 
 2631000   0.80896231   -8.1372306    562.78921   0.01782558  0.017610753            3 
 2632000   0.84922209   -8.1184539    562.33891   0.01780455  0.017605097            2 
 2633000   0.81900198   -8.1581866    561.28457  0.017764419    0.0175994            4 
 2634000   0.84115377   -8.1734871    562.29257  0.017789565   0.01759368            4 
 2635000    0.8471943   -8.1828538    562.79483  0.017798698  0.017587956            3 
 2636000   0.84169727   -8.1770375     562.8274  0.017792975  0.017582252            4 
 2637000   0.83380583   -8.1653654    562.26634  0.017768498  0.017576557            3 
 2638000   0.82441378   -8.1270765    561.80188   0.01774709   0.01757091            4 
 2639000   0.82758196   -8.1337244    563.42339  0.017791568  0.017565253            5 
 2640000   0.84042417   -8.1424715    562.09097  0.017742771  0.017559575            3 
 2641000   0.84436929   -8.1313016      563.952  0.017794775  0.017553888            1 
 2642000   0.82226998   -8.1514239    563.56039  0.017775687  0.017548196            5 
 2643000   0.83210263   -8.1373534    562.82342  0.017745725  0.017542511            2 
 2644000   0.82930711   -8.1114003    564.07267  0.017778387  0.017536842            2 
 2645000   0.83894556   -8.1202812    563.54866  0.017755156  0.017531189            5 
 2646000   0.83053616   -8.1597778    561.67202  0.017689343   0.01752553            3 
 2647000    0.8295639   -8.1196785     564.8402  0.017782401  0.017519821            1 
 2648000   0.83389848   -8.1883224    560.96459   0.01765372  0.017514132            8 
 2649000   0.83277303   -8.2076182      561.885   0.01767601  0.017508433            1 
 2650000   0.81498011    -8.162638    563.16023  0.017709441  0.017502727            4 
 2651000   0.82993399   -8.1499919    563.01124  0.017698078  0.017497032            2 
 2652000   0.81377522   -8.1819191    561.85343  0.017655022  0.017491324            3 
 2653000   0.82172199    -8.200864    561.15168  0.017626325  0.017485591            2 
 2654000   0.82629548   -8.1570634    563.47318  0.017692577  0.017479853            3 
 2655000   0.83635245   -8.1611687    562.44021  0.017653491  0.017474145            4 
 2656000   0.83582392    -8.153687     563.4037  0.017677074  0.017468438            3 
 2657000   0.82927193   -8.1832537    562.02365  0.017627137  0.017462716            4 
 2658000   0.80619603    -8.139472    564.25139   0.01769035  0.017457001            5 
 2659000   0.81633438   -8.1365388    564.15862  0.017680789  0.017451336            3 
 2660000   0.82124322   -8.1561307    563.48597  0.017653069  0.017445647            1 
 2661000   0.80884992   -8.1645793    564.75971  0.017686324  0.017439983            2 
 2662000   0.81842987   -8.1630653    563.11149  0.017628083  0.017434317            2 
 2663000   0.83079041   -8.1747801    562.43515  0.017600299  0.017428625            2 
 2664000   0.83549488   -8.1833972    563.94713  0.017640989  0.017422918            2 
 2665000   0.81089811   -8.1908049    562.12846    0.0175775  0.017417203            3 
 2666000   0.82861884    -8.175407    564.05293  0.017631062  0.017411507            4 
 2667000   0.82175977   -8.1788145    563.45605  0.017605801  0.017405828            7 
 2668000   0.84040534   -8.1946996    563.97667  0.017615463  0.017400148            2 
 2669000   0.79543455   -8.1787763    563.47556  0.017593217  0.017394462            6 
 2670000   0.82017115   -8.1838057    563.16983  0.017577086  0.017388793            3 
 2671000    0.8120301   -8.1741457    564.41725  0.017609424  0.017383122            2 
 2672000   0.83518621    -8.148854    565.08041  0.017623516  0.017377454            4 
 2673000   0.83808345   -8.1507853    565.44429  0.017628267  0.017371838            4 
 2674000   0.82159861   -8.1693097    563.65878   0.01756603  0.017366199            2 
 2675000   0.82095899   -8.1479391    564.91874  0.017598715  0.017360578            2 
 2676000   0.83444159   -8.1801246    564.51863  0.017579678  0.017354943            9 
 2677000   0.82851411   -8.1735402    564.91506  0.017585452  0.017349311            1 
 2678000   0.81115853    -8.189667     564.9515  0.017580019  0.017343674            1 
 2679000   0.81411076    -8.172345    565.04028  0.017576219  0.017338051            1 
 2680000   0.81584349   -8.1887135    564.73429  0.017560146  0.017332435            3 
 2681000   0.81767725   -8.1535374    564.18486  0.017536518  0.017326813            4 
 2682000   0.82884421    -8.195217    564.66568  0.017544919  0.017321197            5 
 2683000   0.82050953    -8.204978    563.78551  0.017511042  0.017315541            2 
 2684000    0.8156364    -8.186805    565.41431  0.017555089  0.017309923            4 
 2685000   0.83164739   -8.1665361    565.53731  0.017552368  0.017304324            1 
 2686000   0.83459858   -8.1892299    565.47278  0.017543832  0.017298709            3 
 2687000   0.82803986   -8.1800316    563.53507  0.017477207  0.017293086            3 
 2688000   0.81171626   -8.1599291    565.23292  0.017523342  0.017287456            4 
 2689000   0.82836356   -8.2009718    565.61804   0.01752876  0.017281836            3 
 2690000   0.81547108   -8.1657778    565.83182  0.017528867  0.017276238            3 
 2691000   0.80895521   -8.1902317     565.2474  0.017504255  0.017270624            2 
 2692000   0.81031346   -8.1692806    565.86351  0.017516825  0.017264997            1 
 2693000   0.81059977   -8.1798156     565.1402  0.017487938  0.017259396            4 
 2694000   0.81918435   -8.1645516    564.21756  0.017452906  0.017253777            2 
 2695000   0.82249793   -8.1746665    564.85538  0.017466153  0.017248174            2 
 2696000   0.82559739   -8.1911968    566.84059  0.017521037  0.017242599            2 
 2697000   0.82734048   -8.1828555    565.31903  0.017467526  0.017236995            2 
 2698000   0.82225464   -8.1906735    565.29675  0.017460364  0.017231369            2 
 2699000   0.81321393   -8.1861292    564.42918  0.017427108  0.017225736            3 
 2700000   0.80846104   -8.1780868    566.18132  0.017474732  0.017220113            2 
 2701000   0.81721057   -8.2265891    564.27054   0.01740931  0.017214479            4 
 2702000   0.83080336   -8.1819224    566.06612  0.017458244  0.017208843            1 
 2703000   0.81054437    -8.214064    564.54339   0.01740484  0.017203223            2 
 2704000    0.8062165   -8.1704612    566.18601  0.017449026  0.017197607            3 
 2705000   0.81412759   -8.1609415     566.9105  0.017464895  0.017192043            3 
 2706000    0.7951584   -8.1496991    566.57004  0.017447956  0.017186474            1 
 2707000   0.81401186   -8.1777718    565.84412  0.017419164  0.017180899            1 
 2708000    0.8202897   -8.1479554    566.76059  0.017440934  0.017175333            2 
 2709000   0.81400506   -8.1978068    564.39294  0.017361663   0.01716975            2 
 2710000   0.80519319   -8.1930002    566.01133  0.017405022   0.01716416            2 
 2711000   0.81580501   -8.2111464     566.2546   0.01740608  0.017158568            3 
 2712000   0.81391391   -8.1867176    567.92574  0.017451012  0.017153008            2 
 2713000   0.82295021   -8.1600432    568.01094  0.017447197  0.017147476            2 
 2714000   0.81172796   -8.1955314    565.12417   0.01735213  0.017141918            2 
 2715000   0.80415629   -8.1939674    565.96417  0.017371522   0.01713633            1 
 2716000   0.82144126   -8.1961536     568.3736  0.017439052  0.017130755            3 
 2717000   0.83079806   -8.1928676    566.12845  0.017363773  0.017125184            1 
 2718000   0.82904866   -8.1963939    566.65864   0.01737364    0.0171196            1 
 2719000   0.84419255   -8.2029617    565.97928  0.017346429  0.017114025            2 
 2720000   0.81443691   -8.1691982    567.72508  0.017393538  0.017108426            2 
 2721000   0.81261523   -8.1474507    566.43146  0.017347527  0.017102856            2 
 2722000   0.82681007   -8.1974864     565.9464  0.017326304  0.017097277            2 
 2723000   0.81421066   -8.1735236    567.51355  0.017367901  0.017091716           10 
 2724000   0.83335522   -8.1941287    565.86344  0.017311045  0.017086162            4 
 2725000   0.80935511   -8.1905664    566.40827  0.017321354  0.017080625            2 
 2726000   0.81685465   -8.2220101    566.39298  0.017314532  0.017075086            8 
 2727000   0.82688288   -8.2094562    568.66343  0.017377565   0.01706951            4 
 2728000   0.82495512   -8.2216537    566.50025  0.017305115  0.017063958            3 
 2729000   0.81059761   -8.2150678    566.91254  0.017311364   0.01705841            5 
 2730000    0.8143153   -8.2226828    567.67914  0.017328423  0.017052872            2 
 2731000    0.7953051   -8.2073483    567.61088  0.017319995  0.017047329            2 
 2732000   0.83219381   -8.2031783    566.19628  0.017270506  0.017041786            2 
 2733000   0.82723505   -8.2157491     566.6616  0.017278375  0.017036242            3 
 2734000   0.79354997   -8.1889918    567.90261  0.017309882  0.017030704            2 
 2735000   0.80487359   -8.2209279    566.82442  0.017270701  0.017025134            3 
 2736000   0.82138035   -8.2012356    567.33263  0.017279868  0.017019596            2 
 2737000   0.81760337   -8.1944635    567.38477  0.017275142  0.017014082            5 
 2738000   0.80856213   -8.2000883    567.83828  0.017282636  0.017008558            2 
 2739000   0.82340255   -8.2092382    567.66377  0.017271017  0.017003056            2 
 2740000   0.79581928   -8.1857568    567.95342  0.017273522  0.016997524            3 
 2741000    0.8198981   -8.2047611    567.88531   0.01726515  0.016991986            6 
 2742000   0.81898041   -8.1810313    568.53777  0.017278683  0.016986476            2 
 2743000   0.80856679    -8.205658    568.10114  0.017259118   0.01698098            2 
 2744000    0.8172237     -8.19035     568.2437  0.017257158  0.016975467            4 
 2745000   0.81749958   -8.1982779    569.67072  0.017294193  0.016969975            4 
 2746000   0.81128628   -8.1727966    567.53625   0.01722312  0.016964484            4 
 2747000    0.8225914   -8.1806992    568.78108  0.017254614  0.016959004            3 
 2748000   0.81354192   -8.1792299    570.84057  0.017310789  0.016953573            3 
 2749000    0.8165973   -8.2003628      568.703  0.017239693  0.016948127            2 
 2750000   0.80959132   -8.1798525    569.68298  0.017263121   0.01694266            3 
 2751000   0.81488012   -8.1909657    567.95192  0.017204408  0.016937184            2 
 2752000   0.80611137   -8.2103767    568.65479   0.01721944  0.016931722            4 
 2753000   0.80987831    -8.209309    569.00999  0.017223937  0.016926263            2 
 2754000   0.80887116   -8.1947867    570.39196    0.0172595  0.016920786            3 
 2755000   0.80621518   -8.1861951    569.64866  0.017230752  0.016915349            3 
 2756000   0.82748479   -8.1936244    569.10243  0.017207984  0.016909907            5 
 2757000   0.82126761    -8.195365    569.40508   0.01721089  0.016904478            3 
 2758000   0.81381272   -8.1830858    569.02359  0.017193123  0.016899034            2 
 2759000   0.81816748   -8.1941521    567.79015  0.017149636  0.016893592            1 
 2760000    0.8248487   -8.2027919    569.97958  0.017209528  0.016888168            1 
 2761000   0.80262787   -8.2332024    568.70121  0.017164711  0.016882678            3 
 2762000   0.81745317   -8.2263938    568.95725  0.017166222  0.016877171            2 
 2763000   0.82881497   -8.2339602    568.99805  0.017161239  0.016871666            4 
 2764000   0.81766462   -8.2459582    567.39536   0.01710671  0.016866177            2 
 2765000   0.80041039   -8.2064144    567.63156  0.017107642  0.016860691            2 
 2766000   0.81471943   -8.2350227     568.7868  0.017136262  0.016855186            6 
 2767000   0.79999929   -8.2373993    569.56918  0.017153632  0.016849704            2 
 2768000    0.8157181   -8.2088818    569.94786  0.017158835  0.016844211            1 
 2769000   0.81257117   -8.2304741    568.09649  0.017096921  0.016838744            2 
 2770000   0.80810719   -8.2207269    569.31783  0.017127492   0.01683326            2 
 2771000   0.80184229   -8.1975553    570.10655   0.01714503  0.016827768            8 
 2772000   0.80044208   -8.2480435    568.85273  0.017101152   0.01682228            5 
 2773000   0.80389106   -8.2069646    570.08476   0.01713201   0.01681681            4 
 2774000   0.81136215   -8.2422074    569.11922  0.017096828  0.016811317            2 
 2775000   0.79409368   -8.2222051    570.08029  0.017119528  0.016805807            8 
 2776000   0.79373931   -8.2114035    569.09963  0.017083923   0.01680031           11 
 2777000   0.79307662   -8.2409747    568.51557  0.017060244  0.016794852            1 
 2778000   0.80632756   -8.2349657    569.48744  0.017083257  0.016789381            6 
 2779000   0.80989421   -8.1977915     570.6521  0.017112034  0.016783925            2 
 2780000   0.80391154   -8.2147255     569.5086  0.017071601  0.016778447            2 
 2781000   0.81588742   -8.2253756    569.25542  0.017057875  0.016772969            3 
 2782000   0.82302226   -8.1853771    571.05163  0.017105548  0.016767514            2 
 2783000   0.79832148   -8.1828339    570.04747  0.017069334  0.016762059            4 
 2784000   0.79702964   -8.2144243    571.33573  0.017101764  0.016756617            4 
 2785000    0.8246975   -8.2285969    569.36472  0.017036646  0.016751148            2 
 2786000   0.81291354   -8.2204978    570.10434  0.017052654  0.016745692            3 
 2787000   0.81578725   -8.2075122    569.87104   0.01703956  0.016740223            6 
 2788000   0.81971296   -8.2071728     569.2231  0.017014081  0.016734765            2 
 2789000   0.80379402   -8.2260199     568.4245  0.016984119  0.016729298            2 
 2790000   0.79817306   -8.2371606    569.17762  0.017000526  0.016723847            1 
 2791000   0.79617669   -8.2220485    569.25077  0.016996619  0.016718411            1 
 2792000   0.81121184   -8.1984846    569.86862  0.017008973  0.016712948            6 
 2793000   0.81164083   -8.2242542    569.66372  0.016996769  0.016707502            2 
 2794000   0.81991621   -8.2115464     568.8279  0.016965757  0.016702058            2 
 2795000   0.81216429   -8.2594926    568.53884  0.016951069  0.016696589            3 
 2796000   0.78980228   -8.2335112    569.22038  0.016965319    0.0166911            1 
 2797000   0.77931475   -8.2501342    569.11758  0.016956191  0.016685598            3 
 2798000   0.79012506    -8.207236    571.05611  0.017007866   0.01668011            2 
 2799000   0.78593816   -8.2140553    569.97501  0.016969603  0.016674651            3 
 2800000   0.79942936   -8.2429416    569.84745  0.016959745  0.016669176            4 
 2801000    0.8054446   -8.2390275    569.69731  0.016949224  0.016663717            1 
 2802000    0.8037952   -8.2232475    568.82622  0.016917268  0.016658256            3 
 2803000   0.81129526   -8.2154289    570.74682  0.016968332   0.01665278            7 
 2804000   0.79287951   -8.2364883    568.68795  0.016901092  0.016647279            7 
 2805000   0.81840903     -8.22748    567.99696  0.016874538  0.016641784            2 
 2806000   0.78794912   -8.2143353    570.63403  0.016946841  0.016636314            2 
 2807000   0.81858943   -8.2641131    568.90494  0.016889471  0.016630828            2 
 2808000   0.79395884   -8.2267943    569.38926  0.016897829  0.016625335            2 
 2809000   0.80435188   -8.2049345    570.67098  0.016929838  0.016619866            2 
 2810000   0.80638998   -8.2409714    570.01972    0.0169045    0.0166144            3 
 2811000   0.78820245   -8.2045621    570.04796  0.016899323   0.01660893            1 
 2812000   0.80917674    -8.211579    570.22583  0.016898584  0.016603495            2 
 2813000   0.78451413    -8.208672    570.04967  0.016887358  0.016598052            4 
 2814000   0.80290188   -8.2447262    570.25453  0.016887424  0.016592605            1 
 2815000   0.81150552   -8.2335017     570.1555  0.016878493  0.016587125            2 
 2816000    0.8117657    -8.223692      569.927  0.016865738  0.016581649            7 
 2817000   0.79272606   -8.2143609    570.51695  0.016877202  0.016576188            2 
 2818000   0.77515903   -8.2078301    569.86867  0.016852042   0.01657073            5 
 2819000   0.78236112   -8.2360083    570.16864  0.016854932  0.016565273            4 
 2820000   0.80332227   -8.2633641    570.05611   0.01684563  0.016559796            2 
 2821000   0.80243625   -8.2477812    568.54244  0.016794944  0.016554323            1 
 2822000   0.78811449   -8.2319455    570.25357  0.016839522  0.016548848            3 
 2823000    0.8062995   -8.2646435    570.12806  0.016829852  0.016543375            2 
 2824000   0.80030911   -8.2215339    570.06216  0.016821947   0.01653794            9 
 2825000      0.81041   -8.2233989    571.09603  0.016846491  0.016532493            6 
 2826000   0.79997828    -8.224857    570.58239  0.016825383  0.016527043            6 
 2827000   0.79289979   -8.2076524    571.88324  0.016857777  0.016521624            2 
 2828000   0.79966751   -8.2192776    569.80904  0.016790695  0.016516223            3 
 2829000   0.79703221   -8.2478431    571.16789  0.016824787   0.01651082            7 
 2830000   0.76916865   -8.2576243    570.87343  0.016810172    0.0165054            6 
 2831000   0.80667373   -8.2306148     571.5487  0.016824111  0.016499983            7 
 2832000   0.79638813   -8.2412276    570.55849  0.016789033  0.016494561           10 
 2833000   0.80793394   -8.2496416    570.03385  0.016767674  0.016489144            3 
 2834000   0.78751378   -8.2460365    570.57481  0.016777664  0.016483722            2 
 2835000   0.79331387   -8.2482174    570.18299  0.016760229  0.016478307            2 
 2836000   0.78453572   -8.2711304    569.44582  0.016732658  0.016472867            5 
 2837000   0.80894776   -8.2546428    570.20807   0.01674915  0.016467413            3 
 2838000   0.79063181   -8.2323644    571.83964  0.016791157   0.01646201            4 
 2839000    0.7853792   -8.2555856    570.71223   0.01675215  0.016456549            2 
 2840000    0.7876129   -8.2255201    571.58958  0.016771995  0.016451085            1 
 2841000   0.78039506   -8.2530316    571.08246  0.016751216   0.01644566            3 
 2842000   0.79706521   -8.2445937    571.53279  0.016758526  0.016440247            4 
 2843000   0.78618536   -8.2509554    571.07631  0.016739252  0.016434837            4 
 2844000   0.79625707   -8.2385475    572.40301   0.01677224  0.016429406            3 
 2845000   0.79422006   -8.2330439    570.39932  0.016707654  0.016423961            2 
 2846000   0.79846467   -8.2225314    570.87921  0.016715835  0.016418517            2 
 2847000   0.77832638   -8.2374178    570.00225  0.016684295  0.016413057            1 
 2848000   0.80363021   -8.2577921    571.13294  0.016711521  0.016407598            2 
 2849000   0.79505776   -8.2616785      570.919  0.016699397  0.016402144            2 
 2850000   0.78884573    -8.278226    570.21903  0.016673071  0.016396687            3 
 2851000   0.78619379   -8.2629525    570.25061  0.016668146  0.016391225            1 
 2852000   0.78981543   -8.2586447    569.82868  0.016649973  0.016385777            1 
 2853000   0.79597133   -8.2751445    570.82787  0.016673322   0.01638032            3 
 2854000   0.79722397   -8.2796483    570.60309  0.016660917  0.016374865            1 
 2855000   0.79354516   -8.2738389    568.74743  0.016600917  0.016369381            2 
 2856000   0.80801032   -8.2466146    569.80638  0.016626003  0.016363912            3 
 2857000   0.80599527   -8.2896561    570.20893  0.016631925  0.016358431            2 
 2858000   0.80057549   -8.2353836    571.22904   0.01665585  0.016352963            2 
 2859000   0.80314739   -8.2729053    570.46844  0.016627855  0.016347503            2 
 2860000    0.8084999    -8.279225    569.79813   0.01660251  0.016342035            2 
 2861000   0.78275919   -8.2622641    569.91175  0.016600016  0.016336552            3 
 2862000   0.79270051   -8.2487333    571.12646  0.016629585  0.016331071            2 
 2863000   0.77334531   -8.2535131    570.40469  0.016602768  0.016325597            5 
 2864000   0.78867916   -8.2733089    570.76657    0.0166075  0.016320144            3 
 2865000   0.78384699   -8.2381513    571.34388  0.016618496  0.016314692            2 
 2866000   0.80209729   -8.2698647    571.85793  0.016627644  0.016309239            2 
 2867000   0.80062392   -8.2743023    571.58396  0.016613881  0.016303764            5 
 2868000   0.77699256   -8.2733472    570.89196  0.016587981  0.016298289            2 
 2869000   0.78009405   -8.2894805    570.73592  0.016577667  0.016292832            6 
 2870000   0.80597042   -8.2535979    572.71905  0.016629473   0.01628739            7 
 2871000   0.77261316   -8.2546743    571.51061  0.016588605  0.016281957            5 
 2872000   0.79482404   -8.2659735    572.58913  0.016614123  0.016276541            4 
 2873000   0.78007084    -8.276781    571.21185  0.016568391  0.016271131            2 
 2874000   0.78345199   -8.2334262    572.80599  0.016608849  0.016265727            4 
 2875000    0.7774383   -8.2198983    571.16627  0.016555544  0.016260344            1 
 2876000   0.78629166   -8.2585638    572.75072  0.016595698  0.016254958            3 
 2877000   0.79395579   -8.2653315    571.32775  0.016548712  0.016249568            2 
 2878000   0.79747567   -8.2301082    572.86324  0.016587423  0.016244163            2 
 2879000   0.78190706   -8.2637551    571.06976  0.016529749  0.016238753            4 
 2880000   0.80308978   -8.2418308    572.11403  0.016554225  0.016233368            2 
 2881000   0.79606405   -8.2621295    572.36637  0.016555778  0.016227987            4 
 2882000   0.78961209   -8.2462519    572.31717  0.016548611  0.016222624            4 
 2883000   0.79823481   -8.2471198    572.72248  0.016554587  0.016217277            1 
 2884000    0.8007086   -8.2554667    572.03006  0.016528839  0.016211898            2 
 2885000   0.79718139   -8.2423245    572.12773  0.016525931  0.016206558            3 
 2886000   0.78961378    -8.231854    571.97466  0.016515785  0.016201209            6 
 2887000    0.7822746   -8.2430871    572.47425  0.016524485  0.016195856            3 
 2888000    0.8009771   -8.2370563    573.14643  0.016538159   0.01619051            1 
 2889000   0.79702953   -8.2178531    572.59925  0.016516651  0.016185181            1 
 2890000   0.78005313   -8.2469246    571.76151  0.016486779  0.016179844            3 
 2891000   0.78654212   -8.2740233    571.79527   0.01648205  0.016174487            3 
 2892000   0.77106851   -8.2517393    572.42681  0.016494549   0.01616912            3 
 2893000   0.80046152    -8.288693    570.25567  0.016426307  0.016163719            4 
 2894000    0.7904889   -8.2455893    572.87739  0.016496124  0.016158325            2 
 2895000   0.80001663   -8.2756323    570.96917  0.016435497  0.016152937            2 
 2896000   0.78614463   -8.2561885    572.44469   0.01647228  0.016147565            3 
 2897000    0.7932084   -8.2856148    571.28671  0.016433285  0.016142177            4 
 2898000   0.80711601   -8.2559315    572.44182   0.01646083  0.016136818            5 
 2899000   0.79615817   -8.2780851    572.69936  0.016462555  0.016131457            3 
 2900000   0.79874507   -8.2596684    572.35885  0.016447093  0.016126111            2 
 2901000   0.78223122   -8.2648504    573.23213  0.016466509  0.016120752            4 
 2902000   0.77652509   -8.2809225    572.82338  0.016449098  0.016115389            6 
 2903000   0.79226371   -8.2935609    572.24037  0.016426696  0.016110036            5 
 2904000   0.78571783   -8.2737075    573.01936  0.016443393  0.016104665            6 
 2905000   0.79517752    -8.311011     571.8877   0.01640527  0.016099292            2 
 2906000   0.77250003   -8.2367912    573.69561  0.016451468  0.016093926           13 
 2907000   0.77751688   -8.2814617    572.60346  0.016414501  0.016088538            1 
 2908000   0.77575499   -8.2576337    573.03083  0.016421104  0.016083147            3 
 2909000   0.78290175   -8.2695831    572.34467  0.016395802  0.016077744            3 
 2910000   0.80024066   -8.2832453    572.88063  0.016405516  0.016072331            4 
 2911000    0.7889244   -8.2825477    572.75617  0.016396318  0.016066928            1 
 2912000   0.80386707   -8.3060891     571.2493  0.016347565  0.016061524            3 
 2913000    0.7941433   -8.2824705     571.6457  0.016353293  0.016056133            3 
 2914000   0.78103099   -8.2988921    572.49752  0.016372041   0.01605073            2 
 2915000   0.78590162   -8.3003391     571.2268  0.016330097   0.01604534            1 
 2916000   0.76247831   -8.3291772    572.95244  0.016373812  0.016039968            6 
 2917000   0.80138114   -8.2892607    573.67346  0.016388797  0.016034598            2 
 2918000    0.7901821    -8.284173    572.02812  0.016336193  0.016029247            3 
 2919000    0.7902924   -8.3027378     572.8289  0.016353457   0.01602387            4 
 2920000   0.77851222     -8.29173    572.46409  0.016337445  0.016018481            1 
 2921000    0.7811603   -8.3022104     572.5517  0.016334352  0.016013097            3 
 2922000   0.79280044   -8.3246104     572.4192  0.016324983  0.016007695            5 
 2923000   0.80276857   -8.3096523    572.52209  0.016322331   0.01600231            2 
 2924000    0.7813598   -8.3057853    572.40977  0.016313548   0.01599691            2 
 2925000   0.78609915   -8.3394967    571.42106  0.016279802  0.015991527            2 
 2926000   0.78675333   -8.3283012    571.89009  0.016287597  0.015986128            3 
 2927000   0.78070687    -8.283804    573.18369  0.016318862  0.015980735            7 
 2928000   0.77236962   -8.3219932     572.2004  0.016285303  0.015975323            8 
 2929000   0.78902219   -8.3245711    572.26841  0.016281678  0.015969915            3 
 2930000   0.79787736   -8.2969517    572.38816  0.016279527  0.015964528            4 
 2931000   0.78738569   -8.3032823    572.62847  0.016280805  0.015959139            6 
 2932000   0.78001775   -8.3046249    572.47448  0.016270875   0.01595376            3 
 2933000   0.78435089   -8.3075942    572.55327  0.016267566  0.015948406            5 
 2934000     0.772526   -8.3041982    572.55325  0.016262021  0.015943049            2 
 2935000   0.78580294    -8.313813    573.80915  0.016292139  0.015937702            2 
 2936000    0.7760492   -8.3192792    572.14397  0.016239327  0.015932332            3 
 2937000   0.77902497   -8.3110313    571.71681  0.016221678  0.015926957            2 
 2938000   0.80064165   -8.2699226    573.42877  0.016264714  0.015921588           12 
 2939000   0.77876669    -8.298929    571.93142  0.016216724  0.015916228            3 
 2940000   0.77388684   -8.3081048    573.27623  0.016249326  0.015910895            2 
 2941000   0.78831508   -8.2952993    572.58176  0.016224123   0.01590556            3 
 2942000   0.78422045   -8.3119812    571.22593  0.016180204  0.015900192            4 
 2943000   0.79164564   -8.3021915    572.89771  0.016222044  0.015894837            5 
 2944000   0.77313529   -8.3207143    572.43179  0.016203346  0.015889491            1 
 2945000   0.79193981   -8.3126729    572.88586  0.016210692  0.015884138            3 
 2946000   0.77526297   -8.2850092    572.65521  0.016198665  0.015878791            3 
 2947000   0.78892465   -8.3026893    572.13589  0.016178484  0.015873447            7 
 2948000   0.78023891   -8.3340582    571.08503   0.01614329  0.015868072            3 
 2949000   0.77917938    -8.330437    572.97835  0.016191318  0.015862723            2 
 2950000   0.80026223   -8.3168094    573.00065  0.016186459  0.015857373            2 
 2951000   0.77222724   -8.3003782    573.46314  0.016194034  0.015852027            2 
 2952000   0.77272944   -8.2978251    572.79617   0.01616972  0.015846688            2 
 2953000   0.77182086   -8.3004498    572.55014  0.016157302  0.015841338            6 
 2954000   0.74838092   -8.2919356    573.88659  0.016189534  0.015836005            2 
 2955000   0.78492974   -8.3221778    572.91528  0.016156663  0.015830657            2 
 2956000   0.77799381   -8.3003282    573.99967  0.016181768  0.015825312            2 
 2957000   0.78665675   -8.3389041    572.56318  0.016135813  0.015819935            4 
 2958000   0.79097799   -8.3423755    573.71154   0.01616271  0.015814574            2 
 2959000   0.77660477   -8.3178028    574.27836  0.016173211  0.015809217            3 
 2960000   0.77745224   -8.3144415    574.99076  0.016187803  0.015803863            3 
 2961000   0.78212024    -8.335058    572.39422   0.01610926    0.0157985            3 
 2962000   0.76560785   -8.2965825    573.53963  0.016136046  0.015793159            2 
 2963000   0.76266161   -8.2951875     573.4025  0.016126744  0.015787816            1 
 2964000   0.78354721   -8.2883764    573.62297  0.016127501  0.015782484            2 
 2965000    0.7423597    -8.270982    574.25364  0.016139788  0.015777164            3 
 2966000   0.79348253   -8.3047874    573.96396  0.016126207   0.01577185            4 
 2967000   0.75010284   -8.3258233    573.45202  0.016106393  0.015766521            3 
 2968000   0.79571375   -8.2876499    573.26915  0.016095832   0.01576116            4 
 2969000   0.77268377   -8.2866124    574.09552  0.016113605  0.015755819            3 
 2970000    0.7669731   -8.2907872     573.0727  0.016079481  0.015750498            3 
 2971000   0.78138269   -8.3185436    572.99241  0.016071817  0.015745147            4 
 2972000   0.77897478   -8.3379719    573.01212  0.016066962  0.015739789            3 
 2973000   0.78311618    -8.314044    573.56073  0.016076935   0.01573441            6 
 2974000   0.78991489    -8.310972    572.68528  0.016046998  0.015729056            3 
 2975000   0.76901333   -8.3603716    571.08825   0.01599687  0.015723697            3 
 2976000   0.79673326   -8.3482524    573.01039  0.016045318  0.015718333            2 
 2977000   0.76252719    -8.364135    572.18409  0.016016798  0.015712966            2 
 2978000   0.76835939   -8.3081583    573.96813  0.016061342  0.015707603            6 
 2979000   0.78183306   -8.3367614    573.85453  0.016052773  0.015702247            2 
 2980000   0.77537435   -8.3383496    571.09061  0.015970095  0.015696877            2 
 2981000   0.78852572   -8.3532733    572.94491  0.016016575    0.0156915            3 
 2982000   0.77275048   -8.3473465    573.69388  0.016032134  0.015686101            5 
 2983000   0.78115906   -8.3233047    572.44435  0.015991852  0.015680713            4 
 2984000   0.77831497   -8.3672349    572.80058  0.015996442  0.015675324            3 
 2985000   0.77587384   -8.3237191    573.71063  0.016016489  0.015669975            2 
 2986000   0.76686351   -8.3386203    572.77936  0.015985135   0.01566462            1 
 2987000   0.77873581   -8.3837098    572.32249  0.015967038  0.015659238            2 
 2988000   0.77248674   -8.3420611    572.37772  0.015963234  0.015653866            2 
 2989000   0.78284197   -8.3530677    572.75719  0.015968473  0.015648487            3 
 2990000   0.77414936   -8.3314156    572.99331  0.015969713  0.015643102            2 
 2991000   0.75602442   -8.3223501    572.14585  0.015940763  0.015637721            3 
 2992000   0.77345006   -8.3421235    571.37434  0.015913947  0.015632359            1 
 2993000   0.77092489   -8.3728478    572.58576  0.015942359  0.015627014            4 
 2994000   0.77913465   -8.3229423    573.53602  0.015963483  0.015621652            3 
 2995000   0.77619773   -8.3539702    573.07054  0.015945202   0.01561629            2 
 2996000   0.76880051   -8.3614701    572.52797  0.015924788  0.015610934            1 
 2997000   0.76915191   -8.3658084    573.13939  0.015936475  0.015605585            3 
 2998000   0.78761362   -8.3188499    574.42097  0.015966783   0.01560026            1 
 2999000   0.78087193   -8.3465153    573.41933  0.015933626  0.015594936            3 
 3000000   0.75977831   -8.3266573    573.88898  0.015941361  0.015589603            3 
 3001000   0.74675703   -8.3427012     573.5477  0.015926572  0.015584285            2 
 3002000   0.76462448   -8.3353443    572.61249  0.015895306  0.015578968            3 
 3003000   0.75552943      -8.2978    574.68371  0.015947489  0.015573651            2 
 3004000   0.76418451   -8.3521626    573.74661  0.015916184  0.015568328            3 
 3005000   0.78115578   -8.3451348    573.85225  0.015913817  0.015562996            3 
 3006000   0.79021262   -8.3558622    572.60094  0.015873834  0.015557665            3 
 3007000   0.78961077   -8.3307069    572.32215  0.015860829  0.015552317            4 
 3008000   0.78322211   -8.3226887    573.62042  0.015891523  0.015546974            3 
 3009000   0.76809716   -8.3485321    572.50479  0.015855345  0.015541642            2 
 3010000   0.76063888    -8.352943    573.50489  0.015877765  0.015536295            2 
 3011000   0.75126925   -8.3670334      572.263  0.015838121  0.015530941            3 
 3012000   0.76084045   -8.3521128     573.0868  0.015855655  0.015525586            2 
 3013000   0.78089734   -8.3408268    572.98837   0.01584767  0.015520238            1 
 3014000    0.7610263   -8.3179784    571.06817  0.015789321  0.015514886            2 
 3015000    0.7697878   -8.3268449    573.32218  0.015846384  0.015509529            1 
 3016000    0.7752977   -8.3444031    572.10833  0.015807591  0.015504161            2 
 3017000   0.77011686    -8.331503    571.65246   0.01578976  0.015498797            4 
 3018000   0.77157292   -8.3384933    573.84752  0.015845138  0.015493421            2 
 3019000   0.75682232   -8.3649139    572.39175  0.015799706  0.015488048            1 
 3020000   0.77694899   -8.3344223    572.86255  0.015807466  0.015482686            5 
 3021000   0.77928881   -8.3525206    572.70531  0.015797896  0.015477335            3 
 3022000   0.74702578   -8.3442867    572.12425  0.015776645  0.015471976            2 
 3023000   0.76737074   -8.3399353     572.4432  0.015780218  0.015466637            2 
 3024000   0.77116324   -8.3932003    571.23777  0.015741782  0.015461264            1 
 3025000   0.77229935   -8.3714067    571.82188  0.015752669  0.015455891           11 
 3026000   0.76507104    -8.342875    573.22703   0.01578616  0.015450522            1 
 3027000   0.76897984   -8.3411141    573.90779  0.015799686  0.015445179            5 
 3028000    0.7625063   -8.3721782    573.28934  0.015777448  0.015439831            3 
 3029000   0.77791663   -8.3731688    573.03279  0.015765181  0.015434483            1 
 3030000   0.77349951   -8.3673324    573.05452  0.015760575  0.015429134            4 
 3031000   0.75917313   -8.3822976    572.97393   0.01575316  0.015423798            3 
 3032000   0.78557357   -8.3520996    573.12517  0.015752121  0.015418491            2 
 3033000   0.76661267   -8.3239919    574.71658  0.015790652  0.015413165            6 
 3034000   0.76638248   -8.3397889    573.74459  0.015758751  0.015407858            3 
 3035000   0.77255158   -8.3486397    573.59647  0.015749491  0.015402557            1 
 3036000   0.76184704   -8.3397347    573.02429  0.015728598  0.015397261            1 
 3037000   0.77597557   -8.3352973    574.45738  0.015762742  0.015391991            2 
 3038000   0.73860096   -8.3395987    573.91401  0.015742649  0.015386724            5 
 3039000   0.75961532   -8.3298282    574.95746  0.015766081  0.015381473            3 
 3040000   0.76907441   -8.3282218    573.61728  0.015724158  0.015376199            4 
 3041000   0.76756143   -8.3418198    574.89291  0.015753944  0.015370903            1 
 3042000   0.75797267   -8.3460068    573.68335   0.01571563  0.015365615            5 
 3043000   0.75294935   -8.3355206    573.98657  0.015718769  0.015360332            1 
 3044000   0.77395588   -8.3519092    574.88385  0.015738169   0.01535505            1 
 3045000   0.74362621    -8.368211    573.04656  0.015682719  0.015349767            2 
 3046000   0.77700627   -8.3131106    574.49412  0.015717173  0.015344503            4 
 3047000   0.78431548   -8.3286069     574.9125  0.015723458  0.015339246            1 
 3048000   0.74367232   -8.3617319    572.81574  0.015660973  0.015333977            1 
 3049000   0.78649524   -8.3870101    572.89979  0.015658134  0.015328681            1 
 3050000   0.76672062   -8.3665933    574.15352  0.015687255  0.015323388            4 
 3051000   0.75716906   -8.3874884    573.80552  0.015672608  0.015318085            1 
 3052000   0.76622602   -8.3494734    574.31183  0.015681297  0.015312793            3 
 3053000   0.76274292   -8.3270129      574.847  0.015690769  0.015307507            5 
 3054000   0.76175104   -8.3314324    575.21437  0.015695655  0.015302232            4 
 3055000   0.77920607   -8.3628223    573.30132  0.015638334  0.015296939            2 
 3056000   0.77040998    -8.343562    573.15941  0.015629347  0.015291655            2 
 3057000   0.75259327   -8.3470247    574.28658  0.015654961  0.015286396            2 
 3058000    0.7630167   -8.3486005    574.61986  0.015658923  0.015281147            3 
 3059000    0.7512363   -8.3510157    574.06754  0.015638758  0.015275905            2 
 3060000   0.74388284   -8.3531451    574.10062  0.015634548  0.015270661            2 
 3061000   0.77240209   -8.3449077    575.56598  0.015669334  0.015265421            2 
 3062000   0.74869375   -8.3443204    573.56891  0.015609866  0.015260166            4 
 3063000   0.74988056   -8.3452693    574.80235  0.015638327  0.015254904            2 
 3064000    0.7569748   -8.3226588    575.84807  0.015661664  0.015249668            3 
 3065000   0.78554488   -8.3274281    574.98388  0.015633058  0.015244442            6 
 3066000   0.76192793   -8.3404695    573.49657  0.015587534  0.015239197            3 
 3067000   0.75454116   -8.3327588    573.59666  0.015585172   0.01523395            2 
 3068000   0.75487855   -8.3445141    575.55701  0.015633339  0.015228714            2 
 3069000   0.76487621   -8.3560222    575.00444  0.015613241  0.015223501            2 
 3070000   0.77954763   -8.3520139    574.23846  0.015587363  0.015218274            2 
 3071000   0.76510154   -8.3420603    575.12337    0.0156063  0.015213028            2 
 3072000   0.75028567   -8.3610407    575.56223  0.015613125  0.015207789            2 
 3073000   0.75212365   -8.3453249    574.73949  0.015585733  0.015202557            2 
 3074000   0.76402254   -8.3715407    574.06729   0.01556244   0.01519733            4 
 3075000   0.75643203    -8.360697    575.56982  0.015598098  0.015192091            2 
 3076000    0.7752402   -8.3521018    574.38442  0.015560913  0.015186851            7 
 3077000   0.75215906   -8.3443698    574.99747  0.015572459  0.015181628            5 
 3078000   0.75233457   -8.3274917    575.61462  0.015584108  0.015176385            3 
 3079000   0.74559552   -8.3575426    573.07009  0.015510179  0.015171158            2 
 3080000   0.75938999   -8.3586234    575.17838  0.015562185  0.015165921           10 
 3081000   0.76196912   -8.3548857    575.17651  0.015557084  0.015160682            3 
 3082000   0.74493273   -8.3341434    575.23095  0.015553508  0.015155455            4 
 3083000    0.7589756   -8.3315825     574.4239  0.015526649  0.015150238            2 
 3084000    0.7627195   -8.3601688    574.91888  0.015534989  0.015145028            2 
 3085000    0.7550761   -8.3853148    574.31686  0.015513691  0.015139815            2 
 3086000   0.75013796   -8.3297321    574.58861  0.015516003  0.015134603            2 
 3087000   0.75155063   -8.3746237    574.01601  0.015495519  0.015129377            4 
 3088000   0.76598613   -8.3502348    575.80633  0.015538815  0.015124169            2 
 3089000   0.74863366   -8.3650902    573.88844  0.015482045  0.015118976            2 
 3090000   0.75199497   -8.3415343    575.51413  0.015520877  0.015113803            2 
 3091000   0.76283479   -8.3425967    576.09763  0.015531587  0.015108638            2 
 3092000   0.76452123   -8.3525893    575.99332  0.015523753  0.015103463            2 
 3093000   0.76229649   -8.3466325     576.2151  0.015524709  0.015098281            2 
 3094000   0.74950364   -8.3875974    574.57968  0.015475643  0.015093095            4 
 3095000    0.7551261    -8.357133    575.56991  0.015497305  0.015087899            3 
 3096000   0.75733533   -8.3714264    575.06893  0.015478815  0.015082713            7 
 3097000   0.77349013    -8.373432    574.65237  0.015462608  0.015077522            2 
 3098000   0.77182428   -8.3995141    574.18986  0.015445176  0.015072327            2 
 3099000   0.77152259   -8.3830632    575.35029  0.015471396  0.015067132            4 
 3100000   0.75230351   -8.3756111    575.62744  0.015473856  0.015061926            2 
 3101000   0.77447566   -8.3990518    573.36856  0.015408163  0.015056718            3 
 3102000   0.75106483   -8.3858396    573.94441  0.015418666  0.015051502            1 
 3103000    0.7610122   -8.3603256    574.74029  0.015435071  0.015046306            1 
 3104000   0.76007335   -8.3478777    574.80372  0.015431801  0.015041116            3 
 3105000   0.74763586   -8.3605484     575.0611  0.015433739  0.015035926            2 
 3106000   0.75111054   -8.3833204    574.81601  0.015422194  0.015030739            3 
 3107000   0.75048928   -8.3716191    574.61433  0.015411821  0.015025548            3 
 3108000   0.75775879   -8.3678648    574.96763  0.015416335  0.015020362            3 
 3109000   0.74890854    -8.374074    574.39758  0.015396097   0.01501518            8 
 3110000   0.76249906    -8.382045    573.85413  0.015376584  0.015009994            2 
 3111000   0.76631044   -8.3551045    575.41258  0.015413388  0.015004808            6 
 3112000   0.74753829   -8.3614354    575.24066  0.015403831  0.014999635            5 
 3113000   0.76150345   -8.3963984    574.57649  0.015381103  0.014994448            3 
 3114000   0.75542987   -8.3770737    574.55331  0.015375543  0.014989256            2 
 3115000   0.75803901   -8.3476951    574.94755  0.015381154  0.014984073            4 
 3116000   0.74948445   -8.3333553    575.16857  0.015382129    0.0149789            2 
 3117000    0.7417643   -8.3595563    574.76491  0.015366402  0.014973735            4 
 3118000   0.76282472   -8.3794538    575.78665  0.015388782  0.014968551            2 
 3119000   0.74861992   -8.3468708    576.34054  0.015398646   0.01496338            4 
 3120000   0.73748291   -8.3626412    575.22477  0.015363909  0.014958217            2 
 3121000   0.75747199   -8.3472541    576.28263  0.015387232  0.014953053            2 
 3122000   0.76480619   -8.3834741    575.26066  0.015355025  0.014947883            3 
 3123000   0.75330826   -8.3694851    575.27654  0.015350532  0.014942714            3 
 3124000    0.7507831   -8.3601723    575.50965  0.015351837  0.014937555            4 
 3125000   0.73893152    -8.383549    575.09864  0.015335964  0.014932388            3 
 3126000   0.73889544    -8.378789    574.39233  0.015312229  0.014927226            3 
 3127000   0.76718984   -8.3598735    574.62981  0.015313661  0.014922064            6 
 3128000   0.74782069   -8.3802854    575.50232   0.01533201  0.014916911            2 
 3129000   0.76159671   -8.3764847    575.38316  0.015323936  0.014911767            2 
 3130000   0.75136099   -8.4011298    575.14692  0.015312751  0.014906606            5 
 3131000   0.75993568    -8.391532    574.57576  0.015292658  0.014901426            3 
 3132000   0.73974575   -8.3663275    575.76541  0.015319429   0.01489626            4 
 3133000   0.74387045   -8.3944947     574.5844  0.015283126  0.014891092            1 
 3134000   0.72897771   -8.4027171    574.39346  0.015273172  0.014885916            2 
 3135000   0.75600699   -8.3756538     575.0047  0.015284548  0.014880734            4 
 3136000   0.74580956   -8.4035302    575.57178  0.015294743  0.014875558            2 
 3137000   0.75504545    -8.367412    574.22256  0.015254026   0.01487039            3 
 3138000   0.74793343   -8.3879479    575.91709  0.015294165  0.014865217            5 
 3139000   0.77073892   -8.3909423    575.22021  0.015270792  0.014860045            2 
 3140000   0.75279902   -8.4116948     575.6881  0.015278347   0.01485486            5 
 3141000   0.74242502    -8.390977    575.01991  0.015255755  0.014849689            5 
 3142000   0.74519689   -8.4122687    574.60819  0.015239979  0.014844528            8 
 3143000   0.75071374   -8.4085923    573.10556   0.01519529  0.014839356            1 
 3144000   0.76241642   -8.4043261    573.68054  0.015205697  0.014834163            3 
 3145000    0.7635308   -8.3908525    574.23258   0.01521549  0.014828966            9 
 3146000   0.74913613   -8.4376036    573.62224  0.015194486  0.014823764            4 
 3147000   0.74547414   -8.3881597    575.11776   0.01522926   0.01481859            2 
 3148000   0.74061795    -8.413194    575.83319  0.015243361  0.014813419            4 
 3149000   0.75868801   -8.3750109    575.53766  0.015230699  0.014808264            3 
 3150000   0.73849191   -8.3902787     574.0387  0.015186209  0.014803094           10 
 3151000   0.74815503   -8.4153979    575.00453  0.015206933  0.014797939            3 
 3152000   0.73961551   -8.4179902    574.20301  0.015180917  0.014792768            3 
 3153000    0.7511034   -8.4232229    575.42134  0.015208303  0.014787606            6 
 3154000   0.72766153   -8.3910916      575.651  0.015209549  0.014782464            6 
 3155000   0.74859506   -8.4012956    575.53407  0.015201639  0.014777323            6 
 3156000   0.75290738   -8.4314548    573.94707  0.015154918  0.014772159            3 
 3157000   0.74745731   -8.4177553    574.39089  0.015161833   0.01476699            2 
 3158000   0.76536802   -8.4002124    575.33819   0.01518203  0.014761843            5 
 3159000   0.74394636    -8.397342    575.48913  0.015181205  0.014756686            2 
 3160000   0.72985123   -8.4122462     574.7948  0.015158091  0.014751533            4 
 3161000   0.74318321   -8.3951362    574.28942  0.015139972  0.014746379            3 
 3162000     0.723107   -8.4239106    574.97888  0.015153354  0.014741212            3 
 3163000   0.73210624   -8.4187609    574.59639  0.015138486  0.014736045            1 
 3164000   0.74458762   -8.4210101    574.01261  0.015118326  0.014730883            1 
 3165000   0.74613332    -8.408763    574.40834  0.015123969  0.014725717            2 
 3166000    0.7451412   -8.4060442    575.23901  0.015141056  0.014720546            2 
 3167000   0.75439653   -8.3821094    576.38679  0.015166477  0.014715405            2 
 3168000   0.75203575   -8.3951509    574.97631  0.015124587  0.014710269            2 
 3169000   0.75093761   -8.3800055    575.66121  0.015137825  0.014705138            2 
 3170000   0.75632375   -8.3917973    574.56849  0.015104324  0.014699999            1 
 3171000   0.75099243    -8.398101    573.62554   0.01507478  0.014694846            2 
 3172000   0.74775674   -8.4066535    575.62667  0.015122601  0.014689714            2 
 3173000   0.74182638   -8.3708342    575.93866  0.015126028  0.014684598            1 
 3174000   0.73718569    -8.367808    575.99674  0.015122788  0.014679482            6 
 3175000   0.75163757    -8.420611    574.07923  0.015067696  0.014674361            2 
 3176000    0.7375818   -8.4062269     576.6293  0.015129862  0.014669232            4 
 3177000   0.76486809   -8.4017558    576.21167  0.015114145  0.014664105            3 
 3178000   0.74018788   -8.4201569    575.18824  0.015082553  0.014658966            3 
 3179000   0.73686339   -8.4069972    576.85277  0.015121442  0.014653837            2 
 3180000   0.74244158   -8.4087236    575.16266  0.015072397   0.01464871            2 
 3181000   0.74799059   -8.3899868    574.74655  0.015056758  0.014643582            3 
 3182000   0.73412186   -8.4134046    575.67719  0.015076398  0.014638459            2 
 3183000   0.73748346   -8.4193293    575.93682  0.015078459  0.014633344            5 
 3184000    0.7510002   -8.4008021     574.4865  0.015035765   0.01462822            2 
 3185000   0.74542536   -8.4222897    574.80697  0.015039429  0.014623083            3 
 3186000    0.7376842   -8.4077899    574.79186  0.015034313  0.014617952            4 
 3187000   0.74548205   -8.4152299      574.619  0.015025076  0.014612818            2 
 3188000    0.7320131   -8.4395602    574.14175  0.015007888  0.014607692            5 
 3189000   0.72170021   -8.4114577    573.60427  0.014989136  0.014602555            2 
 3190000   0.74083794   -8.4087747    574.16497  0.014999085  0.014597421            4 
 3191000   0.74024587   -8.4230475    574.61849  0.015006228  0.014592291            5 
 3192000   0.74127234   -8.4023037    574.83361  0.015007143  0.014587167            3 
 3193000   0.73187473   -8.4119487    574.32619    0.0149892  0.014582048            6 
 3194000   0.73513074   -8.4302907     574.1269  0.014979307  0.014576934            4 
 3195000    0.7289017   -8.4126792    575.28071  0.015004713  0.014571824            2 
 3196000   0.74017907   -8.4303116    574.54901   0.01498094  0.014566705            2 
 3197000    0.7504504   -8.4099827    574.63828  0.014978581  0.014561591            4 
 3198000   0.74429121   -8.4035389    576.11385  0.015012348  0.014556488            2 
 3199000   0.75205167   -8.4119221    575.25286  0.014985226  0.014551379            1 
 3200000   0.73978553   -8.4112326    575.67229  0.014991466  0.014546271            2 
 3201000   0.73983924   -8.4002982    575.80447  0.014990224  0.014541175            5 
 3202000   0.74266787   -8.4127481    576.45767  0.015002542  0.014536067            3 
 3203000   0.73934436   -8.4006074    574.68208  0.014951662  0.014530983            3 
 3204000   0.74629688    -8.434223     574.1505   0.01493317  0.014525891            6 
 3205000   0.73996071   -8.4425217    575.11275   0.01495353  0.014520806            4 
 3206000   0.73532019   -8.4119597    574.94714  0.014944561   0.01451572            3 
 3207000   0.72487767   -8.4330775    574.63663  0.014931832  0.014510616            4 
 3208000   0.73547041   -8.4377424     574.9123  0.014934339  0.014505509            1 
 3209000   0.73273603   -8.4302188    575.13547   0.01493548  0.014500396            2 
 3210000   0.74152756   -8.4379976    575.15492  0.014931332  0.014495277            4 
 3211000   0.74408785   -8.4399534    574.38972  0.014906823  0.014490158            3 
 3212000   0.75823681   -8.4403014    574.67627  0.014909617  0.014485025            5 
 3213000   0.73644792   -8.4186421    573.64431  0.014878211    0.0144799            4 
 3214000   0.74507139    -8.445356    575.00443  0.014908847  0.014474784            2 
 3215000   0.75133389   -8.4191099    575.49028  0.014916804  0.014469659            3 
 3216000   0.74372255   -8.4504691    574.76412  0.014893349  0.014464538            1 
 3217000   0.71362399   -8.4152809    573.75539  0.014862589  0.014459415            4 
 3218000   0.73297048   -8.4245279    573.61362  0.014854299   0.01445428            3 
 3219000   0.74131576    -8.439781    575.35467  0.014894757  0.014449173            6 
 3220000   0.74974739   -8.4715184    574.15405  0.014859059  0.014444057            7 
 3221000   0.71971419   -8.4364271    576.41326  0.014912896  0.014438942            7 
 3222000   0.74999025   -8.4335615    573.90982  0.014843519  0.014433836            3 
 3223000   0.75618342   -8.4280346    575.45318  0.014878818  0.014428728            5 
 3224000   0.73607726   -8.4604775    573.86801   0.01483323  0.014423612            3 
 3225000   0.72201971   -8.4243222    575.59762  0.014873324  0.014418505            3 
 3226000   0.73038893   -8.4239846    576.29543  0.014886739  0.014413419            4 
 3227000   0.73488784   -8.4292178    575.20304  0.014853916  0.014408333            3 
 3228000   0.73292483    -8.449738      574.175  0.014822775  0.014403233            2 
 3229000   0.73483125   -8.4433474      575.079  0.014841514  0.014398127            5 
 3230000   0.74196196   -8.4272504    575.33925  0.014843634  0.014393039            5 
 3231000   0.73958248   -8.4451379    574.27615  0.014811621  0.014387944            4 
 3232000   0.73320099   -8.4541872    574.49419  0.014812659   0.01438286            2 
 3233000    0.7307802   -8.4373083    574.81652  0.014816386  0.014377795            3 
 3234000    0.7363805   -8.4488677    574.82299  0.014811971  0.014372727            4 
 3235000   0.73898801   -8.4179892    575.79024  0.014832309   0.01436767            2 
 3236000   0.71956512   -8.4235867    576.99394  0.014858723  0.014362627            3 
 3237000   0.74698953   -8.4290109    575.37892  0.014812556  0.014357597            3 
 3238000   0.74553861   -8.4408284    574.17564  0.014777014  0.014352555            6 
 3239000   0.74461057   -8.4216658    575.99792  0.014819335  0.014347501            2 
 3240000   0.73159528   -8.3968364    576.13406  0.014818263  0.014342444            2 
 3241000   0.73646218   -8.4469252    575.34965  0.014793522  0.014337393            6 
 3242000   0.72624705   -8.4474048    574.46212  0.014766145  0.014332321            2 
 3243000    0.7213929   -8.4621227    575.96382   0.01480018  0.014327256            3 
 3244000   0.74572213   -8.4706552    574.06821  0.014746923  0.014322178            3 
 3245000    0.7299411    -8.482778    573.99276  0.014740441  0.014317101            4 
 3246000   0.73284247   -8.4392191    575.12505  0.014764968  0.014312027            2 
 3247000   0.74064354   -8.4477546    574.53005  0.014745151  0.014306947            2 
 3248000   0.71765652   -8.4363215    574.88337  0.014749676  0.014301877            3 
 3249000   0.71857895   -8.4601466    573.89455  0.014719774  0.014296807            4 
 3250000   0.71782626   -8.4570165    573.27965  0.014699478  0.014291736            3 
 3251000   0.75789393   -8.4333495    575.00996   0.01473931   0.01428666            5 
 3252000   0.72464564    -8.479164    574.69252  0.014726643  0.014281593            2 
 3253000   0.72902325   -8.4730619    575.27531  0.014737046  0.014276529           10 
 3254000   0.74052788   -8.4550887    574.19135  0.014704757  0.014271441            3 
 3255000   0.72500592   -8.4474509    575.20079  0.014726083   0.01426638            1 
 3256000   0.73098795   -8.4745932     574.3506    0.0146998  0.014261306            5 
 3257000    0.7419367   -8.4523601    574.14036  0.014689908  0.014256237            4 
 3258000   0.74438203   -8.4788106    574.45475  0.014693441  0.014251171            3 
 3259000   0.73275918   -8.4631007    573.84525  0.014673347  0.014246103            9 
 3260000   0.70990032   -8.4306891    573.87044   0.01466949  0.014241047            6 
 3261000   0.72268469   -8.4446855    575.52058   0.01470716  0.014235979            9 
 3262000   0.70549277   -8.4639842    575.11162  0.014692204  0.014230921            7 
 3263000   0.73218622   -8.4401258    575.63337  0.014701026  0.014225869            3 
 3264000   0.72958228   -8.4754004    574.21473  0.014660303  0.014220813            3 
 3265000   0.73508062   -8.4498778    573.51087  0.014637848  0.014215753            3 
 3266000   0.73924274   -8.4658604    573.86418  0.014642381  0.014210696            1 
 3267000   0.73141219   -8.4800302     574.5489  0.014655364  0.014205628            2 
 3268000   0.73742388   -8.4825391    574.17569  0.014641363  0.014200556            2 
 3269000   0.72266528   -8.4490505     574.0028  0.014632477  0.014195487            2 
 3270000   0.72942576   -8.4431361    574.52168  0.014641225  0.014190432            1 
 3271000   0.72154388   -8.4451539    574.61606  0.014639154   0.01418537            2 
 3272000   0.71899086   -8.4832868    574.28661  0.014626289  0.014180315            4 
 3273000   0.74242919   -8.4554978    574.18397  0.014619207  0.014175245            2 
 3274000   0.70297592   -8.4651489    573.14704  0.014588349  0.014170171            2 
 3275000   0.73026146   -8.4719056    574.35489  0.014614628  0.014165111            4 
 3276000   0.72412846   -8.4714882     574.9039  0.014624133  0.014160046            3 
 3277000   0.72946451   -8.4457146    574.26857  0.014603514  0.014154984            2 
 3278000   0.72727377   -8.4619001    573.82035  0.014587664   0.01414993            1 
 3279000    0.7276016   -8.4562005    574.68014  0.014605066  0.014144879            3 
 3280000   0.72468112    -8.473052    573.78157  0.014577784  0.014139827            3 
 3281000   0.71948748   -8.4693505      575.493  0.014616809  0.014134779            6 
 3282000   0.71842099   -8.4432996    574.93258  0.014598126  0.014129727            3 
 3283000   0.72123776   -8.4602166    574.26953  0.014576849  0.014124694            2 
 3284000   0.73328912   -8.4786913    575.10657   0.01459365  0.014119659            3 
 3285000   0.74324368   -8.4497434    575.33859  0.014595094  0.014114637            3 
 3286000   0.73982966   -8.4411456    574.25343  0.014563132  0.014109624            3 
 3287000   0.70725382   -8.4520703    575.14126   0.01458121   0.01410461            2 
 3288000   0.73450859   -8.4680329      575.493   0.01458569   0.01409959            5 
 3289000   0.71441292   -8.4407401    575.49013  0.014581183  0.014094572            3 
 3290000   0.71133099   -8.4564307    574.07759  0.014540972  0.014089566            1 
 3291000   0.71672223   -8.4714863    573.43369  0.014520249   0.01408455            3 
 3292000   0.72136063   -8.4777751    573.98239  0.014529728  0.014079516            3 
 3293000   0.71379833   -8.4556105    574.86318  0.014547605  0.014074497            3 
 3294000   0.72258553   -8.4705426    573.95381  0.014520183  0.014069474            3 
 3295000   0.72324272   -8.4861107    574.25805  0.014523471   0.01406445            3 
 3296000    0.7278686   -8.4544211    575.34836  0.014546631  0.014059432            3 
 3297000   0.71681446   -8.4807169    575.42076  0.014544049  0.014054418            3 
 3298000   0.72014229   -8.4534358    575.18875  0.014533777  0.014049403            5 
 3299000   0.72671616   -8.4493207    574.90263  0.014522144  0.014044402            3 
 3300000   0.72840891   -8.4287503    574.70183  0.014512672  0.014039409            6 
 3301000    0.7157091   -8.4579608    574.05032  0.014491829  0.014034409            5 
 3302000   0.72033766   -8.4682363    575.08487  0.014513549   0.01402942            3 
 3303000   0.72532623   -8.4566829    575.89796  0.014529669   0.01402443            4 
 3304000   0.72808517   -8.4815681     574.6925  0.014494867  0.014019454            2 
 3305000   0.72141164   -8.4514027    574.45427  0.014484475  0.014014478            2 
 3306000   0.72281057    -8.485571    575.04276  0.014494927  0.014009492            5 
 3307000    0.7191732   -8.4527196    576.09897   0.01451716  0.014004512            3 
 3308000   0.74101207   -8.4306012    576.63234  0.014526208  0.013999546            5 
 3309000   0.71724305   -8.4605471    575.86193  0.014502416  0.013994585            4 
 3310000    0.7329709   -8.4489836    575.61214  0.014491746  0.013989636            1 
 3311000   0.71784275   -8.4532449    576.65629  0.014513649  0.013984679            3 
 3312000   0.72131983   -8.4644481     575.1501  0.014471369  0.013979726            2 
 3313000   0.71420533   -8.4567872    575.00023  0.014463231  0.013974764            7 
 3314000   0.72576661    -8.487773    574.85508  0.014455217  0.013969784            1 
 3315000    0.7019587   -8.4361721    575.49596  0.014466967  0.013964821            2 
 3316000   0.71389983   -8.4939602    574.12606  0.014428178  0.013959855            2 
 3317000   0.72440335   -8.4698042    575.30507  0.014453449   0.01395488            3 
 3318000   0.71388907   -8.4919019    575.29948  0.014448952  0.013949918            1 
 3319000   0.70780502   -8.4588958    574.38681  0.014421684   0.01394495            5 
 3320000   0.71788693   -8.4709909    575.41505  0.014443149  0.013939984            2 
 3321000   0.72235778   -8.4407922    574.92193  0.014426426  0.013935017            3 
 3322000   0.73433192   -8.4441818    575.22501  0.014429686  0.013930074            3 
 3323000   0.72349878   -8.4572155    575.90753   0.01444246  0.013925138            1 
 3324000    0.7138788   -8.4508895    575.01321  0.014415694  0.013920201            2 
 3325000   0.72492443   -8.4859433    575.45319  0.014422386  0.013915261            4 
 3326000   0.71906594   -8.4625738     575.1002  0.014409205   0.01391032            2 
 3327000   0.72066728   -8.4766799    575.01236  0.014402674   0.01390537            4 
 3328000    0.7329501   -8.4808365    574.64347  0.014389109  0.013900419            1 
 3329000     0.727754    -8.448539    574.81876  0.014389175  0.013895474            3 
 3330000   0.70803946   -8.4902534    575.34929   0.01439813  0.013890522            2 
 3331000   0.72386768   -8.4427151    576.50065  0.014422612  0.013885597            2 
 3332000    0.7120987   -8.4316591    576.37388  0.014415113  0.013880671            3 
 3333000   0.70768916   -8.4909675     575.8792   0.01439842  0.013875747            2 
 3334000   0.70457773   -8.4608706    575.58546  0.014386759  0.013870815            2 
 3335000   0.71065604    -8.458947    575.74506  0.014386433  0.013865872            2 
 3336000   0.73929638   -8.4951003    575.84834  0.014384701  0.013860952            4 
 3337000   0.71945413    -8.453269    576.44027  0.014395172  0.013856017            4 
 3338000     0.718125   -8.4626145     575.5665  0.014369046  0.013851091            3 
 3339000    0.7037079   -8.4860198    575.82448  0.014371181  0.013846165            4 
 3340000   0.71130754   -8.4794287    574.73071  0.014339589  0.013841234            4 
 3341000    0.7249618   -8.4821743    574.98563  0.014341655  0.013836321            3 
 3342000   0.71416858   -8.4718227    574.38942  0.014322497  0.013831398            1 
 3343000   0.70976117   -8.5012695     574.5112  0.014321248  0.013826482            1 
 3344000   0.69972729   -8.4554097    576.77515  0.014373384  0.013821556            2 
 3345000   0.71894387   -8.4588819    575.66732  0.014341488  0.013816639            1 
 3346000    0.7120759   -8.4576772    575.19217  0.014325368  0.013811711            3 
 3347000    0.7174139   -8.4992983     576.3308  0.014349437  0.013806788            4 
 3348000    0.7174146   -8.4819205    575.17794  0.014316456  0.013801884            5 
 3349000   0.72020608   -8.4788257    575.51085  0.014320465  0.013796962            3 
 3350000   0.70297411   -8.4880221    573.80311  0.014273709  0.013792044            4 
 3351000   0.71576477   -8.4810774    575.28722  0.014306357   0.01378713            4 
 3352000   0.72171003     -8.48394    576.02066  0.014320323  0.013782234            7 
 3353000   0.72613182   -8.4518879    574.88832  0.014287909  0.013777332            3 
 3354000   0.70966064   -8.4780902    575.06616  0.014288068   0.01377243            3 
 3355000   0.71773984   -8.4523661     575.2723  0.014288929   0.01376752            4 
 3356000   0.70985413   -8.4690974    574.80771  0.014273135  0.013762609            1 
 3357000   0.70109505   -8.4689992    574.38231  0.014258324  0.013757692            2 
 3358000    0.7214612   -8.4772277    574.58309   0.01425906   0.01375279            2 
 3359000   0.71334311   -8.4804868     575.8283  0.014285708   0.01374789            3 
 3360000   0.69852486   -8.4450239    574.77931  0.014255439  0.013743003            3 
 3361000   0.71346837   -8.4589282    575.15651   0.01426055  0.013738113            5 
 3362000   0.71381604   -8.4736719    574.29269  0.014234897  0.013733218            6 
 3363000   0.72266604   -8.4997826    575.31539  0.014256006  0.013728332            3 
 3364000   0.70586051   -8.4719617    575.73571  0.014262181  0.013723446            3 
 3365000   0.72687771    -8.464686    575.02839  0.014240426  0.013718557            3 
 3366000   0.71078061   -8.4720875    574.94883  0.014234225  0.013713677            4 
 3367000   0.71107913   -8.4466483    576.14837  0.014259686  0.013708783            2 
 3368000   0.70372865    -8.479463    574.70244  0.014219676  0.013703899            2 
 3369000   0.71690811   -8.5067523    575.14806  0.014226478  0.013699012            3 
 3370000   0.71301724   -8.4740561    575.25378  0.014224871  0.013694126            2 
 3371000   0.71292083   -8.4736467    575.52513  0.014227359  0.013689249            6 
 3372000   0.71919368   -8.4949267    575.71557  0.014227846  0.013684382            3 
 3373000   0.71654452   -8.4601215    575.72731  0.014223918  0.013679521            4 
 3374000   0.70901734   -8.4844751    575.23632  0.014207576  0.013674653            2 
 3375000   0.71871584   -8.4564518     575.3461  0.014206076  0.013669791            2 
 3376000   0.69775847   -8.4595559    575.72313  0.014211175  0.013664919            3 
 3377000   0.71926252   -8.4876324    575.32038  0.014197028   0.01366004            4 
 3378000   0.70784183   -8.4894279    575.75653  0.014203585  0.013655163            4 
 3379000    0.7072608   -8.4670105    574.85131  0.014177057  0.013650296            1 
 3380000   0.71611447   -8.4613899     575.8953  0.014198602  0.013645441            1 
 3381000   0.70439549   -8.4953739    575.19783  0.014177212  0.013640575            3 
 3382000   0.71382969    -8.492176    575.19692  0.014172997  0.013635718            3 
 3383000   0.72030888   -8.5010823    574.91782  0.014161933  0.013630852            2 
 3384000   0.71964779   -8.4607202    575.42827  0.014170318  0.013625989            3 
 3385000   0.71914369   -8.4778129    576.63522  0.014195845  0.013621139            3 
 3386000    0.7120048   -8.4807021    574.88242  0.014148514  0.013616289            2 
 3387000   0.71474809   -8.4743755    576.06697  0.014173481   0.01361145            1 
 3388000   0.71439616   -8.4937151    574.67662    0.0141351  0.013606607            5 
 3389000    0.7100046   -8.4881079     575.2089  0.014144017  0.013601762            3 
 3390000   0.71612358   -8.4784443     576.1106  0.014162011  0.013596912            3 
 3391000     0.709586    -8.494904    575.42218  0.014140917  0.013592065            4 
 3392000   0.70921849   -8.4883602    574.54161  0.014115114  0.013587213            2 
 3393000   0.71173509    -8.477677    575.89556  0.014144208  0.013582363            3 
 3394000    0.7151967   -8.4826643    574.80988  0.014113383  0.013577519            7 
 3395000   0.71582059   -8.5085132    575.59218  0.014128429  0.013572683            4 
 3396000   0.70581467   -8.5117913    574.91818  0.014107729  0.013567839            3 
 3397000   0.71336923   -8.4936229    573.70508  0.014073817  0.013562991            3 
 3398000   0.71110758   -8.5002106    575.33216  0.014109578   0.01355814            4 
 3399000   0.71990782   -8.4821279    574.68617  0.014089589  0.013553307            5 
 3400000   0.72680786   -8.5123953    575.88058   0.01411472  0.013548478            2 
 3401000   0.71246908   -8.5123877    574.60724   0.01407937  0.013543648            1 
 3402000   0.69962602   -8.4967274    575.32201   0.01409274  0.013538808            3 
 3403000   0.69774779   -8.5175212    574.25018  0.014062351  0.013533984            3 
 3404000   0.71124028    -8.515928     574.7222  0.014069776   0.01352915            5 
 3405000   0.68485875   -8.5237089    575.58606  0.014086786  0.013524319            3 
 3406000   0.71246848   -8.5167661    576.34087  0.014101117  0.013519496            3 
 3407000    0.6907564   -8.5306351     575.5626  0.014077943  0.013514659            2 
 3408000   0.70008258   -8.5163025    575.39151  0.014069628  0.013509823            6 
 3409000   0.71657602   -8.5116011    574.35619  0.014040192  0.013504988            5 
 3410000    0.7204352   -8.5148563    575.43422   0.01406242  0.013500149            2 
 3411000   0.70530985    -8.533763    575.03516  0.014048548  0.013495305            4 
 3412000   0.70375584   -8.5082214    575.36828  0.014052566   0.01349046            3 
 3413000    0.6881922   -8.4869602    574.74499  0.014033231  0.013485631            3 
 3414000   0.72875409   -8.5206102    576.16541  0.014063791  0.013480809            3 
 3415000   0.69873318   -8.4799012    575.83384  0.014051582  0.013475989            5 
 3416000    0.7222261   -8.5095715    576.60359  0.014066247  0.013471177            3 
 3417000   0.71281454   -8.5241914    575.62407  0.014038242   0.01346637            4 
 3418000   0.71115202   -8.5125973    576.07845  0.014045213  0.013461553            2 
 3419000   0.70655037    -8.499874    574.72363  0.014008083  0.013456743            5 
 3420000   0.70308447   -8.5092963    575.35809  0.014019447  0.013451928            8 
 3421000    0.7196201   -8.4919135    574.63316   0.01399769  0.013447116            3 
 3422000   0.69916895   -8.5216336    574.66339  0.013994335  0.013442293            2 
 3423000   0.70417001   -8.5149978    573.78843  0.013968946  0.013437478            3 
 3424000   0.68916897   -8.5043507    574.80558  0.013989622  0.013432661            2 
 3425000    0.7002383   -8.4946183    575.34189  0.013998586  0.013427853            6 
 3426000   0.71032382   -8.5011854    575.34484  0.013994572  0.013423046            3 
 3427000    0.7024914   -8.5127408     575.9539  0.014005299  0.013418235            4 
 3428000   0.70440272   -8.5458576    575.26352   0.01398443  0.013413416            2 
 3429000   0.67186665   -8.5176164    574.90125  0.013971548  0.013408603            2 
 3430000   0.69687207   -8.5364114    575.56334   0.01398356  0.013403787            2 
 3431000    0.6913711   -8.5199309    575.16356  0.013969775  0.013398967            4 
 3432000   0.69892233   -8.5408938    573.93719  0.013935926  0.013394147            3 
 3433000   0.70811068   -8.5087445    574.07793  0.013935283  0.013389331            3 
 3434000   0.68851073   -8.5276614    574.78456  0.013948373  0.013384508            1 
 3435000   0.70223802   -8.5544927    575.37408  0.013958614  0.013379699            3 
 3436000   0.70903479   -8.5770731    575.23159  0.013951096  0.013374881            3 
 3437000    0.7005277   -8.5241418    574.73597   0.01393502  0.013370067            5 
 3438000   0.69731465    -8.509121    575.66964  0.013953598  0.013365263            2 
 3439000   0.70143063   -8.5386417    574.99346  0.013933156  0.013360467            3 
 3440000   0.69854029   -8.5348757    575.79434  0.013948506   0.01335567            2 
 3441000   0.70460551   -8.5535295    575.41892  0.013935361  0.013350871            2 
 3442000   0.69130738    -8.557798    574.11597  0.013899767  0.013346069            5 
 3443000   0.70378285   -8.5560409     575.1492  0.013920738  0.013341272            4 
 3444000   0.68897588   -8.5424452    574.74768   0.01390698  0.013336487            2 
 3445000   0.72237722   -8.5411711    574.35716  0.013893497  0.013331703            2 
 3446000   0.71650023   -8.5594205    574.05184  0.013882082   0.01332692            2 
 3447000   0.70991237   -8.5276335    574.42437   0.01388706  0.013322132            3 
 3448000   0.70879125   -8.5659322    575.25326  0.013903066  0.013317353            4 
 3449000   0.68244058   -8.5318312    574.96587  0.013892091  0.013312583            2 
 3450000   0.71814845    -8.539565    574.21444  0.013869914   0.01330781            4 
 3451000    0.6816466   -8.5330028    575.05434  0.013886176  0.013303025            4 
 3452000   0.68030359    -8.546619    574.88616  0.013878094  0.013298244            2 
 3453000   0.69099798   -8.5330136    574.85731  0.013873378  0.013293468            2 
 3454000   0.69106597   -8.5610055    575.56719  0.013886489  0.013288689            5 
 3455000   0.68427082   -8.5610903     573.9728  0.013844013  0.013283915            4 
 3456000   0.68949119   -8.5283272    575.33965  0.013872966  0.013279143            1 
 3457000   0.70033706   -8.5531232    574.72288  0.013854085  0.013274371            4 
 3458000   0.69650696   -8.5349624    574.53728  0.013845606  0.013269588            6 
 3459000   0.69468856   -8.5573425    574.84365  0.013848984  0.013264817            4 
 3460000   0.70237971   -8.5381684    576.45815  0.013883867   0.01326005            3 
 3461000   0.68967263   -8.5519728    574.19789  0.013825433  0.013255287            2 
 3462000   0.70762522   -8.5506535    575.50635  0.013852935  0.013250519            3 
 3463000   0.70477462   -8.5868107    573.20561   0.01379357  0.013245747            4 
 3464000   0.70482569   -8.5500359    574.99625  0.013832666  0.013240988            6 
 3465000    0.7035288   -8.5527938    575.70738  0.013845776  0.013236239            4 
 3466000   0.70853346    -8.543507    574.10484  0.013803252  0.013231493            4 
 3467000   0.71120189   -8.5591962    575.41725  0.013830816  0.013226746            1 
 3468000   0.69480952   -8.5357372    574.64684  0.013808315  0.013222003            2 
 3469000    0.6868279   -8.5392361    575.72643  0.013830269  0.013217265           14 
 3470000   0.69081463    -8.532161    575.03005  0.013809559  0.013212536            4 
 3471000   0.69444345   -8.5137502     576.4952  0.013840757  0.013207806            6 
 3472000    0.6921408    -8.536419    575.03586  0.013801744  0.013203075            5 
 3473000   0.68619552    -8.526714    575.73914  0.013814645  0.013198348            4 
 3474000   0.69729002   -8.5467475    573.72906  0.013762451  0.013193604            2 
 3475000   0.69408351   -8.5297792    575.27226  0.013795498  0.013188873            3 
 3476000   0.71069508   -8.5713084    574.57574  0.013774831  0.013184136            3 
 3477000   0.70240509   -8.5278409    576.25182   0.01381104  0.013179402            1 
 3478000    0.6817128   -8.5601707    575.15268  0.013780733  0.013174659            1 
 3479000   0.67706669   -8.5481407    574.62084  0.013764033   0.01316992            2 
 3480000   0.69473655   -8.5506755    575.66904  0.013785178  0.013165184            2 
 3481000   0.68984394   -8.5292857     574.9597  0.013764237   0.01316046            2 
 3482000   0.68738743   -8.5601332    573.28553  0.013720217  0.013155738            4 
 3483000   0.68849927    -8.536163    576.31815  0.013788835  0.013151015            3 
 3484000   0.69444326   -8.5361011    574.57372  0.013743152  0.013146292            4 
 3485000   0.70085131   -8.5434582    575.78439  0.013768159  0.013141575            2 
 3486000   0.68803617   -8.6039141    574.53986  0.013734458  0.013136848            3 
 3487000   0.69178292   -8.5796489    575.02136  0.013742027  0.013132131            4 
 3488000    0.6715944   -8.5757207    574.81147  0.013733072  0.013127408            1 
 3489000   0.70345523   -8.5605618    574.99883  0.013733611  0.013122688            6 
 3490000   0.69474115    -8.561475    575.32067  0.013737361  0.013117972            3 
 3491000   0.69653634   -8.5454292    576.45031  0.013760391  0.013113279            2 
 3492000   0.68492847   -8.5461449     575.0397  0.013722788  0.013108568            4 
 3493000   0.69648639   -8.5609408    575.39405  0.013727313  0.013103861            4 
 3494000   0.67666662   -8.5544877    575.59845  0.013728259  0.013099156            4 
 3495000   0.69772453   -8.5662971    574.67922  0.013702413  0.013094461            2 
 3496000   0.68961229   -8.5778599    574.87968  0.013703272  0.013089765            3 
 3497000   0.69007427   -8.5333838    575.49298  0.013713969   0.01308507            2 
 3498000   0.69025362   -8.5572479    575.59757   0.01371254  0.013080368            2 
 3499000    0.6705121   -8.5609515    575.86609  0.013715016  0.013075671            5 
 3500000   0.69195377   -8.5555834    575.51508   0.01370274  0.013070973            5 
 3501000    0.6982707   -8.5406348    576.14697  0.013713867  0.013066283            2 
 3502000   0.68933549   -8.5478167    575.01006  0.013682897  0.013061595            1 
 3503000   0.68628844   -8.5677129    574.47867   0.01366635  0.013056893           11 
 3504000   0.68320085   -8.5630339    575.41211  0.013684649  0.013052188            5 
 3505000   0.69369078   -8.5589118    574.85647  0.013667534  0.013047491            3 
 3506000   0.69666046   -8.5740384     575.7064  0.013683837  0.013042807            6 
 3507000   0.69644208   -8.5692651    573.97839  0.013638874  0.013038112            5 
 3508000   0.67638524   -8.6102414    574.13658  0.013638744  0.013033418            8 
 3509000   0.69010604     -8.57269    574.79742  0.013650551  0.013028724            5 
 3510000   0.68790343   -8.5551641    573.75589  0.013621935  0.013024027           10 
 3511000   0.70307905   -8.5463788    574.62866   0.01363877   0.01301935           10 
 3512000   0.70086495   -8.5785472    575.80285  0.013662748  0.013014671            7 
 3513000   0.70197374   -8.5854088    573.51737  0.013604644  0.013009984           11 
 3514000   0.70200589   -8.5785575    575.09181   0.01363811  0.013005297            6 
 3515000   0.67903598   -8.5619013      574.244   0.01361413  0.013000608           17 
 3516000   0.69452569   -8.5679869    574.82936  0.013624132  0.012995922            2 
 3517000   0.69935838   -8.5674894    574.50449   0.01361256  0.012991238            3 
 3518000   0.67377883   -8.5577599    574.52658  0.013609214  0.012986556            2 
 3519000   0.69281887   -8.5692085    575.84964  0.013636678  0.012981874            2 
 3520000   0.70665007    -8.581109     574.9891  0.013612431  0.012977208            2 
 3521000   0.68185606   -8.5525026      575.459  0.013619687   0.01297254            3 
 3522000    0.6692662   -8.5803544     574.9236  0.013603152  0.012967875            2 
 3523000   0.68579235   -8.5763963    575.04923  0.013602262  0.012963206            2 
 3524000   0.69831085   -8.5731061    574.95615  0.013596201  0.012958547            5 
 3525000   0.69356271   -8.5823526    574.49189  0.013581368  0.012953896            6 
 3526000   0.67505541   -8.5729252    575.02722  0.013590169   0.01294924            4 
 3527000   0.68809543   -8.5732108    576.30781  0.013616572  0.012944588            2 
 3528000   0.66146453   -8.5793742    575.27605  0.013588342  0.012939926           10 
 3529000    0.6940995   -8.5741423    575.23269  0.013583468  0.012935273            5 
 3530000   0.68085325   -8.5752586    574.46104  0.013561403  0.012930623            4 
 3531000   0.68585481   -8.5605306     575.2274  0.013575649   0.01292598            8 
 3532000   0.69425558   -8.5598421    574.34934  0.013551089  0.012921338            2 
 3533000   0.69735342   -8.5834582     574.7056  0.013555656  0.012916694            4 
 3534000   0.69935091    -8.564305    576.00173  0.013582384  0.012912054            6 
 3535000   0.68679855   -8.5695884     576.0309  0.013579229  0.012907427            4 
 3536000   0.69434999   -8.5640196     575.6551  0.013566532  0.012902795           15 
 3537000   0.68475914   -8.5794952    573.80526  0.013519114  0.012898164            4 
 3538000   0.69727267   -8.5579714    575.64541  0.013558635  0.012893535            4 
 3539000    0.6895534   -8.5759498    575.71841  0.013556523  0.012888913            5 
 3540000   0.67530965   -8.5702931    574.93576  0.013534269  0.012884285            7 
 3541000   0.68496645   -8.5857959     574.5772  0.013522009  0.012879654            4 
 3542000   0.67216936   -8.5653124     574.5011  0.013516401  0.012875031            3 
 3543000    0.6757977   -8.5702682    573.71986  0.013494211  0.012870409            3 
 3544000   0.68985827   -8.5539187    574.75844  0.013514824  0.012865792            6 
 3545000   0.68634819   -8.5712788    575.61688  0.013531191  0.012861168            5 
 3546000   0.70156633   -8.5704799    575.75641  0.013530655  0.012856543           10 
 3547000   0.64850079   -8.5870582    575.00078  0.013509087  0.012851918            6 
 3548000    0.6843279   -8.5900106     574.8818  0.013502485  0.012847286            2 
 3549000   0.68863784   -8.5878884    574.24911  0.013483824   0.01284266            3 
 3550000   0.68028229   -8.5873904    575.14676  0.013501098  0.012838039            4 
 3551000   0.69142971   -8.5700613    576.24012  0.013522954   0.01283343            5 
 3552000   0.68916778   -8.5789216    574.47977  0.013477847  0.012828814            2 
 3553000   0.68143783   -8.5763963    574.61684  0.013477269    0.0128242            4 
 3554000    0.6818489   -8.5790667    574.79112  0.013477563  0.012819581            4 
 3555000   0.66944179   -8.6005364    574.64068  0.013470246  0.012814964           10 
 3556000   0.69513013   -8.5582802    574.19345  0.013455977  0.012810353            2 
 3557000   0.67710536   -8.6084379    574.00654  0.013447815  0.012805741            9 
 3558000   0.69348075   -8.5885214    573.84489  0.013440249  0.012801128           12 
 3559000   0.68961953   -8.5835715    575.51469  0.013475571  0.012796522            5 
 3560000   0.68433612   -8.5942829    574.41616  0.013446071  0.012791921            6 
 3561000   0.68466278   -8.5574576    574.80845  0.013451475   0.01278732            3 
 3562000   0.68988125   -8.5906941    573.79777  0.013424054  0.012782725            9 
 3563000   0.68401881   -8.5874106    574.83021  0.013444434  0.012778123            7 
 3564000   0.68026628   -8.5833489    574.43437  0.013431406  0.012773513            7 
 3565000    0.6750775   -8.5869191    574.29864  0.013424466  0.012768896            8 
 3566000   0.70006687    -8.567785    573.44141  0.013400669  0.012764278            9 
 3567000   0.68356052   -8.5818562    575.02405  0.013433886  0.012759668           10 
 3568000   0.68585593   -8.5686408    575.15185  0.013433106  0.012755059            7 
 3569000   0.69593521   -8.6005263    574.19814  0.013407073   0.01275045            8 
 3570000   0.67350465   -8.5939518    573.79328  0.013393867  0.012745837            5 
 3571000   0.68744334   -8.5894881    574.53107  0.013407334  0.012741242            4 
 3572000   0.67909929   -8.5814922    575.04937  0.013415672  0.012736638            5 
 3573000    0.6790716   -8.5723115    574.33837  0.013395335  0.012732042            8 
 3574000   0.67166269   -8.5928848    573.60278  0.013374435  0.012727436            5 
 3575000   0.68789434   -8.5974015    574.62628  0.013394552  0.012722837            4 
 3576000   0.68414507   -8.5861971    575.12079   0.01340233  0.012718245            4 
 3577000   0.67250358   -8.6078023    574.64159  0.013387419  0.012713653            6 
 3578000   0.67830501   -8.5953095    574.26995  0.013375022  0.012709061            7 
 3579000   0.68186223   -8.5783133    574.70919  0.013381512  0.012704464           12 
 3580000   0.67683063   -8.5670666    574.67618  0.013377006  0.012699882            7 
 3581000   0.67673387   -8.5936648    573.76191  0.013351995  0.012695298            7 
 3582000   0.68215344   -8.5832696    574.99334  0.013376916  0.012690717            2 
 3583000   0.67578732    -8.604843    574.46785   0.01336096   0.01268613            4 
 3584000   0.67767365   -8.5910012    574.75572  0.013363926  0.012681539            3 
 3585000   0.66721054   -8.5979772    573.17051   0.01332335  0.012676947            4 
 3586000   0.66389788   -8.6018202    574.04877  0.013340044  0.012672361            5 
 3587000   0.69016029   -8.5796269    574.76974  0.013353075  0.012667778            3 
 3588000   0.66629681   -8.5780447    574.18015  0.013335659  0.012663187            3 
 3589000    0.6892148   -8.6181315    573.86209  0.013324559  0.012658604           10 
 3590000   0.66116401   -8.6211249    573.74534  0.013318137   0.01265402            4 
 3591000   0.68424039   -8.5845276    574.12228  0.013323175  0.012649447            6 
 3592000   0.68409861   -8.5839906     575.7325  0.013356823  0.012644879            6 
 3593000   0.67632855   -8.5770797    573.74613  0.013307035   0.01264031            6 
 3594000   0.67956357   -8.6206078    573.33187  0.013293727  0.012635744           10 
 3595000   0.66848411   -8.6168232    574.08708  0.013307535  0.012631169            4 
 3596000   0.65834474   -8.5989374    573.48232   0.01328982  0.012626594           10 
 3597000   0.67094686   -8.5762693    573.86416  0.013294972  0.012622026            3 
 3598000   0.67587733   -8.5936363     572.6645  0.013263491  0.012617459            6 
 3599000   0.66914026   -8.6091204     574.1152  0.013293396  0.012612896            5 
 3600000   0.66817088   -8.6041035    575.70346  0.013326469  0.012608329            9 
 3601000   0.66467351   -8.5827056    574.38165  0.013292179  0.012603764            3 
 3602000   0.67179625   -8.6141511    573.73946  0.013273632  0.012599208           10 
 3603000    0.6722695    -8.627821    574.15777  0.013279623  0.012594659           15 
 3604000    0.6657114   -8.6067987    574.57227  0.013285522  0.012590107           14 
 3605000   0.67669462   -8.6217266    574.94141   0.01329037  0.012585556            3 
 3606000   0.68072927   -8.6061635    573.94642  0.013263691     0.012581            5 
 3607000   0.68011937   -8.5790753    574.12422  0.013264121  0.012576454            4 
 3608000   0.67302583   -8.5902494    573.85899  0.013254319  0.012571908            3 
 3609000   0.66392423   -8.6182666    574.28782  0.013260548  0.012567362            5 
 3610000   0.67703651   -8.6076704    573.63779   0.01324187  0.012562815            2 
 3611000   0.67290924   -8.6136911    574.74274  0.013263702  0.012558272            3 
 3612000   0.66303132   -8.6384203    573.67316  0.013235354  0.012553725            2 
 3613000   0.66378056    -8.592605    574.35939  0.013247518  0.012549178            1 
 3614000   0.67486504    -8.597864    573.30718   0.01321959  0.012544637            2 
 3615000   0.67557125   -8.6043725    574.73153  0.013248767  0.012540095            1 
 3616000   0.68625041   -8.6139733    573.91216  0.013226221  0.012535564            2 
 3617000    0.6605152   -8.6295012    573.96873  0.013223867  0.012531031            2 
 3618000   0.66875206   -8.6282726     574.0398  0.013221849  0.012526492            2 
 3619000   0.65600452   -8.6331697    573.81488  0.013213017  0.012521948            2 
 3620000   0.67811548   -8.6187719    574.56955  0.013226739  0.012517404            2 
 3621000   0.68230831   -8.6121085    574.00829   0.01321017   0.01251286            2 
 3622000   0.68428622   -8.6145902    573.39134  0.013192328  0.012508325            1 
 3623000   0.66688489   -8.6272392    573.87443  0.013199798  0.012503793            2 
 3624000   0.67935621   -8.6025687    573.95572  0.013198025  0.012499259            3 
 3625000   0.67485325   -8.6187434    573.36305   0.01318076  0.012494731            1 
 3626000    0.6734024   -8.6277048    572.91873  0.013166913  0.012490208            2 
 3627000   0.65922453   -8.6151392    575.37557  0.013219731  0.012485688            4 
 3628000   0.67833173   -8.6246551    574.27212  0.013190741  0.012481161            5 
 3629000   0.66340897   -8.6432471    574.15485  0.013184414  0.012476644            2 
 3630000    0.6737273   -8.6404377    572.81967   0.01315013   0.01247212            3 
 3631000   0.67197839    -8.634033    573.75534  0.013167983  0.012467592            4 
 3632000    0.6869064   -8.5920235    573.41915  0.013156644  0.012463074            8 
 3633000   0.66766337   -8.6017211    572.69604  0.013136436  0.012458564            2 
 3634000     0.680281   -8.6175096    573.23196   0.01314511   0.01245404            3 
 3635000   0.65770095   -8.6134564    574.03476  0.013159898  0.012449526            1 
 3636000   0.67868185   -8.6539463    573.17673  0.013136614  0.012445005            1 
 3637000   0.67579158   -8.6444962    572.07255  0.013107702  0.012440481            1 
 3638000   0.66602815   -8.6341522     573.6853  0.013141041  0.012435961            2 
 3639000    0.6693077   -8.6410798    573.28599  0.013128286  0.012431444            2 
 3640000   0.68953655   -8.6087436    573.98973  0.013140791  0.012426936            2 
 3641000   0.66507886   -8.6080093    573.94695  0.013136202  0.012422422            2 
 3642000   0.68220406   -8.6335306    573.67872  0.013126458  0.012417909            2 
 3643000   0.67490693   -8.6440349    572.23496  0.013089829  0.012413393            2 
 3644000   0.66392492   -8.6246121    573.13423  0.013106802  0.012408879            2 
 3645000   0.66735677   -8.6510432    573.90756  0.013120886  0.012404367            2 
 3646000   0.65084762   -8.6352055    573.85993  0.013116199  0.012399873            2 
 3647000   0.67960628   -8.6335187    574.04898  0.013116922  0.012395375            1 
 3648000   0.66263899   -8.6307298    573.43787  0.013099366  0.012390874            3 
 3649000   0.66661167   -8.6228643    573.23146  0.013091063  0.012386371            2 
 3650000   0.67493508   -8.6492375     573.6278  0.013096525  0.012381867            6 
 3651000   0.65942349   -8.6336729    573.59292  0.013092142   0.01237736            2 
 3652000   0.67177391   -8.6297382    572.55753  0.013064931  0.012372852            2 
 3653000   0.66523222   -8.6456878    572.88333  0.013068787  0.012368345            2 
 3654000   0.64718991   -8.6393277    572.87795  0.013065087  0.012363842            2 
 3655000   0.66526873   -8.6387399    572.63374  0.013055945   0.01235934            3 
 3656000   0.65828952    -8.646146    573.18284   0.01306489  0.012354841            4 
 3657000   0.67679283   -8.6355856    573.86871  0.013076946  0.012350348            3 
 3658000    0.6665165   -8.6095182    574.23797  0.013081783  0.012345866            1 
 3659000   0.66228308   -8.6450694    572.44433  0.013037358  0.012341383            4 
 3660000    0.6741064   -8.6006941    572.96231   0.01304559    0.0123369            3 
 3661000   0.67202137   -8.6356714    572.43614   0.01303005  0.012332423            3 
 3662000   0.66237393   -8.6177938    573.29248  0.013045978  0.012327944            2 
 3663000   0.67065396    -8.619393     573.8651  0.013055444  0.012323461            2 
 3664000    0.6558915   -8.6108508    573.82506   0.01305097  0.012318978            2 
 3665000   0.66709921   -8.6177699    572.57768  0.013019047  0.012314495            3 
 3666000   0.67071731   -8.6392848    573.21515  0.013029986  0.012310023            3 
 3667000   0.66946545   -8.6252201    572.48187  0.013009769  0.012305551            5 
 3668000   0.66224254     -8.62801    573.11942  0.013020707   0.01230108            5 
 3669000   0.65889018   -8.6143653    575.12016    0.0130626  0.012296623            1 
 3670000    0.6533719   -8.6451636    573.48537   0.01302192  0.012292159            2 
 3671000   0.66334407   -8.6564401     572.8323  0.013003548  0.012287695            2 
 3672000   0.66377045    -8.629763    573.63615  0.013018249  0.012283224            7 
 3673000   0.65575945   -8.6353088    573.49535  0.013011511  0.012278768            5 
 3674000   0.66306968   -8.6670745    572.35803  0.012982173  0.012274312            3 
 3675000   0.65247123   -8.6175066    573.59894  0.013006779  0.012269857            3 
 3676000   0.65907606   -8.6097525    574.22087  0.013017339  0.012265406            8 
 3677000   0.67433213   -8.6143598    574.06971  0.013010373  0.012260958            3 
 3678000   0.64873826   -8.6366036    574.75612  0.013022388  0.012256513            6 
 3679000   0.66095087    -8.622613    574.75396    0.0130188  0.012252068            3 
 3680000   0.68460427    -8.626155    573.68788   0.01299112   0.01224762            1 
 3681000   0.65713852   -8.6322622    573.14067  0.012975203  0.012243171            3 
 3682000   0.68150104   -8.6192884    573.10341  0.012970836  0.012238724            4 
 3683000   0.67331193   -8.6410003    573.28028  0.012971316  0.012234274            1 
 3684000   0.64849128   -8.6194406    573.86195  0.012980952  0.012229831            3 
 3685000   0.66242122   -8.6613846    573.59267   0.01297134  0.012225388            4 
 3686000   0.66469583   -8.6589414    573.16497  0.012958152  0.012220944            3 
 3687000    0.6628816   -8.6419767    572.22763  0.012933452    0.0122165            2 
 3688000   0.65755819   -8.6126403    572.87388  0.012944547  0.012212055            5 
 3689000   0.67352994   -8.6409311    572.54858   0.01293369  0.012207619            3 
 3690000   0.65875843   -8.6342181    573.53643  0.012952494  0.012203185            4 
 3691000   0.66218532   -8.6466206    571.70117  0.012907549   0.01219875            5 
 3692000    0.6549284   -8.6444926    573.23367  0.012938644  0.012194319            5 
 3693000   0.65534352   -8.6486558    572.85917  0.012926689  0.012189877            3 
 3694000   0.67675799   -8.6486965    573.05143  0.012927527  0.012185443            2 
 3695000   0.65424162   -8.6304824    573.58918  0.012936157  0.012181011            2 
 3696000    0.6532268   -8.6467977    574.24586  0.012947463   0.01217658            3 
 3697000   0.66035796   -8.6310696     573.4089  0.012925095   0.01217216            4 
 3698000   0.64936463   -8.6526547     573.0449  0.012913397  0.012167745            5 
 3699000   0.65867323   -8.6536748     573.2385  0.012914267  0.012163326            2 
 3700000   0.64924802   -8.6449644    573.48945  0.012916429  0.012158896            3 
 3701000   0.65395328   -8.6444672    572.81149  0.012897674  0.012154477            2 
 3702000   0.65902776   -8.6401021    572.35721  0.012883964  0.012150055            1 
 3703000   0.65427602   -8.6048492    573.21895  0.012899877  0.012145639            5 
 3704000   0.66396264   -8.6432214    573.23958  0.012896859  0.012141229            2 
 3705000   0.65523017   -8.6469173    573.66121  0.012902861  0.012136818            1 
 3706000    0.6659357   -8.6622543    573.02606  0.012885098  0.012132406            2 
 3707000   0.64439618   -8.6333491    574.01991  0.012903963  0.012127994            2 
 3708000   0.66677626    -8.630824    573.64452  0.012892047  0.012123588            1 
 3709000   0.64359645   -8.6436961    573.33288  0.012881569  0.012119187            4 
 3710000   0.66291607   -8.6564206       573.15  0.012873989  0.012114784            3 
 3711000   0.65917867   -8.6353357    572.37982  0.012853225  0.012110387            5 
 3712000   0.65510895   -8.6417561     572.6602  0.012856057  0.012105986            2 
 3713000   0.66961151   -8.6493572    574.04475  0.012883669  0.012101591            4 
 3714000   0.64696364   -8.6556364    573.71449   0.01287279  0.012097199            4 
 3715000   0.64454407   -8.6409094    575.34072  0.012905803   0.01209281            2 
 3716000   0.65236908   -8.6413551    572.54885  0.012839721  0.012088424            4 
 3717000   0.66306143   -8.6645691    573.86898  0.012865864  0.012084034            3 
 3718000   0.66366739   -8.6324402    573.61465  0.012856703  0.012079644            4 
 3719000   0.64153072   -8.6512032    574.20003  0.012866363  0.012075262            2 
 3720000    0.6482552   -8.6621707    570.61982  0.012782702   0.01207087            1 
 3721000   0.65186183   -8.6443581    572.50431  0.012821471  0.012066476            2 
 3722000   0.64926038   -8.6561501    573.43994  0.012838974  0.012062089            3 
 3723000   0.64553882   -8.6423728    573.42059  0.012835092  0.012057711            2 
 3724000   0.64849504    -8.665609    573.85872   0.01284145  0.012053334            3 
 3725000   0.65624101   -8.6285102    574.23556  0.012846433  0.012048968            5 
 3726000    0.6540373   -8.6287527    572.79526  0.012810773  0.012044593            2 
 3727000   0.65089981   -8.6632614    572.56321  0.012802147   0.01204021            2 
 3728000    0.6513144   -8.6490041    573.38918  0.012817176  0.012035835            4 
 3729000   0.64699813   -8.6504294    573.34378  0.012812724  0.012031463            1 
 3730000   0.65754634   -8.6853697    572.78103  0.012796717  0.012027091            4 
 3731000   0.65823442   -8.6663083     573.2051  0.012802758  0.012022721            1 
 3732000   0.66407867   -8.6510157    573.33115  0.012802143  0.012018355            5 
 3733000   0.65127839   -8.6439033    573.01734  0.012791708  0.012013989            6 
 3734000   0.64951559   -8.6494673    572.59119  0.012778771   0.01200962            7 
 3735000   0.66969303   -8.6609853    573.86326  0.012803732  0.012005254            3 
 3736000   0.64497685   -8.6504046     572.3858  0.012767349  0.012000892            2 
 3737000   0.66442341   -8.6788037     572.8328  0.012773901  0.011996538            2 
 3738000   0.65828609   -8.6784423    572.58049  0.012764858   0.01199218            5 
 3739000   0.64220643   -8.6726041    572.93199  0.012769279  0.011987822            6 
 3740000   0.65146535   -8.6830065    572.63792  0.012759312   0.01198346            5 
 3741000   0.65103401   -8.6772911    573.33564  0.012771444  0.011979105            2 
 3742000    0.6462195   -8.6744839    573.73764  0.012776983  0.011974757            3 
 3743000    0.6585524   -8.6570787    573.78611  0.012774648  0.011970411            5 
 3744000   0.65821676   -8.6573672    572.80318  0.012749359  0.011966065            3 
 3745000   0.65417518   -8.6581415    572.68727  0.012743375  0.011961724            2 
 3746000   0.66246778   -8.6712139    572.16085  0.012728262  0.011957385            5 
 3747000   0.64869738    -8.653934     572.9229  0.012741814  0.011953046            2 
 3748000   0.65793203   -8.6307564     573.4291  0.012749669  0.011948708            2 
 3749000   0.67056259   -8.6721847    571.89258  0.012712114  0.011944363            5 
 3750000   0.66466683   -8.6490487    573.40697  0.012742377  0.011940026            1 
 3751000   0.65007436     -8.66191    572.70974   0.01272349  0.011935686            1 
 3752000   0.66285449   -8.6589723    572.44842  0.012714295  0.011931349            2 
 3753000   0.65972064   -8.6682532    573.27928  0.012729356  0.011927011            4 
 3754000   0.66544069    -8.659953    572.22347  0.012702528  0.011922673            4 
 3755000   0.65747307    -8.660969    572.60705  0.012707658  0.011918335            6 
 3756000   0.64794941   -8.6763719    572.12193  0.012693511  0.011914001            3 
 3757000    0.6427461   -8.6685323    572.38264  0.012695915  0.011909667            2 
 3758000   0.66461353   -8.6629836    572.82651   0.01270238  0.011905337            3 
 3759000   0.64655371   -8.6767289     572.2313  0.012685805  0.011901008            3 
 3760000   0.64714482   -8.6895556    572.93357  0.012697996  0.011896685            2 
 3761000   0.65280763    -8.689228    572.79408  0.012691529  0.011892344            7 
 3762000   0.64973278   -8.7032661    572.53371  0.012682388  0.011888014            1 
 3763000   0.65852515   -8.6603511    572.00039  0.012667207  0.011883683            5 
 3764000   0.64630448   -8.6778518    572.35148  0.012671614  0.011879355            2 
 3765000   0.63850425   -8.7025378    572.43798  0.012670163  0.011875021            1 
 3766000    0.6615054   -8.6578364    572.07881  0.012658851  0.011870694            2 
 3767000   0.65403037   -8.6652066    572.48591  0.012664497  0.011866367            7 
 3768000   0.64816422   -8.6813505    572.91177  0.012670554  0.011862039            2 
 3769000    0.6510693    -8.659037    572.95704  0.012668193  0.011857717            3 
 3770000   0.64742888   -8.6796164    572.48594   0.01265442  0.011853399            2 
 3771000   0.64484021   -8.6849008    572.92478  0.012660762  0.011849084            2 
 3772000   0.64992963   -8.6662515     573.0445   0.01266005  0.011844767            2 
 3773000   0.65232617   -8.6696835    573.34352  0.012663299  0.011840461            3 
 3774000   0.64704265   -8.6739173    572.77458  0.012647381  0.011836161            3 
 3775000   0.65166251   -8.6714723    572.98314  0.012648635  0.011831865            6 
 3776000    0.6467056   -8.6984717    571.81571   0.01261952   0.01182756            3 
 3777000   0.63919649   -8.6616804    573.78203  0.012659563  0.011823251            3 
 3778000   0.66084766   -8.6634823    571.96294  0.012616087  0.011818952            5 
 3779000    0.6357852    -8.643865    572.66915  0.012628322  0.011814657            1 
 3780000   0.64472135   -8.6547816     573.4694  0.012642623  0.011810362            1 
 3781000   0.65252729   -8.6762606    572.18743  0.012611025  0.011806064            3 
 3782000    0.6446731   -8.6586576    572.06709  0.012605039  0.011801769            2 
 3783000    0.6559248   -8.6666313    572.82713  0.012618449  0.011797485            2 
 3784000   0.62991172     -8.65827    573.41897  0.012628149   0.01179319            2 
 3785000   0.64766675   -8.6809848    572.78806  0.012610922  0.011788889            1 
 3786000   0.64390424   -8.6748177    571.96366  0.012589445  0.011784597            3 
 3787000   0.64449791   -8.6910595    571.68452  0.012579978  0.011780296            1 
 3788000   0.64703876   -8.6648563    571.54784   0.01257365  0.011776006            3 
 3789000    0.6264848   -8.6960556    572.60454  0.012593572  0.011771714            3 
 3790000    0.6379982   -8.6711661    572.79371  0.012594409  0.011767425            3 
 3791000   0.63857709   -8.6809689    572.78876  0.012590978  0.011763133            5 
 3792000   0.65602634   -8.6859066     571.8364  0.012566728   0.01175885            3 
 3793000   0.64885226   -8.6895655    570.52847  0.012534679   0.01175456            2 
 3794000   0.65128149   -8.6829643    571.64982  0.012556005  0.011750277            3 
 3795000   0.65237334   -8.6711984    572.11949   0.01256301  0.011745997            5 
 3796000   0.64217789   -8.6858501    571.37484  0.012543354   0.01174172            3 
 3797000   0.64809287   -8.6813748    573.02777  0.012576327  0.011737439            2 
 3798000   0.63652817   -8.6941951    571.30328  0.012535178  0.011733155            2 
 3799000   0.63784232   -8.6923186    571.74998  0.012541677  0.011728876            4 
 3800000   0.62946153   -8.6942637    571.70494  0.012537389    0.0117246            2 
 3801000   0.63555094   -8.6931787    571.40897  0.012527602  0.011720331            5 
 3802000   0.64774353   -8.6758399    572.56313  0.012549604  0.011716068            1 
 3803000   0.64759079   -8.6677897    571.29213  0.012518453  0.011711806            2 
 3804000     0.637383   -8.7048413    573.01781  0.012552966  0.011707543            4 
 3805000   0.64708584   -8.6761096    571.41417  0.012514546   0.01170328            1 
 3806000    0.6471306   -8.6979971    572.29891   0.01253063  0.011699021            2 
 3807000   0.64040604   -8.7099875    572.13122  0.012523667  0.011694768            2 
 3808000   0.63575665    -8.692421    572.24046  0.012522769  0.011690513            4 
 3809000   0.63906367   -8.6909716    572.17271  0.012517999  0.011686251            4 
 3810000   0.66671368   -8.7039147    571.02134  0.012489531  0.011681993            3 
 3811000   0.65478296   -8.7111703    572.23061  0.012512696  0.011677732            4 
 3812000   0.63073486   -8.6938993    571.32636  0.012489646  0.011673476            2 
 3813000   0.64489143   -8.6912406    572.95951  0.012522063  0.011669226            3 
 3814000   0.64323693   -8.6756763    573.46214  0.012529762  0.011664982            2 
 3815000   0.64554901   -8.6943686    571.85545  0.012491382  0.011660738            4 
 3816000   0.64129128     -8.68366    571.60313  0.012482598  0.011656499            4 
 3817000    0.6475023   -8.7066807    570.53188   0.01245594  0.011652256            7 
 3818000   0.63328785   -8.6864279    571.23001  0.012467915  0.011648011            7 
 3819000   0.63393903    -8.699017      571.933   0.01247999  0.011643766            2 
 3820000   0.63765364   -8.6954246    572.09449  0.012480246  0.011639523            1 
 3821000   0.63758378   -8.6889225    572.14677   0.01247812  0.011635275            5 
 3822000   0.64714709   -8.6932927    571.29692  0.012456326  0.011631025            2 
 3823000   0.64498061   -8.6922624     571.7825  0.012463652  0.011626779            2 
 3824000   0.64050067   -8.7126009    571.78578  0.012460464  0.011622536            1 
 3825000   0.63512401   -8.6836366    572.84398  0.012480261    0.0116183            2 
 3826000   0.63571797   -8.6799424    572.50163  0.012469542  0.011614066            2 
 3827000   0.64462981   -8.7217537    571.87651  0.012452672  0.011609834            3 
 3828000   0.64328261   -8.7066692    571.75421  0.012446757  0.011605595            2 
 3829000   0.63323131   -8.7044632    571.45438  0.012436981  0.011601359            2 
 3830000    0.6440954   -8.7061647     572.0384   0.01244644  0.011597129            3 
 3831000    0.6496686   -8.6875468     572.1797  0.012446265  0.011592908            2 
 3832000   0.62195882   -8.6863266    571.37796  0.012425582  0.011588682            4 
 3833000   0.63475114   -8.6969703    570.52183  0.012403727  0.011584458            2 
 3834000    0.6305647   -8.6965676    571.62757  0.012424526  0.011580235            3 
 3835000   0.64273584   -8.6981173    571.83801  0.012425859  0.011576021            1 
 3836000   0.62797123   -8.6948524    570.71861  0.012398301  0.011571806            3 
 3837000    0.6258019   -8.6874859    571.36311  0.012409068  0.011567591            5 
 3838000   0.63066287   -8.7098793     572.4415  0.012429249  0.011563371            2 
 3839000   0.63522209   -8.7156783    571.90372  0.012414338  0.011559158            3 
 3840000   0.63056389   -8.7299007    571.07778  0.012393181  0.011554943            2 
 3841000    0.6225216   -8.6823366    571.45851  0.012398215  0.011550734            5 
 3842000    0.6347912   -8.6987351    571.42193  0.012394194  0.011546527            3 
 3843000   0.63447804   -8.7187273    570.96962  0.012381161   0.01154231            1 
 3844000   0.62932147   -8.7036626    570.82875  0.012374886  0.011538101            2 
 3845000   0.63768407     -8.71832    572.18485  0.012401059  0.011533896            5 
 3846000   0.63220895   -8.6939477    571.34898  0.012379723  0.011529694            1 
 3847000   0.65674519   -8.6936885    570.70343  0.012362521  0.011525488            3 
 3848000   0.63170576    -8.698611    571.68607  0.012380589  0.011521291            5 
 3849000   0.62703137   -8.7129371     571.2255  0.012367401  0.011517093            4 
 3850000   0.63763785   -8.7064337    571.09029  0.012361262  0.011512898            5 
 3851000   0.64355885   -8.7042154    571.48362  0.012366563  0.011508706            2 
 3852000   0.63422846   -8.7026153    571.33472  0.012360132  0.011504514            3 
 3853000   0.63437782   -8.7034908    570.44302  0.012337638  0.011500327            3 
 3854000   0.63839234   -8.6969253    571.48275  0.012356918  0.011496136            2 
 3855000   0.63326669   -8.6961584    571.80366   0.01236065  0.011491945            2 
 3856000   0.63017689   -8.7011241    572.20039  0.012366018  0.011487762            1 
 3857000   0.64346957   -8.7292609    571.38911  0.012345284  0.011483575            4 
 3858000   0.65462191   -8.6935085    572.07763  0.012356956  0.011479395            3 
 3859000   0.63536981   -8.7072332    570.78285  0.012325793  0.011475211            1 
 3860000    0.6304717   -8.7366653    571.27744  0.012333278  0.011471025            2 
 3861000   0.62460772   -8.7175632    571.83915  0.012342207  0.011466843            1 
 3862000    0.6373194   -8.7130494    571.87455  0.012339775  0.011462669            2 
 3863000   0.63090185   -8.6955222    571.28424  0.012323847  0.011458495            1 
 3864000   0.62535278   -8.7056712    570.51941  0.012304163  0.011454319            4 
 3865000   0.62385917   -8.7107394    571.79655  0.012328516  0.011450148            1 
 3866000   0.63113045   -8.7148279    571.97281  0.012329126  0.011445972            1 
 3867000   0.63601856   -8.7353988    570.74608  0.012299502  0.011441802            2 
 3868000   0.63019866   -8.7383007    571.37306   0.01230983  0.011437629            2 
 3869000   0.63167832   -8.7295534    571.10211  0.012300812  0.011433454            1 
 3870000   0.63399644   -8.7266075    571.70608  0.012310639  0.011429287            1 
 3871000   0.63695332   -8.7123359    571.09929  0.012294396  0.011425122            2 
 3872000   0.64994936   -8.6968745    571.84085  0.012307181  0.011420958            2 
 3873000   0.64889704    -8.716961    572.01662  0.012307785  0.011416805            3 
 3874000   0.63442675   -8.7113477    571.47855  0.012293034  0.011412645            1 
 3875000   0.63195998   -8.7002563    571.62329  0.012292974  0.011408492            4 
 3876000   0.63724575   -8.7128506    571.67232  0.012290857  0.011404344            2 
 3877000   0.63233848    -8.737695    571.21101  0.012277771  0.011400193            2 
 3878000   0.64366155   -8.7302585    571.80339  0.012287334  0.011396043            2 
 3879000   0.62984708    -8.708469    570.45548  0.012255209  0.011391898            2 
 3880000    0.6423064   -8.7161948    570.97881  0.012263291  0.011387759            5 
 3881000   0.63755747   -8.6941103    571.72202  0.012276089  0.011383618            2 
 3882000    0.6347267   -8.7270188    571.48765  0.012267896  0.011379474            5 
 3883000   0.61792244   -8.7401813    571.51433  0.012265309  0.011375332            1 
 3884000   0.63491481   -8.7025141    571.37369  0.012259133  0.011371191            1 
 3885000   0.62375117   -8.7236698    571.53746  0.012259491  0.011367056            1 
 3886000   0.63921771   -8.7187546    571.75904  0.012261088   0.01136292            4 
 3887000   0.64363559   -8.7426486    571.01126  0.012241902  0.011358789            2 
 3888000   0.63985763   -8.7086697    571.97555  0.012259421  0.011354658            1 
 3889000    0.6385025   -8.6973541    572.85245  0.012275059  0.011350532            2 
 3890000   0.61856518   -8.7112046    571.76282  0.012248561    0.0113464            2 
 3891000   0.62923025   -8.7330012    571.35843  0.012236752  0.011342267            2 
 3892000   0.62620342   -8.7212081    570.81769   0.01222203  0.011338138            3 
 3893000   0.63177556   -8.7148902    571.37442  0.012230808  0.011334012            3 
 3894000   0.62844175   -8.7286967    571.96286   0.01224026  0.011329889            2 
 3895000   0.61956432   -8.7263032    572.12135  0.012240508  0.011325766            2 
 3896000   0.63353133   -8.7245717    571.18933  0.012217431  0.011321643            4 
 3897000   0.62021358   -8.7428837    570.23664  0.012193924  0.011317518            3 
 3898000    0.6174938   -8.7269137    571.47414  0.012217251  0.011313396            3 
 3899000   0.64592313   -8.7161726    570.97539  0.012203458  0.011309278            2 
 3900000   0.63154776   -8.7204718     571.1114  0.012203235  0.011305159            4 
 3901000   0.63732474   -8.7207305    570.86646  0.012194874  0.011301045            3 
 3902000   0.63786177   -8.7262509    571.29243  0.012200846  0.011296928            2 
 3903000    0.6232678   -8.7340436    570.73564  0.012185832  0.011292823            6 
 3904000   0.63367803   -8.7182002    570.41066  0.012175774  0.011288716            2 
 3905000   0.63813099   -8.7257311    570.33588   0.01217106  0.011284612            5 
 3906000   0.62832555   -8.7359829    570.90996  0.012180192  0.011280505            2 
 3907000   0.61358343   -8.7013568    571.64647  0.012192784  0.011276403            1 
 3908000   0.61976325   -8.7332146    570.34742  0.012161963    0.0112723            2 
 3909000   0.62295312   -8.7344667    571.24031  0.012177887    0.0112682            4 
 3910000   0.62866676   -8.7289376    571.26351  0.012175267  0.011264094            4 
 3911000   0.62963403   -8.7375985    572.07169  0.012189374  0.011260003            3 
 3912000   0.63062255   -8.7196801    571.08065  0.012165147  0.011255913            4 
 3913000   0.62157923   -8.7419091      570.411  0.012147777  0.011251815            2 
 3914000   0.61660094   -8.7264604     571.9467   0.01217737  0.011247725            2 
 3915000   0.61687929   -8.7276986    571.43327  0.012163331  0.011243635            4 
 3916000   0.63565161   -8.7166916    571.49228   0.01216148  0.011239543            5 
 3917000   0.61836886   -8.7361088    571.96522  0.012168437  0.011235453            4 
 3918000   0.62391661   -8.7322664    570.81145  0.012140791  0.011231362            3 
 3919000   0.61994306   -8.7185739    571.83945  0.012159553  0.011227271            3 
 3920000   0.61889141   -8.7198987     571.7636  0.012154839  0.011223187            4 
 3921000   0.63791767   -8.7418766    571.12734  0.012138216    0.0112191            1 
 3922000   0.62569072   -8.7559697    569.41741  0.012098789  0.011215017            3 
 3923000    0.6393459   -8.7190993    570.36618  0.012115859  0.011210929            3 
 3924000   0.63256692   -8.7396108    570.67981  0.012119432  0.011206839            2 
 3925000   0.63051139    -8.748387    571.27834  0.012129052  0.011202753            4 
 3926000   0.62294626    -8.714497    571.33199  0.012127101   0.01119867            2 
 3927000   0.64013768    -8.733285    570.36976  0.012103594  0.011194592            2 
 3928000    0.6201519   -8.7269705     569.7385   0.01208712  0.011190516            2 
 3929000   0.62700307    -8.750147    570.19505  0.012093727  0.011186442            2 
 3930000   0.60774737   -8.7301597      570.978  0.012107252  0.011182366            2 
 3931000   0.61678912   -8.7344267    569.48748  0.012072574  0.011178291            3 
 3932000   0.63949476   -8.7461775    570.90726  0.012099594  0.011174222            3 
 3933000   0.62760819   -8.7625472    570.80224  0.012094293  0.011170154            4 
 3934000   0.62870596   -8.7438549    570.83885  0.012091994  0.011166078            2 
 3935000   0.62640796   -8.7298725    571.27627  0.012098185  0.011162008            2 
 3936000     0.617911   -8.7441666    570.71351  0.012083196  0.011157941            5 
 3937000   0.62041046   -8.7430736    571.29203  0.012092372  0.011153876            2 
 3938000   0.62515301   -8.7461911    571.17492  0.012086823  0.011149808            1 
 3939000   0.61282597   -8.7413592    570.47072  0.012068857  0.011145747            1 
 3940000   0.62561119   -8.7335713    570.53624  0.012067179  0.011141688            2 
 3941000   0.62395401   -8.7531019    570.94278  0.012072714   0.01113763            2 
 3942000    0.6233639    -8.764518    570.33362  0.012056774  0.011133572            2 
 3943000   0.61933949   -8.7360086     570.0189  0.012047065  0.011129517            2 
 3944000   0.60004764   -8.7424414    571.53349  0.012076012  0.011125463            4 
 3945000   0.60888397   -8.7352329    570.81574  0.012057789  0.011121416            5 
 3946000   0.61610686    -8.743497    570.19306  0.012041583  0.011117365            2 
 3947000   0.61686631    -8.724783    569.94003   0.01203319  0.011113315            1 
 3948000   0.61400308   -8.7593967    570.31488  0.012038055  0.011109267            2 
 3949000   0.62141135   -8.7270725    569.38187  0.012015318   0.01110522            3 
 3950000   0.62172026   -8.7347125    571.00344  0.012046486  0.011101181            2 
 3951000   0.62220553   -8.7552443    570.27582   0.01202809  0.011097144            2 
 3952000     0.631603   -8.7334124    570.50303  0.012029838  0.011093108            2 
 3953000   0.61108967   -8.7546205    569.92494  0.012014608  0.011089063            1 
 3954000   0.62690986    -8.753348    569.56473  0.012003978  0.011085021            3 
 3955000   0.61220308   -8.7306337    570.26946  0.012015791  0.011080982            3 
 3956000   0.63288039   -8.7479495     570.2778   0.01201293  0.011076942            2 
 3957000    0.6191862   -8.7413802    570.76151  0.012020081  0.011072911            5 
 3958000    0.6241748    -8.740616    570.89071  0.012019764  0.011068877            3 
 3959000   0.61802758   -8.7579427    570.45703  0.012007599  0.011064839            2 
 3960000   0.62211815   -8.7612524    569.95138  0.011993926  0.011060807            2 
 3961000   0.61829318   -8.7224782    569.27976  0.011976768  0.011056779            3 
 3962000   0.60976477   -8.7380593    570.60849  0.012001693  0.011052753            5 
 3963000   0.61674871   -8.7469147    569.92453  0.011984282  0.011048726            1 
 3964000    0.6154538   -8.7329455     570.7376  0.011998352  0.011044701            3 
 3965000   0.59830509     -8.76214    570.45609  0.011989409  0.011040675            3 
 3966000   0.60929559   -8.7537606    570.21069   0.01198123  0.011036651            4 
 3967000   0.62471804   -8.7523195    570.12363  0.011976381  0.011032625            4 
 3968000   0.60808926   -8.7661285    570.57761  0.011982897  0.011028604            1 
 3969000   0.61778057   -8.7515461    569.90587  0.011965774  0.011024583            3 
 3970000   0.62750633   -8.7420323    569.56327  0.011955568  0.011020566            2 
 3971000   0.60490564   -8.7391744    570.53399  0.011972929  0.011016554            1 
 3972000   0.62022271   -8.7606461    569.52923  0.011948834  0.011012537            2 
 3973000   0.62459094   -8.7544455    570.19501  0.011959791  0.011008526            4 
 3974000   0.61141627   -8.7155766    569.82616  0.011949047  0.011004515            3 
 3975000   0.62404793   -8.7382856    569.82294  0.011945974  0.011000511            2 
 3976000   0.61929097   -8.7179511    570.85583  0.011964618  0.010996511            2 
 3977000   0.60719135   -8.7472794     569.9125  0.011941843  0.010992515            4 
 3978000   0.60434861   -8.7662373    570.13265  0.011943453  0.010988516            8 
 3979000   0.61110028   -8.7400181    570.04745  0.011938667  0.010984512            5 
 3980000   0.60957235   -8.7399267    570.07924  0.011936332  0.010980515            5 
 3981000   0.62889464   -8.7542723    570.31054  0.011938176  0.010976521            3 
 3982000    0.6124031    -8.738171    569.99725  0.011928621  0.010972531            6 
 3983000   0.59806405   -8.7406896    570.26328  0.011931193  0.010968538            6 
 3984000   0.60428243   -8.7437079    569.70476  0.011916515  0.010964546            1 
 3985000   0.60778091   -8.7376732    570.55955    0.0119314  0.010960561            2 
 3986000   0.61610138   -8.7446859    570.55377  0.011928286  0.010956578            3 
 3987000   0.62444848   -8.7387238    570.41356  0.011922363  0.010952595            3 
 3988000   0.60834249   -8.7415305    569.29542  0.011896009  0.010948613            3 
 3989000   0.60703638   -8.7595714    570.21021  0.011912138  0.010944633            4 
 3990000   0.62343934   -8.7495589    569.72361  0.011898989  0.010940656            3 
 3991000   0.61540675   -8.7541467    570.47535  0.011911704  0.010936679            4 
 3992000    0.6209378   -8.7333279    569.97489  0.011898273  0.010932705            3 
 3993000   0.60693586   -8.7297414    571.35983  0.011924197  0.010928736            2 
 3994000   0.61662654    -8.754409    570.82534   0.01191006   0.01092477            3 
 3995000   0.60481254   -8.7615948    570.85461  0.011907689  0.010920801            3 
 3996000     0.610669   -8.7574689    570.14522  0.011889915  0.010916827            2 
 3997000   0.59980782   -8.7565104    570.24856  0.011889095  0.010912854            2 
 3998000   0.60414347   -8.7733167    569.09841  0.011862148  0.010908887            5 
 3999000   0.62428926   -8.7419152      569.832  0.011874469  0.010904922            2 
 4000000   0.60578005   -8.7399999    570.24248  0.011880052  0.010900954            2 
 4001000   0.61581398   -8.7677081    569.97675  0.011871548  0.010896994            2 
 4002000    0.6203901   -8.7702932    570.08724  0.011870882  0.010893034            2 
 4003000   0.59272982   -8.7481426    569.06105  0.011846554  0.010889073            3 
 4004000   0.61507753   -8.7728988    570.31735  0.011869742  0.010885117            3 
 4005000   0.61253951   -8.7545028    570.86717  0.011878218  0.010881165            2 
 4006000   0.61601548   -8.7457105    569.69584  0.011850887   0.01087721            2 
 4007000   0.61229312   -8.7583822    569.05842  0.011834673  0.010873257            4 
 4008000   0.60590839   -8.7661118    570.45599  0.011860778  0.010869302            4 
 4009000   0.61825772   -8.7526368    570.45526  0.011857805  0.010865352            3 
 4010000   0.61467807   -8.7482489    570.16348  0.011848784  0.010861407            2 
 4011000   0.61074664   -8.7698006    569.31309  0.011828162  0.010857458            4 
 4012000   0.60437632   -8.7773821    569.68625  0.011832965  0.010853512            2 
 4013000   0.61472417    -8.749842     571.1829  0.011861095  0.010849571            3 
 4014000   0.61114707   -8.7384259    570.30571  0.011839929  0.010845623            2 
 4015000   0.60358594   -8.7424181    569.90773   0.01182872   0.01084168            4 
 4016000    0.6138509   -8.7560128    569.40921   0.01181543   0.01083774            6 
 4017000   0.60854419   -8.7542222    569.18956  0.011807932  0.010833797            4 
 4018000   0.61767605   -8.7467059    569.99537  0.011821706  0.010829861            8 
 4019000    0.6213217   -8.7633412      570.492  0.011829062  0.010825927            4 
 4020000   0.60845168   -8.7901384    569.42901  0.011804084  0.010821991            3 
 4021000   0.59708797   -8.7585727    570.42543  0.011821799  0.010818058            2 
 4022000   0.61104728   -8.7795777    569.27003   0.01179492  0.010814127            1 
 4023000   0.60635798   -8.7597536    570.70407  0.011821693  0.010810199            5 
 4024000    0.6181814   -8.7758281    570.04929  0.011805196  0.010806269            1 
 4025000   0.61812578   -8.7575505     570.1694  0.011804749  0.010802338            3 
 4026000   0.61679597   -8.7636393    570.13466  0.011801098  0.010798414            4 
 4027000    0.6173631   -8.7631418    570.71464   0.01181017  0.010794493            7 
 4028000   0.61161251    -8.764186    569.75705  0.011787427  0.010790571            3 
 4029000   0.60661814   -8.7693719    571.16496  0.011813621   0.01078665            3 
 4030000   0.59746155   -8.7848456    567.94273   0.01174406  0.010782726            4 
 4031000   0.61228639   -8.7524175    569.27471  0.011768683  0.010778803            3 
 4032000   0.60826765   -8.7439963    568.59909    0.0117518  0.010774884            2 
 4033000   0.61543303   -8.7557303    569.96719  0.011777155  0.010770972            3 
 4034000   0.60687198   -8.7742719    569.67968  0.011768296  0.010767058            4 
 4035000   0.60182516   -8.7810239    568.88101  0.011748885  0.010763142            2 
 4036000   0.58906506   -8.7791754    570.20095  0.011773227  0.010759229            3 
 4037000   0.60364323   -8.7722456    569.96704  0.011765483  0.010755315            5 
 4038000   0.61475286   -8.7699961    569.77813   0.01175867  0.010751406            2 
 4039000   0.60128961    -8.759205    569.42584   0.01174849  0.010747505            3 
 4040000   0.60024608   -8.7872949    570.18661  0.011761275  0.010743598            5 
 4041000   0.60029664   -8.7653528    570.89662  0.011773006  0.010739693            6 
 4042000   0.61800416   -8.7797085    568.57339  0.011722196  0.010735789            1 
 4043000   0.61218292   -8.7728745    570.19423  0.011752705  0.010731887            2 
 4044000   0.60804707   -8.7650588    568.90786  0.011723291  0.010727989            4 
 4045000   0.59475253   -8.7585048    569.48596  0.011732302   0.01072409            3 
 4046000   0.60513916   -8.7711007      570.316  0.011746499  0.010720193            2 
 4047000   0.60496396   -8.7845409    570.59371  0.011749315    0.0107163            3 
 4048000   0.58880694   -8.7880595    569.80624  0.011730201  0.010712412            5 
 4049000   0.60500961   -8.7919582    570.06647   0.01173266  0.010708523            5 
 4050000   0.59639018   -8.7668425     570.8236  0.011745342  0.010704637            3 
 4051000   0.60442903   -8.7638852    569.07904  0.011706555  0.010700755            3 
 4052000   0.61439162   -8.7723436    570.31175  0.011729018  0.010696877            4 
 4053000   0.59919754   -8.7680917    568.65859  0.011692133  0.010692993            4 
 4054000   0.59953842   -8.7713031     568.7462   0.01169105   0.01068911            2 
 4055000    0.6011024   -8.7908831    569.60922  0.011705903   0.01068523            6 
 4056000   0.60468818   -8.7795942    569.41879  0.011699104  0.010681348            5 
 4057000   0.60731042   -8.7753715    569.54506  0.011698814  0.010677464            3 
 4058000   0.60240304   -8.7905495    569.58948  0.011696843  0.010673591            3 
 4059000    0.6053172    -8.778931    569.01246  0.011682115  0.010669713            2 
 4060000   0.60310318   -8.7799494    569.43393  0.011687889  0.010665847            2 
 4061000   0.59678165   -8.7695524    569.04377  0.011677004  0.010661978            6 
 4062000   0.59993897   -8.7658226    569.21529  0.011677648  0.010658112            6 
 4063000   0.60157802   -8.7900755    568.97641  0.011669875  0.010654242            4 
 4064000   0.59796864   -8.7670623    569.88115  0.011685555  0.010650376            4 
 4065000   0.61154121   -8.7743041    570.45524  0.011694449  0.010646515            3 
 4066000   0.60630756   -8.7770793    570.04687  0.011683204  0.010642656            4 
 4067000   0.58614276   -8.7835358    569.86755  0.011676657  0.010638794            2 
 4068000   0.61370132   -8.7872651    570.32283  0.011683113  0.010634938            3 
 4069000   0.59055602   -8.7933189    570.06522  0.011674966  0.010631081            6 
 4070000   0.59540698   -8.7801066    569.24832  0.011655371  0.010627226            6 
 4071000   0.60312042   -8.7848135    568.64156  0.011640088  0.010623368            6 
 4072000   0.59732331   -8.7955718    569.53698  0.011655554  0.010619517            4 
 4073000   0.60779069     -8.76885    569.89787  0.011660076  0.010615668            1 
 4074000   0.60797567   -8.7963613    569.07301  0.011640341   0.01061182            4 
 4075000   0.59404637   -8.7773464    569.77244  0.011651788  0.010607976            2 
 4076000   0.59528351   -8.7750428     570.3771  0.011661292  0.010604132            4 
 4077000   0.59491809   -8.7930849    568.51918  0.011620456  0.010600286            5 
 4078000   0.60315369   -8.7720548    569.56783  0.011639035  0.010596443            1 
 4079000   0.60522459   -8.7751928    569.23442   0.01162937  0.010592601            2 
 4080000   0.58809587   -8.7687783    569.71776  0.011636392  0.010588761            3 
 4081000   0.60754357    -8.800557    569.13129  0.011621565   0.01058492            4 
 4082000   0.59656051   -8.7747811     569.8593   0.01163358  0.010581082            2 
 4083000   0.60175654   -8.8027877    568.42598  0.011601477  0.010577243            6 
 4084000   0.59980857   -8.7980084    569.08041   0.01161199  0.010573401            2 
 4085000   0.60058427   -8.7821435    568.96581   0.01160681   0.01056957            2 
 4086000   0.59871504   -8.7921971    569.76641  0.011620297  0.010565737            5 
 4087000   0.58877918   -8.7883317    570.23285  0.011626964  0.010561907            4 
 4088000   0.61599244   -8.7940916    567.74576  0.011573421  0.010558076            3 
 4089000   0.59260383   -8.7832268    569.39886  0.011604281  0.010554247            2 
 4090000   0.59159775   -8.7997146    568.95694   0.01159244  0.010550419            2 
 4091000   0.60280734   -8.7872149    569.63495  0.011603417  0.010546595            2 
 4092000   0.60186002   -8.7889772    568.65654  0.011580656  0.010542775            4 
 4093000   0.58926564   -8.7875924    569.59218  0.011596876  0.010538951            3 
 4094000   0.59959861   -8.7736731    569.59523  0.011594106  0.010535129            2 
 4095000   0.58668635   -8.7810763    569.44791  0.011588277  0.010531313            7 
 4096000   0.59454874   -8.7994206    569.17685  0.011579933  0.010527501            1 
 4097000   0.59398974   -8.7848191    567.72882  0.011547653  0.010523684            1 
 4098000   0.60475518   -8.7983719    569.42063  0.011579238  0.010519871            2 
 4099000   0.61056378   -8.7930259     568.6033  0.011559797  0.010516056            3 
 4100000   0.60766853   -8.7843653    569.97134  0.011584783  0.010512245            2 
 4101000    0.5941679   -8.7939462    568.74715  0.011557083  0.010508436            6 
 4102000   0.59770848   -8.7801233    569.60044    0.0115716   0.01050463            2 
 4103000   0.59703576   -8.8079337    569.43194  0.011565358  0.010500821            2 
 4104000   0.59386872   -8.7948818    568.40269   0.01154164  0.010497014            3 
 4105000   0.58420134   -8.7929912    569.92535  0.011569739  0.010493208            2 
 4106000   0.58012025   -8.7976827    568.85554  0.011545209    0.0104894            1 
 4107000    0.5890945   -8.8054167    568.95022  0.011544319  0.010485597            2 
 4108000   0.60496662   -8.7961381    569.65412  0.011555788  0.010481797            4 
 4109000   0.59388213   -8.8041558    569.13079  0.011542362  0.010478001            3 
 4110000   0.59529015   -8.7906539    568.60657  0.011528925  0.010474205            5 
 4111000   0.57142508    -8.816296    569.41014  0.011542409   0.01047041            4 
 4112000   0.59398871    -8.785529    569.43341  0.011540074   0.01046662            5 
 4113000    0.5951595   -8.8196711    568.77303  0.011523888  0.010462829            1 
 4114000   0.59005092   -8.7832292    569.69941  0.011539852  0.010459041            2 
 4115000    0.5850562    -8.793069    569.04498  0.011523795  0.010455255            2 
 4116000   0.57935664   -8.8174516    568.43741  0.011508694  0.010451467            2 
 4117000   0.59063509    -8.782233    568.55941  0.011508368  0.010447683            5 
 4118000   0.59540086   -8.7757048     568.6356  0.011507115  0.010443903            2 
 4119000    0.5892075   -8.8011024    569.37433  0.011519267  0.010440123            2 
 4120000   0.58597227   -8.8066308    568.65626  0.011501947  0.010436346            2 
 4121000   0.59023542   -8.7976286    569.96138  0.011525548  0.010432568            2 
 4122000   0.58615232   -8.8096992     569.2682  0.011508738  0.010428794            2 
 4123000    0.6042954   -8.8181654    569.46114  0.011509846  0.010425019            1 
 4124000   0.60396099    -8.792084    569.69607  0.011511802  0.010421249            1 
 4125000   0.60267519   -8.8099441    568.28034  0.011480411  0.010417476            2 
 4126000   0.59104075   -8.7944321    569.28786  0.011497977  0.010413709            3 
 4127000   0.57294931   -8.7904668    568.78854  0.011485109  0.010409944            2 
 4128000   0.59066416   -8.7953374     568.2156  0.011470761  0.010406176            2 
 4129000   0.58968486   -8.7970334    569.32638  0.011490401   0.01040241            2 
 4130000   0.59844534   -8.7907845    568.79682  0.011476933  0.010398646            3 
 4131000   0.60178167   -8.8050428    569.67276  0.011491825  0.010394887            6 
 4132000   0.58772713   -8.7954481    568.89549  0.011473368   0.01039113            3 
 4133000   0.59229534   -8.7982645    567.90816  0.011450685  0.010387375            4 
 4134000   0.60125583   -8.7857744    568.84215  0.011466742  0.010383622            4 
 4135000   0.56939429   -8.8144459    569.17725  0.011470723  0.010379868            2 
 4136000   0.58908889   -8.8093779    568.73176  0.011458973  0.010376118            2 
 4137000   0.59084398   -8.7909657    569.12125  0.011464049  0.010372369            3 
 4138000   0.59249723   -8.8068367    569.62716  0.011471467  0.010368622            4 
 4139000   0.58532577   -8.8087155    568.98141  0.011455694  0.010364876            2 
 4140000   0.58621936    -8.772161    569.27085  0.011458753  0.010361131            2 
 4141000   0.60112179   -8.8047249    568.46598  0.011439789  0.010357388            2 
 4142000    0.5910014   -8.7960444     569.4624  0.011457074  0.010353652            3 
 4143000   0.57731454   -8.8305361    569.03956  0.011445803  0.010349916            2 
 4144000   0.58029684   -8.8097984    569.01546  0.011442557  0.010346183            4 
 4145000   0.58484653    -8.812953    569.41753   0.01144788  0.010342446            2 
 4146000   0.58710174   -8.8381724    569.24704  0.011441692  0.010338712            2 
 4147000   0.58840915    -8.824766    569.10957   0.01143617  0.010334976            2 
 4148000   0.59588211   -8.8079336    568.85422  0.011428283  0.010331245            4 
 4149000   0.59304211   -8.8054271      568.455   0.01141751  0.010327515            2 
 4150000   0.58954619   -8.8152748     568.9521  0.011424741   0.01032379            1 
 4151000   0.58495648   -8.8075609    569.34371   0.01142985  0.010320063            1 
 4152000   0.58533891   -8.8062036    569.71659  0.011434582  0.010316339            3 
 4153000   0.60016594   -8.8139669    569.53914  0.011428268  0.010312618            4 
 4154000   0.59458505   -8.7930959    568.46537  0.011403975  0.010308897            1 
 4155000   0.58584423   -8.8025624    569.16295  0.011415222  0.010305181            2 
 4156000   0.59092796   -8.8077965    569.01946  0.011409598  0.010301468            4 
 4157000   0.58635161   -8.7851545    569.28904  0.011412257  0.010297758            4 
 4158000   0.58879477   -8.8131521     569.2643  0.011409017  0.010294047            6 
 4159000   0.58895172    -8.804392    569.63178  0.011413637  0.010290335            3 
 4160000   0.58222301   -8.8066672    569.58086  0.011409873  0.010286622            2 
 4161000   0.58670375   -8.7990101    568.80574  0.011391607   0.01028291            3 
 4162000   0.58792178   -8.8043049    568.56654  0.011384081  0.010279199            3 
 4163000   0.58662585    -8.812755    569.64709  0.011402977  0.010275494            3 
 4164000   0.58164208   -8.7859989    569.01775  0.011387643  0.010271792            4 
 4165000   0.59774005   -8.8142619    568.88529  0.011382259  0.010268088            3 
 4166000   0.58264605   -8.7967988    568.49886  0.011371797  0.010264386            2 
 4167000   0.58782225   -8.8147324    567.93917  0.011357875  0.010260684            2 
 4168000   0.58489289   -8.8145464     568.3304  0.011362972  0.010256983            3 
 4169000   0.58048917   -8.8084815    568.47604  0.011363157  0.010253285            4 
 4170000   0.58937605   -8.8258668    568.32568  0.011357428  0.010249587            3 
 4171000   0.57449673   -8.8111768    569.28445   0.01137386  0.010245887            4 
 4172000   0.57309905    -8.817711    567.96659   0.01134481  0.010242188            2 
 4173000   0.58977462   -8.8156848     568.7222  0.011357181  0.010238496            4 
 4174000    0.5844928   -8.8151567    568.37636  0.011347555  0.010234798            6 
 4175000   0.57952866   -8.7976836    569.14672  0.011360214  0.010231107            2 
 4176000    0.5831364   -8.8177443    569.47328   0.01136401  0.010227414            3 
 4177000   0.57295586   -8.8225274    568.74095  0.011346679  0.010223724            2 
 4178000   0.56682082   -8.8280491    568.75234  0.011344191  0.010220044            3 
 4179000   0.58318287   -8.8432606    568.40466  0.011334543  0.010216359            3 
 4180000   0.57295356   -8.8230063      568.691   0.01133754  0.010212678            2 
 4181000   0.59396403   -8.8125433    568.28115  0.011326659  0.010208996            3 
 4182000   0.58997675   -8.8462384    568.61433   0.01133059  0.010205318            1 
 4183000   0.56897013   -8.8061944    568.30567  0.011321732  0.010201636            4 
 4184000   0.58013182   -8.8226386    568.82764  0.011329422  0.010197957            1 
 4185000   0.57219239    -8.843956    567.18814  0.011294069  0.010194279            1 
 4186000    0.5804135   -8.8327305    568.60194  0.011319516  0.010190601            3 
 4187000   0.58141801   -8.8246714    568.55256   0.01131583  0.010186923            3 
 4188000   0.59434561   -8.8129547    569.45351  0.011331055  0.010183246            3 
 4189000   0.59140347   -8.8312549    567.93715  0.011298185  0.010179571            2 
 4190000   0.57479154   -8.8255848    567.94434  0.011295631  0.010175899            4 
 4191000    0.5666972   -8.8328996    568.22765  0.011298569  0.010172228            3 
 4192000   0.59113843    -8.835368    567.73248  0.011286031  0.010168556            4 
 4193000   0.58458598   -8.8198324    568.36159  0.011295842  0.010164887            3 
 4194000   0.57646944   -8.8257127    567.72768  0.011280553  0.010161215            2 
 4195000   0.58688462   -8.8273904    567.10594  0.011265513   0.01015755            4 
 4196000   0.57357784   -8.8395005    567.70814  0.011274788   0.01015388            4 
 4197000   0.58476507   -8.8464966    568.73299  0.011292451  0.010150221            2 
 4198000   0.58648836   -8.8452709    568.14109  0.011278011   0.01014656            4 
 4199000   0.58530999   -8.8212863    568.21507  0.011276794  0.010142899            3 
 4200000   0.58258896   -8.8321723    567.60008  0.011261906  0.010139238            4 
 4201000   0.57149452   -8.8399738    567.82935  0.011263774  0.010135579            2 
 4202000   0.56237989   -8.8231523    569.05692  0.011285438  0.010131925            2 
 4203000   0.57056941   -8.8254092    568.46798  0.011271076  0.010128272            2 
 4204000   0.56875651   -8.8149509    568.31336   0.01126533  0.010124626            6 
 4205000   0.58278894   -8.8358201    569.02487  0.011276751   0.01012098            2 
 4206000   0.57004643   -8.8243187    568.09217  0.011255591  0.010117328            3 
 4207000   0.58457267   -8.8345079    568.06174  0.011252312  0.010113683            7 
 4208000   0.57556892   -8.8247912    567.76315  0.011243725  0.010110035            1 
 4209000   0.58679786   -8.8485641    569.03518  0.011266239  0.010106386            2 
 4210000   0.59114858   -8.8284845    567.92517  0.011241591  0.010102743            5 
 4211000   0.58408803   -8.8226496    568.37027   0.01124773  0.010099103            3 
 4212000    0.5780736   -8.8382518      568.486  0.011247349  0.010095465            4 
 4213000   0.57440978    -8.818478    568.16644  0.011238358  0.010091823            2 
 4214000   0.58203292   -8.8325391    568.21818  0.011236715  0.010088184            3 
 4215000   0.56918093   -8.8437142    569.01079  0.011249719  0.010084547            2 
 4216000   0.56803885   -8.8413309    569.17058  0.011250209  0.010080911            2 
 4217000   0.56830801   -8.8414974    567.83715  0.011221191  0.010077279            2 
 4218000   0.58998507   -8.8348616     568.3866  0.011229386  0.010073649            4 
 4219000   0.57999382   -8.8387182    568.34533  0.011225909  0.010070022            4 
 4220000   0.58597846   -8.8486068    567.51674  0.011206887  0.010066395            5 
 4221000   0.57730503   -8.8206425    567.74415  0.011208721   0.01006277            2 
 4222000    0.5719653   -8.8552852    568.00467  0.011211209  0.010059145            3 
 4223000   0.56051944   -8.8398556    568.27562    0.0112139  0.010055521            2 
 4224000   0.57505223   -8.8436949    568.23015  0.011210349  0.010051897            4 
 4225000   0.57404736   -8.8517906    567.22091  0.011187789  0.010048279            3 
 4226000   0.57506585   -8.8483268    566.97125  0.011180219  0.010044657            2 
 4227000   0.57838551   -8.8420841    568.18991  0.011201599  0.010041036            9 
 4228000   0.57153484   -8.8445137    568.17453  0.011198647   0.01003742            1 
 4229000   0.57967655   -8.8436517    568.15189  0.011195552  0.010033807            2 
 4230000   0.58769953   -8.8450808    568.44367  0.011198654  0.010030194            2 
 4231000   0.57195576   -8.8329845    568.23774  0.011191951  0.010026584            5 
 4232000   0.58835617   -8.8327056    568.59623  0.011196366  0.010022972            5 
 4233000    0.5636558   -8.8496772    568.11138  0.011184176  0.010019364            3 
 4234000   0.58019051   -8.8455744    567.61805  0.011171824   0.01001576            3 
 4235000   0.57517183   -8.8469265    568.70052  0.011190486  0.010012152            2 
 4236000   0.58028483   -8.8242628    568.66444  0.011187135  0.010008548            4 
 4237000   0.57059474   -8.8186712    568.81707  0.011187496  0.010004948            3 
 4238000   0.57066426   -8.8360834    567.75035  0.011163881  0.010001353            2 
 4239000   0.57886431   -8.8411175    568.35453  0.011173125 0.0099977553            1 
 4240000   0.56885075   -8.8100788    568.66531  0.011176598 0.0099941603            3 
 4241000   0.56696877   -8.8347551    568.02174  0.011161317 0.0099905646            2 
 4242000    0.5715559   -8.8372367    568.81057  0.011174182 0.0099869726            5 
 4243000   0.56811892   -8.8407111    567.70392  0.011149814  0.009983379            3 
 4244000   0.57027596   -8.8435502    567.63343  0.011145803 0.0099797885            2 
 4245000   0.56855696   -8.8495339    568.63199   0.01116278 0.0099761989            1 
 4246000   0.57640724   -8.8652555    568.53081  0.011158165 0.0099726122            5 
 4247000   0.58055714   -8.8624082     567.5445  0.011136184 0.0099690281            2 
 4248000   0.56104506   -8.8471333    568.78456  0.011157889 0.0099654415            5 
 4249000   0.56836028   -8.8385164    567.72842   0.01113455  0.009961856            5 
 4250000   0.56661334   -8.8500405     568.1297  0.011139798 0.0099582748            7 
 4251000   0.56758965   -8.8646789    568.13488  0.011137279 0.0099546961            3 
 4252000   0.57213065   -8.8497211     568.7273   0.01114627 0.0099511139            2 
 4253000   0.56839525   -8.8398633    568.04532  0.011130287 0.0099475352            2 
 4254000   0.58296511   -8.8312338    568.82146  0.011142875 0.0099439652            6 
 4255000    0.5807731    -8.850161     568.7417  0.011138694 0.0099403978            2 
 4256000   0.55717934   -8.8534824    567.61051  0.011113928 0.0099368294            4 
 4257000   0.57874588   -8.8410655    567.29735  0.011105186 0.0099332634            4 
 4258000   0.57809919   -8.8466722    567.77641  0.011111954 0.0099296979            5 
 4259000   0.56196402   -8.8402206    569.55391  0.011144124 0.0099261383            3 
 4260000   0.58755377    -8.852083    567.74744  0.011106171 0.0099225741            2 
 4261000   0.56514783   -8.8430076    567.77592  0.011104121   0.00991901            2 
 4262000   0.56656659   -8.8548689    567.54011  0.011096905 0.0099154478            3 
 4263000    0.5669855   -8.8335122    568.30139  0.011109183  0.009911887            2 
 4264000   0.56202957   -8.8392109    569.07176  0.011121634 0.0099083284            3 
 4265000   0.57169123   -8.8491527    567.87998   0.01109574 0.0099047699            4 
 4266000   0.56897908   -8.8675333    567.15214  0.011078921 0.0099012095            8 
 4267000   0.56829929   -8.8572306    568.23059  0.011097387 0.0098976518            2 
 4268000   0.57207306   -8.8548273    567.82238  0.011086816  0.009894098            3 
 4269000   0.56892036   -8.8554683    568.70557   0.01110146 0.0098905433            8 
 4270000   0.56969973    -8.857304    567.12389  0.011067992 0.0098869909            3 
 4271000   0.57296288   -8.8587781    567.88047  0.011080162 0.0098834431            2 
 4272000   0.57201262   -8.8564324     567.7814  0.011075636 0.0098798943            5 
 4273000   0.57133847   -8.8437632    567.05068  0.011058793 0.0098763493            3 
 4274000   0.56800414   -8.8659439    567.59154  0.011066751 0.0098728069            3 
 4275000   0.55766089   -8.8514469    567.38348  0.011060107 0.0098692664            6 
 4276000   0.56910797   -8.8581543    568.27201  0.011074836 0.0098657243            3 
 4277000   0.57203075   -8.8553694    567.23623  0.011052066 0.0098621836            4 
 4278000   0.55354946   -8.8427654    568.15423  0.011067365 0.0098586433            5 
 4279000   0.56315307   -8.8440572    569.10345  0.011083264 0.0098551023            8 
 4280000   0.55771689     -8.85682    567.65521  0.011052477 0.0098515671            6 
 4281000   0.58032503    -8.857778     567.4354  0.011045616 0.0098480328            3 
 4282000   0.56868787   -8.8385931    566.23045  0.011019587 0.0098444996            4 
 4283000   0.56291357   -8.8540651    567.78879  0.011047334 0.0098409704            3 
 4284000   0.56292354   -8.8427484    568.04335  0.011049707 0.0098374407            2 
 4285000   0.55261724   -8.8572685    567.26842  0.011032058 0.0098339069            6 
 4286000   0.57565971   -8.8596405    567.75346  0.011038915 0.0098303757            6 
 4287000   0.57591948   -8.8652852    567.37784  0.011029038 0.0098268488            4 
 4288000    0.5675558   -8.8519984    567.02308  0.011019572 0.0098233198            4 
 4289000   0.57392599   -8.8783975    568.35065  0.011042797 0.0098197955            5 
 4290000   0.55700405   -8.8707615     566.4603  0.011003502 0.0098162706            4 
 4291000   0.56859974   -8.8604748    567.59526   0.01102298 0.0098127506            4 
 4292000    0.5771632   -8.8619955    567.11669  0.011011119 0.0098092278            4 
 4293000   0.56884451   -8.8693778    567.24607  0.011011066  0.009805712            4 
 4294000   0.56393403   -8.8549047     567.8017  0.011019285 0.0098021973            4 
 4295000   0.56332182   -8.8540163    567.82358  0.011017143 0.0097986845            3 
 4296000   0.56107157   -8.8478269    567.53414  0.011008965 0.0097951711            3 
 4297000   0.56426493   -8.8369826    567.73219  0.011010243 0.0097916591            2 
 4298000    0.5705422   -8.8376688    566.25901  0.010979118 0.0097881467            3 
 4299000   0.57179268   -8.8565776    566.82867  0.010987607 0.0097846386            3 
 4300000   0.55910408     -8.86733    567.44007  0.010996901 0.0097811278            2 
 4301000   0.55560161   -8.8693827    566.57567  0.010977596 0.0097776191            2 
 4302000   0.56754297   -8.8482833    567.52766  0.010993485  0.009774114            2 
 4303000   0.55806116    -8.851384    568.38907  0.011007612 0.0097706089            2 
 4304000   0.55040346   -8.8660905     567.3454  0.010984847 0.0097671075            5 
 4305000   0.55863654   -8.8392369    568.30178  0.011000809 0.0097636094            4 
 4306000   0.55918052   -8.8529645    566.76223  0.010968459 0.0097601118            3 
 4307000   0.57386246   -8.8372173    566.89599  0.010968501 0.0097566109            4 
 4308000   0.56607026   -8.8573163    567.41297  0.010975955 0.0097531174            2 
 4309000   0.55754694   -8.8560752    567.82402  0.010981357 0.0097496213            5 
 4310000   0.56736634   -8.8646858    567.96517  0.010981538 0.0097461305            5 
 4311000   0.55433821   -8.8611349    567.33304  0.010966772 0.0097426391            3 
 4312000   0.55612218   -8.8781133     567.8972  0.010975131 0.0097391481            3 
 4313000   0.56706283   -8.8680995    567.44196  0.010963791 0.0097356634            4 
 4314000   0.56219242   -8.8682831    565.95276  0.010932483 0.0097321744            4 
 4315000   0.56920696   -8.8599944    567.25298   0.01095506 0.0097286884            4 
 4316000   0.56032669    -8.862933    565.87798  0.010925973 0.0097252035            4 
 4317000   0.55474459   -8.8688205    567.20476  0.010949053 0.0097217216            1 
 4318000     0.573719   -8.8710944    567.80844  0.010958168 0.0097182463            4 
 4319000   0.54886289   -8.8660239    567.45319  0.010948777 0.0097147666            5 
 4320000   0.55906573   -8.8664351    567.67613  0.010950543 0.0097112902            4 
 4321000   0.55851632   -8.8693103    567.48819  0.010944384 0.0097078169            5 
 4322000    0.5613079   -8.8605105    566.57588  0.010924261 0.0097043426            4 
 4323000   0.55874121   -8.8633414    566.42073  0.010918743 0.0097008691            5 
 4324000   0.54557404   -8.8489977    567.38905   0.01093488 0.0096973964            4 
 4325000   0.56291331   -8.8741681    567.11552  0.010927081 0.0096939257            3 
 4326000     0.558904   -8.8479427    566.68097  0.010916185 0.0096904573            3 
 4327000   0.54979661   -8.8529795    567.76275  0.010934496  0.009686993            3 
 4328000   0.56200488    -8.866914    566.97571  0.010916815 0.0096835265            6 
 4329000    0.5622547   -8.8683099     567.5391  0.010925139 0.0096800677            4 
 4330000   0.55699387   -8.8667466    567.37118  0.010919384 0.0096766076            4 
 4331000    0.5500503   -8.8672327    567.57726  0.010920828  0.009673147            4 
 4332000   0.56435363   -8.8603984     567.0336  0.010907849 0.0096696877            5 
 4333000   0.56393892    -8.875492    567.48468  0.010914006 0.0096662295            3 
 4334000   0.56605184   -8.8565592    567.72521  0.010916113 0.0096627754            3 
 4335000    0.5467744   -8.8626854    566.55905  0.010891178 0.0096593236            4 
 4336000   0.54823574   -8.8716964    568.31302  0.010922375 0.0096558727            3 
 4337000   0.55214316   -8.8740573     566.7873  0.010890541 0.0096524239            2 
 4338000   0.55618295   -8.8766584     566.0874  0.010874585 0.0096489755            3 
 4339000   0.55540485   -8.8669928    566.89925  0.010887671 0.0096455267            3 
 4340000   0.55350135   -8.8791607    567.96363    0.0109056 0.0096420853            4 
 4341000   0.55487716   -8.8665171     567.0629  0.010885796 0.0096386456            1 
 4342000   0.55695607   -8.8882716    567.56482  0.010892922 0.0096352044            2 
 4343000   0.55793017   -8.8747143    566.84254  0.010876555  0.009631765            4 
 4344000   0.56390004   -8.8509295    567.48034  0.010886286 0.0096283257            3 
 4345000   0.54604861   -8.8588294    567.26509  0.010879653 0.0096248893            7 
 4346000   0.56246356   -8.8719508    566.33209  0.010859259 0.0096214497            5 
 4347000    0.5614552   -8.8621038    566.62162  0.010862312 0.0096180113            2 
 4348000    0.5626048   -8.8722658    567.33791  0.010873542 0.0096145796            2 
 4349000   0.54660877   -8.8829747    567.65943  0.010877202 0.0096111504            2 
 4350000   0.56160536   -8.8803542    567.08847  0.010863764 0.0096077234            2 
 4351000   0.56360534   -8.8596363    567.60809  0.010871219 0.0096042965            8 
 4352000    0.5621518   -8.8664743    566.71643  0.010851647 0.0096008731            2 
 4353000    0.5538921   -8.8611531    567.31275   0.01086057 0.0095974488            4 
 4354000   0.55551116   -8.8630197    567.04825  0.010853013 0.0095940272            4 
 4355000   0.56691617   -8.8740169    567.73617  0.010863685 0.0095906056            6 
 4356000   0.56624921    -8.874608    567.19488  0.010850836 0.0095871864            2 
 4357000   0.55125189   -8.8719712    567.10287  0.010846585 0.0095837674            3 
 4358000   0.54428909   -8.8543451    567.36037   0.01084902 0.0095803544            4 
 4359000   0.56493658   -8.8573435    567.26326  0.010844675 0.0095769391            3 
 4360000    0.5372789   -8.8775512    567.84471  0.010853301  0.009573526            3 
 4361000   0.55180363   -8.8588484    566.70198  0.010828976 0.0095701141            2 
 4362000   0.55405533   -8.8800668    566.54368  0.010823469  0.009566705            2 
 4363000   0.56588298   -8.8551969    566.86686  0.010827161 0.0095632927            3 
 4364000   0.54459026   -8.8779269    566.90066  0.010825326 0.0095598855            2 
 4365000   0.55691841   -8.8938334    567.32578  0.010830962 0.0095564754            3 
 4366000    0.5601456   -8.8792421    566.83885  0.010819187 0.0095530723            3 
 4367000   0.55263245   -8.8802873     567.0937  0.010821573 0.0095496687            3 
 4368000   0.55745999   -8.8631355    567.28427  0.010822731 0.0095462624            3 
 4369000   0.56456335   -8.8797071     566.9041  0.010813003 0.0095428623            4 
 4370000   0.54703186   -8.8813234    567.19146  0.010816008 0.0095394613            3 
 4371000   0.55586373   -8.8839965    566.65528  0.010803311 0.0095360631            7 
 4372000   0.54277085   -8.8678823    567.66124  0.010820015 0.0095326632            5 
 4373000    0.5584464   -8.8835173    565.31537  0.010772836 0.0095292675            2 
 4374000   0.56415516   -8.8850072    566.75813  0.010797861 0.0095258726            2 
 4375000   0.55269799   -8.8892881    565.94863  0.010779974 0.0095224792            5 
 4376000   0.55095498   -8.8947893    566.11046  0.010780592 0.0095190852            8 
 4377000   0.54526807    -8.888238    566.51548   0.01078584 0.0095156927            6 
 4378000   0.54943203   -8.8938008     566.2742  0.010778784 0.0095123034            2 
 4379000   0.56221839   -8.8962508    566.21958  0.010775283 0.0095089178            2 
 4380000   0.54549822     -8.87894    566.28308  0.010774031 0.0095055325            3 
 4381000   0.55580006   -8.8802732    566.63077  0.010778186 0.0095021475            4 
 4382000   0.54921646   -8.8788521    567.36241   0.01078964  0.009498767            2 
 4383000   0.55455747   -8.8606721    567.24137  0.010784877 0.0094953862            3 
 4384000   0.54503653   -8.8747972     567.9129  0.010795181 0.0094920083            4 
 4385000   0.55301406   -8.8848086    566.99842  0.010775341  0.009488631            4 
 4386000   0.55706113    -8.889557    566.06401   0.01075513 0.0094852552            3 
 4387000   0.54525585   -8.8863834     566.3916  0.010758901 0.0094818782            4 
 4388000    0.5476554   -8.8806939    566.17614  0.010752358 0.0094785035            3 
 4389000   0.53953453   -8.8632267    567.02271  0.010765981 0.0094751298            2 
 4390000    0.5502621   -8.8731043      566.847  0.010760194 0.0094717576            4 
 4391000   0.54592275   -8.9021466    566.33856  0.010748094 0.0094683842            5 
 4392000   0.55768444   -8.8650358    565.94672  0.010738212 0.0094650159            5 
 4393000   0.55291056     -8.87055    567.48653  0.010764977 0.0094616481            5 
 4394000   0.53526151   -8.8768442    565.10605  0.010717381 0.0094582807            5 
 4395000   0.55043163   -8.8775565    567.45515  0.010759483 0.0094549114            4 
 4396000   0.53940629   -8.9038755    566.74874  0.010743645 0.0094515462            3 
 4397000   0.54314426   -8.8810129    566.77511  0.010741701  0.009448183            3 
 4398000   0.54353707   -8.8877564    567.12136  0.010745819 0.0094448223            2 
 4399000   0.54450793   -8.8687813    566.76006  0.010736532 0.0094414616            4 
 4400000   0.54746551   -8.8876316    567.35569  0.010745373 0.0094381071            6 
 4401000   0.54714967   -8.8853882    567.67844  0.010749043 0.0094347523            4 
 4402000   0.55617073    -8.887173     567.0313   0.01073435 0.0094313948            4 
 4403000   0.55404765   -8.8909054    566.85008  0.010728482 0.0094280375            5 
 4404000   0.54453418   -8.8886178    566.79237  0.010724954 0.0094246852            2 
 4405000    0.5616777   -8.8791273    565.78525  0.010703467 0.0094213333            3 
 4406000   0.54777852   -8.8763857    566.33863  0.010711504 0.0094179869            6 
 4407000   0.54425549   -8.8872021     567.1848  0.010725074 0.0094146371            5 
 4408000   0.55368444   -8.8809509    566.59804  0.010711548 0.0094112927            4 
 4409000   0.54540881   -8.8912343    565.83648  0.010694725  0.009407945            3 
 4410000   0.54909155   -8.8731219      567.217  0.010718386 0.0094046041            4 
 4411000    0.5479821   -8.8868682    567.53191  0.010721906 0.0094012626            4 
 4412000   0.54798968   -8.8957812    566.25552  0.010695367 0.0093979235            5 
 4413000   0.53510257   -8.8966699    566.80419  0.010703304 0.0093945826            7 
 4414000   0.54175708   -8.8913475     567.0893  0.010706262 0.0093912468            6 
 4415000   0.54181343   -8.9013147    566.69117  0.010696323   0.00938791            4 
 4416000   0.53721923   -8.8874783    566.65569  0.010693231 0.0093845748            5 
 4417000   0.54128423   -8.9011207    566.61834  0.010690105 0.0093812451            4 
 4418000    0.5415046   -8.8813552    566.88512  0.010692718 0.0093779129            3 
 4419000   0.54345546   -8.9016195    566.62207  0.010685337 0.0093745838            4 
 4420000   0.54986917   -8.8994535    567.01046  0.010690242 0.0093712548            2 
 4421000   0.53580855   -8.8979772    566.15352  0.010671671 0.0093679273            3 
 4422000     0.545156   -8.8860052    566.50069  0.010675801 0.0093646007            3 
 4423000   0.55351507   -8.8835359    567.04524  0.010683647 0.0093612787            3 
 4424000   0.52990977   -8.8890009    566.43506  0.010669738 0.0093579566            3 
 4425000   0.54793137   -8.8890355    567.48139  0.010687032 0.0093546365            4 
 4426000   0.54822931   -8.8564777    566.73749  0.010670611 0.0093513226            5 
 4427000   0.54163309   -8.8845965    566.51378  0.010663989 0.0093480072            3 
 4428000   0.53885814   -8.8984078     566.8579  0.010668057 0.0093446893            5 
 4429000   0.54254691   -8.8995625    567.19285  0.010671951 0.0093413726            4 
 4430000   0.54400796   -8.9026561    567.09588  0.010667718 0.0093380581            3 
 4431000   0.53890385   -8.8883536    566.51368  0.010654361 0.0093347495            8 
 4432000   0.53498951   -8.9095313    565.96601  0.010641659 0.0093314392            3 
 4433000   0.53383256    -8.878255    566.35343  0.010646542 0.0093281294            3 
 4434000   0.53402151   -8.9145586    566.95656  0.010655476 0.0093248234            2 
 4435000   0.54780416   -8.8904679    566.73993  0.010649003 0.0093215183            5 
 4436000   0.54170762   -8.8970643    566.60279  0.010644026 0.0093182158            3 
 4437000   0.54080625   -8.8881781    566.52604  0.010640185 0.0093149116            3 
 4438000   0.54063376   -8.8897149    566.50036  0.010637306 0.0093116113            3 
 4439000   0.55431101    -8.903599    566.92262  0.010642837 0.0093083128            4 
 4440000   0.54224133   -8.8867205    566.15993  0.010626125 0.0093050098            4 
 4441000   0.53923347   -8.8966242    566.29699  0.010626304 0.0093017127            2 
 4442000   0.53184657   -8.8861118    566.46126  0.010626994 0.0092984193            2 
 4443000   0.54654712   -8.8937553    566.34742  0.010622466 0.0092951275            3 
 4444000   0.54375394   -8.8956864     566.9531  0.010631434  0.009291835            2 
 4445000   0.54271308   -8.8907916    565.50754  0.010601941 0.0092885447            4 
 4446000   0.53934975   -8.8982998    566.27219  0.010613889 0.0092852565            3 
 4447000   0.54523111   -8.9127196    566.62624  0.010618137 0.0092819676            7 
 4448000    0.5376265    -8.877159    567.36115  0.010629518 0.0092786778            3 
 4449000    0.5410036   -8.8991888    566.90283  0.010618544 0.0092753873            5 
 4450000   0.54783915   -8.8997911    567.33215  0.010624198 0.0092721026            4 
 4451000   0.53448071   -8.8928032    565.55421  0.010588523 0.0092688153            3 
 4452000   0.54384663   -8.8839086    566.65525  0.010606754 0.0092655326            4 
 4453000   0.53447886   -8.8914602     566.8706  0.010608403 0.0092622528            3 
 4454000   0.53174852   -8.8951548    566.10767  0.010591747 0.0092589743            3 
 4455000   0.54379062   -8.8957717    566.53692  0.010597398 0.0092556973            2 
 4456000   0.53818035   -8.8925846    565.85284  0.010582227 0.0092524213            3 
 4457000   0.53997126   -8.8958555     566.7131  0.010595937  0.009249148            4 
 4458000   0.53934123   -8.9022134    566.20891  0.010584135 0.0092458729            3 
 4459000    0.5328885   -8.9114631    566.25246  0.010582576 0.0092426002            5 
 4460000   0.54035446   -8.9189096     566.1975  0.010579176 0.0092393269            2 
 4461000   0.54174383   -8.8905247    566.52234  0.010582873 0.0092360567            6 
 4462000   0.53584534   -8.9167899    566.39026  0.010578034 0.0092327889            4 
 4463000   0.55864772    -8.918466    565.85693  0.010565706 0.0092295222            2 
 4464000   0.52880558    -8.909852    567.21195  0.010588634 0.0092262564            3 
 4465000   0.53191368   -8.9025804    566.68052  0.010576344 0.0092229911            5 
 4466000   0.53837258   -8.8936152    566.51934  0.010570968 0.0092197279            3 
 4467000   0.53288299   -8.9168879    565.84192  0.010555964 0.0092164671            1 
 4468000   0.54079171   -8.9261583    565.60638  0.010549209 0.0092132042            4 
 4469000   0.52982756   -8.9164577     566.9114  0.010571183 0.0092099458            2 
 4470000   0.54134577   -8.9221207    565.72668  0.010546732 0.0092066865            6 
 4471000   0.53398808    -8.890314     566.4431  0.010557726 0.0092034311            2 
 4472000    0.5333039   -8.9002937    566.23132  0.010551418 0.0092001772            4 
 4473000   0.53582448   -8.9133985    566.21376  0.010548732 0.0091969235            4 
 4474000   0.53913285   -8.9086628     566.5055  0.010551809  0.009193671            2 
 4475000   0.52562754   -8.9119737    566.61763  0.010551539 0.0091904206            3 
 4476000   0.54897839   -8.8901167    565.35356  0.010525647 0.0091871731            2 
 4477000   0.54092109   -8.9153146    566.62974  0.010547051 0.0091839234            5 
 4478000   0.54102282   -8.9185817    565.78312   0.01052894 0.0091806773            6 
 4479000   0.53842767     -8.91321    566.28079  0.010535849 0.0091774343            5 
 4480000   0.55182513   -8.8998464    566.68525   0.01054102 0.0091741928            2 
 4481000   0.53763107   -8.9146121    566.57491  0.010536616 0.0091709545            2 
 4482000   0.54021822   -8.9150484    566.15853  0.010526523 0.0091677168            2 
 4483000   0.53116317   -8.9070009    566.12735  0.010523596 0.0091644828            2 
 4484000   0.54356204    -8.904729    565.70017   0.01051331 0.0091612475            2 
 4485000   0.54235721   -8.8940383    565.29008  0.010503346 0.0091580127            1 
 4486000   0.53940016   -8.9035774    566.69364  0.010527078 0.0091547795            2 
 4487000    0.5348951    -8.904858    565.77908  0.010507746 0.0091515492            4 
 4488000   0.53904508   -8.9136747    566.56681  0.010520031 0.0091483208            5 
 4489000   0.53754875   -8.9023867    565.19968  0.010492309 0.0091450912            2 
 4490000   0.52273354   -8.9001919     565.6213  0.010497797 0.0091418622            2 
 4491000   0.53843857   -8.8978343    566.55281  0.010512744 0.0091386399            3 
 4492000   0.53814546   -8.9214509    565.30825  0.010487315  0.009135416            5 
 4493000   0.53873255   -8.8928704    566.47072  0.010506542 0.0091321953            3 
 4494000   0.53597812   -8.9115303    565.82194  0.010492174 0.0091289787            5 
 4495000   0.52754461   -8.8901368     565.7554  0.010488606 0.0091257608            5 
 4496000   0.54277095   -8.8982111    565.83413  0.010487732 0.0091225449            4 
 4497000    0.5363502   -8.9147692    565.41393  0.010477613 0.0091193299            2 
 4498000   0.53082379   -8.9034429    565.32102  0.010473563 0.0091161178            3 
 4499000   0.53690219   -8.9101574     566.0166  0.010484119 0.0091129033            2 
 4500000   0.54183187   -8.9134935    566.03578  0.010482144 0.0091096903            2 
 4501000   0.53702862   -8.8990333    566.52185  0.010488815 0.0091064801            4 
 4502000   0.52956942   -8.9078264    566.96354  0.010494661 0.0091032748            5 
 4503000   0.53374242   -8.9045351    565.50783   0.01046539 0.0091000687            2 
 4504000   0.53657392   -8.9261346    565.99916  0.010472157 0.0090968637            2 
 4505000   0.51578349   -8.9192824    566.13719  0.010472386 0.0090936586            3 
 4506000   0.51995398   -8.9058134    565.94542  0.010466515 0.0090904565            4 
 4507000   0.54514677   -8.9164427      565.565  0.010457159 0.0090872553            4 
 4508000   0.53724885   -8.9023791    565.90906    0.0104612 0.0090840566            3 
 4509000   0.52146211   -8.9147626    565.99493  0.010460467 0.0090808577            3 
 4510000   0.52769962   -8.9119798    565.71951  0.010453058 0.0090776634            4 
 4511000   0.52484685    -8.929347    566.06975  0.010457211 0.0090744679            1 
 4512000   0.52935367   -8.9185444    566.15502  0.010456468  0.009071274            3 
 4513000   0.52703106   -8.9250706    565.78113  0.010447247 0.0090680805            4 
 4514000   0.53446529   -8.9020326    564.94158  0.010429434 0.0090648902            2 
 4515000   0.52266158   -8.9196699    565.93059  0.010445378 0.0090616987            7 
 4516000   0.52303214   -8.8966218    566.55315  0.010454553 0.0090585121            3 
 4517000   0.53665601   -8.9173617    566.27563  0.010447119 0.0090553241            6 
 4518000   0.53693791   -8.9030792    565.96314  0.010439043 0.0090521399            5 
 4519000   0.53289569   -8.9011855    566.40162  0.010444819 0.0090489558            2 
 4520000   0.53864862   -8.9057617    566.01289  0.010435341 0.0090457758            3 
 4521000   0.52831819   -8.8966255    566.70106  0.010445717 0.0090425968            5 
 4522000   0.53038307   -8.9288198    566.21601  0.010434469 0.0090394186            3 
 4523000   0.52474027   -8.9079486    565.65139  0.010421759 0.0090362417            5 
 4524000   0.52462272   -8.9160597    565.41726  0.010415143 0.0090330615            6 
 4525000   0.53123929   -8.9063589    566.07074  0.010424876 0.0090298847            3 
 4526000   0.53348188   -8.8977072    565.90644  0.010419547 0.0090267113            2 
 4527000   0.51612402   -8.8971673    566.47717  0.010427751 0.0090235377            4 
 4528000   0.51211655   -8.9157792     565.8833  0.010414519 0.0090203642            6 
 4529000   0.53311847    -8.899445    566.84091  0.010429839 0.0090171915            3 
 4530000    0.5201454   -8.9043221    566.47333  0.010420775 0.0090140225            6 
 4531000   0.51770667   -8.9216481    565.13144  0.010393795 0.0090108529            2 
 4532000   0.53037887   -8.9309233    565.96663  0.010406859 0.0090076853            2 
 4533000   0.51652553   -8.9069619     566.2796  0.010410317 0.0090045199            2 
 4534000   0.52389524   -8.9194544    566.24247  0.010407338 0.0090013554            3 
 4535000   0.53285312   -8.9110617    565.01432  0.010382476 0.0089981917            4 
 4536000   0.53032858   -8.9133658    565.57539  0.010390494   0.00899503            3 
 4537000   0.51702085   -8.9167016    565.20171  0.010381341 0.0089918689            2 
 4538000   0.53194346   -8.9256808    566.07976  0.010395177 0.0089887097            3 
 4539000   0.53635008   -8.9276377    565.38747  0.010380177 0.0089855512            3 
 4540000   0.53138265   -8.9264213    565.20961  0.010374626 0.0089823935            3 
 4541000   0.52491531   -8.9298471    565.79444  0.010383073 0.0089792379            4 
 4542000   0.52983401    -8.917323    565.81216  0.010381113 0.0089760822            3 
 4543000   0.53001572   -8.9313405    565.85427    0.0103796 0.0089729299            2 
 4544000    0.5136533   -8.9278322    565.77186  0.010375804 0.0089697795            6 
 4545000   0.53357259   -8.9150503    565.98709  0.010377468 0.0089666299            2 
 4546000   0.52824197    -8.901471    566.03455  0.010376055 0.0089634816            3 
 4547000   0.53012003   -8.8983604     566.0335  0.010373754 0.0089603371            5 
 4548000   0.53497974   -8.9064015    565.30423   0.01035811 0.0089571909            2 
 4549000   0.54194692   -8.9278422    565.38641  0.010357339  0.008954048            2 
 4550000   0.52035503   -8.9100043       566.06  0.010367399 0.0089509052            5 
 4551000   0.51425827   -8.9163289    566.16718  0.010367084 0.0089477638            6 
 4552000   0.53858631   -8.9125152    566.26694  0.010366633 0.0089446263            4 
 4553000   0.52056359   -8.9240383    565.90718  0.010357771 0.0089414861            3 
 4554000   0.52812913    -8.914832     566.5793  0.010367796 0.0089383497            5 
 4555000   0.52927827   -8.9308411    565.77937  0.010350885 0.0089352105            5 
 4556000   0.51076407   -8.9331397    565.27094  0.010339313 0.0089320765            3 
 4557000   0.52418247   -8.9274556    565.03435  0.010332718 0.0089289409            4 
 4558000   0.52025865   -8.9232066    565.41505  0.010337411 0.0089258107            5 
 4559000   0.52554313   -8.9318079    565.51973  0.010337057 0.0089226771            4 
 4560000   0.53422542    -8.905507    565.97389   0.01034309 0.0089195491            2 
 4561000   0.51559884   -8.9247654    565.34935  0.010329411 0.0089164229            3 
 4562000    0.5254817   -8.9247584     565.9316  0.010337783  0.008913298            3 
 4563000   0.52508123   -8.9281738     565.7054  0.010331387 0.0089101704            3 
 4564000   0.52306544   -8.9163637    565.49349  0.010325254 0.0089070471            3 
 4565000   0.52490159   -8.9327721    564.96815  0.010313402 0.0089039228            4 
 4566000   0.52345164   -8.9233606    565.74257  0.010325277 0.0089008014            4 
 4567000   0.51070839   -8.9176032    565.67888  0.010321854 0.0088976818            4 
 4568000   0.52173359   -8.9406628    565.62534  0.010318617 0.0088945626            4 
 4569000   0.50622326   -8.9245439     566.1014  0.010325042 0.0088914447            4 
 4570000   0.52163997   -8.9234902    565.66189  0.010314768 0.0088883271            3 
 4571000   0.53386433   -8.9206318     564.7261  0.010295451  0.008885212            3 
 4572000   0.52083886   -8.9197889    565.41454  0.010305748 0.0088820983            3 
 4573000   0.51824889   -8.9269466    565.66931  0.010308137 0.0088789871            2 
 4574000   0.53162734    -8.925392    565.19962  0.010297326 0.0088758765            2 
 4575000   0.52020138   -8.9316658        565.7  0.010304189 0.0088727676            3 
 4576000   0.52162107   -8.9186525    566.03501  0.010308038 0.0088696589            8 
 4577000   0.51031967   -8.9302833    565.06468   0.01028812 0.0088665512            3 
 4578000   0.51215752   -8.9338288    566.01388  0.010303151 0.0088634412            4 
 4579000   0.50142255   -8.9205826    565.35597  0.010288927 0.0088603366            4 
 4580000   0.52312393   -8.9286357    566.22686  0.010302527 0.0088572355            2 
 4581000   0.51864569   -8.9262415    565.64744  0.010289737 0.0088541329            3 
 4582000   0.51895097   -8.9303045    565.70687  0.010288572  0.008851034            5 
 4583000   0.52687235   -8.9198666    566.15893  0.010294547 0.0088479346            4 
 4584000   0.51886883   -8.9230219    565.17164  0.010274354 0.0088448361            4 
 4585000    0.5222104   -8.9165662    566.16266  0.010290125  0.008841742            4 
 4586000   0.51719516   -8.9256625    565.25601  0.010271406 0.0088386461            2 
 4587000   0.50714233   -8.9406236    565.67976  0.010276865 0.0088355488            4 
 4588000   0.50999219   -8.9362707    565.53097  0.010271923 0.0088324545            3 
 4589000   0.52126338   -8.9534207    565.60164  0.010270967 0.0088293653            5 
 4590000   0.50478973   -8.9218814    565.36189  0.010264377 0.0088262737            4 
 4591000   0.52025611   -8.9312222    565.09381  0.010257275 0.0088231845            3 
 4592000   0.52517278   -8.9364613     565.6891  0.010265845 0.0088200974            3 
 4593000    0.5150044   -8.9440077    565.47988  0.010259814 0.0088170117            3 
 4594000   0.50858155   -8.9335484    565.26742  0.010253726 0.0088139251            5 
 4595000   0.52384735   -8.9508968    565.52166  0.010256105 0.0088108428            5 
 4596000    0.5147047   -8.9239902    565.52931  0.010254013 0.0088077622            3 
 4597000   0.50657059   -8.9471988    564.52521   0.01023358 0.0088046819            3 
 4598000    0.5157322   -8.9269968    564.96938  0.010239404 0.0088016027            6 
 4599000   0.51120579   -8.9237785    565.17542  0.010240911 0.0087985252            3 
 4600000   0.51831631   -8.9276076    564.61341  0.010228504 0.0087954493            3 
 4601000   0.51123299   -8.9261281    565.30554  0.010238817  0.008792373            4 
 4602000   0.51502138   -8.9251546    565.08092  0.010232524 0.0087892962            2 
 4603000   0.51643395   -8.9323951    564.54386  0.010220578  0.008786222            3 
 4604000   0.51375408   -8.9408238    564.97646  0.010226189 0.0087831501            5 
 4605000   0.51170079   -8.9201691    565.51586  0.010233729  0.008780082            2 
 4606000   0.50594117   -8.9190209    565.72078  0.010235215 0.0087770135            3 
 4607000   0.51808459   -8.9301788     565.4129  0.010227424 0.0087739459            6 
 4608000   0.51844983   -8.9344839    564.69892  0.010212292 0.0087708792            5 
 4609000   0.51962568   -8.9343504    565.42177  0.010223146 0.0087678166            4 
 4610000   0.52337796   -8.9386169    565.47437  0.010221879 0.0087647533            6 
 4611000   0.51447277   -8.9468794    564.04371  0.010193807 0.0087616909            4 
 4612000    0.5087166   -8.9402631     564.7654  0.010204637 0.0087586258            3 
 4613000    0.5178121   -8.9173606    565.04313  0.010207441 0.0087555662            3 
 4614000   0.51707009    -8.945156     564.8127  0.010201067 0.0087525075            2 
 4615000   0.52245189   -8.9143434    565.05708   0.01020327 0.0087494499            3 
 4616000   0.51465545   -8.9381808    565.08106  0.010201492 0.0087463951            3 
 4617000   0.51643035    -8.940848    565.67255  0.010209959 0.0087433407            2 
 4618000   0.51372577   -8.9283067    566.03712  0.010214327 0.0087402893            2 
 4619000   0.51195316   -8.9348076    564.95472  0.010192587 0.0087372377            8 
 4620000   0.51321926   -8.9313112     564.4406  0.010181108 0.0087341855            4 
 4621000    0.5087157   -8.9372406    565.00665  0.010189112  0.008731134            3 
 4622000   0.50846242   -8.9426527    566.68337  0.010217138 0.0087280853            4 
 4623000   0.50949896   -8.9533813    565.03781  0.010185266 0.0087250379            2 
 4624000   0.51714735   -8.9396062    564.54341  0.010174153  0.008721991            4 
 4625000   0.50708161   -8.9311288    565.14513  0.010182795  0.008718949            3 
 4626000   0.51648061   -8.9464015    564.22916  0.010164093 0.0087159064            3 
 4627000   0.50773201   -8.9496452    564.41059  0.010165164 0.0087128648            3 
 4628000   0.49760796   -8.9283292    566.26084  0.010196284 0.0087098274            5 
 4629000    0.5041501   -8.9457401     564.6028  0.010164233 0.0087067881            3 
 4630000   0.50456322   -8.9540199    565.42707  0.010176873 0.0087037517            3 
 4631000    0.5146569   -8.9394642    564.48009  0.010157635 0.0087007164            2 
 4632000   0.50274667   -8.9411025    565.27721  0.010169783 0.0086976823            3 
 4633000   0.51179668   -8.9453866    564.24684  0.010149055 0.0086946513            3 
 4634000   0.50630063   -8.9304827     564.8095  0.010156983 0.0086916224            4 
 4635000   0.52442901   -8.9540241    565.71094  0.010170999 0.0086885925            4 
 4636000    0.5073549   -8.9438021     565.3248  0.010161864 0.0086855654            3 
 4637000   0.51277473   -8.9435139    565.65215  0.010165555  0.008682538            2 
 4638000   0.50032882   -8.9432255    564.01029  0.010133863 0.0086795114            3 
 4639000   0.50054297   -8.9408084    564.22652  0.010135563  0.008676486            1 
 4640000   0.49969351   -8.9498999     564.5839  0.010139797 0.0086734628            2 
 4641000   0.50439006   -8.9469737    566.06003  0.010164117 0.0086704404            1 
 4642000   0.51039574   -8.9360401    566.14234  0.010163405 0.0086674228            3 
 4643000   0.51355905   -8.9415241    563.69944  0.010117371 0.0086644066            4 
 4644000   0.50406287   -8.9461143    565.23184   0.01014269 0.0086613891            4 
 4645000   0.49983544   -8.9452629    565.45946   0.01014459 0.0086583749            5 
 4646000   0.50835091    -8.954376    564.69277  0.010128655 0.0086553608            4 
 4647000   0.51614846   -8.9490418    565.91965  0.010148477 0.0086523487            2 
 4648000   0.51112913   -8.9511445    564.25839  0.010116509 0.0086493352            1 
 4649000   0.50982642   -8.9439031     565.0115  0.010127832 0.0086463237            4 
 4650000   0.51356756   -8.9488195    565.20355  0.010129096 0.0086433142            4 
 4651000   0.50526313     -8.94484    565.35545   0.01012964 0.0086403045            2 
 4652000   0.50628031   -8.9273893    565.05964  0.010122163 0.0086372983            4 
 4653000   0.49984329   -8.9443494    564.90082  0.010117143 0.0086342925            5 
 4654000   0.50777179   -8.9464165    564.53941  0.010108498 0.0086312874            5 
 4655000   0.50985879   -8.9535149    565.52965  0.010124054 0.0086282851            4 
 4656000   0.49705649   -8.9532678    565.20014  0.010115982 0.0086252818            6 
 4657000   0.52092926   -8.9391747    564.41886  0.010099829 0.0086222795            3 
 4658000   0.51966013   -8.9495928    564.05477  0.010091147 0.0086192806            5 
 4659000   0.51973837   -8.9446225    565.79516  0.010120111 0.0086162806            7 
 4660000   0.49883479   -8.9602378    565.35332  0.010110038 0.0086132841            3 
 4661000   0.49821328   -8.9390744    565.20075  0.010105141 0.0086102896            5 
 4662000   0.50877237   -8.9491961    564.10223  0.010083337 0.0086072958            3 
 4663000   0.51098531   -8.9553281    564.14538  0.010081946  0.008604302            3 
 4664000   0.51494251   -8.9342881    564.61618  0.010088196 0.0086013134            3 
 4665000   0.52037304   -8.9299746    565.14677  0.010095512 0.0085983248            3 
 4666000   0.50701365   -8.9398496    564.99546  0.010090646 0.0085953357            2 
 4667000   0.50634697   -8.9514432    564.14533  0.010073304 0.0085923487            6 
 4668000    0.5101852   -8.9427702    565.22713  0.010090459 0.0085893636            4 
 4669000   0.50668572   -8.9467051    565.61108   0.01009515 0.0085863774            3 
 4670000   0.51004623   -8.9542564    564.15451  0.010066997 0.0085833944            3 
 4671000   0.49460275   -8.9588633     564.4972  0.010070955 0.0085804137            5 
 4672000   0.50722983   -8.9489114    563.79871  0.010056341  0.008577433            4 
 4673000   0.50607939   -8.9484533    565.07933  0.010077026 0.0085744541            3 
 4674000   0.49770002   -8.9494417     564.2517  0.010060115 0.0085714766            3 
 4675000   0.50962587   -8.9396211    564.92122  0.010069897 0.0085685025            3 
 4676000   0.49785574   -8.9643639    564.31865  0.010057005  0.008565528            4 
 4677000   0.50441091   -8.9578417    564.74446  0.010062441 0.0085625556            3 
 4678000   0.50428447   -8.9435613    565.28774  0.010069968 0.0085595832            5 
 4679000   0.51352517   -8.9591635    563.86174  0.010042419  0.008556611            5 
 4680000   0.50946777   -8.9533221    564.47401  0.010051175 0.0085536388            2 
 4681000   0.49346719   -8.9504234    565.39798  0.010065477 0.0085506687            4 
 4682000   0.51477585   -8.9562158     566.1672  0.010077018  0.008547701            3 
 4683000   0.50200887   -8.9638218    565.31863  0.010059766 0.0085447348            3 
 4684000   0.51580053   -8.9464574    565.13079  0.010054277 0.0085417713            2 
 4685000   0.50378686   -8.9520205    565.57368  0.010060008 0.0085388076            3 
 4686000   0.50186493   -8.9457423    564.51852  0.010039097 0.0085358438            3 
 4687000   0.48853771   -8.9349013    564.80608  0.010042068 0.0085328816            3 
 4688000   0.50659714   -8.9470419    565.24303  0.010047693 0.0085299231            3 
 4689000   0.49855865   -8.9499162    564.56991  0.010033588 0.0085269651            4 
 4690000    0.5016558   -8.9490632     564.9056  0.010037413 0.0085240062            3 
 4691000   0.49492401   -8.9517616     564.8955  0.010035094 0.0085210491            6 
 4692000   0.50100086    -8.960427    565.13122  0.010037142 0.0085180951            2 
 4693000   0.49836838    -8.948727     564.5555   0.01002478 0.0085151405            2 
 4694000   0.49400924   -8.9510515    564.95041  0.010029655 0.0085121884            2 
 4695000   0.50242911   -8.9555827    564.93853  0.010027308 0.0085092364            4 
 4696000   0.49429701   -8.9459625    564.52262  0.010017792 0.0085062851            2 
 4697000   0.50122136   -8.9459218    565.38542  0.010030967 0.0085033367            3 
 4698000   0.50520034   -8.9614881    563.92732  0.010002968 0.0085003888            4 
 4699000   0.49813188   -8.9731627    565.60729  0.010030632 0.0084974389            5 
 4700000   0.49341082   -8.9648272    564.45919  0.010008142 0.0084944928            2 
 4701000   0.49834198   -8.9547807    563.78533 0.0099940673 0.0084915503            3 
 4702000   0.49998907    -8.939286     565.0625  0.010014577 0.0084886076            3 
 4703000   0.50014141   -8.9539378    565.42435  0.010018859 0.0084856661            2 
 4704000   0.50234743   -8.9797193     565.1211  0.010011357 0.0084827259            3 
 4705000   0.50844214   -8.9503358    564.76646  0.010002948  0.008479789            4 
 4706000   0.50248004   -8.9451056    564.06542 0.0099884088 0.0084768509            5 
 4707000   0.50300133   -8.9532781    565.22641  0.010006841 0.0084739173            3 
 4708000   0.50069343   -8.9612526    564.12502 0.0099852205 0.0084709821            3 
 4709000   0.50855964   -8.9561304    565.22823  0.010002623 0.0084680504            3 
 4710000   0.50469581   -8.9534803    564.21851 0.0099826347  0.008465117            3 
 4711000   0.50508392   -8.9588921     565.5048  0.010003269  0.008462186            3 
 4712000    0.4932776    -8.966387    563.86957 0.0099722264 0.0084592553            5 
 4713000   0.49628404   -8.9559189    565.45498 0.0099981431  0.008456325            5 
 4714000   0.50462594   -8.9647346    564.91444 0.0099864666 0.0084533959            3 
 4715000    0.4972262   -8.9653689    564.20588 0.0099718254 0.0084504693            3 
 4716000   0.49853799   -8.9607162    563.71031 0.0099609541 0.0084475438            6 
 4717000     0.502664   -8.9500377    564.24424  0.009968275 0.0084446201            3 
 4718000   0.49608898   -8.9747462     564.7361 0.0099748499 0.0084416953            6 
 4719000   0.50204047   -8.9535143    566.22987 0.0099991147 0.0084387756            4 
 4720000   0.49304284   -8.9571096    564.67601 0.0099695624  0.008435855            4 
 4721000   0.49874042   -8.9519425    564.37845 0.0099621981 0.0084329376            2 
 4722000   0.50246927   -8.9548632    564.38549 0.0099602126 0.0084300221            2 
 4723000   0.49948362   -8.9625808    564.01783 0.0099516167 0.0084271059            3 
 4724000   0.49395291   -8.9841043    564.14692 0.0099517873 0.0084241901            4 
 4725000   0.48576953   -8.9641903    564.79163 0.0099610518 0.0084212784            4 
 4726000   0.49938819   -8.9622495    566.37493 0.0099868623  0.008418369            4 
 4727000   0.49301601   -8.9548187    564.90301 0.0099588008 0.0084154587            4 
 4728000   0.50068902   -8.9750041    564.60878 0.0099515083  0.008412549            3 
 4729000   0.49832382   -8.9621227    564.52007 0.0099478408 0.0084096423            3 
 4730000   0.49488391   -8.9586333    564.44429 0.0099444025 0.0084067355            4 
 4731000   0.49497219   -8.9854626    563.86254 0.0099320534 0.0084038263            2 
 4732000   0.49454904   -8.9606388    564.19048 0.0099357297 0.0084009219            4 
 4733000   0.50039004   -8.9627869    564.01877 0.0099306073  0.008398017            3 
 4734000   0.49269984   -8.9543547    564.60548 0.0099388376 0.0083951165            4 
 4735000   0.49617864   -8.9553384    565.08497 0.0099451773 0.0083922152            3 
 4736000   0.48717074   -8.9501952    563.91331 0.0099224612 0.0083893173            3 
 4737000    0.4863569   -8.9542826    563.93885 0.0099208157 0.0083864177            2 
 4738000   0.49473062   -8.9659774    564.33939 0.0099257667 0.0083835174            5 
 4739000   0.48773833   -8.9808082    564.42423  0.009925164 0.0083806222            4 
 4740000   0.49198776   -8.9565033    564.29932  0.009920874 0.0083777271            3 
 4741000   0.50310567   -8.9567746    564.34281 0.0099195459 0.0083748364            3 
 4742000   0.47802663   -8.9896254    563.76431 0.0099072878 0.0083719436            4 
 4743000   0.49109724   -8.9820439    564.52433 0.0099185525 0.0083690527            3 
 4744000   0.49622575   -8.9654704    564.68049 0.0099192047 0.0083661643            2 
 4745000   0.49504793   -8.9837253    563.87037 0.0099028866 0.0083632769            3 
 4746000   0.48730457   -8.9856469    563.73776 0.0098984717 0.0083603909            1 
 4747000   0.50019375    -8.974669     564.9952 0.0099184608 0.0083575061            2 
 4748000   0.49025358   -8.9618472    564.76562 0.0099123425 0.0083546223            3 
 4749000   0.50526982   -8.9674001    564.46126 0.0099049143 0.0083517402            3 
 4750000   0.49602283   -8.9686621    564.47161 0.0099030107 0.0083488592            3 
 4751000    0.4827755   -8.9483891    564.07163 0.0098939106 0.0083459781            4 
 4752000   0.49004137   -8.9813032    564.84291  0.009905354 0.0083430981            2 
 4753000   0.48602203   -8.9722931    564.56309  0.009898364 0.0083402203            3 
 4754000   0.48065937   -8.9765468    564.74803 0.0098995238 0.0083373449            3 
 4755000   0.48089019    -8.973272    564.45514 0.0098923088 0.0083344716            3 
 4756000   0.49577579   -8.9772557    563.84237 0.0098794921 0.0083316014            2 
 4757000   0.48656895   -8.9914839    564.03515 0.0098807923 0.0083287315            3 
 4758000   0.48954526     -8.96976    563.57266 0.0098706155 0.0083258618            2 
 4759000    0.4714372   -8.9793946    563.73805 0.0098714375 0.0083229916            4 
 4760000   0.47408559   -8.9602776    563.89999 0.0098721987 0.0083201194            3 
 4761000   0.50307342   -8.9670439    563.81807 0.0098686913 0.0083172514            2 
 4762000   0.49801668   -8.9676277    563.86703 0.0098674757  0.008314384            4 
 4763000   0.49554446   -8.9885746    564.15194 0.0098703888 0.0083115173            4 
 4764000   0.48666745   -8.9805927     563.3519 0.0098543223 0.0083086529            2 
 4765000   0.48666338   -8.9716693    564.10306  0.009865391 0.0083057875            1 
 4766000   0.50099422   -8.9617866    563.49579  0.009852703 0.0083029247            3 
 4767000   0.47767515    -8.967068    563.44593 0.0098497645 0.0083000626            2 
 4768000   0.47523488   -8.9756413    564.46792 0.0098655607 0.0082972026            2 
 4769000   0.48660398   -8.9739964    564.65701 0.0098667962  0.008294345            3 
 4770000   0.49346613   -8.9918044    563.41635  0.009843053 0.0082914904            2 
 4771000   0.48794967   -8.9727465    563.89381 0.0098493295 0.0082886336            2 
 4772000   0.48956508   -8.9847021    564.11651 0.0098511544 0.0082857815            4 
 4773000   0.48387715   -8.9785958    563.90928 0.0098454724 0.0082829296            4 
 4774000    0.4880301   -8.9848991    564.25081 0.0098493717 0.0082800798            2 
 4775000   0.48819433   -8.9679832    563.17239 0.0098284885   0.00827723            2 
 4776000   0.48333979   -8.9560302    564.63557 0.0098519607 0.0082743805            5 
 4777000    0.4682557   -8.9888741    564.42916 0.0098462975 0.0082715347            3 
 4778000   0.49228089   -8.9718972    565.25957   0.00985872 0.0082686884            4 
 4779000   0.48008234   -8.9537173    564.09493 0.0098363488 0.0082658425            4 
 4780000   0.48361704   -8.9875767    564.97421 0.0098496201 0.0082629997            2 
 4781000   0.48353019    -8.988115    564.64845 0.0098418819  0.008260159            5 
 4782000   0.49404713   -8.9833067    563.90745 0.0098269108 0.0082573172            3 
 4783000   0.47956304    -8.969551    564.39379 0.0098333296 0.0082544785            4 
 4784000    0.4835724   -8.9869246    563.53471 0.0098163097 0.0082516372            2 
 4785000   0.47297002    -8.989182    563.37032 0.0098113953 0.0082487987            4 
 4786000    0.4934205   -8.9838597    563.56263 0.0098126938 0.0082459603            4 
 4787000   0.50181122   -8.9809096     564.5692 0.0098281666 0.0082431265            2 
 4788000   0.49171053   -8.9796502    563.78775 0.0098125131 0.0082402952            2 
 4789000    0.4743198   -8.9878035    564.35079 0.0098202616  0.008237462            2 
 4790000   0.48489741   -8.9783265    563.85454 0.0098095779 0.0082346301            3 
 4791000   0.48137692   -8.9775547    564.27508 0.0098148452 0.0082318021            6 
 4792000   0.49073175    -8.978065    563.44516 0.0097983647 0.0082289743            3 
 4793000   0.47365448   -8.9949416    564.03272 0.0098065358  0.008226145            3 
 4794000   0.48097067    -8.991415     563.3241 0.0097921725 0.0082233182            2 
 4795000   0.48098382   -8.9683167    564.29019 0.0098069202 0.0082204898            2 
 4796000   0.47749536   -8.9755497    564.85512 0.0098146914  0.008217664            2 
 4797000   0.48063671   -8.9683267    564.13225 0.0098000877 0.0082148409            4 
 4798000    0.4811882   -8.9930926    564.40036 0.0098027019 0.0082120186            2 
 4799000   0.48078037   -9.0140108    563.52675 0.0097854891 0.0082091967            3 
 4800000   0.48747979   -8.9977373    564.51726 0.0098006469 0.0082063756            2 
 4801000   0.47647006   -8.9832827    563.72288  0.009784817 0.0082035594            3 
 4802000   0.47869642   -8.9758995    564.62677 0.0097984653 0.0082007427            2 
 4803000   0.47835186    -8.993099    564.00019  0.009785554 0.0081979298            2 
 4804000   0.47546948   -8.9946308    563.89945 0.0097817696 0.0081951153            2 
 4805000   0.48021822   -8.9848318    564.08342 0.0097829244 0.0081923022            4 
 4806000   0.48218225    -8.993576    564.00259 0.0097794873 0.0081894896            3 
 4807000   0.48445388   -8.9838925    563.64891 0.0097713216 0.0081866809            3 
 4808000   0.47773331    -8.983726    563.92963 0.0097741547 0.0081838717            2 
 4809000    0.4877939    -8.987057    563.92952 0.0097721204 0.0081810635            2 
 4810000   0.48437709   -8.9867738    563.49403 0.0097625439 0.0081782596            5 
 4811000   0.48354827   -8.9904438    563.59572  0.009762276 0.0081754534            3 
 4812000   0.47329825   -8.9815052    563.93621 0.0097661438 0.0081726483            4 
 4813000   0.48602384   -8.9818869    563.65323 0.0097592151 0.0081698456            1 
 4814000   0.48580424   -8.9796155    564.31545 0.0097686513 0.0081670423            3 
 4815000   0.47577847    -8.990327    563.90151 0.0097594585 0.0081642428            5 
 4816000   0.47662577   -8.9778436    564.50556 0.0097678841  0.008161446            3 
 4817000    0.4821217   -8.9801424    563.43644 0.0097473607 0.0081586463            3 
 4818000   0.47726507   -8.9863418    563.34578 0.0097437696 0.0081558516            3 
 4819000   0.48892843   -8.9883616    563.41576 0.0097429578 0.0081530558            4 
 4820000   0.48795148   -8.9825521    564.49645 0.0097596206 0.0081502636            3 
 4821000   0.49366094    -8.985622    564.97971 0.0097659495 0.0081474692            3 
 4822000   0.48874428    -8.990755    563.91123 0.0097454589 0.0081446785            3 
 4823000   0.47647939   -8.9856565    562.60337 0.0097208406 0.0081418873            3 
 4824000    0.4698515    -8.987833    563.47313 0.0097338503 0.0081390963            5 
 4825000   0.49240632   -8.9746154    563.28061 0.0097285079 0.0081363065            4 
 4826000   0.47778895   -8.9799964    563.79571 0.0097353866  0.008133521            2 
 4827000   0.47846197   -8.9975359    564.62721 0.0097477249 0.0081307354            3 
 4828000   0.48001063   -8.9849777    563.72037 0.0097300534 0.0081279503            4 
 4829000   0.47067055   -8.9799823    563.82424 0.0097298308 0.0081251667            3 
 4830000   0.47530875   -8.9838739    564.17672 0.0097338978  0.008122384            3 
 4831000   0.48128794   -9.0091775     564.0796 0.0097302078 0.0081196028            2 
 4832000   0.48168848   -8.9969752     564.5318 0.0097359926 0.0081168235            6 
 4833000   0.48001816   -8.9941129    563.80428 0.0097214339 0.0081140437            2 
 4834000   0.47245679   -8.9895054     563.6428  0.009716639 0.0081112652            2 
 4835000   0.48664357   -8.9926508    564.13005 0.0097230275 0.0081084888            5 
 4836000   0.48426178   -9.0019437    563.91369 0.0097172885 0.0081057137            4 
 4837000   0.48533513    -8.995395    563.22587 0.0097034296  0.008102941            3 
 4838000   0.48589669   -8.9893336    563.71493  0.009709848 0.0081001691            3 
 4839000    0.4820719   -8.9859453    563.47275 0.0097036706 0.0080973976            3 
 4840000   0.47066631    -8.990468    563.24449 0.0096977357 0.0080946283            3 
 4841000   0.47821555   -9.0161845    563.27427 0.0096962451 0.0080918596            3 
 4842000   0.46764364   -8.9940804    563.25688 0.0096939433 0.0080890883            3 
 4843000   0.47324357   -9.0087088    564.45082 0.0097124858 0.0080863213            6 
 4844000   0.47488007    -9.000603    563.22881 0.0096894579 0.0080835546            4 
 4845000   0.47703491   -9.0036303    563.44945  0.009691253 0.0080807927            3 
 4846000   0.46977781   -9.0204973    563.86615 0.0096964189 0.0080780286            4 
 4847000   0.47031445   -8.9869832      562.693 0.0096742486 0.0080752645            6 
 4848000    0.4812718   -8.9928472    564.21006 0.0096983302 0.0080725033            2 
 4849000   0.46915632    -9.007154     563.3768   0.00968201 0.0080697439            3 
 4850000   0.48384445   -9.0109377    563.65069 0.0096847197 0.0080669865            2 
 4851000   0.47703036    -8.980113    562.86611 0.0096692454 0.0080642276            4 
 4852000   0.48580871   -8.9952338    563.17015 0.0096724744 0.0080614709            3 
 4853000   0.47326862   -8.9904178    563.47035 0.0096756362 0.0080587154            2 
 4854000   0.47282577   -8.9964383     563.6827 0.0096772884 0.0080559599            4 
 4855000   0.47997511   -9.0073353    562.97468 0.0096631425  0.008053206            7 
 4856000   0.47390446   -8.9964148     562.9223 0.0096602536 0.0080504546            4 
 4857000   0.47433478   -8.9884153    563.90096 0.0096750558  0.008047703            5 
 4858000   0.47908449   -9.0013974    563.15745 0.0096603103 0.0080449537            5 
 4859000   0.47768806   -9.0053502    563.59247  0.009665783 0.0080422064            2 
 4860000   0.47673969   -8.9869665    563.78362 0.0096670717 0.0080394623            4 
 4861000   0.47749517   -9.0032176    563.39787 0.0096584699 0.0080367183            3 
 4862000   0.46932203   -8.9977441    563.54265  0.009658965 0.0080339756            2 
 4863000   0.47463309   -8.9960354    562.23681 0.0096346016 0.0080312314            3 
 4864000   0.47435575   -9.0005289    564.18579 0.0096660121 0.0080284896            2 
 4865000   0.46920441    -8.986485    562.95117 0.0096428772 0.0080257486            3 
 4866000   0.47315591   -8.9910483     563.3394 0.0096475441   0.00802301            3 
 4867000   0.46954182   -9.0021018    562.33396 0.0096283466 0.0080202704            4 
 4868000    0.4698056   -9.0128027    563.66207 0.0096491043   0.00801753            3 
 4869000   0.46821743   -8.9823691    562.92513 0.0096345096 0.0080147945            5 
 4870000   0.45647129   -9.0109445    563.49852 0.0096423429 0.0080120591            1 
 4871000   0.46018991    -9.003882    564.04958 0.0096497909 0.0080093234            4 
 4872000   0.45925577   -9.0038609    562.70367 0.0096247891 0.0080065891            2 
 4873000   0.46495806   -9.0039146    563.50157  0.009636459 0.0080038562            2 
 4874000   0.46811578   -9.0098065    562.97368 0.0096254561  0.008001127            3 
 4875000   0.46131675   -9.0037847    562.35988 0.0096129894 0.0079983997            3 
 4876000   0.47083841   -9.0021048    563.64763 0.0096330262  0.007995671            6 
 4877000    0.4731946   -9.0045765    563.25207 0.0096242921 0.0079929435            2 
 4878000   0.46804038   -9.0009681      563.412 0.0096250512 0.0079902184            2 
 4879000   0.47636397   -9.0059215    563.21269 0.0096196743 0.0079874939            3 
 4880000   0.48799463   -9.0151563    563.70799 0.0096261611 0.0079847689            3 
 4881000   0.46167847   -8.9905646    564.21478 0.0096328413 0.0079820445            4 
 4882000    0.4687894   -9.0030476     563.5504 0.0096195274 0.0079793242            2 
 4883000   0.46440198   -8.9936022    563.31227 0.0096134936  0.007976605            5 
 4884000   0.47326412   -9.0067099     563.6018 0.0096164654 0.0079738864            3 
 4885000   0.47920377   -8.9959667    563.49513 0.0096126771 0.0079711691            6 
 4886000   0.47574105   -9.0033679    563.28392 0.0096071074 0.0079684537            3 
 4887000   0.45939778   -8.9877859    563.53929 0.0096094962 0.0079657378            3 
 4888000   0.47006281   -9.0007887    562.91642 0.0095969111 0.0079630251            5 
 4889000   0.47544113   -9.0131487    564.12408 0.0096155328 0.0079603131            3 
 4890000   0.46907876   -8.9937457    563.74229 0.0096070602 0.0079576045            2 
 4891000   0.46295759   -9.0094087    563.08529 0.0095939019 0.0079548957            4 
 4892000   0.46855557    -9.009253    563.37073 0.0095968032 0.0079521877            2 
 4893000   0.47404405   -8.9973204    563.48756 0.0095968316 0.0079494802            2 
 4894000   0.45975765   -9.0006059    563.86525 0.0096013018 0.0079467747            2 
 4895000   0.46720965   -9.0025666    563.70877 0.0095966764   0.00794407            5 
 4896000   0.46483183   -8.9970242    562.61814 0.0095761531 0.0079413663            2 
 4897000   0.46998275    -8.998083    563.90801 0.0095961474 0.0079386651            3 
 4898000    0.4642725   -8.9980818    563.41649 0.0095858257 0.0079359655            2 
 4899000   0.47345568   -9.0026756    563.43451 0.0095841756 0.0079332653            2 
 4900000   0.48049862   -9.0015955    562.57094 0.0095675329 0.0079305657            4 
 4901000   0.46804926   -9.0124176    562.71671 0.0095680594 0.0079278681            2 
 4902000   0.47158786   -9.0162765    563.26438 0.0095754179 0.0079251696            3 
 4903000   0.47413554   -9.0122567    562.16229 0.0095547333  0.007922472            3 
 4904000   0.46751354   -9.0090228    563.73755 0.0095795533 0.0079197764            1 
 4905000   0.47312856   -9.0193852    562.65712 0.0095592443 0.0079170841            2 
 4906000   0.46349286    -9.019784    563.27436 0.0095677802 0.0079143923            2 
 4907000   0.47307514   -9.0056206    563.08549 0.0095626229 0.0079117022            6 
 4908000    0.4626864   -9.0237729    563.24255 0.0095633413 0.0079090116            5 
 4909000   0.46554698   -8.9968114    563.28507 0.0095621149 0.0079063242            3 
 4910000   0.46906572   -9.0035216    562.81991 0.0095522728 0.0079036365            5 
 4911000   0.46351207   -9.0089631    561.85886 0.0095340199 0.0079009492            3 
 4912000   0.46557073   -9.0043361    562.85722 0.0095490164 0.0078982654            1 
 4913000   0.46691207   -9.0010502    563.23412 0.0095534657 0.0078955824            3 
 4914000   0.47035606   -9.0120079    563.27465 0.0095522089 0.0078928995            1 
 4915000   0.46536501   -8.9985639    563.18446 0.0095487361 0.0078902193            3 
 4916000   0.47743275   -9.0019228    562.81619 0.0095405511 0.0078875397            6 
 4917000   0.46369229   -9.0312975    562.48228 0.0095329517 0.0078848612            2 
 4918000    0.4666407   -9.0109287    563.10089 0.0095414953 0.0078821852            3 
 4919000   0.45817245    -9.021455     562.8349 0.0095350494 0.0078795099            6 
 4920000   0.45960957   -9.0162622    563.35186 0.0095418676 0.0078768329            2 
 4921000   0.46185454    -9.014982    563.29404 0.0095389494 0.0078741594            2 
 4922000   0.47244868   -9.0208087    563.36989 0.0095382955 0.0078714873            5 
 4923000   0.46153364   -9.0155747    561.97559 0.0095127563 0.0078688163            3 
 4924000   0.45367228   -9.0201621    562.90758 0.0095265973  0.007866145            3 
 4925000   0.46454622   -9.0096846    563.05146 0.0095270975 0.0078634759            3 
 4926000   0.45794535   -9.0187222    563.82817 0.0095383031 0.0078608093            4 
 4927000   0.46795387    -9.017703    563.39681 0.0095290712 0.0078581426            2 
 4928000   0.46183122   -9.0105966    562.95034 0.0095195877 0.0078554771            3 
 4929000   0.46625011   -9.0181029     562.9906 0.0095183371 0.0078528118            2 
 4930000   0.46204376   -8.9913518    563.48816 0.0095248167 0.0078501476            4 
 4931000   0.46371095   -9.0079801     563.3228 0.0095200906 0.0078474862            2 
 4932000   0.45079032   -9.0198359    563.48044 0.0095208238 0.0078448255            4 
 4933000   0.45788276   -9.0315335     562.1535 0.0094964779 0.0078421648            2 
 4934000   0.47076822   -9.0223716    562.60164  0.009502122  0.007839506            3 
 4935000   0.46398427   -9.0178748    563.74635 0.0095195264 0.0078368471            2 
 4936000   0.47316051   -9.0205893    562.84486 0.0095023781 0.0078341918            5 
 4937000   0.45114728   -9.0137523    562.84123 0.0095003921  0.007831535            3 
 4938000    0.4452855   -8.9981343    563.54525 0.0095103491 0.0078288808            2 
 4939000   0.46371067   -9.0262047    563.22523 0.0095030241 0.0078262262            2 
 4940000   0.46250546   -9.0131445    561.97738 0.0094800502  0.007823576            3 
 4941000   0.45921551   -9.0350099    562.42227  0.009485635 0.0078209251            4 
 4942000    0.4669886   -9.0175618    563.09947 0.0094951348  0.007818274            3 
 4943000   0.45417683   -9.0187905    563.61723 0.0095019426 0.0078156252            2 
 4944000    0.4543961   -9.0204627    562.29524 0.0094777379 0.0078129778            3 
 4945000   0.46866533   -9.0304908    562.42979 0.0094780889 0.0078103291            2 
 4946000   0.45527692   -9.0161319     563.1793 0.0094888007 0.0078076858            3 
 4947000   0.47231567   -8.9962804    562.39183 0.0094736175 0.0078050435            3 
 4948000   0.45600424   -9.0205872    563.04028  0.009482624  0.007802403            2 
 4949000   0.45174693   -9.0086556    562.46287 0.0094709852 0.0077997618            2 
 4950000   0.45609702   -9.0158143    562.80592 0.0094748472 0.0077971233            2 
 4951000   0.45770425   -9.0005637    563.12401 0.0094782874 0.0077944855            2 
 4952000   0.46344332   -9.0083631    563.22592 0.0094780883 0.0077918473            3 
 4953000   0.45819855   -9.0093493    563.43201 0.0094796422 0.0077892127            3 
 4954000   0.47293258   -9.0045113    562.96004 0.0094697894 0.0077865794            2 
 4955000   0.45562229   -9.0139897    563.31368 0.0094738257 0.0077839459            2 
 4956000   0.46406169   -9.0362291    563.01938 0.0094669657 0.0077813115            4 
 4957000   0.46187109   -9.0314378    563.02908 0.0094652189 0.0077786796            2 
 4958000   0.45369116   -9.0111137    563.18592 0.0094659459  0.007776049            3 
 4959000   0.46259569   -9.0342547    562.96493 0.0094603234 0.0077734201            4 
 4960000   0.45744665   -9.0309208     563.6099 0.0094692523 0.0077707913            4 
 4961000   0.46282937   -9.0243064    561.59661  0.009433525 0.0077681634            1 
 4962000   0.45555241   -9.0211278    562.29558 0.0094433626 0.0077655386            3 
 4963000   0.45783171   -9.0243872    562.34386 0.0094422704 0.0077629156            2 
 4964000   0.45205245    -9.029605    562.95917 0.0094506979 0.0077602916            4 
 4965000   0.45660364   -9.0185887    562.38778  0.009439204 0.0077576702            4 
 4966000   0.45795244   -9.0206754    563.25479 0.0094518524 0.0077550485            3 
 4967000   0.45919702   -9.0337698    562.81001 0.0094424872 0.0077524254            2 
 4968000    0.4578163   -9.0181366    561.97389 0.0094265615 0.0077498078            3 
 4969000   0.46338254   -9.0135102    563.24002 0.0094458982 0.0077471907            3 
 4970000   0.45245997   -9.0236616    562.25776 0.0094275278 0.0077445732            6 
 4971000   0.45962994   -9.0379381    562.67337 0.0094325986 0.0077419563            7 
 4972000    0.4595079   -9.0157488     562.8092 0.0094329781 0.0077393411            2 
 4973000   0.45703599   -9.0256604    563.19518 0.0094375491  0.007736727            2 
 4974000   0.44933161   -9.0192964    562.79395 0.0094289297  0.007734118            3 
 4975000   0.46079199   -9.0150162    562.63794 0.0094244212 0.0077315119            2 
 4976000   0.46677529   -9.0222209    563.00415 0.0094286601 0.0077289013            2 
 4977000   0.44283808    -9.019002    563.16506 0.0094294598 0.0077262926            2 
 4978000   0.45204026   -9.0291955    561.98052 0.0094077361 0.0077236836            4 
 4979000    0.4440717   -9.0267401    563.12909 0.0094250702 0.0077210766            3 
 4980000   0.45134051   -9.0247504    562.33871 0.0094099516 0.0077184717            6 
 4981000   0.45583444   -9.0329558    561.64908 0.0093965248 0.0077158657            3 
 4982000   0.45433976   -9.0166538    562.61033 0.0094107174 0.0077132628            2 
 4983000   0.46223509   -9.0166908    562.43276 0.0094058593 0.0077106616            3 
 4984000   0.45326035   -9.0337013    562.19401 0.0093999802 0.0077080624            4 
 4985000   0.45030553   -9.0184694      562.312 0.0094000668 0.0077054617            2 
 4986000   0.45252008   -9.0231072    563.49349 0.0094179283 0.0077028645            5 
 4987000   0.45509447   -9.0226131    563.08797 0.0094092636 0.0077002641            4 
 4988000   0.45929997    -9.030625    562.66815 0.0094003633  0.007697668            2 
 4989000   0.46339024    -9.026785    563.20093 0.0094073784 0.0076950722            2 
 4990000   0.45135148   -9.0177751    562.04522 0.0093861928 0.0076924768            3 
 4991000   0.45579678   -9.0331566    562.11748 0.0093855186 0.0076898828            2 
 4992000   0.45341511   -9.0277471    562.70885 0.0093935105 0.0076872911            2 
 4993000    0.4612369   -9.0166234    562.72944 0.0093919727 0.0076847001            3 
 4994000   0.45715257   -9.0261476    562.10883 0.0093797363 0.0076821112            2 
 4995000   0.45418644   -9.0270572    562.63988 0.0093867181 0.0076795197            5 
 4996000   0.45125141   -9.0233958    562.27733 0.0093787919 0.0076769346            3 
 4997000   0.45965241   -9.0459441    561.99144 0.0093721473 0.0076743492            2 
 4998000   0.45812222   -9.0261353    562.31236  0.009375623 0.0076717665            2 
 4999000   0.45642461   -9.0262789    562.79894 0.0093818586 0.0076691811            2 
 5000000   0.45356667   -9.0318828    562.97387 0.0093828978 0.0076665974            4 
 5001000    0.4425392    -9.044161    562.65853  0.009375767 0.0076640164            2 
 5002000   0.45632605   -9.0261233     561.8081 0.0093597245  0.007661435            6 
 5003000   0.46313578   -9.0429256    562.28922 0.0093658674 0.0076588546            3 
 5004000   0.44828165   -9.0182419    561.25667 0.0093468004 0.0076562753            8 
 5005000    0.4518008   -9.0318173     562.5321 0.0093661688  0.007653698            3 
 5006000   0.46044801   -9.0182362    562.04305 0.0093561568 0.0076511217            3 
 5007000   0.45034464   -9.0418818    562.49529  0.009361815 0.0076485454            4 
 5008000   0.45345756   -9.0210807    562.34344 0.0093574188 0.0076459725            3 
 5009000   0.44841686   -9.0377554    562.55453 0.0093590625 0.0076433989            1 
 5010000   0.45589882   -9.0261446    562.65814 0.0093589178 0.0076408257            2 
 5011000   0.45116025   -9.0321869    562.20484 0.0093495118 0.0076382534            2 
 5012000   0.45771796   -9.0326088    561.76603 0.0093403503 0.0076356845            3 
Loop time of 12436.1 on 48 procs for 5000000 steps with 4000 atoms

Performance: 69475.022 tau/day, 402.055 timesteps/s
99.4% CPU use with 48 MPI tasks x no OpenMP threads

MPI task timing breakdown:
Section |  min time  |  avg time  |  max time  |%varavg| %total
---------------------------------------------------------------
Pair    | 846.79     | 909.06     | 994.19     | 112.5 |  7.31
Neigh   | 81.91      | 85.198     | 89.848     |  19.8 |  0.69
Comm    | 769.19     | 852.46     | 923.57     | 118.8 |  6.85
Output  | 13.56      | 13.565     | 13.643     |   0.3 |  0.11
Modify  | 10440      | 10465      | 10486      |  11.0 | 84.15
Other   |            | 111.3      |            |       |  0.89

Nlocal:        83.3333 ave          92 max          77 min
Histogram: 6 0 7 4 13 10 3 2 1 2
Nghost:        2195.71 ave        2211 max        2184 min
Histogram: 3 3 5 10 11 7 3 3 2 1
Neighs:        14599.2 ave       16271 max       13401 min
Histogram: 8 1 5 6 13 5 4 5 0 1
FullNghs:      29197.9 ave       32444 max       26966 min
Histogram: 6 1 8 8 12 6 2 2 1 2

Total # of neighbors = 1401501
Ave neighs/atom = 350.37525
Neighbor list builds = 266961
Dangerous builds = 2

#clear
#
#next RN
#
#jump SELF
Total wall time: 3:27:19
