
units lj                  # Use reduced LJ style units
atom_style atomic         # Uncharged point particles
atom_modify map hash      # Needed for indexing of clusters etc
                          # Used to be able to find where atoms are in relation to each other.

lattice fcc 1.0 spacing 1 1 1
Lattice spacing in x,y,z = 1.5874011 1.5874011 1.5874011
region box block 0 10 0 10 0 10 units lattice
create_box 2 box
Created orthogonal box = (0.0000000 0.0000000 0.0000000) to (15.874011 15.874011 15.874011)
  3 by 4 by 4 MPI processor grid
create_atoms 1 box
Created 4000 atoms
  using lattice units in orthogonal box = (0.0000000 0.0000000 0.0000000) to (15.874011 15.874011 15.874011)
  create_atoms CPU = 0.002 seconds
set type 1 type/fraction 2 0.18 78393
Setting atom values ...
  747 settings made for type/fraction
mass 1 1.0
mass 2 1.0
pair_style lj/cut  3.5
pair_modify tail  yes
pair_coeff 1  1  1.0  1.0   # Intearaction between 1 and 1 set with epsilon = 1 and sigma = 1
pair_coeff 1  2  1.5  0.8
pair_coeff 2  2  0.5  0.88

write_data data.0
System init for write_data ...
Neighbor list info ...
  update every 1 steps, delay 10 steps, check yes
  max neighbors/atom: 2000, page size: 100000
  master list distance cutoff = 3.8
  ghost atom cutoff = 3.8
  binsize = 1.9, bins = 9 9 9
  1 neighbor lists, perpetual/occasional/extra = 1 0 0
  (1) pair lj/cut, perpetual
      attributes: half, newton on
      pair build: half/bin/atomonly/newton
      stencil: half/bin/3d
      bin: standard
WARNING: Not all mixed pair coeffs generated from mixing. Use write_data with 'pair ij' option to store all pair coeffs. (../write_data.cpp:312)


#############################
#   M E L T   S Y S T E M   #
#############################

velocity all create 2.4 9622624 mom yes dist gaussian # Assign velocities
                                                    # Temperature 2.4, random number seed, zero linear momentum
                                                                                # Gaussian distribution

timestep 0.002   # simulation timestep
thermo 1000       # output thermodynamic data every 1000 steps bf 100

# Define a fix  in this case with index 1 applied to all
# particles in the simulation. This fix is for simulations
# in the anisotropic NPT ensemble. Note that we use the MTK
# correction.
fix 1 all npt temp 2.4 2.4 0.1 iso 5.68 5.68 0.5 mtk yes tchain 5 pchain 5 # Use NPT ensemble
                                                                         # Set temperature and pressure and damping
                                                                         # Numbers of thermostats in chain and in barostat
run 10000          # run for 10000 steps
Per MPI rank memory allocation (min/avg/max) = 3.642 | 3.644 | 3.648 Mbytes
Step Temp E_pair E_mol TotEng Press Volume 
       0          2.4   -7.1764538            0   -3.5773538   -3.5088476         4000 
    1000    2.3385667   -4.7905961            0   -1.2836229    5.5893728     4554.581 
    2000    2.3740222   -4.7938811            0    -1.233738    5.8269293    4517.7982 
    3000    2.3968249   -4.7882503            0   -1.1939118    5.6746398    4550.5925 
    4000    2.4161471   -4.7394315            0   -1.1161169    5.7603567    4569.3516 
    5000    2.3758476   -4.7816073            0   -1.2187269    5.4483009    4576.9698 
    6000    2.3791893   -4.7805547            0    -1.212663    5.3545638    4579.5132 
    7000    2.4139321   -4.7467626            0   -1.1267696    5.6347006    4574.2325 
    8000    2.4348174    -4.751528            0   -1.1002149    5.6674483    4574.0476 
    9000     2.410501   -4.8000161            0   -1.1851686    5.9859343    4510.7395 
   10000    2.4462711   -4.8123791            0   -1.1438897    5.8762801    4516.5355 
Loop time of 2.25337 on 48 procs for 10000 steps with 4000 atoms

Performance: 766850.275 tau/day, 4437.791 timesteps/s
99.6% CPU use with 48 MPI tasks x no OpenMP threads

MPI task timing breakdown:
Section |  min time  |  avg time  |  max time  |%varavg| %total
---------------------------------------------------------------
Pair    | 0.95238    | 1.0226     | 1.0968     |   3.0 | 45.38
Neigh   | 0.19543    | 0.20277    | 0.21314    |   0.9 |  9.00
Comm    | 0.69276    | 0.7748     | 0.85801    |   4.0 | 34.38
Output  | 0.00025182 | 0.00025612 | 0.0003146  |   0.0 |  0.01
Modify  | 0.21811    | 0.2381     | 0.25752    |   2.2 | 10.57
Other   |            | 0.01487    |            |       |  0.66

Nlocal:        83.3333 ave          91 max          73 min
Histogram: 1 3 4 2 4 10 10 7 5 2
Nghost:        1517.35 ave        1545 max        1484 min
Histogram: 2 0 4 6 10 7 4 9 3 3
Neighs:        8446.69 ave        9380 max        6942 min
Histogram: 1 0 4 3 6 6 9 8 6 5

Total # of neighbors = 405441
Ave neighs/atom = 101.36025
Neighbor list builds = 900
Dangerous builds = 175

# Equilibrate just above the melting temperature to avoid step fn in T

fix 1 all npt temp 1.25 1.25 0.1 iso 5.68 5.68 0.5 mtk yes tchain 5 pchain 5
run 2000
Per MPI rank memory allocation (min/avg/max) = 3.642 | 3.645 | 3.649 Mbytes
Step Temp E_pair E_mol TotEng Press Volume 
   10000    2.4462711   -4.8123791            0   -1.1438897    5.8762801    4516.5355 
   11000    1.2340507   -6.4602629            0   -4.6096496    5.5934782    3726.8855 
   12000    1.2371427   -6.4568707            0   -4.6016206    5.5981012    3726.2234 
Loop time of 0.500158 on 48 procs for 2000 steps with 4000 atoms

Performance: 690981.724 tau/day, 3998.737 timesteps/s
99.6% CPU use with 48 MPI tasks x no OpenMP threads

MPI task timing breakdown:
Section |  min time  |  avg time  |  max time  |%varavg| %total
---------------------------------------------------------------
Pair    | 0.22973    | 0.24441    | 0.26234    |   1.6 | 48.87
Neigh   | 0.033119   | 0.034917   | 0.036748   |   0.5 |  6.98
Comm    | 0.14681    | 0.16804    | 0.18333    |   2.2 | 33.60
Output  | 5.2148e-05 | 5.334e-05  | 6.6869e-05 |   0.0 |  0.01
Modify  | 0.042967   | 0.048109   | 0.052803   |   1.1 |  9.62
Other   |            | 0.004631   |            |       |  0.93

Nlocal:        83.3333 ave          92 max          75 min
Histogram: 2 2 7 6 8 9 3 7 2 2
Nghost:        1724.98 ave        1743 max        1703 min
Histogram: 4 1 3 6 3 9 8 2 8 4
Neighs:        10244.1 ave       11632 max        8992 min
Histogram: 2 5 3 5 10 9 5 6 2 1

Total # of neighbors = 491719
Ave neighs/atom = 122.92975
Neighbor list builds = 143
Dangerous builds = 11

#############################
# L I N E A R  Q U E N C H  #
#############################

# Define solid atoms. This closely follows ten Wolde  Ruiz-Montero and Frenkel  Faraday Discuss  1996  104  93-110
# Compute components of the per-atom q6 vector
compute q6 all orientorder/atom degrees 1 6 components 6 nnn NULL cutoff 1.3 # compute the Q6 parameter.
                                                                             # Use all neighbours within 1.3 unit cell.

# get number of connections
compute coord_number all coord/atom orientorder q6 0.5

# An atom is solid if it has 8 or more connections (of a possible 14)
variable is_solid atom c_coord_number>=8
group solid dynamic all var is_solid    # Must be dynamic to update
dynamic group solid defined

# do clustering
compute cluster solid cluster/atom 1.3 # Create a cluster where all atoms within are solid and max 1.3 units from another member

# define chunks one chunk per cluster
compute clus_chunks solid chunk/atom c_cluster nchunk every compress yes  # Says which atoms are in which chunk

# count the size of each chunk
compute size_chunks solid property/chunk clus_chunks count


# Find the maximum entry in the vector of chunk sizes
variable max_n equal max(c_size_chunks)


# Thermo style which includes this variable
# thermo_style custom step temp pe vol v_max_n

thermo ${N}  # Print the thermo information every 100 steps
thermo 1000  

# Reset the npt fix at a lower temperature (below freezing)
fix 1  all npt temp  ${temp} ${temp}  0.1  iso  5.68  5.68  0.5  mtk yes tchain  5  pchain  5
fix 1  all npt temp  0.45 ${temp}  0.1  iso  5.68  5.68  0.5  mtk yes tchain  5  pchain  5
fix 1  all npt temp  0.45 0.45  0.1  iso  5.68  5.68  0.5  mtk yes tchain  5  pchain  5

dump dmp2 all dcd ${N} traj.dcd
dump dmp2 all dcd 1000 traj.dcd


compute msd all msd com yes
variable twopoint equal c_msd[4]/6/(step*dt+1.0e-6)
fix 9 all vector 10 c_msd[4]
variable fit equal slope(f_9)/6/(10*dt)
thermo_style custom step temp pe c_msd[4] v_twopoint v_fit v_max_n

fix 1 all npt temp 1.25 ${temp} 0.1 iso 5.68 5.68 0.5 mtk yes tchain 5 pchain 5
fix 1 all npt temp 1.25 0.45 0.1 iso 5.68 5.68 0.5 mtk yes tchain 5 pchain 5
run 5000000 # 5000000  # Run for this many steps
Neighbor list info ...
  update every 1 steps, delay 10 steps, check yes
  max neighbors/atom: 2000, page size: 100000
  master list distance cutoff = 3.8
  ghost atom cutoff = 3.8
  binsize = 1.9, bins = 9 9 9
  4 neighbor lists, perpetual/occasional/extra = 1 3 0
  (1) pair lj/cut, perpetual
      attributes: half, newton on
      pair build: half/bin/atomonly/newton
      stencil: half/bin/3d
      bin: standard
  (2) compute orientorder/atom, occasional
      attributes: full, newton on
      pair build: full/bin/atomonly
      stencil: full/bin/3d
      bin: standard
  (3) compute coord/atom, occasional
      attributes: full, newton on
      pair build: full/bin/atomonly
      stencil: full/bin/3d
      bin: standard
  (4) compute cluster/atom, occasional
      attributes: full, newton on
      pair build: full/bin/atomonly
      stencil: full/bin/3d
      bin: standard
Per MPI rank memory allocation (min/avg/max) = 9.766 | 9.775 | 9.780 Mbytes
Step Temp PotEng c_msd[4] v_twopoint v_fit v_max_n 
   12000    1.2371427   -6.4568707            0            0 8.3333333e+20            1 
   13000    1.2492579   -6.4837357   0.54175051 0.0034727595  0.043966051            1 
   14000     1.252964   -6.5076173    1.0396847 0.0061885994  0.042902456            1 
   15000    1.2179367   -6.4703892    1.5445324 0.0085807352  0.042228871            2 
   16000    1.2485376   -6.4422908    2.0655082  0.010757855  0.042482981            2 
   17000    1.2720409   -6.5097494    2.5492158  0.012496155  0.042508063            1 
   18000    1.2839286    -6.524864    3.0629775  0.014180451  0.042182466            3 
   19000    1.2663077   -6.5202909    3.5706476  0.015660735  0.042058511            2 
   20000    1.2480043   -6.4916438    4.0594371  0.016914321  0.042017279            3 
   21000    1.2528774   -6.5063832    4.5827011  0.018185321  0.042003002            2 
   22000    1.2376355   -6.4949209    5.1053297   0.01933837  0.042167686            2 
   23000    1.2509892   -6.4946614    5.6441776  0.020449919   0.04238699            1 
   24000    1.2795821   -6.4669188    6.2171702  0.021587396  0.042527704            1 
   25000    1.2211226   -6.4456478    6.9161774  0.023053924  0.042990478            3 
   26000    1.2366944    -6.494237    7.4357772  0.023832619   0.04348333            2 
   27000    1.2479287   -6.4469097    7.9870798   0.02465148  0.043867845            2 
   28000    1.2454849    -6.466785    8.4650421  0.025193577  0.044034821            1 
   29000    1.2568593   -6.4849779    8.8602582  0.025460512  0.044026551            3 
   30000     1.266865   -6.5002439    9.2969539  0.025824872   0.04384326            1 
   31000    1.2486981   -6.5024744       9.8657  0.026520699  0.043662494            1 
   32000    1.2404462   -6.5002243    10.354343  0.026964435  0.043566916            2 
   33000    1.2222505   -6.5023426    10.825326  0.027336681   0.04347781            2 
   34000    1.2471837   -6.5100349    11.308996  0.027718126  0.043371768            2 
   35000    1.2360331   -6.5066014    11.875047  0.028273921  0.043339285            2 
   36000    1.2496643   -6.5170333    12.544848  0.029038999  0.043314939            2 
   37000    1.2581924   -6.4747211    12.929719  0.029120987   0.04331805            5 
   38000    1.2292945   -6.5070498    13.418907  0.029427428  0.043251081            2 
   39000    1.2566916   -6.4820978    13.886774  0.029672593  0.043174124            2 
   40000    1.2127246   -6.4746287     14.34772  0.029891082  0.043086632            1 
   41000    1.2485525   -6.5453746    14.750277  0.029980237  0.042969576            3 
   42000    1.2182499   -6.4847837    15.295185  0.030347588  0.042837761            1 
   43000    1.2275415   -6.4516128    15.834622  0.030687252   0.04275396            2 
   44000    1.2509493   -6.4703533     16.18234  0.030648371  0.042645406            2 
   45000    1.2356266   -6.4678728    16.723703   0.03096982   0.04254355            1 
   46000    1.2329245   -6.5042758    17.252392  0.031254333  0.042454927            3 
   47000     1.253502   -6.5253744    17.689301  0.031364009  0.042365085            3 
   48000    1.2416054    -6.494306    18.193795  0.031586449   0.04227934            1 
   49000    1.2233041   -6.5271868    18.818673  0.032004546  0.042240757            1 
   50000    1.2283956   -6.4893179    19.260234   0.03210039  0.042198622            2 
   51000    1.2377469   -6.5012675    19.726419  0.032232711  0.042159156            1 
   52000    1.2454765   -6.5065419    20.182119  0.032343139  0.042117363            2 
   53000     1.251471   -6.5227386    20.553075  0.032316156  0.042068347            1 
   54000    1.2742367   -6.5159862     21.17653   0.03267983  0.042028833            4 
   55000    1.2686884   -6.5363193    21.616271  0.032751926  0.041975244            2 
   56000    1.2126309   -6.5179913    22.076894  0.032852521  0.041936583            3 
   57000    1.2242041   -6.4521529    22.708411  0.033199432  0.041894307            2 
   58000    1.2261706   -6.4959716    23.062385  0.033135611  0.041859222            2 
   59000    1.2479249   -6.4946987     23.57884  0.033303446  0.041806675            2 
   60000    1.2211234   -6.5496173    23.982727  0.033309343   0.04174496            2 
   61000    1.2499466   -6.5347053    24.509718  0.033483221  0.041705767            1 
   62000    1.2460352   -6.4857716    25.173572  0.033835446  0.041675964            3 
   63000    1.2352071   -6.4793615    25.703975  0.033999966  0.041652777            2 
   64000    1.2699284   -6.5528377    26.035544  0.033900448  0.041629995            2 
   65000    1.2414556   -6.5128079    26.533918  0.034017844  0.041611722            1 
   66000    1.2291562   -6.4879496    27.056287  0.034161978   0.04158798            1 
   67000     1.244297   -6.4884658    27.721693  0.034479718  0.041587785            1 
   68000    1.2447474     -6.50991    28.135966   0.03448035   0.04160098            3 
   69000    1.2576481   -6.5489281    28.629655  0.034576878  0.041602733            1 
   70000    1.2461341    -6.490701    29.213872  0.034778419  0.041600499            2 
   71000    1.2548722   -6.4694887    29.674266  0.034828951  0.041604464            3 
   72000    1.2131634   -6.4807365    30.337853  0.035113256  0.041617172            2 
   73000    1.2723785   -6.5495364    30.621615  0.034956182  0.041618885            2 
   74000    1.2419281   -6.4941492    31.033224  0.034947324  0.041598484            2 
   75000     1.243062   -6.4561456    31.688137  0.035209041   0.04158378            2 
   76000    1.2374686   -6.4860144    32.056892  0.035150101  0.041568327            1 
   77000    1.2300207   -6.4943867    32.429109  0.035096438  0.041548084            3 
   78000    1.2307745   -6.5060084    33.074445  0.035335946  0.041538651            2 
   79000    1.2276123   -6.5363849    33.573347  0.035414922  0.041537558            1 
   80000    1.2359524   -6.5022712    34.171434  0.035595243  0.041537115            3 
   81000    1.2248674   -6.5707704    34.488132  0.035481617  0.041536164            1 
   82000    1.2311972   -6.4909328     35.34619  0.035920924   0.04154444            1 
   83000    1.2364873   -6.4988548    35.786909  0.035930631  0.041558288            2 
   84000    1.2243459   -6.5186385    36.027097  0.035741167  0.041555141            2 
   85000    1.2276607   -6.5056455    36.675203  0.035956081  0.041553876            2 
   86000     1.231351   -6.5101434    37.071852  0.035922337  0.041546546            3 
   87000    1.2494154   -6.4706629    37.402611  0.035826255  0.041538262            2 
   88000    1.2407715   -6.5329424    37.831385  0.035825175  0.041514042            3 
   89000    1.2491406   -6.4849238    38.660138  0.036198631  0.041505946            2 
   90000    1.2153045   -6.4957453    39.103536  0.036206978  0.041508524            3 
   91000    1.2392152   -6.5086702    39.684457  0.036341078  0.041513566            2 
   92000    1.2236248   -6.5004371    40.337076  0.036537206  0.041523803            2 
   93000     1.231252   -6.5528498    40.773104  0.036535039  0.041536436            1 
   94000    1.2471705   -6.5181668    41.088464  0.036425943  0.041543903            1 
   95000    1.2371042   -6.5419911    41.830237  0.036693191  0.041553922            1 
   96000    1.2035986   -6.5308128     42.20976  0.036640416  0.041563979            1 
   97000    1.2597118   -6.5274516    42.634614  0.036627675  0.041567077            4 
   98000    1.2330833   -6.5258647    43.213623  0.036746278  0.041570331            2 
   99000    1.2327878   -6.5095078    43.943635  0.036989591  0.041583368            2 
  100000     1.237267   -6.4922848    44.337725  0.036948104  0.041595928            3 
  101000    1.2512558   -6.5102411     45.13131  0.037237055  0.041615871            3 
  102000    1.2623914   -6.4982332    45.661087  0.037304809  0.041644005            4 
  103000    1.2518158   -6.5019903    45.966467  0.037189698  0.041668128            1 
  104000    1.2326795   -6.5268407    46.581189   0.03732467  0.041687205            1 
  105000    1.2250526   -6.5430295     47.16534   0.03743281  0.041711698            2 
  106000    1.2587039   -6.5262081    47.878845  0.037640601  0.041747173            3 
  107000    1.2197223   -6.5469333    48.406383  0.037699675  0.041786678            3 
  108000    1.2522493   -6.5085658    48.948758  0.037769103  0.041823641            1 
  109000    1.2180592   -6.5354402    49.442221  0.037799863   0.04185556            2 
  110000    1.2269247   -6.5142305    49.955672  0.037845206  0.041884845            2 
  111000    1.2433753    -6.513926    50.387608  0.037828534  0.041906677            3 
  112000    1.2484868   -6.5253029    50.709095  0.037729982  0.041929156            4 
  113000    1.2060757   -6.4860599    51.326335   0.03785128   0.04194502            2 
  114000     1.241024   -6.5193507    51.835985  0.037891802  0.041966447            1 
  115000    1.2476098   -6.4948145    52.439436  0.037999591  0.041982538            1 
  116000    1.2344496   -6.5506525    52.574154  0.037768789  0.041997276            1 
  117000    1.2106271   -6.5100091    52.925202  0.037696013  0.042002722            3 
  118000    1.2029032   -6.5506951    53.686455  0.037914163  0.042011252            1 
  119000    1.2626682   -6.5243931    54.220451  0.037969503  0.042024958            3 
  120000    1.2676284   -6.5074746    55.070521  0.038243417   0.04203684            2 
  121000    1.2457685   -6.5101927    55.380389  0.038140764  0.042055899            1 
  122000    1.2575395   -6.4894958    55.731419  0.038067909  0.042069389            2 
  123000     1.225016   -6.5271999    56.217376  0.038087653  0.042076463            1 
  124000    1.2321984   -6.5058574    56.800041   0.03817207  0.042082715            5 
  125000    1.2438376   -6.5040933     57.06607  0.038044046  0.042088533            2 
  126000    1.2370331   -6.4837984    57.443707  0.037991869  0.042091688            5 
  127000    1.2193043    -6.510475    58.037589  0.038082408  0.042083268            4 
  128000    1.2253333   -6.5283675    58.552546  0.038120147  0.042077641            1 
  129000    1.2263769   -6.5045182     59.36124  0.038347054  0.042079518            1 
  130000    1.2191302   -6.5316369    59.970258  0.038442473  0.042091306            2 
  131000    1.2521775   -6.5496593    60.529541  0.038504797  0.042097986            1 
  132000    1.2438593   -6.5668981    60.729341   0.03833923  0.042108547            3 
  133000    1.2229289   -6.4864889    61.757722  0.038695314  0.042117721            2 
  134000    1.2303816   -6.4973469    61.622938  0.038322723  0.042123143            2 
  135000    1.2211053   -6.5412727    62.213159  0.038403185  0.042126182           12 
  136000    1.2174254   -6.5440805    62.638235  0.038381271  0.042125335            2 
  137000    1.2112854   -6.5245918    63.164047  0.038420953  0.042120588            2 
  138000    1.2064892   -6.5030977    63.919641  0.038598817  0.042118263            1 
  139000    1.2491361   -6.5237447    64.134395  0.038449877  0.042119341            1 
  140000     1.224516   -6.5421501    64.820145   0.03858342  0.042120181            2 
  141000    1.2444658   -6.5493417    65.240267  0.038558077  0.042124298            4 
  142000    1.2555152   -6.5224375    65.785612   0.03860658  0.042129902            1 
  143000    1.2214505   -6.5269377    66.226318  0.038593425  0.042132361            2 
  144000    1.2054256   -6.4874415    66.707472  0.038603861  0.042132098            2 
  145000    1.2344766   -6.5082373    67.218685  0.038631428  0.042127028            2 
  146000    1.2147441   -6.5289014    67.618177   0.03859485  0.042122244            1 
  147000    1.2197382    -6.561745    68.121075   0.03861739  0.042119843            1 
  148000    1.2327826   -6.5554598    68.618029  0.038636277  0.042121109            2 
  149000    1.2277655   -6.5395036    69.218843  0.038712999   0.04212214            3 
  150000    1.2330136   -6.5270901    69.957409  0.038865227  0.042124383            2 
  151000    1.2336809   -6.5597015    70.175909  0.038728426  0.042127243            3 
  152000    1.2332759   -6.5272763    70.504624  0.038653851  0.042125769            3 
  153000     1.238822    -6.523099     70.97436  0.038657059  0.042119629            4 
  154000    1.2090751   -6.5369036    71.493276  0.038686837  0.042117292            2 
  155000    1.2176173   -6.5339239    72.365433  0.038906147  0.042114894            4 
  156000    1.2270715   -6.5359617    73.007137  0.038999539  0.042117678            3 
  157000    1.2266888    -6.501973    74.071639  0.039316157  0.042127386            1 
  158000    1.2435533   -6.4984891    74.377296  0.039228532  0.042137877            2 
  159000    1.2247549   -6.5571786    74.966419  0.039290576   0.04215016            1 
  160000    1.2371292   -6.5465792    75.342597  0.039240936  0.042162516            3 
  161000    1.2365383    -6.578197    74.961808  0.038800108  0.042168241            2 
  162000     1.229069   -6.5567448    76.154237   0.03917399  0.042170947            1 
  163000    1.2560688   -6.5494748    76.396312  0.039057419  0.042171915            3 
  164000     1.263049   -6.5355056      77.0755   0.03916438  0.042172167            2 
  165000    1.2123195   -6.5524942    77.556312  0.039169854  0.042175706            3 
  166000    1.2072379   -6.5271312    78.007358   0.03916032  0.042180094            2 
  167000    1.2306925    -6.530525    78.420445  0.039131959  0.042182168            3 
  168000    1.2346618   -6.5496835    78.954809  0.039164092  0.042183426            2 
  169000    1.2314641   -6.5098271    79.503051  0.039202688  0.042185104            3 
  170000    1.2264364   -6.5298141    80.419078  0.039421116  0.042190734            2 
  171000    1.2482569    -6.521709    80.637032  0.039296799  0.042195501            2 
  172000     1.243738   -6.5472055    81.202496  0.039342294  0.042201198            2 
  173000    1.2099845   -6.4989279    82.352113  0.039668648  0.042210974            3 
  174000    1.2491828   -6.5460288    82.494952  0.039509077  0.042221159            1 
  175000    1.2432276   -6.4964822    83.190721  0.039614629  0.042231853            2 
  176000    1.2055147   -6.5243873    83.683755   0.03962299  0.042242258            1 
  177000    1.2490516   -6.5461404    83.914707  0.039507866  0.042248875            1 
  178000    1.2528331    -6.506035    84.493482  0.039556873  0.042254512            4 
  179000    1.2252201   -6.5526489    84.961416  0.039553732  0.042262499            3 
  180000    1.2008097   -6.5840947    85.598884  0.039629113  0.042271646            2 
  181000    1.2298908   -6.5794706    86.600299  0.039871224  0.042282202            3 
  182000    1.2186621   -6.5462703    87.140522  0.039899506  0.042296898            2 
  183000    1.2159547   -6.5488565    87.513397  0.039851273  0.042309747            3 
  184000    1.2229415   -6.5374596    88.310899  0.039995878  0.042322353            2 
  185000    1.2221435   -6.5523664    88.341642  0.039793532  0.042334503            1 
  186000    1.2120494   -6.5225034    89.317671  0.040016877  0.042346177            2 
  187000    1.2345175   -6.5457072    89.335772   0.03981095  0.042357405            3 
  188000    1.2254292   -6.5535842    89.819811  0.039813746  0.042366322            2 
  189000    1.2141866   -6.5627791    90.603294  0.039948542  0.042377478            2 
  190000    1.2245822   -6.5294367    91.279193  0.040034734  0.042393014            2 
  191000     1.209719    -6.540103    91.706324  0.040011485  0.042408921            4 
  192000     1.238295   -6.5587666    92.346081  0.040080764  0.042425985            1 
  193000     1.193932   -6.5218817    92.800133  0.040069142  0.042441842            1 
  194000    1.2157226   -6.5509979    93.664623  0.040233945  0.042456634            2 
  195000    1.2233179   -6.5647656     94.05818  0.040195803  0.042471524            1 
  196000    1.1990731   -6.5106166    94.631498   0.04023448  0.042486932            1 
  197000    1.2282967   -6.5881454    94.824408  0.040111848  0.042499225            3 
  198000    1.2239008   -6.5402378    94.980358  0.039974898  0.042509564            2 
  199000    1.2108927   -6.5694942    95.880404  0.040150923  0.042519879            1 
  200000    1.2250249   -6.5729637    96.212618  0.040088591  0.042528572            2 
  201000    1.1973336   -6.4935753    97.168972  0.040285644  0.042535772            2 
  202000    1.2118823   -6.5713254    97.198838  0.040098531  0.042543616            2 
  203000    1.2423151    -6.491038     97.96137  0.040214027  0.042551097            1 
  204000    1.2195533   -6.5618591    98.208546   0.04011787  0.042558956            1 
  205000    1.2044073   -6.5055972    98.506855  0.040043437   0.04256278            3 
  206000    1.2335835   -6.5248546    99.032446  0.040061669  0.042567268            1 
  207000    1.2033935   -6.5426474    99.383143  0.040009317  0.042569367            4 
  208000    1.1989424   -6.5323934     99.80274  0.039985072  0.042569924            1 
  209000    1.2314664   -6.5661293    100.52178  0.040080456  0.042567879            2 
  210000    1.1970499   -6.5610084    100.63244  0.039933509  0.042567282            3 
  211000    1.2370763   -6.5498407    101.23596  0.039982605  0.042565528            2 
  212000    1.2029438   -6.5482902    101.76076  0.040000297  0.042562644            3 
  213000    1.2229946   -6.5057464     102.3682  0.040050158  0.042561986            2 
  214000    1.2323102   -6.5826157       102.62  0.039961058  0.042560275            1 
  215000    1.2114597   -6.5433384    103.18471  0.039994072  0.042558636            2 
  216000    1.2249832   -6.5552645     103.9617  0.040108682  0.042556647            1 
  217000    1.2049043   -6.5564958    104.24822  0.040033877   0.04255453            2 
  218000    1.2354863   -6.6264853    104.33042  0.039881659  0.042550445            1 
  219000    1.1887919   -6.5583832    104.95153  0.039935895  0.042546438            2 
  220000     1.239579   -6.5622956    105.44772  0.039942317  0.042543015            2 
  221000    1.2100046   -6.5226462    106.35473  0.040103593  0.042539364            1 
  222000    1.2025688   -6.5439006    106.18794  0.039860337  0.042532886            3 
  223000      1.19503   -6.5501106    106.96596  0.039972332  0.042524805            2 
  224000    1.2027773   -6.5143929    107.33036  0.039929451   0.04251723            1 
  225000     1.211737   -6.5650229     107.3794  0.039770148  0.042508384            2 
  226000    1.2032461   -6.5340434     108.5366   0.04002087  0.042500258            1 
  227000    1.2110553   -6.5954085    108.93438  0.039990596  0.042493425            2 
  228000    1.1998492   -6.5428715    109.49242  0.040019158  0.042487409            4 
  229000    1.1931604   -6.5919433    109.32417  0.039783176  0.042477774            4 
  230000    1.2171157   -6.5706291    109.58356  0.039704187  0.042467564            3 
  231000    1.1857891   -6.5608299    110.21134  0.039758779  0.042457221            3 
  232000    1.2200353   -6.5380297     110.7271  0.039772664  0.042446593            1 
  233000    1.2212353   -6.5346848     112.0329  0.040068991  0.042438687            1 
  234000    1.2234275   -6.5432346    112.39201  0.040025645  0.042432538            1 
  235000    1.2128062   -6.5489437    113.02955    0.0400814  0.042429034            3 
  236000     1.219658   -6.5850994    113.46158  0.040064118  0.042423614            2 
  237000    1.2364482   -6.5432714    113.42712  0.039882953  0.042416966            4 
  238000    1.2157326   -6.5711483    113.86075  0.039867208  0.042408589            1 
  239000    1.2255694   -6.5613653    114.78376  0.040022232  0.042402185            1 
  240000    1.1918457   -6.5485294    115.53175  0.040115189  0.042397069            3 
  241000    1.2081318   -6.5538564    115.37922  0.039895995  0.042390964            2 
  242000     1.212809   -6.5293082    115.96996  0.039934558  0.042385577            2 
  243000    1.2284898   -6.5754897    116.67793  0.040013009  0.042380969            1 
  244000    1.2348287   -6.5463703    116.91383  0.039929588  0.042374428            2 
  245000    1.2180013   -6.5856133     117.1441  0.039844933  0.042366156            1 
  246000    1.2212919   -6.5798221    117.25338  0.039719979  0.042356305            2 
  247000    1.1920784    -6.592029    117.94397  0.039792164  0.042345203            2 
  248000    1.2280982   -6.5627974    118.35961  0.039771376  0.042331978            3 
  249000    1.1971443   -6.5679632    118.64538  0.039707288  0.042316569            3 
  250000    1.2107857   -6.5427043    118.96728   0.03965576  0.042300988            5 
  251000    1.2239585   -6.5709757    119.25207   0.03959232  0.042285753            2 
  252000      1.18763   -6.5831478    119.97876  0.039675515  0.042270556            2 
  253000    1.2139008   -6.5692146    120.74347  0.039770577  0.042256453            2 
  254000     1.199962   -6.5459277     121.3429  0.039810662  0.042242862            3 
  255000    1.1995768   -6.5337762    121.59671  0.039737486  0.042229854            3 
  256000    1.2473428   -6.5980313    121.83193   0.03965883  0.042215606            1 
  257000    1.1752635   -6.5459415    122.18829  0.039620069  0.042199859            4 
  258000    1.1780365   -6.5638878    122.82651  0.039672646  0.042183903            1 
  259000    1.1973655   -6.5452021    122.83294  0.039521539  0.042168983            2 
  260000    1.1720439   -6.5316712    123.59125   0.03961258  0.042152336            3 
  261000    1.1933633   -6.5724757    124.27922  0.039680467  0.042136407            3 
  262000    1.2213777   -6.5968774    124.45827  0.039585963  0.042120016            3 
  263000    1.2087999   -6.5802037     124.6242  0.039488023  0.042101529            5 
  264000    1.2410477   -6.5661499    124.93927  0.039437901  0.042082622            3 
  265000    1.2307665   -6.5133079    125.75745  0.039546366  0.042064372            1 
  266000     1.193474   -6.5463715    126.64799   0.03967669  0.042047488            2 
  267000    1.2160337   -6.5532887     126.7696  0.039566042  0.042030797            1 
  268000     1.232786   -6.5787594    127.07244  0.039512574  0.042013181            1 
  269000    1.2321455   -6.5831726     127.3757  0.039459635  0.041996362            2 
  270000    1.2167461   -6.5690303       128.18  0.039561729  0.041978951            2 
  271000    1.2108047   -6.5589387    128.47813  0.039507421  0.041961328            3 
  272000    1.1931967   -6.5672662    129.13098  0.039562187  0.041945509            3 
  273000    1.2289699   -6.5832279    128.75382  0.039302143  0.041928774            1 
  274000    1.1963895   -6.5347141    129.66243  0.039435044  0.041912383            4 
  275000    1.1821743   -6.5990208    130.29067  0.039482022  0.041893983            1 
  276000    1.2074588   -6.5953832    131.09453  0.039581683  0.041875431            1 
  277000    1.1688886   -6.5511087    130.92325  0.039387259  0.041857996            1 
  278000    1.2009664    -6.588441     131.4148  0.039392925  0.041840167            1 
  279000    1.2109547   -6.5461141    132.09619  0.039455253  0.041821927            2 
  280000     1.195486   -6.6105123    132.71157  0.039497491  0.041804529            2 
  281000    1.2187307   -6.6026894      132.898  0.039412219  0.041787811            2 
  282000    1.2139883   -6.5591632    133.37995   0.03941488  0.041770861            2 
  283000    1.1884173   -6.5513452    133.62049  0.039346435  0.041752801            1 
  284000    1.2046269   -6.5304998    133.91471  0.039294223  0.041732277            3 
  285000    1.2098312   -6.6018194    133.88862  0.039148719  0.041710906            2 
  286000    1.2020705   -6.6226443    134.12688  0.039081258  0.041689983            3 
  287000    1.2135133   -6.5880366    135.37986  0.039308903  0.041671148            1 
  288000    1.1754297   -6.5411839    135.69535  0.039263702  0.041652496            2 
  289000    1.2037247   -6.5563341    136.35929  0.039319289  0.041635873            2 
  290000    1.2032534   -6.5682938    137.58176  0.039534988  0.041621223            1 
  291000    1.1784609   -6.5910694    137.14694   0.03927461  0.041607416            3 
  292000    1.2158875   -6.5850156    137.83263  0.039335796  0.041591629            1 
  293000    1.2285591   -6.5481449    139.16507   0.03958051  0.041577242            2 
  294000    1.2360346   -6.5490122    139.07955  0.039421641  0.041561736            1 
  295000    1.2195927   -6.5556587    139.30577  0.039351913  0.041546641            2 
  296000    1.2032675   -6.5734771    139.77354  0.039350659  0.041531573            2 
  297000    1.2112056   -6.5392172    140.85505  0.039521618  0.041515961            1 
  298000     1.219225   -6.5357115    140.88876  0.039398423  0.041500162            6 
  299000    1.2227315   -6.5899974    141.30935  0.039383877  0.041483651            2 
  300000    1.1874313   -6.5416745    141.65104  0.039347512  0.041468306            3 
  301000    1.1964536   -6.5553083     142.1402  0.039352214  0.041451731            1 
  302000    1.2108069   -6.5292551    142.55831  0.039337281  0.041435545            1 
  303000    1.1754456   -6.5993891    142.52059  0.039197082  0.041418757            1 
  304000    1.2000793   -6.5666275    142.56653  0.039080737   0.04140087            1 
  305000    1.1988399   -6.6105733    142.97253  0.039063533  0.041381562            3 
  306000    1.2041041   -6.5997227    142.97645  0.038936941  0.041361233            2 
  307000    1.2236381   -6.5571631    144.14655  0.039127729  0.041341151            2 
  308000    1.2262992   -6.5546432    144.42002   0.03907468  0.041320898            3 
  309000    1.2133712   -6.5777385    144.83704  0.039060691  0.041301064            1 
  310000    1.2000619   -6.5555614    145.27777  0.039053163  0.041280963            2 
  311000    1.1808225   -6.6191265    145.48053  0.038981922   0.04126139            1 
  312000    1.2005298   -6.5446798     146.3971   0.03910179   0.04124344            3 
  313000     1.210807   -6.5702833    146.83317  0.039092962  0.041225056            2 
  314000     1.212104   -6.5696206    147.32582  0.039099209  0.041206626            2 
  315000     1.187638    -6.601045    147.64365  0.039059168  0.041189732            2 
  316000     1.206084   -6.5845154    148.17084  0.039074588  0.041172416            1 
  317000    1.2168996   -6.5570206    149.07359  0.039188642  0.041156222            2 
  318000    1.2223238   -6.5757509    149.33871  0.039134882  0.041140767            1 
  319000    1.2007291   -6.6228793    148.79949   0.03887134  0.041123658            4 
  320000    1.2068322   -6.6008836    149.91688  0.039040853  0.041106638            1 
  321000    1.2259492    -6.541966    150.90127  0.039174784  0.041090942            3 
  322000    1.1927516   -6.5636364    151.11562  0.039108597  0.041076641            2 
  323000    1.2225491    -6.554484    151.83014  0.039171863  0.041063056            3 
  324000    1.2118511    -6.535533    153.17623  0.039397178  0.041049364            1 
  325000    1.2125862   -6.5714253     153.0931  0.039254641  0.041035981            2 
  326000    1.1991418   -6.6171374    152.72676  0.039040584  0.041022804            1 
  327000    1.2105951   -6.5280352    154.18455  0.039292699  0.041010892            2 
  328000    1.1989746   -6.5744783    154.27256  0.039195265  0.040999289            2 
  329000      1.16875   -6.6037238    155.28045   0.03933142  0.040988911            2 
  330000    1.1792194   -6.5894222    155.48161  0.039263032   0.04097857            2 
  331000    1.1882691   -6.6015689    156.64931  0.039438397  0.040968695            2 
  332000    1.1937541   -6.5876545    156.54829  0.039294248  0.040959571            1 
  333000    1.1893515   -6.5861221    157.86785  0.039506469  0.040950335            2 
  334000    1.1706562   -6.5817307    158.13132  0.039453921   0.04094134            5 
  335000    1.2052095    -6.609591    158.61933  0.039457545  0.040933511            1 
  336000    1.1955123   -6.6073046     158.6411  0.039345511   0.04092643            2 
  337000    1.2426031   -6.6079743     158.9869  0.039314269  0.040917368            4 
  338000    1.1967379   -6.5383353     160.0666  0.039464153  0.040909326            2 
  339000    1.1832267    -6.578103    160.86221  0.039543315  0.040902254            1 
  340000    1.1921173   -6.5646374    161.30691  0.039536008  0.040895883            1 
  341000    1.2127013   -6.5730529    161.26163     0.039409   0.04088762            1 
  342000    1.1901372   -6.6040358     161.5352  0.039360428  0.040880208            4 
  343000    1.1924437    -6.530761    162.42766  0.039462502  0.040871909            3 
  344000    1.2017707   -6.5653403    162.18939  0.039290066   0.04086431            3 
  345000    1.2007547   -6.5884919    162.84111  0.039333601  0.040855321            2 
  346000    1.1757603   -6.6017098     162.6483  0.039173484  0.040844563            1 
  347000    1.1776469   -6.5677141    163.35792  0.039231009  0.040833673            1 
  348000    1.2153019   -6.6012672    164.02823  0.039278792  0.040823256            4 
  349000    1.2113944   -6.6329655    163.85214  0.039124198  0.040811516            2 
  350000    1.1835334   -6.5996831    164.93419  0.039270046  0.040800662            1 
  351000    1.1790484     -6.55915    165.38554  0.039265322  0.040790749            3 
  352000    1.1863505   -6.5623982    166.16264  0.039337746  0.040782581            2 
  353000    1.2038588   -6.5860889    166.38488  0.039278772  0.040773829            2 
  354000    1.1822543   -6.6061471     167.3513  0.039395316  0.040765463            2 
  355000    1.2055237   -6.6011894    167.46844  0.039311841  0.040758416            2 
  356000    1.2033814   -6.6288954    168.65469  0.039479093  0.040751105            1 
  357000    1.1805389   -6.6043886    168.60251  0.039356327  0.040743863            4 
  358000    1.2122637   -6.5927058    169.40401  0.039432963  0.040737141            1 
  359000    1.1966033   -6.5872469    170.05532  0.039474309   0.04072983            3 
  360000     1.163163   -6.6058733      169.794  0.039304168  0.040722526            2 
  361000    1.1823869   -6.5977734    169.94425  0.039229975   0.04071474            1 
  362000    1.2138466   -6.5966727    170.71813  0.039299754  0.040705961            2 
  363000    1.1595964   -6.5608745    170.79708  0.039209615  0.040696188            3 
  364000    1.2247081   -6.6191688    170.88005   0.03912089   0.04068564            2 
  365000     1.190159    -6.640512    171.78984  0.039221425  0.040676295            2 
  366000    1.1884316   -6.5815423     172.4914  0.039273998  0.040668421            1 
  367000     1.168014   -6.5827817     172.8363  0.039245299  0.040660809            1 
  368000    1.2151747   -6.5803183    173.11599  0.039201991   0.04065234            4 
  369000    1.2015053   -6.5602119    173.64377  0.039214944  0.040643469            2 
  370000    1.1823512   -6.6254239    173.79253  0.039142461  0.040634337            2 
  371000     1.191595   -6.6264561    174.34597  0.039161269  0.040624966            1 
  372000    1.1910017     -6.61024    175.55192  0.039326148  0.040617216            1 
  373000    1.1888841   -6.6269411    176.30748  0.039389517  0.040610829            3 
  374000    1.1977274   -6.5745794    177.01101  0.039440957  0.040605119            3 
  375000    1.1652418   -6.5896966    177.59652  0.039465892  0.040599811            2 
  376000    1.1618769   -6.6175235    177.88795  0.039425522  0.040596757            2 
  377000    1.1887231    -6.631066    178.64198  0.039487616  0.040592797            2 
  378000     1.162292   -6.5718993    178.70738   0.03939757  0.040587212            2 
  379000    1.1983782   -6.5944768    179.27166   0.03941769  0.040581671            6 
  380000    1.1781904   -6.5888112    179.78416  0.039426351  0.040576857            1 
  381000    1.1818733   -6.6348214    180.23253  0.039420938  0.040572686            1 
  382000    1.2100523   -6.5853347    180.93597  0.039471198  0.040567803            2 
  383000    1.1977974   -6.5541296    181.23903   0.03943408  0.040563258            2 
  384000    1.2001395   -6.5971936    181.99498  0.039495438  0.040558175            2 
  385000     1.172912   -6.6220547    181.68069  0.039324825  0.040552917            4 
  386000    1.1882498   -6.6150419    182.32618  0.039362301  0.040546838            2 
  387000    1.1658303   -6.6082137    183.16819    0.0394419  0.040539741            2 
  388000    1.1638424   -6.6521309    182.91595  0.039286071  0.040533863            2 
  389000     1.193001   -6.6026437    183.61325  0.039334458  0.040526458            4 
  390000    1.1547954   -6.6035032    183.49441  0.039208207  0.040519137            2 
  391000    1.1942315   -6.6115608    183.69492  0.039150664  0.040510758            2 
  392000    1.1672791   -6.6053191    184.08548  0.039133818  0.040501979            3 
  393000    1.1887208   -6.6305714    184.51777  0.039125904  0.040492179            3 
  394000    1.1789677   -6.6171103    184.45488    0.0390133  0.040482658            2 
  395000    1.1804047   -6.5666314    186.00816  0.039242228  0.040472891            1 
  396000    1.1992991   -6.5801354    185.86497  0.039112998  0.040464256            3 
  397000    1.1822098   -6.6031023    185.34094   0.03890448    0.0404545            3 
  398000    1.1845508   -6.6224767     186.5632  0.039062646  0.040445413            3 
  399000    1.1942112   -6.6278758    187.13058  0.039083246  0.040436925            2 
  400000    1.1969186   -6.6035769    187.56594  0.039076238  0.040428705            1 
  401000    1.2055418   -6.5679786    189.31633  0.039342545  0.040420854            2 
  402000    1.1524469   -6.6049782    189.44279  0.039270893  0.040413899            1 
  403000    1.1843346    -6.608625     189.9134   0.03927076  0.040406355            3 
  404000    1.1941845    -6.610718    189.51171  0.039090699  0.040398435            9 
  405000    1.2145815   -6.5832129    190.29292  0.039154922  0.040390261            3 
  406000    1.2074646   -6.6177889    190.56329  0.039113976  0.040382116            2 
  407000    1.1877182   -6.5984108    191.87308  0.039286053  0.040373657            2 
  408000    1.1515323    -6.584821    192.11782  0.039239751  0.040365404            2 
  409000    1.1747898   -6.6510179    191.40711  0.038999003  0.040356976            1 
  410000    1.2055533   -6.5805831    192.52152   0.03913039  0.040348055            4 
  411000    1.1683532   -6.6252405    192.86172  0.039104161  0.040338839            4 
  412000    1.1870781   -6.6142343    193.06854  0.039051079  0.040330363            5 
  413000    1.2044525   -6.6319808    194.27062  0.039199076  0.040321825            2 
  414000    1.1789849    -6.592025    194.23726  0.039097677  0.040313768            3 
  415000    1.1830928   -6.6158217    194.41231  0.039038617  0.040305305            2 
  416000    1.1828995   -6.6032526    195.02685  0.039067879  0.040297416            2 
  417000    1.1787706   -6.6256971    195.53952  0.039076643  0.040289357            2 
  418000    1.1809725   -6.6103002    195.47226   0.03896975  0.040280931            3 
  419000     1.185949   -6.5872067    196.68549  0.039118038  0.040272717            1 
  420000    1.1777312   -6.5916822    196.73699  0.039035117   0.04026385            2 
  421000    1.1689742   -6.6375612    197.38081  0.039069836  0.040255079            2 
  422000    1.1865923   -6.6105399    198.11619  0.039122471  0.040246449            3 
  423000    1.1932307   -6.6526075    197.55998  0.038920406  0.040236658            2 
  424000    1.1805454   -6.5870483    197.83441   0.03888255  0.040227414            2 
  425000    1.1952057   -6.6111332    198.59447  0.038940092  0.040218533            2 
  426000    1.1904206   -6.5698752    199.65793  0.039056715   0.04021008            2 
  427000    1.2050562   -6.5950283    199.97181  0.039026505  0.040201255            1 
  428000    1.1380614   -6.6346874    199.77775  0.038897536  0.040190569            2 
  429000    1.1899471   -6.5738963    199.77784  0.038806885  0.040179799            3 
  430000    1.1711058    -6.627174    199.67923  0.038697526  0.040168623            3 
  431000    1.1849956   -6.6217821    200.80491  0.038825389  0.040157845            2 
  432000    1.1809216   -6.6305921    200.78824    0.0387323  0.040146889            3 
  433000    1.1845915   -6.5779837    201.92177  0.038861003  0.040135651            3 
  434000    1.2005173   -6.6057544    201.54623  0.038699352  0.040124171            5 
  435000    1.1790521   -6.6298808    201.94555  0.038686887  0.040112237            3 
  436000    1.1865415   -6.6281735    203.01589  0.038802731  0.040100519            1 
  437000    1.1742825   -6.6261815    203.51772  0.038809633  0.040089533            1 
  438000    1.1732204   -6.6270565    203.73197   0.03876179  0.040079021            2 
  439000    1.1796898   -6.6472627    204.43298  0.038806563  0.040068789            3 
  440000    1.1957545   -6.6175605    204.53081  0.038736895  0.040059072            1 
  441000     1.178611   -6.6185717    204.86516  0.038712237  0.040048774            1 
  442000    1.1940173   -6.6453824    205.59561  0.038762371   0.04003888            1 
  443000    1.2175322   -6.5744125    206.84744  0.038910353  0.040029638            2 
  444000    1.1671747   -6.6137367    207.02902  0.038856798  0.040020232            1 
  445000    1.1425897   -6.5554543    207.54392  0.038865903   0.04001088            2 
  446000     1.191043   -6.6147927    208.40038  0.038938785  0.040003092            1 
  447000    1.1808692   -6.6157067    208.64293  0.038896891  0.039995012            1 
  448000      1.17889   -6.6327913     208.6088   0.03880372  0.039986704            2 
  449000    1.1943032   -6.6239872    208.79054  0.038751027  0.039978172            1 
  450000    1.1576915   -6.6251673    209.19233   0.03873932   0.03996854            3 
  451000    1.1804609   -6.6287972    210.28477  0.038855279  0.039959768            2 
  452000     1.159421     -6.62495    211.02145  0.038905135  0.039951555            1 
  453000    1.1748799   -6.6321826    211.60294  0.038926222  0.039944264            5 
  454000    1.1825203   -6.6516551    212.18327  0.038947003  0.039936483            5 
  455000    1.1825587   -6.6428576    211.79717   0.03879069  0.039928359            3 
  456000    1.1847796   -6.6142173    212.76622  0.038882715  0.039919194            2 
  457000    1.1667684   -6.6102377    212.48916  0.038747112  0.039910177            2 
  458000    1.1871109   -6.6202101    212.76792  0.038713232   0.03990057            2 
  459000    1.1915969   -6.6529333    212.91573  0.038655725  0.039890747            2 
  460000    1.1657006   -6.6189379    213.31179   0.03864344   0.03988014            2 
  461000    1.1816548   -6.6240236    214.35507  0.038748205  0.039869726            1 
  462000    1.1920646   -6.6290063    213.84423  0.038572192  0.039860135            1 
  463000    1.1649279   -6.6476122      214.853  0.038670446  0.039850002            3 
  464000    1.1578066   -6.6125199    214.75881  0.038570188  0.039840044            1 
  465000    1.1922053   -6.5822946    214.73866   0.03848363  0.039829357            1 
  466000    1.1720714   -6.6156958    215.64746  0.038563566  0.039818572            1 
  467000    1.1906409   -6.6095438    216.63215    0.0386567  0.039807498            1 
  468000    1.1875195   -6.6549279     217.1396  0.038664459  0.039797596            2 
  469000    1.1784694   -6.6243784    217.46251  0.038639393  0.039786981            1 
  470000     1.180693   -6.6395083    217.56656   0.03857563  0.039776936            2 
  471000     1.212138   -6.5908075    218.68811  0.038692163  0.039767188            2 
  472000    1.1820546    -6.618263    219.28572  0.038715699  0.039757568            1 
  473000    1.1620153   -6.6471449    219.20845  0.038620234  0.039748829            2 
  474000    1.1775049   -6.6340656    219.01916  0.038505478  0.039739957            6 
  475000    1.1819895   -6.6384389    220.72524  0.038723726  0.039730936            4 
  476000    1.1574907   -6.6609392    220.48868   0.03860096  0.039721821            1 
  477000    1.1741725   -6.6160287    220.81334  0.038576754  0.039712437            1 
  478000    1.1753247   -6.6265001    220.97039  0.038523429  0.039703876            2 
  479000    1.1851245   -6.5964393    222.77064    0.0387562  0.039695135            2 
  480000    1.1793859   -6.6095343    222.36039  0.038604235  0.039686629            2 
  481000    1.1913846   -6.6170744    222.52542  0.038552567  0.039677448            2 
  482000    1.1623472   -6.5971235    223.22071  0.038592793  0.039668685            2 
  483000    1.1276616   -6.6429961    224.04581  0.038655246  0.039660154            3 
  484000    1.1727437   -6.6831024    224.04242  0.038574796  0.039651762            3 
  485000     1.182123   -6.6571665    224.39617  0.038556042  0.039642683            1 
  486000      1.16701   -6.6114077    224.95226  0.038572061  0.039633175            4 
  487000    1.1936786   -6.6459387    225.43856  0.038576071  0.039624465            3 
  488000    1.1854556   -6.6225699    226.39786  0.038660837  0.039616554            2 
  489000    1.1817084   -6.6259706    226.83463  0.038656208  0.039608716            1 
  490000    1.1521477   -6.6381702    226.84623  0.038579291  0.039600638            2 
  491000    1.1698209   -6.6256674    227.89952  0.038679485  0.039592262            2 
  492000    1.1717803   -6.6723455    227.66318  0.038560836  0.039584887            4 
  493000    1.1841552   -6.6229586    228.37666  0.038603222  0.039577052            3 
  494000    1.1877228   -6.5983863     228.7529  0.038588546   0.03956932            4 
  495000    1.1663444   -6.5989525    228.66788  0.038496276  0.039560852            1 
  496000    1.1734706   -6.6641648    228.70417  0.038424759  0.039551982            3 
  497000    1.1965679   -6.6260642    229.03891  0.038403574  0.039543114            2 
  498000     1.186759   -6.6499928    230.15155  0.038512642  0.039534233            2 
  499000    1.1590353    -6.650262    230.41896  0.038480119  0.039525518            3 
  500000    1.1894708    -6.638136    231.06915  0.038511525  0.039516476            5 
  501000    1.1765377   -6.6054696    231.54683   0.03851411  0.039508155            2 
  502000    1.1573238   -6.6378526    231.27193  0.038391754  0.039499069            1 
  503000    1.1412753    -6.629543    232.86592   0.03857951  0.039490237            1 
  504000    1.1712313   -6.6631739    232.36629  0.038420352  0.039481401            3 
  505000    1.1801772   -6.6039246    232.74514  0.038406789  0.039471801            2 
  506000      1.15689   -6.6394658    232.91254  0.038358455  0.039462007            2 
  507000    1.1823665   -6.6361119     233.6828  0.038409401  0.039451997            1 
  508000    1.1740872   -6.6232072    233.57855  0.038316692  0.039441702            1 
  509000    1.1915656   -6.6468734    234.25897  0.038352811   0.03943074            1 
  510000     1.185693   -6.6233833    234.31708  0.038287105  0.039420038            2 
  511000    1.1637963   -6.6532908    234.68713  0.038272526  0.039409656            2 
  512000    1.1583897   -6.6831305    235.04324  0.038255736     0.039399            4 
  513000    1.1815524   -6.6328491    235.49743  0.038254944  0.039387744            2 
  514000    1.1741152   -6.6602996    235.74503  0.038220659   0.03937624            3 
  515000    1.1343509   -6.6382711    236.33733  0.038242287  0.039364663            3 
  516000     1.209298   -6.6436326    235.97152  0.038109096  0.039353373            2 
  517000    1.1759068   -6.6398853    237.38215  0.038262757  0.039341549            1 
  518000    1.1725511   -6.6553567    237.40209    0.0381921  0.039330722            2 
  519000    1.1666466   -6.6333518    237.83727  0.038188387   0.03931994            3 
  520000    1.1794598   -6.6339346     238.1721  0.038168605  0.039309347            2 
  521000    1.1685249   -6.6462634     238.7349  0.038185365  0.039299473            5 
  522000    1.1646764   -6.6254518    239.86335  0.038292361  0.039289809            2 
  523000    1.1393474   -6.5945481    240.09463  0.038255995  0.039280062            2 
  524000    1.1665022   -6.6051321    241.11068  0.038344574  0.039270925            2 
  525000     1.179866   -6.6692097    241.04956  0.038261834   0.03926205            2 
  526000    1.2064163   -6.6464161    242.03004  0.038344429  0.039253434            1 
  527000    1.1695908   -6.6538063    241.50379  0.038188454  0.039245093            4 
  528000    1.1391741   -6.6628311    242.97929  0.038349004  0.039236067            2 
  529000    1.1602269   -6.6184383    244.17868   0.03846545  0.039227441            2 
  530000    1.1990027   -6.6499061     244.1912  0.038394842  0.039219241            2 
  531000    1.1645474   -6.6185776     243.7923  0.038259934  0.039210964            2 
  532000    1.1544654   -6.6314202    244.61699  0.038317198  0.039203362            2 
  533000    1.1634377   -6.6160946    246.08583  0.038474957  0.039196217            1 
  534000    1.1523643   -6.6677702    246.65456   0.03849166  0.039189916            4 
  535000    1.1549633   -6.6047253    247.89316  0.038612642  0.039183534            1 
  536000    1.1566828   -6.6417697    246.75363  0.038363438  0.039176759            2 
  537000    1.1747529   -6.6549981    246.80478  0.038299934   0.03916988            1 
  538000    1.1623299   -6.6168974    249.15428  0.038592671  0.039163355            2 
  539000    1.1952543   -6.6203931    249.50717  0.038575629  0.039157705            1 
  540000    1.1497027   -6.6311344    249.44355  0.038494375  0.039152206            2 
  541000    1.1988506   -6.6352703    249.53807   0.03843778  0.039146574            3 
  542000    1.1587561   -6.6064358    250.59201  0.038528907  0.039140681            5 
  543000    1.1981819   -6.6434971    250.60887  0.038460539  0.039134648            3 
  544000    1.1733816   -6.6510061    251.19871  0.038480195  0.039128612            3 
  545000    1.1756925   -6.6698162     251.5248  0.038459449  0.039122524            4 
  546000    1.1567121   -6.6220092    252.75926   0.03857742   0.03911643            2 
  547000     1.196458   -6.6456673    252.16218  0.038415933  0.039110662            1 
  548000    1.1728206   -6.6306883    252.72964  0.038432123  0.039104721            1 
  549000    1.1621007   -6.7276673    252.90508  0.038388749  0.039099902            3 
  550000    1.1748957   -6.6583469    254.45235  0.038553387  0.039094904            1 
  551000    1.1702556   -6.6534628    254.77304  0.038531917  0.039090542            2 
  552000    1.1725435   -6.6338568    254.42009  0.038408829  0.039085935            2 
  553000    1.1634846   -6.6487592    255.10657  0.038442823    0.0390808            1 
  554000    1.1705674   -6.6400692    255.92986  0.038497271   0.03907619            2 
  555000     1.175248   -6.6679881    256.41503  0.038500755   0.03907119            2 
  556000    1.1873827   -6.6432099    257.00296  0.038519629  0.039066456            3 
  557000    1.1594955    -6.648176     258.6119  0.038691188  0.039061561            1 
  558000    1.1569329   -6.6548387    257.41453   0.03844303  0.039056625            2 
  559000    1.1587874   -6.6779069    257.89466  0.038445834  0.039052154            1 
  560000    1.1615975   -6.6507431    258.09123  0.038406434  0.039047242            4 
  561000    1.1525525   -6.6893165    257.97192  0.038320249  0.039042208            3 
  562000     1.177923    -6.658657    259.11095  0.038420959  0.039036156            3 
  563000      1.17492   -6.6547501    259.62279  0.038428477  0.039030998            3 
  564000    1.1497705   -6.5884041    260.43501   0.03848035  0.039025848            2 
  565000    1.1793916   -6.6511194    259.79029  0.038317153  0.039020569            1 
  566000     1.152503    -6.670422    260.35369  0.038332405   0.03901421            2 
  567000    1.1758967   -6.6349308     260.6262   0.03830485  0.039007915            1 
  568000    1.1650468   -6.6480954    261.90634  0.038425225  0.039001481            5 
  569000    1.1586694   -6.6285232    261.79378   0.03834121   0.03899526            2 
  570000    1.1791707   -6.6037253    262.23905  0.038339042  0.038988902            3 
  571000    1.1628044   -6.6319367    261.88688  0.038220503  0.038982255            1 
  572000    1.1566376   -6.6498991     262.8748  0.038297611  0.038975416            1 
  573000    1.1652413   -6.6674714    263.14731  0.038270406  0.038968886            2 
  574000     1.159473   -6.6990235    263.28003     0.038223  0.038961583            2 
  575000    1.1375966   -6.6720557    263.68102  0.038214641  0.038955278            2 
  576000    1.1528858    -6.632682    264.83172  0.038314775  0.038948999            1 
  577000    1.1563672   -6.6299113    264.52811  0.038204522  0.038942558            1 
  578000    1.1661486   -6.6393447    265.90551  0.038337011  0.038935915            1 
  579000    1.1477175   -6.6831923    265.29216  0.038182522   0.03892925            3 
  580000    1.1425325   -6.6933725    266.18298  0.038244681  0.038922931            2 
  581000    1.1733952   -6.6610704    267.34926  0.038346136  0.038916887            4 
  582000    1.1591031   -6.6594741    267.21339  0.038260794  0.038911165            1 
  583000     1.168637   -6.6440835    268.51941  0.038381849  0.038905986            2 
  584000    1.1482386   -6.6723008    268.67609  0.038338484  0.038900711            1 
  585000    1.1694665   -6.6664215    269.35452   0.03836959  0.038895911            3 
  586000    1.1764908   -6.6822844    270.19194  0.038423199  0.038891014            1 
  587000    1.1733065   -6.6911373    270.00989  0.038331898  0.038885696            3 
  588000     1.134243   -6.6608828    270.44726  0.038328694  0.038881001            1 
  589000    1.1600526   -6.6815704    270.60341  0.038285712  0.038876129            1 
  590000    1.1769857   -6.6552091    271.31224  0.038320937  0.038871218            2 
  591000    1.1459566   -6.6672429    271.56721  0.038292049  0.038866076            3 
  592000    1.1517765   -6.6815268    271.82556  0.038263733  0.038861123            7 
  593000    1.1676719   -6.6459067    273.03349  0.038368956  0.038855815            3 
  594000    1.1508525   -6.6906357     272.6464  0.038250055  0.038850172            2 
  595000    1.1577527   -6.6443745    272.32233  0.038140382  0.038844845            3 
  596000    1.1536957   -6.6586978    273.56168  0.038249675  0.038839745            2 
  597000    1.1631564   -6.6548347    274.79951   0.03835839  0.038835137            2 
  598000    1.1585855   -6.6788488    274.45556  0.038246316  0.038830053            2 
  599000    1.1822546   -6.6661006    275.86814  0.038378985  0.038825277            2 
  600000    1.1491428    -6.706166    275.27919  0.038233221  0.038820806            3 
  601000     1.153499   -6.6832969     276.6349  0.038357584     0.038816            1 
  602000     1.169341   -6.6604935    276.57428  0.038285476   0.03881151            3 
  603000    1.1569299   -6.6976031    276.56544  0.038220762  0.038806952            1 
  604000    1.1383208   -6.6623321    278.59838  0.038437967  0.038802609            3 
  605000    1.1467492   -6.6614107    277.58185  0.038234414  0.038797842            3 
  606000    1.1453508    -6.675513    278.43472  0.038288603  0.038792606            2 
  607000    1.1288152   -6.6926904    278.94292  0.038295294  0.038787728            3 
  608000    1.1720093   -6.6864308    279.48662  0.038306828  0.038782762            3 
  609000    1.1621688   -6.6493521     279.4336  0.038236672  0.038777435            2 
  610000    1.1353461   -6.6717363    280.48693  0.038317887  0.038772527            2 
  611000    1.1484519   -6.6782997    281.10409  0.038339346  0.038767963            2 
  612000    1.1550559   -6.6569782    282.06154  0.038407072  0.038763742            2 
  613000    1.1685434   -6.6831698     282.1045  0.038350258   0.03875922            4 
  614000     1.153114   -6.6546789    282.07267  0.038283478  0.038754498            4 
  615000    1.2124745   -6.7177524    281.96028     0.038206  0.038750035            7 
  616000      1.17583   -6.6568609    282.86893  0.038266901  0.038745871            2 
  617000     1.139307    -6.656925    283.53937  0.038295431  0.038741055            2 
  618000    1.1432877   -6.6576938    284.22316  0.038325669  0.038736336            2 
  619000    1.1261752    -6.703688    284.41107   0.03828905  0.038731895            2 
  620000    1.1630314   -6.6902266    284.56956  0.038248597  0.038726997            4 
  621000    1.1605154   -6.6853748    285.05424  0.038252044   0.03872161            2 
  622000    1.1636946   -6.6242313    285.64387  0.038269543  0.038716076            1 
  623000    1.1525933    -6.655606    285.90224  0.038242676  0.038711101            3 
  624000    1.1409856   -6.6717105    285.69549  0.038153778  0.038705814            2 
  625000    1.1359712   -6.6864453    285.43427  0.038057903  0.038700251            2 
  626000    1.1719248   -6.6943767    285.71995  0.038035136  0.038694441            1 
  627000    1.1718849   -6.6752356    287.03428   0.03814916   0.03868884            3 
  628000     1.162655   -6.6590581    286.30715  0.037991926   0.03868328            2 
  629000    1.1270723   -6.6900914    287.78076  0.038126756  0.038677676            2 
  630000    1.1456765   -6.7019461    288.12332   0.03811155  0.038672239            2 
  631000    1.1427994   -6.6692788    289.82972  0.038276509  0.038666805            2 
  632000    1.1455134   -6.6739319    289.20947   0.03813416  0.038661078            2 
  633000    1.1564702   -6.6586278    288.90841  0.038034283  0.038654986            3 
  634000    1.1722626   -6.6666636    289.45797  0.038046526  0.038648862            2 
  635000    1.1259436   -6.6778319    290.10667  0.038071742  0.038642948            2 
  636000    1.1480618   -6.6685836    290.14331  0.038016681   0.03863698            2 
  637000    1.1537597   -6.6958617    291.06368  0.038077405  0.038630679            3 
  638000    1.1251861   -6.6726054    291.28459  0.038046577  0.038624277            2 
  639000    1.1425678   -6.6848155    291.81863  0.038056681  0.038618015            2 
  640000    1.1564934   -6.6579375    291.63035  0.037972702   0.03861171            3 
  641000    1.1671963   -6.7027124    291.58995   0.03790821  0.038605757            1 
  642000    1.1479672   -6.6467343     292.6914  0.037992134  0.038599487            1 
  643000    1.1452493   -6.6858328    293.31922  0.038014414  0.038593365            6 
  644000    1.1268074   -6.6713145     293.3025  0.037953223  0.038587122            5 
  645000    1.1656555   -6.6789959     293.4801  0.037917325  0.038580423            3 
  646000    1.1500895   -6.6753755    294.25538  0.037958641  0.038573635            4 
  647000     1.155203    -6.679432    293.88868  0.037852741  0.038566487            2 
  648000    1.1563042   -6.6762796    294.54633    0.0378789  0.038559037            1 
  649000    1.1509388   -6.6608397    293.77109  0.037720993   0.03855099            3 
  650000    1.1445039    -6.658572    294.83539  0.037799409  0.038542992            3 
  651000    1.1393956    -6.654274    294.67718  0.037721093  0.038534838            2 
  652000    1.1595839    -6.677868    294.32458  0.037618172  0.038526302            2 
  653000    1.1463921   -6.6943227    294.83692  0.037625947  0.038517473            2 
  654000     1.149058   -6.6578054    295.65178  0.037672245  0.038508794            2 
  655000      1.14089   -6.6854348    294.89921  0.037518984  0.038500056            2 
  656000    1.1306013   -6.6610324    295.74354  0.037569047   0.03849123            2 
  657000     1.139571   -6.6841314      296.051  0.037550862  0.038481882            5 
  658000    1.1411806   -6.6912558    296.81168  0.037590132  0.038472762            1 
  659000    1.1462817   -6.6776908    297.35235   0.03760146     0.038464            3 
  660000    1.1530591   -6.6876505      297.812  0.037602526   0.03845475            2 
  661000    1.1379961   -6.7428438    297.01906   0.03744567  0.038445948            3 
  662000    1.1389149   -6.6940516    298.91768  0.037628107  0.038437013            1 
  663000    1.1211122   -6.6575683      299.641  0.037662268  0.038427944            2 
  664000    1.1558277   -6.6777521    299.53174  0.037591835  0.038418805            2 
  665000    1.1446862   -6.6832595    299.78493  0.037567034  0.038410343            1 
  666000    1.1613001   -6.6725876     300.4314  0.037591517  0.038401502            1 
  667000    1.1537556   -6.7298892     299.2525  0.037387869  0.038392592            3 
  668000    1.1585591     -6.72358    301.24628  0.037580624  0.038383744            3 
  669000    1.1406466   -6.6792349    301.58287  0.037566376  0.038374551            2 
  670000    1.1612999   -6.6811653    302.40306  0.037612321  0.038366005            1 
  671000    1.1534373    -6.674976    302.53697  0.037572897  0.038357702            3 
  672000    1.1330421   -6.6873612    304.11369  0.037712511  0.038349852            2 
  673000    1.1413998   -6.6970845    303.63649  0.037597386  0.038341906            1 
  674000    1.1475572   -6.7081449    304.21956  0.037613694  0.038333464            1 
  675000     1.119711   -6.6958836    304.00626  0.037531637  0.038324924            2 
  676000    1.1408544   -6.6948431    303.91052  0.037464315  0.038316515            1 
  677000    1.1541203   -6.7193504    305.28814  0.037578549  0.038307886            2 
  678000    1.1400989   -6.6627921     305.3989  0.037536737  0.038299974            2 
  679000    1.1404495   -6.6919313    305.86418  0.037538559  0.038292063            4 
  680000    1.1327116   -6.7193216    306.79501  0.037597428   0.03828373            2 
  681000    1.1422791   -6.7094326    305.70797  0.037409198  0.038275053            2 
  682000    1.1505924   -6.6732186      306.607  0.037464198  0.038266618            2 
  683000    1.1654267   -6.6834513    307.92979  0.037570741   0.03825819            2 
  684000    1.1453631   -6.6757328    307.62994  0.037479281  0.038249417            2 
  685000     1.172732   -6.6756852    307.93879   0.03746214  0.038240245            2 
  686000    1.1434358   -6.7121018    306.42523  0.037223668  0.038230985            1 
  687000    1.1439791   -6.6851021    307.91953  0.037350744  0.038221652            3 
  688000     1.146153   -6.6993599    308.28714  0.037340981  0.038212865            1 
  689000    1.1415372   -6.6802889    310.14441  0.037511418  0.038203841            2 
  690000    1.1489477   -6.7214568    309.46984  0.037375585  0.038195036            5 
  691000    1.1574852   -6.6990901    310.56438  0.037453495  0.038186631            1 
  692000    1.1389607   -6.6824653    310.22367  0.037358341  0.038178262            5 
  693000    1.1428713   -6.6870659    310.97041  0.037394229  0.038170183            2 
  694000    1.1403733   -6.6468993    313.57476  0.037653069  0.038162015            2 
  695000    1.1234807   -6.6726237    311.95729  0.037404951  0.038154436            3 
  696000    1.1196507   -6.6896114    312.29322  0.037391429  0.038146852            2 
  697000    1.1447097   -6.7141626    313.02463  0.037425231  0.038138988            2 
  698000    1.1177441   -6.7018457     314.0578  0.037494961  0.038131335            2 
  699000    1.1364834   -6.6640331    315.71494  0.037638882  0.038123816            1 
  700000    1.1623281   -6.6458728    314.68743  0.037462789  0.038116631            2 
  701000    1.1292209   -6.6474698     315.0636  0.037454065  0.038109773            5 
  702000    1.1659305   -6.6985518    316.60202  0.037583336  0.038102509            5 
  703000    1.1434078   -6.6740895    316.75051  0.037547476  0.038095427            4 
  704000    1.1537274   -6.7148474    316.13386  0.037421148  0.038088277            2 
  705000    1.1095452   -6.7032322    317.18668  0.037492516  0.038080749            3 
  706000    1.1309024   -6.6921362    317.52991  0.037479923  0.038073145            2 
  707000    1.1148642   -6.7226207    316.94921  0.037358465  0.038065671            3 
  708000    1.1446706   -6.7196003    316.79442  0.037287479  0.038057692            1 
  709000    1.1325205   -6.6758981     318.3056  0.037412506  0.038050042            3 
  710000    1.1533837   -6.7250645    318.02117  0.037326428  0.038042343            2 
  711000    1.1342669   -6.7258314    319.47922  0.037444822   0.03803428            3 
  712000    1.1192974   -6.6623313    319.61352   0.03740795  0.038026736            1 
  713000    1.1215602   -6.7015636     319.3921  0.037329605  0.038018826            2 
  714000    1.1543018   -6.6841611    319.63574  0.037305758  0.038010862            2 
  715000    1.1594773    -6.722767    318.91674  0.037169783   0.03800258            7 
  716000    1.1501426     -6.71617    320.23868  0.037271727   0.03799404            3 
  717000    1.1300597   -6.7127215    319.84896  0.037174449  0.037985532            1 
  718000     1.130771   -6.6937779    320.78561  0.037231384   0.03797705            2 
  719000    1.1185368   -6.7175834     321.1628  0.037223319  0.037968849            3 
  720000    1.1669644   -6.7203967    321.73479  0.037237822  0.037960825            1 
  721000    1.1361527   -6.7022411    322.28329  0.037249572  0.037952311            5 
  722000    1.1422487   -6.6953024    322.23284  0.037192156  0.037944118            3 
  723000    1.1257779   -6.7257621    322.46204  0.037167132  0.037936111            2 
  724000    1.1483286   -6.7005509    323.54201  0.037240102  0.037928121            2 
  725000    1.1370993   -6.6925847    324.33502  0.037279887  0.037920282            3 
  726000      1.14285   -6.7056801    323.84408  0.037172185  0.037912306            3 
  727000    1.1371548   -6.7048642     325.1188  0.037267171  0.037904039            3 
  728000    1.1608288   -6.6743455    325.75936  0.037289304  0.037895905            3 
  729000    1.1461208    -6.705456    324.20283  0.037060222   0.03788813            3 
  730000    1.1347642   -6.7248615     325.7037  0.037180788   0.03787997            1 
  731000    1.1436685   -6.6946809    325.35453   0.03709012  0.037871428            1 
  732000    1.1419034   -6.7355244     325.9368  0.037105737  0.037863253            2 
  733000    1.1316647   -6.7479669    326.86818  0.037161003  0.037854414            4 
  734000    1.1220086   -6.7196716    326.74226  0.037096078  0.037845747            2 
  735000    1.1370198   -6.7524739    325.83982  0.036943291  0.037836547            3 
  736000    1.1390269   -6.6949471    327.98632  0.037136132  0.037827734            3 
  737000     1.134529   -6.7116391    328.45254   0.03713846  0.037819026            2 
  738000    1.1427261   -6.7170066    327.62917  0.036995163  0.037809967            2 
  739000    1.1224555   -6.7411098    328.25188  0.037015322  0.037800799            1 
  740000    1.1326252   -6.7392978    328.80496  0.037027585  0.037791508            2 
  741000    1.1072822   -6.7112057    327.81213  0.036865961  0.037782395            3 
  742000    1.1397189   -6.6893139    330.27776  0.037093189  0.037773724            6 
  743000    1.1289897   -6.6792133    331.13711  0.037139649  0.037765458            2 
  744000      1.14087   -6.7002162    330.75837  0.037047308  0.037757186            2 
  745000    1.1208811    -6.702261    332.20714  0.037159635  0.037749077            3 
  746000    1.1356547   -6.7118416    331.26548  0.037004633  0.037740799            1 
  747000    1.1189901   -6.6875435    332.58874  0.037102716  0.037732233            2 
  748000    1.1406032   -6.6870505      331.406  0.036921346   0.03772389            1 
  749000    1.1309667   -6.7426444    332.08721  0.036947842  0.037715351            1 
  750000     1.125334   -6.7044302    332.26611  0.036918456  0.037706664            3 
  751000    1.1295058   -6.6935529    333.79273  0.037038696  0.037697605            2 
  752000     1.132095   -6.7466783    333.04812  0.036906928  0.037689117            2 
  753000    1.1573717   -6.7207904    335.20507  0.037096621  0.037680808            2 
  754000    1.1530471   -6.6708079    335.27551  0.037055206  0.037672735            2 
  755000    1.1290605   -6.7411124    334.62572  0.036934406  0.037663961            6 
  756000    1.1259951   -6.6907038    336.26015  0.037065713  0.037655143            2 
  757000     1.146477   -6.7544333    335.20365  0.036900446  0.037646456            3 
  758000    1.1242247   -6.7337147    335.88148  0.036926284  0.037637613            2 
  759000    1.1408873   -6.6848744    336.87729  0.036986966  0.037629196            2 
  760000    1.0991937    -6.697901    337.18864  0.036972439  0.037620567            2 
  761000    1.1370558   -6.6969025    336.99482   0.03690263  0.037612011            2 
  762000    1.1271128   -6.7345853    337.74514  0.036936258  0.037603565            1 
  763000    1.1543421   -6.7217414    337.41534  0.036851829  0.037595131            6 
  764000    1.1452184   -6.7316796    338.18141  0.036887152  0.037586576            2 
  765000    1.1267721   -6.7055275    337.75796  0.036792806  0.037578048            2 
  766000    1.1376386   -6.7112998    337.91104  0.036761427  0.037569657            3 
  767000    1.1205584   -6.7445777    338.56289  0.036784321  0.037560931            3 
  768000    1.1425226   -6.6708723    340.53727  0.036950659  0.037552583            4 
  769000    1.1449468   -6.7485945    340.06665  0.036851609  0.037544595            2 
  770000    1.1089603   -6.7096486    340.01786  0.036798469  0.037536249            4 
  771000    1.1222516    -6.708917    341.48601  0.036909426  0.037528016            2 
  772000    1.1391057   -6.7164489    342.61608  0.036983601   0.03752021            1 
  773000    1.1215695   -6.7040758    342.44973  0.036917823  0.037511999            2 
  774000    1.1313335   -6.6932447    342.53743  0.036879569  0.037504076            2 
  775000    1.1042364   -6.7383817     342.0449  0.036779022  0.037495831            1 
  776000    1.1128608   -6.7169018    343.42678  0.036880023  0.037487569            2 
  777000    1.1254756   -6.7314411    342.76449  0.036761529  0.037479086            2 
  778000    1.1262839   -6.7565285    343.47582  0.036790469  0.037470704            2 
  779000    1.1151596   -6.6638837    344.52177  0.036855132  0.037462558            2 
  780000    1.1154693   -6.7538268    343.42369  0.036690565  0.037454551            3 
  781000    1.1447963   -6.7476096    345.76113  0.036892993  0.037446878            2 
  782000    1.1156583   -6.7278009    345.49674   0.03681764  0.037439313            1 
  783000    1.1231535    -6.697104    346.63668  0.036891941  0.037431685            3 
  784000    1.1400401   -6.7631679    345.34297  0.036707374  0.037423874            1 
  785000    1.1372862   -6.7197036    347.87173  0.036929058  0.037415937            3 
  786000    1.1540646   -6.6992812    347.38478  0.036830447  0.037408244            1 
  787000    1.1213631   -6.7498475    347.50353  0.036796223  0.037400371            1 
  788000    1.1092489   -6.7167251    347.54436  0.036753845  0.037391961            2 
  789000    1.1301683   -6.7262094    347.04703  0.036654734  0.037383639            1 
  790000    1.1421876   -6.6945729    349.26644  0.036842452  0.037375866            2 
  791000    1.1223469    -6.669321     349.9221  0.036864949  0.037367879            1 
  792000    1.1161354   -6.7516489    348.45268  0.036663792   0.03735987            4 
  793000    1.1236666   -6.7694737    349.52103  0.036729826  0.037351653            1 
  794000    1.1088442   -6.7197423    351.52634  0.036894032   0.03734354            2 
  795000     1.127551   -6.7287636    350.92618  0.036784715  0.037335831            3 
  796000    1.1271968   -6.7474523     349.4202  0.036580842   0.03732753            2 
  797000    1.1225026    -6.724348    351.12902  0.036713616  0.037319233            3 
  798000    1.1359573   -6.7172676    350.54955  0.036607096   0.03731086            5 
  799000    1.1344986   -6.7346941    351.49134  0.036659506  0.037302669            4 
  800000    1.1168208   -6.7302401    353.54532  0.036827637  0.037294611            5 
  801000    1.1176477   -6.7366588    352.56804  0.036679987  0.037286969            2 
  802000    1.1251887   -6.7494097    353.41762  0.036722529  0.037279275            1 
  803000    1.1375558   -6.7446239    353.56275  0.036691859  0.037271289            3 
  804000    1.1181397   -6.7240624    353.51603  0.036641379  0.037263514            3 
  805000    1.1417076   -6.7287457    353.87593  0.036633119  0.037255595            5 
  806000     1.102096   -6.7061233    354.22755  0.036624023  0.037247842            2 
  807000    1.1142932   -6.6915409    356.23489  0.036785924  0.037240418            2 
  808000    1.1534224   -6.7267134    356.17599  0.036734323  0.037232896            3 
  809000    1.1012159   -6.7377493    357.04534  0.036778466  0.037225228            3 
  810000    1.1313237   -6.7095759    356.55548  0.036682663  0.037217575            2 
  811000    1.1071896   -6.7206347    356.84704   0.03666739  0.037209888            2 
  812000     1.110964   -6.7152212    357.71199     0.036711   0.03720238            2 
  813000    1.1210906   -6.7086257    358.43125   0.03673957  0.037194821            2 
  814000    1.1032297   -6.7273476    358.28035  0.036678987  0.037187282            2 
  815000    1.1313545   -6.7064718    359.13327  0.036721194  0.037179815            1 
  816000    1.1098438   -6.7177597    358.97316  0.036659841  0.037172473            2 
  817000    1.1083404   -6.7192236    359.47788   0.03666645  0.037165322            5 
  818000    1.1286867   -6.7439605    359.63516  0.036637648  0.037158096            1 
  819000    1.1205635   -6.7629181    359.43827  0.036572881  0.037150722            1 
  820000    1.1270101   -6.7376938     360.7705  0.036663669  0.037143513            3 
  821000    1.1312259   -6.7491091    361.34596  0.036677422  0.037136659            1 
  822000    1.1182051   -6.7631488    362.30341  0.036729867  0.037129947            3 
  823000    1.1214032   -6.7369884     363.4416  0.036800486  0.037122939            3 
  824000    1.1367843   -6.6941217    363.84583  0.036796706  0.037115936            1 
  825000    1.1142194   -6.7535585    362.53458  0.036619655  0.037108896            2 
  826000    1.1051118   -6.7345578     362.5915  0.036581064  0.037101723            2 
  827000    1.1088222   -6.7230701    363.62172  0.036640641  0.037094147            3 
  828000    1.1206747   -6.7474122    364.06948  0.036641454  0.037086439            3 
  829000    1.1141492   -6.7243723    363.47239  0.036537232  0.037078885            2 
  830000     1.130212   -6.7223258    364.82725  0.036629242  0.037071153            3 
  831000    1.1136311   -6.7422195    363.33377  0.036435396  0.037063827            4 
  832000    1.1123025   -6.7493318    364.68304  0.036526747  0.037056431            4 
  833000     1.125721   -6.7550579    364.50762  0.036465348  0.037048811            2 
  834000    1.1056549   -6.7426872    366.07998  0.036578735  0.037041089            2 
  835000    1.1208561   -6.7593812    365.60393  0.036487418  0.037033096            3 
  836000    1.1284989   -6.7053776    365.67999  0.036451355  0.037025187            2 
  837000    1.1276862   -6.7176901     368.0816  0.036646914  0.037017326            2 
  838000    1.1243099   -6.7159107    367.28158  0.036523626  0.037009778            2 
  839000    1.1176875   -6.7181624    366.74248  0.036426548  0.037002044            1 
  840000    1.1428742   -6.7398347    366.64037  0.036373052  0.036994152            2 
  841000    1.1148798   -6.7206906    368.70864  0.036534745   0.03698627            3 
  842000    1.1227773   -6.7339777    368.12521  0.036433611   0.03697828            5 
  843000    1.0966687    -6.754619    367.96609  0.036374662  0.036969965            7 
  844000    1.1041025   -6.7236872     369.2763   0.03646093  0.036962051            2 
  845000    1.1142838   -6.7342377    369.52412  0.036442221  0.036954108            2 
  846000    1.1544316   -6.7247679    369.36898  0.036383864  0.036946422            2 
  847000    1.0906248   -6.7234284    369.39357  0.036343327  0.036938185            3 
  848000    1.0954697    -6.758272    368.98493  0.036260312  0.036930024            3 
  849000    1.1222669   -6.7373947    370.56148  0.036372348  0.036921822            2 
  850000    1.1363503    -6.783949    369.41088  0.036216753  0.036913694            2 
  851000    1.1229808   -6.7703459    370.86751  0.036316834  0.036905525            2 
  852000    1.1277388   -6.7510326    372.30953  0.036415252  0.036897445            1 
  853000     1.101556    -6.702387    372.03661  0.036345898  0.036889531            7 
  854000    1.0969492   -6.7635211    372.22465  0.036321687  0.036881683            3 
  855000    1.1240244   -6.7461912    373.33366  0.036387296  0.036873881            2 
  856000    1.1070331   -6.7381508    373.08771  0.036320844  0.036866196            3 
  857000      1.10931   -6.7418425    373.20581  0.036289947  0.036858214            2 
  858000     1.132078   -6.7740122     372.2996  0.036159635  0.036850468            2 
  859000    1.1398963   -6.7614293    373.53215  0.036237112  0.036842349            3 
  860000     1.112511   -6.7682454    373.95663  0.036236107  0.036834488            5 
  861000    1.1241292   -6.7711994    374.27876  0.036225199  0.036826855            3 
  862000    1.0959185    -6.713963    375.89321   0.03633925  0.036819232            3 
  863000    1.1304868    -6.767157     376.4649  0.036352347  0.036811916            4 
  864000     1.092445   -6.7586128    377.10561  0.036372069  0.036804898            2 
  865000    1.0873326   -6.7235807    377.65375  0.036382828  0.036797603            3 
  866000     1.112937   -6.7513553    377.62803   0.03633834  0.036790097            3 
  867000     1.086574   -6.7332572    377.60722  0.036294427  0.036782754            1 
  868000    1.1226486   -6.7379822    378.01844  0.036292093  0.036775379            4 
  869000    1.1056886   -6.7217171    378.82642  0.036327811  0.036767861            2 
  870000    1.1057914   -6.7852386    377.94826  0.036201941  0.036760492            1 
  871000    1.1004338   -6.7539072    379.41906  0.036301096  0.036752926            1 
  872000    1.1016936   -6.7711113    379.58419  0.036275248   0.03674527            4 
  873000    1.0937266   -6.7394429    379.11474  0.036188883  0.036737176            2 
  874000    1.1251046   -6.7563109    379.77267  0.036210209  0.036729196            1 
  875000    1.0921696   -6.7338285    379.93815  0.036184586  0.036721225            2 
  876000    1.0979134   -6.7467715    378.97319  0.036051483  0.036713121            2 
  877000    1.1045408   -6.7291213    380.68727  0.036173249  0.036705107            1 
  878000    1.1189051   -6.7422313    381.27218  0.036187565  0.036697108            3 
  879000    1.0930661    -6.730411    381.95039  0.036210693  0.036688883            2 
  880000    1.1277127   -6.7957884    380.53097   0.03603513  0.036680729            3 
  881000    1.0889373   -6.7527827    380.92473  0.036031473  0.036672346            3 
  882000     1.109047   -6.7610149     380.8212  0.035980839  0.036663475            2 
  883000    1.1352603     -6.76376    382.25449  0.036075358  0.036654738            2 
  884000     1.097538   -6.7471639    382.41139  0.036049339  0.036646093            6 
  885000     1.088391   -6.8376209    382.24676  0.035993104  0.036637481            5 
  886000    1.1079723   -6.7854198    380.83059   0.03581928  0.036628762            4 
  887000    1.1345683   -6.7438117    383.23753  0.036005029  0.036619984            3 
  888000    1.0935633   -6.7737219    382.99777  0.035941982  0.036611054            8 
  889000    1.1110775   -6.7427619     384.8294  0.036073248  0.036602426            5 
  890000    1.0877231   -6.7766081    383.60491  0.035918062  0.036593604            4 
  891000    1.1044626    -6.761819    383.86957  0.035902503  0.036584881            1 
  892000    1.0831677   -6.7701498    383.73755  0.035849921  0.036576158            5 
  893000    1.1022505   -6.7388906    384.47072  0.035878193  0.036567244            1 
  894000    1.1290818   -6.7764253    384.82696  0.035871268  0.036558399            2 
  895000    1.1141541   -6.7472419    385.82236   0.03592387  0.036549368            2 
  896000    1.1024981   -6.7571368    385.04575  0.035811547  0.036540271            1 
  897000    1.1068639    -6.764689    384.95381  0.035763081  0.036531125            2 
  898000    1.0987628   -6.7396887    385.79633  0.035801441  0.036522289            2 
  899000    1.1057782   -6.7427805    386.28842  0.035807233  0.036513245            3 
  900000    1.1241825   -6.7745035    386.13484  0.035753226  0.036503829            2 
  901000    1.1145371   -6.7728081    386.90724  0.035784984  0.036494714            2 
  902000    1.0925924   -6.7561697    386.09735  0.035670487   0.03648558            2 
  903000    1.0962525   -6.7607349     387.5837  0.035768152  0.036476245            2 
  904000    1.1295637    -6.762015    386.33364  0.035613352  0.036466405            3 
  905000    1.1187259    -6.775839     387.6699  0.035697044   0.03645631            1 
  906000    1.1179613   -6.7604491    386.58326  0.035557695  0.036446366            2 
  907000     1.096966   -6.7693434    388.41623  0.035686901  0.036436367            5 
  908000    1.1044835   -6.7739437    388.66423  0.035670359   0.03642644            1 
  909000    1.0903971   -6.7937312    387.29182  0.035505301  0.036416593            2 
  910000    1.1000491   -6.7747527    388.13011  0.035543051  0.036406524            3 
  911000    1.1038817   -6.7858446    388.03695  0.035495513  0.036396808            3 
  912000    1.1151817   -6.7415004    390.22071  0.035656132  0.036386789            3 
  913000    1.0942785   -6.7744185    390.15769  0.035611326  0.036377113            2 
  914000    1.0970168   -6.7606833    389.50215  0.035512596  0.036367159            4 
  915000    1.0799752   -6.7622423    391.37291  0.035644163  0.036356965            4 
  916000    1.1351941   -6.7685917    390.60332  0.035535237  0.036346911            2 
  917000     1.110547   -6.7685516    391.72761  0.035598656  0.036337221            1 
  918000    1.0895273    -6.738032    392.52712  0.035632455  0.036327505            1 
  919000    1.0924398   -6.7605123    391.78643  0.035526517  0.036317912            3 
  920000    1.0936578   -6.7351335    392.87528  0.035586529  0.036308302            3 
  921000     1.088466   -6.7451999    394.82639  0.035724429  0.036298888            2 
  922000     1.132279   -6.7816999    393.62511  0.035577106  0.036289589            3 
  923000    1.1076406   -6.7534031    394.18727  0.035589317  0.036280212            2 
  924000    1.0976229   -6.7582783    394.98448  0.035622698   0.03627041            1 
  925000    1.0879757   -6.7426565    395.02011  0.035587397  0.036261271            2 
  926000    1.0872504   -6.7564807    396.19899  0.035655057  0.036252258            2 
  927000    1.1318782   -6.7430448    396.98146  0.035686935  0.036243442            3 
  928000      1.08913    -6.773933    396.68997  0.035622304  0.036234766            2 
  929000    1.1183405    -6.777013    398.04925  0.035705889  0.036226101            3 
  930000    1.0899255   -6.7781598    396.62757  0.035540105  0.036217299            3 
  931000    1.0862658   -6.7898281    397.80452  0.035607279  0.036208442            2 
  932000    1.0992655   -6.7324712    400.59498  0.035818578   0.03619963            2 
  933000    1.0911975   -6.7884132     399.0465  0.035641881  0.036191216            1 
  934000    1.0976151   -6.8035681    399.44204  0.035639012  0.036182657            2 
  935000    1.1043296   -6.7392754    398.97487  0.035559258   0.03617388            4 
  936000    1.1038123   -6.7838544    398.66521  0.035493698  0.036165012            2 
  937000    1.0949442   -6.8357467    398.05845  0.035401854  0.036156032            3 
  938000    1.0985305    -6.743587    399.69865   0.03550983     0.036147            4 
  939000    1.1061563   -6.8019601    400.37642  0.035532164  0.036137969            2 
  940000    1.1065138    -6.777403      400.097  0.035469592  0.036129097            1 
  941000    1.0934183   -6.7885889     401.5248  0.035558342  0.036120199            3 
  942000    1.1083747   -6.7545486    402.50988  0.035607739  0.036111318            2 
  943000     1.090699   -6.7598195    401.78037  0.035505512  0.036102449            2 
  944000     1.084607   -6.7784863    402.32302  0.035515803  0.036093725            1 
  945000    1.1039891   -6.7253515    401.79367  0.035431541  0.036084524            2 
  946000    1.1278762   -6.7514064    403.14759  0.035513354  0.036075628            2 
  947000    1.0864424   -6.7880628    401.23178  0.035307266  0.036066498            2 
  948000    1.0976181   -6.7405131    402.99247  0.035424795   0.03605739            2 
  949000     1.085148   -6.7626765    403.07733  0.035394919  0.036048438            2 
  950000    1.1029014   -6.7968741    402.60389  0.035316131  0.036039653            2 
  951000    1.0923215    -6.785488    403.75555  0.035379912  0.036030775            5 
  952000    1.1094601   -6.7591031    404.78787  0.035433112  0.036021925            3 
  953000     1.091556   -6.7603037    404.61007  0.035380384  0.036012862            2 
  954000    1.0676674   -6.7728805     407.0736   0.03555849   0.03600412            2 
  955000    1.0950102   -6.7827979    404.49621  0.035296353  0.035995152            3 
  956000     1.131397   -6.8073158     405.8302  0.035375714   0.03598614            3 
  957000     1.094029   -6.7973377    406.29571  0.035379285  0.035977561            4 
  958000    1.0782428   -6.7897343    406.15813  0.035330387  0.035968879            3 
  959000    1.1268766   -6.7794159    407.04932  0.035370987  0.035960154            2 
  960000    1.0977039   -6.7475236    407.28511   0.03535461  0.035951522            1 
  961000    1.0906629   -6.7859113    407.65687  0.035350058  0.035942656            1 
  962000    1.0751187    -6.739798    409.26175  0.035452335  0.035933893            2 
  963000    1.1141346   -6.7679672    409.11431  0.035402761  0.035925488            2 
  964000    1.1158794   -6.7784178    408.45611  0.035309138  0.035916668            3 
  965000    1.1121865   -6.7848894    409.18971  0.035335899  0.035907497            2 
  966000     1.091112   -6.7933235    409.63299   0.03533756  0.035898605            2 
  967000    1.0883747   -6.7223444    411.68848  0.035478153  0.035889872            3 
  968000    1.1126049   -6.7880735    409.90868  0.035288282  0.035881354            2 
  969000     1.095724   -6.7718415     410.5398   0.03530614  0.035872637            2 
  970000    1.0890428   -6.7472309    409.85792  0.035211161  0.035863813            2 
  971000     1.092683   -6.7552179    412.26305  0.035381312  0.035855596            2 
  972000    1.1032005   -6.7302702    412.54528  0.035369108   0.03584736            7 
  973000    1.0809033   -6.7865238    412.17483   0.03530103  0.035839045            2 
  974000    1.0977138   -6.7529577     412.9602  0.035331982  0.035830775            2 
  975000    1.1038456   -6.8107853    412.97973  0.035297413   0.03582268            1 
  976000    1.0891313   -6.7748829    415.63317  0.035487805  0.035814818            2 
  977000    1.0863355   -6.7628764    414.38551  0.035345063  0.035806841            3 
  978000    1.0788534   -6.7528542    415.24011  0.035381741  0.035799107            3 
  979000    1.0988079   -6.7637783    416.05864  0.035415274  0.035791563            3 
  980000      1.08089   -6.8078228     415.2599  0.035311216  0.035783834            2 
  981000    1.0779517   -6.7778403    416.18587   0.03535388   0.03577631            3 
  982000    1.0876544   -6.8067248    415.29683  0.035242433  0.035768451            2 
  983000     1.071877   -6.7707218     416.4116  0.035301085  0.035760613            4 
  984000    1.1001901    -6.803106    417.27925   0.03533869  0.035752898            3 
  985000    1.1023476   -6.7582245    418.37874  0.035395832  0.035744796            1 
  986000    1.1181439   -6.7950242    417.12219  0.035253735   0.03573697            3 
  987000    1.0843135    -6.778201     418.8617  0.035364885  0.035729074            2 
  988000      1.08068   -6.7708026    418.82723  0.035326183  0.035721153            3 
  989000    1.1043693   -6.7772258    419.63605  0.035358616  0.035713411            6 
  990000    1.1057045   -6.7948417    420.04842  0.035357611   0.03570599            2 
  991000    1.1059801   -6.8272742    419.34555  0.035262828  0.035698357            2 
  992000    1.1046112   -6.7481475    421.06855  0.035372022  0.035690899            3 
  993000    1.0656069   -6.7521574    420.99682  0.035330381  0.035683616            3 
  994000    1.0619088   -6.7772748    420.19576  0.035227679  0.035676076            1 
  995000    1.0716156   -6.7831956    420.87507  0.035249168  0.035668244            3 
  996000    1.0860677   -6.8151777    421.02934  0.035226685  0.035660216            2 
  997000    1.0868581   -6.8265742    421.02591  0.035191066  0.035652449            4 
  998000    1.0955303   -6.7866156    421.03856   0.03515686  0.035644532            2 
  999000    1.1072853   -6.7945241    423.18132   0.03530041   0.03563657            5 
 1000000    1.0554197   -6.7938003    422.18357  0.035181964  0.035628661            2 
 1001000     1.057491   -6.7940689    422.21134  0.035149129  0.035620715            6 
 1002000    1.1061186   -6.7993078    422.43084  0.035132305  0.035612925            1 
 1003000    1.1019896   -6.8143806    423.56836  0.035191788  0.035604971            5 
 1004000    1.0954809   -6.8227074    423.97241  0.035190273  0.035597181            4 
 1005000     1.085776   -6.7664174    424.58393  0.035205965  0.035589308            3 
 1006000    1.0821708   -6.7786238    425.09602  0.035213388  0.035581681            5 
 1007000    1.0801657   -6.7928774     425.0525  0.035174818  0.035573959            3 
 1008000    1.0998839   -6.7803278    425.76976   0.03519922  0.035566571            2 
 1009000    1.1012717    -6.769404    427.37508  0.035296918  0.035559182            2 
 1010000    1.0745206   -6.7819286     427.9889  0.035312615  0.035552186            1 
 1011000    1.1025843   -6.7582808    427.87729  0.035268487  0.035544982            2 
 1012000    1.1047529    -6.798931    427.99611  0.035243421  0.035537629            3 
 1013000    1.0713733   -6.8081095    425.95195   0.03504047  0.035530045            3 
 1014000    1.0628244   -6.7784588    428.93058  0.035250705  0.035522249            1 
 1015000    1.1067192   -6.8439386    428.09066  0.035147016  0.035514565            2 
 1016000     1.089597   -6.7919904    428.62113  0.035155933  0.035506984            2 
 1017000    1.0716088   -6.8096875    427.79837  0.035053947  0.035499301            2 
 1018000    1.0833474   -6.8389568    429.01091  0.035118772  0.035491873            2 
 1019000    1.0710745   -6.8167367    428.58928  0.035049827  0.035484142            2 
 1020000    1.1011835    -6.817846    428.42899  0.035002368  0.035476359            2 
 1021000    1.1082406   -6.7883733    430.62125  0.035147017  0.035468729            2 
 1022000     1.097158    -6.774431    430.13801  0.035073223  0.035461045            1 
 1023000    1.1012936   -6.8050526    429.29937  0.034970624  0.035453062            3 
 1024000    1.0734298   -6.7742759    430.67782  0.035048651  0.035445099            1 
 1025000    1.1181364   -6.8094301    429.63119  0.034929365  0.035437158            4 
 1026000    1.1013578    -6.806486     430.7487  0.034986086  0.035429487            3 
 1027000    1.0809486   -6.7982315    432.49717  0.035093896  0.035421476            2 
 1028000    1.1083848   -6.7897012    430.92281  0.034932134  0.035413612            3 
 1029000    1.0915669   -6.8033345    430.69368   0.03487963  0.035405653            3 
 1030000    1.0771953   -6.8019757    431.22254  0.034888555  0.035397285            3 
 1031000    1.0817703   -6.8103627    431.53727  0.034880154  0.035388963            3 
 1032000    1.0930919   -6.7978701    433.42627  0.034998891   0.03538045            3 
 1033000    1.0862126   -6.8013263    432.32524  0.034876189  0.035372162            3 
 1034000    1.0647517   -6.8086622    433.23013  0.034915388  0.035363777            4 
 1035000    1.0842536   -6.8234766    434.00558  0.034944089  0.035355521            2 
 1036000     1.094548   -6.8138227    433.26206  0.034850551  0.035347332            2 
 1037000    1.0882076   -6.8051353    432.77567  0.034777859  0.035338959            3 
 1038000    1.0914786   -6.7948428    433.86803  0.034832051  0.035331076            4 
 1039000    1.0994224   -6.7763851    435.70954  0.034946226  0.035323157            2 
 1040000    1.0842111   -6.7868028    435.81167  0.034920807  0.035315307            2 
 1041000    1.0888247   -6.8318889    436.48017  0.034940776  0.035307378            3 
 1042000     1.081266   -6.7958919    437.34323  0.034976266  0.035299552            2 
 1043000    1.0857352    -6.783489    436.01884  0.034836916  0.035291578            2 
 1044000    1.0839898   -6.8424145     436.5359  0.034844819  0.035283428            2 
 1045000    1.0708176    -6.770571    436.90775  0.034841128  0.035275485            2 
 1046000    1.1045606    -6.780075    437.21433  0.034832244  0.035267472            4 
 1047000     1.096157   -6.7954988    437.60024  0.034829691  0.035259298            2 
 1048000    1.0807561   -6.7825598     438.0235  0.034830113   0.03525107            2 
 1049000    1.0835318    -6.808152    437.16578  0.034728772  0.035242898            6 
 1050000    1.0803241   -6.8145786    438.58127  0.034808037  0.035234594            2 
 1051000    1.0899363   -6.8084393    439.44184  0.034843152  0.035226477            4 
 1052000     1.093305   -6.8504425    437.45145  0.034652364  0.035218315            2 
 1053000    1.0835294   -6.8152841    438.92746  0.034736266  0.035210207            3 
 1054000     1.065666   -6.8051222    440.17157  0.034801674  0.035202049            3 
 1055000    1.0669079   -6.8267145    441.01398  0.034835227  0.035193834            3 
 1056000    1.1041146   -6.8493155    438.28225  0.034586667  0.035185683            2 
 1057000    1.0757605   -6.7993854    441.58909  0.034814655  0.035177444            2 
 1058000    1.0732701   -6.7710881    441.46509  0.034771982  0.035169475            2 
 1059000    1.0849443   -6.8630085    440.63902  0.034674144  0.035161157            2 
 1060000    1.0942217   -6.7960523    440.70452  0.034646582  0.035153063            3 
 1061000      1.07707   -6.8163736    441.47836  0.034674706  0.035144995            3 
 1062000    1.0455622   -6.8186943    442.76349  0.034742898  0.035136782            2 
 1063000    1.0637094    -6.781887    441.39456  0.034602897  0.035128455            3 
 1064000    1.0977756   -6.7740257    442.98737  0.034695126  0.035120111            9 
 1065000    1.0700126   -6.8128173    443.51264  0.034703649  0.035111929            2 
 1066000    1.0953481   -6.8000403    444.28773  0.034731686  0.035103405            2 
 1067000     1.060143    -6.835232    441.95168  0.034516689   0.03509476            4 
 1068000    1.0678995   -6.7938716    443.88507  0.034635227  0.035086143            2 
 1069000     1.108498   -6.8181809    442.39136  0.034486386  0.035077501            3 
 1070000    1.0848588   -6.7814557    443.22943  0.034519426  0.035068914            2 
 1071000    1.0988886   -6.8072226    444.84937   0.03461324  0.035060578            3 
 1072000    1.0989511   -6.8430944    443.27144   0.03445829  0.035051997            5 
 1073000    1.1297982   -6.8011178    445.52658  0.034601318  0.035043381            2 
 1074000    1.0936137   -6.7845216    446.44847  0.034640632  0.035034976            1 
 1075000    1.1151779   -6.8245839    445.64015  0.034545748  0.035026586            2 
 1076000    1.0939224    -6.788386     446.8309  0.034605863  0.035018264            2 
 1077000    1.0858309   -6.7885336    446.96601  0.034584185  0.035010032            2 
 1078000    1.0899443   -6.8265516    446.92964  0.034549292  0.035001931            2 
 1079000    1.0867645   -6.8074005    447.73364  0.034579367  0.034993831            1 
 1080000    1.0680357    -6.800835    448.10771  0.034576212  0.034985807            2 
 1081000    1.0894562   -6.8420066    448.66454  0.034587152  0.034978092            6 
 1082000    1.0537737   -6.7868909    449.69489  0.034634542   0.03497023            1 
 1083000    1.0705631   -6.8227412    448.71771  0.034527371  0.034962208            5 
 1084000    1.0773114   -6.8161918    450.72444  0.034649788  0.034954115            1 
 1085000    1.0588205   -6.8451661    449.39621  0.034515838  0.034946093            2 
 1086000    1.0691379    -6.838039     449.4665  0.034489449  0.034938065            2 
 1087000    1.0851677   -6.8382722     450.2703  0.034519343  0.034930072            3 
 1088000    1.0864513   -6.8423397    450.93829  0.034538779  0.034922028            2 
 1089000    1.0776787   -6.7891314    450.93975  0.034507174  0.034913877            2 
 1090000    1.0771307   -6.8114569    452.42596  0.034589141  0.034905904            5 
 1091000    1.0838488   -6.8123354    452.97957  0.034599723  0.034898039            2 
 1092000    1.0902295   -6.7750371    452.64193  0.034542272  0.034890048            3 
 1093000    1.0755672   -6.8026418    452.69766  0.034514918  0.034882176            3 
 1094000    1.0677984   -6.8502495    450.99236   0.03435347  0.034874157            2 
 1095000    1.0849302   -6.8350509    451.78806  0.034382653  0.034866207            3 
 1096000    1.0600431    -6.832225    452.45502  0.034401994   0.03485801            2 
 1097000    1.0561975   -6.8496811    452.82307  0.034398592  0.034849639            2 
 1098000    1.0745426   -6.8134378    453.08776  0.034387352  0.034841551            3 
 1099000    1.0722242   -6.8214313    454.93666  0.034496259  0.034833414            3 
 1100000    1.0637098   -6.8152147     453.9466  0.034389894  0.034825295            3 
 1101000    1.0784685   -6.8166319    454.81186  0.034424149  0.034817134            2 
 1102000    1.1006329   -6.8193817     455.4636  0.034442196  0.034809058            2 
 1103000    1.0807836   -6.8198808    455.62195  0.034422934  0.034801081            2 
 1104000     1.095708   -6.8321642     457.6163  0.034542293  0.034793036            3 
 1105000     1.067913   -6.8177374    455.29648  0.034336084  0.034785134            3 
 1106000    1.0772584   -6.8163191    455.81874   0.03434439  0.034777113            2 
 1107000    1.0574617   -6.7645889    458.32023  0.034501673  0.034769302            4 
 1108000     1.058997   -6.8291843    457.25213  0.034390202  0.034761301            3 
 1109000    1.0816876   -6.8621848    455.96643  0.034262581   0.03475313            2 
 1110000    1.0785247   -6.8075986    455.85596  0.034223421  0.034745038            4 
 1111000    1.0807411    -6.807372    458.16951   0.03436615  0.034736932            2 
 1112000    1.0887667   -6.8441904    456.31099  0.034195967  0.034728693            6 
 1113000    1.0556591   -6.8836702    457.13545  0.034226973   0.03472029            3 
 1114000    1.0596173   -6.8193537    458.50453  0.034298663   0.03471211            2 
 1115000    1.0690552   -6.8693814    458.78115  0.034288576  0.034704157            3 
 1116000    1.0535225   -6.8173568    459.59021  0.034318266  0.034696243            4 
 1117000    1.0710544    -6.809061    460.39097  0.034347282  0.034688162            2 
 1118000    1.0708952   -6.8093947    460.72799  0.034341681  0.034680347            1 
 1119000    1.0968741   -6.8280709    463.42679  0.034511974  0.034672782            2 
 1120000     1.071349   -6.8425564    461.16917  0.034313182  0.034665169            2 
 1121000    1.0795065   -6.8349166    462.04281  0.034347518  0.034657325            4 
 1122000    1.0995267   -6.7985743    463.40011  0.034417715  0.034649704            1 
 1123000    1.0588073   -6.8181037    463.33347  0.034382121  0.034642185            1 
 1124000    1.0369205   -6.8255255    463.29246  0.034348492  0.034634578            2 
 1125000     1.074441   -6.7930136    463.50312  0.034333565  0.034627095            1 
 1126000    1.0788294    -6.844939    463.21047  0.034281414  0.034619599            3 
 1127000    1.0834435   -6.8476811    462.77892  0.034219086  0.034611727            1 
 1128000    1.0630006   -6.7771565    464.87447  0.034343563   0.03460401            3 
 1129000    1.0615374   -6.8273723    462.97698  0.034173087  0.034596156            2 
 1130000    1.0956784   -6.8428975    464.15287  0.034229563  0.034588216            4 
 1131000    1.0908605   -6.8004172    463.54559  0.034154553  0.034580166            1 
 1132000    1.0614542   -6.8482491    465.09348   0.03423833  0.034572257            2 
 1133000     1.075201   -6.8229756    464.74861  0.034182745  0.034564303            2 
 1134000    1.0743052   -6.8213024    466.41249  0.034274875   0.03455634            2 
 1135000    1.1069828   -6.8186301    465.14904  0.034151912  0.034548682            4 
 1136000    1.0576277   -6.8351724    468.53116   0.03436995  0.034541224            3 
 1137000    1.0401242   -6.8258022    467.57151  0.034269387  0.034533797            1 
 1138000    1.0746338   -6.8725837    466.42591  0.034155383  0.034526242            1 
 1139000    1.0489832    -6.762676    468.48589  0.034276111  0.034518783            2 
 1140000     1.062635   -6.8599859    468.02461  0.034212326  0.034511452            3 
 1141000    1.0789418   -6.8743473     468.2577  0.034199364  0.034503983            1 
 1142000    1.0592656   -6.8111464    469.28262  0.034244208  0.034496736            4 
 1143000    1.0767997   -6.8638093      468.262  0.034139836  0.034489367            3 
 1144000    1.0705585   -6.8372964    470.87083  0.034300031   0.03448207            3 
 1145000    1.0727994   -6.8288278    469.69763  0.034184689  0.034474665            2 
 1146000    1.0728304   -6.8519718    469.41692  0.034134447  0.034467099            2 
 1147000    1.0747817   -6.8437459    470.16786  0.034159246  0.034459578            2 
 1148000    1.0752892   -6.8566253    470.61652  0.034162059  0.034451951            3 
 1149000    1.0741914    -6.827108    471.65982  0.034207994  0.034444412            2 
 1150000    1.0800943   -6.8010622    472.34627  0.034227991  0.034437067            1 
 1151000    1.0641578   -6.7969528    473.02891  0.034247677  0.034429764            4 
 1152000    1.0639946   -6.8424494    472.09952  0.034150717   0.03442241            5 
 1153000    1.0728023   -6.8400893     473.2252  0.034202458  0.034414939            3 
 1154000    1.0823819   -6.8480069    472.66748  0.034132545  0.034407638            3 
 1155000    1.0942628   -6.8168093    473.61103   0.03417107  0.034400292            2 
 1156000    1.0637725   -6.8305365    472.57096  0.034066534  0.034392919            5 
 1157000    1.0532174   -6.8228927    473.10069  0.034075245  0.034385388            2 
 1158000    1.0726393   -6.8272948    473.25953  0.034057249  0.034377858            3 
 1159000    1.0766858   -6.8391413    473.74654  0.034062881  0.034370437            3 
 1160000    1.0673389   -6.8074259     476.5295  0.034233441  0.034363068            3 
 1161000    1.0890533    -6.844472    474.39871  0.034051013  0.034355658            2 
 1162000    1.0811037   -6.8642403    476.24282   0.03415396  0.034348283            2 
 1163000    1.0626599   -6.8469268    473.77247  0.033947583   0.03434068            2 
 1164000    1.0660536   -6.8758564    474.58063  0.033976277  0.034333103            2 
 1165000    1.0628146   -6.8514876    475.31837  0.033999883  0.034325546            2 
 1166000    1.0595545   -6.8293834    477.61492  0.034134857  0.034318223            4 
 1167000    1.0590415   -6.8494615    476.63705  0.034035779  0.034310695            5 
 1168000    1.0533121   -6.8155644    476.55993  0.034001137  0.034303351            2 
 1169000    1.0624881   -6.8619938    476.25359  0.033950213  0.034295788            1 
 1170000    1.0395847   -6.8468723    476.67121  0.033950941  0.034288044            1 
 1171000    1.0770314   -6.8319757     476.7748  0.033929319   0.03428016            3 
 1172000    1.0635164   -6.9070721    476.80671  0.033902639  0.034272047            2 
 1173000    1.0743926   -6.8605818    476.73349  0.033868535  0.034264157            4 
 1174000    1.0350288   -6.8563165    478.26806  0.033948613  0.034256137            4 
 1175000    1.0703327   -6.8384703    478.56518  0.033940793   0.03424831            4 
 1176000    1.0630627   -6.8731547    478.04453  0.033875038  0.034240152            4 
 1177000    1.0426904   -6.8476743    478.32189  0.033865894  0.034232136            3 
 1178000      1.08223   -6.8659833    477.90212  0.033807451  0.034224268            6 
 1179000    1.0690932   -6.8399462    478.84191  0.033845201  0.034216315            3 
 1180000    1.0552884   -6.8032037    480.02298  0.033899928  0.034208227            2 
 1181000    1.0646763   -6.8838761    479.10441  0.033806408  0.034200287            4 
 1182000    1.0709616   -6.8464487    479.40655  0.033799108  0.034192285            4 
 1183000    1.0821427   -6.8653093     479.5263  0.033778973  0.034184146            2 
 1184000     1.046446    -6.882771    480.47812  0.033817436  0.034176034            5 
 1185000    1.0515959   -6.8307548     480.2649  0.033773903  0.034167989            1 
 1186000    1.0679234   -6.8436845    480.49622  0.033761679  0.034160123            2 
 1187000    1.0878201   -6.8291717    480.60185  0.033740652  0.034152234            3 
 1188000    1.0585752   -6.8297079     482.6758   0.03385773  0.034144291            2 
 1189000    1.0715947   -6.8628825    481.55501  0.033750702  0.034136304            5 
 1190000    1.0671241    -6.850114    483.00985  0.033824219  0.034128598            2 
 1191000    1.0819278   -6.8693338    482.03438  0.033727566  0.034120797            1 
 1192000    1.0448584   -6.8480034    481.26429  0.033645434  0.034112733            3 
 1193000    1.0547692    -6.884221    482.73361  0.033719867   0.03410452            4 
 1194000    1.0423127    -6.865427    482.55833  0.033679392   0.03409645            5 
 1195000     1.073075   -6.8651541    484.36395  0.033777123  0.034088716            3 
 1196000    1.0612503   -6.8576192    486.90865  0.033926188  0.034081197            4 
 1197000    1.0527356     -6.83798     485.4773  0.033798197  0.034073978            3 
 1198000    1.0364185   -6.8518206    486.52095  0.033842581  0.034066547            1 
 1199000    1.0650877   -6.8654597    486.26036  0.033796244  0.034059083            3 
 1200000    1.0532296   -6.8534235    487.11619  0.033827513   0.03405176            4 
 1201000    1.0493539   -6.8901317    486.62822  0.033765489  0.034044304            2 
 1202000     1.056452   -6.8448311    488.01575  0.033833593  0.034036977            3 
 1203000    1.0722654   -6.8665545    487.72957  0.033785645  0.034029304            3 
 1204000    1.0490948    -6.869749    487.31821  0.033729112   0.03402169            2 
 1205000    1.0666913   -6.8540641    487.78003  0.033733059  0.034013907            2 
 1206000    1.0560459   -6.8316654    489.10346  0.033796536  0.034006459            2 
 1207000     1.047289   -6.8587522    489.11005   0.03376899  0.033999117            3 
 1208000    1.0487914    -6.871561     489.1379  0.033742957  0.033991776            4 
 1209000    1.0664422   -6.8301277    489.05023  0.033709004  0.033984229            1 
 1210000     1.053029   -6.8574195    488.29446  0.033629095  0.033976612            2 
 1211000    1.0850142   -6.8521145      489.782  0.033703688   0.03396895            4 
 1212000    1.0606856   -6.8467427    490.32069  0.033712919  0.033961178            2 
 1213000    1.0641722   -6.8527497    489.54767  0.033632019  0.033953365            6 
 1214000    1.0486629   -6.8500697    490.45965  0.033666917  0.033945358            3 
 1215000    1.0748878   -6.8779999     489.3166  0.033560809   0.03393737            6 
 1216000    1.0652247   -6.8449579    490.63724  0.033623714  0.033929456            3 
 1217000    1.0624706   -6.8865984     490.3322  0.033575199   0.03392151            4 
 1218000    1.0524325   -6.8660992    489.48029  0.033489346  0.033913491            3 
 1219000     1.043603   -6.8482844    490.52162  0.033533061  0.033905546            4 
 1220000    1.0547449   -6.8626965    492.56544  0.033645181  0.033897562            3 
 1221000    1.0502926   -6.8386307    492.22449  0.033594355   0.03388966            4 
 1222000    1.0631712   -6.8264611    493.30917  0.033640833  0.033881815            3 
 1223000    1.0580303   -6.8506318    493.11905  0.033600372  0.033873929            2 
 1224000    1.0556776   -6.8629461    493.22934  0.033580429  0.033866035            3 
 1225000    1.0678009   -6.8297739    494.17853  0.033617587  0.033858134            4 
 1226000    1.0506799   -6.8392397     492.8872  0.033502392  0.033850326            5 
 1227000     1.054484   -6.8552143    493.14646  0.033492696  0.033842597            4 
 1228000    1.0700721   -6.8734473    494.00073  0.033523393  0.033834829            6 
 1229000    1.0483193   -6.8773699    493.58334  0.033467815  0.033826808            2 
 1230000    1.0655944   -6.8632466    494.58645  0.033508567  0.033818846            2 
 1231000     1.044995   -6.8263243    495.92768  0.033572142  0.033810888            1 
 1232000    1.0607088   -6.8714682    493.98393  0.033413415  0.033803165            1 
 1233000    1.0526456   -6.8377318    496.27703  0.033541297  0.033795292            4 
 1234000    1.0517445   -6.8569267    495.03991  0.033430572  0.033787586            3 
 1235000    1.0554394    -6.896936    494.51505  0.033368087  0.033779628            2 
 1236000    1.0445867   -6.8561722    494.65238  0.033350349  0.033771692            2 
 1237000     1.061013   -6.8518906    496.36416  0.033438706  0.033763574            5 
 1238000    1.0435136   -6.8611839    495.95272  0.033384001  0.033755631            2 
 1239000    1.0403997   -6.8665159    495.91468  0.033354498  0.033747506            2 
 1240000    1.0360873   -6.8999068    496.21343  0.033347677  0.033739374            6 
 1241000    1.0375441   -6.8775239    495.44912  0.033269482  0.033731121            1 
 1242000    1.0661549   -6.8890613    497.56462  0.033384636   0.03372274            3 
 1243000    1.0511586   -6.8640777    497.50558   0.03335382  0.033714514            3 
 1244000    1.0454162    -6.880369    497.52004  0.033327977  0.033706402            2 
 1245000    1.0678852   -6.9030935    497.21645  0.033280887  0.033698118            2 
 1246000    1.0612332   -6.8633485    496.40307  0.033199777  0.033689646            4 
 1247000    1.0647809   -6.8799357    497.77055  0.033264538  0.033681363            3 
 1248000    1.0352711   -6.9076989    498.25196   0.03327003  0.033673253            2 
 1249000    1.0477723   -6.8763892    497.06704  0.033164334  0.033665012            5 
 1250000     1.031791   -6.8990901    498.42573  0.033228382  0.033656671            3 
 1251000    1.0798512   -6.8931875    498.49987  0.033206759  0.033648345            2 
 1252000    1.0292855   -6.8935361    498.55881   0.03318416  0.033639979            5 
 1253000    1.0645027   -6.8416391    499.24059  0.033203019  0.033631431            1 
 1254000    1.0568583    -6.868465    499.20473  0.033174158  0.033622964            4 
 1255000    1.0558388   -6.9137452    497.77913  0.033053063  0.033614277            2 
 1256000     1.054263   -6.8720706    499.69137  0.033153621  0.033605673            4 
 1257000    1.0554492   -6.8773732    500.15518  0.033157994  0.033596961            2 
 1258000    1.0342665   -6.9037198    499.52669  0.033090003  0.033588261            5 
 1259000    1.0662564   -6.8739126     499.7813  0.033080573  0.033579526            1 
 1260000    1.0550555     -6.85263    501.71847  0.033182439  0.033570815            2 
 1261000    1.0443912   -6.8697351    499.77648  0.033027787  0.033561963            2 
 1262000    1.0301448   -6.8803438    501.38216  0.033107644  0.033553182            3 
 1263000    1.0469799   -6.8663258    500.22941  0.033005371  0.033544416            3 
 1264000    1.0570577   -6.8989621    500.30499  0.032984242  0.033535561            2 
 1265000    1.0575591   -6.8515327    500.29554  0.032957546  0.033526825            1 
 1266000    1.0562595   -6.9031735    500.99099   0.03297729  0.033518155            5 
 1267000    1.0292969   -6.8895139      501.132  0.032960537   0.03350926            2 
 1268000     1.039887   -6.8888482    502.46506  0.033022152  0.033500662            3 
 1269000    1.0478515   -6.8644413    502.82918   0.03302004  0.033491988            4 
 1270000    1.0668768   -6.8915627     501.9174  0.032934212  0.033483194            4 
 1271000    1.0567872     -6.86303    502.86213  0.032970242  0.033474463            3 
 1272000    1.0301491   -6.8734533    504.39853  0.033044977  0.033465652            5 
 1273000    1.0199722    -6.866252    504.71272  0.033039586  0.033456858            2 
 1274000    1.0591778   -6.8881745    504.77638  0.033017817  0.033448166            2 
 1275000     1.045057   -6.8816121    503.34942  0.032898655  0.033439277            5 
 1276000    1.0327299    -6.873904    505.25498  0.032997321  0.033430641            4 
 1277000    1.0407403   -6.9195662    505.38051  0.032979673  0.033421831            3 
 1278000    1.0410325   -6.8953926     503.6885  0.032843538  0.033413019            3 
 1279000    1.0668572   -6.8849168    505.12486  0.032911445  0.033404157            1 
 1280000    1.0592895   -6.8696098    504.61103  0.032852281  0.033395425            3 
 1281000    1.0325212   -6.8978561    505.45579  0.032881589  0.033386465            4 
 1282000    1.0701512   -6.8720153    506.20495  0.032904638   0.03337753            2 
 1283000    1.0526285    -6.870817    507.25291  0.032947058  0.033368699            6 
 1284000    1.0322322    -6.891713     504.9969  0.032774981  0.033359793            3 
 1285000    1.0207688   -6.8880629    506.61119  0.032854162  0.033350837            5 
 1286000    1.0571359   -6.8626473    507.02252   0.03285527  0.033342097            4 
 1287000     1.057162   -6.8710656      508.324  0.032914012  0.033333323            3 
 1288000      1.06416    -6.888555    507.34038  0.032824817  0.033324662            2 
 1289000    1.0466987   -6.8756908    508.38712  0.032867024  0.033316171            6 
 1290000    1.0445212   -6.8747583    509.18777  0.032893267  0.033307668            2 
 1291000    1.0562806   -6.9114894    508.56818  0.032827794  0.033299247            7 
 1292000    1.0537946   -6.8904421    508.82811   0.03281915   0.03329065            2 
 1293000    1.0391802   -6.8872301    509.49563   0.03283679  0.033282044            4 
 1294000    1.0377013   -6.8762171    509.79158  0.032830473  0.033273584            3 
 1295000    1.0285078   -6.8935033    510.56431  0.032854846   0.03326512            3 
 1296000    1.0276291   -6.9078999      509.906  0.032787165  0.033256602            5 
 1297000    1.0411816   -6.8721201    511.99462  0.032896082  0.033248232            3 
 1298000    1.0698109   -6.9284303    510.10431  0.032749378   0.03323992            2 
 1299000    1.0021321   -6.8637063    510.77628  0.032767275  0.033231277            4 
 1300000    1.0545225   -6.8983322    511.75468  0.032804787  0.033222749            4 
 1301000    1.0224462   -6.8891133    512.40615  0.032821301  0.033214301            1 
 1302000    1.0533464   -6.9103972    511.62538   0.03274612  0.033205745            1 
 1303000      1.02487   -6.9244551    511.48258  0.032711856  0.033197135            6 
 1304000    1.0517519   -6.9004522    512.78538  0.032770027  0.033188499            2 
 1305000    1.0469435   -6.8521762    512.08893  0.032700442  0.033180084            2 
 1306000    1.0564644   -6.8951132    513.14262  0.032742638  0.033171549            2 
 1307000    1.0471364   -6.8846358    515.30091  0.032855197  0.033163144            2 
 1308000    1.0618121   -6.8930651    513.72622  0.032729754  0.033154938            2 
 1309000    1.0694771   -6.8826045    514.56758  0.032758313  0.033146435            2 
 1310000    1.0301726   -6.8929062    516.01319  0.032825266  0.033138045            2 
 1311000    1.0370152   -6.8450567     516.9934  0.032862535  0.033129749            1 
 1312000    1.0294145   -6.8509077    516.06117  0.032778276  0.033121617            1 
 1313000    1.0443053   -6.8918793    515.22078  0.032699973   0.03311336            2 
 1314000     1.045303   -6.9086761    518.22949  0.032865899  0.033105038            5 
 1315000    1.0536445   -6.8559415    516.94795  0.032759693  0.033096852            4 
 1316000    1.0233522   -6.8842502    515.59606  0.032649193  0.033088697            2 
 1317000    1.0588513   -6.8753279    516.31778  0.032670069  0.033080426            3 
 1318000     1.046907   -6.8792315    516.73979  0.032671965  0.033072361            2 
 1319000    1.0115534    -6.841241    517.49962    0.0326952  0.033064256            2 
 1320000    1.0615882   -6.8754447    519.52963  0.032798588   0.03305616            2 
 1321000    1.0405266   -6.9105353    519.68205  0.032783374  0.033048085            2 
 1322000    1.0272396   -6.9197754    519.22583  0.032729818  0.033039925            4 
 1323000    1.0505125   -6.9047881    519.40419  0.032716313  0.033031845            3 
 1324000    1.0618715   -6.8940372    520.09337   0.03273498  0.033023682            3 
 1325000    1.0336935   -6.9246127    520.59665  0.032741928  0.033015639            4 
 1326000    1.0471901   -6.8827561    519.91597  0.032674458  0.033007518            5 
 1327000    1.0458934   -6.8823637     520.2137  0.032668532  0.032999396            4 
 1328000    1.0404605   -6.9099536    520.94579  0.032689872  0.032991267            2 
 1329000    1.0315403   -6.9272677    519.86025  0.032597206  0.032983043            4 
 1330000    1.0541569   -6.8884533    522.29967  0.032725543  0.032974774            2 
 1331000    1.0290081   -6.9016251    520.35774  0.032579372   0.03296657            4 
 1332000    1.0417144   -6.9245516    521.75352  0.032642237  0.032958289            1 
 1333000    1.0271747   -6.9020906    522.88538  0.032688508  0.032950254            2 
 1334000    1.0200963   -6.8867923    521.94414  0.032605206  0.032942127            2 
 1335000    1.0366876   -6.8915866    523.05125  0.032649891  0.032934001            1 
 1336000    1.0420074   -6.9069351    521.19166   0.03250946  0.032925846            3 
 1337000     1.028814   -6.9084663    521.52228  0.032505752  0.032917707            3 
 1338000    1.0358081   -6.8760905    522.31284  0.032530695  0.032909504            3 
 1339000    1.0289287   -6.8862466    522.66451  0.032528287   0.03290138            4 
 1340000    1.0442825    -6.927496    522.87372  0.032517022  0.032893178            4 
 1341000    1.0144945    -6.930435    522.69949  0.032481947   0.03288495            2 
 1342000     1.047363   -6.8926243    524.52265  0.032570954  0.032876849            2 
 1343000    1.0277746   -6.8837005    525.61403  0.032614422  0.032868842            2 
 1344000    1.0469957   -6.9047112    524.45325  0.032518183  0.032860901            2 
 1345000    1.0637757   -6.8810508    525.22261  0.032541674  0.032852751            2 
 1346000     1.042598   -6.9388312    523.12368  0.032387549  0.032844513            2 
 1347000    1.0176015   -6.9313417     523.7685  0.032403396  0.032836206            4 
 1348000    1.0594128   -6.9123024    525.71865  0.032499917  0.032827947            5 
 1349000    1.0461064   -6.9273009    523.56023   0.03234249  0.032819819            2 
 1350000     1.041381   -6.9390685    524.73601  0.032391112  0.032811585            3 
 1351000    1.0335739   -6.9188207     525.6336  0.032422502  0.032803542            4 
 1352000    1.0433802   -6.9118893    527.78124  0.032530895  0.032795565            2 
 1353000    1.0439921   -6.8733053    527.76365  0.032505768  0.032787559            2 
 1354000    1.0298006   -6.8826379    527.12224  0.032442284  0.032779545            3 
 1355000    1.0502478   -6.9186401    527.48546   0.03244068  0.032771313            2 
 1356000    1.0411944   -6.9209829    527.60571  0.032424147  0.032763013            3 
 1357000    1.0489922   -6.8929091    526.80309  0.032350963  0.032754838            7 
 1358000    1.0060841   -6.9373189    526.46088  0.032306141  0.032746739            6 
 1359000    1.0350778   -6.8748365    527.92622  0.032372223  0.032738531            2 
 1360000    1.0467515   -6.8881016    528.99239  0.032413749  0.032730304            2 
 1361000    1.0393745    -6.946803    528.70155  0.032372125  0.032722053            1 
 1362000    1.0411917   -6.9255227    528.42595  0.032331495  0.032713925            3 
 1363000    1.0430106   -6.9137647    528.88562  0.032335878  0.032705738            2 
 1364000     1.042404    -6.939963    528.40582  0.032282858  0.032697541            3 
 1365000    1.0385305   -6.9200918    531.66947  0.032458453  0.032689387            4 
 1366000    1.0389551   -6.9389493    531.48371   0.03242336  0.032681403            3 
 1367000    1.0307712   -6.9116084    531.38287  0.032393494  0.032673471            4 
 1368000    1.0196475   -6.9456272    530.02881   0.03228733  0.032665372            5 
 1369000    1.0201399   -6.9183174    532.88631  0.032437686  0.032657254            1 
 1370000    1.0221772   -6.9410392    530.16822  0.032248675  0.032649199            5 
 1371000    1.0275336   -6.9240785    532.03102   0.03233838  0.032640961            1 
 1372000    1.0465728   -6.9083708    532.17574  0.032323599  0.032632768            2 
 1373000    1.0491119   -6.8765811    533.08292  0.032355117  0.032624616            4 
 1374000    1.0173079   -6.9081275    532.26992  0.032282261  0.032616426            3 
 1375000    1.0484121   -6.8990949      531.619  0.032219333   0.03260817            4 
 1376000    1.0370222   -6.8809737    532.93064  0.032275354  0.032599941            2 
 1377000    1.0370096   -6.9277109    531.70445  0.032177708  0.032591759            3 
 1378000    1.0242774   -6.9076161     533.1005  0.032238782  0.032583606            4 
 1379000    1.0377553   -6.9290686    533.86934  0.032261865  0.032575507            3 
 1380000     1.055717   -6.8946049    533.73953  0.032230648  0.032567306            3 
 1381000    1.0230473   -6.9435462    532.50673  0.032132919  0.032559116            3 
 1382000    1.0427976   -6.8637014    534.22667  0.032213379  0.032550751            2 
 1383000    1.0388505   -6.9225254    532.71709  0.032099126  0.032542138            3 
 1384000    1.0298579   -6.9295308    533.68143  0.032133997  0.032533577            2 
 1385000    1.0591329    -6.932064    533.89574  0.032123691  0.032525147            2 
 1386000    1.0476181   -6.9436039    534.51553  0.032137778  0.032516839            2 
 1387000    1.0501605   -6.9225471    534.70655  0.032126084  0.032508439            4 
 1388000    1.0139395   -6.8858287    534.68632  0.032101724   0.03250012           14 
 1389000    1.0253469   -6.9333859    535.31491  0.032116325  0.032491764            2 
 1390000     1.038138   -6.9170487    534.77421  0.032060804  0.032483312            4 
 1391000    1.0093547   -6.9472962    535.05103  0.032054339  0.032474849            4 
 1392000    1.0285411   -6.9553206    535.42928  0.032053956    0.0324663            4 
 1393000    1.0234397   -6.9080183    536.50278  0.032095165  0.032457922            4 
 1394000    1.0342218   -6.9194091    536.99925   0.03210182  0.032449493            2 
 1395000    1.0053074   -6.9425787    537.24707  0.032093612   0.03244104            2 
 1396000    1.0273946   -6.9083584    537.20495  0.032068108  0.032432629            3 
 1397000    1.0290831   -6.9078561    537.59472  0.032068404  0.032424328            3 
 1398000    1.0330375   -6.9415836    537.82079  0.032058941  0.032415871            1 
 1399000     1.022092   -6.9262046    534.87164  0.031860355  0.032407247            1 
 1400000    1.0416562    -6.933705    537.89798  0.032017737  0.032398727            3 
 1401000      1.01636   -6.9016663    536.99015  0.031940884  0.032390075            2 
 1402000    1.0437298   -6.9074908     538.5135  0.032008648  0.032381432            4 
 1403000    1.0136817   -6.9079957    538.79904  0.032002794  0.032372741            2 
 1404000    1.0374592   -6.8982917    538.00352  0.031932783  0.032364114            2 
 1405000    1.0306622   -6.8642555    537.82973  0.031899747  0.032355389            3 
 1406000    1.0148278    -6.920253    539.09325  0.031951947  0.032346729            3 
 1407000    1.0084613   -6.9056242    539.28572  0.031940637  0.032338117            3 
 1408000     1.031963    -6.873652    539.19328  0.031912481  0.032329431            3 
 1409000    1.0255574   -6.9295986    539.05961  0.031881926  0.032320879            4 
 1410000    1.0159013   -6.9091656    539.36321  0.031877258  0.032312347            2 
 1411000    1.0395686   -6.9568082    539.95484  0.031889608  0.032303637            3 
 1412000    1.0251611   -6.9304467    539.07079  0.031814848  0.032294835            6 
 1413000    1.0201336   -6.9167032    541.18448   0.03191699  0.032286225            2 
 1414000    1.0400739   -6.9432372    540.96415  0.031881433  0.032277584            3 
 1415000    1.0127992   -6.9248239    542.58985  0.031954644  0.032269153            3 
 1416000      1.03182   -6.9541942    543.41889  0.031980867  0.032260702            3 
 1417000    1.0434434   -6.9168791    541.67534   0.03185576   0.03225232            3 
 1418000   0.99664927   -6.9245591    542.64669  0.031890379  0.032243953            2 
 1419000    1.0042997   -6.9395914    542.71234  0.031871761  0.032235613            3 
 1420000    1.0266189   -6.9175219    542.57024  0.031840977  0.032227182            3 
 1421000    1.0354753   -6.9135209    545.59928  0.031996204  0.032219032            3 
 1422000    1.0269017   -6.8954215     544.3193  0.031898693  0.032210998            3 
 1423000    1.0372317   -6.9000004    546.22075  0.031987629  0.032202972            2 
 1424000    1.0352523   -6.8868114    545.60114  0.031928905  0.032194919            3 
 1425000    1.0292989   -6.8817215    546.16287  0.031939349  0.032186968            1 
 1426000    1.0130711   -6.9244301    546.06215  0.031911065  0.032178961            9 
 1427000    1.0386277   -6.9338876    545.73332    0.0318695   0.03217069            2 
 1428000    1.0288145    -6.953545    544.82235  0.031794021  0.032162481            4 
 1429000    1.0419926   -6.9273482    546.77806  0.031885821  0.032154274            3 
 1430000    1.0090007   -6.8891458     546.5565  0.031850612  0.032146137            2 
 1431000    1.0118513   -6.9066953    544.99427  0.031737379  0.032137898            3 
 1432000    1.0290873    -6.953422    546.30347  0.031791403  0.032129667            3 
 1433000     1.022501   -6.9589815    546.02167   0.03175283  0.032121421            4 
 1434000    1.0266333   -6.9243483    549.33647  0.031923319  0.032113276            2 
 1435000   0.99938285   -6.9211946    548.66064  0.031861825   0.03210503            2 
 1436000    1.0334762   -6.9382738    545.87697  0.031678097  0.032096847            4 
 1437000     1.023686   -6.9386932    548.37472    0.0318009  0.032088721            2 
 1438000    1.0133311    -6.906503    549.66437  0.031853522  0.032080744            3 
 1439000    1.0343823   -6.9240642    548.60478  0.031770024  0.032072704            3 
 1440000    1.0112226   -6.9658198    547.86971  0.031705423  0.032064645            2 
 1441000     1.036563   -6.9349801    551.39201  0.031887116  0.032056521            3 
 1442000    1.0102367   -6.9080607     551.0427  0.031844816  0.032048478            2 
 1443000    1.0279619   -6.9440315    549.58305  0.031738453  0.032040273            4 
 1444000    1.0145393   -6.9522431     550.2112  0.031752724  0.032031978            3 
 1445000    1.0264327   -6.9340385    549.85127  0.031709993  0.032023652            6 
 1446000    1.0257738   -6.9452924    550.53426  0.031727424  0.032015347            2 
 1447000    1.0448488   -6.9355997    551.11981   0.03173922  0.032007245            3 
 1448000    1.0276899   -6.9201273     551.4784  0.031737937  0.031999193            1 
 1449000    1.0178261   -6.9258139     550.9181  0.031683811  0.031991198            3 
 1450000   0.99098966   -6.9235736    551.25016  0.031681044  0.031983229            3 
 1451000   0.99767737    -6.953593    551.82515  0.031692232  0.031975378            5 
 1452000    1.0191262   -6.9628242    551.96785  0.031678596  0.031967315            4 
 1453000    1.0306985    -6.947756    552.40466  0.031681846  0.031959273            2 
 1454000    1.0304931   -6.9368628    553.94361  0.031748258  0.031951378            2 
 1455000    1.0238892   -6.9731439    552.76576  0.031658978  0.031943481            2 
 1456000     1.030864   -6.9356826    554.36728  0.031728897  0.031935718            1 
 1457000    1.0152858   -6.9738156    552.42221  0.031595871  0.031927811            8 
 1458000    1.0154742   -6.9112512    555.62239   0.03175711  0.031920149            4 
 1459000    1.0001612   -6.9627306    554.43243  0.031667377  0.031912263            2 
 1460000    0.9981853    -6.936092    556.72304  0.031776429  0.031904536            1 
 1461000     1.013216   -6.9564124    555.84004  0.031704314  0.031896764            5 
 1462000    1.0014132   -6.9602555    556.12455  0.031698846  0.031889077            2 
 1463000    1.0173725   -6.9633055    555.40184  0.031636012   0.03188123            2 
 1464000    1.0307681   -6.9631621    556.54457  0.031679449  0.031873527            4 
 1465000    1.0265585   -6.9653476    556.00931  0.031627378  0.031865917            3 
 1466000    1.0120043   -6.9664863    557.47543  0.031689145  0.031858168            5 
 1467000    1.0020746   -6.9211235    557.68583  0.031679495  0.031850472            4 
 1468000    1.0047272   -6.9342055    556.87806  0.031612061  0.031842932            1 
 1469000   0.99792392    -6.964978    557.54739  0.031628511  0.031835195            4 
 1470000     1.030483   -6.9102815    557.12534  0.031583069  0.031827508            2 
 1471000    1.0052017   -6.9255164    560.32502  0.031742863  0.031820009            3 
 1472000    1.0133294   -6.9262756    559.36584  0.031666997  0.031812412            2 
 1473000    1.0085197   -6.9315918    559.35378  0.031644817  0.031804955            2 
 1474000    1.0087362    -6.943123    559.52948  0.031633281  0.031797465            4 
 1475000    1.0080342   -6.9610368    559.56505  0.031613845  0.031789955            2 
 1476000    1.0075723   -6.9744763    561.12284  0.031680377  0.031782452            4 
 1477000    1.0174959   -6.9444448    561.15309  0.031660635  0.031774951            2 
 1478000    1.0203656      -6.9394     559.1543  0.031526517  0.031767504            5 
 1479000    1.0174792   -6.9368463    562.52736  0.031695253  0.031759945            3 
 1480000    1.0191442   -6.9126409    561.56913  0.031619883  0.031752696            3 
 1481000   0.99915261   -6.9466171    561.61575  0.031601157  0.031745215            2 
 1482000    1.0126435    -6.941284    561.36785  0.031565894   0.03173761            3 
 1483000    1.0123422   -6.9488569    563.73453  0.031677598  0.031730106            4 
 1484000    1.0136224   -6.9571876    561.64133  0.031538709  0.031722614            2 
 1485000    1.0138011   -6.9566732    563.07722  0.031598049  0.031714938            3 
 1486000    1.0140728   -6.9576372    562.57806  0.031548792  0.031707365            7 
 1487000    1.0268963   -6.9711763    562.70088  0.031534458  0.031699852            2 
 1488000    1.0203613   -6.9714704    563.18573   0.03154042  0.031692428            1 
 1489000    1.0070121   -6.9391827    564.19926  0.031575961  0.031685029            3 
 1490000   0.99690772   -6.9610662    565.31713  0.031617289  0.031677662            2 
 1491000   0.99876036   -6.9156692    565.33985  0.031597354  0.031670252            2 
 1492000    1.0123916   -6.9298986    565.75859  0.031599564  0.031662943            3 
 1493000    1.0050609   -6.9486587    566.54128  0.031622085  0.031655749            3 
 1494000    1.0033562   -6.9097195    566.13472  0.031578242    0.0316484            5 
 1495000     1.002361   -6.9626078    567.01206  0.031606023  0.031641168            3 
 1496000   0.99368948   -6.9576191    565.56847  0.031504482  0.031633845            4 
 1497000   0.98713835   -6.9844395    567.36116  0.031583231  0.031626651            2 
 1498000    1.0087924   -6.9267785    566.28102  0.031502059  0.031619275            3 
 1499000    1.0216613   -6.9362034    566.39179  0.031487202  0.031612037            9 
 1500000   0.99703022   -6.9329766    565.46459  0.031414699  0.031604696            3 
 1501000    1.0142595   -6.9352505    567.02649  0.031480485  0.031597366            3 
 1502000    0.9969747   -6.9676378    567.74942  0.031499635  0.031590086            3 
 1503000    1.0322621    -6.965324    568.74991  0.031534149  0.031582758            2 
 1504000    1.0056566   -6.9591681     569.0946   0.03153228  0.031575448            3 
 1505000    1.0203636   -6.9336239    568.63192   0.03148571  0.031568169            3 
 1506000    1.0011701   -6.9722681    568.04031  0.031432067  0.031560837            4 
 1507000    1.0055772   -6.9385676    570.04962  0.031522319  0.031553422            1 
 1508000    1.0140164   -6.9720626    567.37821  0.031353791  0.031545874            2 
 1509000   0.99448935   -7.0256638    568.63043  0.031402166  0.031538376            9 
 1510000   0.99850627   -6.9483207    570.69644  0.031495389  0.031531003            2 
 1511000    1.0233245   -6.9594648    571.02327   0.03149257  0.031523781            4 
 1512000   0.99853016   -6.9670726    571.16115   0.03147934  0.031516646            9 
 1513000    1.0020548   -6.9606672     569.8811  0.031388032  0.031509378            3 
 1514000   0.98995046   -6.9693434     569.0961  0.031324092  0.031502048            2 
 1515000    1.0060892   -6.9332454    572.09421  0.031468329  0.031494678            4 
 1516000    1.0026097   -6.9566282    571.23558  0.031400373   0.03148742            3 
 1517000    1.0179959   -6.9652044    571.95811  0.031419364  0.031480236            3 
 1518000    1.0070112   -6.9379249    574.46582  0.031536332  0.031473131            5 
 1519000   0.99547601   -6.9483972    572.44022  0.031404445  0.031466033            5 
 1520000    1.0006364   -6.9541603    574.05532  0.031472331  0.031458895            2 
 1521000    1.0220542   -6.9744798    572.98947  0.031393243  0.031451687            2 
 1522000    1.0051525    -6.989844    571.04853  0.031266345  0.031444354            3 
 1523000   0.99022346    -6.960157    572.60317   0.03133088   0.03143706            3 
 1524000   0.99002366   -6.9443392    572.75358  0.031318546  0.031429778            2 
 1525000   0.99984624   -6.9704884    572.64415   0.03129203  0.031422492            2 
 1526000    0.9829132   -6.9411759    573.33173  0.031309072  0.031415205            3 
 1527000    1.0196072   -6.9668022     574.5669  0.031355976  0.031407828            5 
 1528000    1.0080965   -6.9369678    574.21048  0.031316016  0.031400469            4 
 1529000    1.0061514   -6.9267025     574.3421  0.031302709  0.031393182            5 
 1530000    1.0000173   -6.9664553    574.23521  0.031276428  0.031385707            5 
 1531000   0.99956159   -6.9755971    574.51637  0.031271303  0.031378127            4 
 1532000    1.0074013   -6.9699272    574.88486  0.031270935  0.031370648            3 
 1533000    1.0072779   -6.9617002    576.56544  0.031341892  0.031363388            5 
 1534000    1.0112718   -6.9509351    575.10438  0.031242089  0.031355934            2 
 1535000    1.0202198   -6.9659047    574.55061  0.031191673   0.03134855            1 
 1536000    1.0144589   -6.9351839    576.11095  0.031256019  0.031341172            2 
 1537000    1.0015557   -6.9607289    576.70901  0.031268109  0.031333807            3 
 1538000       1.0061    -6.968122    576.39301  0.031230657  0.031326613            3 
 1539000    1.0228284   -7.0028795    575.85487  0.031181225  0.031319356            2 
 1540000    1.0047457   -6.9713686    579.45157  0.031355604  0.031312046            3 
 1541000    1.0084644   -6.9493657    577.25122  0.031216268  0.031304834            3 
 1542000    1.0214362   -6.9629945    578.84554  0.031282184  0.031297699            4 
 1543000    1.0287357   -6.9883527    577.77932  0.031204327  0.031290554            3 
 1544000     1.013219    -6.974276    576.47224  0.031113571  0.031283311            3 
 1545000    1.0020836   -6.9805831    577.40898  0.031143958  0.031275998            3 
 1546000    1.0145755   -6.9936893    579.05268  0.031212412  0.031268588            2 
 1547000    1.0049888   -6.9404913    578.08633  0.031140182  0.031261241            3 
 1548000    1.0011926   -6.9707668    578.55032  0.031145043  0.031253896            2 
 1549000    1.0097402   -6.9682583    580.25356  0.031216568  0.031246745            2 
 1550000    1.0224229   -6.9635979    579.62159  0.031162451  0.031239448            3 
 1551000    1.0107075   -6.9665707    580.44936  0.031186834  0.031232111            4 
 1552000    1.0352095   -6.9780218    578.96477  0.031087026  0.031224653            2 
 1553000     1.009874   -6.9712649    579.26672  0.031083211  0.031217232            2 
 1554000   0.99604505   -6.9587175    579.83034  0.031093433  0.031209753            2 
 1555000    1.0051817   -6.9442484    581.79939   0.03117896   0.03120238            1 
 1556000    1.0002643   -6.9296406    581.12109  0.031122595  0.031195123            2 
 1557000     1.013269   -6.9449317    583.19086  0.031213384  0.031187906            2 
 1558000   0.99973428   -6.9466943    580.69838  0.031060033  0.031180568            1 
 1559000    1.0202586   -6.9858023    581.23678  0.031068889  0.031173179            3 
 1560000    0.9874657   -6.9667956    581.97922  0.031088634  0.031165784            3 
 1561000    1.0174578    -6.998754    582.46897  0.031094863  0.031158451            2 
 1562000    1.0012747   -6.9722452    582.44899   0.03107389  0.031151145            2 
 1563000    1.0149589   -7.0057345    581.24146  0.030989628  0.031143926            2 
 1564000    1.0125107   -6.9242164     583.6434  0.031097794  0.031136491            2 
 1565000   0.99842335   -6.9580483    581.99521   0.03099016  0.031129166            5 
 1566000    1.0233781   -6.9797787    584.14242  0.031084633  0.031121951            4 
 1567000    1.0127833   -6.9674973    583.11343  0.031010074  0.031114751            3 
 1568000    1.0131749   -6.9994288    585.42411  0.031113101   0.03110754            5 
 1569000   0.97175612   -6.9817764    584.74734  0.031057326  0.031100375            3 
 1570000    1.0070807   -6.9839801    585.33475  0.031068723  0.031093187            2 
 1571000    0.9992893   -6.9384028    586.64346  0.031118367  0.031086151            5 
 1572000    1.0050685   -6.9745575    584.58347   0.03098937  0.031078983            5 
 1573000    1.0038463   -6.9861509    585.08801  0.030996398  0.031071772            4 
 1574000    1.0214252   -6.9692277    584.75203  0.030958917  0.031064622            1 
 1575000    1.0166765   -6.9597156    586.33552  0.031023043  0.031057353            4 
 1576000     1.008789   -7.0023476    586.27503   0.03100016  0.031050081            2 
 1577000    1.0132378   -6.9882801    586.10441  0.030971487  0.031042657            4 
 1578000    1.0039033   -6.9620724    586.16124   0.03095486  0.031035268            2 
 1579000   0.98887884   -6.9962809    585.37825  0.030893934  0.031027839            5 
 1580000   0.98877373   -6.9993601    584.89087  0.030848675  0.031020413            3 
 1581000   0.98463119   -6.9292439    587.08974  0.030945063  0.031013086            3 
 1582000    1.0069525   -6.9862128    587.24541  0.030933703  0.031005694            3 
 1583000     1.002586   -6.9686904    588.08716  0.030958473  0.030998455            2 
 1584000    1.0090763   -6.9774275    588.03822  0.030936354  0.030991176            2 
 1585000    0.9914661   -6.9818048    588.72001  0.030952682  0.030983875            5 
 1586000   0.99457061   -6.9609486    587.78229  0.030883895  0.030976599            4 
 1587000    1.0069992   -6.9701757    588.99749  0.030928245  0.030969366            2 
 1588000    1.0211102   -6.9914924    589.59936  0.030940353  0.030962198            4 
 1589000    1.0143252   -7.0007813    587.51863  0.030811759  0.030954835            5 
 1590000   0.98391826   -7.0162016    586.48472  0.030738193   0.03094739            5 
 1591000   0.99657969   -6.9896005     589.5755  0.030880762  0.030939992            4 
 1592000   0.97937927   -6.9653709    589.36745  0.030850474   0.03093263            4 
 1593000     1.005749   -6.9489835    590.42238  0.030886293  0.030925421            4 
 1594000   0.98102612   -6.9877254    590.08194  0.030849118   0.03091818            6 
 1595000    1.0047138   -6.9993699    590.19928  0.030835908  0.030910807            3 
 1596000   0.99057621   -6.9586738    590.36462  0.030825221  0.030903502            3 
 1597000    1.0032984   -6.9878381    589.72034  0.030772299   0.03089613            3 
 1598000   0.99110222    -6.954096    591.46284  0.030843911  0.030888892            3 
 1599000   0.99524892   -7.0183736    591.73312  0.030838707  0.030881555            3 
 1600000   0.99682576   -6.9696648     592.0241  0.030834588  0.030874351            2 
 1601000    0.9953803   -6.9795605    592.40995  0.030835413  0.030867211            3 
 1602000   0.99367365   -6.9632849    593.90339  0.030893851  0.030860044            2 
 1603000   0.99978156   -6.9970323    593.44319  0.030850655  0.030852835            2 
 1604000   0.97269741   -7.0019673    593.45737  0.030832158   0.03084574            5 
 1605000    1.0167027   -7.0019581    592.02897  0.030738783   0.03083861            2 
 1606000    0.9772376   -6.9810469    593.26644  0.030783854  0.030831549            2 
 1607000   0.99633252   -6.9772028    594.01271  0.030803397  0.030824469            4 
 1608000   0.99525954   -6.9805754    594.60664  0.030815021  0.030817352            2 
 1609000   0.99006854   -7.0091933    593.93749  0.030761213  0.030810235            1 
 1610000   0.98960282   -7.0064331    593.17745  0.030702766  0.030802919            2 
 1611000   0.99883385   -6.9667521    594.76983  0.030766078  0.030795715            1 
 1612000    1.0137531   -7.0163271    594.90929  0.030754203  0.030788518            3 
 1613000   0.96538465   -6.9761914    595.55659  0.030768578  0.030781368            1 
 1614000   0.98485078   -6.9888669    595.71847  0.030757872  0.030774285            3 
 1615000   0.98154426   -7.0043795    595.49597  0.030727346   0.03076701            5 
 1616000   0.99877955    -7.017036    596.23908  0.030746652  0.030759706            4 
 1617000   0.98169915   -7.0211696    595.28221  0.030678325   0.03075258            3 
 1618000    1.0060767   -7.0085853    596.53644  0.030723962  0.030745532            2 
 1619000   0.98068874   -6.9575842    597.03473  0.030730633  0.030738493            3 
 1620000    0.9742481   -6.9622029     596.7926  0.030699208  0.030731399            6 
 1621000   0.98994973   -6.9744189    598.08879  0.030746904  0.030724348            4 
 1622000   0.98375145   -6.9994949    597.47234  0.030696277  0.030717179            4 
 1623000    1.0100292   -7.0067381    598.40766  0.030725388  0.030710085            3 
 1624000   0.98540217   -7.0264026    597.71457  0.030670903  0.030703029            2 
 1625000    1.0186286   -6.9872079    598.37246  0.030685767   0.03069599            4 
 1626000     1.017121   -6.9449197    599.58857  0.030729221  0.030689008            2 
 1627000   0.97946904   -6.9961638     598.9172  0.030675947  0.030681954            3 
 1628000     1.006082   -6.9800044    597.97118   0.03060868  0.030674849            3 
 1629000    1.0050489   -6.9854345    598.77642  0.030631083  0.030667744            2 
 1630000   0.98756446   -6.9649634    600.17203  0.030683642  0.030660572            6 
 1631000   0.98546009   -7.0089478    599.39249     0.030625   0.03065347            1 
 1632000     1.006302   -6.9923816    599.00893  0.030586649  0.030646244            2 
 1633000     1.014169   -7.0206476    598.41702  0.030537713  0.030639222            5 
 1634000   0.99721937    -7.024685    599.98314  0.030598895  0.030632175            5 
 1635000   0.99673403    -7.010794    599.91229  0.030576569  0.030625182            3 
 1636000   0.98620425   -7.0218598    600.21545  0.030573322  0.030618114            3 
 1637000   0.95914952   -7.0021144    602.17142  0.030654216  0.030610987            2 
 1638000   0.98965521   -6.9632498    600.79025  0.030565235  0.030603916            2 
 1639000   0.98550919   -7.0050496    602.11997  0.030614194  0.030596881            3 
 1640000    0.9688587   -7.0233326    601.08663   0.03054302   0.03058971            3 
 1641000   0.95698169   -6.9913594     604.0994  0.030677402  0.030582635            3 
 1642000    1.0117245    -6.992175    602.58995  0.030582113  0.030575609            3 
 1643000   0.99709904    -7.034255    601.28827  0.030497478  0.030568477            3 
 1644000   0.98842106   -7.0051605    600.76728  0.030452518  0.030561302            3 
 1645000   0.97281813   -7.0135779    602.80015  0.030536988  0.030554193            2 
 1646000   0.98653081   -7.0111504    602.93719  0.030525374  0.030547016            3 
 1647000   0.97663312   -7.0149251    603.57286  0.030539003  0.030539875            5 
 1648000    0.9799379   -7.0046594    603.94573  0.030539327  0.030532664            5 
 1649000   0.98749346   -6.9821945    603.40958  0.030493712  0.030525431            4 
 1650000   0.97394198   -7.0219297    604.70085  0.030540447  0.030518326            2 
 1651000   0.96645217   -7.0141772    605.40926  0.030557706  0.030511261            1 
 1652000   0.97425795   -6.9847722     605.3136  0.030534382  0.030504337            2 
 1653000   0.98518803   -7.0052317     607.6096  0.030631659   0.03049759            2 
 1654000   0.98031632   -6.9698629    605.88631  0.030526315  0.030490708            2 
 1655000   0.99349427   -6.9832821    607.63489  0.030595916  0.030483831            2 
 1656000   0.99167867   -6.9705649    607.24666  0.030557904   0.03047681            1 
 1657000   0.98021413   -6.9900986    606.56798   0.03050533  0.030469883            3 
 1658000   0.98577513   -7.0136755    605.79569  0.030448115  0.030462912            2 
 1659000   0.96476808   -6.9944043    608.61881  0.030571569  0.030456071            2 
 1660000   0.98139534    -6.994014    608.35974  0.030540147  0.030449129            3 
 1661000   0.98231145   -7.0200132    607.00138  0.030453611  0.030442285            2 
 1662000   0.99288575   -7.0018445    608.23851  0.030497318  0.030435385            1 
 1663000   0.97365085   -7.0015051    609.01545  0.030517912  0.030428491            3 
 1664000   0.95112406   -7.0376149    606.40135  0.030368658  0.030421523            4 
 1665000   0.97093136   -7.0042113    606.52042  0.030356377  0.030414471            4 
 1666000    0.9740264   -6.9971751    607.77594  0.030400958  0.030407415            4 
 1667000    0.9689385   -7.0254603     607.7401  0.030380929  0.030400449            3 
 1668000   0.99469664   -6.9738074    607.87597  0.030369503  0.030393358            5 
 1669000   0.99322794   -7.0182424    607.44224  0.030329651  0.030386258            2 
 1670000   0.99457703   -7.0159673    608.81508  0.030379994  0.030379146            2 
 1671000   0.98804005    -7.001116    609.31937  0.030386962  0.030372127            1 
 1672000   0.99340018   -7.0156644    608.63038  0.030334449  0.030365151            3 
 1673000   0.99014526   -7.0200416    609.69235  0.030369215  0.030358253            2 
 1674000   0.96942992   -7.0237029    609.51409  0.030342199  0.030351298            5 
 1675000   0.95370285   -6.9907314    610.54453   0.03037535  0.030344443            2 
 1676000   0.99218575     -7.02646    610.60244  0.030360105  0.030337385            3 
 1677000   0.97227487   -6.9976847    612.97057  0.030459678  0.030330435            3 
 1678000   0.99641498   -7.0028726    612.86785  0.030436425  0.030323493            4 
 1679000   0.98547672   -7.0174178    611.93236  0.030371866  0.030316644            3 
 1680000   0.99218735   -7.0121275     611.6141  0.030338001   0.03030992            4 
 1681000    0.9864655   -6.9777871    613.32735  0.030404886   0.03030309            2 
 1682000   0.99955645   -6.9931622    613.07867  0.030374488  0.030296276            2 
 1683000   0.99361481   -6.9899733    613.17322  0.030361122   0.03028958            8 
 1684000   0.96708604   -7.0395122    612.01289  0.030285673  0.030282674            3 
 1685000   0.98239112   -7.0158036    612.98205  0.030315631  0.030275891            6 
 1686000   0.97000165   -7.0350375    610.46605  0.030173292  0.030269001            2 
 1687000   0.97238946   -7.0042522    612.60168  0.030260901  0.030262154            8 
 1688000   0.98985258   -7.0496647     613.5406  0.030289327  0.030255323            2 
 1689000   0.97219571   -7.0333473    612.20882  0.030205685  0.030248432            2 
 1690000   0.98304405   -6.9902554    614.06895  0.030279534  0.030241618            1 
 1691000   0.97882283   -6.9935694    614.43598  0.030279715  0.030234727            3 
 1692000   0.97115341    -6.992023    616.00909  0.030339297  0.030227838            5 
 1693000   0.97163802   -7.0349729    614.07865  0.030226356  0.030221193            2 
 1694000   0.97666234   -7.0321686    615.03705  0.030255659  0.030214348            3 
 1695000   0.98076497   -7.0068624    614.05004  0.030189284  0.030207488            3 
 1696000   0.97308246    -7.027994    616.13344  0.030273852  0.030200583            2 
 1697000   0.99219676    -6.992192    617.15773  0.030306312  0.030193768            4 
 1698000   0.98045647   -7.0158806    615.03395  0.030184234  0.030186885            2 
 1699000   0.98732003   -7.0043944    616.97414  0.030261631  0.030180057            3 
 1700000   0.99271387   -7.0213055    617.24538  0.030257126  0.030173294            2 
 1701000   0.99262418   -7.0254125    616.24549  0.030190353  0.030166564            1 
 1702000    1.0018582   -7.0122176    618.64858  0.030290275  0.030159701            2 
 1703000   0.98320189   -7.0322783    616.49819  0.030167263  0.030152824            4 
 1704000   0.96914835   -6.9994435    616.48239  0.030148786  0.030145918            2 
 1705000    0.9855765   -7.0156755    618.18149  0.030214149  0.030139079            2 
 1706000   0.97822532   -6.9915018    616.81424  0.030129652  0.030132323            9 
 1707000   0.98051988   -7.0215102    617.70888  0.030155677  0.030125341            1 
 1708000   0.99523509    -7.011454    616.99149   0.03010302  0.030118432            5 
 1709000   0.96790409   -7.0153842     617.5454  0.030112415  0.030111501            3 
 1710000   0.99622012   -7.0078546    618.24499  0.030128898  0.030104486            2 
 1711000   0.94830426   -7.0463047    618.89084  0.030142745  0.030097449            2 
 1712000   0.96122996   -7.0492127    616.98899  0.030032564  0.030090306            3 
 1713000   0.99795481   -7.0145564    617.21846  0.030026195  0.030083183            3 
 1714000   0.97780633    -7.038056    618.51406  0.030071668  0.030076176            6 
 1715000   0.97754137   -7.0396927    619.26964  0.030090848  0.030069163            2 
 1716000   0.99567177   -7.0007381    619.69029   0.03009374  0.030062108            3 
 1717000   0.99507452   -7.0201041    619.31998   0.03005824  0.030055042            2 
 1718000   0.97666869   -7.0131794    619.75219  0.030061709  0.030047995            2 
 1719000    0.9829362   -7.0767991    616.79144  0.029900691  0.030040861            3 
 1720000   0.95855513   -7.0133752    619.41849  0.030010586  0.030033696            3 
 1721000   0.97709379   -7.0284827    619.01399  0.029973561  0.030026527            2 
 1722000   0.97372977   -6.9646954    621.17989   0.03006097  0.030019528            7 
 1723000   0.96107409   -7.0351454    619.73613  0.029973696  0.030012481            7 
 1724000   0.97469628   -6.9905264    621.10184  0.030022324  0.030005405            3 
 1725000   0.98478767   -7.0248513    623.08686  0.030100814  0.029998391            5 
 1726000   0.99324304   -7.0323782    620.74571  0.029970341  0.029991243            7 
 1727000    0.9652788    -7.012677    621.39407  0.029984273  0.029984036            3 
 1728000    0.9880751   -7.0210298    619.57356  0.029879126  0.029976804            6 
 1729000   0.97539736   -7.0429957    620.14041  0.029889166  0.029969611            6 
 1730000   0.98535926   -7.0443366    620.35278  0.029882119  0.029962387            5 
 1731000    1.0003811   -7.0532724     621.9505  0.029941773  0.029955139            4 
 1732000    1.0009204   -7.0410374    620.33792  0.029846898  0.029947886            3 
 1733000   0.94497636   -7.0191227     621.3645  0.029879039  0.029940628           11 
 1734000   0.98246477   -7.0240187    620.40482  0.029815687  0.029933362            2 
 1735000   0.97727428   -7.0253795     621.7322  0.029862257   0.02992612            3 
 1736000   0.96155494   -7.0310704    619.81259  0.029752909  0.029918775            2 
 1737000   0.98394526   -7.0614918    621.06785  0.029796001  0.029911466            3 
 1738000   0.96390316   -7.0377952    623.69827  0.029904981  0.029904159            3 
 1739000   0.97651946   -7.0554116    623.21971  0.029864851  0.029896971            3 
 1740000    1.0046368   -7.0241493    623.65303   0.02986844  0.029889765           10 
 1741000   0.97316865   -7.0252824    624.29389  0.029881959   0.02988253            5 
 1742000   0.95208355   -6.9910052    624.28959  0.029864599  0.029875207            3 
 1743000   0.99731946    -7.032818    623.48496  0.029808996   0.02986791            2 
 1744000   0.96906569    -7.072348    622.60195  0.029749711   0.02986056            2 
 1745000   0.98337338   -7.0152904    623.64641  0.029782541  0.029853285            1 
 1746000   0.97365474   -7.0573937    623.43759  0.029755517   0.02984599            5 
 1747000   0.99024652   -7.0684294    624.26461  0.029777934  0.029838625            3 
 1748000   0.97980235   -7.0532785    623.77992  0.029737792  0.029831345            3 
 1749000   0.96908135   -7.0425383    625.16218  0.029786648  0.029823992            3 
 1750000   0.96120219   -7.0196185    624.88649    0.0297565  0.029816741            3 
 1751000   0.95617635   -7.0372272    622.59107  0.029630262  0.029809299            3 
 1752000   0.96062091   -7.0154568    623.85709  0.029673568   0.02980192            2 
 1753000   0.95148033   -7.0309037    624.97797  0.029709924  0.029794473            2 
 1754000     1.000048   -7.0511714     623.5586  0.029625551  0.029787037            3 
 1755000   0.98571596   -7.0275919    626.17909    0.0297331  0.029779613            5 
 1756000   0.96711949   -7.0422573    624.20603  0.029622533  0.029772207            2 
 1757000   0.96335117   -7.0583209    623.38699  0.029566828  0.029764696            3 
 1758000   0.96423837   -7.0416315    623.42698  0.029551905  0.029757153            3 
 1759000   0.95658274   -7.0363002    626.88161  0.029698769  0.029749641            2 
 1760000   0.99292711   -7.0406369    625.92265  0.029636489  0.029742208            3 
 1761000   0.98485832   -7.0445684    624.82238  0.029567593  0.029734632            2 
 1762000   0.97474226   -7.0225951    625.60464  0.029587809  0.029727138            2 
 1763000   0.99040788   -7.0395139    626.23537   0.02960084  0.029719599            4 
 1764000   0.97735333   -7.0502148    628.58432  0.029695027   0.02971213            3 
 1765000   0.97426191   -7.0205499    627.95231  0.029648362  0.029704768            5 
 1766000   0.97805989   -7.0221757    628.62826   0.02966347  0.029697403            2 
 1767000   0.94722742   -7.0599495    627.87756  0.029611279   0.02969001            3 
 1768000   0.96541316   -7.0715791    626.70691  0.029539353  0.029682546            3 
 1769000   0.96702896    -7.055871    626.49376  0.029512613  0.029675101            8 
 1770000   0.97365089    -7.044059    627.99074  0.029566419  0.029667632            2 
 1771000    0.9716594   -7.0423936    628.53789   0.02957547  0.029660249            5 
 1772000   0.97169092   -7.0682717     627.3452   0.02950269  0.029652807            4 
 1773000   0.95630153   -7.0574941    628.48024  0.029539398   0.02964532            2 
 1774000   0.96721941   -7.0880478    627.54975  0.029479037  0.029637669            2 
 1775000   0.94739321   -7.0429976    628.09589   0.02948807  0.029630054            4 
 1776000    0.9872179   -7.0637779    628.03939  0.029468815  0.029622445            3 
 1777000   0.96213309   -7.0471508    626.96817  0.029401996  0.029614925            4 
 1778000   0.97606886   -7.0517532    629.22637    0.0294913  0.029607349            2 
 1779000   0.95877957   -7.0695328    629.00986   0.02946458   0.02959983            4 
 1780000   0.95370734   -7.0510491    628.64543  0.029430966  0.029592368            1 
 1781000   0.95931115   -7.0564975    629.01851  0.029431897  0.029584929            1 
 1782000   0.97732847   -7.0582599     630.9935  0.029507739  0.029577555            2 
 1783000   0.94679907   -7.0326734     630.6989  0.029477421  0.029570144            2 
 1784000    0.9372321   -7.0598375    630.90434  0.029470494  0.029562711            3 
 1785000   0.94799267   -7.0843698     629.4154  0.029384472  0.029555173            2 
 1786000   0.95927447   -7.0349402    628.87866  0.029342976  0.029547598            3 
 1787000   0.95514443   -7.0431662    630.80411  0.029416345  0.029540238            3 
 1788000   0.97866062   -7.0436141    629.58758  0.029343194   0.02953276            2 
 1789000   0.96574778    -7.051537    633.16573  0.029493466  0.029525317            3 
 1790000   0.95235971   -7.0784717    633.16841  0.029477114  0.029517928            4 
 1791000   0.97551507   -7.0151205    634.08446  0.029503279  0.029510632            5 
 1792000   0.97141891   -7.0414998    633.77165  0.029472268  0.029503303            3 
 1793000   0.95919736   -7.0563269     632.7343  0.029407618  0.029495847            2 
 1794000   0.97835682   -7.0341505    632.66226  0.029387879  0.029488451            2 
 1795000   0.94341144   -7.0605053    633.55353  0.029412884  0.029481048            1 
 1796000   0.95030165   -7.0294374      633.372  0.029388085  0.029473588            5 
 1797000    0.9748687   -7.0568268    632.79793  0.029345109  0.029466018            4 
 1798000   0.98992486   -7.0607739    631.86252  0.029285434  0.029458532            3 
 1799000   0.95142545   -7.0762149    632.60187  0.029303403  0.029451114            5 
 1800000   0.94759708   -7.0776181    633.53868  0.029330494  0.029443647            4 
 1801000   0.97538851   -7.0489523    633.80587  0.029326572  0.029436194            9 
 1802000   0.98233992   -7.0534343    633.38931  0.029291033  0.029428801            5 
 1803000   0.96143785   -7.0312482    634.96871  0.029347786  0.029421411            2 
 1804000   0.93922546   -7.0484451    635.11951  0.029338484  0.029414068            2 
 1805000   0.96854973   -7.0680844    636.07017  0.029366121  0.029406676            4 
 1806000   0.94181161   -7.0472679     636.2206  0.029356801  0.029399352            3 
 1807000   0.99040986   -7.0510007    634.82984  0.029276418  0.029391964            2 
 1808000    0.9567785   -7.0629585    635.97072   0.02931281  0.029384583            6 
 1809000   0.97333056   -7.0472712    635.59272  0.029279193  0.029377189            8 
 1810000   0.95487905   -7.0658024     635.0415  0.029237638  0.029369801            2 
 1811000   0.98306705   -7.0666457    634.88603   0.02921434  0.029362397           16 
 1812000   0.93498448   -7.0517432    636.83582  0.029287887  0.029355053            2 
 1813000   0.96674881   -7.0417367    636.80957  0.029270526  0.029347682            3 
 1814000   0.97291811   -7.0713753    635.04271  0.029173223  0.029340404            2 
 1815000   0.96060516   -7.0544665    636.16088  0.029208489  0.029333045            2 
 1816000   0.95709086   -7.0623995    638.68061  0.029308031  0.029325803            3 
 1817000    0.9652963   -7.0596803    637.98668  0.029260075  0.029318562            2 
 1818000   0.99485504    -7.078698    638.50291  0.029267643   0.02931132            4 
 1819000   0.96254186    -7.057807    638.09256  0.029232754  0.029304053            3 
 1820000   0.96687362   -7.0867407    639.89647  0.029299289   0.02929675            4 
 1821000   0.94221158   -7.0677091    638.52459  0.029220419   0.02928941            3 
 1822000   0.96364882   -7.0493307    639.70057  0.029258167  0.029282118            6 
 1823000   0.93608701   -7.0620793    638.76219  0.029199223  0.029274918            2 
 1824000   0.96888973   -7.0326786    639.45838  0.029215021  0.029267661            1 
 1825000   0.95899675   -7.0540237    639.67987  0.029209126  0.029260494            3 
 1826000   0.99642874    -7.040694    640.27535  0.029220306   0.02925336            3 
 1827000   0.95490259   -7.0713039     641.1887  0.029245973  0.029246025            3 
 1828000   0.93764241   -7.1096931     640.0732  0.029179121  0.029238688            1 
 1829000   0.95147074   -7.0748937    641.74249  0.029239224  0.029231454            2 
 1830000   0.96868814   -7.0786547    640.66785   0.02917431  0.029224182            2 
 1831000   0.97520782   -7.0796378    639.76936  0.029117484  0.029216986            3 
 1832000   0.97024785   -7.0723614    642.50167  0.029225876  0.029209871            4 
 1833000   0.94527296   -7.0567543    643.27227  0.029244966  0.029202849            3 
 1834000   0.94068829   -7.0588018    642.12285  0.029176792  0.029195835            2 
 1835000   0.95373616   -7.0285415    643.77124  0.029235751  0.029188673            2 
 1836000   0.94389769   -7.0689661    643.12977  0.029190712  0.029181476            3 
 1837000   0.93757481   -7.0825485     641.9639  0.029121934  0.029174293            2 
 1838000   0.95816907   -7.0514808    642.38065  0.029124984  0.029167078            2 
 1839000   0.96056055   -7.0506235    642.24717  0.029103098  0.029159935            3 
 1840000   0.93900293   -7.0736918    644.24469  0.029177749   0.02915289            3 
 1841000   0.94232163   -7.0557543     642.8009  0.029096546  0.029145673            5 
 1842000   0.96017032   -7.0786713    643.13385  0.029095813  0.029138451            6 
 1843000   0.94342875   -7.1023133    642.65346  0.029058304  0.029131188            6 
 1844000   0.95773598   -7.0727656    644.46939  0.029124611  0.029123946            8 
 1845000   0.93401124   -7.0570187    643.48049  0.029064159  0.029116757            3 
 1846000   0.94183991   -7.0760179    643.71902  0.029059183  0.029109516            3 
 1847000   0.96369971   -7.0718824    642.65447  0.028995419  0.029102276            2 
 1848000   0.97490373   -7.0666638    644.31146  0.029054449  0.029094972           10 
 1849000   0.95786808   -7.0781429    644.36791   0.02904128  0.029087678            2 
 1850000    0.9549743   -7.0898789    644.30097  0.029022566  0.029080423            3 
 1851000   0.95709032   -7.0262002    646.83401  0.029120926  0.029073089            4 
 1852000   0.95795426   -7.0528821     644.7433  0.029011127   0.02906593            6 
 1853000   0.96732934   -7.0935639    643.35281  0.028932938   0.02905873            3 
 1854000   0.95391606   -7.0647794    644.33623  0.028961535  0.029051487            4 
 1855000   0.95655259     -7.08544     647.3333  0.029080561  0.029044345            4 
 1856000    0.9531506   -7.0580959    646.00754  0.029005367  0.029037056            2 
 1857000   0.94137923   -7.0639868      646.728  0.029022079  0.029029854            2 
 1858000     0.968304   -7.0534409    647.34309  0.029034046  0.029022682            7 
 1859000   0.95606945   -7.0834594    645.32387  0.028927912  0.029015569            2 
 1860000   0.94171781   -7.0932096    646.85553  0.028980983  0.029008477            2 
 1861000   0.95376066     -7.07504    646.53876  0.028951225  0.029001352            3 
 1862000   0.95903981   -7.0653054    649.22031  0.029055689  0.028994229            2 
 1863000   0.94709933   -7.0698363    649.56462  0.029055494  0.028987112            4 
 1864000   0.94645287   -7.0700845    648.97227  0.029013424  0.028980121            6 
 1865000   0.96383642   -7.1005757    647.65888  0.028939181   0.02897317            2 
 1866000   0.97686856   -7.0855257    649.45505  0.029003888  0.028966182            2 
 1867000   0.94755048   -7.0529309    650.73564  0.029045511  0.028959215            2 
 1868000   0.94346463   -7.0499377    650.91701  0.029038054  0.028952381            3 
 1869000    0.9477916   -7.0486164    651.46511  0.029046955  0.028945617            5 
 1870000   0.93489518   -7.0237737    651.41408  0.029029148  0.028938821            3 
 1871000     0.960701    -7.068426    651.69476  0.029026134  0.028932044            3 
 1872000   0.94280133   -7.0562141    651.23614  0.028990213  0.028925137            2 
 1873000   0.94421131   -7.0678334    654.63102  0.029125779  0.028918321            3 
 1874000   0.95743407   -7.0765659    652.58154  0.029019101  0.028911542            6 
 1875000   0.94138635   -7.0970498    651.28135  0.028945838  0.028904672            4 
 1876000   0.93997926    -7.097381    651.66666  0.028947524  0.028897826            4 
 1877000   0.95876605   -7.1115998    652.42426  0.028965737  0.028890994            7 
 1878000   0.94273498   -7.0469621    655.28264  0.029077149  0.028884151            3 
 1879000   0.96257949   -7.0797143     654.7351  0.029037391  0.028877409            1 
 1880000   0.95105298   -7.0973764    654.61992   0.02901684  0.028870701            2 
 1881000   0.93322052   -7.0496932    655.83405  0.029055203  0.028864038            3 
 1882000   0.96829822   -7.0927911    654.76701  0.028992517  0.028857315            3 
 1883000   0.92995182   -7.0689471    654.06092  0.028945872  0.028850658            1 
 1884000   0.95637295   -7.0859158    654.96552   0.02897052  0.028843901            2 
 1885000    0.9564287   -7.0716268    655.23921   0.02896725  0.028837229            3 
 1886000   0.94727387   -7.0715523    654.54535  0.028921233   0.02883048            2 
 1887000    0.9407358   -7.0528426    654.87373  0.028920409  0.028823704            3 
 1888000   0.95685318   -7.0984711     653.8548  0.028860116  0.028817005            2 
 1889000   0.95131673   -7.0605734    654.22047   0.02886097  0.028810232            3 
 1890000   0.95895524   -7.0768419     654.0925  0.028840057  0.028803366            2 
 1891000   0.92196791   -7.0911716    655.40482  0.028882638   0.02879653            2 
 1892000   0.91951938   -7.0940338    656.21496  0.028903055  0.028789734            5 
 1893000   0.94810495   -7.0619628    655.88238  0.028873146  0.028782931            3 
 1894000   0.93942308   -7.1087391     656.3319   0.02887768  0.028776182            2 
 1895000   0.93930465   -7.0860936    658.08453  0.028939513  0.028769417            3 
 1896000   0.94422225   -7.0771156    657.71396  0.028907962  0.028762655            2 
 1897000   0.96301717   -7.0927839    655.11628   0.02877861  0.028755889            4 
 1898000   0.95992464   -7.0540961    659.28636  0.028946539  0.028749186            4 
 1899000   0.94220555   -7.0684208      658.519  0.028897622  0.028742514           13 
 1900000   0.95254139   -7.0644024    658.60166  0.028886038  0.028735845            3 
 1901000   0.94995273   -7.0925769    657.61667  0.028827664   0.02872903            3 
 1902000   0.97034971   -7.1074919    656.26861  0.028753444  0.028722212            2 
 1903000   0.94332499   -7.0963869    658.59597  0.028840251  0.028715408            5 
 1904000   0.95831046   -7.0783228    657.83796  0.028791928  0.028708705            2 
 1905000   0.96863484   -7.0573092    658.84222  0.028820745   0.02870203            4 
 1906000   0.94111513    -7.151222    658.87435  0.028807028  0.028695321            4 
 1907000   0.93462749   -7.0611796    660.01984  0.028841979  0.028688704            5 
 1908000   0.92327862   -7.0733255    659.46717  0.028802724  0.028682065            5 
 1909000   0.93778066   -7.1261829    659.27387  0.028779198  0.028675411            6 
 1910000   0.99209046   -7.0883333    660.45746  0.028815771  0.028668785            1 
 1911000   0.97128838    -7.089481    660.03425  0.028782236  0.028662214            7 
 1912000   0.95707612   -7.0861913    661.40084  0.028826745  0.028655685            5 
 1913000   0.95194819   -7.0810976    660.52266  0.028773421  0.028649072            2 
 1914000   0.91474782   -7.1424325    660.81666  0.028771189  0.028642465            4 
 1915000   0.93133619   -7.0856598    661.16455  0.028771303  0.028635774            4 
 1916000   0.94211621   -7.1160618     662.1926     0.028801  0.028629076            3 
 1917000   0.92882288   -7.0978776    661.42632  0.028752666  0.028622432            4 
 1918000   0.96310408   -7.0923626    660.37725  0.028692095  0.028615748            6 
 1919000   0.95301329   -7.1131073    661.34613  0.028719217  0.028609012            5 
 1920000   0.93050261   -7.0968267    661.47847  0.028710003  0.028602261            4 
 1921000   0.93872563    -7.074514    662.28123  0.028729882  0.028595582            3 
 1922000   0.94304075   -7.0667347    661.89344   0.02869812  0.028588895            3 
 1923000   0.95660999   -7.0840015    661.19542  0.028652948  0.028582199            1 
 1924000   0.93807461   -7.1287115    660.51742  0.028608689  0.028575477            1 
 1925000   0.96474943   -7.0673698    663.59498  0.028727056  0.028568822            2 
 1926000   0.94353729   -7.1206348    662.11147  0.028647952  0.028562096            3 
 1927000   0.95688724   -7.0741155    663.95824  0.028712949  0.028555439            2 
 1928000   0.94685806   -7.0827502    663.46757  0.028676849  0.028548821            2 
 1929000   0.95808228   -7.1012044    664.26506  0.028696434  0.028542178            3 
 1930000   0.94322811    -7.073139    664.31542   0.02868374  0.028535529            4 
 1931000   0.96536722   -7.1180629    663.06283   0.02861483  0.028528854            6 
 1932000   0.94336423    -7.089409     663.8631  0.028634537  0.028522173            2 
 1933000    0.9425155   -7.1214445    662.27559  0.028551284   0.02851546            2 
 1934000   0.94352708    -7.119193    665.61334   0.02868034  0.028508709            2 
 1935000   0.94243039   -7.1022847    664.95656  0.028637234  0.028502038            3 
 1936000   0.94830776   -7.1147781    664.49729  0.028602673  0.028495375            4 
 1937000    0.9467466    -7.105873    665.80432  0.028644137  0.028488627            2 
 1938000   0.95604596   -7.1299163    666.20788   0.02864671  0.028481884            4 
 1939000   0.95297917   -7.1106872     664.1012  0.028541396   0.02847521            2 
 1940000   0.95342923   -7.0730819    666.85691  0.028645056  0.028468528            3 
 1941000   0.96102306   -7.1023873    666.09291  0.028597497  0.028461824            5 
 1942000     0.930311   -7.1058342    666.51771     0.028601  0.028455246            3 
 1943000    0.9355102   -7.0995101    665.50898  0.028543017  0.028448626            2 
 1944000   0.94129735   -7.1010286    666.54017  0.028572538  0.028442033            5 
 1945000   0.92790634   -7.0940494    668.46851  0.028640468   0.02843546            2 
 1946000    0.9283076   -7.1463243     668.0627  0.028608372  0.028428813            3 
 1947000   0.95273535   -7.1014248    667.46986  0.028568304  0.028422218            5 
 1948000   0.94153281   -7.1171746    669.18325  0.028626936  0.028415734            3 
 1949000   0.94257958   -7.1178513    668.32474   0.02857554  0.028409275            4 
 1950000   0.95820154   -7.1032735    668.71215  0.028577442  0.028402843            4 
 1951000   0.94373161   -7.0953707      668.238  0.028542542  0.028396352            3 
 1952000   0.92661737   -7.1105022    669.58449  0.028585403  0.028389828            3 
 1953000   0.93532124    -7.134733    667.52106  0.028482722  0.028383239            5 
 1954000   0.94634413   -7.1004011    667.82643  0.028481168  0.028376678            2 
 1955000   0.94529945   -7.1112276    670.68324  0.028588373  0.028370139            2 
 1956000   0.91943938   -7.1319376    667.29814  0.028429539  0.028363538            2 
 1957000   0.94642756   -7.0790041    670.48878  0.028550876   0.02835695            1 
 1958000   0.92911796   -7.1408351    670.06409   0.02851822  0.028350376            3 
 1959000   0.92950617     -7.06554    670.51034  0.028522645  0.028343787            2 
 1960000   0.94035513    -7.121144    670.34222  0.028500945  0.028337215            4 
 1961000      0.95639   -7.1136049    669.26426  0.028440603  0.028330564            5 
 1962000    0.9129864   -7.0679046    671.42023  0.028517679  0.028323869            2 
 1963000   0.94154375    -7.123268    670.37074  0.028458598   0.02831722            4 
 1964000   0.93208307   -7.1364531    669.47702  0.028406187  0.028310546            6 
 1965000     0.944878   -7.1289449     669.1513  0.028377918  0.028303866            4 
 1966000   0.92466691   -7.1380105    669.95903  0.028397721  0.028297111            4 
 1967000   0.93261351   -7.1165239    670.40934  0.028402361   0.02829042            2 
 1968000   0.93142431   -7.1494951    669.92818  0.028367555  0.028283686            4 
 1969000   0.94965327   -7.1381331    669.10209  0.028318186  0.028276978            2 
 1970000    0.9390416   -7.1443784    671.82207  0.028418869  0.028270256            5 
 1971000   0.92990112   -7.0880231    673.34575  0.028468872  0.028263654            3 
 1972000   0.92206854   -7.1084389    673.24972  0.028450377  0.028257176            6 
 1973000   0.93455546   -7.0966978    672.11748  0.028388135  0.028250591            6 
 1974000   0.92463919   -7.1137248    672.88381  0.028406105  0.028244014            4 
 1975000   0.92366365    -7.117985    675.55415  0.028504394  0.028237571            5 
 1976000   0.95066105   -7.1105933    673.24917  0.028392762  0.028231062            5 
 1977000   0.94538677   -7.1172339    675.11983  0.028457251  0.028224442            2 
 1978000   0.94208534   -7.1000128    674.43541   0.02841403  0.028217903            3 
 1979000   0.92594686   -7.0984379    673.74714   0.02837069  0.028211334            4 
 1980000   0.93538245   -7.1075669    673.75039  0.028356498  0.028204741            5 
 1981000   0.92994206   -7.1170285    675.60387  0.028420153  0.028198223            2 
 1982000   0.93070626   -7.1358868    674.51085  0.028359857  0.028191719            3 
 1983000   0.92577428   -7.1012951    675.83686   0.02840128  0.028185238            2 
 1984000   0.93793778    -7.125216    674.22102  0.028319095  0.028178784            3 
 1985000    0.9373148   -7.1286415    676.20648  0.028388181  0.028172239            4 
 1986000   0.95387355    -7.111555    676.60367  0.028390554  0.028165779            4 
 1987000   0.93325783   -7.1212852    676.76135  0.028382878  0.028159388            6 
 1988000   0.94052162   -7.1061972    677.09116  0.028382426  0.028152949            4 
 1989000   0.92536223   -7.0998367    678.22147  0.028415513  0.028146495            4 
 1990000   0.92775117   -7.0768626    678.48541  0.028412287  0.028140095            5 
 1991000      0.91705     -7.11958    677.52011  0.028357614  0.028133684            7 
 1992000   0.92051488   -7.1145356    676.82973  0.028314497  0.028127199            3 
 1993000   0.94850068   -7.0953403    679.02196  0.028391953  0.028120836            2 
 1994000   0.93331969   -7.0832927    679.77681  0.028409262  0.028114516            3 
 1995000   0.91315895   -7.1151566    677.16183  0.028285791  0.028108037            3 
 1996000   0.93129296   -7.1220449    677.75723  0.028296478  0.028101555            2 
 1997000   0.94917715   -7.1059116    677.95031  0.028290365  0.028095005            4 
 1998000   0.93344462    -7.125932    679.47903  0.028339966  0.028088552            2 
 1999000   0.93371159   -7.1370767    677.87667  0.028258991  0.028082052            3 
 2000000   0.92442236   -7.1320844    677.64624   0.02823526  0.028075565            4 
 2001000   0.93437386    -7.141318    678.46835  0.028255387  0.028069139            2 
 2002000   0.92385427   -7.1525336    676.34313  0.028152811  0.028062652            3 
 2003000   0.94485544   -7.1287377    679.94373  0.028288556   0.02805603            3 
 2004000   0.91902638   -7.0865394     679.7438  0.028266126  0.028049541            4 
 2005000   0.91739891   -7.0918453     679.2305  0.028230694  0.028043092            5 
 2006000    0.9302633   -7.1479039     678.2009  0.028173849  0.028036629            3 
 2007000   0.92772153   -7.1062565    680.00755  0.028234826  0.028030155            4 
 2008000    0.9316865   -7.1103928     679.2802   0.02819058  0.028023702            5 
 2009000   0.93580679   -7.1498736    680.61083  0.028231742  0.028017242            2 
 2010000   0.96360854   -7.1324657    680.89749  0.028229581  0.028010701            4 
 2011000   0.94160928   -7.1751452    677.99941  0.028095451  0.028004111            5 
 2012000   0.93244044   -7.1657842    678.99647  0.028122783  0.027997501            3 
 2013000   0.93480027   -7.1563952    678.94191  0.028106554  0.027990893            4 
 2014000    0.9200319   -7.1271315    681.43668  0.028195824  0.027984379            4 
 2015000   0.94978033   -7.1317485    680.36249  0.028137406  0.027977781            2 
 2016000   0.93128208   -7.1347257    680.86779  0.028144337  0.027971184            3 
 2017000   0.93799669   -7.1572486    680.59453  0.028119093  0.027964581            4 
 2018000   0.94018493    -7.102657    680.29149  0.028092645  0.027958062            7 
 2019000   0.92218518   -7.1131535    680.87052   0.02810263  0.027951521            3 
 2020000   0.94228931   -7.1100401    682.77246  0.028167181   0.02794492            2 
 2021000   0.92680894   -7.1823646    681.59283  0.028104603  0.027938323            4 
 2022000   0.94592002   -7.1103353      680.466  0.028044263  0.027931652            3 
 2023000   0.93291512   -7.1367341    679.55022  0.027992677  0.027924977            3 
 2024000   0.92911476   -7.1241512    681.26757  0.028049554  0.027918336            3 
 2025000   0.92040819   -7.1480027    679.37509  0.027957822  0.027911744            3 
 2026000   0.92834629   -7.0868147    682.68906  0.028080333  0.027905092            2 
 2027000   0.93038306   -7.1218352    681.73268  0.028027162  0.027898503            4 
 2028000   0.91216272    -7.125069    684.33272  0.028120181  0.027891939            3 
 2029000    0.9227118   -7.1128584    685.22559  0.028142993  0.027885461            5 
 2030000   0.94909792   -7.1463136    683.23213  0.028047296  0.027878953            4 
 2031000   0.94164772   -7.1440956    683.59022  0.028048179  0.027872458            2 
 2032000   0.92665688   -7.1307406    685.51896  0.028113474   0.02786593            5 
 2033000    0.9183534   -7.1401258    685.35312  0.028092848   0.02785946            4 
 2034000   0.92683309   -7.0863264    684.93413   0.02806187  0.027853048            3 
 2035000   0.91220411   -7.1169618    685.56518  0.028073922  0.027846557            2 
 2036000   0.92242567   -7.1063429     684.7581    0.0280271  0.027840063            3 
 2037000   0.93242094   -7.1773432    681.57479  0.027883112  0.027833507            7 
 2038000   0.91925025   -7.1389526    685.16075  0.028016059  0.027826937            5 
 2039000   0.90816081   -7.1497925    685.02793  0.027996891  0.027820451            3 
 2040000   0.93057539   -7.1430106    686.05651  0.028025184  0.027813961            5 
 2041000   0.92718487   -7.1580067    684.39884  0.027943771  0.027807422            7 
 2042000   0.94591554   -7.1178203    686.54954  0.028017856   0.02780088            3 
 2043000   0.91423927   -7.1207145    685.25305  0.027951258  0.027794392            4 
 2044000    0.9139034   -7.1273753    685.31459  0.027940092  0.027787878            3 
 2045000   0.94302258   -7.1666806    685.79007  0.027945806  0.027781326            5 
 2046000   0.92352172   -7.1379804    685.44862  0.027918239  0.027774808            2 
 2047000   0.92831599   -7.1224784    686.38124  0.027942568  0.027768301            5 
 2048000   0.91636707   -7.1411192    687.13305  0.027959515  0.027761757            4 
 2049000   0.93705515   -7.1335067     687.8533  0.027975163  0.027755213            3 
 2050000   0.90807383   -7.1531367    686.37035  0.027901234  0.027748648            2 
 2051000   0.93661826   -7.1456855    686.74272   0.02790276  0.027742028            7 
 2052000   0.92334962    -7.111917    686.76482  0.027890059  0.027735495            3 
 2053000    0.9023437    -7.133523    688.09766  0.027930576  0.027729019            3 
 2054000    0.9157461   -7.1328513    688.59962  0.027937343  0.027722578            3 
 2055000   0.91462422   -7.1212752    690.67677  0.028007979  0.027716148            5 
 2056000    0.9259658   -7.1047054    688.80606  0.027918533  0.027709632            2 
 2057000   0.92127999   -7.1266527    688.12366  0.027877316  0.027703162            5 
 2058000   0.93786847   -7.1226504    688.78795  0.027890668  0.027696637            2 
 2059000   0.91919372   -7.1256208    688.39767  0.027861327  0.027690064            6 
 2060000   0.92688109    -7.124704    689.49679  0.027892265   0.02768361            6 
 2061000   0.90725894   -7.1521422    688.43762  0.027835906  0.027677099            5 
 2062000   0.92398215   -7.1585159    689.67152  0.027872273  0.027670577            3 
 2063000   0.91089212   -7.0945804    690.02534  0.027873055  0.027664037            4 
 2064000   0.92294225   -7.1314132    690.14615  0.027864428  0.027657518            5 
 2065000   0.92442209     -7.15725    688.78725  0.027796095  0.027650978            4 
 2066000   0.94077134   -7.1748663    689.14002  0.027796871  0.027644345            4 
 2067000   0.91496516     -7.11972    687.92037  0.027734251  0.027637693            2 
 2068000   0.91480741   -7.1307922    691.45762  0.027863379  0.027631139            3 
 2069000   0.91804755    -7.149507    688.77392   0.02774182  0.027624614            4 
 2070000   0.94867144   -7.1226328    688.64809  0.027723353  0.027618061           10 
 2071000   0.90896269    -7.157604    687.68815   0.02767134  0.027611338            4 
 2072000   0.92716142   -7.1522867     689.1597  0.027717169  0.027604594            2 
 2073000   0.91145492   -7.0934724    689.81301  0.027730061  0.027597921            5 
 2074000   0.91109483   -7.1568787    689.99341  0.027723939  0.027591268            4 
 2075000   0.90973989   -7.1509914    689.17511  0.027677715  0.027584608            3 
 2076000   0.91750507   -7.0891262    689.50789  0.027677741  0.027577967            5 
 2077000   0.92034653   -7.1510173    689.75035  0.027674143  0.027571369            3 
 2078000   0.93062823   -7.1360317    688.81666  0.027623382  0.027564727            3 
 2079000   0.91121863   -7.1384469    690.76914  0.027688357  0.027558077            2 
 2080000   0.91850891   -7.1519166    691.62737   0.02770943  0.027551456            3 
 2081000   0.92876035   -7.1426109    690.13291  0.027636269  0.027544719            4 
 2082000   0.93146588   -7.1545484    690.68571  0.027645121  0.027537953            2 
 2083000    0.9115492   -7.1555829    691.74834  0.027674361  0.027531284            3 
 2084000   0.93057514    -7.148167    690.58597  0.027614602  0.027524572            6 
 2085000   0.93128867   -7.1365671     692.2288  0.027667018  0.027517887           11 
 2086000    0.9264567    -7.129131    691.72112  0.027633474  0.027511272            2 
 2087000   0.90705769   -7.1597878    692.45779  0.027649648  0.027504579            3 
 2088000   0.92605511   -7.1323873    692.36963  0.027632888  0.027497964            4 
 2089000   0.91393462   -7.1312029    692.71075  0.027633267  0.027491359            5 
 2090000   0.89224439   -7.1273021     692.2823  0.027602962   0.02748478            5 
 2091000   0.93030726   -7.1459185    692.11836  0.027583228  0.027478202            7 
 2092000   0.93421792   -7.1686898    692.64279  0.027590933  0.027471509            4 
 2093000   0.92928612   -7.1309875    693.75427  0.027622005   0.02746484            4 
 2094000   0.92990812   -7.1423448    693.35462  0.027592909  0.027458163            3 
 2095000   0.91783935   -7.1212699    694.49866  0.027625245  0.027451519            3 
 2096000   0.91585459   -7.1335129    694.37275  0.027607059  0.027444863            3 
 2097000   0.91501876   -7.1339044     694.4282  0.027596097  0.027438302            4 
 2098000   0.91307262   -7.1402611    696.10631  0.027649599  0.027431766            2 
 2099000   0.91658464   -7.1387913    694.75371  0.027582726  0.027425105            1 
 2100000   0.88615093   -7.1368553    694.36957  0.027554348  0.027418458            4 
 2101000   0.91317648   -7.1734701    694.12081  0.027531366  0.027411772            2 
 2102000   0.90922295   -7.1657286    693.66435  0.027500173  0.027405089            7 
 2103000   0.90257204    -7.171696    693.68254  0.027487817  0.027398371            3 
 2104000   0.92740448   -7.1702948    694.96187  0.027525423  0.027391673            5 
 2105000   0.93569322    -7.192812    693.82401    0.0274673  0.027384984            3 
 2106000   0.92150545   -7.1490858    694.12302   0.02746609  0.027378317            5 
 2107000   0.90645378   -7.1491423    694.92349  0.027484713  0.027371615            6 
 2108000   0.92315355   -7.1474606    695.55715  0.027496725  0.027364977            3 
 2109000   0.91535417   -7.1609683    694.14344  0.027427827  0.027358343            5 
 2110000   0.92319374   -7.1195632    697.15752  0.027533867  0.027351723            6 
 2111000   0.89674338   -7.1750473    697.02466   0.02751558  0.027345223            1 
 2112000   0.91333007   -7.1654715    698.42836  0.027557937  0.027338625            2 
 2113000   0.92250254   -7.1514218    697.26055  0.027498839  0.027332027            2 
 2114000   0.92555072   -7.1799694    695.08606  0.027400113  0.027325398            2 
 2115000   0.91201442    -7.165768    696.46952  0.027441668  0.027318766            3 
 2116000   0.91608023   -7.1352711    696.74924  0.027439715  0.027312066            6 
 2117000   0.93287912   -7.1588615    697.19188  0.027444177  0.027305454            3 
 2118000   0.90847793   -7.1499092    697.57008    0.0274461  0.027298795            5 
 2119000   0.92234992   -7.1596551    697.29557  0.027422352  0.027292115            3 
 2120000   0.91480718   -7.2048635    697.42587  0.027414539  0.027285465            5 
 2121000   0.89882586   -7.1666518    697.58245  0.027407766  0.027278878            5 
 2122000   0.91714256   -7.1440495    698.92612  0.027447617  0.027272253            2 
 2123000   0.92470187   -7.1786432    696.67987  0.027346517  0.027265595            1 
 2124000   0.90249401   -7.1570732    698.94043  0.027422333  0.027258978            2 
 2125000   0.91435085   -7.1935293    699.22843  0.027420723  0.027252498            5 
 2126000   0.90908185   -7.1717803    699.50433   0.02741864  0.027246031            2 
 2127000   0.91266181   -7.1724054    698.58813  0.027369853  0.027239478            4 
 2128000   0.91136452   -7.1661185    699.45446  0.027390917  0.027232966            3 
 2129000   0.92453609   -7.1617473    699.41142  0.027376367   0.02722641            4 
 2130000    0.9175667   -7.1388581    702.55644  0.027486559  0.027219908            3 
 2131000   0.91665395   -7.1994097    700.75604  0.027403255  0.027213414            2 
 2132000   0.94242726   -7.1722281    701.04644  0.027401753  0.027206901            3 
 2133000   0.93130025   -7.1308602    700.68145  0.027374646  0.027200429            1 
 2134000   0.90773685   -7.1640425    702.37107  0.027427799  0.027194003            4 
 2135000   0.90171878    -7.189962    700.00615  0.027322644  0.027187531            3 
 2136000   0.91809032   -7.1574985    704.22362  0.027474392  0.027181062            2 
 2137000   0.90382258   -7.1676103    702.87651  0.027409004  0.027174652            4 
 2138000   0.90595195   -7.1751508    701.94249  0.027359779  0.027168187            2 
 2139000   0.89737393    -7.148749     702.6871  0.027375997  0.027161775            3 
 2140000   0.92322813   -7.1507763      703.347  0.027388902  0.027155369            2 
 2141000   0.90395503   -7.1667936       703.22  0.027371166  0.027149018            3 
 2142000   0.92994371   -7.1683856     704.2733  0.027399366  0.027142623            3 
 2143000   0.90578685   -7.1962731      702.914  0.027333722  0.027136221            4 
 2144000   0.92440679   -7.1821924    703.27493  0.027335002  0.027129803            5 
 2145000    0.9096843     -7.15989    704.77244  0.027380437   0.02712342            6 
 2146000   0.91573432   -7.1785888    705.19723  0.027384173  0.027117077            6 
 2147000   0.91936136   -7.1530767    706.22097  0.027411154  0.027110743            4 
 2148000   0.92868599   -7.1765584    703.32661  0.027286104  0.027104372            3 
 2149000   0.91334774   -7.2131423    703.80521  0.027291966  0.027097945            2 
 2150000   0.91784255   -7.1601141    706.09984  0.027368211  0.027091567            3 
 2151000   0.88022553   -7.1719859    706.38141  0.027366396  0.027085148            4 
 2152000   0.91085733   -7.1850739    704.79244  0.027292148  0.027078773            5 
 2153000   0.89902079   -7.2088422    705.51215  0.027307329  0.027072449            4 
 2154000   0.91858513   -7.1536627    707.92531  0.027388011  0.027066108            3 
 2155000   0.91197948   -7.1736132    705.07045  0.027264905  0.027059772            2 
 2156000   0.88173643   -7.1933506    704.69354  0.027237691  0.027053419            2 
 2157000   0.90126087   -7.1647372    705.87494  0.027270705   0.02704697            3 
 2158000   0.89957812   -7.1827788    706.33104  0.027275681  0.027040489            7 
 2159000   0.92174168   -7.1459476    706.81244  0.027281629  0.027034074            4 
 2160000   0.91952381   -7.1793716    705.44108  0.027216091  0.027027664            4 
 2161000    0.9071076    -7.160473    706.35971  0.027238922  0.027021256            6 
 2162000    0.9074324   -7.1801565      706.679  0.027238629   0.02701495            2 
 2163000   0.92365532   -7.1664497    707.62984  0.027262669  0.027008586            3 
 2164000   0.90003463   -7.1822145    704.98331  0.027148156  0.027002136            4 
 2165000   0.90707455   -7.1912375    707.15004  0.027219016  0.026995764            4 
 2166000    0.9246804   -7.1683176    706.81906  0.027193716  0.026989352            9 
 2167000   0.87872543   -7.1549336    709.03001   0.02726619  0.026983032            3 
 2168000   0.91656022   -7.2104474     707.7669  0.027205062  0.026976664            3 
 2169000   0.91089625    -7.179559    708.85292  0.027234245  0.026970329            4 
 2170000   0.92167781   -7.1599354    708.90138  0.027223555  0.026964041            5 
 2171000   0.89249021    -7.141323     710.5135  0.027272896  0.026957828            5 
 2172000   0.89161816   -7.1724799    708.84678  0.027196393   0.02695148            4 
 2173000   0.91237268   -7.1813331      709.064  0.027192208   0.02694511            2 
 2174000   0.89692275   -7.1473659    709.33992  0.027190276  0.026938756            2 
 2175000    0.9144914   -7.1968988     708.6354  0.027150782  0.026932358            5 
 2176000   0.91322163   -7.2030493    709.16729  0.027158674  0.026925971            3 
 2177000   0.92562574     -7.14757    708.37481  0.027115863  0.026919547            4 
 2178000   0.89516311   -7.1815847    709.88561  0.027161218  0.026913127            1 
 2179000   0.90232679   -7.1831673    709.31224  0.027126826  0.026906648            2 
 2180000   0.89804574   -7.1640535    710.97561  0.027177967  0.026900209            4 
 2181000   0.90119087   -7.2000968    709.00306  0.027090137  0.026893795            2 
 2182000   0.93410572   -7.1756187    710.24749  0.027125248  0.026887414            8 
 2183000   0.89045884   -7.2050484    708.55581  0.027048244  0.026880987            5 
 2184000   0.90601837   -7.1826412    708.85977  0.027047458  0.026874596            4 
 2185000   0.89212125   -7.2064713    709.21041  0.027048452    0.0268682            5 
 2186000   0.88159181   -7.1828799     708.6038  0.027012954  0.026861778            4 
 2187000   0.89498617   -7.1775536    710.36117  0.027067565  0.026855434            4 
 2188000   0.91950726    -7.170275    710.87358   0.02707471  0.026848965            3 
 2189000    0.9004357   -7.1830955    710.59439  0.027051713  0.026842617            6 
 2190000   0.88859919   -7.2096512    711.06576  0.027057297  0.026836194            9 
 2191000   0.90997479   -7.1656105    709.70214  0.026993083  0.026829714            4 
 2192000   0.89061045   -7.2240474    708.95039  0.026952189  0.026823248            3 
 2193000   0.90530571   -7.1580272    711.67511  0.027043438  0.026816773            3 
 2194000   0.89382855   -7.1816859    712.29321  0.027054589  0.026810318            4 
 2195000   0.89608969   -7.2164131    709.52138   0.02693703  0.026803923            4 
 2196000   0.92845854   -7.1824056    710.72978   0.02697062  0.026797437            2 
 2197000   0.88573131   -7.1922184    710.32756  0.026943087   0.02679097            2 
 2198000   0.90940873   -7.2214642    713.05704  0.027034313  0.026784467            5 
 2199000   0.89025383   -7.1712639    710.82596   0.02693747  0.026777992            3 
 2200000    0.9148325   -7.1912769    711.61505  0.026955115  0.026771539            2 
 2201000   0.91486514   -7.1681017    713.06048  0.026997595  0.026765073            4 
 2202000   0.91746124   -7.1614401    713.56297  0.027004351  0.026758629            4 
 2203000   0.88606862   -7.1822884    711.15855  0.026901141  0.026752178            5 
 2204000   0.88649936   -7.2259194    711.91094  0.026917383  0.026745668            5 
 2205000   0.92096859   -7.2216377    711.92952  0.026905877  0.026739169            4 
 2206000   0.89027084   -7.2015257    713.82861   0.02696542  0.026732664            5 
 2207000   0.90929575   -7.1721534    712.27927  0.026894701   0.02672611            3 
 2208000   0.90649223   -7.2018659    711.58379  0.026856272  0.026719538            2 
 2209000   0.88535481   -7.1785957    712.29119  0.026870801  0.026713016            5 
 2210000   0.89614975   -7.1954236    715.15855  0.026966763  0.026706566            4 
 2211000   0.91188128   -7.1876161    714.93293  0.026946062  0.026700066            1 
 2212000   0.92542118   -7.1862058     714.5941  0.026921116  0.026693588            4 
 2213000   0.89786144   -7.1428697    712.89049  0.026844799  0.026687137            5 
 2214000   0.89773736   -7.1776539    714.12678  0.026879207  0.026680697            2 
 2215000   0.90244319   -7.2077861    712.89107  0.026820582  0.026674226            4 
 2216000   0.90132458   -7.2043869    712.75467  0.026803349  0.026667704            4 
 2217000   0.89508113    -7.165305    713.43559  0.026816854  0.026661211            2 
 2218000    0.9021503   -7.1779693    713.48128   0.02680648  0.026654697            6 
 2219000   0.88144735   -7.1848932    713.85445  0.026808414  0.026648135            7 
 2220000   0.89923074   -7.1673603    715.90488  0.026873306  0.026641623            3 
 2221000   0.88013525   -7.1949356    713.11302  0.026756454  0.026635087            4 
 2222000   0.89397286   -7.1978032    714.31155  0.026789362  0.026628565            7 
 2223000   0.91040404   -7.1941076    715.13656  0.026808238  0.026622014            3 
 2224000   0.90578596   -7.2058922    716.32472  0.026840704  0.026615426            2 
 2225000   0.89254269    -7.209302    714.75577  0.026769879  0.026608854            4 
 2226000   0.89169474   -7.2397775    713.39047  0.026706741  0.026602215            4 
 2227000    0.8961117   -7.1657507    716.53061  0.026812251  0.026595633            4 
 2228000   0.89432045   -7.1818529    714.22404  0.026713945  0.026589088            2 
 2229000   0.90059067   -7.2041667    714.22579  0.026702026  0.026582506            6 
 2230000   0.89111684   -7.1980758    715.88587  0.026752088  0.026575885            4 
 2231000    0.8971982   -7.2022245    714.05925  0.026671868  0.026569299            9 
 2232000   0.89750202   -7.2128393     714.8992  0.026691278  0.026562677            3 
 2233000    0.8956236   -7.1958128    711.46949  0.026551332  0.026555948            4 
 2234000   0.88604922   -7.1875969    715.90185  0.026704784  0.026549288            4 
 2235000   0.89276402   -7.2099474    715.21536  0.026667239   0.02654264            3 
 2236000   0.89403572   -7.1796722     714.9292  0.026644648  0.026535992            4 
 2237000   0.89912177   -7.1932453    715.10708  0.026639364  0.026529344            3 
 2238000   0.87472758   -7.1882444    713.75378  0.026577069   0.02652265            5 
 2239000   0.89950737   -7.2105343     713.8412  0.026568453  0.026515956            3 
 2240000   0.88378749   -7.1998541     715.1825  0.026606492  0.026509195            4 
 2241000   0.86614458   -7.1981063    713.23248  0.026522106  0.026502417           11 
 2242000   0.87934607   -7.1994357    716.31494  0.026624849  0.026495679            3 
 2243000   0.88181866   -7.1691769    719.31686  0.026724508  0.026489045            2 
 2244000   0.90709077   -7.1812406    717.19572  0.026633828  0.026482503            4 
 2245000   0.88028059   -7.1903499    717.24356   0.02662374  0.026475936            5 
 2246000   0.89251533   -7.2135022    715.50144  0.026547248  0.026469307            4 
 2247000   0.89620995   -7.2022975    716.81053  0.026583983  0.026462764           12 
 2248000   0.91045298   -7.2288146     717.4546  0.026596034  0.026456165            3 
 2249000   0.89037401   -7.2114263    717.66621  0.026592049   0.02644952            3 
 2250000   0.87740803     -7.20284    720.90382  0.026700141  0.026442918            3 
 2251000   0.88339105   -7.2045919    715.37813  0.026483716  0.026436366            4 
 2252000   0.90788424   -7.1764263    718.30344  0.026580204  0.026429782            3 
 2253000    0.9177971   -7.1670216    719.96488  0.026629859  0.026423171            5 
 2254000   0.87364694    -7.198299    718.70468  0.026571454  0.026416558            3 
 2255000   0.88287302   -7.1766279    719.59039  0.026592402  0.026409949            3 
 2256000   0.90238907   -7.2076094    719.75618  0.026586738   0.02640339            3 
 2257000   0.89448157   -7.1964655      718.927  0.026544344  0.026396826            3 
 2258000   0.88604488   -7.1908749    721.27966  0.026619415  0.026390267            2 
 2259000   0.90367682    -7.191858    719.75345   0.02655133  0.026383723            2 
 2260000   0.88688049   -7.2168254    718.50745  0.026493637  0.026377187            7 
 2261000    0.8894279   -7.1758201    720.71243  0.026563188  0.026370667            3 
 2262000   0.88489335   -7.2036991    720.62834  0.026548347  0.026364142            4 
 2263000   0.91847404   -7.2108629    719.22452  0.026484921  0.026357612            3 
 2264000   0.87289921   -7.2149267    720.65817  0.026525993  0.026351053            2 
 2265000   0.90207592   -7.2159009    719.10802  0.026457249  0.026344511            4 
 2266000   0.91280068   -7.1945017    720.27909   0.02648864  0.026338002            2 
 2267000   0.88382392   -7.1982486    721.19873  0.026510761  0.026331521            5 
 2268000   0.88594639   -7.2272002    721.56805  0.026512641  0.026325036            2 
 2269000   0.88784455   -7.2115839    720.84378  0.026474356   0.02631848            3 
 2270000   0.89448292   -7.2208089    719.70875  0.026421026  0.026311929            4 
 2271000   0.86765486   -7.2306525    720.96888  0.026455632  0.026305333            7 
 2272000     0.887415   -7.2724139    721.18227  0.026451815  0.026298705            8 
 2273000    0.8988275   -7.2772415    720.69631  0.026422361  0.026292104            3 
 2274000   0.88322475   -7.2259763    722.79543  0.026487666  0.026285499            4 
 2275000    0.9017824   -7.2003687    720.84249  0.026404487  0.026278936            3 
 2276000   0.87259052   -7.2286408    722.11905  0.026439626  0.026272401            5 
 2277000   0.89945442   -7.2449618    721.48777   0.02640491  0.026265782            2 
 2278000   0.87683001   -7.2369496     720.1956  0.026346049  0.026259231            4 
 2279000   0.88464771   -7.1900642    722.59295   0.02642215  0.026252642            3 
 2280000    0.8938898   -7.2082036    721.93287  0.026386435  0.026246107            3 
 2281000   0.87647042   -7.2164963    722.66085  0.026401463  0.026239586            3 
 2282000   0.91285236   -7.1539355    722.58522  0.026387132  0.026233099           12 
 2283000   0.88757272   -7.2051241    721.85402  0.026348884  0.026226534            4 
 2284000   0.91082173   -7.2183162    722.04578  0.026344344  0.026219905            2 
 2285000   0.88714628   -7.1835805    723.35748  0.026380652  0.026213289            8 
 2286000    0.8889971   -7.2255077    721.74403  0.026310296  0.026206696            4 
 2287000   0.88638399   -7.2190363    723.64941  0.026368219  0.026200129            2 
 2288000   0.90751989   -7.2569804     723.1917  0.026340024  0.026193571            2 
 2289000   0.88220017   -7.1979933    724.61805  0.026380444  0.026186992            2 
 2290000    0.8633253    -7.203803    722.38044  0.026287498  0.026180433            6 
 2291000   0.87317572   -7.2409336    721.37169  0.026239331  0.026173837            4 
 2292000   0.87518517   -7.2175841    721.04911  0.026216154   0.02616724            4 
 2293000   0.91083421   -7.2316466    723.76528  0.026303434  0.026160577            7 
 2294000   0.90179694   -7.2137289     724.9753  0.026335923  0.026153985            6 
 2295000   0.87133532   -7.2072113    723.98492  0.026288486  0.026147378            5 
 2296000   0.87062872   -7.2540536    723.01713  0.026241911  0.026140739            5 
 2297000   0.90251665    -7.194135    723.71374  0.026255759  0.026134122            2 
 2298000   0.87489965   -7.2515628    723.07408  0.026221137  0.026127482            4 
 2299000   0.86561621   -7.2456386    722.91859  0.026204096  0.026120806            4 
 2300000   0.87267365   -7.2359677     722.3295  0.026171359  0.026114139            3 
 2301000   0.86703261   -7.2257527    724.21941   0.02622843  0.026107458            2 
 2302000   0.84732247   -7.1986539    725.34315  0.026257716  0.026100789            7 
 2303000   0.86900417    -7.182448    724.99969  0.026233887  0.026094241            8 
 2304000   0.90154579   -7.2067794    723.74841  0.026177243  0.026087641            3 
 2305000   0.88892234   -7.2560007    724.05422  0.026176942  0.026080997            3 
 2306000   0.88181556    -7.221262    724.90841  0.026196459  0.026074294            4 
 2307000   0.88200293   -7.2101321    725.03349  0.026189622   0.02606761            3 
 2308000   0.89930817   -7.1818624    725.10895  0.026180999    0.0260609            3 
 2309000   0.90040442   -7.2310121     723.4729  0.026110614  0.026054174            3 
 2310000   0.87877784   -7.2298126    724.64125  0.026141459  0.026047477            3 
 2311000     0.866524   -7.2367415    723.07125  0.026073534  0.026040799            7 
 2312000   0.87842664   -7.2272235    725.07575  0.026134506  0.026034136            6 
 2313000   0.88785957   -7.2357037    724.81437   0.02611379  0.026027405            5 
 2314000   0.87165064   -7.2271552      725.996  0.026145059  0.026020695            6 
 2315000   0.88266383   -7.2396616     724.9104  0.026094687  0.026013989            5 
 2316000   0.86653581    -7.199414    725.94238  0.026120552  0.026007323            5 
 2317000    0.8788173   -7.2159649    728.77952  0.026211319  0.026000691            5 
 2318000    0.8830144   -7.2207981    728.30941  0.026183111   0.02599405            5 
 2319000   0.89226637   -7.2504118    724.41501  0.026031875  0.025987359            4 
 2320000   0.87693978   -7.2523954    724.96413  0.026040378  0.025980595            4 
 2321000   0.88239605   -7.2255809     725.2374   0.02603897  0.025973831            3 
 2322000   0.88758743    -7.259594    725.28017  0.026029291  0.025967054            9 
 2323000   0.87399656   -7.2284814    726.05304  0.026045811  0.025960307            3 
 2324000   0.89124656   -7.2094669    726.08169  0.026035631  0.025953561            2 
 2325000   0.87768515   -7.1995817    725.94878  0.026019669  0.025946848            3 
 2326000   0.87083278   -7.2096307    727.33381  0.026058104  0.025940206            3 
 2327000   0.90317082   -7.2398178    726.41896  0.026014144  0.025933501            3 
 2328000   0.88715106   -7.2426687     726.6454  0.026011075  0.025926793            4 
 2329000   0.89092434   -7.2576073    727.42639  0.026027851  0.025920037            3 
 2330000   0.89266017    -7.239827    728.18743  0.026043899  0.025913328            9 
 2331000   0.86196598   -7.2666117    728.59234  0.026047202  0.025906611            4 
 2332000   0.85715704   -7.2453166    725.72406  0.025933536  0.025899827            4 
 2333000   0.87025997   -7.2246862    727.42081  0.025983026  0.025893079            2 
 2334000   0.89720531   -7.2447197    729.16182  0.026034055  0.025886353            2 
 2335000   0.87374019   -7.2367055    727.84158  0.025975788  0.025879643            4 
 2336000   0.87181886   -7.2462296    727.56439   0.02595478  0.025872885            7 
 2337000   0.86770614   -7.2350391    728.13026  0.025963852  0.025866182            3 
 2338000   0.87837996    -7.271796    726.82175  0.025906107  0.025859448            2 
 2339000   0.89911588   -7.2830783    728.17585  0.025943275  0.025852688            4 
 2340000   0.87975148   -7.2456446    727.46934  0.025907028  0.025845943            6 
 2341000   0.88068327   -7.2268796    728.64889   0.02593795  0.025839204            4 
 2342000   0.87715446   -7.2268744    726.78571  0.025860579  0.025832461            5 
 2343000   0.88324287   -7.2303938    728.53536  0.025911771  0.025825743            2 
 2344000    0.8520939   -7.2421682    729.61028  0.025938932  0.025818992            2 
 2345000   0.87549167   -7.2630602    727.74544  0.025861601  0.025812235            5 
 2346000   0.87973201   -7.2316707    728.67429  0.025883571  0.025805492            4 
 2347000   0.85338005   -7.2476165    727.51904  0.025831524  0.025798695            2 
 2348000   0.87750574   -7.2338175    729.41223  0.025887714  0.025791884            4 
 2349000   0.85798197   -7.2831398    727.74811  0.025817657  0.025785107            4 
 2350000   0.87932135   -7.2202964    728.75932  0.025842529  0.025778316            2 
 2351000   0.87973237   -7.2493822    728.19203  0.025811429  0.025771465            3 
 2352000   0.88413926   -7.2159182     729.4864  0.025846315  0.025764628            3 
 2353000    0.8869237   -7.2354923    728.80999  0.025811375  0.025757882            4 
 2354000   0.88308639   -7.2243556    730.53115  0.025861341  0.025751083            4 
 2355000    0.8691973   -7.2389069    730.11139  0.025835506  0.025744318            6 
 2356000   0.87586035   -7.2068073     729.8493  0.025815269  0.025737519            5 
 2357000   0.87507735   -7.2596558    728.87638  0.025769919  0.025730759            1 
 2358000   0.87013249   -7.2633694    730.55135  0.025818184  0.025723932            5 
 2359000   0.85455941   -7.2442807    729.25216  0.025761345  0.025717107            3 
 2360000    0.8596623     -7.26506    729.31531  0.025752659  0.025710254            4 
 2361000   0.88934689   -7.2360813     729.5901  0.025751451  0.025703401            3 
 2362000   0.87595785   -7.2454299    728.86647  0.025715018  0.025696491            5 
 2363000   0.85669901   -7.2629946    728.87316  0.025704372  0.025689623            4 
 2364000   0.87695933   -7.2712441     728.2897  0.025672931  0.025682708            5 
 2365000   0.88801079   -7.2594935    729.91377  0.025719301  0.025675838            5 
 2366000   0.88108064   -7.2374965    728.72074  0.025666411  0.025668961            2 
 2367000   0.87674836   -7.3140308    728.62074  0.025652047  0.025662091            3 
 2368000   0.87636317   -7.2937325    728.93364  0.025652226  0.025655169            3 
 2369000   0.88549911   -7.2296297    730.59211  0.025699737  0.025648307            3 
 2370000   0.86168793   -7.2509716    728.90553   0.02562959  0.025641499            5 
 2371000   0.87069549   -7.2556959    730.29789  0.025667717  0.025634654            3 
 2372000   0.86985506   -7.2421625    730.60197  0.025667579  0.025627794            5 
 2373000   0.87461782   -7.2405388    731.09626  0.025674121  0.025620961            5 
 2374000    0.8762333    -7.258939     732.4704  0.025711542  0.025614164            5 
 2375000   0.88101981   -7.2472318    731.39975  0.025663149  0.025607342            4 
 2376000   0.87496325   -7.2598445    732.00789  0.025673678   0.02560052            8 
 2377000   0.86608482    -7.261887    730.87426  0.025623134  0.025593708            7 
 2378000    0.8865735   -7.2477008    731.69273  0.025641041  0.025586873            4 
 2379000   0.86254711   -7.2413154    733.67403  0.025699665  0.025580083            3 
 2380000   0.87029499   -7.2941079    731.69651  0.025619626  0.025573258            5 
 2381000    0.8766315   -7.2436995    731.40176   0.02559855   0.02556639            5 
 2382000   0.85844593   -7.2480767    733.14522  0.025648797  0.025559508            4 
 2383000   0.88869997   -7.2314847    731.82416  0.025591836   0.02555264            5 
 2384000   0.87272909   -7.2434694    731.22722  0.025560236  0.025545758            3 
 2385000   0.85555135   -7.2532653    731.82487  0.025570401  0.025538854            3 
 2386000   0.89172499   -7.2442001    732.54506  0.025584837  0.025531935            1 
 2387000   0.86577841   -7.2382675    731.25498   0.02552908     0.025525            2 
 2388000    0.8949697   -7.2570657    729.89806  0.025471038  0.025518115            2 
 2389000   0.87456991   -7.2445973    731.03019  0.025499867  0.025511139            5 
 2390000   0.85174802   -7.2583765    731.93834  0.025520863   0.02550418            5 
 2391000   0.87193706   -7.2106541    733.75648  0.025573556  0.025497253            4 
 2392000   0.87793727   -7.2485994     732.6748  0.025525181  0.025490351            5 
 2393000   0.89600383   -7.2555081    732.65494  0.025513823  0.025483392            5 
 2394000   0.87583897   -7.2502399    732.70692  0.025504975  0.025476542            3 
 2395000   0.88425382   -7.2265844    736.41338  0.025623291  0.025469688            2 
 2396000   0.88361027   -7.2585409    732.03456    0.0254603  0.025462776            4 
 2397000   0.86308479   -7.2747212    731.88543  0.025444494  0.025455809            4 
 2398000    0.8543634   -7.2455054    733.40605  0.025486727  0.025448856            3 
 2399000   0.85588801   -7.2421188    734.88863  0.025527603  0.025441965            6 
 2400000   0.88309465   -7.2534462    732.35255  0.025428908  0.025435101           10 
 2401000   0.87468839    -7.253208    734.19061  0.025482112  0.025428245            7 
 2402000   0.88762113   -7.2427302    734.54721  0.025483875  0.025421421            3 
 2403000   0.85142707   -7.2658449    733.67806  0.025443129  0.025414554            4 
 2404000   0.86966625   -7.2277458    734.46139  0.025459699  0.025407687            4 
 2405000    0.8783484    -7.231877    734.19959  0.025440041  0.025400807            5 
 2406000   0.87728778   -7.2628485     733.1136  0.025391854  0.025393894            4 
 2407000   0.84958517   -7.2809336    734.72335  0.025437036  0.025386961            5 
 2408000   0.86953817   -7.2506641    734.90392  0.025432721  0.025380129            3 
 2409000   0.86265017   -7.2643316    733.46376  0.025372345  0.025373249            8 
 2410000   0.86298007   -7.2573965     734.6185  0.025401746   0.02536636            3 
 2411000   0.86285834   -7.2407874    736.16493  0.025444661  0.025359501            5 
 2412000   0.87227926    -7.260957    733.77576  0.025351567  0.025352623            6 
 2413000   0.86619446    -7.263367    736.34252  0.025429704   0.02534571            7 
 2414000   0.85083374    -7.281694    732.96887  0.025302709  0.025338748            2 
 2415000   0.86739188   -7.2858362    733.60462  0.025314169  0.025331766            6 
 2416000   0.85230992   -7.2906738    732.83116  0.025277013  0.025324809            4 
 2417000   0.87846191    -7.260793    735.21687   0.02534881  0.025317876            5 
 2418000   0.86366254   -7.2526965    735.21361  0.025338214  0.025310948            2 
 2419000    0.8752832   -7.2629638    736.23787  0.025363024  0.025304073            4 
 2420000   0.84158907   -7.2715482    735.60865  0.025330876  0.025297178            2 
 2421000   0.86201624   -7.2686427    734.52711  0.025283186  0.025290272            4 
 2422000   0.85799406   -7.2902752    735.36958  0.025301733   0.02528341            2 
 2423000   0.85213152   -7.2673407    735.39645  0.025292215  0.025276531            1 
 2424000   0.87569753   -7.2799772    733.90361   0.02523046  0.025269646            2 
 2425000   0.88569068   -7.2564634    734.79791  0.025250787  0.025262762            3 
 2426000   0.87241705   -7.2704407     737.0785  0.025318717  0.025255869            2 
 2427000   0.85667948   -7.2713115    736.56671  0.025290712   0.02524897            3 
 2428000   0.85871676   -7.2616024    736.65505  0.025283328  0.025242108            4 
 2429000   0.84633992   -7.2641876    737.52784  0.025302863  0.025235219            4 
 2430000   0.84966947   -7.2456986    737.03626  0.025275592  0.025228369            5 
 2431000   0.87652195    -7.261745    736.31402  0.025240437  0.025221499            6 
 2432000    0.8682666   -7.2747304    734.95194  0.025183386  0.025214569            4 
 2433000   0.87186539   -7.2612206    737.32663  0.025254371  0.025207628            3 
 2434000   0.84928049    -7.256322    737.50758  0.025250191  0.025200704            3 
 2435000   0.84490672   -7.2785833    736.61035  0.025209115  0.025193773            4 
 2436000   0.87041951   -7.2647164    737.28465  0.025221834  0.025186858            3 
 2437000   0.86656598   -7.2377021    738.65797  0.025258445  0.025179937            4 
 2438000   0.84640675    -7.254575     737.0121  0.025191827  0.025173052           10 
 2439000   0.85350332   -7.2534711    737.45996  0.025196801   0.02516614            4 
 2440000   0.84080262   -7.2544814    736.08331  0.025139457  0.025159278            5 
 2441000   0.85892395   -7.2717324    736.73493  0.025151404  0.025152353            5 
 2442000   0.87180142   -7.2911423    739.12078  0.025222522  0.025145498            5 
 2443000   0.85147226   -7.2627076    738.71131   0.02519823  0.025138614            4 
 2444000   0.85766385   -7.2792562    739.66301   0.02522037  0.025131776            4 
 2445000   0.85459003   -7.2830581    736.39448  0.025098653  0.025124927            2 
 2446000   0.85211275   -7.2865946    737.98657  0.025142633  0.025118053            3 
 2447000   0.86727905    -7.308588    737.58726   0.02511876  0.025111102            6 
 2448000    0.8689976   -7.2784283    737.70698  0.025112574  0.025104175            5 
 2449000   0.87298345     -7.26447    737.48119  0.025094637  0.025097288            4 
 2450000    0.8678658   -7.2970931    738.42731  0.025116575  0.025090434            2 
 2451000   0.85438245   -7.2656309    738.21816  0.025099217  0.025083567            9 
 2452000   0.84497987   -7.2506054    741.12888  0.025187904  0.025076721            3 
 2453000   0.84405933   -7.2628118    741.11685  0.025177227   0.02506987            3 
 2454000      0.85419   -7.2696779    740.04463  0.025130557  0.025062995            4 
 2455000   0.86259136   -7.2763068    737.68342   0.02504017  0.025056088            5 
 2456000    0.8533455   -7.2590428    739.19021  0.025081101  0.025049287            5 
 2457000   0.87025582   -7.3032313    741.70345  0.025156134  0.025042495            5 
 2458000   0.84921315   -7.2656857    741.14799  0.025127068  0.025035641            5 
 2459000   0.83916557   -7.2594273    739.75392  0.025069605  0.025028828            3 
 2460000   0.84613471    -7.295949     738.9563  0.025032395  0.025022008            5 
 2461000   0.86278006   -7.2842226    739.94465  0.025055691  0.025015201            2 
 2462000   0.86127027   -7.2859214    739.69845   0.02503718  0.025008387            6 
 2463000    0.8482507    -7.264782     742.4969  0.025121698   0.02500157            6 
 2464000   0.85515473   -7.2962748    740.96725  0.025059769  0.024994779            5 
 2465000    0.8486255   -7.2813204    741.57707  0.025070219   0.02498797            3 
 2466000   0.85441622   -7.2776376    740.62539  0.025027892  0.024981242            5 
 2467000   0.86512749   -7.2704793    741.58478  0.025050155  0.024974498            4 
 2468000   0.86065929   -7.2736734    742.39568  0.025067385  0.024967782            3 
 2469000   0.85792112   -7.3075943    742.58529  0.025063632  0.024961033            5 
 2470000    0.8621864   -7.2777759    743.58428  0.025087189  0.024954319            4 
 2471000   0.87486432   -7.2802333    742.84713  0.025052176  0.024947572            3 
 2472000   0.85071864    -7.304907    742.02148  0.025014208   0.02494084            5 
 2473000   0.86033955   -7.2938013     741.3542  0.024981608  0.024934077            3 
 2474000    0.8319656   -7.3123858    741.97924  0.024992564  0.024927301            4 
 2475000   0.83325347    -7.322137    743.70274  0.025040496  0.024920554            4 
 2476000   0.85263621    -7.287426    744.38211  0.025053248  0.024913781            2 
 2477000   0.84317672   -7.2885022    739.50082  0.024878913  0.024906979            4 
 2478000   0.86349045   -7.2827251    744.31507  0.025030773  0.024900261            3 
 2479000    0.8803624   -7.2701959     744.1743  0.025015944  0.024893499            5 
 2480000   0.83749143   -7.2902805    743.36876  0.024978789  0.024886766            6 
 2481000   0.85069641   -7.2846071    742.57272  0.024941983  0.024880018            3 
 2482000   0.85595046   -7.3043109    742.60634  0.024933063  0.024873253            3 
 2483000   0.85331252   -7.3035709    742.38871  0.024915717   0.02486647            4 
 2484000   0.87125921    -7.306665    745.04957  0.024994953  0.024859703            3 
 2485000   0.84429347   -7.2676867    743.43913   0.02493089  0.024852965            3 
 2486000    0.8457554   -7.3088745    744.76587  0.024965335  0.024846192            4 
 2487000   0.85171891   -7.2780183     743.6263  0.024917112  0.024839447            3 
 2488000   0.86738995   -7.3123704    742.41897  0.024866659  0.024832721            4 
 2489000   0.83817365   -7.2631364     744.5048  0.024926503  0.024826009            6 
 2490000   0.84537085   -7.2968021    744.78916  0.024926009  0.024819289            3 
 2491000   0.84885739   -7.2737687    744.84915   0.02491801  0.024812585            8 
 2492000   0.85300096   -7.2780697    746.08167  0.024949227  0.024805896            5 
 2493000   0.84933888   -7.3030533     743.0115  0.024836592  0.024799172            4 
 2494000   0.85079195   -7.3125599    743.66293    0.0248484   0.02479237            6 
 2495000   0.84808657   -7.3001486     743.5423  0.024834412  0.024785532            3 
 2496000   0.85426283   -7.3215798    743.96024  0.024838416  0.024778709            5 
 2497000   0.84563165   -7.2933747    744.97433  0.024862312  0.024771872            6 
 2498000   0.84356196   -7.2730488    744.70686  0.024843437   0.02476509            5 
 2499000   0.84043967   -7.3040865    744.10186  0.024813321  0.024758258            6 
 2500000   0.85054927   -7.2873707    745.04771  0.024834924  0.024751457            3 
 2501000   0.85941876   -7.2744576    744.88379  0.024819532  0.024744647            5 
 2502000   0.83602384    -7.328435    744.75421  0.024805296  0.024737825            3 
 2503000   0.84138769    -7.310068    745.44403  0.024818352  0.024731004            4 
 2504000   0.83987442    -7.293739    747.19165  0.024866602  0.024724239            3 
 2505000   0.85889246   -7.2883321    744.44559  0.024765322  0.024717441            5 
 2506000   0.84526103   -7.2899293    743.92869  0.024738251  0.024710671            5 
 2507000   0.84562315   -7.3139917    746.01477  0.024797725  0.024703899            6 
 2508000   0.81682813   -7.3047007    746.27368  0.024796441  0.024697141            7 
 2509000   0.84926362   -7.2764137    745.81549   0.02477134  0.024690392            6 
 2510000   0.84080088   -7.3207471    745.16195  0.024739772  0.024683632            4 
 2511000   0.84967491   -7.2799994    746.15153  0.024762762  0.024676865            5 
 2512000   0.83680922   -7.3034165    746.07465  0.024750353  0.024670126            4 
 2513000   0.84221781   -7.2938666    746.47322  0.024753721   0.02466337            6 
 2514000   0.85046911    -7.267971    746.15168  0.024733216  0.024656654            3 
 2515000   0.85223532   -7.3059045    746.26544  0.024727152  0.024649917            2 
 2516000   0.84109857   -7.3454428    744.08176  0.024644997   0.02464314            2 
 2517000   0.85719832   -7.3056493    746.89554  0.024728365  0.024636345            4 
 2518000   0.86093157   -7.3121871    745.74285  0.024680396  0.024629557            3 
 2519000    0.8407824   -7.3118936    747.04613  0.024713713   0.02462277            4 
 2520000   0.83395778   -7.3207623    746.43906  0.024683831  0.024616005            4 
 2521000   0.84651496   -7.3247832    746.12317  0.024663598   0.02460919            3 
 2522000   0.86436199    -7.291726    747.69051  0.024705608  0.024602381            7 
 2523000   0.87334402   -7.2699129    749.51282  0.024756005  0.024595657            5 
 2524000   0.85527407   -7.2740146    748.18367  0.024702313  0.024588954            3 
 2525000   0.86481253   -7.3290918    746.98579  0.024652997  0.024582229            5 
 2526000   0.84208691   -7.2945961    748.51889  0.024693814  0.024575513            4 
 2527000   0.83522776   -7.3062936    747.67704   0.02465628    0.0245688            4 
 2528000   0.87141537   -7.2937993    747.55538  0.024642517  0.024562085            7 
 2529000   0.84162131   -7.2641062    749.85601  0.024708581  0.024555376            4 
 2530000   0.84203093   -7.3239145    747.71626  0.024628335  0.024548665            3 
 2531000    0.8474153   -7.3013576     749.4785  0.024676627   0.02454197            5 
 2532000   0.84252859   -7.2909031    750.69682  0.024706978  0.024535315            2 
 2533000   0.85065056   -7.2525938    750.28965  0.024683828  0.024528668            3 
 2534000    0.8358994   -7.3097595    748.05767  0.024600686  0.024521978            5 
 2535000   0.83588843   -7.3172212    747.27382  0.024565214  0.024515222            4 
 2536000   0.85030593   -7.2902995    748.76786  0.024604622  0.024508514            4 
 2537000   0.86948803   -7.3123457     749.7718  0.024627901  0.024501835            2 
 2538000   0.85306406   -7.3166388    751.39844  0.024671606  0.024495136            3 
 2539000    0.8535566   -7.3443083    748.79684  0.024576501   0.02448844            4 
 2540000   0.83047658   -7.2974211    750.67623  0.024628485  0.024481759            6 
 2541000   0.83521715   -7.3340669    748.50229  0.024547497  0.024475082            3 
 2542000    0.8501803   -7.3001175    751.13337  0.024624094  0.024468432            4 
 2543000   0.82558816   -7.3529597    749.61171  0.024564547  0.024461737            6 
 2544000   0.84598296    -7.270484    751.25496  0.024608718  0.024455106           10 
 2545000    0.8457677     -7.31111    749.59296  0.024544629  0.024448478            3 
 2546000    0.8423624   -7.3506645    748.45059  0.024497597  0.024441817            4 
 2547000   0.83861696   -7.3068912    750.42959  0.024552729  0.024435145            4 
 2548000   0.84309564   -7.3173298    750.15262  0.024534034   0.02442851            3 
 2549000   0.84978672    -7.288324    752.53259  0.024602216  0.024421902            5 
 2550000   0.84032884   -7.2811993    752.13015  0.024579417  0.024415299            3 
 2551000    0.8496884   -7.3208227    752.03449  0.024566657  0.024408668            4 
 2552000   0.83445492    -7.300853    750.68589  0.024512993  0.024402028            3 
 2553000   0.82997399   -7.3141283    751.32425  0.024524228  0.024395405            5 
 2554000   0.84117923   -7.3446726    749.67746  0.024460893  0.024388751            3 
 2555000   0.84073702   -7.3150857    752.19549  0.024533447  0.024382095            5 
 2556000   0.85419423   -7.3432204    750.22071  0.024459465  0.024375414            7 
 2557000   0.84875088   -7.3356148    750.75281  0.024467241  0.024368766            4 
 2558000   0.85175865   -7.3176645    750.37653  0.024445417  0.024362113            5 
 2559000   0.84605402    -7.300635    751.95961  0.024487417  0.024355444            3 
 2560000   0.83355482   -7.2998726    751.51099  0.024463248  0.024348787            3 
 2561000   0.86133847   -7.3368772    750.08614  0.024407332  0.024342099            4 
 2562000   0.84322225   -7.3149036    751.32702  0.024438167  0.024335419            3 
 2563000   0.84063648   -7.2785252    753.57947  0.024501869  0.024328812            6 
 2564000   0.84199258   -7.2975431    753.02376  0.024474251   0.02432219            3 
 2565000   0.84145686   -7.2906709    752.70049  0.024454207   0.02431562            5 
 2566000   0.86318948   -7.3137408    753.00455  0.024454552  0.024309054            5 
 2567000   0.85648967   -7.3277557    753.08057  0.024447493  0.024302493            3 
 2568000    0.8506844   -7.3089881    753.23572  0.024443007  0.024295881            7 
 2569000   0.85678764   -7.3080567     754.6967  0.024480884  0.024289315            4 
 2570000   0.84128531   -7.2955868    752.04329  0.024385321  0.024282765            3 
 2571000   0.84043999   -7.3103107    754.73379  0.024463043    0.0242762            4 
 2572000    0.8426633   -7.3058369    754.54149  0.024447301   0.02426963            5 
 2573000    0.8644763   -7.2829401    753.86172  0.024415783  0.024263054            7 
 2574000   0.82785879   -7.3209764    754.05034  0.024412404  0.024256402            5 
 2575000   0.84093876   -7.3543769    753.67103  0.024390648  0.024249743            5 
 2576000   0.84900718   -7.3093672    753.91142  0.024388956  0.024243071            6 
 2577000   0.84103842   -7.3248552    753.37391  0.024362111  0.024236392            3 
 2578000   0.84544293    -7.339321    753.06221  0.024342585  0.024229699            2 
 2579000   0.83661411   -7.3310212    752.29921  0.024308492  0.024223021            4 
 2580000   0.83921926   -7.3216345    752.29187  0.024298833  0.024216331            3 
 2581000   0.83869457   -7.3443027    753.44651  0.024326699  0.024209656            4 
 2582000   0.82807943     -7.35841     751.4007  0.024251249  0.024202944            4 
 2583000   0.83504389   -7.3229277    753.97795  0.024325008  0.024196283            7 
 2584000   0.83929309    -7.301876    755.68519  0.024370653  0.024189636            2 
 2585000   0.81812978   -7.3022617     754.1347  0.024311241  0.024183014            5 
 2586000   0.83858176   -7.3295572    754.14974  0.024302325  0.024176382            4 
 2587000   0.83371364   -7.3300471    753.53299  0.024273064  0.024169724           12 
 2588000   0.83247683   -7.3212505    755.60612  0.024330439  0.024163102            7 
 2589000   0.83633376   -7.3244622    753.73097  0.024260685  0.024156504            9 
 2590000   0.84152326   -7.3115415    755.62753   0.02431234  0.024149912            6 
 2591000   0.83801093   -7.3383751      753.481  0.024233919  0.024143316            5 
 2592000   0.83981055   -7.3241774    754.68708  0.024263345   0.02413671            7 
 2593000   0.82852428   -7.3349473    755.15199  0.024268929   0.02413013            2 
 2594000    0.8247878   -7.3302866    754.95862  0.024253361  0.024123577            4 
 2595000   0.81373481   -7.3243986    754.80948  0.024239225  0.024116961            3 
 2596000   0.83764039   -7.3175057    754.75094  0.024228009  0.024110363            7 
 2597000   0.84134526   -7.3455612    756.49399  0.024274611  0.024103765            3 
 2598000   0.82660353   -7.3243421     755.8206  0.024243668  0.024097174            2 
 2599000   0.85211543    -7.312027    755.98146  0.024239498  0.024090549            8 
 2600000   0.83658142   -7.3754618    756.29986   0.02424038  0.024083966            3 
 2601000   0.83171949   -7.3542537    756.55577   0.02423926  0.024077362            3 
 2602000   0.83010073   -7.3040327    756.83405  0.024238856  0.024070754            3 
 2603000   0.85018333   -7.3366995    757.19463  0.024241088  0.024064194            6 
 2604000    0.8410148   -7.3223155    757.63848  0.024245983  0.024057623            3 
 2605000   0.82533329   -7.3389669    756.17693  0.024189921  0.024051039            4 
 2606000   0.83557949   -7.3192077    757.03211  0.024207985  0.024044421            3 
 2607000    0.8545035   -7.3312967    757.50699  0.024213879  0.024037815            5 
 2608000   0.83983326   -7.3445881     756.0719  0.024158739  0.024031214            4 
 2609000   0.83252379   -7.3319782    757.89191  0.024207612  0.024024621            7 
 2610000   0.84687829   -7.3346485     756.6485  0.024158637  0.024018005            7 
 2611000   0.82084926   -7.3679633    756.40141  0.024141498  0.024011411            8 
 2612000   0.82517571   -7.3338971    755.00716  0.024087773  0.024004746            3 
 2613000   0.81839092   -7.3225945     755.6655   0.02409955  0.023998139            3 
 2614000   0.81810673   -7.3223875     756.0105  0.024101329  0.023991528            4 
 2615000   0.84775605   -7.3572292     756.4056  0.024104704  0.023984902            4 
 2616000   0.82947276   -7.3611494    754.91017  0.024047852  0.023978195            3 
 2617000   0.83995044    -7.323238     756.8276   0.02409972  0.023971525           12 
 2618000   0.82798261   -7.3290839    756.05611  0.024065957  0.023964902            3 
 2619000    0.8253842   -7.3183307    757.33318  0.024097403  0.023958268            4 
 2620000   0.83558005   -7.3351922    757.29377  0.024086952  0.023951651            4 
 2621000   0.84101156   -7.3342292    758.07053  0.024102459  0.023945021            7 
 2622000    0.8190858   -7.3329389    758.13646  0.024095362  0.023938379            2 
 2623000    0.8299249   -7.3099831    758.51248  0.024098122   0.02393178            3 
 2624000   0.83302732   -7.3300638    758.87369  0.024100409  0.023925173            5 
 2625000   0.84948154    -7.345644     758.5768  0.024081803  0.023918562            7 
 2626000   0.83141387   -7.3408296    757.72761  0.024045685  0.023911931            7 
 2627000   0.83898047   -7.3152151    758.58912   0.02406386  0.023905301            4 
 2628000   0.80871755   -7.3229425    758.09026  0.024038884  0.023898722            4 
 2629000   0.85033306   -7.3487965    757.96299  0.024025706  0.023892112           10 
 2630000   0.83985476   -7.3016285    758.76989  0.024042139  0.023885534            6 
 2631000   0.82978449   -7.3393403    757.83939  0.024003528  0.023878895            8 
 2632000   0.81608973   -7.3353304    758.31459  0.024009454  0.023872258            5 
 2633000   0.83370121   -7.3143315    760.96463  0.024084208  0.023865645            6 
 2634000   0.83522643   -7.3344962    759.85395  0.024039925  0.023859065            4 
 2635000   0.83174906   -7.3831925    756.93792  0.023938581  0.023852465            4 
 2636000   0.82767359   -7.3390558    761.80735  0.024083439  0.023845854            5 
 2637000   0.83681495    -7.353017    758.90423  0.023982563  0.023839259            5 
 2638000   0.82891893    -7.308097    760.92646  0.024037353  0.023832635            1 
 2639000   0.82785715   -7.3401098     759.4453  0.023981473  0.023826037            4 
 2640000   0.83544434   -7.3396885    760.14738  0.023994551  0.023819418            7 
 2641000   0.80450326   -7.3343398    759.39512  0.023961729  0.023812789            3 
 2642000    0.8233484   -7.3563751    759.96955  0.023970778   0.02380618            2 
 2643000   0.80816168   -7.3212339     758.4953  0.023915226  0.023799592            3 
 2644000   0.81315873   -7.3272775    759.68918  0.023943809  0.023792985            4 
 2645000   0.83201287   -7.3335656    759.49165  0.023928533  0.023786377            7 
 2646000    0.8204888   -7.3194356    760.59331  0.023954186   0.02377977            2 
 2647000   0.82543647   -7.3500922    759.13573  0.023899248  0.023773178            2 
 2648000   0.82384507   -7.3407102    760.08219  0.023920009  0.023766602            2 
 2649000   0.81495016   -7.3082839    760.73463  0.023931503  0.023760061            4 
 2650000   0.82325649   -7.3424536    758.18078  0.023842163  0.023753515            3 
 2651000   0.84962663   -7.3273313    761.65691   0.02394244  0.023746944            7 
 2652000   0.80486674   -7.3606912    758.42223  0.023831769  0.023740358            3 
 2653000   0.83136663   -7.3384519    760.67697   0.02389361  0.023733776            4 
 2654000   0.82068967   -7.3127584    762.17581  0.023931669  0.023727183            3 
 2655000   0.83635696   -7.3156487    760.85362  0.023881156  0.023720598            4 
 2656000   0.82131633    -7.355247    759.63488  0.023833926  0.023714015            5 
 2657000   0.83339854     -7.35874    759.61515  0.023824337  0.023707452            3 
 2658000   0.84177392    -7.348174    760.35233  0.023838485  0.023700856            3 
 2659000   0.82379732   -7.3775585    759.23736  0.023794577  0.023694205            5 
 2660000   0.84413122   -7.3343863    760.09815  0.023812599  0.023687584            5 
 2661000   0.82642807   -7.3645631    759.21561  0.023776012  0.023680962            4 
 2662000   0.83620818   -7.3461672    760.85475  0.023818393    0.0236743            3 
 2663000   0.82743988   -7.3349752    762.71304  0.023867601  0.023667709            6 
 2664000   0.83367515   -7.3516121    760.38576  0.023785841  0.023661116            3 
 2665000   0.84254325   -7.3221182    761.28759  0.023805115  0.023654537            3 
 2666000   0.83414434   -7.3405391     761.9628  0.023817292  0.023647992            6 
 2667000   0.81422495   -7.3514046      761.436  0.023791901  0.023641424            8 
 2668000   0.82246091   -7.3411019    759.79854  0.023731838  0.023634816            2 
 2669000   0.81971181   -7.3625983     761.6061  0.023779384  0.023628211            4 
 2670000   0.82020844   -7.3447922    763.12773  0.023817969  0.023621602            5 
 2671000   0.83520096   -7.3400244    761.35892  0.023753866  0.023614982            3 
 2672000   0.81478116   -7.3069226    761.15872  0.023738732  0.023608381            3 
 2673000   0.83070229   -7.4135741    759.46649  0.023677095  0.023601745            6 
 2674000   0.84760503    -7.365685    761.69155  0.023737583  0.023595084            3 
 2675000   0.83150597   -7.3575837    760.44205  0.023689784   0.02358847            4 
 2676000   0.82501854   -7.3399817    761.62785  0.023717858  0.023581845            5 
 2677000   0.81218348   -7.3416058    761.38235  0.023701356  0.023575213            2 
 2678000   0.81616673   -7.3170541    761.72173  0.023703066  0.023568578            7 
 2679000   0.81962227   -7.3988851    761.67061  0.023692628  0.023561906            4 
 2680000   0.82498486   -7.3464578    762.11017  0.023697456  0.023555244            2 
 2681000   0.82520546   -7.3592062    762.15779  0.023690097    0.0235486            4 
 2682000   0.81573243   -7.3672116    760.13474  0.023618405  0.023541938            5 
 2683000   0.83041986   -7.3572575    762.47843  0.023682396  0.023535257            6 
 2684000   0.82192279   -7.3581275    760.73511  0.023619446  0.023528602            4 
 2685000   0.83044824   -7.3744914    760.86079   0.02361455  0.023521921            5 
 2686000   0.81891508   -7.3716718    761.36897  0.023621524  0.023515253            4 
 2687000   0.81020472   -7.3950183    759.41961  0.023552277  0.023508532            6 
 2688000   0.82561539   -7.3714728    763.91603  0.023682913  0.023501892            5 
 2689000   0.81273614   -7.3536726    761.11423  0.023587276  0.023495241            3 
 2690000   0.81789858   -7.3932554    761.49351  0.023590257  0.023488569            3 
 2691000   0.82530505    -7.358967    764.23654  0.023666436  0.023481927            3 
 2692000   0.83473608   -7.3310742    762.57408  0.023606181  0.023475292           12 
 2693000   0.81579606   -7.3617922    763.64941  0.023630691  0.023468709            5 
 2694000   0.82446785   -7.3933947     763.1495  0.023606456  0.023462091            5 
 2695000   0.80142374   -7.3564102    763.10688  0.023596378  0.023455492            3 
 2696000   0.80992529   -7.3829439    763.72685  0.023606789  0.023448872            6 
 2697000   0.83350027    -7.355007    763.91224  0.023603765  0.023442263            6 
 2698000   0.82987306   -7.3619283    762.42825   0.02354918  0.023435618            3 
 2699000   0.84026001   -7.3512494    764.72953  0.023611508  0.023428992            2 
 2700000   0.82129952   -7.3778302    762.54178   0.02353524  0.023422408            5 
 2701000   0.81348391    -7.358126     761.7742  0.023502845  0.023415787            3 
 2702000   0.82342788   -7.3502617    763.63139  0.023551424  0.023409193            4 
 2703000   0.81850874   -7.3638289    764.47714  0.023568786  0.023402594            5 
 2704000   0.82472555   -7.3661347    762.34798  0.023494452  0.023395993            7 
 2705000   0.83927145   -7.3796186    764.51876  0.023552642   0.02338941            7 
 2706000   0.81960227   -7.3562511    764.55663  0.023545104  0.023382793            7 
 2707000   0.82822752   -7.3969649    763.58334  0.023506444  0.023376195            5 
 2708000   0.82948597   -7.3698912    763.93723  0.023508654  0.023369612            2 
 2709000   0.81911684   -7.3594295    765.28861  0.023541547  0.023363043            4 
 2710000   0.82130601   -7.3450326    766.63745  0.023574337  0.023356446            6 
 2711000   0.81476651   -7.3663497    765.75846  0.023538622  0.023349885            5 
 2712000   0.82306781    -7.358826    765.01349  0.023507052  0.023343309            4 
 2713000   0.79939047   -7.3702288    765.70983  0.023519776  0.023336742            2 
 2714000   0.83097263   -7.3717251    765.54124  0.023505934  0.023330201            5 
 2715000   0.82890119   -7.3607208    765.49067  0.023495723  0.023323638            2 
 2716000   0.79770142   -7.3751264    765.52476  0.023488119  0.023317083            6 
 2717000    0.8168022   -7.3772871    764.93787  0.023461473  0.023310496            3 
 2718000    0.8146726   -7.4010854    765.45564  0.023468716  0.023303911            4 
 2719000   0.81116979   -7.3502763    765.84113  0.023471899  0.023297361            2 
 2720000   0.81953537   -7.3848681    765.65843  0.023457673  0.023290802            5 
 2721000   0.80066167   -7.3730901    764.98602  0.023428458  0.023284224            2 
 2722000   0.80976024   -7.3909939    765.37801  0.023431852  0.023277677            4 
 2723000   0.82579821    -7.381254    765.82414    0.0234369   0.02327115            4 
 2724000   0.81634346   -7.3722425    766.35138  0.023444425  0.023264652            5 
 2725000   0.81634713   -7.3329862    766.73011  0.023447404  0.023258163            4 
 2726000   0.82436125   -7.3722341    765.90839  0.023413683    0.0232517            4 
 2727000   0.83659543   -7.3812585     767.0061  0.023438641   0.02324523            4 
 2728000   0.78898391   -7.3921858     766.7091  0.023420977  0.023238708            5 
 2729000   0.80809972    -7.375652     766.9852  0.023420826  0.023232176            5 
 2730000   0.82290287   -7.3508878    768.01381  0.023443645  0.023225719            3 
 2731000   0.81762388   -7.3581279    767.08436  0.023406699  0.023219235            5 
 2732000   0.81789426   -7.3506537    768.66663  0.023446396  0.023212793           10 
 2733000    0.8146367   -7.3650782    767.68968  0.023408028  0.023206356            4 
 2734000   0.81076658   -7.3705844    768.26414  0.023416976  0.023199895            4 
 2735000   0.81871999    -7.358734    766.53366  0.023355688  0.023193383            5 
 2736000   0.81483054   -7.3561899    768.19872  0.023397865  0.023186895            3 
 2737000   0.79926096   -7.3872443    768.05176  0.023384842  0.023180368            6 
 2738000   0.81177889   -7.3926554    767.97095  0.023373842  0.023173877            5 
 2739000   0.81840446   -7.3506827    768.63676  0.023385565  0.023167447            6 
 2740000   0.81911414   -7.3705895    769.57945  0.023405701  0.023160977            4 
 2741000   0.80981271   -7.3906933    769.27367  0.023387866  0.023154498            5 
 2742000   0.80448567   -7.3646423    767.87398  0.023336797  0.023148019            6 
 2743000   0.82125667   -7.3725787    768.51983  0.023347911  0.023141555            5 
 2744000   0.81847316   -7.3616779    767.61769  0.023312005  0.023135078            8 
 2745000   0.81889884   -7.3857782    768.53877  0.023331474  0.023128618            6 
 2746000   0.80331372   -7.3846931    766.90087  0.023273272  0.023122135            4 
 2747000   0.81896399   -7.3745957    769.49892  0.023343615  0.023115635           16 
 2748000   0.83287866   -7.3795645     768.9079  0.023317197  0.023109135            8 
 2749000   0.81551621   -7.3693764    767.26225  0.023258829  0.023102636            5 
 2750000   0.81537867   -7.3622137    767.79032  0.023266373  0.023096145            4 
 2751000   0.82082442   -7.3796938    769.22157  0.023301271  0.023089656            5 
 2752000   0.79898022   -7.3897099    767.34842  0.023236084  0.023083161            3 
 2753000   0.81475779   -7.4170044    769.59748  0.023295722  0.023076682            7 
 2754000   0.79790277   -7.4190967     770.0924  0.023302239  0.023070132            4 
 2755000   0.80728333   -7.4238862    767.23932  0.023207481  0.023063604            4 
 2756000   0.81095322   -7.3856307    768.57545  0.023239461  0.023057092            3 
 2757000   0.79521576   -7.3789197    768.79012   0.02323752  0.023050565            4 
 2758000   0.80697487   -7.3569321    769.09203  0.023238217  0.023044038            2 
 2759000   0.82466058   -7.3667494    768.89878  0.023223957  0.023037611            7 
 2760000   0.79473026   -7.3766774    769.60027  0.023236723  0.023031171            4 
 2761000    0.8140665   -7.3657793    770.18266  0.023245885  0.023024723            8 
 2762000   0.81462512   -7.4034575    769.54992  0.023218378  0.023018243            3 
 2763000    0.8102828   -7.4127139    769.96867  0.023222604  0.023011748            7 
 2764000   0.79585723   -7.4042683    768.68542  0.023175513  0.023005255            6 
 2765000   0.81525185   -7.4126726    768.58884  0.023164221  0.022998745            4 
 2766000   0.79822079   -7.3830364    768.28976  0.023146835  0.022992231           12 
 2767000   0.82221905   -7.4004908    768.78729  0.023153454  0.022985707            7 
 2768000    0.8281154   -7.3985223    768.37038  0.023132538  0.022979171            5 
 2769000   0.80471324   -7.3992619    768.89057  0.023139839  0.022972662            5 
 2770000   0.80919978   -7.3942536    769.79945  0.023158828  0.022966151            5 
 2771000   0.80237229   -7.4236579    768.46412  0.023110313  0.022959632            5 
 2772000   0.82347789   -7.3716762    769.09002  0.023120792  0.022953155            4 
 2773000   0.81181477   -7.3701442    770.48427  0.023154354  0.022946636            2 
 2774000   0.80920182   -7.3977446    770.40591  0.023143653  0.022940152            3 
 2775000   0.81445795   -7.3667729    770.13206  0.023127089  0.022933698            3 
 2776000   0.80519002   -7.3944375    769.76973  0.023107881  0.022927242            5 
 2777000   0.78843003   -7.3991341    770.72005  0.023128077  0.022920777            4 
 2778000   0.79711369   -7.4000686    770.69959  0.023119138  0.022914321            5 
 2779000   0.80110587   -7.3892879    770.46621  0.023103821  0.022907848            2 
 2780000   0.81641658    -7.422608    771.26534  0.023119465  0.022901366            4 
 2781000   0.79906145   -7.4146797    772.55682  0.023149851  0.022894886            3 
 2782000   0.80764176     -7.40267    771.03505  0.023095946   0.02288845            5 
 2783000   0.79867917   -7.3996438    772.09198  0.023119295   0.02288199            6 
 2784000   0.81099472   -7.3911599    769.61209   0.02303676  0.022875497            5 
 2785000   0.80978827   -7.4214509    769.69599  0.023030999  0.022868982            5 
 2786000   0.80623415   -7.4119161    772.10199  0.023094699  0.022862477            7 
 2787000   0.81095371   -7.4010797    771.86431  0.023079306  0.022856041            6 
 2788000   0.81719869   -7.4029037    770.90472  0.023042346  0.022849547            3 
 2789000   0.81719574   -7.3856236    772.03566  0.023067876  0.022843104            7 
 2790000   0.79442321   -7.3903667    771.54775  0.023045034  0.022836684            2 
 2791000   0.81110568   -7.4007778    771.33266  0.023030355  0.022830242            5 
 2792000   0.81443613   -7.4057573    771.34553  0.023022491  0.022823812            3 
 2793000   0.82659357   -7.4018683    773.83365  0.023088485   0.02281739            4 
 2794000    0.8071577   -7.4019832    771.77745  0.023018893  0.022810969            7 
 2795000    0.8170443   -7.3967582    771.42273  0.023000081  0.022804541            3 
 2796000   0.80961833   -7.3842619    771.69422  0.022999947  0.022798124            4 
 2797000   0.80443483   -7.4078016    771.52451  0.022986668  0.022791669            6 
 2798000   0.78916482   -7.4197637    769.50327  0.022918253  0.022785196            8 
 2799000   0.80760486   -7.4153974    771.34955  0.022965034  0.022778696            3 
 2800000   0.80111582    -7.416148    771.22302  0.022953066  0.022772193           12 
 2801000   0.79330039   -7.4189298    773.34908  0.023008124  0.022765743            3 
 2802000   0.79382059   -7.3963705    772.56444  0.022976578  0.022759295            8 
 2803000    0.8110047   -7.4193415    772.93876  0.022979509  0.022752856            4 
 2804000   0.80867032   -7.3909615    771.60311  0.022931619  0.022746382            3 
 2805000   0.80153389   -7.3982031    771.79224  0.022929062  0.022739914            3 
 2806000   0.82506529   -7.3734827    773.70024  0.022977555  0.022733508            3 
 2807000   0.81114535   -7.4147854      772.806  0.022942821  0.022727068            2 
 2808000   0.79333097   -7.4075985    772.27047  0.022918758  0.022720593            2 
 2809000    0.7814488   -7.4046733    774.30591  0.022970983  0.022714175            7 
 2810000   0.79982938   -7.3870071    773.40465  0.022936081  0.022707764            5 
 2811000    0.7990257   -7.3830103     772.8096  0.022910281  0.022701338            2 
 2812000   0.81600672   -7.4211689     772.2282  0.022884904  0.022694853            2 
 2813000   0.79892181   -7.3807134    773.65858  0.022919143    0.0226884            9 
 2814000   0.80073657   -7.3945175    771.92948  0.022859793   0.02268196            8 
 2815000   0.79669407   -7.4092066    772.11796  0.022857252  0.022675531            3 
 2816000   0.79928887   -7.3983444    773.29885  0.022884081  0.022669109            4 
 2817000   0.80190833   -7.4196309    772.77694  0.022860518  0.022662644            8 
 2818000   0.81292383   -7.3989887    773.32923  0.022868737   0.02265619            5 
 2819000   0.79732616   -7.3941523    776.88664  0.022965787  0.022649798            4 
 2820000   0.80242485   -7.4304938    771.76937  0.022806423  0.022643387           10 
 2821000   0.79156966   -7.3655015    774.26967  0.022872199  0.022636967            4 
 2822000   0.80030129    -7.382037    773.47505  0.022840629  0.022630562            5 
 2823000   0.78843373   -7.4044773    774.22886   0.02285479  0.022624159            4 
 2824000   0.80541369   -7.4231149    774.78806  0.022863198   0.02261775            4 
 2825000   0.81280928   -7.4232055    773.87728  0.022828238  0.022611326            5 
 2826000   0.78567215   -7.4193951    774.93594  0.022851378  0.022604928            6 
 2827000   0.77765908   -7.4121729    775.70525  0.022865973  0.022598545            5 
 2828000   0.79131293   -7.4259139    773.77825  0.022801103  0.022592127            6 
 2829000   0.79820443   -7.4099052    776.45663   0.02287194  0.022585726            3 
 2830000   0.77870567   -7.3977835     774.7021  0.022812194   0.02257935            2 
 2831000   0.80000067   -7.3883923    775.51009   0.02282792  0.022572988            3 
 2832000    0.7726315   -7.3898528    775.56229  0.022821395  0.022566642            4 
 2833000   0.81359045   -7.4265468    776.15808  0.022830865  0.022560325           11 
 2834000   0.80548232   -7.3940765    775.31072  0.022797892  0.022553969            8 
 2835000   0.80952405   -7.4198599    775.09371  0.022783472  0.022547617           12 
 2836000   0.79979831   -7.3930236    775.49054  0.022787099  0.022541227            3 
 2837000   0.79300914     -7.40452    774.43205  0.022747975  0.022534873            4 
 2838000    0.7945832   -7.4034988    776.36447  0.022796702  0.022528507            4 
 2839000   0.81199762   -7.4089584    774.73597   0.02274087  0.022522152            2 
 2840000   0.79019534   -7.3643876    775.31843  0.022749954  0.022515776            5 
 2841000   0.77083801   -7.4139642    775.01805  0.022733135  0.022509419            5 
 2842000   0.80654114    -7.421317    777.02019  0.022783843  0.022503057            3 
 2843000   0.78476991   -7.4203227    774.14579  0.022691576  0.022496684            4 
 2844000   0.80484916   -7.4369225    776.15874  0.022742579  0.022490325            7 
 2845000   0.79708005   -7.4123263    776.38689  0.022741268  0.022483977            4 
 2846000   0.79757554   -7.4176205    776.99599  0.022751112  0.022477669            3 
 2847000   0.79619109   -7.4050136    776.85983  0.022739136  0.022471328            6 
 2848000   0.80484838    -7.421853    775.25801  0.022684282  0.022464995            3 
 2849000   0.78562778   -7.4146717    777.93657  0.022754667  0.022458688            4 
 2850000   0.79414356   -7.3937827    777.87669  0.022744932  0.022452382            4 
 2851000   0.79463977   -7.4036618    776.88257  0.022707897  0.022446114            5 
 2852000   0.80248113   -7.3940685    776.48838  0.022688417  0.022439814            5 
 2853000   0.78155311   -7.4282185    778.28067  0.022732815  0.022433527            6 
 2854000   0.77625561    -7.434505     777.5738  0.022704211  0.022427223            4 
 2855000   0.79941069   -7.3702691    779.18999  0.022743432  0.022420941            2 
 2856000   0.79795054   -7.4010318    778.44637  0.022713771  0.022414685            5 
 2857000    0.8036989   -7.4248441    777.10761  0.022666772  0.022408424            5 
 2858000   0.79511204   -7.4257657    774.91551  0.022594924  0.022402181            5 
 2859000    0.8076753   -7.4273782    778.53346  0.022692476   0.02239594            4 
 2860000   0.78552818   -7.4090179    778.07463  0.022671172  0.022389712            5 
 2861000   0.76779436   -7.4535029     777.2915  0.022640437  0.022383412            4 
 2862000   0.80685385   -7.4178625    778.81573  0.022676908  0.022377111            3 
 2863000   0.80643592   -7.4326704    777.64352  0.022634868  0.022370796            6 
 2864000   0.78798475   -7.4347514    778.04446  0.022638631  0.022364507            5 
 2865000   0.78816072   -7.4500058    778.52602  0.022644736  0.022358246            5 
 2866000   0.80145812   -7.4298397    779.20323  0.022656526  0.022351976            5 
 2867000   0.79689837   -7.4368428    778.71243  0.022634357  0.022345676            5 
 2868000   0.81077687   -7.4140397    779.14986  0.022639175  0.022339389            7 
 2869000    0.7887487   -7.4238672     778.0876   0.02260043  0.022333111            4 
 2870000   0.79891379   -7.4482367     778.9134  0.022616533  0.022326832            8 
 2871000   0.81028038    -7.430527    778.94311  0.022609518   0.02232056           10 
 2872000   0.78088778   -7.4430925    778.66406  0.022593549  0.022314244            5 
 2873000    0.7967751   -7.4171932    778.81018  0.022589923  0.022307976           14 
 2874000   0.80420839   -7.4093838     780.5595  0.022632785  0.022301727            6 
 2875000   0.77874034   -7.4191682    779.17485  0.022584778   0.02229549            5 
 2876000   0.78587429   -7.4199798    779.15901  0.022576466  0.022289221            3 
 2877000   0.78116133   -7.4443892    776.45338   0.02249025  0.022282948            6 
 2878000   0.79971297   -7.4362243    780.08721  0.022587654  0.022276682           13 
 2879000   0.79176936   -7.4297513    779.83904  0.022572625  0.022270415            3 
 2880000   0.79195969    -7.408461    781.15045  0.022602733  0.022264152           11 
 2881000   0.78134882   -7.4359148    778.68327  0.022523524  0.022257872            7 
 2882000   0.78487421   -7.4407562    777.92855  0.022493886  0.022251604            8 
 2883000   0.80849108   -7.4191438     780.3679  0.022556593  0.022245335            3 
 2884000   0.80226892   -7.4308304    780.56438  0.022554449  0.022239067            5 
 2885000   0.81105612   -7.4259543    779.07897  0.022503725  0.022232826            5 
 2886000   0.79061218    -7.429436    779.29452  0.022502152  0.022226568            5 
 2887000   0.79976814   -7.4139846    780.04649  0.022516063  0.022220298            4 
 2888000   0.79640619   -7.3792649    782.81909   0.02258827  0.022214109            3 
 2889000   0.76918015   -7.4317669    779.98621  0.022498737  0.022207898            4 
 2890000   0.78563105   -7.4008001    781.80381  0.022543362   0.02220166            5 
 2891000   0.80136895    -7.447293    780.62042  0.022501453  0.022195422            7 
 2892000   0.79843871   -7.4132855    781.59725   0.02252182  0.022189173            3 
 2893000   0.78553001   -7.4009896     779.1466  0.022443444   0.02218292            6 
 2894000   0.79383731   -7.4263057    779.58539  0.022448324    0.0221767            4 
 2895000   0.78840798    -7.425317    780.49632  0.022466791  0.022170502            2 
 2896000   0.78349204   -7.4458221     779.8069  0.022439195  0.022164266           10 
 2897000   0.80504562   -7.4470828    778.95465  0.022406934  0.022157998            4 
 2898000   0.78083868   -7.4518916    779.55836  0.022416562  0.022151735            5 
 2899000   0.77479627   -7.4337912    782.25876  0.022486454  0.022145473            4 
 2900000   0.78524848   -7.4425072    780.60599  0.022431207  0.022139246            4 
 2901000   0.78270259   -7.4055867    783.15252  0.022496625  0.022133045           13 
 2902000   0.77932189   -7.4357612    781.82562   0.02245077  0.022126825            4 
 2903000   0.79270551   -7.4410247    779.60483  0.022379287  0.022120593            6 
 2904000   0.78039194    -7.453908    781.97423  0.022439573  0.022114322            3 
 2905000   0.77747936   -7.4609634    779.29607  0.022355022  0.022108067            4 
 2906000   0.78855932   -7.4286402    780.49409  0.022381684  0.022101795            2 
 2907000   0.77814713   -7.4268224    781.69385  0.022408378   0.02209552            4 
 2908000   0.78503487   -7.4445817    781.79719  0.022403633  0.022089275            4 
 2909000   0.78459257   -7.4166763    781.95698  0.022400509  0.022083018            3 
 2910000   0.79086966   -7.4227724    780.98111  0.022364866  0.022076793            5 
 2911000   0.78301279   -7.4274452    780.56454  0.022345258  0.022070573            3 
 2912000   0.79903985   -7.4339952    782.00421  0.022378784  0.022064335            4 
 2913000   0.78932992   -7.4253336     781.3864  0.022353427  0.022058152            5 
 2914000   0.78392762   -7.4496277    781.16979  0.022339562  0.022051927            3 
 2915000   0.78868173   -7.4108188    782.03958  0.022356763  0.022045709            3 
 2916000   0.77603584   -7.3948248    784.73003  0.022425984  0.022039524            4 
 2917000   0.77648468   -7.4585915     782.4739  0.022353842  0.022033339            3 
 2918000   0.78276184   -7.4396946    781.57008   0.02232037  0.022027121            6 
 2919000     0.801044   -7.4548438    781.52347  0.022311393    0.0220209           13 
 2920000   0.79307074   -7.4425654    781.29104  0.022297119  0.022014675            4 
 2921000   0.79535579   -7.4345231    783.88379  0.022363454  0.022008461            3 
 2922000   0.78115877   -7.4583068    781.44283  0.022286186  0.022002249            3 
 2923000   0.79368117   -7.4611176    781.09785  0.022268726  0.021996003            6 
 2924000   0.77796696   -7.4600869    780.82506  0.022253336  0.021989759            6 
 2925000   0.76529465   -7.4241574     782.7476  0.022300501  0.021983561            4 
 2926000    0.7758658   -7.4557263    782.40698  0.022283179   0.02197736            3 
 2927000   0.78168844   -7.4365518    785.03543  0.022350399  0.021971165            2 
 2928000   0.78470555   -7.4355716    783.29904  0.022293347  0.021964994            8 
 2929000   0.79324047   -7.4474966    782.70319  0.022268783  0.021958829            4 
 2930000   0.76516649   -7.4596764    783.91557  0.022295665   0.02195269            6 
 2931000   0.78153538   -7.4755202    784.29702  0.022298903    0.0219465            4 
 2932000   0.78775537   -7.4449684    782.77571  0.022248059  0.021940336            4 
 2933000    0.7910897    -7.461694    786.13859  0.022336021  0.021934193            3 
 2934000   0.77995458   -7.4578148     781.7522  0.022203823  0.021928017            3 
 2935000   0.79266534   -7.4482862    782.88383  0.022228388   0.02192185            5 
 2936000   0.78552508   -7.4603026    783.14226  0.022228152  0.021915703            4 
 2937000   0.78806251   -7.4605416    784.65348  0.022263463  0.021909553            4 
 2938000   0.78419988   -7.4476497    784.16566  0.022242048  0.021903406            7 
 2939000   0.77688626   -7.4797888    782.16657  0.022177798   0.02189723            5 
 2940000   0.78503128   -7.4604443    782.47248  0.022178925  0.021891029            7 
 2941000   0.78130363    -7.462713    784.22998  0.022221183   0.02188487            3 
 2942000   0.77357877   -7.4109318    784.85736    0.0222314  0.021878721            4 
 2943000   0.77202374   -7.4404804    783.83116  0.022194789  0.021872567            2 
 2944000   0.78817323   -7.4487353    784.97414  0.022219603   0.02186643            8 
 2945000   0.78903152   -7.4707972    786.44552  0.022253693  0.021860286            3 
 2946000   0.79234817   -7.4435803    784.93379  0.022203377  0.021854144            4 
 2947000   0.75970863   -7.4545631     783.6215  0.022158735  0.021848013            4 
 2948000   0.80179233   -7.4363089     785.7684  0.022211906  0.021841873            2 
 2949000   0.77805508   -7.4230856    784.05153  0.022155859   0.02183573            4 
 2950000   0.77791842    -7.458972    785.22154  0.022181399  0.021829602            2 
 2951000   0.78196555   -7.4712555    784.31512  0.022148287  0.021823442            4 
 2952000   0.77448879   -7.4875905    784.27789  0.022139733  0.021817306           13 
 2953000   0.77580534   -7.4550413    787.25007   0.02221611  0.021811167            9 
 2954000   0.78402728   -7.4557428    785.93762  0.022171565  0.021805067            5 
 2955000    0.7750325   -7.4468589    785.01061  0.022137919   0.02179898            8 
 2956000   0.78077155   -7.4819121     785.7662  0.022151731  0.021792876            7 
 2957000   0.77913714   -7.4757929    785.26046  0.022129987  0.021786775            6 
 2958000   0.78660546   -7.4765597    784.61572  0.022104342  0.021780667            4 
 2959000   0.77948483   -7.4620863    784.38386  0.022090342  0.021774539            4 
 2960000   0.78601445   -7.4580777    784.35458  0.022082055  0.021768415            3 
 2961000   0.77272294   -7.4584698    786.49248  0.022134765  0.021762319            4 
 2962000   0.77025673   -7.4481032    786.00395  0.022113548   0.02175621            8 
 2963000   0.77455765   -7.4139813    785.94331  0.022104379  0.021750145            4 
 2964000   0.77740696   -7.4280781    786.82846  0.022121808  0.021744085            3 
 2965000    0.7899322   -7.4496983    786.37546  0.022101615  0.021738059            5 
 2966000   0.78148246    -7.462176     787.2654  0.022119167  0.021732044            3 
 2967000   0.76838417   -7.4329433    789.37386  0.022170932  0.021726011            5 
 2968000   0.79073955   -7.4597262     786.1362  0.022072557  0.021719962            4 
 2969000   0.79453079   -7.4405506    788.70398  0.022137195  0.021713896            5 
 2970000   0.77914526   -7.4474939    787.20752  0.022087753  0.021707806            6 
 2971000   0.77468724   -7.4677245    785.57104  0.022034417  0.021701684            6 
 2972000   0.78837767   -7.4654733    787.92448  0.022092992  0.021695594            6 
 2973000   0.76563052   -7.4676863    786.77785  0.022053421  0.021689501            4 
 2974000   0.77569016   -7.4858394    787.23469  0.022058807  0.021683375            4 
 2975000   0.77197537   -7.4963253    785.25646  0.021995979  0.021677244            6 
 2976000   0.76292704   -7.4809771    785.70889  0.022001257  0.021671111            7 
 2977000   0.78021918   -7.4720221    785.55394  0.021989529   0.02166497            4 
 2978000   0.77663562   -7.4606219    784.68353  0.021957789  0.021658851            4 
 2979000   0.78121297   -7.4543619    787.42123  0.022027001  0.021652742            3 
 2980000   0.78176645   -7.4516231     786.2211  0.021986049  0.021646634            5 
 2981000   0.77501308   -7.4592367    787.68733  0.022019661  0.021640523            2 
 2982000   0.76708165   -7.4812354    788.29822  0.022029349  0.021634432            2 
 2983000   0.77985657   -7.4519961    786.68516  0.021976901  0.021628321            5 
 2984000    0.7788419   -7.4684194    786.35692   0.02196037  0.021622186            8 
 2985000   0.76344523   -7.4987244    787.29192  0.021979115  0.021616053            4 
 2986000   0.77266213   -7.5118353    785.51888  0.021922273   0.02160991            5 
 2987000   0.77678152   -7.4883815    786.13107  0.021932013  0.021603756            3 
 2988000   0.75926036   -7.4944011     786.2407   0.02192773  0.021597607            3 
 2989000   0.76897402    -7.516999    786.36115  0.021923752  0.021591466            5 
 2990000   0.77061023   -7.4830974    787.97575   0.02196142  0.021585323            5 
 2991000    0.7691431   -7.4695339    786.88503  0.021923688  0.021579207            7 
 2992000   0.76697681   -7.4877899    785.66424   0.02188236  0.021573077            4 
 2993000    0.7717857   -7.4872321    785.00989   0.02185683  0.021566937            5 
 2994000   0.76969576   -7.4569206    785.39733  0.021860313  0.021560808            9 
 2995000   0.78600096    -7.489239    785.54974  0.021857255  0.021554671            3 
 2996000   0.77961223   -7.4862103    787.82852  0.021913343  0.021548538            3 
 2997000   0.77739259   -7.4944178    786.77908  0.021876851  0.021542421            4 
 2998000   0.77243449   -7.4323873    787.80944  0.021898194  0.021536323            7 
 2999000    0.7752904   -7.4617158    786.75904  0.021861705  0.021530249            4 
 3000000    0.7843912   -7.4801359     787.0708  0.021863078  0.021524142            6 
 3001000   0.78166421    -7.469766    788.18297  0.021886676  0.021518051            9 
 3002000   0.77689375   -7.4777897    788.44848  0.021886756  0.021511944            7 
 3003000   0.76043481   -7.4720034    787.69451  0.021858545  0.021505829            5 
 3004000   0.76729764   -7.4521368    788.04248  0.021860921  0.021499717            5 
 3005000   0.79249843   -7.4926852    786.30123  0.021805359  0.021493605           14 
 3006000    0.7726127   -7.5000902    787.25025  0.021824414  0.021487478            6 
 3007000   0.77113724   -7.5036058    786.60506  0.021799276  0.021481354            8 
 3008000   0.75455637   -7.4924339    786.79743  0.021797358  0.021475184            9 
 3009000   0.76024302   -7.4900773    786.18334  0.021773107  0.021469022            5 
 3010000   0.78077579   -7.4706501    787.40786  0.021799775  0.021462874            6 
 3011000   0.77327456   -7.4636459    789.89974  0.021861501  0.021456773            4 
 3012000   0.78254426   -7.4536558    787.55316  0.021789319   0.02145068           15 
 3013000   0.76441452   -7.4896076    788.45783  0.021807109  0.021444609            8 
 3014000   0.76181546   -7.4797482    789.94207  0.021840911  0.021438539           10 
 3015000    0.7714946    -7.455995     787.7687  0.021773596  0.021432467            4 
 3016000   0.77138262   -7.4872309    788.46194  0.021785531  0.021426385           12 
 3017000   0.76673227   -7.4724636    788.91554  0.021790839  0.021420312            6 
 3018000   0.76501258   -7.4844639    787.74004  0.021751161  0.021414225            5 
 3019000   0.76846423   -7.5053774    787.67425   0.02174214  0.021408128            8 
 3020000   0.78283564   -7.4584389    789.43218  0.021783449   0.02140202            5 
 3021000    0.7688894   -7.4745697     788.3538  0.021746491  0.021395915            4 
 3022000   0.76049479   -7.4675985    788.39843  0.021740526   0.02138982           10 
 3023000   0.77520255   -7.4905729    787.54365  0.021709771  0.021383697            7 
 3024000   0.76844056   -7.4917015    788.79185  0.021736989  0.021377563           13 
 3025000   0.76895598   -7.4926864    789.43712  0.021747579   0.02137144            5 
 3026000   0.76389977   -7.4594655    789.64639  0.021746155  0.021365346            6 
 3027000    0.7690738   -7.4725693    789.39737  0.021732116  0.021359269            7 
 3028000   0.77120471    -7.473745     789.1274  0.021717509   0.02135319           10 
 3029000   0.76634089   -7.4919121     788.1868  0.021684461  0.021347095            5 
 3030000   0.75350967   -7.4994093    786.88639   0.02164154  0.021340972            4 
 3031000   0.77043025   -7.4797411    788.29845  0.021673222   0.02133485            6 
 3032000   0.75898807   -7.4924477    788.27201  0.021665348  0.021328736            5 
 3033000   0.76065086    -7.465677    791.02095  0.021733733  0.021322626            5 
 3034000   0.76999675   -7.4959676     788.7864  0.021665195  0.021316537            7 
 3035000   0.76852313   -7.4536728    790.01346  0.021691748  0.021310462            3 
 3036000   0.77725111   -7.4942301    789.25728  0.021663847  0.021304379            6 
 3037000   0.76547875    -7.490015    789.03887  0.021650721   0.02129826            5 
 3038000   0.77643502   -7.4811265    790.06606   0.02167177  0.021292143            2 
 3039000    0.7613645   -7.4617024    790.02529  0.021663521  0.021286021            4 
 3040000   0.76983942   -7.4714028    789.60198  0.021644791  0.021279942            4 
 3041000   0.76109625   -7.4877415    789.78303  0.021642635  0.021273873            4 
 3042000   0.77527743   -7.4778743    789.27243  0.021621533  0.021267801            4 
 3043000   0.75208198   -7.4977752    788.72999  0.021599572  0.021261704            6 
 3044000   0.77161299   -7.4908098    790.30797  0.021635676  0.021255607            4 
 3045000   0.77246251   -7.4974456    789.12379  0.021596163   0.02124951            8 
 3046000   0.76814609   -7.4833462    790.46758  0.021625836  0.021243411            6 
 3047000   0.75222947   -7.4947466    788.94352  0.021577057  0.021237328            3 
 3048000   0.75811151   -7.5014261    790.28866  0.021606755   0.02123124            7 
 3049000   0.75633274   -7.4767387    788.98453  0.021564024  0.021225124            5 
 3050000   0.75811584   -7.5279772    790.02073  0.021585266  0.021219017            5 
 3051000   0.77627822   -7.4785475    789.01002  0.021550585  0.021212896           12 
 3052000   0.77020604   -7.4648542    788.78363  0.021537343  0.021206836            4 
 3053000    0.7710981   -7.4942784    791.54626  0.021605695  0.021200779            6 
 3054000   0.77102961   -7.4810844     789.8852  0.021553296  0.021194712            2 
 3055000   0.77195585   -7.4819993    790.50697  0.021563202  0.021188662            7 
 3056000   0.76416573   -7.4681995    793.30863  0.021632543  0.021182607            3 
 3057000   0.76915112   -7.4623966    790.40428  0.021546295  0.021176584            3 
 3058000    0.7667646   -7.4820484     791.3355  0.021564626   0.02117053           12 
 3059000   0.76281004   -7.4802119    790.93241  0.021546595  0.021164462            4 
 3060000   0.75525175   -7.5304259    790.37316  0.021524324  0.021158388            8 
 3061000   0.76934831   -7.4916542    790.63567  0.021524438  0.021152324            5 
 3062000   0.78696729   -7.4897514    791.20772  0.021532977  0.021146251            5 
 3063000   0.76704642   -7.4819496    791.14826   0.02152433  0.021140181            3 
 3064000   0.76283531   -7.4835026    790.44128  0.021498076   0.02113409            4 
 3065000   0.74587424   -7.5071911    788.81094  0.021446736  0.021127994            6 
 3066000   0.76567878   -7.5178818     789.5095  0.021458727  0.021121909            5 
 3067000   0.76873149   -7.4810369    789.49851  0.021451432  0.021115839            5 
 3068000   0.76137722   -7.5107324    789.85568  0.021454142   0.02110976           10 
 3069000   0.75416811   -7.5022363    790.96709  0.021477329  0.021103654            4 
 3070000   0.76410684   -7.5140371    790.45566  0.021456451  0.021097535            5 
 3071000   0.76694671   -7.5029578    789.87639  0.021433746  0.021091447            4 
 3072000   0.76249981   -7.4940165    791.16985  0.021461856  0.021085368           10 
 3073000    0.7420202   -7.5098559    791.11561  0.021453401  0.021079299            2 
 3074000   0.76501687   -7.5020959    792.09091  0.021472861  0.021073237            6 
 3075000   0.76077412   -7.4793903    793.40726  0.021501552  0.021067199            6 
 3076000   0.75731537   -7.5102301    791.28635  0.021437103  0.021061181            3 
 3077000   0.75734337   -7.5016446    792.73469  0.021469361  0.021055132            7 
 3078000    0.7571434    -7.503912    791.35813  0.021425117  0.021049082            5 
 3079000   0.76597394   -7.5017512    789.84645  0.021377245  0.021043018            5 
 3080000   0.73696166   -7.4622693    790.39766  0.021385218  0.021036947            9 
 3081000    0.7784407   -7.4757499    793.40166  0.021459528  0.021030905            3 
 3082000   0.76498128   -7.4842478    791.54739  0.021402428  0.021024851            2 
 3083000   0.75872715   -7.5173677    792.33424  0.021416754  0.021018791            6 
 3084000   0.76277228   -7.5201251    790.43493  0.021358488  0.021012687            6 
 3085000   0.77716464    -7.493985    790.57664  0.021355393  0.021006606            9 
 3086000   0.75679419   -7.5206945     791.2586  0.021366888  0.021000509            6 
 3087000   0.74112106   -7.5129254    789.80013  0.021320595  0.020994394            3 
 3088000   0.75998602   -7.5068848    789.38121  0.021302386  0.020988272            3 
 3089000   0.76413725   -7.4877005    790.53884  0.021326719  0.020982172            7 
 3090000   0.76096266     -7.48995    789.68999  0.021296925  0.020976088            7 
 3091000   0.77140651   -7.5197341    790.63736  0.021315576  0.020969985            6 
 3092000   0.78255163   -7.5129723    789.02918   0.02126534   0.02096388            2 
 3093000   0.74953363   -7.5104052    788.75949  0.021251199  0.020957759            8 
 3094000   0.76780287   -7.4998258    789.32642    0.0212596  0.020951662            4 
 3095000   0.76601986   -7.5039738    791.39617  0.021308459  0.020945587            6 
 3096000   0.75665836   -7.5347909    789.73982  0.021256994  0.020939481           10 
 3097000   0.76039638   -7.5082964    792.58863  0.021326785  0.020933413            6 
 3098000   0.76675128   -7.4919339    791.57537  0.021292645  0.020927329            4 
 3099000   0.76075628   -7.4898495    791.14372  0.021274167  0.020921266            6 
 3100000   0.75306991   -7.5077862    791.17956  0.021268268  0.020915199            8 
 3101000   0.72684533   -7.5106845    793.29659    0.0213183  0.020909117            3 
 3102000    0.7515626    -7.517419    792.05436  0.021278056   0.02090303            3 
 3103000   0.75053103   -7.4920809    792.22624  0.021275815  0.020896941            3 
 3104000   0.74659085   -7.5122858    791.99404  0.021262726  0.020890874            4 
 3105000   0.75583962    -7.532762    791.23355  0.021235468  0.020884794            3 
 3106000   0.75760478    -7.538104    790.16336  0.021199919  0.020878709            3 
 3107000   0.76003051   -7.5242262    792.10301  0.021245119  0.020872602            3 
 3108000   0.75148713   -7.5024941    792.89596  0.021259544  0.020866529            4 
 3109000   0.76697039   -7.5053753     792.3339  0.021237641  0.020860488            5 
 3110000   0.75636197   -7.4950393     793.6636  0.021266442  0.020854447            8 
 3111000   0.75580002   -7.4781738    793.56856   0.02125706    0.0208484            4 
 3112000   0.74147648   -7.5037262    792.06208  0.021209889  0.020842353            4 
 3113000   0.76715791   -7.4643324    794.11935  0.021258147  0.020836313            3 
 3114000   0.75801901   -7.4893881    792.26221  0.021201622  0.020830293            5 
 3115000   0.76514197   -7.4981245     792.4314  0.021199342  0.020824269            4 
 3116000    0.7752228   -7.4885609    793.75392  0.021227908  0.020818245            5 
 3117000   0.73586339   -7.5096918    792.67181  0.021192167  0.020812192            5 
 3118000   0.75845439   -7.4948608    792.86217  0.021190458  0.020806168            4 
 3119000   0.74259427   -7.5049101    793.27899    0.0211948  0.020800162            4 
 3120000   0.74542203   -7.4912717    793.13437  0.021184144  0.020794155            9 
 3121000   0.74983059   -7.5257723    792.50039  0.021160429  0.020788127            7 
 3122000   0.75436149      -7.5212    793.73436  0.021186589  0.020782069            7 
 3123000   0.75065493   -7.5429072    793.65688  0.021177737  0.020776006           16 
 3124000   0.75105855   -7.5356733    792.95693  0.021152287  0.020769958           10 
 3125000   0.75875716   -7.5260702    793.11317  0.021149685  0.020763915            6 
 3126000   0.73637006   -7.5084762    792.28927  0.021120955  0.020757878            5 
 3127000    0.7536051   -7.5047065    793.91525  0.021157532  0.020751893            5 
 3128000   0.74810441   -7.5321197    792.93547  0.021124666  0.020745908            4 
 3129000   0.75650957   -7.5196336    795.87153   0.02119611  0.020739939            9 
 3130000   0.75233044   -7.5419246    793.69876   0.02113149  0.020733947           13 
 3131000   0.74725886   -7.5357209    793.37285  0.021116066  0.020727931            6 
 3132000   0.74707507   -7.5162967    792.99961  0.021099394  0.020721892            7 
 3133000   0.75857181   -7.5205493    795.29036   0.02115359  0.020715901            6 
 3134000   0.76277131   -7.5094641    791.75749  0.021052901  0.020709926            7 
 3135000   0.76695737   -7.5154441    796.05634  0.021160456  0.020703934            5 
 3136000   0.74723449   -7.5321773    793.40821  0.021083339  0.020697929            5 
 3137000   0.74650461   -7.5073859    794.29305  0.021100124   0.02069194            6 
 3138000    0.7471132   -7.5343963    794.15537  0.021089743  0.020685961            4 
 3139000   0.74880671   -7.5429701    793.16633  0.021056768  0.020679945            8 
 3140000   0.74104013   -7.5190792    794.49939   0.02108544  0.020673944            5 
 3141000   0.75036673   -7.5276995    794.77711  0.021086096  0.020667945            2 
 3142000   0.75704432   -7.5132486    794.75283   0.02107874  0.020661953            3 
 3143000   0.73529377   -7.5127561    792.46072  0.021011261  0.020655955            4 
 3144000   0.76370292   -7.5264595    793.45941  0.021031049  0.020649943            3 
 3145000   0.74751151   -7.5064773    795.48358  0.021077996  0.020643945            4 
 3146000   0.74524877   -7.5286012    794.33933  0.021040987  0.020637935           13 
 3147000    0.7428675   -7.4992632    793.80012  0.021020022  0.020631907            7 
 3148000   0.74602185   -7.5339038    794.81463  0.021040201   0.02062589            2 
 3149000   0.73877022   -7.4976505     792.7078  0.020977765    0.0206199            3 
 3150000   0.76354619   -7.5293419    792.76405  0.020972594  0.020613908            7 
 3151000   0.74791276   -7.5236923    794.35313  0.021007964  0.020607914            5 
 3152000   0.75347002   -7.5359093    794.46347  0.021004216   0.02060194            4 
 3153000   0.73825502   -7.5206718    793.37083  0.020968676  0.020595936            6 
 3154000   0.75320258    -7.518764    794.09109  0.020981058  0.020589943            4 
 3155000   0.75127322   -7.5234421    792.80952  0.020940558  0.020583954            5 
 3156000   0.73197418   -7.5243813    795.33883  0.021000708  0.020577939            5 
 3157000   0.73816939   -7.5406754    794.90224  0.020982532  0.020571905            3 
 3158000   0.75617821   -7.5417787    795.53935    0.0209927  0.020565873            5 
 3159000   0.74515724   -7.5406897    794.82171  0.020967123  0.020559841           10 
 3160000   0.75656898   -7.5367209    792.96972  0.020911649  0.020553797            7 
 3161000   0.76962934   -7.5503751    794.56865  0.020947186   0.02054776            3 
 3162000   0.74794054   -7.5391304    794.35896  0.020935035  0.020541705            5 
 3163000   0.75511051   -7.5234593    794.10712  0.020921781  0.020535657            5 
 3164000   0.73484709   -7.5471626    793.15169  0.020890004  0.020529615            5 
 3165000   0.75722461   -7.5388237    792.87848  0.020876211  0.020523585           10 
 3166000    0.7414213   -7.5321073    792.40502  0.020857155  0.020517524            6 
 3167000   0.73795362   -7.5274583    792.23876  0.020846194  0.020511455            5 
 3168000   0.76652546    -7.532266    796.35028  0.020947766  0.020505446            7 
 3169000   0.75751469   -7.5436638    793.86679  0.020875849  0.020499437            7 
 3170000   0.73685339   -7.5436606    794.12106  0.020875948  0.020493431            4 
 3171000      0.73044   -7.5133904    795.26053   0.02089931  0.020487411            4 
 3172000   0.75821465   -7.5477117    794.79723  0.020880549  0.020481392            8 
 3173000   0.72865887   -7.5417431      793.806  0.020847936  0.020475366           12 
 3174000   0.75514848   -7.5368582    794.31727  0.020854791  0.020469336            4 
 3175000   0.74186903   -7.5331191    794.71507  0.020858663   0.02046332            5 
 3176000    0.7341969   -7.5189186    793.62905    0.0208236  0.020457298            7 
 3177000   0.73765421   -7.5343213    795.39255  0.020863303  0.020451287            6 
 3178000   0.74649853   -7.5357888    795.35795   0.02085583  0.020445304            8 
 3179000   0.74810029    -7.536116    794.43834  0.020825163  0.020439318            6 
 3180000   0.74086063   -7.5276911    795.03143  0.020834157  0.020433326            4 
 3181000   0.73872456   -7.5074108     795.0629  0.020828432  0.020427349            6 
 3182000   0.72999326   -7.5296735    797.15253  0.020876611  0.020421381            6 
 3183000   0.74372006   -7.5503994    795.66318   0.02083106  0.020415417           11 
 3184000   0.73828513   -7.5331461    793.88599  0.020778004  0.020409448            7 
 3185000   0.74600996   -7.5101174    793.27031  0.020755372  0.020403452            4 
 3186000   0.74856079   -7.4995293    796.29875  0.020828069  0.020397464            3 
 3187000    0.7466906   -7.5345173     794.2783  0.020768703  0.020391475            5 
 3188000    0.7408179   -7.5343036    794.95998  0.020780008  0.020385476            3 
 3189000   0.74523346   -7.5117179    796.99881  0.020826769  0.020379489            3 
 3190000   0.74274722   -7.5271802    794.42415  0.020752982   0.02037349            8 
 3191000    0.7469372   -7.5264673    796.25888  0.020794392  0.020367534            5 
 3192000   0.74918565   -7.5454768     795.0967  0.020757537  0.020361554            7 
 3193000   0.72168914   -7.5257632    794.44917  0.020734136  0.020355593            9 
 3194000   0.74539554   -7.5218304    796.11177  0.020771023  0.020349612            5 
 3195000   0.73130732   -7.5413912    796.79477  0.020782336  0.020343657            9 
 3196000    0.7416506   -7.5652737    795.66791  0.020746452   0.02033767            7 
 3197000   0.74447801   -7.5758452    794.31598  0.020704723  0.020331688            7 
 3198000   0.73328143   -7.5621964    794.89595  0.020713361  0.020325713            5 
 3199000   0.72753191   -7.5429263    795.62914  0.020725986   0.02031975            7 
 3200000     0.748498   -7.5079505    796.24717  0.020735603  0.020313796            4 
 3201000   0.74004584    -7.536376    796.00431  0.020722803  0.020307857            5 
 3202000   0.73492524   -7.5403169    795.43569  0.020701533  0.020301915            3 
 3203000   0.74770371   -7.5297194    795.68279  0.020701498   0.02029597            7 
 3204000   0.74700511   -7.5242755    794.34107   0.02066014  0.020290027            5 
 3205000   0.74062859   -7.5223482    795.13999  0.020674467  0.020284087            5 
 3206000   0.74150885   -7.5489678    796.14683  0.020694189  0.020278134            4 
 3207000   0.72501668   -7.5475482    795.76228  0.020677743  0.020272181            4 
 3208000   0.72703239   -7.5592948    795.59674  0.020666998  0.020266196            4 
 3209000   0.74704701    -7.540564    796.24952  0.020677509  0.020260227            5 
 3210000   0.74902548   -7.5316399    797.36727  0.020700085  0.020254272            5 
 3211000   0.74727934   -7.5340266    795.73348  0.020651237  0.020248299            4 
 3212000   0.73503838   -7.5431615    796.57211  0.020666566  0.020242331            4 
 3213000   0.75039098   -7.5313463    797.27328  0.020678319   0.02023637            4 
 3214000   0.73804454   -7.5551896    793.61774  0.020577104  0.020230413            9 
 3215000   0.73137439   -7.5239177    796.60285  0.020648078  0.020224431            4 
 3216000   0.73592286   -7.5283719    797.01805  0.020652416  0.020218489            4 
 3217000   0.74036702    -7.555367    795.10574   0.02059646  0.020212538            3 
 3218000   0.72884036   -7.5449535    794.19489  0.020566472  0.020206557            3 
 3219000   0.72863635   -7.5692527     795.2775   0.02058811  0.020200568            4 
 3220000   0.72403563   -7.5872838    796.85479  0.020622536  0.020194602            3 
 3221000   0.71492185   -7.5442328    795.71915  0.020586752  0.020188648           11 
 3222000   0.73946375   -7.5374998    796.02961  0.020588393  0.020182707            7 
 3223000   0.73355395   -7.5128658    798.47319  0.020645185  0.020176789            8 
 3224000   0.72337821   -7.5783018    796.20047  0.020580037  0.020170858            7 
 3225000   0.72199159   -7.5537564     795.7235  0.020561331   0.02016493            5 
 3226000    0.7370574   -7.5557752    796.14764  0.020565913  0.020158991            3 
 3227000   0.74560711   -7.5803078    797.06834  0.020583316  0.020153045            5 
 3228000   0.75826807   -7.5523338    795.98986  0.020549098  0.020147106            4 
 3229000    0.7515432   -7.5221863    795.48167  0.020529619   0.02014118            8 
 3230000   0.74307687   -7.5411503    797.73518  0.020581403  0.020135261            4 
 3231000   0.72807015   -7.5316626    798.74004   0.02060095  0.020129362           14 
 3232000   0.73625797   -7.5554481    795.08834  0.020500421  0.020123453            5 
 3233000   0.75426889    -7.563249    798.05757  0.020570615   0.02011755            4 
 3234000   0.73030782   -7.5466866    796.54222  0.020525207  0.020111662            5 
 3235000   0.73405488   -7.5536781    797.42282  0.020541546  0.020105767            8 
 3236000   0.73208334   -7.5509516     796.6889  0.020516299  0.020099887            8 
 3237000   0.74465781   -7.5595639    799.22291  0.020575196  0.020093994            4 
 3238000   0.72307973   -7.5334912    797.94971  0.020536074  0.020088091            4 
 3239000   0.74901576   -7.5677297    796.62398  0.020495626  0.020082189            9 
 3240000   0.73347587   -7.5700698    796.18335  0.020477967  0.020076266            4 
 3241000   0.72442952   -7.5730277    798.55503   0.02053263   0.02007037            7 
 3242000   0.73278347   -7.5517175    797.63749  0.020502712  0.020064481            6 
 3243000    0.7233817   -7.5517947    797.73198  0.020498817  0.020058612            4 
 3244000   0.72963489   -7.5674004    797.68169  0.020491207  0.020052726            7 
 3245000    0.7502976   -7.5514452    797.72415  0.020485982  0.020046818            9 
 3246000   0.73424713   -7.5606207    796.82971  0.020456709  0.020040938            7 
 3247000   0.72104129   -7.5713194    798.70662  0.020498579  0.020035056            8 
 3248000   0.71687147   -7.5875679    798.38367  0.020483982  0.020029178            5 
 3249000   0.74014532   -7.5674766    797.52485  0.020455649  0.020023266            8 
 3250000   0.73406197   -7.5774839      799.582  0.020502103  0.020017356            5 
 3251000   0.72167629   -7.5970583    797.63438  0.020445872  0.020011446            4 
 3252000   0.73056626     -7.55449    797.60418  0.020438811  0.020005553            6 
 3253000   0.71464327   -7.5628195    797.36223   0.02042633  0.019999647            2 
 3254000    0.7319586   -7.5812516     797.7535  0.020430073  0.019993724            5 
 3255000   0.72602505   -7.5583124    796.57283   0.02039357  0.019987809            9 
 3256000     0.722868   -7.5800727    796.65236  0.020389342  0.019981887            6 
 3257000   0.71169724   -7.5685088    796.92368  0.020390024  0.019975975            5 
 3258000   0.73591437   -7.5739924    798.74584  0.020430372  0.019970083            5 
 3259000   0.72721161   -7.5563702     799.1825  0.020435269  0.019964179            2 
 3260000   0.73157571   -7.5601816    797.38885  0.020383151  0.019958281            3 
 3261000   0.72874793   -7.5764671    797.08215  0.020369062  0.019952355            5 
 3262000   0.71712534   -7.5654273    797.41644  0.020371358  0.019946439            4 
 3263000   0.72714096   -7.5773585    797.08041  0.020356533  0.019940523           15 
 3264000   0.72505523    -7.548917    797.84449  0.020369804   0.01993461            6 
 3265000   0.72067316   -7.5730175     798.9279  0.020391218  0.019928721           10 
 3266000   0.74863403   -7.5687256    799.17493  0.020391277  0.019922848            3 
 3267000   0.72553816    -7.587503    798.52719  0.020368513   0.01991694            6 
 3268000   0.70894109   -7.5801793    797.49744  0.020336022  0.019911017            3 
 3269000   0.72131571   -7.5646298    797.62586  0.020333075  0.019905107            7 
 3270000   0.71548415   -7.5496179     798.6191  0.020352169   0.01989919            5 
 3271000   0.71500333    -7.549378    800.72531  0.020399605  0.019893298            3 
 3272000   0.71947398   -7.5467335    799.23946  0.020355528   0.01988742            4 
 3273000   0.73624645   -7.5609572    799.02805  0.020343926  0.019881577            3 
 3274000   0.70957433   -7.5872377    796.48318  0.020272938  0.019875697            8 
 3275000    0.7267278   -7.5847202    797.67774  0.020297144  0.019869793            8 
 3276000   0.72796971    -7.583667    797.83204  0.020294873  0.019863893            7 
 3277000   0.72269369    -7.598429    796.66814  0.020259082  0.019857986            4 
 3278000   0.71645044   -7.6002723    796.98658  0.020260997  0.019852071            5 
 3279000   0.72981065   -7.5754659    797.61607  0.020270816   0.01984617            5 
 3280000   0.73242385   -7.5693701    798.05025  0.020275667  0.019840251            6 
 3281000   0.71784084   -7.5846083    799.28817  0.020300929  0.019834356            4 
 3282000   0.74492751   -7.5881525    797.46365  0.020248417   0.01982846            6 
 3283000   0.73659428   -7.5913138    796.59615  0.020220229  0.019822548            5 
 3284000   0.70986253   -7.5943039    798.58712  0.020264594  0.019816644            3 
 3285000   0.73730934   -7.5677688    798.68486  0.020260905  0.019810737            4 
 3286000   0.72832465   -7.5792798    799.88391  0.020285147  0.019804836            4 
 3287000   0.73541864   -7.5638878    796.71321  0.020198591  0.019798929            2 
 3288000   0.73503306   -7.5967688    798.16826  0.020229325  0.019793016           10 
 3289000   0.72578484   -7.5713791    797.95929   0.02021788  0.019787114            7 
 3290000   0.71570676   -7.5511589    798.17643  0.020217235  0.019781224            4 
 3291000   0.72081433    -7.577071    799.07618  0.020233875   0.01977533            4 
 3292000   0.71550694   -7.5731255    797.85878  0.020196911  0.019769431            6 
 3293000   0.71419649   -7.6055377    798.02993  0.020195109  0.019763518            6 
 3294000   0.72895059   -7.5946562    797.49828  0.020175528  0.019757611           15 
 3295000   0.72669796   -7.5848882    796.95446  0.020155652  0.019751689            6 
 3296000   0.71514569   -7.6070014     799.0333  0.020202096  0.019745779            9 
 3297000   0.72246499   -7.5843442    798.25037  0.020176179  0.019739855            8 
 3298000   0.71950626   -7.6013204    796.23135  0.020119046   0.01973395            5 
 3299000   0.72132864   -7.6014816    798.71259  0.020175624  0.019728035            5 
 3300000   0.72288259   -7.5919198    798.92073  0.020174766  0.019722128            5 
 3301000   0.70800001   -7.5849169    797.68208  0.020137385  0.019716223            5 
 3302000   0.69931563   -7.5921962    796.88237  0.020111104  0.019710327           11 
 3303000    0.7194537   -7.5759998      798.932  0.020156726  0.019704444            7 
 3304000   0.72450728    -7.568916    800.84045   0.02019876  0.019698557            6 
 3305000   0.73518168    -7.562896    799.30087  0.020153829  0.019692705            7 
 3306000   0.73548303   -7.5831973    798.95663  0.020139056   0.01968686            6 
 3307000   0.70638343   -7.5808044    799.40314  0.020144218  0.019681016            5 
 3308000   0.71984229   -7.5822047    800.46994  0.020165002  0.019675173            4 
 3309000   0.72579619    -7.576062    799.67105  0.020138789  0.019669339            5 
 3310000   0.71847084   -7.5888427    798.49053  0.020102984  0.019663499           16 
 3311000   0.71614236   -7.5751458     799.5355  0.020123213  0.019657641            7 
 3312000   0.73620525   -7.6010592    799.34821  0.020112425  0.019651773            6 
 3313000   0.72534228   -7.6032538    800.42465   0.02013343  0.019645895            5 
 3314000    0.7370368   -7.6031919    798.14945  0.020070143  0.019640006            5 
 3315000   0.72474943   -7.6235314    797.57758  0.020049713  0.019634116            4 
 3316000    0.7102129    -7.602865     800.1877  0.020109261  0.019628215            6 
 3317000   0.72793625   -7.6022567    797.63603  0.020039092  0.019622326            9 
 3318000   0.70140118   -7.5865703    797.73718  0.020035593  0.019616445            9 
 3319000   0.72434106    -7.620208    797.06692  0.020012728  0.019610551            7 
 3320000   0.73198028   -7.6024551    797.86043  0.020026617  0.019604674           10 
 3321000    0.7156329   -7.5597197    798.23556      0.02003  0.019598807            8 
 3322000   0.72908239   -7.5829684    801.22775   0.02009903  0.019592962            6 
 3323000   0.72622517   -7.5900685      798.236  0.020017956  0.019587096            6 
 3324000   0.72880124    -7.564439    798.95633  0.020029992  0.019581232            4 
 3325000   0.71041505   -7.5952646     800.3688  0.020059368  0.019575373            7 
 3326000   0.72519244   -7.5784152     798.7779  0.020013477  0.019569521            5 
 3327000   0.73086343   -7.5944801    799.98477  0.020037691  0.019563669            3 
 3328000   0.72446553   -7.6235548    796.90345  0.019954513  0.019557802            6 
 3329000    0.7343954   -7.5953155    797.86615  0.019972618  0.019551918            6 
 3330000   0.72515004   -7.6000773    799.66279  0.020011581  0.019546057            7 
 3331000   0.72123236   -7.5809414    798.21116  0.019969257  0.019540206            5 
 3332000   0.70936689   -7.5914977    799.67375  0.019999844  0.019534348            6 
 3333000   0.70729929   -7.6017565    798.63872  0.019967965  0.019528491            3 
 3334000   0.70137633   -7.5841273    798.19935  0.019950994   0.01952264            3 
 3335000   0.71712528   -7.6328638    797.57784  0.019929481  0.019516763           11 
 3336000   0.71888144   -7.6044364     797.6438  0.019925155  0.019510887            4 
 3337000   0.70416863   -7.5786031    800.84929  0.019999233  0.019505046            6 
 3338000   0.72069074    -7.606488    798.72396  0.019940183  0.019499203            4 
 3339000   0.70644977   -7.5915358    799.94868  0.019964777  0.019493351            4 
 3340000   0.72663041   -7.6092884    800.51104   0.01997283  0.019487529            8 
 3341000   0.72637155   -7.5686842    800.81454  0.019974422  0.019481686           21 
 3342000   0.71656753   -7.6176719    799.69335  0.019940489  0.019475813           16 
 3343000   0.71761918   -7.6029587     798.3362  0.019900693  0.019469954            7 
 3344000   0.70822209   -7.5962258    798.83976  0.019907291  0.019464083            8 
 3345000   0.72279889   -7.6210487    798.21939  0.019885884   0.01945821            3 
 3346000    0.7188727   -7.5985697    799.87416  0.019921154  0.019452351            4 
 3347000   0.71767215   -7.6060665    799.42952  0.019904131  0.019446464            9 
 3348000   0.71532673   -7.5960748    799.32162    0.0198955  0.019440611            5 
 3349000   0.72914778   -7.6159801    798.75667  0.019875502   0.01943473            7 
 3350000   0.73010996   -7.6010871    799.57085  0.019889822  0.019428839            3 
 3351000   0.70370044   -7.5871808    798.61872  0.019860209  0.019422952            5 
 3352000   0.71708641   -7.5840967    799.66868  0.019880387   0.01941707            2 
 3353000   0.70465003   -7.6317182    797.58667  0.019822713  0.019411163            3 
 3354000   0.70779136   -7.6218636      800.495  0.019889063  0.019405268            4 
 3355000   0.70429868   -7.6208286    797.52863  0.019809454  0.019399374            3 
 3356000   0.71907667   -7.5946137    798.13046  0.019818496  0.019393484            5 
 3357000   0.72657864   -7.6104412    798.54592  0.019822905  0.019387581            4 
 3358000   0.70634798   -7.6029011    798.93514  0.019826661  0.019381681            7 
 3359000   0.71767091   -7.6337133    798.83564   0.01981829  0.019375793            8 
 3360000   0.71107287   -7.6080371    799.55072  0.019830127  0.019369916            5 
 3361000   0.71422241   -7.5981968    799.12384  0.019813643  0.019364062           14 
 3362000   0.71250947   -7.5974799    800.15516  0.019833312  0.019358214            8 
 3363000   0.71469766   -7.5974635    796.34175  0.019732921  0.019352343            7 
 3364000   0.70847045   -7.6091508    799.27849  0.019799804  0.019346451            4 
 3365000   0.71565818   -7.6242116    798.78625   0.01978173  0.019340552            9 
 3366000   0.71028357   -7.6146378    798.54128  0.019769788  0.019334656            7 
 3367000   0.72300815   -7.6106756    798.15378  0.019754326  0.019328808            7 
 3368000   0.70659354    -7.603703    799.25758  0.019775771  0.019322943            5 
 3369000   0.70648805   -7.6134477    798.16192    0.0197428  0.019317077            3 
 3370000   0.71307182    -7.595703    799.68026  0.019774487  0.019311227           10 
 3371000   0.71492431   -7.6102511    799.56867  0.019765863  0.019305402            7 
 3372000    0.7215898   -7.5627362    799.09638  0.019748329  0.019299574            7 
 3373000   0.70650723   -7.5719446    799.23696  0.019745947  0.019293759            5 
 3374000   0.70793886   -7.5926756     798.1292  0.019712735  0.019287909            9 
 3375000   0.71597596   -7.6013402     799.0521  0.019729681   0.01928208           11 
 3376000   0.70890865   -7.5916587    799.70029  0.019739837  0.019276249            5 
 3377000   0.71545572   -7.6061311    799.20723  0.019721825  0.019270424           12 
 3378000   0.72856333   -7.6066295    798.60115  0.019701035  0.019264589            7 
 3379000    0.6991112   -7.5974115    798.73309  0.019698458  0.019258726            5 
 3380000   0.70210714   -7.6154846    799.34219  0.019707648  0.019252861            3 
 3381000   0.72771245   -7.6122125     799.6214  0.019708701  0.019247013            4 
 3382000   0.72226285   -7.5941729     800.2436  0.019718204  0.019241179            7 
 3383000   0.70740459   -7.6301327    800.53605  0.019719579  0.019235342            5 
 3384000   0.69622475    -7.629185     799.8923  0.019697899  0.019229511            8 
 3385000   0.70795815   -7.6384978    798.90448  0.019667762  0.019223654            6 
 3386000   0.70497923   -7.6353419    799.35046  0.019672929  0.019217803            5 
 3387000   0.71412385   -7.6290919    798.03246  0.019634693  0.019211977            3 
 3388000   0.71391427   -7.6341967    799.83813  0.019673311  0.019206148            5 
 3389000   0.70707336   -7.6202114    798.81991  0.019642469  0.019200315           10 
 3390000   0.71278225   -7.6172694    800.09202  0.019667945   0.01919447           12 
 3391000   0.72089248   -7.6014797    800.76427  0.019678666  0.019188616            5 
 3392000   0.70618445   -7.5964918    799.54044  0.019642798  0.019182796            5 
 3393000   0.72683736   -7.5855119    798.92976   0.01962201   0.01917696            9 
 3394000   0.71292177   -7.6103314    799.25511  0.019624217  0.019171121            6 
 3395000   0.71253902   -7.6147872    799.14926  0.019615839  0.019165269            3 
 3396000   0.70702795   -7.6249741    798.74063  0.019600035  0.019159421           10 
 3397000   0.70366771   -7.6233394    798.97576  0.019600033  0.019153571            6 
 3398000   0.70812935    -7.624826     799.5074  0.019607303   0.01914772            6 
 3399000   0.70443282   -7.6064973    799.63125  0.019604571  0.019141871            3 
 3400000   0.70373391   -7.6239699    799.26078  0.019589725  0.019136005            8 
 3401000   0.70121536   -7.6185839    796.88094  0.019525653  0.019130139            7 
 3402000   0.70066278   -7.6370766    798.87874   0.01956885  0.019124284            5 
 3403000   0.70051833   -7.6076749     799.7236  0.019583789  0.019118436            5 
 3404000    0.7050998   -7.6148993    799.16105  0.019564264  0.019112599            3 
 3405000   0.71209738   -7.6264488    798.36321  0.019538992  0.019106761            4 
 3406000   0.71007524   -7.6112212    799.26411  0.019555297  0.019100922            5 
 3407000   0.70172896   -7.6259371    799.31088  0.019550702  0.019095079            6 
 3408000   0.70493051   -7.6146742    799.38063   0.01954667  0.019089216            5 
 3409000   0.71497057   -7.6166062    798.10559  0.019509768  0.019083372            9 
 3410000   0.72244044   -7.6065218    800.71679  0.019567859  0.019077543            7 
 3411000   0.71103569   -7.5935477    800.88095  0.019566133   0.01907175            9 
 3412000   0.70151605    -7.632527    800.06071  0.019540365  0.019065962            4 
 3413000   0.70189653   -7.6183906    800.03321  0.019533968  0.019060141            4 
 3414000   0.70318281   -7.6158861    800.06605  0.019529048  0.019054325           11 
 3415000   0.69593578   -7.6066417    800.21593  0.019526987  0.019048522            4 
 3416000   0.71314676   -7.6054676    800.65842  0.019532065  0.019042731            6 
 3417000   0.68907605   -7.6301916    798.86305  0.019482564  0.019036935            8 
 3418000   0.69538885   -7.6050329    801.25015  0.019535063  0.019031151            7 
 3419000   0.71187649   -7.6240607     799.7269  0.019492222  0.019025356            5 
 3420000   0.68260297   -7.6213422    800.46037  0.019504395   0.01901955            7 
 3421000   0.70980752   -7.6345726      800.935  0.019510255  0.019013734            9 
 3422000   0.71355895   -7.6433436    798.33548   0.01944125  0.019007921            5 
 3423000   0.71292124   -7.6538371    799.09178  0.019453982  0.019002114            5 
 3424000   0.69140699   -7.6377936    800.41507  0.019480507  0.018996325           21 
 3425000   0.70783162   -7.6012042    801.41271  0.019499093  0.018990544           19 
 3426000   0.69879235   -7.6374922    798.88695  0.019431965  0.018984781            9 
 3427000   0.69401549   -7.6282755    799.26969  0.019435602  0.018978979           24 
 3428000   0.69358334   -7.6447998    799.51862  0.019435984  0.018973187           10 
 3429000   0.70610477   -7.6085369    800.46498  0.019453314  0.018967384           14 
 3430000    0.6949106   -7.6246329    800.71147  0.019453631  0.018961594           18 
 3431000   0.71510648   -7.6098103    801.42268  0.019465236  0.018955802           15 
 3432000   0.70097251    -7.612281    801.50917  0.019461664  0.018950006            4 
 3433000   0.71347012    -7.644578     800.6705  0.019435637  0.018944225            5 
 3434000   0.71332212   -7.6444746    799.82636  0.019409492  0.018938434            3 
 3435000   0.69716606   -7.6189202     799.4778  0.019395386  0.018932646            3 
 3436000   0.69542669   -7.6445517    798.89326  0.019375564  0.018926849            3 
 3437000    0.7057156    -7.620204    800.88333  0.019418178  0.018921071            4 
 3438000   0.70770007    -7.619803    800.74815  0.019409253  0.018915291            8 
 3439000   0.69464416   -7.6362869    798.89673  0.019358746  0.018909506            4 
 3440000   0.68619836   -7.6338272    799.00998  0.019355862  0.018903713            7 
 3441000   0.70088638   -7.6322368    800.13285   0.01937743  0.018897903            9 
 3442000   0.71239888   -7.6377683    799.00903  0.019344592  0.018892106            5 
 3443000   0.71182261    -7.633227    799.40905  0.019348655  0.018886287            8 
 3444000   0.70136523    -7.655929    800.54718  0.019370576  0.018880472            5 
 3445000   0.68742962   -7.6250889    799.96777  0.019350938  0.018874674            5 
 3446000   0.69754712    -7.640006    799.78082  0.019340801  0.018868885            3 
 3447000   0.70020733   -7.6254324    801.10865  0.019367292  0.018863095            5 
 3448000   0.70415864   -7.6261982    797.90677   0.01928429  0.018857308            6 
 3449000   0.71387682   -7.6133871    800.35715  0.019337904   0.01885151            5 
 3450000   0.68836519    -7.603714    799.77638   0.01931827  0.018845726            6 
 3451000   0.69673241   -7.6290894      799.777  0.019312687  0.018839939            3 
 3452000    0.6892685   -7.6401362    798.97587  0.019287753  0.018834151            9 
 3453000   0.68102478   -7.6385909    799.20073  0.019287594  0.018828356            8 
 3454000   0.69363571   -7.6315967    800.10203  0.019303755  0.018822554            6 
 3455000   0.70703892   -7.6227479    800.05402   0.01929701  0.018816767            4 
 3456000   0.69044017    -7.627095     799.9358  0.019288575  0.018810974            4 
 3457000    0.6869957   -7.6143633    801.15042  0.019312275  0.018805176            6 
 3458000    0.6913939   -7.6406484    798.51522  0.019243185  0.018799378            4 
 3459000   0.70766441   -7.6461456    799.26612  0.019255713  0.018793573            5 
 3460000   0.69062367   -7.6562142    797.85377  0.019216131  0.018787757            6 
 3461000   0.69460816   -7.6526832    799.74406  0.019256093  0.018781939            8 
 3462000   0.69064201   -7.6538328    798.26799  0.019215001  0.018776104           10 
 3463000   0.69859772   -7.6332032    799.68208  0.019243481   0.01877029            6 
 3464000   0.71548569   -7.6623545    799.43725  0.019232035  0.018764467            6 
 3465000   0.68516919   -7.6619306    798.76285  0.019210266  0.018758649            4 
 3466000   0.69291003    -7.657713    798.60384    0.0192009  0.018752828            4 
 3467000   0.68233109   -7.6421059    797.30972  0.019164256  0.018747031            6 
 3468000   0.70780521   -7.6421744     798.2657  0.019181702  0.018741216            7 
 3469000   0.69646799    -7.663385    799.74369  0.019211677  0.018735399            4 
 3470000   0.68551593   -7.6483022    800.15415  0.019215998  0.018729601            4 
 3471000   0.68999529   -7.6516246    799.76289  0.019201068  0.018723805            8 
 3472000   0.71483988   -7.6196472    800.08109  0.019203175  0.018718012            7 
 3473000   0.71324434   -7.6469397     798.8528  0.019168173  0.018712209            8 
 3474000   0.71230425   -7.6735839    798.34125  0.019150385  0.018706396            3 
 3475000   0.69073043   -7.6777185    797.04375  0.019113759  0.018700555            3 
 3476000   0.70541514   -7.6477484    798.66243  0.019147066  0.018694743            4 
 3477000   0.70460624   -7.6677644    799.39249  0.019159057   0.01868894            9 
 3478000     0.706792   -7.6354701    800.96449  0.019191214  0.018683151            6 
 3479000   0.68685596   -7.6510015    799.71698  0.019155815  0.018677355            5 
 3480000   0.69113971    -7.629269    798.72093  0.019126459  0.018671566            5 
 3481000   0.70634631   -7.6578497    800.62781  0.019166614  0.018665786            5 
 3482000   0.69364964   -7.6536826    799.95662  0.019145046  0.018660002            8 
 3483000   0.68844634   -7.6623084    800.24249  0.019146389   0.01865422            5 
 3484000   0.70491736   -7.6364647    798.10121  0.019089677   0.01864843            6 
 3485000   0.71112841   -7.6541723    797.70722  0.019074778  0.018642644            7 
 3486000   0.68386403   -7.6505771    800.05783  0.019125498  0.018636869            9 
 3487000   0.70410617   -7.6278522    799.38695   0.01910398  0.018631099            6 
 3488000   0.69767639   -7.6668655    799.60686  0.019103757  0.018625331            8 
 3489000   0.69350272   -7.6433582     801.3114  0.019138994  0.018619557            7 
 3490000   0.69466293   -7.6473716    800.36819  0.019110988  0.018613787            6 
 3491000   0.69343865   -7.6518315    798.52969  0.019061627  0.018608005            4 
 3492000   0.69356866   -7.6460003    799.42609   0.01907756  0.018602212            2 
 3493000   0.68249961   -7.6518389    800.36621  0.019094527  0.018596411            6 
 3494000   0.70262012   -7.6398605    799.58726  0.019070484   0.01859061            7 
 3495000   0.69778387   -7.6733693    798.71175  0.019044152  0.018584815           16 
 3496000   0.69488456   -7.6494288    798.91332   0.01904351  0.018579027            8 
 3497000    0.6910769   -7.6482242    799.83352  0.019059992  0.018573247            6 
 3498000   0.69660237   -7.6645943     799.2381  0.019040359  0.018567457            5 
 3499000    0.7064744   -7.6809473    800.13539  0.019056287   0.01856169            4 
 3500000   0.71486483   -7.6574855    799.37853  0.019032822   0.01855591           11 
 3501000   0.67134402   -7.6259335    798.89604  0.019015901   0.01855014            5 
 3502000   0.68700149   -7.6576399    801.68547  0.019076848  0.018544367            6 
 3503000   0.70837109   -7.6443352    799.83648  0.019027416  0.018538598            9 
 3504000   0.69877995   -7.6736453    799.14634  0.019005573  0.018532815            8 
 3505000   0.70334821     -7.66345    799.77229  0.019015033   0.01852704            6 
 3506000   0.69885136   -7.6334824    799.87911  0.019012149  0.018521271            5 
 3507000    0.6921913   -7.6694913    798.52059  0.018974446  0.018515505            3 
 3508000   0.69358989   -7.6417348    799.82331  0.018999984  0.018509723            4 
 3509000   0.68878001   -7.6631908    798.67481  0.018967294  0.018503953            6 
 3510000   0.69703017   -7.6512265    800.81364   0.01901267  0.018498185            4 
 3511000   0.68100955   -7.6297415    801.48955  0.019023297  0.018492449            4 
 3512000    0.6651502   -7.6527052    799.37832  0.018967785  0.018486711            5 
 3513000   0.70695308    -7.639292    799.76644  0.018971592  0.018480974            8 
 3514000   0.69657279   -7.6576986    799.99344  0.018971577  0.018475233            8 
 3515000   0.69120792    -7.645412     799.7007  0.018959239  0.018469506           11 
 3516000   0.68100812   -7.6319518     800.8904  0.018982044  0.018463799            6 
 3517000   0.70625962   -7.6468744    800.46617  0.018966595  0.018458097            6 
 3518000   0.69507791   -7.6485971    800.21088  0.018955156  0.018452378            6 
 3519000   0.69884737   -7.6502913    798.68189  0.018913562  0.018446674            7 
 3520000   0.67999564   -7.6621097    801.23408   0.01896861  0.018440969            4 
 3521000   0.68135267   -7.6774411    800.29791  0.018941066   0.01843527            8 
 3522000   0.69041624   -7.6506475    798.97682   0.01890443  0.018429559            6 
 3523000   0.68330165   -7.6673192    800.28481  0.018930003  0.018423845            6 
 3524000   0.69785077   -7.6520511     801.4497  0.018952178  0.018418133            7 
 3525000   0.68647408   -7.6589997    801.20988  0.018941132  0.018412433            4 
 3526000    0.6821863   -7.6525648    800.49394   0.01891884  0.018406733            4 
 3527000   0.70037077   -7.6430975     800.6219  0.018916499  0.018401026            9 
 3528000   0.68754019   -7.6623459    799.59191  0.018886808  0.018395307            7 
 3529000   0.67492842   -7.6573625    801.70587  0.018931375  0.018389592            5 
 3530000   0.67782575   -7.6778726    800.30555  0.018892955  0.018383864            7 
 3531000   0.68320968   -7.6958167    800.49594  0.018892097  0.018378137            7 
 3532000   0.70020411   -7.6870861     800.8535  0.018895184  0.018372436            5 
 3533000    0.6710112   -7.7098581    799.38127  0.018855111  0.018366717            7 
 3534000   0.68305475   -7.6711287    800.44306  0.018874813  0.018360991            6 
 3535000   0.67152106   -7.6959514    800.91839  0.018880679  0.018355267            7 
 3536000   0.67001398   -7.6850912    802.77861  0.018919179  0.018349554            6 
 3537000   0.69262075   -7.6856361    800.23317  0.018853858  0.018343858            4 
 3538000   0.67715609   -7.6887708    800.65186  0.018858391  0.018338169            4 
 3539000    0.6885784   -7.6991095    799.84983  0.018834177   0.01833247            4 
 3540000   0.69030394   -7.6511617    801.79068  0.018874545  0.018326771            5 
 3541000   0.69043375   -7.6625588    801.19044  0.018855089  0.018321072            5 
 3542000   0.68840175   -7.6810533    801.50235  0.018857104  0.018315373            5 
 3543000   0.68587955   -7.6693173     801.6802  0.018855965  0.018309679            5 
 3544000   0.69309303   -7.6767321    800.26653  0.018817403  0.018303986            6 
 3545000   0.67736256   -7.6806829    801.24321  0.018835054  0.018298292            3 
 3546000   0.69290898   -7.6981362    799.90579  0.018798312  0.018292591            3 
 3547000   0.68397632   -7.6691859    801.13824  0.018821968  0.018286886            3 
 3548000   0.68157188   -7.6868504     799.4934   0.01877803  0.018281182            6 
 3549000   0.68511809   -7.6807227    802.05397  0.018832863  0.018275503           10 
 3550000   0.69024777   -7.6982695    800.21768  0.018784453  0.018269833            7 
 3551000   0.68323718   -7.7012114    799.26397  0.018756782  0.018264151            9 
 3552000   0.67456252   -7.6978661     803.3053  0.018846314  0.018258485            4 
 3553000   0.70509114   -7.6757927     802.0942  0.018812604  0.018252821            3 
 3554000   0.68383963   -7.6614321    801.61411  0.018796054   0.01824717           10 
 3555000   0.67732504   -7.6563878    801.50875  0.018788297   0.01824154            6 
 3556000   0.68677118   -7.6629015    802.52807  0.018806901  0.018235902            6 
 3557000   0.69723272   -7.6504931    800.71581  0.018759156  0.018230262            4 
 3558000   0.68945356   -7.6807399     800.9451  0.018759254  0.018224623            8 
 3559000   0.67921669   -7.6896308    800.27968  0.018738402  0.018218973            4 
 3560000    0.6832308   -7.6624355    802.01097  0.018773665  0.018213323            6 
 3561000    0.6779506   -7.6770768    800.45819  0.018732055  0.018207668            9 
 3562000   0.68277594   -7.6924111    801.46646  0.018750385  0.018202025            3 
 3563000   0.66787683   -7.6700502    803.15402  0.018784592  0.018196391           10 
 3564000   0.67291435   -7.6820908    799.60581  0.018696357  0.018190745           18 
 3565000   0.66277268   -7.6724356    802.47676  0.018758223  0.018185094            6 
 3566000   0.68204092   -7.6709629    800.84888   0.01871492  0.018179451            5 
 3567000   0.68607888    -7.683389    802.71423  0.018753253  0.018173822            8 
 3568000   0.68963989   -7.6654128    802.48717  0.018742694  0.018168198            8 
 3569000   0.67823932    -7.675357    801.72631  0.018719677  0.018162576            9 
 3570000   0.66804517   -7.6707133    801.50497  0.018709266  0.018156955            8 
 3571000   0.69542349   -7.6713037    803.82775  0.018758232   0.01815134            8 
 3572000   0.67668025   -7.6702419    803.45189  0.018744212  0.018145714            8 
 3573000   0.67723099   -7.6720894    802.03735  0.018705974    0.0181401            5 
 3574000    0.6833501   -7.6581219    800.32531  0.018660821  0.018134492            9 
 3575000   0.67784131   -7.6813938    802.45354  0.018705211  0.018128883            6 
 3576000   0.68672973   -7.6800865    804.10188  0.018738392  0.018123289            6 
 3577000   0.67291114   -7.6978458    800.77426   0.01865563  0.018117688            7 
 3578000   0.68526365   -7.6892432    801.68577  0.018671645  0.018112072            6 
 3579000   0.68634488   -7.6860141    801.84889  0.018670227  0.018106445            8 
 3580000   0.69083765   -7.7101966      803.137  0.018694995   0.01810081           10 
 3581000   0.66675022    -7.695941     801.2379  0.018645581  0.018095188           13 
 3582000   0.67782308   -7.7160265    800.54965  0.018624364  0.018089558            7 
 3583000     0.674313   -7.7134151    800.13506  0.018609523  0.018083918            5 
 3584000   0.68101486   -7.7098545    801.42545  0.018634334  0.018078291            6 
 3585000   0.66097025   -7.7156682    801.44012  0.018629477   0.01807267            5 
 3586000   0.69461179   -7.6937961    801.84774  0.018633755  0.018067041           12 
 3587000   0.68052405   -7.7193698    799.90923  0.018583524  0.018061417            9 
 3588000   0.67857666   -7.6906249    800.74128   0.01859767  0.018055792            5 
 3589000   0.68382606   -7.6799087    801.86975   0.01861869  0.018050188            7 
 3590000   0.66476301   -7.6934249    801.36788  0.018601854  0.018044573            6 
 3591000    0.6798524   -7.6804477    802.10225  0.018613716  0.018038972            9 
 3592000   0.66968987    -7.695918    801.16139  0.018586706   0.01803336            6 
 3593000   0.66736265   -7.7123453    802.33309  0.018608709  0.018027752            6 
 3594000   0.66325219   -7.7195638    801.47677  0.018583676  0.018022131            4 
 3595000   0.66519941   -7.7014128    802.83511  0.018609993  0.018016512            6 
 3596000   0.68637162   -7.7226887    801.95726  0.018584475  0.018010896            8 
 3597000   0.66773248   -7.7116791    801.23648  0.018562609  0.018005284            9 
 3598000   0.67228012   -7.7044964    800.38965  0.018537837  0.017999667           10 
 3599000   0.67585459    -7.715423    802.00564  0.018570104  0.017994055           13 
 3600000   0.66804599   -7.7363487    799.38156  0.018504203  0.017988425            5 
 3601000   0.68161967   -7.7029407    802.64841  0.018574665  0.017982808            9 
 3602000   0.67176511   -7.7006074     801.7518  0.018548764    0.0179772            7 
 3603000   0.66922904   -7.7102315    802.37068   0.01855793  0.017971597            5 
 3604000   0.67768099   -7.6962241    802.40885  0.018553664  0.017965993            8 
 3605000   0.67951039   -7.7025829    801.40741  0.018525368  0.017960394            5 
 3606000   0.67299549   -7.6925565     801.3208  0.018518229  0.017954796           13 
 3607000    0.6774067   -7.7067095    802.36722  0.018537271   0.01794921           10 
 3608000   0.65338027   -7.7004704    800.34279  0.018485375  0.017943615            8 
 3609000   0.68365605   -7.7082958     801.4566  0.018505971  0.017938017            4 
 3610000   0.66365972   -7.7119002    801.23236  0.018495669  0.017932416            4 
 3611000    0.6675889   -7.7239364    801.02299  0.018485715  0.017926821            4 
 3612000   0.68552349   -7.7063127    802.64645  0.018518052  0.017921228           13 
 3613000   0.67343337   -7.7075896    800.91925  0.018473089  0.017915637            5 
 3614000   0.65764603     -7.72253    800.71482  0.018463264  0.017910036           13 
 3615000   0.67420568   -7.7223312    800.61686  0.018455898  0.017904424            3 
 3616000   0.67277263   -7.6942201    802.25548  0.018488557  0.017898835            4 
 3617000   0.67935362   -7.7096812    799.87934  0.018428701  0.017893246            5 
 3618000   0.68747404   -7.6995584    800.78077   0.01844437  0.017887685           10 
 3619000   0.67152972   -7.7100209    802.38426  0.018476196  0.017882105            9 
 3620000   0.67328219   -7.7357538    800.29873  0.018423083  0.017876526           10 
 3621000   0.66214933   -7.7129873    799.54812  0.018400721  0.017870942            8 
 3622000   0.67289358    -7.725511    800.88835  0.018426476   0.01786534           12 
 3623000   0.67360583   -7.7153774    801.11818  0.018426676  0.017859751            9 
 3624000   0.66651644   -7.6716052     800.8638  0.018415742   0.01785416            5 
 3625000   0.68345115   -7.7103246    801.96518  0.018435981  0.017848584            7 
 3626000   0.68699882   -7.7274492    801.84335  0.018428097  0.017842994            4 
 3627000   0.66430284   -7.7243393    799.68572  0.018373443  0.017837403            8 
 3628000    0.6670636   -7.7083841    801.18133  0.018402732  0.017831815            5 
 3629000   0.66358644   -7.7077701    802.36259  0.018424786  0.017826239            8 
 3630000   0.66944189   -7.7093289     801.8955  0.018408987  0.017820657            8 
 3631000   0.67711956   -7.7034607    802.29244  0.018413028  0.017815069            4 
 3632000   0.68783733   -7.7085885    802.28016  0.018407676   0.01780949            7 
 3633000   0.68012362   -7.7064384    800.84734  0.018369744  0.017803916            8 
 3634000   0.65922445   -7.7088068    801.73454  0.018385033  0.017798348           13 
 3635000   0.67603737   -7.6942903     800.5563  0.018352964  0.017792779            4 
 3636000   0.68230346   -7.7177824    802.06488  0.018382492  0.017787218            7 
 3637000   0.66618945   -7.7215618    802.01745  0.018376351   0.01778166            8 
 3638000   0.68283496   -7.7073756    800.83161  0.018344136  0.017776106            7 
 3639000   0.66295338   -7.7029973    801.33099  0.018350531  0.017770558           10 
 3640000   0.66320622   -7.7005977    800.30413  0.018321981  0.017765016            6 
 3641000   0.66810128   -7.7227564    802.50407    0.0183673  0.017759454            7 
 3642000    0.6617098   -7.7014197    800.77471  0.018322687  0.017753905            6 
 3643000   0.68153149   -7.7270255    802.34678  0.018353618  0.017748348           16 
 3644000   0.68272238   -7.6954167    801.75312  0.018335006  0.017742808            8 
 3645000   0.68291227   -7.7134771    802.99573  0.018358384  0.017737269            6 
 3646000   0.65855613   -7.6972204    802.65039  0.018345456  0.017731736            8 
 3647000   0.66716806   -7.7264101    800.30409  0.018286813  0.017726199            6 
 3648000   0.67576008   -7.7038905    802.71124  0.018336788  0.017720655            8 
 3649000   0.67437052   -7.7283778    803.33644  0.018346041  0.017715106            4 
 3650000   0.68006597   -7.7204074    801.25105  0.018293403  0.017709572           10 
 3651000   0.65809035   -7.7167965    802.07011  0.018307087  0.017704034            9 
 3652000   0.66621799   -7.6966748    802.98457  0.018322941   0.01769852           17 
 3653000   0.64202675   -7.7136358      802.668  0.018310704  0.017692987            8 
 3654000   0.67314709   -7.7168106    801.06493  0.018269133  0.017687447            5 
 3655000    0.6478783   -7.7314886    801.68419  0.018278253    0.0176819           10 
 3656000   0.67118051   -7.7218955    800.55511  0.018247518   0.01767636            7 
 3657000   0.68792099   -7.7226103      800.083   0.01823177  0.017670804            7 
 3658000   0.65736423   -7.7279947    802.12284  0.018273256  0.017665261            5 
 3659000    0.6699742   -7.7179775    802.59911  0.018279109  0.017659732            7 
 3660000   0.65533267   -7.7028801     802.1219  0.018263249  0.017654197            4 
 3661000   0.67263083   -7.7167247    804.22725  0.018306183  0.017648672            7 
 3662000   0.67885585   -7.6990367    803.99463  0.018295891  0.017643167            6 
 3663000   0.67166343   -7.7154897     802.0447  0.018246535  0.017637657            8 
 3664000   0.65289257    -7.743592    802.97161  0.018262637  0.017632152           12 
 3665000   0.65720605   -7.7233913    803.40017  0.018267398  0.017626639            4 
 3666000   0.67252029   -7.7299179    801.65621  0.018222773  0.017621128            3 
 3667000   0.66671717   -7.7300812    800.95566  0.018201883  0.017615609            4 
 3668000   0.65455265   -7.7172851    804.20831  0.018270818  0.017610103            6 
 3669000   0.66494135   -7.7253615    802.13412  0.018218727  0.017604617            4 
 3670000   0.66440896   -7.7163422    802.00192  0.018210761  0.017599128            5 
 3671000   0.67374198   -7.7272618    801.49952  0.018194396  0.017593631            6 
 3672000   0.65440827   -7.7323245    802.75171  0.018217858  0.017588121           10 
 3673000   0.66937644   -7.7238755    802.03842  0.018196715   0.01758259            4 
 3674000   0.65731475   -7.7199638    803.54361  0.018225903  0.017577071            9 
 3675000    0.6766649   -7.7443824    802.02147  0.018186428   0.01757155            5 
 3676000   0.66161699   -7.7335832    803.85673  0.018223085  0.017566042            9 
 3677000   0.67110876    -7.732568    800.85664  0.018150137  0.017560514           12 
 3678000   0.65468512   -7.7290979    802.22413  0.018176186  0.017554997            7 
 3679000   0.64777672   -7.7327491    803.00224   0.01818887  0.017549481            5 
 3680000    0.6626262   -7.7253883     802.7601  0.018178444  0.017543982            8 
 3681000   0.66838188   -7.7231739     801.9386  0.018154908  0.017538489            7 
 3682000   0.65000904   -7.7217139    802.41666  0.018160797  0.017532997            7 
 3683000   0.65548523   -7.7411191    802.38677   0.01815519  0.017527504           11 
 3684000   0.64835575   -7.7385029    802.31931  0.018148736  0.017522018            6 
 3685000   0.66435103   -7.7272328    802.05848  0.018137912  0.017516544            8 
 3686000   0.67959666   -7.7376786    799.83852  0.018082803  0.017511075           15 
 3687000   0.66549119    -7.726742    802.78778  0.018144557  0.017505603            9 
 3688000   0.65170208   -7.7181568    802.58811  0.018135125  0.017500131            3 
 3689000   0.65710219    -7.748823    801.62711  0.018108501  0.017494649           14 
 3690000   0.64744726   -7.7480094     802.6949  0.018127708  0.017489175           15 
 3691000   0.67017722   -7.7576128    803.87809   0.01814951   0.01748371           10 
 3692000   0.66121813   -7.7260115    802.69383  0.018117864  0.017478259           17 
 3693000    0.6668622   -7.7266189     801.6956  0.018090432  0.017472806           26 
 3694000   0.64970676   -7.7476443    801.21698  0.018074738  0.017467339           25 
 3695000   0.67287909   -7.7358498    802.71792  0.018103697  0.017461882           14 
 3696000   0.67116634   -7.7170213    803.13881  0.018108288  0.017456426            8 
 3697000   0.66518512   -7.7673887    801.53613  0.018067265  0.017450962           12 
 3698000   0.64449502   -7.7419199    801.32866  0.018057704  0.017445506            9 
 3699000    0.6490535   -7.7504418    801.98453  0.018067598  0.017440039            5 
 3700000   0.65139823    -7.733822    801.60162   0.01805409  0.017434585            4 
 3701000   0.66463603   -7.7516095    803.35745  0.018088747  0.017429122            4 
 3702000   0.64941182   -7.7350535    803.16756  0.018079587  0.017423656            5 
 3703000   0.66445888   -7.7391871    801.45573  0.018036181  0.017418205           11 
 3704000   0.66710258   -7.7565549    802.81124  0.018061808  0.017412748            3 
 3705000   0.65295861   -7.7489382    800.93511  0.018014735  0.017407277           12 
 3706000   0.65651118    -7.761828    802.40938  0.018043024  0.017401811            5 
 3707000   0.65176777   -7.7645385     801.6014  0.018019994  0.017396344           10 
 3708000   0.66917777   -7.7588604    801.81731  0.018019986   0.01739089           14 
 3709000   0.65625508   -7.7460013    801.16652  0.018000506  0.017385429           12 
 3710000   0.67146078   -7.7703499    801.35564  0.017999902  0.017379975           13 
 3711000   0.68228413   -7.7508784    799.63497  0.017956413  0.017374508            9 
 3712000   0.66332075   -7.7671943    801.67139  0.017997292  0.017369025            8 
 3713000   0.65100154   -7.7708494     799.9826  0.017954543   0.01736355            8 
 3714000   0.67075711   -7.7631391    801.18258  0.017976633  0.017358077            7 
 3715000   0.66843269   -7.7567063     802.4214  0.017999583  0.017352608            7 
 3716000   0.64325139   -7.7490863    800.98122  0.017962442  0.017347151           11 
 3717000   0.66149198   -7.7561914    800.69588  0.017951212  0.017341685            6 
 3718000   0.65363545   -7.7600693    801.30719  0.017960086  0.017336225            7 
 3719000   0.64958087   -7.7585377    801.64242  0.017962768  0.017330767            8 
 3720000   0.67421103   -7.7568189    801.99235  0.017965778  0.017325312           13 
 3721000   0.65206509   -7.7468539    803.13139   0.01798646  0.017319859            7 
 3722000   0.68050528   -7.7688124    801.01192  0.017934173  0.017314414            5 
 3723000   0.64151031   -7.7778139    802.20791  0.017956127  0.017308959            6 
 3724000   0.64692349   -7.7604231    802.05073  0.017947787  0.017303494           10 
 3725000   0.65555616   -7.7577648    802.50031  0.017953027  0.017298037            8 
 3726000   0.65382555    -7.759664    802.07987  0.017938806  0.017292592           15 
 3727000    0.6559102   -7.7343285    800.24764  0.017893025  0.017287151            9 
 3728000   0.64450386   -7.7522974    802.38485  0.017935999  0.017281711            4 
 3729000   0.65311308   -7.7455414    800.91986   0.01789845  0.017276266            8 
 3730000    0.6725457   -7.7515483     801.6663  0.017910328  0.017270816            6 
 3731000   0.64389206    -7.749889    801.59434  0.017903921  0.017265377            6 
 3732000   0.64011778   -7.7736194    801.42842  0.017895419  0.017259919            7 
 3733000    0.6607374   -7.7423916     802.4883  0.017914285  0.017254478            6 
 3734000   0.65996718   -7.7308433    802.26289  0.017904457  0.017249033            4 
 3735000   0.66246522   -7.7570625    800.88089  0.017868828  0.017243589            3 
 3736000   0.64072898   -7.7543589    801.38138  0.017875209  0.017238138            9 
 3737000   0.66336383   -7.7502121     802.1782  0.017888195  0.017232691           12 
 3738000   0.64363219   -7.7665925    802.35856   0.01788743  0.017227246           10 
 3739000   0.65030652   -7.7447543    802.19943  0.017879099  0.017221792           28 
 3740000   0.65871397   -7.7687568    801.94475  0.017868644  0.017216362            7 
 3741000   0.65126906   -7.7594048    801.32642  0.017850094  0.017210932            9 
 3742000   0.63785264   -7.7375169     802.7247  0.017876463  0.017205503            4 
 3743000   0.65555553   -7.7417466    802.42138  0.017864934  0.017200085            4 
 3744000   0.65548365   -7.7436562    800.34259  0.017813893  0.017194668            4 
 3745000   0.65853071   -7.7622972    801.24439  0.017829203  0.017189252            9 
 3746000   0.65174192   -7.7320772    799.85637  0.017793566   0.01718383           11 
 3747000   0.64703827   -7.7583569    803.56458  0.017871288  0.017178423            9 
 3748000    0.6538383   -7.7729144    801.68836  0.017824803  0.017173015            8 
 3749000    0.6437256   -7.7490058    801.75274   0.01782148  0.017167596            7 
 3750000   0.63091807   -7.7339591    802.55381  0.017834529  0.017162192            9 
 3751000   0.65642319   -7.7680769    802.20319  0.017821985  0.017156798            5 
 3752000   0.65134893   -7.7627052    803.00708   0.01783509  0.017151402            5 
 3753000   0.64751501   -7.7459602    803.27399  0.017836264  0.017146015            6 
 3754000   0.65682658   -7.7562251    803.65262  0.017839918   0.01714063            7 
 3755000   0.63622223   -7.7277149    802.33453  0.017805915  0.017135234            9 
 3756000   0.65537285   -7.7605909    802.86903  0.017813033   0.01712983            9 
 3757000   0.65920052   -7.7271251    802.24473  0.017794444  0.017124439            7 
 3758000   0.63502443   -7.7681421    802.35673  0.017792193  0.017119058           13 
 3759000   0.65500375   -7.7542026    801.89741  0.017777277  0.017113677           11 
 3760000    0.6545748   -7.7563794    802.73378  0.017791086  0.017108296            9 
 3761000   0.65039052   -7.7125525    801.87085  0.017767235  0.017102913            6 
 3762000   0.64883611   -7.7406636    803.26509  0.017793397  0.017097534            8 
 3763000   0.64106275   -7.7626611    802.51376  0.017772029  0.017092159           10 
 3764000   0.65814216   -7.7453405    804.31655  0.017807221  0.017086792            6 
 3765000    0.6434746   -7.7598036    802.46211  0.017761446  0.017081424            4 
 3766000   0.64857464   -7.7718043    801.91697  0.017744667  0.017076052           14 
 3767000   0.66608826   -7.7683478    802.88335  0.017761334  0.017070672            3 
 3768000   0.64841895   -7.7799149    801.94073  0.017735773  0.017065281            8 
 3769000   0.64310597   -7.7575343    803.87823  0.017773906  0.017059909            6 
 3770000   0.64837228   -7.7564737    802.21446  0.017732415  0.017054528           14 
 3771000    0.6543399   -7.7422496    802.89549  0.017742763  0.017049167            6 
 3772000   0.64637236   -7.7658779    802.51913  0.017729744  0.017043809            4 
 3773000   0.63855423   -7.7654138    802.27599  0.017719675   0.01703844            8 
 3774000   0.64095949   -7.7641563    803.98879    0.0177528   0.01703308           13 
 3775000   0.64155809   -7.7526703    802.38322  0.017712654  0.017027714            6 
 3776000   0.64059666   -7.7825495    802.13006  0.017702376  0.017022351            6 
 3777000   0.65294953   -7.7503532     803.4116  0.017725964  0.017016984            9 
 3778000   0.63779696   -7.7574784    803.73289  0.017728359  0.017011623           22 
 3779000    0.6419602   -7.7620434    802.18648  0.017689567  0.017006277           11 
 3780000   0.66093112   -7.7571734    802.81241  0.017698686  0.017000919           10 
 3781000   0.65853848   -7.7641516    802.68464  0.017691189   0.01699555            6 
 3782000    0.6759545   -7.7881294    801.22702  0.017654394  0.016990183            9 
 3783000   0.64623318   -7.7759279    801.21295  0.017649417   0.01698482           14 
 3784000   0.64784819   -7.7554237    802.62777  0.017675911  0.016979469            6 
 3785000   0.63960137    -7.754311    801.12557  0.017638168  0.016974112           10 
 3786000    0.6296182   -7.7565511    802.08842  0.017654702  0.016968757           11 
 3787000   0.66356723   -7.7716767    801.43125  0.017635579  0.016963412            9 
 3788000   0.66122487   -7.7793037    801.65234  0.017635787   0.01695807           10 
 3789000    0.6418588   -7.7594028    801.81578  0.017634727  0.016952719            9 
 3790000   0.65278488   -7.7751756    801.67742  0.017627032  0.016947369            8 
 3791000   0.64463681   -7.7598492    801.68379  0.017622522  0.016942021           10 
 3792000   0.64944312   -7.7624934     802.3285  0.017632043  0.016936675            8 
 3793000    0.6507874   -7.7357783    803.63967  0.017656202  0.016931329            5 
 3794000   0.64217394   -7.7497165    803.50437  0.017648576     0.016926            5 
 3795000   0.65193817   -7.7552003    802.75718  0.017627518   0.01692068            9 
 3796000   0.64093096   -7.7607594    800.72491   0.01757826  0.016915337           10 
 3797000   0.65331172   -7.7656475    802.08733  0.017603532  0.016910005            7 
 3798000   0.65668559   -7.7508765    800.64596  0.017567271  0.016904663            7 
 3799000   0.62214861   -7.7518838    801.65522  0.017584786   0.01689932           11 
 3800000    0.6351808   -7.7568112    803.58016  0.017622372  0.016893972            4 
 3801000   0.63307413   -7.7553992    801.84216  0.017579632  0.016888638            3 
 3802000   0.63672515   -7.7433897     800.9501  0.017555455   0.01688329            6 
 3803000   0.64663028   -7.7776777    801.09084  0.017553923  0.016877951            7 
 3804000   0.65451873   -7.7541028    802.23416  0.017574355  0.016872611            4 
 3805000   0.65598667   -7.7715694    801.48658  0.017553364  0.016867267            5 
 3806000   0.64566915   -7.7540227    801.97556  0.017559458  0.016861925           11 
 3807000   0.64159849   -7.7696478    801.58645  0.017546328  0.016856583           10 
 3808000   0.64598964   -7.7574149    802.83826  0.017569115  0.016851243            5 
 3809000   0.63870357   -7.7543387    802.80677  0.017563813  0.016845903            3 
 3810000   0.63568766    -7.769098    803.11474  0.017565939  0.016840565            8 
 3811000   0.64550568   -7.7607501    802.70581  0.017552388  0.016835224            6 
 3812000   0.64797406   -7.7782068    801.73771   0.01752662   0.01682987            5 
 3813000   0.64353872   -7.8044276    800.52936  0.017495615   0.01682452            6 
 3814000   0.63512675   -7.7680269    802.05407  0.017524342  0.016819173            9 
 3815000   0.63690328   -7.7604377      801.064  0.017498121  0.016813823            6 
 3816000   0.62213155   -7.7647384    800.78567  0.017487458  0.016808474            8 
 3817000   0.64303292   -7.7830784     801.4215  0.017496758  0.016803129            7 
 3818000   0.63305417    -7.768466    802.33477  0.017512109  0.016797788            5 
 3819000   0.64662496    -7.775895    800.75788  0.017473114  0.016792441            8 
 3820000   0.64308114   -7.7724463    801.76505  0.017490511  0.016787112            9 
 3821000    0.6398888   -7.7658604    802.32123  0.017498064  0.016781786            9 
 3822000   0.64577287   -7.7747837    800.53476  0.017454534  0.016776466            8 
 3823000    0.6309053   -7.7595852    800.74214  0.017454489  0.016771148            8 
 3824000   0.62901014   -7.7596739    801.71532  0.017471132  0.016765827            7 
 3825000   0.63859277   -7.7637941    803.22011  0.017499349  0.016760517           17 
 3826000   0.62962849   -7.7583017    801.93143  0.017466707  0.016755207            6 
 3827000   0.63583322   -7.7644635    801.62677  0.017455508  0.016749904           12 
 3828000   0.64064279   -7.7683739    802.60186  0.017472176  0.016744589           14 
 3829000   0.64933846   -7.7745668    801.91355  0.017452632  0.016739289           10 
 3830000   0.61780599   -7.7603648    802.47482  0.017460288  0.016733985            5 
 3831000   0.64415361    -7.776803    802.54334  0.017457221  0.016728674            9 
 3832000   0.63933885   -7.7711718    801.24284  0.017424383   0.01672337            8 
 3833000   0.64195465   -7.7709791    802.78635  0.017453395  0.016718085           11 
 3834000   0.63682603    -7.777639    802.53185  0.017443311  0.016712788           10 
 3835000   0.63633987   -7.7779713    801.72365  0.017421201  0.016707492            5 
 3836000   0.65220626   -7.7802853    802.37569  0.017430824  0.016702192            9 
 3837000   0.63825667   -7.7622909    800.63825  0.017388547  0.016696889            8 
 3838000   0.64517937   -7.7729621     800.7523  0.017386493  0.016691604           18 
 3839000   0.63078808   -7.7760065    800.18255  0.017369596  0.016686301            8 
 3840000   0.63464775   -7.7763387    802.15128  0.017407797  0.016681006           12 
 3841000   0.63750373   -7.7544186    800.73068  0.017372444  0.016675704            6 
 3842000   0.64276491    -7.782476    801.28349  0.017379913  0.016670391           13 
 3843000    0.6359068   -7.7818979    798.96215  0.017325053  0.016665069           10 
 3844000   0.64678333   -7.7797244    801.88172  0.017383839  0.016659745            8 
 3845000   0.64299983   -7.8064129    800.56869   0.01735086  0.016654436           12 
 3846000   0.63957401   -7.8086222    800.41329  0.017342982  0.016649121           16 
 3847000      0.64895   -7.7846413     799.9148  0.017327675  0.016643813           10 
 3848000   0.63173202   -7.7868687    799.38726  0.017311748    0.0166385           11 
 3849000   0.62763153   -7.7865289    800.02905  0.017321145  0.016633183           11 
 3850000   0.64966695   -7.7992308    801.69485  0.017352702  0.016627876           12 
 3851000   0.62872915   -7.7770082    801.22406  0.017338009  0.016622575           10 
 3852000   0.65065257   -7.7799449     800.6233  0.017320511  0.016617272           14 
 3853000   0.62552056   -7.7766458    800.44032  0.017312058  0.016611975           10 
 3854000   0.63060548   -7.7651919    801.93669  0.017339922  0.016606671           12 
 3855000   0.63073126    -7.774082    800.20244  0.017297934  0.016601361            6 
 3856000   0.64243839   -7.7966562    799.36158  0.017275276  0.016596053           14 
 3857000   0.64084538   -7.7872679    802.11943  0.017330383  0.016590748            8 
 3858000   0.63240785   -7.7501194    801.54794  0.017313546  0.016585458           11 
 3859000   0.63416949   -7.7866358    800.92218  0.017295547  0.016580174            6 
 3860000   0.63351211   -7.7895956    801.89196  0.017312003  0.016574876            9 
 3861000   0.62218127   -7.7779325      800.942  0.017287015  0.016569571            8 
 3862000   0.63652798   -7.7826331    801.16992  0.017287457  0.016564266           14 
 3863000   0.63555244   -7.8067564    801.58723  0.017291984  0.016558962           15 
 3864000   0.63087778   -7.7947339    800.82711  0.017271116  0.016553653           28 
 3865000   0.62795479   -7.7912631    800.15343  0.017252122  0.016548341           16 
 3866000   0.64811809   -7.8029801    800.98212  0.017265523  0.016543026           21 
 3867000   0.63147154   -7.8153698    799.36346  0.017226176  0.016537724            8 
 3868000     0.615507    -7.822178    799.16199  0.017217382  0.016532406            7 
 3869000   0.64119256   -7.8159738    800.90835  0.017250546  0.016527092           13 
 3870000   0.63445653   -7.7896278    800.56784  0.017238756  0.016521778            3 
 3871000   0.64258461   -7.7795988    801.06202  0.017244942  0.016516471            7 
 3872000   0.63122581   -7.7891841    798.70746  0.017189813  0.016511162            6 
 3873000   0.64387289   -7.7890196    799.58886  0.017204339  0.016505856            8 
 3874000   0.63170921   -7.8068198     800.0012  0.017208768  0.016500557            7 
 3875000   0.64607465   -7.7991438    800.51247  0.017215322  0.016495252            8 
 3876000   0.63903898   -7.7997774    798.53524   0.01716837  0.016489949            6 
 3877000   0.63563965   -7.8040638    800.14801  0.017198607   0.01648466            8 
 3878000   0.63564825   -7.7901496    799.77243  0.017186102   0.01647937            7 
 3879000   0.64554289   -7.7920699    800.44695  0.017196162  0.016474085            9 
 3880000   0.64622967   -7.7927551    800.08473   0.01718395  0.016468802            8 
 3881000   0.62981996   -7.7939781    799.63663  0.017169901  0.016463515            8 
 3882000   0.63976709   -7.8004299    800.21913  0.017177982  0.016458219            9 
 3883000   0.62539791   -7.7840523    801.04963  0.017191382  0.016452921            9 
 3884000   0.63583218    -7.805439    799.96627  0.017163712  0.016447627           23 
 3885000   0.63929867   -7.7961976    799.49335   0.01714915  0.016442333            5 
 3886000   0.61525097   -7.8137907    799.71154  0.017149415  0.016437038            8 
 3887000   0.64202909   -7.8077502    798.56292  0.017120378  0.016431757            5 
 3888000   0.62322033   -7.7809866    798.16425   0.01710743  0.016426461           12 
 3889000   0.61923462   -7.7857127     799.1896  0.017125002  0.016421188           15 
 3890000   0.62412113    -7.815919    800.23686  0.017143035  0.016415915            5 
 3891000   0.62162719   -7.7868453    800.83748  0.017151492  0.016410646            7 
 3892000   0.62751274   -7.8056457    799.31112  0.017114404  0.016405368           10 
 3893000   0.63446757   -7.8086207    800.45467  0.017134486  0.016400097            8 
 3894000   0.61785305   -7.7975919    801.40623   0.01715045  0.016394826            6 
 3895000   0.62058995    -7.800937     800.1952  0.017120137  0.016389559            7 
 3896000   0.61936155   -7.8085641    799.77973  0.017106856   0.01638429            4 
 3897000   0.63571232    -7.798507    799.55097  0.017097574  0.016379021           10 
 3898000   0.63588763    -7.806799    800.05076  0.017103873  0.016373758           15 
 3899000   0.63111269   -7.8143411    798.97614  0.017076518  0.016368488            6 
 3900000   0.62389078   -7.7930781    799.39078     0.017081  0.016363204            7 
 3901000   0.62339394   -7.8036002    800.56399  0.017101683  0.016357935           11 
 3902000   0.61674909   -7.7799119    800.32455  0.017092187  0.016352667           13 
 3903000   0.62865197   -7.7894273    800.50549  0.017091671  0.016347401            8 
 3904000   0.62459085   -7.8162302     800.3828  0.017084674  0.016342138           15 
 3905000   0.62026254   -7.8089921    800.39029  0.017080459   0.01633687            5 
 3906000     0.628843   -7.8095162    800.14179  0.017070784  0.016331609           10 
 3907000   0.62022464   -7.8110287     799.0553  0.017043241  0.016326341            6 
 3908000   0.62536677   -7.8375974    799.78522  0.017054444  0.016321079            9 
 3909000   0.61931442   -7.8156288    799.42271  0.017042353   0.01631582           17 
 3910000   0.62564282   -7.7988271    799.10786  0.017031284  0.016310556           11 
 3911000   0.63178508   -7.8148173     800.7949  0.017062876  0.016305295           10 
 3912000   0.62820055   -7.8192888    799.71296  0.017035467   0.01630004            4 
 3913000   0.62552214   -7.8069739    798.36097  0.017002321  0.016294765            6 
 3914000   0.61908741   -7.8089335    799.74955  0.017027541  0.016289505            5 
 3915000   0.61449055   -7.8055644    800.65897  0.017042549  0.016284248            4 
 3916000   0.62692067   -7.8141205    797.63876  0.016973927  0.016278986            9 
 3917000   0.62529407   -7.7971956    799.07242  0.017000094  0.016273723            6 
 3918000   0.62886858   -7.8204544     799.0476  0.016995227  0.016268462            5 
 3919000   0.63303762    -7.795914     798.8779  0.016987282  0.016263206            9 
 3920000   0.62018242   -7.7964884    799.67551  0.016999905   0.01625795            7 
 3921000   0.60797961    -7.831474    799.14874  0.016984373  0.016252689           10 
 3922000   0.62744217   -7.8222504    799.05746  0.016978104  0.016247426            6 
 3923000   0.62331693    -7.827901    799.31821  0.016979315  0.016242173           12 
 3924000    0.6243685   -7.8185741    799.28824  0.016974351  0.016236924            7 
 3925000   0.64334311   -7.7997404    798.80259  0.016959715  0.016231676           10 
 3926000   0.62480759   -7.8220035    798.53918  0.016949804  0.016226418            9 
 3927000   0.63016475   -7.8250227    798.94306  0.016954059  0.016221151           15 
 3928000   0.62733014   -7.8392376    799.72016  0.016966229  0.016215896            9 
 3929000    0.6119484   -7.8211991    799.39831  0.016955084  0.016210642           10 
 3930000    0.6244048   -7.8110988    799.39033  0.016950601  0.016205397            8 
 3931000   0.63757219   -7.8363923    799.83998  0.016955821  0.016200159           11 
 3932000    0.6398054   -7.8010523    799.03887   0.01693453  0.016194905            6 
 3933000   0.62380526    -7.847814    799.22914  0.016934256  0.016189659            6 
 3934000   0.62613901   -7.8574067    797.67828    0.0168971  0.016184421            8 
 3935000   0.61245231   -7.8121537     798.7557  0.016915623  0.016179179            7 
 3936000   0.61576616    -7.814694    799.20756  0.016920892  0.016173945            4 
 3937000   0.62623986   -7.8388852    798.68033  0.016905434  0.016168721            6 
 3938000   0.61764965   -7.8056744     798.4713  0.016896718  0.016163487            4 
 3939000   0.62897833   -7.8338959    798.93798  0.016902301  0.016158249            6 
 3940000    0.6352269   -7.8187515    799.92122  0.016918807   0.01615302           12 
 3941000   0.62713384   -7.8364479    800.82654  0.016933658  0.016147795            4 
 3942000   0.61242658   -7.8360755    799.61926   0.01690384  0.016142572           13 
 3943000   0.61161108   -7.8226701    799.34939   0.01689385   0.01613735            5 
 3944000   0.61614703   -7.8178935    800.71483  0.016918417  0.016132135            6 
 3945000   0.62346115   -7.8245086    798.93075  0.016876442  0.016126922           12 
 3946000   0.62624602   -7.8228443    800.61692  0.016907774  0.016121703            5 
 3947000   0.60990299   -7.8330626    800.21916  0.016895092  0.016116497            6 
 3948000   0.62207023   -7.8416509    799.36473  0.016872778  0.016111296            7 
 3949000     0.617564   -7.8574517    798.89357  0.016858563  0.016106085            7 
 3950000   0.61726134   -7.8372543    801.29811  0.016905023  0.016100879           12 
 3951000   0.63222082   -7.8557191    799.09008  0.016854174  0.016095682            7 
 3952000   0.62228887   -7.8246337    799.34022  0.016855183   0.01609048            4 
 3953000   0.61619624   -7.8356554    798.48869  0.016832968  0.016085279            5 
 3954000   0.62046189   -7.8281514    798.23484  0.016823361  0.016080078            7 
 3955000   0.60891853   -7.8320831    797.31105  0.016799643  0.016074875            6 
 3956000   0.62593266   -7.8506345    797.76099  0.016804874  0.016069668            8 
 3957000   0.63683669   -7.8236104    798.36167  0.016813277  0.016064468            7 
 3958000   0.60619873   -7.8426465    799.10408  0.016824661  0.016059266           11 
 3959000   0.60997435   -7.8357174     798.6413   0.01681067  0.016054071           12 
 3960000    0.6217104   -7.8404046    797.45448   0.01678145  0.016048875            7 
 3961000   0.61046182   -7.8113527    799.87759  0.016828191  0.016043694            7 
 3962000   0.61915525   -7.8187564     798.8595   0.01680253  0.016038526            6 
 3963000   0.61481486   -7.8387007    799.11996  0.016803767  0.016033354            9 
 3964000    0.6085595    -7.809278    799.12899  0.016799718  0.016028173            7 
 3965000   0.61153066   -7.8199237    800.76726  0.016829913  0.016023013            8 
 3966000   0.61223745   -7.8325199    800.37614  0.016817451   0.01601785            3 
 3967000   0.61414349   -7.8007004    799.58197  0.016796529  0.016012685            8 
 3968000    0.6184535   -7.8362468    799.52937  0.016791191  0.016007518            6 
 3969000   0.62032084   -7.8201191    799.44957  0.016785285   0.01600236            8 
 3970000   0.61134945   -7.8378192     800.4199  0.016801425  0.015997203            8 
 3971000   0.60980946   -7.8300457    798.41752  0.016755173   0.01599204           15 
 3972000   0.61661901   -7.8448453    799.85657  0.016781147  0.015986883           10 
 3973000   0.61422074   -7.8412154    798.28321  0.016743922  0.015981731           11 
 3974000   0.60998568   -7.8420699    800.84201  0.016793366  0.015976581           18 
 3975000    0.6061156    -7.846183    798.49702  0.016739979  0.015971433            8 
 3976000   0.59684474   -7.8493575    799.60166  0.016758921  0.015966286            6 
 3977000   0.61177378   -7.8346183      799.736  0.016757522  0.015961135           12 
 3978000   0.61238153    -7.836316    799.03555  0.016738636  0.015955977            7 
 3979000   0.62512935   -7.8386946    798.42855  0.016721717  0.015950828            5 
 3980000   0.62141363   -7.8458782    798.24021  0.016713572  0.015945682            7 
 3981000   0.60870296   -7.8430512    800.04924  0.016747242  0.015940535            7 
 3982000   0.62958742   -7.8562804    799.62483  0.016734154   0.01593539            8 
 3983000   0.62820303   -7.8304268    799.82003  0.016734037  0.015930254            5 
 3984000   0.59973132   -7.8491016    799.83051  0.016730056  0.015925119            8 
 3985000   0.61678665   -7.8361749    799.24618  0.016713638   0.01591998            9 
 3986000   0.61522439   -7.8352089     799.4677  0.016714076  0.015914842            6 
 3987000   0.61652226   -7.8488824    798.51706  0.016690015  0.015909702           16 
 3988000   0.60875111   -7.8470375    798.57533  0.016687047  0.015904559            7 
 3989000   0.61942515   -7.8251736    797.56071  0.016661668  0.015899415            5 
 3990000    0.6302895   -7.8388875     799.1493   0.01669067  0.015894276            7 
 3991000   0.61474543    -7.843355    799.39691  0.016691659  0.015889137            5 
 3992000    0.6062639   -7.8714495    798.36662   0.01666597  0.015883995            9 
 3993000   0.61197968   -7.8400181    799.75666  0.016690806  0.015878863           10 
 3994000   0.60920415   -7.8558997    799.79984  0.016687528  0.015873725            8 
 3995000   0.61083687   -7.8571631    798.44746  0.016655141  0.015868591            8 
 3996000   0.60859853   -7.8734867    798.61438  0.016654454  0.015863448           10 
 3997000   0.61501484   -7.8510454     798.6691  0.016651428  0.015858318            7 
 3998000   0.61021409   -7.8480702    800.34788  0.016682255  0.015853196            7 
 3999000   0.60544543   -7.8451773    799.13811  0.016652874  0.015848071            8 
 4000000   0.62254507   -7.8445125    798.21655  0.016629511  0.015842937            5 
 4001000   0.60634469   -7.8482458    798.12595  0.016623468  0.015837801           10 
 4002000   0.61340678   -7.8605516    799.39467  0.016645733   0.01583267            8 
 4003000   0.59652748   -7.8484152    799.84798  0.016651011  0.015827538            4 
 4004000   0.62541667   -7.8481582    797.77985   0.01660381  0.015822414           12 
 4005000   0.60708868   -7.8645157    797.78272  0.016599724  0.015817286            5 
 4006000   0.60098268   -7.8484966    797.48541  0.016589395  0.015812156           13 
 4007000   0.61451362   -7.8299041    800.28273  0.016643431  0.015807046            5 
 4008000   0.61652248   -7.8460676     800.8423  0.016650913  0.015801938            5 
 4009000   0.61251684   -7.8491708    798.34594  0.016594869  0.015796829            5 
 4010000   0.60651581   -7.8365236    799.76094  0.016620136  0.015791717           10 
 4011000   0.59897938   -7.8598686    797.65001  0.016572135  0.015786596            8 
 4012000   0.60752137   -7.8431063    797.81891  0.016571513  0.015781488            5 
 4013000   0.61016654   -7.8302229    798.96918   0.01659127   0.01577639            4 
 4014000   0.60264589   -7.8499419    798.21419  0.016571462  0.015771281            6 
 4015000   0.62516023   -7.8518966    800.30275  0.016610684   0.01576618            8 
 4016000   0.61016363     -7.85308    798.54988  0.016570175  0.015761063            4 
 4017000   0.61250925   -7.8456134    797.99742  0.016554589  0.015755956            5 
 4018000   0.60735055   -7.8578778     798.1969  0.016554606  0.015750858            7 
 4019000   0.61692924   -7.8632281    798.21147  0.016550789  0.015745756            6 
 4020000   0.60206019   -7.8377292    799.30385  0.016569317   0.01574067            7 
 4021000   0.59629203   -7.8645078    798.46717  0.016547857   0.01573557           10 
 4022000    0.6146633   -7.8883621    798.44621  0.016543308   0.01573047            6 
 4023000   0.60309079   -7.8509399    797.86616   0.01652718  0.015725367            6 
 4024000    0.6016491   -7.8659072    797.27286  0.016510787  0.015720271            2 
 4025000    0.5985679   -7.8598986    799.51191  0.016553042  0.015715176            9 
 4026000   0.60652746    -7.867941    798.91401  0.016536554  0.015710084            4 
 4027000    0.6155422   -7.8643832    797.95565  0.016512616  0.015704994           10 
 4028000   0.61303644   -7.8672826    797.61844   0.01650154  0.015699897            4 
 4029000   0.61362586   -7.8661681    798.91936  0.016524352  0.015694804            5 
 4030000   0.60804067   -7.8573276    797.43863  0.016489633   0.01568971            5 
 4031000   0.60883039   -7.8668651    797.54158   0.01648767  0.015684626            3 
 4032000   0.61174917   -7.8777955    798.67241  0.016506953  0.015679543            4 
 4033000   0.61600484   -7.8755158    797.91173  0.016487142  0.015674455            5 
 4034000   0.61595662   -7.8701508    798.24861  0.016490014  0.015669368            2 
 4035000   0.59813364   -7.8587548    797.85082  0.016477712  0.015664288            7 
 4036000   0.59573543   -7.8660754    799.96101    0.0165172  0.015659221            6 
 4037000   0.60137067   -7.8633994    798.71914  0.016487473   0.01565415            4 
 4038000   0.59367079   -7.8610219    798.18619  0.016472391  0.015649079            8 
 4039000   0.60107189   -7.8478335    799.12097  0.016487599  0.015644019           10 
 4040000   0.61594026   -7.8392236    799.05135  0.016482082   0.01563896            6 
 4041000   0.60472949   -7.8480581    799.51944  0.016487657  0.015633906            7 
 4042000   0.61526698   -7.8566993    799.35896  0.016480269  0.015628846            4 
 4043000   0.60554558   -7.8717818    798.90584  0.016466853  0.015623784            8 
 4044000   0.60680513   -7.8611019    799.59029  0.016476885  0.015618722           10 
 4045000   0.60410041   -7.8686539    799.64245  0.016473887  0.015613666            4 
 4046000   0.59607587   -7.8527258    798.91688  0.016454871   0.01560861            6 
 4047000   0.62057616    -7.858805    798.96456  0.016451787  0.015603555            7 
 4048000   0.61637016   -7.8521637    798.02299  0.016428339  0.015598498            4 
 4049000   0.60198018    -7.854761      798.903  0.016442393  0.015593447            5 
 4050000   0.62514689   -7.8662212    797.70081  0.016413597  0.015588395            6 
 4051000   0.61147217   -7.8740789    798.39695  0.016423866  0.015583342           10 
 4052000   0.59786211     -7.86639    799.57876  0.016444117  0.015578291            5 
 4053000   0.59010704   -7.8681578    799.74811  0.016443542   0.01557324           19 
 4054000   0.61764614   -7.8555249    797.95098  0.016402544  0.015568193            7 
 4055000   0.60121509   -7.8590338    798.37826   0.01640728  0.015563153            6 
 4056000   0.59934185   -7.8791202    798.00827  0.016395633  0.015558108           20 
 4057000   0.59126321   -7.8634427    797.09199  0.016372771  0.015553066           11 
 4058000   0.60659862   -7.8678404    798.66272  0.016400992  0.015548027            7 
 4059000   0.60482753   -7.8587641    795.90903  0.016340417  0.015542985           10 
 4060000   0.60436519   -7.8787647    799.48942  0.016409881  0.015537948            9 
 4061000   0.60443136   -7.8737884    797.93157  0.016373873  0.015532921            7 
 4062000   0.60185023   -7.8540506    798.60474  0.016383652  0.015527897            6 
 4063000   0.59419834   -7.8713371    798.47628  0.016376985  0.015522873            7 
 4064000   0.62100851    -7.869427    797.40827  0.016351055  0.015517835           11 
 4065000   0.61522171   -7.8770589    798.56069  0.016370658  0.015512805            8 
 4066000   0.61217665    -7.880684     798.7591  0.016370698  0.015507774            8 
 4067000   0.60608442   -7.8843695    797.56413  0.016342188  0.015502736            4 
 4068000   0.60384739   -7.8608406    797.31896  0.016333148  0.015497709            8 
 4069000   0.60205976   -7.9050061    797.86212  0.016340258  0.015492677            5 
 4070000   0.60385701   -7.8573939    798.55246  0.016350378  0.015487647            6 
 4071000   0.59085493   -7.8718824     798.6386  0.016348125   0.01548262            5 
 4072000    0.5960883   -7.8703566    801.55718  0.016403839  0.015477596            9 
 4073000   0.59586298   -7.8795929      798.926  0.016345978  0.015472579            7 
 4074000   0.60827693   -7.8893909    797.98766  0.016322772  0.015467559            6 
 4075000     0.607308   -7.8924185    797.93617  0.016317713  0.015462527            6 
 4076000   0.61052733   -7.9050222    797.26352  0.016299957  0.015457504            8 
 4077000   0.60035235   -7.8739449    797.56091  0.016302038  0.015452488            6 
 4078000   0.60652768   -7.8749603    798.55876  0.016318432   0.01544747            6 
 4079000   0.59715593   -7.8823123    796.72326  0.016276932  0.015442445            4 
 4080000   0.58865328    -7.870562    798.04901  0.016300021  0.015437429            6 
 4081000   0.58908395   -7.8631958    797.63006  0.016287472  0.015432415           11 
 4082000   0.59675904   -7.8785878    799.37508  0.016319106  0.015427402            5 
 4083000   0.59727841   -7.9042325    797.24092  0.016271551  0.015422388            8 
 4084000   0.61478995   -7.8697508    797.65511  0.016276018   0.01541737            7 
 4085000   0.60029849   -7.8923843    796.78203  0.016254223  0.015412352            9 
 4086000    0.5925079   -7.8832521    799.34245  0.016302465  0.015407335            5 
 4087000   0.59274425   -7.8753641    797.49902  0.016260888  0.015402324           21 
 4088000   0.58351971   -7.8839892    797.79218  0.016262887  0.015397309            5 
 4089000   0.59149643   -7.8738218    798.09529  0.016265087  0.015392304            8 
 4090000   0.58538575   -7.8792009    798.33319  0.016265957  0.015387294            7 
 4091000   0.58616201   -7.8965042    797.26203  0.016240162  0.015382285           10 
 4092000    0.5964296   -7.8842801    798.16414  0.016254565  0.015377277            5 
 4093000   0.59076124   -7.8958681    798.11941  0.016249683  0.015372267           11 
 4094000   0.59220715   -7.9002659    797.98773  0.016243033  0.015367258           11 
 4095000   0.60018855   -7.8991791    798.73191  0.016254211  0.015362254            5 
 4096000   0.59580752   -7.8835252     797.8506  0.016232312  0.015357253           16 
 4097000   0.60400842   -7.8940963    796.78415  0.016206658  0.015352254           11 
 4098000   0.58669139   -7.8852044    796.82621  0.016203559  0.015347252            7 
 4099000   0.58409735    -7.878867    796.42013   0.01619135  0.015342261           14 
 4100000   0.59122313   -7.8682201     798.7559  0.016234876  0.015337276            6 
 4101000   0.58633251   -7.8816277    797.09797  0.016197228  0.015332289           25 
 4102000   0.59567836   -7.8909308    796.08636  0.016172728  0.015327298           20 
 4103000   0.60038839   -7.8820618    797.42509  0.016195976  0.015322318            9 
 4104000   0.58637896   -7.8603378    797.89326  0.016201536  0.015317337           13 
 4105000   0.58981044   -7.8878111    797.35254  0.016186613  0.015312349            9 
 4106000   0.59926141   -7.8991258    797.86524  0.016193076   0.01530737           19 
 4107000   0.59504188   -7.8860905    797.05546  0.016172702  0.015302382            9 
 4108000   0.61207184   -7.8674639    797.74994  0.016182853    0.0152974           14 
 4109000   0.60265169   -7.8975463     796.9402  0.016162493  0.015292415            4 
 4110000   0.59244745   -7.8820417    797.23593  0.016164557  0.015287442           10 
 4111000   0.59030479   -7.9088956    798.60308  0.016188338  0.015282475            8 
 4112000   0.58497777   -7.9164572     796.5868  0.016143539  0.015277504            9 
 4113000   0.59770119    -7.883452    798.59267  0.016180255  0.015272531            8 
 4114000   0.58167223    -7.880491    797.94084  0.016163119  0.015267561           12 
 4115000    0.6006884   -7.8958692    797.55205  0.016151317  0.015262595           11 
 4116000    0.6000037   -7.8860733    798.29374   0.01616241  0.015257626            9 
 4117000    0.5905004   -7.9022986    798.12677  0.016155104  0.015252664           17 
 4118000   0.59714027   -7.8831396    798.78647  0.016164531  0.015247709           15 
 4119000    0.5928296    -7.881715    799.29365  0.016170868  0.015242751           17 
 4120000   0.59170039    -7.891712    798.03021  0.016141388  0.015237805            8 
 4121000   0.58589609   -7.8907383    798.22855  0.016141482  0.015232864           14 
 4122000   0.58821631   -7.8791179    797.81333  0.016129171  0.015227921            9 
 4123000   0.60033401   -7.8987373    796.41985  0.016097094  0.015222975           20 
 4124000   0.59776132   -7.8778143    797.36788  0.016112348  0.015218029            7 
 4125000   0.59933767    -7.894646    797.25332  0.016106128  0.015213082           20 
 4126000   0.59499388   -7.8957645    797.54191  0.016108053   0.01520814           10 
 4127000   0.60739488   -7.8884876    797.97338  0.016112862  0.015203207            6 
 4128000   0.59309253    -7.884357    797.58359   0.01610109  0.015198266           11 
 4129000   0.58630931   -7.9059117     797.4214  0.016093917  0.015193327            9 
 4130000   0.59069495   -7.8742531    797.36598  0.016088902  0.015188385            8 
 4131000   0.60066387   -7.8982916    796.83758  0.016074348  0.015183444            7 
 4132000   0.59011162   -7.8767643    796.59323   0.01606553    0.0151785           14 
 4133000   0.59151952   -7.8982305    796.98408  0.016069523  0.015173554           10 
 4134000   0.58824396   -7.8937243    797.69256  0.016079918  0.015168615            6 
 4135000   0.58043941   -7.9043548     797.9447   0.01608111  0.015163673           10 
 4136000   0.59739849   -7.8805355    797.32778  0.016064792  0.015158725           13 
 4137000   0.60874487   -7.8901522    796.69869  0.016048237  0.015153788           20 
 4138000   0.58382555   -7.8883557    797.92021  0.016068959  0.015148846            9 
 4139000    0.5885573   -7.9368371    796.25797  0.016031609    0.0151439           12 
 4140000   0.58603993   -7.9129023    796.23379   0.01602725   0.01513896           10 
 4141000   0.59706368   -7.8979933     797.6256  0.016051389  0.015134017           10 
 4142000   0.58720872   -7.8874344    797.38948  0.016042763  0.015129085           11 
 4143000   0.59074087   -7.9060945    796.24322  0.016015834  0.015124151            7 
 4144000   0.58984469   -7.9059738    796.12041    0.0160095  0.015119213           18 
 4145000    0.5927159   -7.9008975    797.35004  0.016030359  0.015114281            9 
 4146000   0.58232387   -7.9029452    797.37473  0.016026989  0.015109353           14 
 4147000   0.58373048   -7.9091068    797.65885  0.016028833  0.015104423            8 
 4148000   0.58233517   -7.9223193    796.38363   0.01599935  0.015099494           11 
 4149000   0.58974777   -7.9103968     797.6735  0.016021401  0.015094572           10 
 4150000   0.58589856   -7.9252191    796.69025  0.015997796  0.015089648           15 
 4151000   0.59093162   -7.9103544    796.58075  0.015991744  0.015084728           10 
 4152000   0.60062767   -7.9192183    797.16961  0.015999711  0.015079808           10 
 4153000   0.58057999   -7.9145965    796.20032  0.015976409  0.015074889           15 
 4154000   0.58756093   -7.9119066    795.67104  0.015961945  0.015069973           15 
 4155000   0.57632302    -7.908506    796.66866  0.015978112  0.015065053           16 
 4156000   0.59104315   -7.9098704    797.51735  0.015991285  0.015060138           10 
 4157000   0.58539657   -7.9085645    796.27753  0.015962584   0.01505523            8 
 4158000   0.58807024    -7.915924    798.98666   0.01601304   0.01505033           14 
 4159000   0.58420582   -7.8940144    797.84344  0.015986284  0.015045429            9 
 4160000   0.58012283   -7.8833827    796.62312  0.015957995  0.015040534            9 
 4161000   0.58750763   -7.9004383    795.98108  0.015941302  0.015035632           12 
 4162000   0.58370773   -7.9044858    796.73696  0.015952606  0.015030745           15 
 4163000    0.5761169   -7.9004106    797.60433  0.015966137   0.01502585            7 
 4164000   0.57042811   -7.9184611    796.46529  0.015939507  0.015020955           12 
 4165000     0.582859   -7.9028031     797.2605  0.015951591  0.015016058           12 
 4166000   0.58723109   -7.8998251    798.06594  0.015963873  0.015011164           19 
 4167000    0.5748812   -7.9236977    798.22813  0.015963285  0.015006281            8 
 4168000   0.59022967   -7.9184748    795.75072  0.015909923  0.015001382            9 
 4169000   0.58799059   -7.9133344    795.54661  0.015902027  0.014996491            5 
 4170000   0.58452032   -7.9036226    795.90438  0.015905363  0.014991604           14 
 4171000   0.57079106   -7.9227408    797.05713  0.015924581  0.014986718           18 
 4172000   0.58711439   -7.8860072    796.46279  0.015908892  0.014981832            8 
 4173000   0.57823488   -7.8976983    795.98912  0.015895621  0.014976947           13 
 4174000   0.57837562   -7.9131406     796.4479  0.015900972  0.014972061            8 
 4175000   0.58229735   -7.9210154    796.75593  0.015903312  0.014967179            9 
 4176000   0.57259234   -7.9020424    795.71175  0.015878667  0.014962293           10 
 4177000   0.58001166   -7.9077047     796.3671   0.01588794  0.014957408           10 
 4178000    0.5880985   -7.9089073    796.20275  0.015880859  0.014952522           11 
 4179000   0.59581176   -7.9101779    797.23096  0.015897562  0.014947642            7 
 4180000   0.58941796   -7.9172231    797.52602  0.015899642  0.014942758           20 
 4181000   0.59795883   -7.9179885     795.8234  0.015861903   0.01493788            9 
 4182000   0.57922804   -7.9083464    797.08721  0.015883294  0.014933005           13 
 4183000   0.59468769   -7.8973815    794.90486   0.01583602  0.014928127           11 
 4184000   0.58504536     -7.90589    795.90883  0.015852231  0.014923255           19 
 4185000   0.58680314   -7.9117498    797.09575  0.015872078   0.01491839           15 
 4186000   0.57492277   -7.9171311    796.70484  0.015860504  0.014913522           21 
 4187000   0.57971967   -7.9298752    796.76948  0.015858003  0.014908659           25 
 4188000   0.58575044   -7.9111392    795.81858  0.015835295    0.0149038           24 
 4189000   0.58568041   -7.9284036    796.84171  0.015851868  0.014898941           11 
 4190000   0.58099054   -7.8939502    795.94108  0.015830173   0.01489408           13 
 4191000   0.59190057   -7.9051369    796.95993  0.015846654  0.014889222           21 
 4192000   0.57968311   -7.9095333    796.51151   0.01583396  0.014884364            6 
 4193000   0.58863853   -7.9019179    796.06005  0.015821211  0.014879508            8 
 4194000   0.58422736    -7.920379    796.79905  0.015832122  0.014874652           19 
 4195000   0.58342197   -7.9103437    796.44057  0.015821227  0.014869801            6 
 4196000   0.57284124   -7.9116038    796.80186  0.015824632  0.014864947           19 
 4197000   0.58141804   -7.9302745    796.23744  0.015809654  0.014860099           24 
 4198000   0.58547337   -7.9212075    794.79227  0.015777201  0.014855252           22 
 4199000   0.58040665   -7.9085903    796.31041  0.015803573  0.014850397           18 
 4200000    0.5761084   -7.9189106    796.55839   0.01580473   0.01484555           16 
 4201000    0.5770302   -7.9173824    796.65318  0.015802848  0.014840702            8 
 4202000   0.58328258   -7.9257921    798.84367  0.015842529  0.014835863           10 
 4203000   0.58260235   -7.9284074    795.98468  0.015782074  0.014831023            8 
 4204000   0.57943368   -7.9262628    796.80021  0.015794486  0.014826182           23 
 4205000   0.59156672   -7.9198926     796.1564  0.015777971  0.014821346            7 
 4206000   0.57739977   -7.9107919    795.88916  0.015768925  0.014816502           29 
 4207000   0.57243059   -7.9315844    796.44364   0.01577616  0.014811659           13 
 4208000   0.57587596   -7.9027846    796.49734  0.015773474  0.014806823           10 
 4209000   0.57600877   -7.9220224    795.48917  0.015749766  0.014801984            6 
 4210000   0.57204128   -7.9138765     796.8877  0.015773707  0.014797152           15 
 4211000   0.57075818   -7.9425908    796.00597  0.015752513  0.014792322           13 
 4212000    0.5918692   -7.9222319    796.62384  0.015760997   0.01478749           14 
 4213000   0.57864109   -7.9235095    794.99471  0.015725032  0.014782662            9 
 4214000   0.58376757   -7.9338311    795.37905  0.015728901  0.014777833           16 
 4215000   0.58548971   -7.9328031    795.31647  0.015723932  0.014773009           16 
 4216000   0.57004329   -7.9317029       796.55  0.015744584  0.014768191           17 
 4217000   0.56717725   -7.9242356    796.72547  0.015744318  0.014763369            9 
 4218000   0.57895688   -7.9373696    796.88642  0.015743765  0.014758551           23 
 4219000   0.58557527   -7.8933432    795.86465  0.015719852  0.014753735            8 
 4220000    0.5761675   -7.9427392    796.44143  0.015727516  0.014748929           17 
 4221000    0.5731548   -7.9316188    794.77649   0.01569092  0.014744115            6 
 4222000   0.57422893   -7.9105784    795.68551  0.015705146  0.014739308           13 
 4223000   0.57890872   -7.9477532    797.14848  0.015730296  0.014734505            7 
 4224000   0.58105029   -7.9495054     796.6206  0.015716158  0.014729701           23 
 4225000   0.57180365   -7.9084642    797.20583  0.015723981  0.014724901           13 
 4226000    0.5784391   -7.9242703    796.16112  0.015699659  0.014720095           19 
 4227000   0.57943173   -7.9324266     795.5719  0.015684329  0.014715285           13 
 4228000   0.57556184   -7.9396057     796.5845  0.015700578  0.014710475           15 
 4229000   0.56860745   -7.9260891    796.21543  0.015689592  0.014705669           15 
 4230000   0.58592037   -7.9161304    795.13952  0.015664687  0.014700872           10 
 4231000   0.56750482    -7.924675    796.28772    0.0156836  0.014696082            7 
 4232000   0.59451794   -7.9177217    796.92023  0.015692349  0.014691288            9 
 4233000   0.58771105   -7.9136521    796.36069  0.015677626  0.014686499           18 
 4234000   0.58313027   -7.9327223    796.58345  0.015678307  0.014681708           12 
 4235000   0.57379869   -7.9167723    795.96911  0.015662517  0.014676917            8 
 4236000   0.58672566   -7.9437943    795.01633  0.015640076  0.014672137           10 
 4237000   0.58195352   -7.9338019    796.77332  0.015670941  0.014667351           16 
 4238000   0.57917946    -7.932783    797.29503  0.015677502   0.01466257           15 
 4239000   0.57599738   -7.9355474    795.62901  0.015641051  0.014657785            7 
 4240000   0.58314667   -7.9361383    796.21302  0.015648841  0.014653011           11 
 4241000   0.56414887   -7.9107062    795.60088  0.015633123  0.014648239           14 
 4242000   0.58879243   -7.9218007     796.3635  0.015644419  0.014643462           19 
 4243000   0.57392363   -7.9221726    795.60831    0.0156259  0.014638685           17 
 4244000    0.5702578   -7.9302904    796.10069  0.015631886  0.014633913           26 
 4245000    0.5632771   -7.9299925    796.31527  0.015632416  0.014629142           10 
 4246000   0.57404611   -7.9485522    796.93312  0.015640861  0.014624368           24 
 4247000   0.56205404   -7.9294524    796.37082  0.015626144  0.014619596           13 
 4248000   0.57272396   -7.9199876    795.51332  0.015605644  0.014614827            7 
 4249000   0.57126787   -7.9288498    794.94255  0.015590777  0.014610064           13 
 4250000   0.57679125   -7.9223701    795.42776  0.015596623  0.014605306           19 
 4251000   0.56208386   -7.9193659    795.91815  0.015602567  0.014600545           27 
 4252000   0.55427889    -7.925441    795.30664  0.015586913   0.01459579           12 
 4253000   0.57338371   -7.9339281    795.24685  0.015582076  0.014591033           17 
 4254000     0.564955   -7.9481584    796.37588   0.01560053  0.014586273           15 
 4255000   0.57873535   -7.9189701    796.49916  0.015599278  0.014581518           15 
 4256000   0.56846834   -7.9278267    795.86214   0.01558314  0.014576764            7 
 4257000   0.58429959   -7.9094914    797.00496  0.015601851  0.014572019           15 
 4258000   0.57780411   -7.9303977    796.00739  0.015578664  0.014567275           10 
 4259000   0.56904266   -7.9338164    796.00562  0.015574971  0.014562523           20 
 4260000   0.56775315   -7.9312755    796.30479  0.015577167  0.014557781           11 
 4261000   0.58492467   -7.9387113    795.00757  0.015548141  0.014553031           19 
 4262000   0.57778774   -7.9248123    795.96212  0.015563157  0.014548286           28 
 4263000   0.58029687   -7.9190297    796.85866  0.015577032  0.014543549           16 
 4264000   0.57103251   -7.9532504    795.71088  0.015550947  0.014538815            8 
 4265000   0.56053098   -7.9360016    796.60254  0.015564723  0.014534077           14 
 4266000   0.57929343   -7.9460413    794.89027  0.015527627  0.014529336           31 
 4267000   0.57427297   -7.9326592    795.23649  0.015530749  0.014524596           17 
 4268000   0.57623819   -7.9290412    795.26836  0.015527733   0.01451987           16 
 4269000   0.57841451   -7.9124219    796.61394  0.015550362  0.014515148           13 
 4270000    0.5728095   -7.9402653    796.43844  0.015543295  0.014510425            8 
 4271000   0.57594582   -7.9145004    796.19281  0.015534863  0.014505702            8 
 4272000   0.55001141    -7.929466    796.42543  0.015535765  0.014500985            7 
 4273000   0.58165605   -7.9261097    796.03759  0.015524565  0.014496273            9 
 4274000   0.56377647   -7.9383662    796.73725  0.015534574  0.014491562           12 
 4275000   0.57926028   -7.9232866    797.05942  0.015537221  0.014486847           17 
 4276000   0.55513794   -7.9239975    797.05725  0.015533545  0.014482125            9 
 4277000   0.58952449   -7.9312136    795.70873  0.015503638  0.014477415           10 
 4278000   0.56192032   -7.9120835    795.76346   0.01550108  0.014472704           16 
 4279000   0.55668473    -7.931561    795.72212  0.015496653  0.014467998            9 
 4280000    0.5596494    -7.934959    797.14196  0.015520677  0.014463292           11 
 4281000   0.56373588   -7.9456649    796.00067  0.015494835  0.014458577           12 
 4282000    0.5605907   -7.9172117    794.30859  0.015458286  0.014453866           10 
 4283000    0.5769095    -7.933096    795.69855  0.015481721  0.014449149            8 
 4284000   0.56123836   -7.9356217    794.60548  0.015456845  0.014444448           11 
 4285000   0.55986759   -7.9487456    796.65473  0.015493091  0.014439744            9 
 4286000    0.5695801   -7.9273495    794.77231  0.015452876  0.014435041           21 
 4287000    0.5587388   -7.9347285    794.76209  0.015449072  0.014430337           23 
 4288000   0.56837703   -7.9338925    796.53045  0.015479836  0.014425642           10 
 4289000   0.56489029   -7.9253389    793.60731  0.015419432  0.014420942           16 
 4290000   0.57250452   -7.9527541    795.44263  0.015451489  0.014416244           10 
 4291000    0.5736737   -7.9448226    794.94904  0.015438302  0.014411547           11 
 4292000   0.56686001   -7.9258357    795.64606  0.015448238  0.014406846           12 
 4293000   0.56570039    -7.929981    795.00636  0.015432222  0.014402148           17 
 4294000   0.56470812    -7.934912    795.11244  0.015430687  0.014397447           12 
 4295000   0.54825832   -7.9470004    795.34769  0.015431659  0.014392748           13 
 4296000   0.55570279   -7.9466457    796.25731  0.015445711  0.014388045           24 
 4297000   0.56883819   -7.9614031    795.29476   0.01542345  0.014383346           15 
 4298000   0.56965383   -7.9572274    795.71832  0.015428073  0.014378658           11 
 4299000    0.5705056   -7.9461967    794.47252  0.015400336   0.01437397           13 
 4300000   0.57273382    -7.932667    794.71776  0.015401507  0.014369287            7 
 4301000   0.56759578   -7.9570846    794.45245  0.015392786  0.014364605            8 
 4302000   0.56573324   -7.9254867     795.8446  0.015416175  0.014359923            8 
 4303000   0.55965997   -7.9596859    795.93823  0.015414405  0.014355246           11 
 4304000   0.56003882   -7.9397825    793.94745  0.015372279  0.014350564           17 
 4305000   0.57383007   -7.9408969     796.0619  0.015409638  0.014345886           18 
 4306000   0.56626056   -7.9524026     795.3615  0.015392505  0.014341211            7 
 4307000   0.57752497   -7.9483297    794.44416  0.015371182  0.014336536           10 
 4308000   0.57126142   -7.9316104    796.32246  0.015403947  0.014331862           19 
 4309000   0.56839471   -7.9664858    794.35105  0.015362247  0.014327188           14 
 4310000   0.55894343   -7.9163312    796.62162  0.015402583  0.014322519            7 
 4311000   0.55498527     -7.95382    795.80542  0.015383233  0.014317846           13 
 4312000   0.55993066    -7.949409    793.63176  0.015337658   0.01431317           15 
 4313000   0.55690177   -7.9266254    794.34789  0.015347938  0.014308502           20 
 4314000   0.55555169   -7.9582688    795.02692  0.015357497  0.014303838            8 
 4315000   0.55885684   -7.9653781    796.40139  0.015380483  0.014299167           17 
 4316000   0.56042581   -7.9462281    794.50296  0.015340264  0.014294503           16 
 4317000   0.56234371   -7.9452895     793.8871  0.015324822  0.014289835           13 
 4318000   0.56726083   -7.9494885    795.15838  0.015345808  0.014285169           16 
 4319000   0.56216551   -7.9419422    794.05002  0.015320869  0.014280512           13 
 4320000   0.55139383    -7.956848    796.86876  0.015371697  0.014275856            9 
 4321000   0.56970205   -7.9442498    794.30787  0.015318751  0.014271198            8 
 4322000   0.54768204   -7.9467167    794.93891  0.015327374  0.014266547           24 
 4323000   0.56032675   -7.9490315      796.207  0.015348273  0.014261899            8 
 4324000   0.55335152    -7.957806    794.40753  0.015310043  0.014257251           16 
 4325000   0.56835737   -7.9545868    794.32621  0.015304937  0.014252602           16 
 4326000    0.5508422   -7.9408684    795.30004  0.015320158  0.014247963           15 
 4327000    0.5641547   -7.9425224    794.86019  0.015308146  0.014243324           10 
 4328000   0.55649584   -7.9631531    794.47947  0.015297279  0.014238683            8 
 4329000   0.55259267   -7.9542644    794.70922  0.015298168  0.014234045            6 
 4330000   0.56775278   -7.9453937     795.5988  0.015311755  0.014229406           10 
 4331000    0.5537315   -7.9571929    795.11714  0.015298952  0.014224773           10 
 4332000   0.56323398    -7.969647    795.07163  0.015294545  0.014220143           13 
 4333000   0.55996449   -7.9676848    793.73988  0.015265403  0.014215513           10 
 4334000   0.56547168   -7.9547144    794.16027  0.015269964   0.01421088           11 
 4335000   0.55869676   -7.9526705    794.61135  0.015275112   0.01420625           11 
 4336000   0.55826055   -7.9407688    796.48735  0.015307644   0.01420163            5 
 4337000   0.55709217   -7.9618018    795.80237  0.015290953  0.014197009           17 
 4338000   0.54149683   -7.9581629     794.1787  0.015256238  0.014192383           26 
 4339000   0.57191783    -7.958596    796.02864  0.015288251  0.014187764            9 
 4340000   0.55489645   -7.9518721    795.92717   0.01528278  0.014183147           16 
 4341000     0.565827   -7.9419788    793.78484  0.015238133   0.01417853           12 
 4342000   0.55397694   -7.9500758    794.30533  0.015244613  0.014173918            8 
 4343000   0.56429951   -7.9562691    793.65409  0.015228607  0.014169309           13 
 4344000   0.56182519   -7.9763888    794.76983  0.015246505  0.014164695           18 
 4345000   0.55188102   -7.9584852    795.23188  0.015251858  0.014160073            8 
 4346000   0.55455957   -7.9696917      793.451  0.015214201  0.014155456            9 
 4347000    0.5549773   -7.9516936    794.84001  0.015237329  0.014150846           17 
 4348000   0.56864986   -7.9682779    794.80479  0.015233149  0.014146234            5 
 4349000   0.55800491    -7.953825    794.18924  0.015217852  0.014141623            8 
 4350000   0.55004301   -7.9552208    795.15454  0.015232846  0.014137017           10 
 4351000   0.55088414   -7.9688492    793.02646  0.015188586  0.014132403            9 
 4352000   0.55310633   -7.9384796    795.57189  0.015233837  0.014127798            6 
 4353000   0.55073843   -7.9400366    794.37827  0.015207487  0.014123197            6 
 4354000   0.55760065   -7.9597545     795.1186  0.015218163  0.014118597           11 
 4355000   0.54881516   -7.9604667    795.48113  0.015221606     0.014114           11 
 4356000   0.55643641   -7.9568991    794.69376  0.015203049  0.014109401           10 
 4357000   0.55427674   -7.9596793    795.82248  0.015221148  0.014104808            9 
 4358000   0.54454015    -7.959978    795.08113  0.015203479  0.014100211            5 
 4359000    0.5501118   -7.9528148    794.00982   0.01517951  0.014095612           10 
 4360000   0.54334259     -7.97394    794.55743  0.015186495  0.014091014           11 
 4361000   0.54801357   -7.9778223    794.05493  0.015173411  0.014086422            8 
 4362000   0.56400197   -7.9589446    794.01983  0.015169262  0.014081829            9 
 4363000   0.55996967   -7.9495402    794.75673   0.01517986  0.014077235           16 
 4364000   0.54989679   -7.9726384    793.75921  0.015157333  0.014072642            9 
 4365000   0.56942504   -7.9542928    795.17962  0.015180978  0.014068056            7 
 4366000   0.55671476   -7.9733713    794.70541   0.01516845  0.014063471            6 
 4367000    0.5598606   -7.9761262    794.29856  0.015157212  0.014058887           14 
 4368000   0.55620343   -7.9635933    794.35354  0.015154791  0.014054306            7 
 4369000   0.56183637   -7.9648574    794.81053  0.015160039  0.014049726           15 
 4370000   0.56858976   -7.9812284    795.10874  0.015162257  0.014045149           23 
 4371000   0.55638467   -7.9669909    795.37312  0.015163828   0.01404057            5 
 4372000   0.56297085   -7.9587527     793.3557  0.015121906  0.014035996           15 
 4373000   0.54591338   -7.9659792    794.58904  0.015141951  0.014031424           15 
 4374000   0.54618703   -7.9782292    795.54065   0.01515662  0.014026859           10 
 4375000   0.54814469   -7.9584183    795.09172  0.015144604  0.014022292           25 
 4376000   0.55222052   -7.9699859     795.2969  0.015145051  0.014017721           12 
 4377000   0.55070452   -7.9750995    794.21816  0.015121052  0.014013146            8 
 4378000     0.555117   -7.9630109    794.68058  0.015126401  0.014008576           11 
 4379000   0.54663652   -7.9700563    795.25629  0.015133902  0.014004009            9 
 4380000   0.53519232   -7.9647292     793.3948   0.01509503  0.013999442           12 
 4381000   0.54091215   -7.9784166    794.13152  0.015105598  0.013994879           11 
 4382000   0.54374419   -7.9434698    795.08515  0.015120287  0.013990322           15 
 4383000   0.54887211   -7.9614783    794.10725  0.015098244  0.013985769           14 
 4384000   0.54111011   -7.9640697    794.31461  0.015098742  0.013981216           20 
 4385000   0.54862074   -7.9788871    794.45418  0.015097951  0.013976664            7 
 4386000   0.55503373   -7.9775363    794.41734  0.015093809  0.013972108           10 
 4387000     0.534182   -7.9763894    793.47476  0.015072463  0.013967554            9 
 4388000   0.55171245   -7.9766142    792.97473  0.015059532  0.013962993           24 
 4389000   0.55962111    -7.971476    794.74769  0.015089764  0.013958443           13 
 4390000   0.54977881   -7.9505119    793.86695  0.015069608  0.013953891            7 
 4391000    0.5611967   -7.9781381    794.16654  0.015071862  0.013949349            8 
 4392000    0.5452152   -7.9806403    793.58103  0.015057321  0.013944799            9 
 4393000     0.542672   -7.9597864    795.44771  0.015089303  0.013940255           13 
 4394000   0.55059593   -7.9834478    793.99796  0.015058374  0.013935712           18 
 4395000   0.54159408   -7.9728817    793.97613  0.015054534  0.013931168           20 
 4396000   0.53410201   -7.9722951    795.14778   0.01507332  0.013926622            8 
 4397000   0.54715032   -7.9916797     794.5073  0.015057753  0.013922079           11 
 4398000   0.55029845   -7.9642789    794.10615  0.015046729   0.01391754           10 
 4399000   0.54619503   -7.9866304    792.30141   0.01500912  0.013913003            6 
 4400000     0.546859   -7.9861204    794.29052  0.015043381  0.013908465           10 
 4401000    0.5528064   -7.9536436    792.77528  0.015011272  0.013903935           23 
 4402000   0.55995041   -7.9882518    794.67523  0.015043829  0.013899409           12 
 4403000   0.53219355   -7.9711065     793.6505  0.015021018   0.01389488            7 
 4404000   0.55032935   -7.9811137    795.75662  0.015057459  0.013890356           16 
 4405000   0.53824802   -7.9744949    793.15935  0.015004906  0.013885829           13 
 4406000    0.5499581   -7.9715427    793.86449  0.015014838  0.013881299           15 
 4407000   0.54927103   -8.0037917    793.60599  0.015006542  0.013876778           12 
 4408000   0.53689355   -7.9678309      793.569  0.015002439  0.013872259            6 
 4409000    0.5520585   -7.9809588    795.00081  0.015026098  0.013867741            8 
 4410000   0.53684696   -7.9654942    793.99462  0.015003678  0.013863225            4 
 4411000   0.54723843   -7.9764248    794.72782  0.015014128  0.013858709            7 
 4412000   0.55099909   -7.9710471    794.81596   0.01501239  0.013854197           13 
 4413000   0.54049626   -7.9740135    793.58742  0.014985788   0.01384969           19 
 4414000   0.54097574   -7.9862751    794.91047  0.015007372  0.013845188            8 
 4415000   0.55030876    -7.977856    793.62597  0.014979728  0.013840683           21 
 4416000   0.55222726   -7.9663517    794.44164  0.014991728  0.013836177           11 
 4417000   0.55356272   -7.9775076    793.98421  0.014979704  0.013831672           15 
 4418000   0.56230263   -7.9713922    793.74576  0.014971815  0.013827169           11 
 4419000   0.54718465   -7.9779676    794.77859  0.014987904  0.013822665            4 
 4420000   0.54484147   -7.9770276    792.95581  0.014950147   0.01381816           12 
 4421000   0.56506807   -7.9883605    793.12205  0.014949899  0.013813658           10 
 4422000   0.55127407   -7.9664326     793.7405  0.014958173  0.013809157            9 
 4423000   0.54795061   -7.9827514    792.77359  0.014936574  0.013804658           23 
 4424000   0.55016433   -7.9919068    792.81427  0.014933964  0.013800153           12 
 4425000    0.5506084   -7.9971154    792.74635   0.01492931  0.013795655           17 
 4426000   0.54943262   -7.9870305    794.04547  0.014950397  0.013791157           11 
 4427000   0.54662296   -7.9938625    794.54528  0.014956428  0.013786659           17 
 4428000   0.54129235   -7.9996239    793.11305  0.014926096  0.013782158           17 
 4429000   0.53577558   -7.9704329    794.25712  0.014944252   0.01377767           11 
 4430000   0.54842935   -7.9884966    794.38601  0.014943303  0.013773177           13 
 4431000   0.53937902   -7.9900618    793.69235  0.014926885  0.013768693           35 
 4432000   0.55127557   -7.9887428    794.49907  0.014938686  0.013764204           21 
 4433000   0.53363484   -7.9701146    794.52421  0.014935789  0.013759721            9 
 4434000   0.54889418   -7.9779349    794.01614  0.014922871  0.013755238           27 
 4435000   0.53407367   -7.9822531    793.39495  0.014907835  0.013750762           14 
 4436000   0.52472929   -7.9839136    794.05576  0.014916888  0.013746281            6 
 4437000   0.54118396    -7.983801    794.49976  0.014921865  0.013741803           13 
 4438000   0.53652502   -7.9959159    793.79316  0.014905234  0.013737329           13 
 4439000   0.54624357   -7.9977818    793.93208  0.014904484  0.013732855           14 
 4440000   0.55169853   -7.9969529    792.88737   0.01488152  0.013728384            7 
 4441000   0.55612314   -7.9851258    793.01768  0.014880614  0.013723915           16 
 4442000   0.54415077    -7.998703    793.95639  0.014894875  0.013719443           13 
 4443000    0.5269078   -7.9918117    793.10696   0.01487559  0.013714979            9 
 4444000    0.5335459   -7.9886117    792.66647  0.014863983  0.013710517           10 
 4445000    0.5503882   -7.9964816    794.23877  0.014890116  0.013706055           18 
 4446000     0.546439   -7.9685279    793.18086  0.014866938  0.013701593           10 
 4447000   0.54133367   -7.9924305    794.49409  0.014888203  0.013697137           29 
 4448000   0.55378847   -8.0021565    793.35208  0.014863461  0.013692678           26 
 4449000   0.52941854   -7.9964397    794.30873  0.014878039  0.013688216           14 
 4450000   0.53405841    -7.999332    792.50738  0.014840962   0.01368376           10 
 4451000   0.53417544   -7.9913214    793.27169  0.014851938   0.01367931           12 
 4452000   0.54772229   -7.9923014    793.91207  0.014860588  0.013674864            9 
 4453000   0.54486192   -7.9960775    793.15687  0.014843118  0.013670421            7 
 4454000    0.5401671   -7.9792227    793.37136  0.014843799  0.013665978            8 
 4455000     0.553616   -8.0079447     793.8703    0.0148498  0.013661535           12 
 4456000   0.54637116   -7.9782217    793.53657  0.014840226  0.013657094           11 
 4457000   0.53626791    -7.984025    794.23435  0.014849943  0.013652652           13 
 4458000   0.53459431   -7.9990465    793.75987  0.014837742  0.013648214           22 
 4459000   0.53852162   -7.9883559    793.61685  0.014831742  0.013643771           10 
 4460000   0.54649324   -7.9983381    794.44404  0.014843872  0.013639337            6 
 4461000   0.54102994   -7.9931308    794.01117  0.014832459  0.013634906           14 
 4462000   0.52438207    -7.992806    793.68449  0.014823033  0.013630476            8 
 4463000   0.52071176   -8.0042033    793.71403  0.014820263  0.013626046           15 
 4464000    0.5437963    -7.978994    792.81806  0.014800218  0.013621618           13 
 4465000   0.52621682    -7.973397    793.78792  0.014815004  0.013617194            7 
 4466000   0.54099453    -7.986398    794.81203  0.014830796  0.013612775           16 
 4467000   0.54187247    -7.997647    793.06294  0.014794846  0.013608361           18 
 4468000   0.53468675   -8.0092855    794.20432  0.014812823  0.013603943           17 
 4469000   0.55574618   -8.0037467    793.30672  0.014792771  0.013599521            7 
 4470000   0.52993115   -7.9748969    794.14539  0.014805097  0.013595107            8 
 4471000   0.54420725   -7.9903108    792.76528  0.014776062  0.013590692           13 
 4472000    0.5530926   -7.9959676    793.78261  0.014791715  0.013586275            6 
 4473000   0.53773589   -7.9938045    793.78524  0.014788457  0.013581861            9 
 4474000   0.53198352   -7.9919922    793.26555  0.014775472  0.013577449            7 
 4475000   0.53063351   -7.9912919    794.46866  0.014794575  0.013573039           13 
 4476000   0.52416526   -7.9891167    792.60787  0.014756625  0.013568633           12 
 4477000   0.54103285   -7.9979416    792.10383  0.014743947  0.013564224           27 
 4478000   0.53378724   -7.9808727    794.15367  0.014778801  0.013559825           15 
 4479000   0.54284363   -7.9986912    793.82421  0.014769372  0.013555423           19 
 4480000    0.5315102   -8.0064411    793.13073  0.014753176  0.013551022            8 
 4481000   0.52978579   -7.9945568    793.14876  0.014750219   0.01354662           21 
 4482000   0.52850706   -8.0024006    792.59974   0.01473672  0.013542212           16 
 4483000   0.53113396   -8.0097981     793.7381  0.014754593  0.013537808            7 
 4484000   0.53867179   -7.9958435    793.87312  0.014753812  0.013533408            8 
 4485000   0.53185412    -7.994409    793.52875  0.014744124  0.013529006            7 
 4486000   0.52672315   -7.9990904      793.211  0.014734935  0.013524611           14 
 4487000   0.53527357   -7.9982131    791.59294    0.0147016  0.013520213           12 
 4488000   0.54253503   -7.9849808    793.26787  0.014729424  0.013515819           16 
 4489000   0.53121945   -8.0074467    792.77741  0.014717038  0.013511422            9 
 4490000   0.53262163   -8.0052699    793.90339  0.014734658  0.013507027           16 
 4491000   0.52999982    -8.001365    792.81501  0.014711182  0.013502634           17 
 4492000   0.53015436   -8.0102532    793.66635    0.0147237  0.013498241           24 
 4493000   0.54758485   -8.0090846    792.44019  0.014697681  0.013493854           12 
 4494000   0.52875543   -7.9973016    792.87484  0.014702471  0.013489465           15 
 4495000   0.54346004   -7.9887869    793.58502  0.014712366  0.013485077           17 
 4496000   0.53779199   -7.9899401    793.71868  0.014711571  0.013480691           25 
 4497000   0.53252955   -8.0036787    794.73458  0.014727125  0.013476309            9 
 4498000   0.51649368   -7.9873083    794.01048  0.014710436  0.013471934            9 
 4499000   0.53843499   -8.0082294    791.62581  0.014662996  0.013467548            7 
 4500000   0.52999608   -8.0168156     793.3807  0.014692235   0.01346317           18 
 4501000   0.52647977   -8.0053138    792.39994  0.014670813  0.013458794           13 
 4502000   0.53039234   -7.9980369    792.45698   0.01466861  0.013454425            7 
 4503000   0.52971664   -8.0071715    793.43286  0.014683412  0.013450057           18 
 4504000   0.53980674    -7.991366    792.09413  0.014655383  0.013445686           12 
 4505000   0.54347478    -7.999815    793.32916  0.014674975  0.013441319           23 
 4506000   0.53215701   -8.0089904    793.78376  0.014680126  0.013436954           10 
 4507000   0.53869515   -8.0004863    794.06482  0.014682065  0.013432594           10 
 4508000   0.52402216   -7.9941907    793.46468  0.014667714  0.013428233           15 
 4509000   0.52353996   -7.9982094    793.32245  0.014661833  0.013423877            6 
 4510000   0.53320656   -7.9979258    792.43665  0.014642214  0.013419517           11 
 4511000   0.54103065   -8.0108647    792.22031  0.014634972  0.013415156           10 
 4512000   0.52732326   -8.0235656    793.67416   0.01465858  0.013410796           10 
 4513000   0.53106411     -8.01667    792.59823  0.014635465  0.013406442           15 
 4514000   0.52905279   -8.0087649    793.93799  0.014656956  0.013402089           23 
 4515000   0.51483484   -8.0201864    792.97877  0.014636005  0.013397734           13 
 4516000   0.53158545   -8.0053955    792.02997  0.014615256   0.01339338           19 
 4517000   0.52677698   -8.0117517    792.91326  0.014628316  0.013389031           14 
 4518000   0.53825162   -8.0108008    793.08128  0.014628178  0.013384686           11 
 4519000   0.52995015   -8.0235172    793.25797  0.014628199  0.013380341           24 
 4520000   0.53432169   -8.0000709    792.45014  0.014610069  0.013375997            9 
 4521000   0.52994872   -8.0116771    794.06597  0.014636621  0.013371653           11 
 4522000   0.51028245   -8.0071061    792.98284  0.014613424  0.013367309           12 
 4523000    0.5201452   -8.0302837    792.44999  0.014600376  0.013362967           16 
 4524000   0.52386373   -8.0223177    794.15748  0.014628601  0.013358627           13 
 4525000   0.52419884   -8.0158883    793.46901  0.014612689  0.013354291            9 
 4526000   0.52740832   -8.0002943    793.69733  0.014613664   0.01334995            8 
 4527000   0.53162232   -8.0006439    792.66303  0.014591397  0.013345613           10 
 4528000   0.52687394   -8.0141771    792.70988  0.014589036   0.01334128            6 
 4529000   0.52401774   -8.0032772    791.96487  0.014572107  0.013336944            6 
 4530000   0.52781551   -8.0086457    791.91029  0.014567886  0.013332609            7 
 4531000   0.52708145   -8.0011398    792.99951  0.014584704  0.013328282            7 
 4532000   0.53206814   -8.0058279    791.92434  0.014561716  0.013323948           10 
 4533000   0.52117138   -8.0192052    792.37077   0.01456671   0.01331962            7 
 4534000   0.52584755   -8.0168023    792.13577  0.014559178  0.013315284           13 
 4535000   0.52125851   -8.0073656    792.50042  0.014562668  0.013310959           13 
 4536000   0.53739986   -8.0224406    792.66433  0.014562469  0.013306637           12 
 4537000   0.52172377   -8.0242478    792.07944  0.014548517  0.013302312           11 
 4538000   0.52054778   -8.0096345     792.4893  0.014552837  0.013297995           17 
 4539000   0.51526925   -8.0098535    792.19899  0.014544301  0.013293675            9 
 4540000   0.52565016   -8.0192365    792.95595  0.014554992  0.013289355           16 
 4541000   0.52712832    -8.012733     793.0947  0.014554333  0.013285039           10 
 4542000   0.52509701   -8.0331103     791.3626  0.014519349  0.013280723           17 
 4543000    0.5166157   -8.0116816    792.37268  0.014534681  0.013276408           20 
 4544000   0.51951581   -8.0131802    792.77121  0.014538791  0.013272096           11 
 4545000   0.53007834   -8.0153855    792.74654   0.01453514  0.013267788           11 
 4546000   0.52440917   -8.0133264    791.45585  0.014508283  0.013263479           16 
 4547000   0.51992928   -8.0369525    793.38752  0.014540494  0.013259167            6 
 4548000   0.51430187     -8.01245    792.91362  0.014528614  0.013254855           14 
 4549000   0.51568497   -8.0150159    792.35339  0.014515157  0.013250546            7 
 4550000   0.51845735   -8.0273626    792.15965  0.014508419  0.013246242           12 
 4551000   0.52938743    -8.026231    792.50811  0.014511611  0.013241939           13 
 4552000   0.53489872   -8.0261769    791.90795  0.014497436  0.013237637           10 
 4553000   0.52058462   -8.0265833    793.87283  0.014530215   0.01323334           13 
 4554000   0.52914638    -8.001544    792.21018    0.0144966  0.013229039           10 
 4555000   0.53185671   -8.0049576    792.47349  0.014498234  0.013224744           12 
 4556000     0.520579   -8.0303993    792.19036  0.014489874  0.013220445           10 
 4557000    0.5125083   -8.0203496    790.46234  0.014455094  0.013216148           11 
 4558000   0.52353865   -8.0192135     793.0193  0.014498671  0.013211863           21 
 4559000   0.54063013   -8.0173973    791.64148  0.014470306  0.013207574           12 
 4560000   0.52540094   -8.0243623    791.26057  0.014460171  0.013203287            7 
 4561000   0.52540597   -8.0096913    791.95835   0.01446975  0.013198999           11 
 4562000   0.51874602   -8.0151304    791.59717   0.01445998  0.013194713            9 
 4563000   0.51919401   -8.0139135    792.29151  0.014469492  0.013190423            9 
 4564000   0.51648456   -7.9996234    792.70268  0.014473829  0.013186139           11 
 4565000   0.51871112   -8.0262548    792.31756  0.014463628  0.013181856            8 
 4566000   0.52742498   -8.0286222    791.50953  0.014445713  0.013177574           16 
 4567000    0.5133223   -8.0388021    791.94486  0.014450494  0.013173292           18 
 4568000   0.52390879   -8.0147786    791.54544  0.014440044  0.013169012           10 
 4569000   0.52238908   -8.0113343    790.51039  0.014418005  0.013164731           18 
 4570000   0.52074253   -8.0213633    792.47146   0.01445061  0.013160461           13 
 4571000   0.52157106   -8.0377025    791.40061  0.014427926  0.013156188           11 
 4572000   0.52007111   -8.0359203     792.6212  0.014447018  0.013151917           13 
 4573000   0.52407091   -8.0207633    791.63365  0.014425863  0.013147646           11 
 4574000   0.51635752   -8.0282218    791.98717   0.01442915  0.013143376            9 
 4575000   0.52628942   -8.0176204    793.02191  0.014444843  0.013139105           22 
 4576000    0.5255637   -8.0051742    791.47002  0.014413426  0.013134837           10 
 4577000   0.52196315   -8.0241112    792.10119  0.014421768  0.013130568            7 
 4578000   0.53007104   -8.0280365    791.67976  0.014410947  0.013126306            8 
 4579000   0.51918381      -8.0103     792.1612  0.014416561  0.013122045            7 
 4580000   0.52433791   -8.0290132     792.1142  0.014412558  0.013117784           16 
 4581000   0.51346153   -8.0338756     791.9447  0.014406329  0.013113524           12 
 4582000    0.5260598   -8.0345721    792.37759  0.014411058  0.013109265           11 
 4583000   0.51710269   -8.0120506    792.92107  0.014417795  0.013105011           11 
 4584000   0.50721919   -8.0209136    791.26061  0.014384464  0.013100759           10 
 4585000   0.51020649   -8.0271173    792.77275   0.01440881  0.013096504           11 
 4586000   0.52197744   -8.0429602    791.07299  0.014374782  0.013092256           18 
 4587000    0.5099283   -8.0195526    791.63548  0.014381867   0.01308801           11 
 4588000   0.51826245   -8.0246123    791.49328  0.014376149  0.013083763           16 
 4589000   0.51533155    -8.020253    792.02141  0.014382607  0.013079521           10 
 4590000   0.50734169   -8.0445807    792.27528  0.014384083  0.013075279           12 
 4591000   0.51055679   -8.0317848    791.43264  0.014365655  0.013071035           20 
 4592000    0.5220022   -8.0425316    791.40793  0.014362078  0.013066795           10 
 4593000   0.51287503   -8.0144132     791.3686  0.014358237  0.013062556           13 
 4594000   0.52349327   -8.0237128    793.18399  0.014388042  0.013058317           17 
 4595000   0.52796517   -8.0435446    792.05106  0.014364365  0.013054079            9 
 4596000   0.52720716   -8.0244503    791.99545  0.014360231  0.013049847           10 
 4597000   0.52849318   -8.0311779    791.51844   0.01434846  0.013045614           15 
 4598000   0.51916033   -8.0312764     793.4096  0.014379614  0.013041387           11 
 4599000   0.52261728   -8.0321648    791.53188  0.014342463  0.013037158           11 
 4600000   0.50944067   -8.0380111    791.02731  0.014330205  0.013032933           12 
 4601000   0.50510735   -8.0249998    791.69603  0.014339202  0.013028705           11 
 4602000   0.51573661   -8.0279408    791.68581  0.014335901  0.013024484           11 
 4603000   0.52177936   -8.0228743    791.87824  0.014336271  0.013020262            9 
 4604000   0.50572819   -8.0206958    791.75217  0.014330875  0.013016045            8 
 4605000   0.50383583   -8.0270585    790.16273     0.014299  0.013011827           14 
 4606000   0.51420117   -8.0305741    792.45319  0.014337335  0.013007611           14 
 4607000    0.5131821   -8.0389733    791.89131   0.01432406  0.013003393           13 
 4608000   0.51171034   -8.0463616     792.8471  0.014338236  0.012999174            9 
 4609000    0.5046051   -8.0390229    790.25872  0.014288326  0.012994958           12 
 4610000   0.50638766   -8.0232358    791.70278   0.01431133  0.012990744           12 
 4611000   0.51978856   -8.0225649    791.71997  0.014308537  0.012986535            9 
 4612000   0.50842996   -8.0184701     791.2312  0.014296603  0.012982324           11 
 4613000   0.51446534    -8.035217    790.70139  0.014283933   0.01297812           19 
 4614000   0.51687487   -8.0474649     791.4204  0.014293823  0.012973912           11 
 4615000   0.51640507   -8.0212644    791.43456  0.014290981  0.012969707           15 
 4616000   0.50427889   -8.0258718    791.36693  0.014286665  0.012965506           14 
 4617000   0.51535849   -8.0317785    790.86614  0.014274531  0.012961304           11 
 4618000   0.51535885   -8.0360501    791.23394  0.014278078  0.012957102           12 
 4619000   0.50954645    -8.019714    791.19515  0.014274286  0.012952905            9 
 4620000   0.52041088    -8.040083    791.67436  0.014279841  0.012948709           11 
 4621000     0.503348   -8.0367437     791.3225  0.014270405  0.012944513           11 
 4622000   0.51631343    -8.017286    791.01923   0.01426185  0.012940317            7 
 4623000   0.52785015   -8.0431689    791.76327  0.014272177  0.012936129            8 
 4624000   0.51958582   -8.0278328    791.99689    0.0142733  0.012931937           11 
 4625000   0.51601773   -8.0474277    791.45829   0.01426051  0.012927747           15 
 4626000   0.52690382   -8.0509219    792.75756  0.014280832   0.01292356           11 
 4627000   0.51797354   -8.0355624    790.73753  0.014241365   0.01291937            6 
 4628000   0.51190179   -8.0150077    791.18198   0.01424629  0.012915185           11 
 4629000   0.50851694   -8.0506848    791.86199  0.014255455  0.012910997           18 
 4630000   0.51025842   -8.0296569    790.32513  0.014224714  0.012906813           11 
 4631000   0.51550428   -8.0321405    790.51616   0.01422508  0.012902631           12 
 4632000   0.51533671   -8.0317024    790.28377  0.014217828   0.01289845           11 
 4633000   0.51076772   -8.0399318    791.78726  0.014241803  0.012894273           20 
 4634000   0.50574273    -8.046417    790.99507  0.014224483  0.012890097            9 
 4635000   0.50396936   -8.0434429    791.16669    0.0142245  0.012885926           12 
 4636000   0.51419345   -8.0435569    789.12944  0.014184812  0.012881745           19 
 4637000    0.5123396   -8.0571888    791.12744  0.014217659  0.012877571           11 
 4638000   0.51715546   -8.0538112    791.23916  0.014216601  0.012873396            8 
 4639000   0.50743379   -8.0312397    790.48127  0.014199922  0.012869225           15 
 4640000   0.50244197    -8.046632    790.59325  0.014198873  0.012865056            8 
 4641000    0.5090498   -8.0503346    791.86284   0.01421861  0.012860883           13 
 4642000   0.50922843   -8.0468516    790.84961  0.014197358   0.01285672           14 
 4643000       0.5018   -8.0539171    792.39387  0.014222016  0.012852558           22 
 4644000   0.51266129   -8.0409755    791.56268  0.014204039  0.012848397           10 
 4645000   0.51877953   -8.0604428    792.30105  0.014214228  0.012844233           13 
 4646000   0.52325347   -8.0398943    791.14519  0.014190436  0.012840071           13 
 4647000   0.50611322   -8.0654602    789.94292  0.014165822  0.012835914            9 
 4648000   0.50354536   -8.0340025     790.9248  0.014180379  0.012831759           11 
 4649000   0.52223003   -8.0421545    790.73328  0.014173896  0.012827603            9 
 4650000   0.51392088   -8.0265165    790.52228  0.014167066  0.012823449           18 
 4651000   0.49710235   -8.0274487      790.774   0.01416853  0.012819304           10 
 4652000   0.50630733   -8.0440137    790.61547  0.014162645  0.012815151           12 
 4653000   0.50385011   -8.0523762    791.49365  0.014175329  0.012811003           11 
 4654000   0.50224959   -8.0476454    790.13078   0.01414788  0.012806858            9 
 4655000   0.52471628   -8.0437807     790.1817  0.014145752  0.012802715           17 
 4656000   0.49452945   -8.0454391    790.44941  0.014147505  0.012798572            7 
 4657000   0.51459803   -8.0371349    789.64136  0.014130008  0.012794429           16 
 4658000   0.50501986   -8.0387894    791.58876  0.014161814  0.012790289            8 
 4659000   0.50495107   -8.0403232    790.68633  0.014142633   0.01278615           25 
 4660000   0.50554955   -8.0583958    791.01913   0.01414555  0.012782013           10 
 4661000   0.50707744   -8.0425891     791.2269  0.014146229  0.012777875           11 
 4662000     0.502307   -8.0382583     791.9465  0.014156058  0.012773739           26 
 4663000   0.51110346   -8.0341559    790.28319  0.014123297  0.012769604           12 
 4664000   0.50576832   -8.0339104    790.33182  0.014121137  0.012765475           10 
 4665000   0.49895699   -8.0625468    791.83783  0.014145013  0.012761347           13 
 4666000   0.50766341   -8.0697902    790.81926   0.01412379  0.012757215            8 
 4667000    0.4908728   -8.0516597    791.11482  0.014126041  0.012753088           11 
 4668000   0.50714961   -8.0576291    790.23184  0.014107252  0.012748959           20 
 4669000   0.48952417   -8.0440306    791.10241  0.014119769  0.012744829           12 
 4670000    0.4959015   -8.0289015    790.79172  0.014111201  0.012740704           15 
 4671000   0.50564527    -8.048116    790.07709  0.014095431  0.012736581           12 
 4672000    0.5044746   -8.0565731    790.69251  0.014103391   0.01273246           17 
 4673000   0.50238808   -8.0533643    791.14673  0.014108473  0.012728338           15 
 4674000   0.49987446   -8.0651568    790.75276   0.01409843  0.012724217           24 
 4675000   0.50930384   -8.0482921     790.1708  0.014085041    0.0127201            8 
 4676000   0.50479316    -8.062269    790.98958  0.014096621  0.012715988           11 
 4677000   0.50444742   -8.0554898    790.96682  0.014093201  0.012711875           16 
 4678000   0.49734022   -8.0695573    790.51261  0.014082097  0.012707761           19 
 4679000     0.504004   -8.0629212    790.37846  0.014076698   0.01270365            7 
 4680000   0.50091333   -8.0422548    790.28733  0.014072068   0.01269954           10 
 4681000   0.50477727   -8.0508415    790.08516  0.014065462   0.01269543           14 
 4682000   0.49718319   -8.0590442    789.75697  0.014056617  0.012691322           11 
 4683000   0.51033847   -8.0496706    790.88147  0.014073626  0.012687217           13 
 4684000   0.49569709   -8.0644327    790.43721  0.014062717  0.012683115           21 
 4685000   0.50433253   -8.0622546     789.8773  0.014049756  0.012679013            8 
 4686000   0.49767003   -8.0719379    789.79342  0.014045266  0.012674914            7 
 4687000   0.50621678   -8.0680417    788.57128   0.01402054  0.012670813           18 
 4688000   0.50680949   -8.0490912    791.02271  0.014061126  0.012666717           15 
 4689000   0.50431186   -8.0547698    790.82278  0.014054574  0.012662621            8 
 4690000   0.49784042   -8.0594954    790.07606  0.014038309  0.012658528           15 
 4691000   0.49325265   -8.0554376    791.02392  0.014052155  0.012654438            9 
 4692000   0.50919104   -8.0684108     789.6868  0.014025412  0.012650345            8 
 4693000   0.50541687   -8.0684783    789.83647  0.014025081  0.012646254           16 
 4694000   0.49129683   -8.0693846    790.80486  0.014039285  0.012642162            8 
 4695000   0.50253714   -8.0572796    789.95832  0.014021269  0.012638071           14 
 4696000   0.50060541   -8.0576131     789.1438  0.014003829  0.012633984           19 
 4697000   0.48935098   -8.0740005    790.66845  0.014027898  0.012629902           13 
 4698000   0.49441618   -8.0606501    790.03555  0.014013686  0.012625817           13 
 4699000   0.49546956   -8.0618676    790.07759  0.014011449  0.012621735            9 
 4700000   0.49935567   -8.0512587    790.36399  0.014013546  0.012617656            9 
 4701000   0.50288353   -8.0688873    790.97606  0.014021415  0.012613573           11 
 4702000   0.49474052    -8.065841    790.70324  0.014013598  0.012609494           11 
 4703000   0.50598394   -8.0678936    790.61151  0.014008993  0.012605417           12 
 4704000   0.49358169   -8.0505693    791.27376  0.014017747  0.012601342           13 
 4705000   0.50482558   -8.0561406     789.3104  0.013979993   0.01259727           11 
 4706000   0.50205626   -8.0477325    790.84107  0.014004127  0.012593202           10 
 4707000   0.50252641   -8.0561436    789.52325  0.013977821  0.012589131           13 
 4708000   0.50310659   -8.0666498    789.05204  0.013966512  0.012585063           19 
 4709000   0.50800568   -8.0428145    790.36738  0.013986823  0.012580999            9 
 4710000   0.50484983   -8.0709683    789.16723  0.013962619  0.012576934           10 
 4711000   0.49553438   -8.0813506    790.80017   0.01398854  0.012572872           14 
 4712000   0.48801166   -8.0560676    790.92686  0.013987812  0.012568812            9 
 4713000    0.5036297   -8.0694625    788.77785  0.013946846  0.012564753           17 
 4714000   0.50310653   -8.0586702    790.03956  0.013966192  0.012560697           10 
 4715000   0.48549338   -8.0689784    789.74954  0.013958104  0.012556642            8 
 4716000    0.5069265   -8.0588784    788.60897   0.01393499  0.012552587            8 
 4717000   0.48915763   -8.0575224     790.1914  0.013959992  0.012548537           10 
 4718000   0.49903543   -8.0555904    789.79479  0.013950028  0.012544489           11 
 4719000   0.49052333   -8.0714914    791.04804  0.013969203  0.012540439            6 
 4720000   0.48313433   -8.0535017    789.86241  0.013945311  0.012536391           11 
 4721000    0.5009755   -8.0713401    790.10644  0.013946665  0.012532346           18 
 4722000    0.4988405   -8.0639212    791.90349  0.013975425  0.012528304            8 
 4723000   0.49614288   -8.0770937    790.44249  0.013946688  0.012524263           12 
 4724000   0.50074097   -8.0507345    790.34023  0.013941932  0.012520221            8 
 4725000   0.49497672   -8.0707468    790.11529  0.013935014  0.012516186           13 
 4726000   0.49945598   -8.0703559    789.33644  0.013918332  0.012512148            9 
 4727000     0.489017   -8.0673842    790.03133  0.013927638  0.012508112            9 
 4728000   0.50062552   -8.0610814    790.45439  0.013932149   0.01250408            9 
 4729000   0.49916401   -8.0594898     789.9579  0.013920454  0.012500046           14 
 4730000   0.48924533   -8.0565817    790.47108  0.013926552  0.012496015           10 
 4731000   0.49731354   -8.0495563    790.68951  0.013927456   0.01249199           14 
 4732000   0.50341679   -8.0589677    790.97969  0.013929623  0.012487963           11 
 4733000   0.50135553   -8.0665573    789.84369  0.013906678  0.012483936           22 
 4734000   0.49899324   -8.0685263    790.21551  0.013910286  0.012479908           16 
 4735000   0.49409104    -8.068497    790.71022  0.013916055  0.012475885           12 
 4736000   0.50296819   -8.0580946    789.82912  0.013897613  0.012471865            8 
 4737000   0.49053478   -8.0558063    790.47398  0.013906023  0.012467844           13 
 4738000   0.48777799   -8.0628037    788.90478  0.013875489  0.012463824           21 
 4739000   0.49839636   -8.0851035    789.07938  0.013875631  0.012459806            6 
 4740000   0.50030155   -8.0664608    789.54326  0.013880859  0.012455791            9 
 4741000   0.49375958   -8.0653112     789.8951  0.013884116  0.012451776            7 
 4742000   0.49139739   -8.0745473    790.75999  0.013896387  0.012447762           19 
 4743000   0.48641427   -8.0522792    790.24557  0.013884419  0.012443749            9 
 4744000   0.49502947   -8.0781582    790.43414  0.013884804  0.012439739           15 
 4745000   0.47677379   -8.0813568    790.51715  0.013883336  0.012435733            8 
 4746000   0.49766971   -8.0631046    790.30371  0.013876663  0.012431727            8 
 4747000   0.49479356   -8.0563929    790.60067  0.013878953   0.01242772            7 
 4748000   0.50319905   -8.0759047    790.11461  0.013867499  0.012423716           11 
 4749000   0.49654523   -8.0622339    791.16932  0.013883086  0.012419714            9 
 4750000   0.49477216   -8.0767982    789.96046  0.013858955  0.012415712           10 
 4751000   0.48726838   -8.0759108    788.43124  0.013829216  0.012411712            6 
 4752000   0.48321868    -8.071698    788.44752  0.013826591  0.012407711           12 
 4753000   0.48552913   -8.0733394     790.3957  0.013857839  0.012403713           13 
 4754000   0.49288711   -8.0742979    788.32322  0.013818595   0.01239972            7 
 4755000    0.4950856   -8.0513683      789.909  0.013843481  0.012395727           20 
 4756000   0.49391601   -8.0592949    790.95244  0.013858853  0.012391737           12 
 4757000   0.48948164   -8.0573396    791.21434  0.013860527  0.012387748           11 
 4758000   0.49768382   -8.0743466    789.12852  0.013821082  0.012383759           12 
 4759000   0.48912862   -8.0606812    790.37625  0.013840027  0.012379773           10 
 4760000   0.50425272    -8.059539    789.71874  0.013825608   0.01237579           16 
 4761000   0.48745616   -8.0847469    788.92163  0.013808752  0.012371806           17 
 4762000   0.49562258   -8.0798516     789.3753  0.013813792  0.012367826           21 
 4763000   0.49763155   -8.0585695    789.28292  0.013809275  0.012363841           13 
 4764000   0.49108419   -8.0814665    789.47184  0.013809681  0.012359859           20 
 4765000   0.48973767   -8.0668641    788.79212  0.013794895  0.012355881           14 
 4766000   0.48360544   -8.0816528    790.43614  0.013820747  0.012351901           23 
 4767000   0.48365466   -8.0731877     788.7943  0.013789146  0.012347925           10 
 4768000   0.48298704   -8.0725901    789.19279  0.013793219   0.01234395            7 
 4769000   0.49179922   -8.0663848    789.58255  0.013797137   0.01233998           17 
 4770000    0.5031243   -8.0683834     789.0727  0.013785337  0.012336008           20 
 4771000   0.48342059    -8.066245    790.02969  0.013799163  0.012332041           17 
 4772000   0.48753545    -8.083301    789.50381  0.013787088  0.012328078            9 
 4773000   0.48252528    -8.073794    788.57476  0.013767979  0.012324111           10 
 4774000   0.47844175   -8.0802753    788.78409  0.013768749  0.012320147           15 
 4775000   0.48630067   -8.0678455    789.97329  0.013786619  0.012316185           17 
 4776000   0.48095758   -8.0850274    790.13923  0.013786628  0.012312224           11 
 4777000   0.49345979   -8.0676947    789.03777  0.013764527  0.012308264           12 
 4778000   0.47975565   -8.0848095    788.94824  0.013760085  0.012304303           15 
 4779000   0.47478215   -8.0878899    789.02093  0.013758473  0.012300347           10 
 4780000   0.49052701   -8.0689268    789.21181  0.013758923  0.012296389           12 
 4781000   0.48151992   -8.0893231    789.26496  0.013756971  0.012292437           11 
 4782000   0.48844034   -8.0884833     789.1646  0.013752346  0.012288484           13 
 4783000   0.48389665   -8.0784958    787.92569  0.013727885  0.012284534            7 
 4784000   0.47502732   -8.0783663    788.55759  0.013736023  0.012280584           11 
 4785000    0.4890241    -8.082194    788.82001  0.013737722  0.012276636           12 
 4786000   0.49390064   -8.0710925    789.71761  0.013750481  0.012272691            7 
 4787000   0.48072141   -8.0728824    790.46238  0.013760573  0.012268745            7 
 4788000    0.4908985   -8.0647539    788.60073  0.013725298  0.012264803           31 
 4789000   0.48133413   -8.0775727    788.62166  0.013722796  0.012260856           10 
 4790000   0.49403785    -8.086779    789.64263  0.013737694  0.012256915            9 
 4791000   0.48459788   -8.0743331    789.13068  0.013725922  0.012252973           19 
 4792000   0.48950458   -8.0596895    791.01742  0.013755868  0.012249038           14 
 4793000    0.4904469   -8.0782999    788.47147  0.013708733  0.012245102           11 
 4794000   0.48419468   -8.0765726    789.11625  0.013717081  0.012241168           15 
 4795000   0.49275029   -8.0700076    789.13262  0.013714505  0.012237237           12 
 4796000   0.48906269   -8.0857107    789.41916  0.013716624  0.012233306            9 
 4797000   0.48271576   -8.0776815    791.27441  0.013745994  0.012229377           10 
 4798000   0.48088659   -8.0839958    790.15907  0.013723758  0.012225451            9 
 4799000   0.48145542   -8.0959665    790.02747  0.013718613   0.01222153            9 
 4800000   0.48002488    -8.075937    789.52904  0.013707101  0.012217608           10 
 4801000   0.48913745   -8.0676649    789.89695  0.013710632  0.012213686           19 
 4802000   0.48036823   -8.0825566    789.50589  0.013700991  0.012209765           10 
 4803000   0.48528357   -8.0823669    789.27994  0.013694218  0.012205849            8 
 4804000   0.48490256   -8.0610321    789.91299  0.013702349  0.012201935            8 
 4805000   0.47119314   -8.0827869    788.91902  0.013682258   0.01219802           19 
 4806000   0.47882995   -8.0798926    788.56995  0.013673359  0.012194107           22 
 4807000   0.48427585   -8.0837857    789.42783  0.013685386   0.01219019            7 
 4808000    0.4757092   -8.0549608    789.72065  0.013687615  0.012186279           12 
 4809000   0.48271402   -8.0811547    789.18748   0.01367553  0.012182369            9 
 4810000   0.48368073   -8.0878682    789.20216  0.013672941  0.012178459           16 
 4811000   0.48860009   -8.0942072     789.1549  0.013669281  0.012174549           10 
 4812000   0.47911998   -8.0717763    789.83164  0.013678159  0.012170644           14 
 4813000   0.48621823   -8.0861983    788.47796   0.01365188  0.012166738            9 
 4814000   0.48000002    -8.080442    789.02962  0.013658593  0.012162835           12 
 4815000   0.48085987   -8.0803898    789.06504   0.01365637  0.012158931           13 
 4816000   0.48432574   -8.0810539    789.31549  0.013657868  0.012155033           10 
 4817000   0.47919604   -8.0830378    789.71738  0.013661985  0.012151134            8 
 4818000   0.48639397   -8.0831589    789.16088  0.013649524  0.012147236            9 
 4819000    0.4900734   -8.0876619    789.24137  0.013648084  0.012143339           11 
 4820000   0.47528654   -8.0844484    789.34354  0.013647018  0.012139444            9 
 4821000   0.47828883   -8.0925628    789.46677  0.013646318  0.012135547           15 
 4822000    0.4776329   -8.0853519    789.16975  0.013638355  0.012131654            7 
 4823000   0.48134774   -8.0922304    789.93527  0.013648754  0.012127761           11 
 4824000   0.48573204   -8.0920386    789.03806  0.013630425  0.012123868            7 
 4825000   0.48562702   -8.0982965    788.48008  0.013617963  0.012119977            8 
 4826000   0.47918377   -8.0846537    789.91167  0.013639862  0.012116088            6 
 4827000   0.47852737   -8.0907356    788.43846  0.013611602    0.0121122            8 
 4828000    0.4986858   -8.0834543    789.60362  0.013628894  0.012108315            9 
 4829000   0.46910528   -8.0996332    789.56779  0.013625454  0.012104437            7 
 4830000   0.48766664   -8.0780437     789.1755  0.013615864  0.012100557           12 
 4831000   0.47462166    -8.090817    788.72833  0.013605332  0.012096676           10 
 4832000   0.47741263   -8.0923177    787.93397  0.013588817  0.012092798           12 
 4833000   0.48041367   -8.0927234    788.53997  0.013596454  0.012088919           11 
 4834000   0.47354023   -8.0802887     789.2893   0.01360656  0.012085046           16 
 4835000   0.46473524   -8.0870183    788.44312  0.013589161  0.012081169           10 
 4836000    0.4739503   -8.0957733    788.25122  0.013583044  0.012077296           10 
 4837000   0.47310075   -8.0920678    789.25577  0.013597543  0.012073422           11 
 4838000   0.48118476   -8.0950102    788.81401  0.013587123  0.012069551           13 
 4839000   0.48470169   -8.0821163     788.4664  0.013578329  0.012065683            8 
 4840000   0.48791158   -8.0960506     789.7286  0.013597255  0.012061815            8 
 4841000   0.47719763   -8.1024268    788.81466  0.013578714   0.01205795           10 
 4842000   0.47432355   -8.1145461    787.93364  0.013560747  0.012054084           27 
 4843000    0.4790142   -8.0840673    789.59257  0.013586492  0.012050222            8 
 4844000   0.46927862   -8.0865445     788.9708  0.013572991  0.012046361            8 
 4845000   0.48458628   -8.0837108    788.47951  0.013561739  0.012042505           13 
 4846000   0.47165307   -8.0883992    788.19655  0.013554075  0.012038648            8 
 4847000   0.48621487   -8.0975995    788.65856  0.013559222  0.012034791           11 
 4848000   0.46798696   -8.0872062    788.86273  0.013559934  0.012030934           10 
 4849000   0.47377431   -8.1008147    789.29215  0.013564518  0.012027086           10 
 4850000   0.47314691   -8.0907869    789.25455  0.013561075  0.012023235           13 
 4851000   0.47545245   -8.0878725    788.95901  0.013553202  0.012019386           12 
 4852000   0.48429984   -8.0916681    787.77608  0.013530092  0.012015538           10 
 4853000   0.47518471     -8.10927    787.72218  0.013526379  0.012011691            9 
 4854000   0.48007709     -8.08873    787.76364  0.013524304  0.012007846            9 
 4855000    0.4786344   -8.0906591     789.2849   0.01354763  0.012004001            8 
 4856000   0.47152156   -8.1011206    788.47549   0.01353095  0.012000162           11 
 4857000   0.47733322   -8.0991909     787.9341  0.013518875   0.01199632            7 
 4858000   0.47730613   -8.0953352    788.43536  0.013524691  0.011992478           13 
 4859000   0.47000298   -8.1060169    788.27056  0.013519081   0.01198864           10 
 4860000   0.48460724   -8.0928301    789.30423  0.013534023  0.011984804           11 
 4861000   0.48107861   -8.1076536    787.76517  0.013504854   0.01198097           11 
 4862000   0.47816033   -8.0894666    787.97502  0.013505674  0.011977138           10 
 4863000   0.47248954   -8.0937992    788.07745  0.013504652  0.011973304            9 
 4864000   0.47912562   -8.1066876    788.96885  0.013517147  0.011969472            9 
 4865000   0.47162381    -8.091065    789.11106  0.013516805  0.011965641           14 
 4866000   0.47076942   -8.1058892    789.99806  0.013529217  0.011961814           15 
 4867000    0.4626335   -8.0991955    788.42398  0.013499486  0.011957986           15 
 4868000   0.47311097   -8.1103405    788.24788  0.013493698  0.011954162           10 
 4869000   0.48355908   -8.0931156    788.14506  0.013489167  0.011950338           11 
 4870000   0.48338141   -8.0946887     788.7711   0.01349711  0.011946515           16 
 4871000   0.46947095   -8.1101611    788.86224  0.013495898  0.011942693            9 
 4872000   0.48025777   -8.0928774    788.52228  0.013487313  0.011938874            6 
 4873000    0.4817634   -8.1143777    788.70399  0.013487653  0.011935056            8 
 4874000   0.47796665   -8.0978157    788.01488  0.013473104  0.011931239            8 
 4875000   0.46549567   -8.1134931    788.97401  0.013486735  0.011927421           10 
 4876000   0.47274981   -8.1189837    789.27058  0.013489038  0.011923608           10 
 4877000   0.46490272   -8.0988391    787.69669  0.013459379  0.011919797            7 
 4878000   0.45931655   -8.0974628    788.72793  0.013474237  0.011915987           11 
 4879000    0.4662296   -8.1175633    787.79398  0.013455523  0.011912176            9 
 4880000   0.47204319   -8.1094914    788.15032  0.013458851  0.011908367           10 
 4881000   0.46467865   -8.1125458    787.87772   0.01345144  0.011904558            8 
 4882000   0.46841029   -8.0982754    789.15393  0.013470469  0.011900749            6 
 4883000   0.48254837   -8.1092034    788.67675  0.013459566  0.011896944            9 
 4884000   0.46818927   -8.1135731    789.23744  0.013466377  0.011893141           17 
 4885000   0.47716244   -8.1086924    787.61322  0.013435913  0.011889338           10 
 4886000    0.4696835   -8.1065707    789.01919  0.013457143  0.011885538            6 
 4887000   0.47406362   -8.1101881    788.40558  0.013443926  0.011881737           11 
 4888000   0.44917357   -8.1027336    787.98742  0.013434046  0.011877939            7 
 4889000   0.47397734   -8.0943701    787.88176  0.013429497  0.011874144           12 
 4890000   0.47251197   -8.1131125    788.82075  0.013442753  0.011870351           12 
 4891000   0.47321581   -8.1045716    789.39537  0.013449795   0.01186656            8 
 4892000   0.47209094   -8.1032494    787.20167  0.013409677  0.011862767            8 
 4893000   0.47449724   -8.1122266    787.96208  0.013419887  0.011858977            9 
 4894000   0.47741792   -8.0851287    788.48286  0.013426012  0.011855192           11 
 4895000   0.47775016   -8.1102502    788.51592  0.013423833  0.011851404            8 
 4896000   0.47271741   -8.1148422    789.89278  0.013444526  0.011847616           16 
 4897000    0.4590264   -8.1090789    787.32887   0.01339815  0.011843833           13 
 4898000   0.46323578   -8.1103994    787.82839  0.013403913  0.011840049            8 
 4899000   0.47173701   -8.1043788    787.67653  0.013398594  0.011836265            9 
 4900000   0.47061755   -8.1145884    789.50706  0.013426991  0.011832487           11 
 4901000   0.46982197   -8.1048103    788.33355  0.013404298  0.011828709           10 
 4902000   0.47346894    -8.123884    788.66973  0.013407278   0.01182493           12 
 4903000   0.46811897    -8.096606    788.68783  0.013404851  0.011821153            8 
 4904000   0.46970699   -8.1153743     788.5674  0.013400071  0.011817375            7 
 4905000   0.46946497   -8.0888054    787.97331  0.013387246  0.011813602            8 
 4906000   0.46410767   -8.1093881    788.58354  0.013394883  0.011809831            8 
 4907000   0.46811796    -8.108048    788.93759  0.013398166   0.01180606            6 
 4908000   0.45915728   -8.1298128    789.40049  0.013403295  0.011802292           11 
 4909000   0.46643685    -8.094624    786.60867  0.013353172  0.011798524            8 
 4910000   0.47634851   -8.1214107    786.90553  0.013355491   0.01179476            9 
 4911000   0.47022519   -8.1015747    788.27397  0.013375992  0.011790997            8 
 4912000   0.46414348   -8.1081222    787.07099   0.01335286  0.011787233            8 
 4913000   0.47187919   -8.1260082    789.91847  0.013398441  0.011783473           11 
 4914000   0.45810103   -8.1047917    786.92975   0.01334503  0.011779715           15 
 4915000   0.46141702   -8.0994466     786.9819  0.013343199  0.011775954            8 
 4916000    0.4692896   -8.1109862    787.30106  0.013345895  0.011772193            6 
 4917000   0.46360463   -8.0982589    789.06192  0.013373024  0.011768439           11 
 4918000   0.45997017   -8.1084994    787.37414  0.013341706  0.011764684            8 
 4919000    0.4448467   -8.1006565    786.82035  0.013329612   0.01176093           14 
 4920000   0.46329522   -8.1107131    787.51767  0.013338714   0.01175718           12 
 4921000   0.45513163   -8.1206505    787.68938  0.013338911  0.011753426            7 
 4922000   0.47557979   -8.1018479     787.5575  0.013333968  0.011749678            7 
 4923000   0.47731233     -8.12001       787.86   0.01333638  0.011745933           11 
 4924000   0.45727302   -8.1065065    786.75333  0.013314943   0.01174219           10 
 4925000   0.45283969    -8.114641    788.11515  0.013335282  0.011738447            9 
 4926000    0.4670423   -8.1149004    787.69211  0.013325418  0.011734702           11 
 4927000   0.46260338   -8.1220043    788.23788  0.013331944  0.011730959            7 
 4928000   0.46804866   -8.1273056    787.77976  0.013321492   0.01172722            9 
 4929000   0.46021484   -8.1107909    787.23539  0.013309586  0.011723483            7 
 4930000   0.46351759   -8.1090955    789.07054  0.013337906  0.011719748           10 
 4931000   0.46340752   -8.1210686    787.18714  0.013303372  0.011716013            9 
 4932000   0.45352266   -8.1127419    787.73331  0.013309903  0.011712279            6 
 4933000    0.4665443   -8.1238272    787.84349  0.013309066  0.011708548            9 
 4934000   0.45424176   -8.1306151    787.08698  0.013293592  0.011704815            9 
 4935000   0.45991556   -8.1280925    787.14452   0.01329187  0.011701082           10 
 4936000   0.46522336   -8.1041677    787.29836  0.013291774  0.011697353            8 
 4937000   0.46721793   -8.1119516     787.5216   0.01329285  0.011693624           14 
 4938000   0.46595077   -8.1087719    787.81812  0.013295162  0.011689898            8 
 4939000   0.46328071   -8.1150364    786.44872  0.013269365  0.011686171           13 
 4940000   0.45789639   -8.1217606    787.14457  0.013278417  0.011682449            8 
 4941000   0.46272879   -8.1126484    787.57258  0.013282948  0.011678727            9 
 4942000   0.45679348   -8.1145495    787.53428  0.013279615  0.011675009           13 
 4943000   0.45713197   -8.1338724    787.15474   0.01327053   0.01167129           10 
 4944000   0.45950684   -8.1208828    787.44203  0.013272688  0.011667574            8 
 4945000   0.46820737   -8.1298224    788.16586  0.013282202  0.011663861            7 
 4946000   0.46390751   -8.1083136     787.0295   0.01326037  0.011660151           11 
 4947000   0.47048583   -8.1211466    787.12845  0.013259357   0.01165644           12 
 4948000   0.46568661   -8.1106364    787.87369  0.013269228  0.011652727           15 
 4949000    0.4600643   -8.1312686    788.23438   0.01327262  0.011649019            8 
 4950000   0.45750196   -8.1255058    788.11581  0.013267943  0.011645312            8 
 4951000   0.45883241   -8.1199082    787.00253  0.013246525  0.011641603            8 
 4952000   0.46138864   -8.1257863     787.6754  0.013255173  0.011637897            8 
 4953000   0.45274516   -8.1149975    787.54281  0.013250266  0.011634196            9 
 4954000   0.46510948   -8.1251766    785.87965  0.013219615  0.011630495            8 
 4955000   0.44942462   -8.1192197    787.65113  0.013246739  0.011626796            9 
 4956000   0.45306952   -8.1136479     787.8259  0.013247005    0.0116231            9 
 4957000   0.46426264   -8.1236117    787.98768  0.013247053  0.011619403            9 
 4958000   0.45143634   -8.1180789    788.06521  0.013245684   0.01161571           10 
 4959000   0.45503082   -8.1143494    788.14422  0.013244341  0.011612016           11 
 4960000   0.45579076   -8.1412112    787.33616  0.013228094  0.011608319           11 
 4961000   0.45964275   -8.1255301    788.20607   0.01324004  0.011604629           14 
 4962000   0.46374022   -8.1269793    788.09105   0.01323544  0.011600938           12 
 4963000   0.45421033   -8.1221754    787.70402  0.013226275  0.011597247            9 
 4964000   0.45970951   -8.1147363    787.68212  0.013223243  0.011593558           12 
 4965000   0.45781553   -8.1220662    787.95105  0.013225093  0.011589874            8 
 4966000   0.45463329   -8.1114253     787.1118  0.013208347  0.011586188           11 
 4967000   0.45943441   -8.1158887    788.54622  0.013229753  0.011582507           10 
 4968000   0.46241878   -8.1230942    786.40497  0.013191173  0.011578828            7 
 4969000    0.4537408   -8.1210002     787.0782  0.013199809  0.011575152            8 
 4970000   0.45596222   -8.1094298    787.56924  0.013205386  0.011571474            9 
 4971000   0.45849018   -8.1249555     787.8412  0.013207289  0.011567798            9 
 4972000   0.45405269   -8.0951938    787.43273  0.013197786  0.011564124           11 
 4973000   0.45369222   -8.1271321    788.25772  0.013208957  0.011560453            7 
 4974000    0.4626954   -8.1217513    788.22002   0.01320567  0.011556783           12 
 4975000   0.46387067   -8.1295542    786.93788  0.013181539  0.011553113           10 
 4976000   0.45531838   -8.1126682    787.72884  0.013192136  0.011549441           12 
 4977000   0.45706409   -8.1201909    787.25648  0.013181577  0.011545773           12 
 4978000   0.45167029   -8.1191236    786.90022  0.013172965  0.011542107           10 
 4979000   0.45678738   -8.1295435    787.45348  0.013179579  0.011538439           11 
 4980000   0.46405173   -8.1347378    786.70885  0.013164472  0.011534775            7 
 4981000   0.46092769    -8.132878    786.04197  0.013150672  0.011531113           11 
 4982000   0.44862853   -8.1330862    787.90519  0.013179198  0.011527454            8 
 4983000   0.46274436   -8.1459877    787.16199  0.013164125  0.011523795            7 
 4984000   0.45514558   -8.1355123    787.76029  0.013171487  0.011520136            8 
 4985000   0.45330958   -8.1229987    788.46685  0.013180656  0.011516481           10 
 4986000   0.44625299    -8.139243    787.94721  0.013169328  0.011512826            7 
 4987000   0.45099257   -8.1296858    787.36135  0.013156897  0.011509172           10 
 4988000   0.45329938   -8.1138125    786.59879   0.01314152  0.011505522            6 
 4989000   0.45709937    -8.107253    786.89891  0.013143898  0.011501872            7 
 4990000   0.46660753   -8.1245199    786.84207  0.013140315  0.011498226           13 
 4991000   0.44414243   -8.1379961    787.59825  0.013150308  0.011494576           14 
 4992000   0.45897148   -8.1148863    787.36672  0.013143809  0.011490929            9 
 4993000   0.45591175   -8.1374648    788.07196  0.013152947  0.011487282           14 
 4994000   0.45195157   -8.1391859     787.3334  0.013137989   0.01148364           10 
 4995000   0.44878964   -8.1413542    787.20565  0.013133227  0.011480001            7 
 4996000   0.44445552   -8.1356533    787.62062   0.01313752   0.01147636            7 
 4997000   0.46369392   -8.1354905     787.5824  0.013134254  0.011472722           10 
 4998000   0.45130288   -8.1440871    786.46281  0.013112959  0.011469083            9 
 4999000   0.45725203   -8.1305466    787.39931  0.013125947  0.011465446            7 
 5000000   0.46565162   -8.1355322    787.06547  0.013117758   0.01146181            7 
 5001000   0.44408281   -8.1392608    787.82671   0.01312782  0.011458176            9 
 5002000    0.4526329   -8.1267241    786.79469  0.013108002  0.011454545            6 
 5003000   0.44772322   -8.1425621    786.48535  0.013100229  0.011450914           12 
 5004000   0.44556813   -8.1233575    787.20481  0.013109592  0.011447286            8 
 5005000   0.44662267   -8.1212178    788.23672  0.013124154  0.011443659           10 
 5006000    0.4546407   -8.1166846    785.78031  0.013080642  0.011440033            8 
 5007000    0.4536837   -8.1402345    786.74549  0.013094093  0.011436406            8 
 5008000   0.46208136   -8.1300608    786.50507  0.013087478  0.011432783           15 
 5009000   0.47314848   -8.1423347    787.33138  0.013098612  0.011429162            7 
 5010000   0.43342668   -8.1393616    788.07471  0.013108362   0.01142554            8 
 5011000   0.44891329   -8.1360724    787.30158  0.013092889  0.011421919           12 
 5012000   0.45520159   -8.1451994    786.99139  0.013085119  0.011418301            8 
Loop time of 11365.9 on 48 procs for 5000000 steps with 4000 atoms

Performance: 76017.162 tau/day, 439.914 timesteps/s
99.4% CPU use with 48 MPI tasks x no OpenMP threads

MPI task timing breakdown:
Section |  min time  |  avg time  |  max time  |%varavg| %total
---------------------------------------------------------------
Pair    | 724.55     | 766.08     | 806.98     |  79.2 |  6.74
Neigh   | 72.799     | 74.905     | 76.574     |  11.5 |  0.66
Comm    | 673.01     | 712.85     | 763.62     |  89.5 |  6.27
Output  | 13.838     | 13.843     | 13.921     |   0.3 |  0.12
Modify  | 9666.5     | 9689.3     | 9720.2     |  11.8 | 85.25
Other   |            | 108.9      |            |       |  0.96

Nlocal:        83.3333 ave          91 max          74 min
Histogram: 1 4 3 2 10 11 4 7 0 6
Nghost:        1901.40 ave        1923 max        1887 min
Histogram: 6 5 8 9 7 3 4 0 3 3
Neighs:        11981.8 ave       13455 max       10173 min
Histogram: 2 1 6 3 7 8 7 6 4 4
FullNghs:      23962.5 ave       26489 max       20926 min
Histogram: 1 3 3 6 6 11 9 2 1 6

Total # of neighbors = 1150201
Ave neighs/atom = 287.55025
Neighbor list builds = 268825
Dangerous builds = 1

#clear
#
#next RN
#
#jump SELF
Total wall time: 3:09:28
