
units lj                  # Use reduced LJ style units
atom_style atomic         # Uncharged point particles
atom_modify map hash      # Needed for indexing of clusters etc
                          # Used to be able to find where atoms are in relation to each other.

lattice fcc 1.0 spacing 1 1 1
Lattice spacing in x,y,z = 1.5874011 1.5874011 1.5874011
region box block 0 10 0 10 0 10 units lattice
create_box 2 box
Created orthogonal box = (0.0000000 0.0000000 0.0000000) to (15.874011 15.874011 15.874011)
  3 by 4 by 4 MPI processor grid
create_atoms 1 box
Created 4000 atoms
  using lattice units in orthogonal box = (0.0000000 0.0000000 0.0000000) to (15.874011 15.874011 15.874011)
  create_atoms CPU = 0.003 seconds
set type 1 type/fraction 2 0.04 78393
Setting atom values ...
  161 settings made for type/fraction
mass 1 1.0
mass 2 1.0
pair_style lj/cut  3.5
pair_modify tail  yes
pair_coeff 1  1  1.0  1.0   # Intearaction between 1 and 1 set with epsilon = 1 and sigma = 1
pair_coeff 1  2  1.5  0.8
pair_coeff 2  2  0.5  0.88

write_data data.0
System init for write_data ...
Neighbor list info ...
  update every 1 steps, delay 10 steps, check yes
  max neighbors/atom: 2000, page size: 100000
  master list distance cutoff = 3.8
  ghost atom cutoff = 3.8
  binsize = 1.9, bins = 9 9 9
  1 neighbor lists, perpetual/occasional/extra = 1 0 0
  (1) pair lj/cut, perpetual
      attributes: half, newton on
      pair build: half/bin/atomonly/newton
      stencil: half/bin/3d
      bin: standard
WARNING: Not all mixed pair coeffs generated from mixing. Use write_data with 'pair ij' option to store all pair coeffs. (../write_data.cpp:312)


#############################
#   M E L T   S Y S T E M   #
#############################

velocity all create 2.4 8172548 mom yes dist gaussian # Assign velocities
                                                    # Temperature 2.4, random number seed, zero linear momentum
                                                                                # Gaussian distribution

timestep 0.002   # simulation timestep
thermo 1000       # output thermodynamic data every 1000 steps bf 100

# Define a fix  in this case with index 1 applied to all
# particles in the simulation. This fix is for simulations
# in the anisotropic NPT ensemble. Note that we use the MTK
# correction.
fix 1 all npt temp 2.4 2.4 0.1 iso 5.68 5.68 0.5 mtk yes tchain 5 pchain 5 # Use NPT ensemble
                                                                         # Set temperature and pressure and damping
                                                                         # Numbers of thermostats in chain and in barostat
run 10000          # run for 10000 steps
Per MPI rank memory allocation (min/avg/max) = 3.642 | 3.644 | 3.648 Mbytes
Step Temp E_pair E_mol TotEng Press Volume 
       0          2.4   -8.1195307            0   -4.5204307   -2.5632236         4000 
    1000    2.3900089   -4.4766922            0  -0.89257512    5.8716792     5035.695 
    2000    2.4587685   -4.4474104            0  -0.76017975    5.7058385    5080.5883 
    3000    2.3834615   -4.4274462            0  -0.85314773    5.7046605    5095.0828 
    4000    2.3586549   -4.4328245            0  -0.89572666    5.5937718    5108.5611 
    5000    2.3844345   -4.4187108            0  -0.84295322    5.7359789    5101.0206 
    6000    2.3514766   -4.4495024            0  -0.92316928    5.3681544    5119.0743 
    7000    2.3808758   -4.4385844            0  -0.86816353    5.4952374    5115.7325 
    8000     2.382735   -4.4066222            0  -0.83341314    5.8584668    5086.5048 
    9000    2.4003912   -4.4529527            0    -0.853266    5.6422241    5090.1498 
   10000     2.390857   -4.4664163            0  -0.88102742    5.4976962    5102.8455 
Loop time of 2.12753 on 48 procs for 10000 steps with 4000 atoms

Performance: 812207.720 tau/day, 4700.276 timesteps/s
99.6% CPU use with 48 MPI tasks x no OpenMP threads

MPI task timing breakdown:
Section |  min time  |  avg time  |  max time  |%varavg| %total
---------------------------------------------------------------
Pair    | 0.86534    | 0.92761    | 0.99232    |   3.1 | 43.60
Neigh   | 0.16809    | 0.17367    | 0.18475    |   1.0 |  8.16
Comm    | 0.65675    | 0.74114    | 0.79798    |   4.3 | 34.84
Output  | 0.00024107 | 0.00024618 | 0.00037902 |   0.0 |  0.01
Modify  | 0.23209    | 0.27048    | 0.31422    |   4.2 | 12.71
Other   |            | 0.01438    |            |       |  0.68

Nlocal:        83.3333 ave          90 max          76 min
Histogram: 3 3 4 3 3 15 1 13 2 1
Nghost:        1401.25 ave        1428 max        1384 min
Histogram: 3 8 8 7 7 9 0 5 0 1
Neighs:        7457.23 ave        7945 max        6680 min
Histogram: 4 2 2 3 5 6 5 4 8 9

Total # of neighbors = 357947
Ave neighs/atom = 89.486750
Neighbor list builds = 901
Dangerous builds = 171

# Equilibrate just above the melting temperature to avoid step fn in T

fix 1 all npt temp 1.25 1.25 0.1 iso 5.68 5.68 0.5 mtk yes tchain 5 pchain 5
run 2000
Per MPI rank memory allocation (min/avg/max) = 3.643 | 3.645 | 3.648 Mbytes
Step Temp E_pair E_mol TotEng Press Volume 
   10000     2.390857   -4.4664163            0  -0.88102742    5.4976962    5102.8455 
   11000    1.2510788   -5.9884824            0   -4.1123333     5.733846     4201.213 
   12000    1.2287219   -5.9968632            0   -4.1542412    5.7699548    4189.5316 
Loop time of 0.456013 on 48 procs for 2000 steps with 4000 atoms

Performance: 757873.184 tau/day, 4385.840 timesteps/s
99.6% CPU use with 48 MPI tasks x no OpenMP threads

MPI task timing breakdown:
Section |  min time  |  avg time  |  max time  |%varavg| %total
---------------------------------------------------------------
Pair    | 0.20024    | 0.21339    | 0.24141    |   2.0 | 46.80
Neigh   | 0.030553   | 0.032179   | 0.036171   |   0.6 |  7.06
Comm    | 0.13256    | 0.15707    | 0.18099    |   2.7 | 34.44
Output  | 7.4412e-05 | 7.5709e-05 | 8.8675e-05 |   0.0 |  0.02
Modify  | 0.039045   | 0.048981   | 0.061376   |   2.5 | 10.74
Other   |            | 0.004312   |            |       |  0.95

Nlocal:        83.3333 ave          90 max          77 min
Histogram: 3 2 3 10 8 8 6 3 1 4
Nghost:        1581.17 ave        1605 max        1567 min
Histogram: 4 6 5 17 4 6 3 1 1 1
Neighs:        9064.98 ave       10151 max        8020 min
Histogram: 1 3 4 9 9 9 6 2 3 2

Total # of neighbors = 435119
Ave neighs/atom = 108.77975
Neighbor list builds = 142
Dangerous builds = 10

#############################
# L I N E A R  Q U E N C H  #
#############################

# Define solid atoms. This closely follows ten Wolde  Ruiz-Montero and Frenkel  Faraday Discuss  1996  104  93-110
# Compute components of the per-atom q6 vector
compute q6 all orientorder/atom degrees 1 6 components 6 nnn NULL cutoff 1.3 # compute the Q6 parameter.
                                                                             # Use all neighbours within 1.3 unit cell.

# get number of connections
compute coord_number all coord/atom orientorder q6 0.5

# An atom is solid if it has 8 or more connections (of a possible 14)
variable is_solid atom c_coord_number>=8
group solid dynamic all var is_solid    # Must be dynamic to update
dynamic group solid defined

# do clustering
compute cluster solid cluster/atom 1.3 # Create a cluster where all atoms within are solid and max 1.3 units from another member

# define chunks one chunk per cluster
compute clus_chunks solid chunk/atom c_cluster nchunk every compress yes  # Says which atoms are in which chunk

# count the size of each chunk
compute size_chunks solid property/chunk clus_chunks count


# Find the maximum entry in the vector of chunk sizes
variable max_n equal max(c_size_chunks)


# Thermo style which includes this variable
# thermo_style custom step temp pe vol v_max_n

thermo ${N}  # Print the thermo information every 100 steps
thermo 1000  

# Reset the npt fix at a lower temperature (below freezing)
fix 1  all npt temp  ${temp} ${temp}  0.1  iso  5.68  5.68  0.5  mtk yes tchain  5  pchain  5
fix 1  all npt temp  0.45 ${temp}  0.1  iso  5.68  5.68  0.5  mtk yes tchain  5  pchain  5
fix 1  all npt temp  0.45 0.45  0.1  iso  5.68  5.68  0.5  mtk yes tchain  5  pchain  5

dump dmp2 all dcd ${N} traj.dcd
dump dmp2 all dcd 1000 traj.dcd


compute msd all msd com yes
variable twopoint equal c_msd[4]/6/(step*dt+1.0e-6)
fix 9 all vector 10 c_msd[4]
variable fit equal slope(f_9)/6/(10*dt)
thermo_style custom step temp pe c_msd[4] v_twopoint v_fit v_max_n

fix 1 all npt temp 1.25 ${temp} 0.1 iso 5.68 5.68 0.5 mtk yes tchain 5 pchain 5
fix 1 all npt temp 1.25 0.45 0.1 iso 5.68 5.68 0.5 mtk yes tchain 5 pchain 5
run 5000000 # 5000000  # Run for this many steps
Neighbor list info ...
  update every 1 steps, delay 10 steps, check yes
  max neighbors/atom: 2000, page size: 100000
  master list distance cutoff = 3.8
  ghost atom cutoff = 3.8
  binsize = 1.9, bins = 9 9 9
  4 neighbor lists, perpetual/occasional/extra = 1 3 0
  (1) pair lj/cut, perpetual
      attributes: half, newton on
      pair build: half/bin/atomonly/newton
      stencil: half/bin/3d
      bin: standard
  (2) compute orientorder/atom, occasional
      attributes: full, newton on
      pair build: full/bin/atomonly
      stencil: full/bin/3d
      bin: standard
  (3) compute coord/atom, occasional
      attributes: full, newton on
      pair build: full/bin/atomonly
      stencil: full/bin/3d
      bin: standard
  (4) compute cluster/atom, occasional
      attributes: full, newton on
      pair build: full/bin/atomonly
      stencil: full/bin/3d
      bin: standard
Per MPI rank memory allocation (min/avg/max) = 9.735 | 9.739 | 9.744 Mbytes
Step Temp PotEng c_msd[4] v_twopoint v_fit v_max_n 
   12000    1.2287219   -5.9968632 2.7683101e-30 1.9224375e-32 8.3333333e+20            2 
   13000    1.2147696   -5.9887954   0.56524339 0.0036233549  0.047501285            3 
   14000     1.234085   -5.9955333    1.0988122 0.0065405485  0.045156542            2 
   15000     1.242043   -5.9971362    1.6697504 0.0092763911    0.0457719            5 
   16000    1.2540378   -5.9530684    2.2649716  0.011796727  0.046896473            1 
   17000    1.2556496   -5.9746184     2.778995  0.013622524  0.046509992            7 
   18000    1.2486369   -5.9763319    3.3512948  0.015515253    0.0466514            2 
   19000    1.2044421   -5.9599048    3.8745708  0.016993731  0.046345216            2 
   20000    1.2422191   -6.0171164    4.4514569  0.018547737  0.046269533            6 
   21000    1.2667018   -5.9929666    4.9698719  0.019721713  0.046243355            2 
   22000    1.2672714    -6.011644    5.5518313  0.021029664  0.046113906            4 
   23000    1.2345095   -5.9541535    6.2013467  0.022468647  0.046375045            3 
   24000    1.2438439   -5.9974482    6.7607082  0.023474681  0.046658476            4 
   25000    1.2594553   -5.9572204    7.2316116  0.024105371  0.046809369            3 
   26000    1.2479675   -5.9397529    7.8550354  0.025176395  0.046746422            2 
   27000    1.2226575   -5.9735264    8.4062292  0.025945151  0.046678111            4 
   28000    1.2421915   -5.9956027    8.8925751  0.026465997  0.046604796            3 
   29000    1.2446459   -5.9876036    9.3671025  0.026916961   0.04644021            3 
   30000    1.2618383   -6.0089205     9.905575  0.027515486  0.046288632            3 
   31000    1.2297691   -5.9568387    10.485673  0.028187292  0.046139332            1 
   32000    1.2689331   -6.0001785    10.925585  0.028452044  0.046016558            2 
   33000    1.2303432   -5.9527526     11.54429  0.029152247  0.045882766            3 
   34000    1.2501862   -5.9812233    12.199192  0.029899979  0.045868714            2 
   35000     1.238457   -5.9410106    12.767813  0.030399555  0.045910839            1 
   36000    1.2629067   -5.9930203    13.493312  0.031234517  0.046013977            3 
   37000    1.2564756   -5.9767564    14.063732  0.031675071  0.046142599            2 
   38000    1.2523516   -6.0201868    14.535292  0.031875639   0.04627128            2 
   39000    1.2465569   -5.9631199    15.160047  0.032393263   0.04638348            2 
   40000    1.2465351   -5.9697764    15.718768  0.032747432  0.046466852            2 
   41000    1.2582447     -5.98358    16.108817  0.032741498  0.046485333            6 
   42000    1.2369898   -6.0041894    16.569922  0.032876829  0.046451655            5 
   43000    1.2463595   -5.9644645    17.382028  0.033686101  0.046448102            2 
   44000    1.2427323   -6.0106117    17.965973  0.034026464  0.046498222            2 
   45000    1.2378455   -5.9959377    18.497375  0.034254397   0.04655857            3 
   46000    1.2357144   -5.9637415    19.131552  0.034658609  0.046605758            3 
   47000    1.2464822   -5.9735469    19.616509  0.034781044  0.046636868            2 
   48000    1.2259602   -6.0038108    20.221096  0.035106069   0.04667092            4 
   49000    1.2335317    -6.005039    20.744007  0.035278922  0.046702592            2 
   50000    1.2857925   -5.9871843    21.387097  0.035645161  0.046761153            7 
   51000    1.2620947   -6.0201628    21.976307  0.035908997  0.046828446            2 
   52000    1.2486525   -5.9570299    22.395761  0.035890642  0.046871086            2 
   53000    1.2593612   -5.9847834    23.095606  0.036313845  0.046901372            4 
   54000    1.2039879   -5.9597448    23.709706  0.036589052  0.046938357            3 
   55000    1.2442101   -5.9506587     24.20922  0.036680637  0.046960936            7 
   56000    1.2479471   -5.9521512    24.762748  0.036849327  0.046974484            2 
   57000    1.2655762   -5.9441146    25.287608  0.036970187   0.04698332            5 
   58000    1.2596882   -6.0020897    25.652087  0.036856446  0.046970496            3 
   59000    1.2385258   -5.9973602    26.218673  0.037032023  0.046933935            1 
   60000    1.2482122   -6.0049086    26.821465  0.037252034  0.046901599            2 
   61000     1.257015   -5.9869066    27.395443  0.037425468  0.046875297            2 
   62000    1.2453918   -6.0532431     27.81199  0.037381707  0.046847182            3 
   63000    1.2544636   -5.9520413    28.169151  0.037260781  0.046791481            4 
   64000    1.2247628   -6.0400878    28.753591  0.037439572  0.046718322            2 
   65000    1.2264032   -5.9826176    29.093771  0.037299706  0.046635068            2 
   66000    1.2681851   -6.0007508     29.77542  0.037595227  0.046555608            3 
   67000    1.2429138    -5.976106    30.331195  0.037725367  0.046497379            3 
   68000    1.2782931   -5.9827865     31.03908  0.038038088  0.046451711            5 
   69000    1.2235403   -6.0411453    31.192157  0.037671687  0.046404633            2 
   70000    1.2578482   -5.9841444     31.83342  0.037896928   0.04632763            5 
   71000    1.2170704    -6.000588    32.341971  0.037960059  0.046251974            8 
   72000    1.2433816   -5.9617229    32.993664  0.038187111   0.04619253            4 
   73000    1.2323184   -5.9585547    33.741963  0.038518222  0.046140368            3 
   74000    1.2446369    -5.952299    34.275627  0.038598679  0.046113009            9 
   75000    1.2551129   -5.9777204    34.776494  0.038640549  0.046085329            1 
   76000    1.2605637   -5.9760216    35.357006  0.038768646  0.046059551            3 
   77000    1.2105998   -5.9927304    35.929884  0.038885156  0.046038355            4 
   78000    1.2702544   -6.0021394    36.441073   0.03893277  0.046024868            4 
   79000    1.2290456   -5.9825178    37.192201  0.039232279  0.046023841            5 
   80000    1.2194396   -5.9923884    37.571442  0.039136918  0.046013451            2 
   81000    1.2518165   -6.0058073    38.325776   0.03942981   0.04600911            4 
   82000    1.2527141   -5.9943546    38.854381   0.03948616  0.046008002            2 
   83000    1.2827607   -5.9899305    39.392221  0.039550422  0.046003754            4 
   84000    1.2480415   -5.9878767    40.040338  0.039722558  0.046016901            3 
   85000    1.2615512   -5.9910478     40.21361  0.039425108  0.046014889            2 
   86000    1.2543181   -5.9813297    40.612573  0.039353268   0.04599209            4 
   87000     1.251172   -6.0277594    41.074849  0.039343725  0.045959525            3 
   88000     1.232753   -5.9744914    41.687697  0.039476985  0.045924565            2 
   89000     1.220439   -5.9923833    42.400507  0.039700849  0.045904506            2 
   90000    1.2283444   -5.9781092    42.851811  0.039677603  0.045892944            3 
   91000    1.2522464   -6.0042874    43.538266  0.039870207  0.045875183            3 
   92000    1.2498087   -5.9569439    44.440611  0.040254176  0.045872279            4 
   93000     1.221212   -6.0032694    44.680697  0.040036467  0.045873676            2 
   94000    1.2311848   -6.0530652    45.258809  0.040123058  0.045872098            4 
   95000    1.2405531    -6.035789    45.785263  0.040162511  0.045871929            2 
   96000    1.2575764   -6.0008571    46.408726  0.040285352  0.045866132            3 
   97000    1.2500215   -5.9889087    46.900277  0.040292334   0.04585996            4 
   98000    1.2509899   -5.9721638    47.204412  0.040139806   0.04584336            3 
   99000    1.2351977   -6.0021281    47.546848  0.040022599  0.045818986            3 
  100000    1.2495231   -6.0157126    47.983846  0.039986538  0.045788668            3 
  101000    1.2125367   -6.0496524     48.32482  0.039871964  0.045753145            3 
  102000    1.2522255   -6.0014624    48.912465  0.039961164  0.045710802            4 
  103000    1.2406633   -6.0183209    49.268557  0.039861292  0.045664788            4 
  104000    1.2442862    -6.008606    50.128986  0.040167457  0.045623741            3 
  105000    1.2270679   -6.0095674    50.695621  0.040234619  0.045591536            2 
  106000    1.2182898    -6.005638     51.19268  0.040245817  0.045562391            2 
  107000    1.2399585   -6.0174043    51.767329  0.040317234  0.045537169            3 
  108000    1.2528391   -6.0288995    52.081932  0.040186676  0.045508194            4 
  109000    1.2433768   -5.9818673    52.702998  0.040292812  0.045473276            2 
  110000    1.2473267   -6.0104009    53.103256  0.040229739  0.045442392            4 
  111000    1.2031607   -6.0267544    53.347232  0.040050475  0.045407731            2 
  112000    1.2186799   -6.0280637    53.980225  0.040163857  0.045369991            2 
  113000    1.2189501   -6.0092266    54.704535  0.040342578  0.045338328            2 
  114000    1.2266493   -6.0217908    54.854472  0.040098298   0.04529998            1 
  115000    1.2172542   -5.9449244    55.817538  0.040447491  0.045262855            2 
  116000    1.2363026   -5.9948543    56.093891  0.040297335  0.045232115           10 
  117000    1.2516487    -6.072339    56.500036  0.040242191  0.045198121            3 
  118000    1.2488623   -5.9982372    57.043828  0.040285189  0.045163331            2 
  119000    1.2404582   -6.0403516    57.887424  0.040537412  0.045134118            4 
  120000    1.2445916   -6.0236466    58.178317  0.040401609  0.045101687            2 
  121000    1.2419667   -5.9979762    58.528908  0.040309165  0.045066423            2 
  122000    1.2455432   -5.9860146    59.083739  0.040357745   0.04502844            3 
  123000    1.2212502   -5.9528206    59.555594  0.040349318  0.044989832            4 
  124000    1.2161702   -6.0030399    59.950823  0.040289531  0.044952313            4 
  125000     1.247118   -5.9727377    60.421309  0.040280872  0.044916599            2 
  126000    1.2228018   -5.9956915    60.857203  0.040249473  0.044884247            3 
  127000    1.2291258   -6.0477888    61.460316  0.040328291   0.04484508            3 
  128000    1.2396482   -6.0428807    61.819755  0.040247236  0.044807911            2 
  129000    1.2208036   -5.9878783    62.571873  0.040421106  0.044772828            2 
  130000    1.2175416   -6.0512582    62.855341  0.040291885  0.044737159            4 
  131000    1.2522413   -5.9726765    63.408441  0.040336158  0.044698355            2 
  132000    1.2194917   -6.0538749     63.64046  0.040177058  0.044655285            3 
  133000    1.2397786   -5.9797437    64.493287  0.040409327   0.04461954            3 
  134000    1.2309259   -6.0486366     65.13303  0.040505616   0.04458929            2 
  135000    1.2325717   -6.0288994    65.732713  0.040575748  0.044558754            3 
  136000      1.24239   -6.0219208    66.496637  0.040745488  0.044537277            2 
  137000    1.2102465   -6.0313573    66.891778  0.040688429  0.044512128            3 
  138000    1.2339872     -6.00603    67.468161  0.040741643    0.0444966            3 
  139000    1.2059599   -6.0123716    68.274444  0.040931921  0.044482148            4 
  140000    1.1962302   -6.0699268    68.574704  0.040818276  0.044470978            2 
  141000    1.2511495   -5.9696407    69.218199  0.040909101  0.044462585            3 
  142000    1.2366693   -6.0672918     69.73372  0.040923544   0.04445313            4 
  143000    1.2382997   -6.0088256    70.630514  0.041159973  0.044450302            3 
  144000       1.2011   -6.0190588    71.361248  0.041297018   0.04445127            2 
  145000    1.2145258   -6.0196252    71.972709  0.041363626  0.044455892            5 
  146000    1.2226478   -6.0007777    72.576686  0.041425049  0.044463453            3 
  147000    1.2086989   -6.0878268    72.836103  0.041290308  0.044470994            4 
  148000    1.2346159   -6.0173108    73.220846  0.041227953  0.044474585            3 
  149000    1.2203334   -6.0140367    73.956959  0.041362953  0.044476453            2 
  150000    1.2264701   -6.0022563    74.313138  0.041285077  0.044476056            2 
  151000    1.2140268   -6.0100202    74.760851  0.041258748  0.044471006            4 
  152000    1.2015853   -6.0488896    75.159072  0.041205631  0.044466447            5 
  153000    1.2340969   -5.9953755    75.927987  0.041355113  0.044460953            3 
  154000    1.2125445   -6.0203093     76.54337  0.041419572  0.044462891            8 
  155000    1.2388334   -5.9900324    77.218129  0.041515123  0.044465725            2 
  156000    1.2192969   -5.9538133    77.701201  0.041507052  0.044467212            3 
  157000    1.2178266   -5.9760218    78.687994  0.041766451  0.044471795            4 
  158000    1.2485562   -6.0139157    78.824571   0.04157414  0.044477866            3 
  159000    1.2497603   -5.9936553    79.349649  0.041587866   0.04448134            2 
  160000    1.2166444   -5.9974113    79.934135  0.041632362  0.044483794            1 
  161000    1.2311296   -6.0309697    80.442567  0.041636939  0.044486404            3 
  162000    1.2214784   -6.0093762    80.821857  0.041575029  0.044486719            3 
  163000    1.2049224   -6.0136885    81.473102  0.041652915  0.044490581            3 
  164000    1.2354256   -6.0350082     81.66511  0.041496499  0.044490506            2 
  165000    1.2319412   -6.0287882    82.586433   0.04171032  0.044491434            5 
  166000    1.1923608   -6.0343767    83.129318  0.041731585  0.044493292            3 
  167000    1.2213739   -6.0444573    83.525472  0.041679377  0.044498076            2 
  168000    1.2514914   -5.9918851    84.700233  0.042014004  0.044503753            4 
  169000    1.2484451   -6.0420849     85.05697  0.041941306  0.044511125            9 
  170000    1.2285709   -5.9648484    85.964539   0.04213948  0.044524677            3 
  171000    1.2445208    -6.019341    86.036384  0.041928062  0.044535402            5 
  172000     1.228837   -6.0551234    86.679488  0.041995876  0.044544209            2 
  173000    1.2116738   -6.0486921    87.407784  0.042103942  0.044556624            4 
  174000    1.2364978   -6.0077329    88.246439   0.04226362   0.04457353            3 
  175000    1.2101679   -6.0574268    88.812012  0.042291434  0.044588824            3 
  176000    1.2442785   -6.0564369    89.335415  0.042298966  0.044604744            3 
  177000    1.2356055   -6.0301031    89.407686  0.042094014  0.044619583            6 
  178000    1.2132069   -6.0172473    90.506169  0.042371802  0.044633093            1 
  179000    1.2057115   -6.0009427    91.243985  0.042478578  0.044650048            5 
  180000    1.2130803   -6.0002055    91.774987   0.04248842  0.044665908            2 
  181000    1.2112591   -6.0211627    92.173257  0.042437043  0.044679579            3 
  182000    1.1951813   -6.0211464    92.516386  0.042360983  0.044691033            2 
  183000    1.2499272   -6.0229536     92.41538  0.042083506  0.044697795            2 
  184000    1.2315012   -6.0294877    93.351283  0.042278661  0.044703696            3 
  185000    1.2300642   -6.0216799    93.690142  0.042202766  0.044706176            4 
  186000    1.2276438   -5.9778159    94.416111  0.042301125   0.04471146            4 
  187000    1.2153467   -6.0083712    94.838129  0.042262981  0.044716559            3 
  188000    1.2399938   -6.0120735    95.500821  0.042331924  0.044722937            5 
  189000     1.202932   -6.0147646     95.62106  0.042160961  0.044726807            3 
  190000    1.2191826   -6.0153353    96.223297    0.0422032  0.044727965            2 
  191000     1.247606   -5.9851148    96.579717  0.042137747  0.044728367            2 
  192000    1.2416659   -6.0462675    96.872178  0.042045216  0.044727975            2 
  193000    1.2022636    -5.988148    97.332074  0.042025939  0.044722969            4 
  194000    1.2304179   -6.0490084    97.903315  0.042054689  0.044718864            3 
  195000    1.2139075    -6.030925    98.374194  0.042040254  0.044714503            1 
  196000    1.2005247   -6.0288327    99.169616  0.042163952  0.044711596            1 
  197000       1.2306   -6.0566723    99.881714  0.042251148  0.044708359            4 
  198000    1.2255524   -6.0210246    100.18283  0.042164491  0.044705727            6 
  199000     1.211092   -6.0226587    100.91726   0.04226016  0.044701811            3 
  200000    1.2369027   -5.9741948    101.28358   0.04220149  0.044698993            3 
  201000     1.226352   -6.0297427    101.83964  0.042222074  0.044698453            2 
  202000    1.2155237   -6.0015722    101.99372  0.042076616   0.04469579            2 
  203000    1.2237901   -6.0012954    102.86517  0.042227082  0.044691073            2 
  204000    1.2520725   -6.0367284    102.96345  0.042060232  0.044683563            1 
  205000    1.1999079   -6.0066972    103.70288  0.042155643  0.044675499            3 
  206000    1.2107878    -6.029423    103.73536  0.041964144  0.044664344            1 
  207000    1.2085771   -6.0339144    105.00396  0.042272126  0.044656073            2 
  208000    1.2449445   -6.0357098    104.95835  0.042050621  0.044647268            3 
  209000    1.2017149   -6.0406841    104.77333  0.041775651  0.044636408            5 
  210000     1.204064   -6.0105788    105.67218  0.041933405   0.04462288            3 
  211000    1.1997946   -6.0475873    106.24218  0.041959788  0.044610223            4 
  212000     1.220937   -6.0903591    106.42328  0.041833049  0.044596364            3 
  213000    1.2157819    -6.041526    107.24199  0.041956958  0.044583059            4 
  214000    1.2419004   -5.9963404    107.67947  0.041931259  0.044570895            5 
  215000    1.2294456   -6.0380941    108.47598  0.042044954  0.044558918            4 
  216000    1.1873194   -6.0378676    108.58486  0.041892306  0.044546349            2 
  217000     1.217675   -6.0202779    109.34985  0.041993028  0.044534181            6 
  218000    1.2096215   -6.0442847    109.69219  0.041931266  0.044521766            2 
  219000    1.2070109   -6.0134091    110.33083  0.041982812  0.044507417            3 
  220000    1.2322311   -6.0390448    110.48601  0.041850763  0.044491877            3 
  221000    1.2168513   -6.0209425    111.30925  0.041971814  0.044476839            3 
  222000    1.2169227   -6.0617413    111.15075  0.041723253  0.044460339            4 
  223000    1.2361631   -6.0642264      111.711  0.041745515   0.04444267            4 
  224000    1.2198456    -5.968062    112.82142  0.041972253  0.044425201            3 
  225000    1.2115327   -6.0375482    112.71787  0.041747359  0.044409628            4 
  226000    1.2122714   -6.0390925    113.65715   0.04190898  0.044395545            1 
  227000    1.2169843   -6.0207967    114.45268  0.042016403  0.044383688            5 
  228000     1.190209   -6.0057073    114.65425  0.041905793  0.044369132            2 
  229000    1.2182963   -6.0584988    115.25704  0.041942156  0.044355773            2 
  230000    1.2102446   -6.0288814    115.46617  0.041835569  0.044342854            3 
  231000    1.2186368   -6.0590592    115.93926   0.04182513  0.044326808            2 
  232000    1.2175841   -6.0352912    116.21072  0.041742356  0.044310512            2 
  233000     1.203951    -6.047115    116.67045  0.041727629  0.044294354            4 
  234000    1.2164373   -6.0598298    117.10219   0.04170306  0.044278215            2 
  235000     1.202479   -6.0063079    117.28876  0.041591759  0.044257668            4 
  236000    1.2111864   -6.0315269    117.94867   0.04164854  0.044237905            2 
  237000    1.2298849   -6.0396956    118.62638  0.041711103  0.044217888            6 
  238000    1.2349746   -6.0220701    118.70582  0.041563662  0.044198803            3 
  239000    1.1896533   -6.0112738    119.32524  0.041605731  0.044179883            4 
  240000    1.2296355    -6.044989    119.93048  0.041642528  0.044160547            2 
  241000    1.2262683   -6.0489417    120.32363  0.041605681  0.044139507            5 
  242000    1.2037558   -6.0838195    120.01578  0.041327747  0.044114788            4 
  243000    1.2231089   -6.0714888     120.1828  0.041214951   0.04408778            5 
  244000    1.2121179   -6.0220739    120.92396  0.041299168  0.044061572            4 
  245000    1.2097459   -6.0485848    121.46272   0.04131385   0.04403572            2 
  246000    1.2212497   -6.0138576    122.36379  0.041451149  0.044009909            3 
  247000    1.1984424   -6.0238328    122.38103  0.041289145  0.043986882            4 
  248000    1.2014796   -6.0639269    122.97842  0.041323394  0.043964458            3 
  249000    1.2159925   -6.0371744    122.98847  0.041160799  0.043937412            5 
  250000    1.2184568   -6.0127429    123.06788  0.041022625  0.043909476            6 
  251000    1.2200339   -6.0311238    123.80403  0.041103594  0.043881239            2 
  252000    1.2195568   -6.0504775    124.04554   0.04102035  0.043852668            4 
  253000    1.2120666   -6.0120655    124.60672  0.041043056   0.04382335            4 
  254000     1.201696   -6.0587543      124.835  0.040956365  0.043792602            3 
  255000    1.2146196   -6.0706731    125.44036  0.040993582  0.043761092            6 
  256000    1.2239413   -6.0769314    125.83284  0.040961212  0.043730036            8 
  257000     1.200319   -6.0029285    126.13614  0.040900176   0.04369824            3 
  258000    1.2087835    -6.055547    126.95632  0.041006563  0.043667512            5 
  259000    1.2441447   -6.0503533    127.85827   0.04113844  0.043638409            3 
  260000    1.2496977    -6.045026    127.86893   0.04098363  0.043611066            6 
  261000     1.203041   -6.0111604    128.97399  0.041179433   0.04358377            4 
  262000    1.2289168   -6.0625671    129.77295  0.041276383  0.043559395            5 
  263000    1.2006947   -6.0721011    129.41274  0.041005303  0.043535327            3 
  264000    1.2107207   -6.0300847    130.42628  0.041169912  0.043512552            3 
  265000    1.1921817   -6.0902802    130.62946  0.041078447  0.043488133            4 
  266000    1.2102686   -6.0057249    131.50596  0.041198609  0.043466396            3 
  267000    1.2336485    -6.001474    131.93501  0.041178217  0.043446199            3 
  268000    1.2313705   -6.0214189    132.66688   0.04125214  0.043425171            4 
  269000    1.2094287   -6.0373625    133.26203  0.041283158  0.043405495            3 
  270000    1.2270068   -6.0289697    133.44394  0.041186403  0.043385834            3 
  271000    1.2222158   -6.0512823     134.2006  0.041267097  0.043366619            3 
  272000    1.2132512   -6.0490365    134.18803   0.04111153  0.043346482            2 
  273000    1.2132423    -6.065744    135.06881  0.041229797  0.043326338            2 
  274000    1.2067279   -6.0862589    134.84288  0.041010609  0.043306344            6 
  275000    1.2274077   -6.0418094    136.03067  0.041221416  0.043285329            3 
  276000    1.2133812   -6.0646391    136.06675  0.041082956   0.04326544            3 
  277000    1.2015467   -6.0594136     136.4914  0.041062393  0.043245578            2 
  278000    1.2237595   -6.0389976    136.71308  0.040981138  0.043224849            2 
  279000    1.2356569   -6.0653095    137.36554  0.041029132  0.043204315            2 
  280000    1.2031187   -6.0780509    137.29212  0.040860749  0.043183512            5 
  281000    1.2147142   -6.0585768    137.84541  0.040879421  0.043160559            2 
  282000    1.2111186   -6.0652499    138.30005  0.040868809  0.043138038            3 
  283000    1.2036824    -6.072299    139.26881  0.041009662  0.043117023            3 
  284000    1.2037086   -6.0430674    140.61239  0.041259505  0.043098078            4 
  285000    1.2226654   -6.0671747    140.84462  0.041182636   0.04307958            9 
  286000    1.2055284    -6.053393    141.19505  0.041140748  0.043063225            4 
  287000    1.2188444   -6.0646235    141.46729  0.041076448  0.043045241            2 
  288000    1.2072921   -6.0231222    142.52651  0.041240309  0.043028511            6 
  289000    1.1924955   -6.0728247    142.87818  0.041199014  0.043012697            2 
  290000    1.2057368   -6.0524364    143.44503  0.041219835  0.042998245            7 
  291000    1.2031088   -6.0364212    143.73903   0.04116238  0.042983529            4 
  292000    1.1916911   -6.0493125    144.54954  0.041252721  0.042968389            2 
  293000    1.1737801    -6.065653    144.56049  0.041115042  0.042953325            5 
  294000    1.2123038    -6.013822    145.52907  0.041249736  0.042939563            3 
  295000     1.228396   -6.0622476    145.35385   0.04106041   0.04292461            1 
  296000    1.1902282   -6.0554154    146.11932  0.041137196   0.04290874            3 
  297000    1.1869637   -6.0514459    147.09536  0.041272547  0.042893822            3 
  298000    1.2233119   -6.0235612    147.06761  0.041126289  0.042879958            2 
  299000    1.2134161   -6.0347294     147.8155  0.041197185  0.042865622            3 
  300000    1.2108429   -6.0591393    147.64723   0.04101312   0.04285171            3 
  301000    1.2218217   -6.0103537    149.13618  0.041289086   0.04283828            4 
  302000    1.2304003   -6.0665281    148.95689  0.041102895  0.042825673            4 
  303000    1.1861233   -6.0391456    150.11061  0.041284547  0.042813005            3 
  304000    1.1892236   -6.0673459    150.33087   0.04120912   0.04279866            6 
  305000    1.2103834   -6.0645509    150.98163  0.041251812  0.042785183            2 
  306000    1.1794902   -6.0560132    151.07791  0.041143223  0.042771665            2 
  307000     1.200573   -6.0574514    151.79927  0.041205013   0.04275733            2 
  308000    1.1902523   -6.0082016    151.92883  0.041106286  0.042741963            4 
  309000    1.1981443   -6.0570407    152.06256  0.041009321  0.042727357            8 
  310000    1.1940135   -6.0510463    153.41511  0.041240621  0.042715924            2 
  311000    1.1960353   -6.0811147    152.75399  0.040930864  0.042702113            4 
  312000    1.1934167   -6.0548119    153.98722  0.041129064  0.042688313            5 
  313000    1.1828466    -6.062459    154.84826  0.041226906  0.042674671            4 
  314000    1.1995448   -6.0622749    154.45693  0.040991755  0.042661809            4 
  315000    1.2215936    -6.097484    154.96491  0.040996007  0.042647295            2 
  316000    1.2278441   -6.0439398    155.64823  0.041046475  0.042632874            4 
  317000    1.2187528   -6.0815834    156.37748  0.041108696  0.042620597            3 
  318000    1.2094765   -6.0649107    156.31385  0.040962749  0.042607348            2 
  319000    1.1905877   -6.0734102    157.16792  0.041057451  0.042593803            3 
  320000    1.1963098   -6.0553257    157.53683  0.041025215  0.042580643            8 
  321000    1.2044077   -6.0718992    158.37346  0.041114605  0.042569413            2 
  322000    1.2102028   -6.0766258    159.28015  0.041221571   0.04255763            2 
  323000    1.1998197   -6.0540896      159.526  0.041157379  0.042546861            3 
  324000    1.2262877   -6.0716844    160.10281  0.041178707  0.042535447            4 
  325000    1.1904034    -6.043317    160.26168  0.041092739  0.042524856            2 
  326000     1.191301   -6.0524951    160.54722  0.041039677   0.04251253            4 
  327000    1.2168242   -6.0459118    160.75554  0.040967264  0.042499722            3 
  328000    1.1795125    -6.043663    160.85085  0.040866578  0.042486439            4 
  329000    1.1969461    -6.061882    161.22223  0.040836431  0.042472228            4 
  330000    1.2038571   -6.0785375    161.26401  0.040723235  0.042456772            4 
  331000    1.2040339   -6.0554975    162.64808  0.040948662  0.042441163            3 
  332000    1.1862336   -6.0663913    162.93678  0.040897785  0.042425871            4 
  333000    1.1884515    -6.101248    162.28376  0.040611552  0.042408562            8 
  334000    1.1895761   -6.0542365    163.10102  0.040693866   0.04239116            4 
  335000    1.1875889   -6.0886152    163.44561  0.040658111  0.042374009            5 
  336000    1.2065239    -5.987312    165.00616  0.040924146  0.042357422            2 
  337000    1.1875726    -6.073647    165.06833  0.040818083  0.042342294            7 
  338000    1.1982704   -6.0462943    165.81816  0.040882189  0.042327633            3 
  339000    1.1970699   -6.0863659    165.85798  0.040771382  0.042313655            5 
  340000    1.1831578   -6.0883834    166.24169  0.040745512  0.042300239            2 
  341000    1.1892073   -6.0718779    167.49672  0.040932728  0.042287762            2 
  342000     1.197513   -6.1026473     167.7982    0.0408865  0.042275651            2 
  343000    1.1887266   -6.0665513    168.41021   0.04091599  0.042264091            3 
  344000    1.2056295   -6.0367462     169.2041  0.040989365  0.042252165            5 
  345000    1.2071619   -6.0671979    168.95781  0.040811065  0.042240994            5 
  346000     1.192511   -6.0922869    170.02693  0.040950609  0.042230055            5 
  347000    1.1740933   -6.0650871    170.65969  0.040984555  0.042220446            3 
  348000    1.1960284   -6.0776689    170.56806  0.040844842  0.042210315            2 
  349000    1.2143069   -6.0467099     171.7489  0.041009765   0.04219943            6 
  350000    1.2105452   -6.0471203    171.49929  0.040833164   0.04218865            4 
  351000    1.1931313   -6.0830296    171.95434  0.040824866  0.042177342            4 
  352000    1.1983363   -6.0526722    172.69304  0.040883769  0.042164711            3 
  353000    1.2033183    -6.059468    173.15715  0.040877513  0.042151261            6 
  354000    1.1970543   -6.0702327    173.86502  0.040928678  0.042138638            4 
  355000    1.2166565   -6.0918833    173.72073  0.040779513  0.042125759            6 
  356000    1.1952027   -6.0734147    174.38534  0.040820539  0.042114146            2 
  357000     1.224806   -6.0456646     175.2411  0.040905953  0.042103316            5 
  358000    1.1684291   -6.1008338    175.48749  0.040849044  0.042091503            3 
  359000    1.1884877   -6.0618202    175.84484  0.040818208  0.042080849            2 
  360000    1.1971777   -6.0907867    176.47996  0.040851842  0.042068935            5 
  361000    1.2171431   -6.1187628     176.7143  0.040792775  0.042057764            3 
  362000    1.2125845   -6.1155772    177.65818  0.040897372  0.042047805            4 
  363000    1.2076948   -6.1337699     177.8182  0.040821442  0.042038567            4 
  364000    1.1866206   -6.0490578    179.31413   0.04105177  0.042030122            3 
  365000    1.1952519   -6.0834173    179.36313  0.040950486  0.042022499            3 
  366000    1.2048094   -6.1012484    179.87425  0.040954975  0.042014463            2 
  367000    1.1827584   -6.0541859     180.5402  0.040994595  0.042007107            4 
  368000    1.2072271   -6.1001978    180.84768  0.040952827  0.041998394            3 
  369000    1.1889949   -6.0555144     181.5446  0.040999232  0.041989736            5 
  370000     1.203277    -6.037594     181.4583  0.040868985  0.041980812            2 
  371000    1.1752583   -6.0872604    182.32008  0.040952398  0.041971726            2 
  372000    1.1851851   -6.0972742    182.39724  0.040859597  0.041963177            3 
  373000     1.191485   -6.0753256    183.26993  0.040945025  0.041954442            2 
  374000     1.174239    -6.079277    184.48676  0.041106676  0.041946156            2 
  375000    1.2008299    -6.084899    184.11314  0.040914031  0.041937206            4 
  376000    1.1778933   -6.1023915    184.18369  0.040820853  0.041927086            2 
  377000    1.1845933   -6.0946351    185.29935  0.040959184  0.041917364            6 
  378000    1.1903113   -6.0670726    184.90519  0.040763931  0.041908595            2 
  379000    1.2009619   -6.0945854    186.24839  0.040951713  0.041899412            3 
  380000    1.1729027   -6.0510959    186.49099  0.040897146   0.04189156            5 
  381000    1.1584817   -6.0945987    186.53326  0.040799051   0.04188334            3 
  382000     1.180322   -6.1029981    187.09453  0.040814688  0.041873825            3 
  383000    1.1778106   -6.1239265    187.46889  0.040789577  0.041864309            1 
  384000    1.2131531   -6.0828287    188.30276  0.040864314  0.041855031            7 
  385000    1.2090587    -6.057522    189.29741  0.040973464  0.041847061            5 
  386000    1.1909009   -6.0719169    189.28234  0.040864063  0.041839202            6 
  387000    1.2124188   -6.0464133    189.34907   0.04077284  0.041829515            3 
  388000    1.1898104   -6.1102289    189.07702  0.040609326  0.041820547            1 
  389000    1.2033049   -6.0781272    190.85272   0.04088533  0.041811648            2 
  390000    1.1872556    -6.127396    190.84413  0.040778661  0.041803716            4 
  391000    1.1994564   -6.0614201     192.0627   0.04093408  0.041796396            5 
  392000    1.2104887   -6.0672856    191.84932  0.040784295   0.04178832            2 
  393000    1.1800553   -6.1022602    191.94302  0.040700385  0.041778832            5 
  394000    1.1767406   -6.0741837    192.42122  0.040698228  0.041769632            2 
  395000     1.179113   -6.1018996     192.4664  0.040604727  0.041760818            4 
  396000    1.2095923   -6.0838244    193.16203  0.040648576   0.04175167            3 
  397000    1.1894249   -6.0710632    194.15685  0.040755006  0.041743048            4 
  398000    1.1987133    -6.044641    194.63935  0.040753632  0.041734298            2 
  399000     1.187406     -6.12467    194.60245  0.040643788  0.041725169            1 
  400000    1.2079889   -6.0484134    195.45319  0.040719415  0.041715497            3 
  401000     1.202078   -6.0819636    196.64517  0.040865581  0.041706791            2 
  402000    1.1944042   -6.1171911    195.99874  0.040629921  0.041697255            4 
  403000    1.1905638   -6.0919067    196.23934  0.040578854  0.041688287            3 
  404000    1.1747195   -6.1229545    196.74423  0.040582555  0.041678924           10 
  405000    1.1820084    -6.111016    197.87392  0.040714798   0.04166995            2 
  406000    1.1796275   -6.0904404    198.62077  0.040767811  0.041662029            4 
  407000    1.1923269   -6.1188982    199.29595  0.040805887  0.041654643            4 
  408000    1.1981938   -6.0715048    200.24854  0.040900438  0.041646849            7 
  409000    1.1957843   -6.0762367    199.38294  0.040624071  0.041638483            3 
  410000    1.1653908   -6.0524818     200.4338  0.040738577   0.04162997            4 
  411000    1.2221386   -6.0765621    200.56786  0.040666638  0.041622159            2 
  412000    1.1744799   -6.0590747    201.59003  0.040774682  0.041614564            3 
  413000    1.1823218   -6.0889715     202.4564  0.040850767  0.041607034            3 
  414000    1.1896941   -6.1083267    202.71992  0.040805137  0.041600064            2 
  415000     1.193696   -6.0777354    203.46231  0.040855885  0.041593384            3 
  416000    1.1815381   -6.1086635     203.8776  0.040840865  0.041587014            4 
  417000    1.1959942    -6.072774    203.91807  0.040751012  0.041580946            1 
  418000    1.1897239   -6.1164326    205.33726  0.040936455   0.04157404            2 
  419000    1.1724536    -6.074709    205.26084  0.040823557  0.041567002            5 
  420000    1.2136042   -6.0588822     205.6202  0.040797658  0.041559523            2 
  421000    1.1788954    -6.084519    205.48398  0.040673789  0.041551868            5 
  422000    1.1966256   -6.1037096    206.09029  0.040697134  0.041543911            6 
  423000     1.164991   -6.0972367    206.28748  0.040639772  0.041535701            3 
  424000    1.1840923   -6.0997568    206.71129  0.040627218  0.041527656            4 
  425000    1.1816964    -6.072093    206.80205  0.040549421  0.041518811            2 
  426000    1.1720212   -6.0541193    207.53452  0.040597519  0.041509923            3 
  427000    1.2165946   -6.0877956    208.10173   0.04061314  0.041501061            3 
  428000    1.2175855   -6.1095696    208.68689  0.040632182  0.041492055            1 
  429000    1.1880861   -6.0534563    209.08561   0.04061492  0.041483895            3 
  430000    1.1975992   -6.0792312    209.62126  0.040624275  0.041476515            2 
  431000    1.2042665   -6.0968743    210.41915   0.04068429  0.041468749            2 
  432000    1.2108644   -6.1184017     210.8517  0.040673554  0.041461002            6 
  433000    1.1763826   -6.0734308    210.91536   0.04059187  0.041452382            3 
  434000    1.1632307   -6.1138688    210.49104  0.040416867  0.041444364            6 
  435000    1.1925756   -6.0906426    211.91195  0.040596159  0.041436505            3 
  436000    1.1817886   -6.0745578    212.48668  0.040612897  0.041428336            2 
  437000    1.1824917   -6.0601223    212.86858  0.040592788  0.041420971            2 
  438000    1.1767064   -6.1138846     212.9522   0.04051602  0.041413547            3 
  439000    1.1684739   -6.1171607    212.62019  0.040360703   0.04140429            5 
  440000    1.2218177   -6.1072643    213.59171  0.040452976  0.041395176            4 
  441000    1.1757344   -6.0938381    214.17709  0.040471861  0.041386176            5 
  442000    1.1727112   -6.1104814    214.41803  0.040425721  0.041376842            3 
  443000    1.1788296   -6.0991936     214.7788  0.040402332  0.041367644            2 
  444000    1.1741873   -6.1201891    215.09663   0.04037099  0.041357738            3 
  445000    1.1717112   -6.1241605    215.09165  0.040279336  0.041347942            6 
  446000    1.1798149   -6.1197547    217.00328  0.040546204  0.041338503            3 
  447000    1.1957989   -6.0675112    217.83897  0.040611291  0.041329619            3 
  448000     1.190984   -6.0912759    217.39368  0.040437812  0.041320701            6 
  449000     1.176091   -6.1391984    217.68242   0.04040134  0.041312376            2 
  450000     1.157544   -6.0840589    218.40314  0.040445026  0.041304472            3 
  451000    1.1775005   -6.0873144    218.84853  0.040437644  0.041296478            3 
  452000    1.1804999   -6.1125228    218.70426  0.040321581  0.041287832            5 
  453000     1.159896    -6.082767    219.96897  0.040465227  0.041278506            3 
  454000    1.1987889   -6.0649019    220.67436  0.040505572  0.041270225            4 
  455000    1.1941712   -6.0940574     221.0987  0.040494268  0.041261428            3 
  456000    1.1634098   -6.1178739    220.42399  0.040282161  0.041252762            3 
  457000    1.2223809   -6.1153959    222.23869  0.040524924  0.041245109            2 
  458000    1.1739006   -6.0835569    222.67336  0.040515532  0.041238299            2 
  459000    1.1868905    -6.119753    223.18138  0.040519496  0.041230864            2 
  460000     1.189718   -6.0983358    224.04618  0.040588075  0.041223844            3 
  461000    1.1887642   -6.1098263    224.36735   0.04055809  0.041216807            3 
  462000     1.195061   -6.0970891    223.96834   0.04039833  0.041209365            2 
  463000    1.1674774   -6.0937525    224.02957  0.040322097  0.041200725            3 
  464000    1.1974247   -6.0905838    225.17513  0.040440935  0.041192343            3 
  465000    1.1705775    -6.136986    225.58648  0.040427685  0.041184604            2 
  466000     1.205903   -6.0694381    225.77322  0.040374324  0.041176703            2 
  467000    1.1798993   -6.0995573    225.64067  0.040264217  0.041168703            4 
  468000     1.178449   -6.1092522    226.40148  0.040313653   0.04116046            7 
  469000    1.1979198    -6.117032    226.59364  0.040261841  0.041151865            2 
  470000    1.1590125   -6.1039161    227.04585  0.040256356  0.041143098            8 
  471000    1.1822497   -6.1131773    228.30948  0.040394459  0.041134809            5 
  472000    1.1642408   -6.0924302    229.12906  0.040453577  0.041127018            3 
  473000    1.1919141    -6.104758    228.55875  0.040267575  0.041119053            4 
  474000    1.2124165   -6.1052472    228.95374  0.040252064  0.041110849            2 
  475000     1.160357   -6.1072835    230.16578  0.040379961  0.041103415            4 
  476000    1.1777869   -6.1304318     229.3135  0.040145921  0.041095142            3 
  477000    1.1603376   -6.1425656    230.58469  0.040283838  0.041086841            2 
  478000    1.1856174   -6.1038744    231.55951   0.04036951  0.041078328            2 
  479000    1.1540735   -6.1298144     232.2547  0.040406177  0.041070839            3 
  480000    1.1889205   -6.1057441    232.71404  0.040401744  0.041062789            5 
  481000     1.160296   -6.1039719    232.41766    0.0402664  0.041055001            3 
  482000    1.1678521   -6.0831603    233.07364  0.040296273  0.041046966            3 
  483000    1.1660577   -6.1343528    232.80005  0.040165639  0.041038836            3 
  484000    1.1509907   -6.1164813    234.80593  0.040428018  0.041031061            4 
  485000     1.200366   -6.1463619    234.71342  0.040328767  0.041023814            4 
  486000    1.1574952   -6.1000989    234.78709  0.040258418  0.041016484            4 
  487000    1.1803279    -6.112487    235.99276   0.04038206  0.041009569            3 
  488000    1.1576088   -6.0920048    236.71783  0.040423127  0.041001958            6 
  489000    1.1930859   -6.1223188    235.94523  0.040208798  0.040994674            6 
  490000    1.1793275   -6.1173945    236.99685  0.040305586  0.040987168            6 
  491000    1.1323071   -6.1096046    237.54667  0.040316814  0.040979914            3 
  492000    1.1454677   -6.1187183    238.00627  0.040312714  0.040973829            2 
  493000    1.1370715   -6.1493248     237.9379  0.040219387   0.04096733            4 
  494000    1.1728255   -6.1007788    238.85462  0.040292615  0.040961139            2 
  495000    1.1641022   -6.1253021    239.17228  0.040264694  0.040954747            4 
  496000     1.190555   -6.0702334    240.56591  0.040417659  0.040948344            4 
  497000    1.1717871   -6.0835049    240.31987  0.040295082  0.040941331            3 
  498000    1.1967784   -6.1045577    241.16188  0.040355067  0.040934215            6 
  499000    1.1899859   -6.1183465    240.44733  0.040154865  0.040926837            3 
  500000    1.1683388   -6.1380987    241.05201  0.040175335   0.04091886            5 
  501000    1.1709835   -6.1284676    241.27485  0.040132211  0.040911368            2 
  502000    1.1726184   -6.1347582    242.62882  0.040277029  0.040903784            3 
  503000    1.1466272   -6.1360325     242.0772  0.040105567   0.04089642            3 
  504000    1.1917898   -6.1317121     243.9202  0.040330721  0.040889592            2 
  505000    1.2009051    -6.116043    243.84632  0.040238667  0.040883227            4 
  506000    1.1724867   -6.0966936    244.52758   0.04027134  0.040876558            2 
  507000    1.1445987   -6.1074786    244.83623  0.040242642  0.040869151            2 
  508000       1.1698   -6.1094557    245.41152  0.040257796  0.040861946            2 
  509000    1.1595614   -6.1346546    246.29623  0.040323547  0.040855127            6 
  510000    1.1823503   -6.1784202    244.75669  0.039992923  0.040848123            7 
  511000    1.1639455   -6.1116503    246.59769  0.040214888  0.040840942            2 
  512000    1.1581751   -6.1114368    247.72482  0.040319795  0.040833927            5 
  513000    1.1434147   -6.1308951    246.95486  0.040116124  0.040826559            2 
  514000    1.1808905   -6.1069172    249.00926  0.040371151  0.040819017            4 
  515000    1.1458459   -6.1085066    248.21973  0.040165005  0.040811133            5 
  516000    1.1576598   -6.1138436    248.31745  0.040102948   0.04080368            5 
  517000    1.1849334   -6.1321614    248.74674  0.040094575  0.040796179            5 
  518000    1.1706743   -6.0964285    250.43119  0.040288158  0.040788667            3 
  519000    1.1780526   -6.1485664    249.78732  0.040107148  0.040781253            6 
  520000    1.1768305   -6.1245631    250.51478  0.040146599  0.040773232            2 
  521000     1.169829    -6.126626    251.00624  0.040148151  0.040765605            6 
  522000     1.167781   -6.1373455    251.36545  0.040128584  0.040758986            3 
  523000    1.1765562   -6.1508742    251.77595  0.040117264  0.040752592            3 
  524000    1.1615729   -6.1071679    253.10849  0.040252622   0.04074679            4 
  525000    1.1680264   -6.1310001    254.04305  0.040324294   0.04074101            3 
  526000    1.1753944    -6.113557    254.06719  0.040251455  0.040735668            3 
  527000    1.1695658   -6.1669665    254.04976  0.040172321  0.040730648            3 
  528000    1.1633917   -6.0702324    253.82818  0.040061265  0.040725475            3 
  529000    1.1373824   -6.1118632    255.82482  0.040300066  0.040720564            2 
  530000    1.1742626   -6.1165321    256.16628  0.040277717  0.040715141            3 
  531000    1.1437998   -6.1085328    257.53341  0.040416417  0.040710119            5 
  532000    1.1640882   -6.1284403    257.81452   0.04038448  0.040706109            3 
  533000    1.1738406   -6.1532598    257.71098  0.040292523  0.040701922            3 
  534000    1.1629035   -6.1373459    258.26516  0.040303551  0.040697425            4 
  535000       1.1791     -6.13239    259.45261   0.04041318  0.040693143            5 
  536000    1.1676823   -6.0972624    259.38432  0.040327164  0.040688857            4 
  537000    1.1713247   -6.1021791      259.953  0.040340316  0.040684168            3 
  538000    1.1908328   -6.1123957    259.58181   0.04020784   0.04067946            7 
  539000    1.1762414   -6.1176092    260.15522  0.040221895  0.040674353            3 
  540000    1.1436813   -6.1193725    261.03078  0.040282528   0.04066956            3 
  541000     1.174043    -6.106983    261.35342  0.040257766  0.040664366            5 
  542000    1.1695789   -6.1094976    261.58299  0.040218788  0.040660326            6 
  543000    1.1648941   -6.1713408    261.23527  0.040091355  0.040655704            4 
  544000    1.1774226   -6.1208579    263.78894  0.040408845  0.040650681            2 
  545000    1.1427048    -6.150905    262.11732    0.0400791   0.04064559            1 
  546000    1.1592157   -6.1240434    263.22625  0.040174946  0.040639767            3 
  547000    1.1662899   -6.1077432    264.00091  0.040219517  0.040634638            3 
  548000    1.1896247   -6.1241751    264.30686  0.040192649  0.040629964            3 
  549000     1.131607   -6.1208498    264.55964  0.040157808  0.040624635            3 
  550000    1.1793858   -6.1543335    265.02293  0.040154989  0.040619785            2 
  551000    1.1497352   -6.1142793    265.42638  0.040143131   0.04061423            4 
  552000    1.1885501    -6.159944    265.89339   0.04014091  0.040609086            4 
  553000    1.1555061   -6.1197231    265.99601  0.040083787  0.040604315            1 
  554000    1.1410969   -6.0903312     266.6335  0.040107326  0.040599473            4 
  555000    1.1507587   -6.0852815    268.32512  0.040289057  0.040594714            1 
  556000    1.1777602   -6.1288146    267.05798  0.040026676  0.040589413            2 
  557000    1.1647151   -6.1233045    268.37557  0.040151941  0.040584248            3 
  558000     1.167718   -6.1098371    268.67168  0.040124206  0.040578941            2 
  559000    1.1774045   -6.1377842    269.32453  0.040149751  0.040573662            2 
  560000    1.1492726   -6.1143929    269.81009  0.040150311  0.040568384            3 
  561000    1.1767548   -6.1172852    270.38528  0.040164183  0.040563188            4 
  562000    1.1586718   -6.1569285    269.90635  0.040021701  0.040557736            3 
  563000    1.1661318   -6.0890824    271.35768  0.040165436  0.040552406            3 
  564000    1.1585835   -6.1207021    271.94208  0.040180567   0.04054722            3 
  565000    1.1589688   -6.0934858    272.53169  0.040196415  0.040542717            2 
  566000    1.1714034   -6.1416147    273.23351  0.040228727  0.040537552            2 
  567000    1.1619714   -6.1210554    273.44723  0.040189187  0.040532865            3 
  568000    1.1842434   -6.1011296    274.23718  0.040234328  0.040528299            2 
  569000    1.1331755   -6.1316683    274.07601  0.040140013  0.040523351            6 
  570000     1.167826   -6.1756949    273.57524   0.03999638  0.040517881            4 
  571000    1.1793364   -6.1489828    274.51493  0.040063475   0.04051227            3 
  572000    1.1677884    -6.137464    275.42633  0.040126213  0.040506422            3 
  573000    1.1629038   -6.1699946     274.8585  0.039973604  0.040500959            3 
  574000    1.1612657   -6.1092031    275.87255  0.040051184  0.040495684            2 
  575000    1.1891301   -6.1081588    276.99385  0.040144037  0.040490584            3 
  576000     1.175688   -6.1067269    276.84319  0.040052545  0.040485882            4 
  577000    1.1745277   -6.1205855    277.54176   0.04008402  0.040481213            2 
  578000     1.138218    -6.167013    277.32583  0.039983539  0.040476144            3 
  579000    1.1496824   -6.1192462    277.88202  0.039994534  0.040470678            2 
  580000    1.1643698   -6.1549105    278.13156  0.039961431  0.040465064            3 
  581000    1.1580811   -6.1437297    278.60077   0.03995995  0.040458912            6 
  582000    1.1683236   -6.1438789    280.03439  0.040096563  0.040452524            4 
  583000    1.1665659   -6.1291623    279.74479   0.03998639  0.040446838            3 
  584000     1.161692   -6.1651156    278.82711  0.039786974  0.040441096            3 
  585000    1.1505625   -6.1545699    280.09704  0.039899864  0.040435206            4 
  586000    1.1510181   -6.1423569    280.44131  0.039880732  0.040429285            4 
  587000    1.1557144   -6.1223715    281.38907  0.039947341  0.040423545            3 
  588000    1.1575457     -6.13795    281.65753   0.03991745  0.040417527           12 
  589000    1.1546218   -6.1115716    281.13411  0.039775623  0.040411793            4 
  590000    1.1687132   -6.1426126    281.96525    0.0398256  0.040405557            3 
  591000    1.1480953   -6.1329828    283.44683  0.039967121  0.040398878            3 
  592000    1.1564094   -6.1341147    284.06736   0.03998696  0.040392983            2 
  593000    1.1248367   -6.1526633    284.43051  0.039970561  0.040387332            3 
  594000    1.1641524   -6.1267897    283.92873  0.039832875  0.040381338            4 
  595000    1.1433304    -6.141282    285.01233  0.039917693  0.040374963            2 
  596000    1.1254596   -6.1386744    284.18824  0.039735493  0.040368498            3 
  597000    1.1608864   -6.1347706    285.35635  0.039831987  0.040362471            5 
  598000    1.1245173   -6.1124207    286.58371  0.039936414  0.040356692            3 
  599000    1.1580732   -6.1257583    287.35517  0.039977069  0.040351091            3 
  600000     1.181151   -6.1224815    288.15719  0.040021832  0.040344857            2 
  601000    1.1502227   -6.1366329    288.01038  0.039934884  0.040338928            3 
  602000    1.1696596   -6.1282769     287.6728  0.039821816  0.040332782            5 
  603000    1.1446683    -6.124505    288.95622  0.039933142  0.040326472            3 
  604000    1.1655608   -6.1099843    288.83588  0.039850424   0.04032024            5 
  605000    1.1686702   -6.1655516    288.94738  0.039799914  0.040314021            4 
  606000    1.1772127   -6.1179157    289.78493  0.039849413  0.040307964            4 
  607000    1.1672805   -6.1461994    290.57942  0.039892836   0.04030263            2 
  608000     1.191345   -6.1772393    290.13548  0.039766376  0.040296491            6 
  609000    1.1808423   -6.1620005    290.92406  0.039808984  0.040289954            3 
  610000    1.1579939   -6.1360344    291.12285  0.039770881  0.040284382            2 
  611000    1.1463446   -6.1777695    292.14329  0.039844966  0.040278278            2 
  612000    1.1522524   -6.1100374    291.56989  0.039701782  0.040272542            5 
  613000    1.1451982   -6.1451592    292.00343  0.039695953  0.040266217            8 
  614000    1.1446372   -6.1467932    292.98686  0.039764774   0.04025954            3 
  615000    1.1670122    -6.135857    293.83873  0.039815546  0.040253863            3 
  616000    1.1526766   -6.1306895     294.8788  0.039891612  0.040248115            3 
  617000    1.1290629   -6.1413314    294.47202  0.039772018  0.040242619            2 
  618000    1.1836336   -6.1817298    295.20793  0.039806894  0.040236616            2 
  619000    1.1850337   -6.1412866    296.70506  0.039944138  0.040231263            6 
  620000    1.1631533   -6.1502684    295.72707  0.039748261  0.040225525            6 
  621000    1.1303674   -6.1236445     295.8316  0.039698282   0.04022006            2 
  622000    1.1292731    -6.185099    296.71879  0.039753321  0.040214518            5 
  623000    1.1378965   -6.1501449    297.77551   0.03983086  0.040209149            2 
  624000    1.1499791    -6.167378    297.39894  0.039716739  0.040203599            3 
  625000    1.1257073   -6.1495424    298.47887  0.039797183  0.040198195            3 
  626000    1.1367976   -6.1344095    299.26499  0.039838257  0.040192784            4 
  627000    1.1701518   -6.1400934    298.73864  0.039704763  0.040186803            1 
  628000    1.1632826   -6.1656514    299.67048  0.039765191   0.04018092            3 
  629000    1.1188266   -6.1532412    300.48179  0.039809459  0.040174932            2 
  630000    1.1474129   -6.1785592    299.73627  0.039647655  0.040169021           10 
  631000     1.131318   -6.1469926    301.01485  0.039753677  0.040162758            4 
  632000    1.1262223   -6.1650913    299.99977  0.039556931  0.040156074            7 
  633000    1.1618852   -6.1510126    301.31912   0.03966813  0.040149456            2 
  634000    1.1792681    -6.154651    301.91231  0.039683532  0.040143053            3 
  635000    1.1489488   -6.1736499     301.8809  0.039616916  0.040136865            4 
  636000    1.1660574   -6.1773892    301.96438  0.039565563   0.04012975            4 
  637000    1.1588107   -6.1461168    303.09071  0.039650799  0.040122378            6 
  638000    1.1487535   -6.1130778    303.65349  0.039662159  0.040115952            4 
  639000    1.1774177   -6.1530581    304.15364  0.039665316  0.040109781           14 
  640000    1.1710681     -6.13974    305.30717  0.039753538  0.040104099            8 
  641000    1.1376147    -6.150632     304.7259  0.039615952  0.040098534            5 
  642000    1.1389566   -6.1758779    305.28694  0.039627069  0.040092535            3 
  643000     1.128068   -6.1509556    306.59471  0.039734929  0.040086879            2 
  644000    1.1286511   -6.1753529    306.25283  0.039628989  0.040081249            4 
  645000    1.1624116   -6.1277108    307.29184  0.039701788    0.0400761            3 
  646000    1.1324969   -6.1192955    307.78756  0.039704278  0.040070675            4 
  647000    1.1620408   -6.1681397    308.04385  0.039675921  0.040064977            3 
  648000    1.1480939   -6.1477481    308.06984  0.039618034  0.040059645            2 
  649000    1.1649375   -6.1243603    308.40955  0.039600609  0.040054143            6 
  650000    1.1308012   -6.1506468    309.07839  0.039625435  0.040048404            3 
  651000    1.1436382   -6.1543825    309.46641  0.039614236  0.040042556            3 
  652000    1.1648855   -6.1808109    310.33776  0.039664847  0.040037373            3 
  653000    1.1293688   -6.1451805    310.52336   0.03962779  0.040031897            3 
  654000    1.1515321   -6.1760861    311.20395  0.039653918  0.040026732            3 
  655000    1.1407483   -6.1925392     312.1353   0.03971187  0.040022031            1 
  656000    1.1597007   -6.1934183    312.23667  0.039664211  0.040017293            3 
  657000    1.1596458   -6.1178537    312.81564  0.039677276  0.040012729            6 
  658000    1.1484917   -6.1300491    313.01272  0.039641936  0.040007487            6 
  659000    1.1492955   -6.1460557    314.13469  0.039723658  0.040002759            3 
  660000    1.1578821   -6.1120551    314.93191   0.03976413  0.039998167            5 
  661000    1.1513741   -6.1330534    314.95099  0.039706378  0.039993107            2 
  662000    1.1502656   -6.1483092    314.68558  0.039612988  0.039988246            5 
  663000     1.148469   -6.1863781    315.56399  0.039663648  0.039983635            4 
  664000    1.1389153   -6.1779169     316.4874  0.039719804  0.039978849            3 
  665000    1.1441928   -6.1482282    316.41406  0.039650884   0.03997386            3 
  666000     1.130402   -6.1776468    316.98239  0.039662461  0.039969048            4 
  667000     1.130129   -6.1673286    318.09324  0.039741783  0.039964279            9 
  668000    1.1366954   -6.1481161    318.98857  0.039793983  0.039959844            2 
  669000    1.1179017   -6.1736283    318.59812  0.039685865  0.039955591            3 
  670000    1.1318481   -6.1414865    318.94955  0.039670343  0.039951056            7 
  671000    1.1510025   -6.1726102    319.77205  0.039713369  0.039946527           11 
  672000    1.1457858   -6.1511424    320.46191  0.039739821  0.039942672            6 
  673000     1.142021   -6.1755313    319.82878  0.039602375  0.039938578            5 
  674000    1.1464612   -6.1643382    321.29433  0.039724818   0.03993438            2 
  675000    1.1300651   -6.1448299    322.55686  0.039821835  0.039930327            6 
  676000    1.1299069   -6.1715007    323.09151  0.039828835  0.039926328            3 
  677000    1.1499692   -6.1574508    321.84335  0.039616365  0.039922463            4 
  678000    1.1423287   -6.1557011    323.70511  0.039786764  0.039918706            5 
  679000    1.1175003   -6.1814387    323.96354  0.039759884  0.039914656            6 
  680000    1.1502409     -6.19762    324.45987  0.039762239  0.039910634            2 
  681000    1.1384381   -6.1589418    324.25885  0.039679253  0.039906904            2 
  682000    1.1471639   -6.1790279    324.79438  0.039686508  0.039903235            4 
  683000    1.1564836   -6.1820525    324.99796   0.03965324  0.039899041            4 
  684000    1.1459333   -6.1408446    325.57227  0.039665237  0.039894638            4 
  685000    1.1717283    -6.138829    325.63704  0.039615211   0.03989008            4 
  686000    1.1607948   -6.1586446    325.88861  0.039588023   0.03988573            4 
  687000    1.1490726   -6.1402959    327.05856  0.039672314   0.03988118            3 
  688000     1.146736   -6.1696831    327.52338  0.039670952  0.039876355            3 
  689000    1.1324806   -6.1818793    326.49534  0.039489035  0.039871202            4 
  690000    1.1327499   -6.1923818    327.51721  0.039555218  0.039866161            2 
  691000    1.1413719   -6.1224653    328.65152  0.039634771  0.039861148            3 
  692000    1.1482946   -6.1434696    328.24056  0.039528005  0.039856492            3 
  693000    1.1486848   -6.1948629    328.68524  0.039524439  0.039851626            3 
  694000    1.1677029   -6.1909743     328.8462  0.039486815  0.039846414            5 
  695000    1.1551323   -6.1445208    330.44461  0.039621655  0.039841499            3 
  696000    1.1317483   -6.1510611    330.98926  0.039629941  0.039836495            3 
  697000    1.1467696   -6.1439749    331.45532  0.039628805  0.039831224            2 
  698000    1.1164146   -6.1603352    330.89295  0.039504889  0.039826419            3 
  699000    1.1565686    -6.158972    331.42978  0.039512372  0.039821309            3 
  700000    1.1144961   -6.1640864    331.32493  0.039443444  0.039816062            6 
  701000    1.1253975   -6.1839897     332.3923  0.039514064   0.03981087            2 
  702000    1.1535349    -6.154068    332.68494  0.039492514  0.039805936            4 
  703000    1.1260875   -6.1806477    333.09749   0.03948524  0.039800872            7 
  704000    1.1281211   -6.1449046    334.43689  0.039587701  0.039795843            3 
  705000    1.1179933   -6.1453308    334.37872  0.039524671  0.039790697            2 
  706000    1.1726574   -6.1719618    333.66452  0.039384386  0.039785583            4 
  707000    1.1448938   -6.1592625    335.21742  0.039511719  0.039780387            2 
  708000    1.1513529    -6.183165    335.26989  0.039462087  0.039775067            4 
  709000    1.1268142   -6.1990232    335.00504  0.039375299  0.039769584            3 
  710000    1.1213784   -6.1892879    335.65197  0.039395771  0.039763776            1 
  711000    1.1483365   -6.1499426    337.11365   0.03951168  0.039758848            2 
  712000    1.1005508   -6.1305192    336.39478  0.039372048  0.039754023            5 
  713000    1.1648909   -6.1755936    337.08395  0.039397376  0.039749113            6 
  714000     1.111116   -6.1497745    337.61987  0.039404746  0.039744324            1 
  715000    1.1470096   -6.1619791     338.4236   0.03944331  0.039739268           11 
  716000    1.1116877   -6.1705187    338.45835  0.039392266  0.039734326            6 
  717000    1.1281342   -6.1858637    338.08091  0.039293458  0.039728575            4 
  718000    1.1290363   -6.1545004    339.59004  0.039413885  0.039722717            3 
  719000    1.1674737   -6.1850215    338.87732  0.039276463  0.039717011            2 
  720000    1.1399254    -6.179051    339.60673  0.039306334  0.039710939            3 
  721000    1.1463366   -6.1904069    339.62017  0.039253372  0.039704786            3 
  722000    1.1503067   -6.1697552    340.56026  0.039307509  0.039699137            3 
  723000    1.1320162   -6.1963203    342.01861  0.039421232  0.039693994            2 
  724000    1.1507639   -6.1688138    342.03124  0.039368237  0.039689016            3 
  725000    1.1223347   -6.1596668    342.40593  0.039357003  0.039683493            3 
  726000    1.1302902   -6.1987316    342.23481  0.039283151  0.039677708            2 
  727000    1.1350365   -6.1930405    342.22178  0.039227623  0.039671737            4 
  728000    1.1250484   -6.1632545    344.27565  0.039408843  0.039666126            4 
  729000    1.1384274   -6.1396137    344.10609  0.039335401  0.039661161            2 
  730000    1.1142272   -6.2056097    343.25708  0.039184598  0.039655905            4 
  731000    1.1335989   -6.1938984    344.31236  0.039251295  0.039650532            2 
  732000    1.1217615   -6.1590351    346.04654  0.039395098  0.039645458            4 
  733000    1.1252045   -6.1435017    345.57664  0.039287931  0.039639967            8 
  734000    1.1097872   -6.1707274     345.7386  0.039252792  0.039634283            4 
  735000    1.1101801   -6.1592711    346.94445  0.039336106  0.039628873            2 
  736000    1.1345416   -6.1812409    348.00894  0.039403186  0.039623103           11 
  737000    1.1199085   -6.1625197    347.77799  0.039323608  0.039617038            3 
  738000    1.1265696   -6.1841087    346.73418  0.039152459  0.039611175            5 
  739000     1.141165   -6.1762752    347.90973   0.03923204  0.039605206            6 
  740000    1.1398233   -6.2312901    347.66044  0.039150951  0.039599431            9 
  741000     1.131758   -6.1979277    348.09119  0.039146557  0.039593359            7 
  742000     1.149599   -6.1864169    349.53326  0.039255757  0.039587493            5 
  743000    1.1493041   -6.1707443    349.84617  0.039238018  0.039581739            5 
  744000    1.1529873   -6.2026734    349.26079  0.039119712  0.039575844            4 
  745000    1.1527204   -6.1584517    350.42813  0.039197777   0.03956989            4 
  746000    1.1419148   -6.1583652    351.05871  0.039215674  0.039563725            6 
  747000    1.0857215   -6.1780985    350.52079  0.039103167  0.039557929            8 
  748000    1.1315753   -6.1576354    350.69103  0.039069856  0.039551953            3 
  749000    1.1326677   -6.1691422    351.71554   0.03913168  0.039546062            6 
  750000    1.1528848   -6.1892476    351.68074  0.039075637  0.039539679            3 
  751000    1.1256507   -6.1872721     351.8916  0.039047004  0.039533264            6 
  752000    1.1277145   -6.1772985     352.3438  0.039045191  0.039526634            5 
  753000    1.1250263   -6.2036024    352.35798  0.038994907  0.039519659            4 
  754000    1.1086877   -6.1758329    352.58611  0.038968403  0.039512311            8 
  755000    1.1236798   -6.1903741     353.3679  0.039003079  0.039505416            4 
  756000    1.0948885   -6.2081824    353.59029  0.038976002  0.039498491            3 
  757000    1.1399124   -6.1748167    354.72668  0.039049612  0.039491397            3 
  758000    1.1111035   -6.1554184    354.29098  0.038950195  0.039484465            5 
  759000    1.1237799   -6.1593108    355.68645  0.039052091  0.039477742            3 
  760000     1.111816   -6.1388677    355.76558  0.039009384   0.03947106            6 
  761000    1.1013342   -6.1937831    355.43725  0.038922169  0.039464133            4 
  762000    1.1361625   -6.1550612    356.22391   0.03895712  0.039456593            3 
  763000    1.1338195    -6.157758    355.91421  0.038872238  0.039448952            7 
  764000    1.1244995   -6.1604931    356.40483  0.038874872  0.039441353            7 
  765000    1.1139355   -6.1725923    357.00929  0.038889901   0.03943354            5 
  766000    1.1351658   -6.1953926    356.11501  0.038741841  0.039425438            4 
  767000    1.1294927   -6.2008836    357.83768  0.038878496  0.039417602            3 
  768000    1.1428727    -6.163962    358.02934   0.03884867  0.039410154            4 
  769000     1.135786   -6.1471267    358.23795  0.038820758  0.039402506            4 
  770000    1.1196127   -6.1698063    359.35768  0.038891524   0.03939501            3 
  771000    1.1255019   -6.1748813    360.15205   0.03892694  0.039387664            3 
  772000    1.1281579   -6.1896857    359.13667  0.038766912  0.039380109            7 
  773000    1.1423667    -6.155336    359.25271   0.03872927  0.039372552            4 
  774000    1.1086205   -6.1527352    362.08057  0.038983696  0.039365228            3 
  775000    1.1276207   -6.1965132    362.01683  0.038926541  0.039357997            3 
  776000    1.1192286    -6.160441    362.22806  0.038899061  0.039350807            5 
  777000    1.1390642   -6.2123382    360.65023  0.038679776  0.039343548            2 
  778000    1.1231899   -6.1589648    363.16075  0.038898967  0.039336424            5 
  779000    1.1201031   -6.1788547    363.26295  0.038859964  0.039329754            5 
  780000    1.1523671   -6.1762282    363.28123  0.038812097   0.03932294            4 
  781000    1.1288705   -6.1918154    363.29675  0.038764058  0.039316179            3 
  782000    1.1330841   -6.1713035      364.506   0.03884335  0.039309968            2 
  783000    1.1453432    -6.177977    363.91103   0.03873042  0.039303329            4 
  784000    1.1134527   -6.1868451    366.41893   0.03894759  0.039296708            4 
  785000    1.1237759   -6.1822751    367.01902   0.03896168   0.03929008            3 
  786000    1.1448392     -6.20331    365.80831  0.038783748  0.039283257            3 
  787000    1.1005067   -6.1866804    366.82738  0.038842374  0.039276138            2 
  788000     1.130646   -6.1589615    367.43862  0.038857722  0.039269415            5 
  789000    1.1040495   -6.1598171    368.24897  0.038894061  0.039262688            3 
  790000    1.1292597   -6.2048647    367.30198  0.038744935  0.039256068            4 
  791000    1.1345299   -6.2091069    368.01309  0.038770869   0.03924957            7 
  792000    1.1155941   -6.2130016    368.43969  0.038766803  0.039242668            4 
  793000    1.1343542   -6.2045572    369.31915  0.038810335  0.039235788            5 
  794000    1.1433485   -6.2078764    369.02867  0.038730969    0.0392286            3 
  795000    1.1343325   -6.2100628     368.5997  0.038637285  0.039221001            7 
  796000    1.1150486   -6.2002886    368.16627   0.03854337  0.039213207            2 
  797000    1.1308313   -6.1889557    370.14107  0.038701492  0.039205018            5 
  798000     1.115016   -6.1943581    369.68902  0.038605788  0.039197273            3 
  799000    1.1074659   -6.2136066    369.84783  0.038574033  0.039189223            4 
  800000    1.1243765   -6.1986368    369.88208  0.038529384  0.039181719            7 
  801000    1.1309325    -6.209282    371.42329  0.038641624  0.039173796            3 
  802000    1.1356006     -6.21672    370.47002  0.038494392   0.03916627            2 
  803000    1.1361921   -6.1950937    372.56907  0.038664287  0.039158404            4 
  804000    1.1323855   -6.2087943    372.58741  0.038618098  0.039150814            3 
  805000    1.1300026   -6.2110055    373.81564  0.038697271  0.039143395            3 
  806000    1.1420032   -6.1836179    373.11517  0.038576837  0.039135652            4 
  807000    1.1369574   -6.2010341    371.70301  0.038383211  0.039127884            6 
  808000    1.1376194   -6.1750873    372.51656  0.038419612  0.039119712            3 
  809000    1.1261371   -6.1968636    372.71818   0.03839289  0.039111265            5 
  810000    1.1237425   -6.2195604    373.99662  0.038477019  0.039102761            8 
  811000    1.0989793   -6.1889176    374.36325  0.038467247   0.03909413            3 
  812000    1.1176901   -6.1899246    373.92842  0.038375249  0.039085482            3 
  813000    1.1019906   -6.2111514    374.27074  0.038363134  0.039076558            6 
  814000    1.1163766   -6.1728549    374.84358   0.03837465  0.039068219            2 
  815000    1.1217692   -6.2240603     374.5398  0.038296503  0.039059604            4 
  816000    1.1141873   -6.1971593    375.00304  0.038296879  0.039051183            2 
  817000    1.1204284   -6.2493269    376.61083  0.038413997  0.039042461            3 
  818000     1.152982   -6.2331415    376.27606  0.038332932  0.039033888            4 
  819000    1.1453858   -6.2072549    377.91716   0.03845311  0.039025506            7 
  820000    1.1115462   -6.2047239    378.49337  0.038464774  0.039017223            3 
  821000    1.1286504   -6.2059118    378.90163  0.038459361   0.03900874            3 
  822000    1.1114389   -6.2051293    378.31202    0.0383528  0.039000498            4 
  823000    1.1117201   -6.1924309    379.86765  0.038463715  0.038992016            4 
  824000    1.1212875   -6.1812448    378.79649  0.038308707  0.038983468            6 
  825000     1.115965   -6.2127086    379.49573  0.038332902  0.038975194            6 
  826000    1.1268381   -6.1727586    379.25137  0.038261842  0.038966671            4 
  827000    1.1075209   -6.2156001    378.88412  0.038178569  0.038957702            2 
  828000    1.1119086   -6.1974803    378.91234    0.0381353  0.038948307            9 
  829000    1.1143819   -6.1591112    380.27316  0.038226091  0.038939378            5 
  830000    1.1138207   -6.1648266    381.51721  0.038304941  0.038930678            3 
  831000    1.0956228   -6.1832359    382.33289  0.038340643  0.038921946            7 
  832000    1.1022611   -6.2158237    382.03827  0.038265051  0.038913548            5 
  833000    1.1025062   -6.2118246    381.60191  0.038175461  0.038904883            3 
  834000    1.1262921   -6.2088747    383.51503  0.038320846  0.038896241            4 
  835000    1.1159567   -6.2193876    381.89453  0.038113226  0.038887856            3 
  836000    1.1325439   -6.1940498    384.73686  0.038350963  0.038879321            6 
  837000    1.1339363   -6.1885381    383.70293  0.038202203  0.038870952            3 
  838000    1.1027245   -6.2090848    383.52119  0.038138543  0.038862365            2 
  839000    1.1278703   -6.1897208    384.70201   0.03821037  0.038853542            7 
  840000    1.1339445   -6.1868077    385.60981  0.038254942   0.03884481            4 
  841000    1.1405433   -6.1995489    383.96139  0.038046115  0.038835814            4 
  842000    1.1154943   -6.2327272    384.58283  0.038062434  0.038826814            3 
  843000    1.1171609   -6.2080098    386.58824  0.038215524  0.038817939            8 
  844000    1.1217035   -6.2045054    386.35175  0.038146894  0.038809215            4 
  845000    1.1132754   -6.2034275     385.9093  0.038058116  0.038800312            5 
  846000     1.107426   -6.1634493    387.12871  0.038133246   0.03879118            2 
  847000    1.1044655   -6.2134445    386.79811  0.038055698  0.038782265            1 
  848000    1.1298941   -6.1837543     387.7726  0.038106584  0.038773242            4 
  849000    1.1148055   -6.2034935    388.49671  0.038132775  0.038764289            4 
  850000    1.1424934   -6.2209261    387.74122  0.038013845  0.038755262            5 
  851000    1.1113237   -6.1965029    388.29845  0.038023741  0.038745868            4 
  852000    1.1243683   -6.1717251    389.05893  0.038053495  0.038736394            5 
  853000    1.1124354   -6.2561821    387.98195  0.037903668    0.0387271            5 
  854000     1.113778   -6.2223595      388.991  0.037957748  0.038717612            4 
  855000    1.0976389   -6.2099924    389.29722  0.037943199  0.038708198            2 
  856000    1.1308688   -6.1979193    390.20041    0.0379868  0.038698637            3 
  857000    1.0949177   -6.2121635    389.94484  0.037917623  0.038689328            6 
  858000    1.1200597   -6.2189294    390.96278  0.037972298  0.038679622            3 
  859000    1.1087741   -6.2289973    390.23611  0.037857597  0.038669831            4 
  860000    1.0841108   -6.2197866    391.40388  0.037926733    0.0386602            3 
  861000    1.1113237   -6.2110841    391.35399  0.037877854  0.038650774            2 
  862000     1.086281   -6.1688517    391.66483  0.037863963  0.038641594            3 
  863000    1.0983679   -6.2011248    392.45464  0.037896353  0.038632143            2 
  864000     1.082871   -6.2106366    393.67433  0.037970132  0.038622787            2 
  865000    1.0986115   -6.2183686    393.12535  0.037873348  0.038613517            5 
  866000    1.1100323   -6.1982049    394.28612  0.037941312  0.038604408            2 
  867000    1.1250686   -6.1936353    394.02699  0.037872644  0.038595601            3 
  868000    1.1008492   -6.1937569    394.44993  0.037869617  0.038586699            4 
  869000    1.1027178   -6.2245737    395.35034  0.037912384  0.038577677            5 
  870000    1.0958789    -6.206636    394.61864  0.037798721  0.038568345            3 
  871000     1.117729   -6.2260899    395.53024  0.037842541  0.038559168            5 
  872000    1.1128872   -6.2258295     396.0814  0.037851815   0.03855008            8 
  873000    1.1240562   -6.2401082    396.97148  0.037893421  0.038540927            4 
  874000    1.1290149   -6.2150026    397.73846  0.037923194  0.038531939            2 
  875000    1.1271257   -6.1779326    398.14216  0.037918301  0.038522858            6 
  876000    1.1093052   -6.2088348    397.05651  0.037771738  0.038513995            4 
  877000    1.1161125   -6.2374668    397.54283  0.037774879  0.038504888            4 
  878000      1.11816   -6.2215789    397.96269  0.037771706  0.038495676            4 
  879000    1.1479182   -6.2311438    398.03476  0.037735567  0.038486302            8 
  880000    1.1279145   -6.2590119    398.43132  0.037730239  0.038477057            5 
  881000    1.1266057   -6.2130971    399.54436  0.037792694  0.038467557            3 
  882000    1.1069092   -6.2067141    400.27276  0.037818666  0.038458155            2 
  883000     1.109538    -6.213956    399.70189   0.03772196  0.038448729            6 
  884000    1.0870448   -6.2379897    400.93585  0.037795612  0.038439143            2 
  885000    1.1296477   -6.2372748     400.1266  0.037676704  0.038429588            7 
  886000    1.1065082   -6.2090179    401.70353  0.037782499  0.038420412            3 
  887000    1.1224736   -6.2341786    400.05238  0.037584778  0.038410798            5 
  888000     1.104132   -6.2260804    400.36505  0.037571795  0.038400842            3 
  889000    1.1048778   -6.1680223    401.28475  0.037615743  0.038390968           10 
  890000    1.0972038   -6.2238105    401.88116  0.037629322  0.038380986            2 
  891000    1.1111624   -6.1971733    401.97831  0.037596176  0.038370776            5 
  892000    1.1168583   -6.2301605     403.2179  0.037669834  0.038360695            4 
  893000    1.1101304   -6.2435893    402.18857  0.037531595  0.038350824            2 
  894000    1.1135596    -6.187091    403.56368  0.037617793  0.038341025            4 
  895000    1.1170281   -6.2229916     403.9203  0.037608967  0.038331362            5 
  896000    1.1245009   -6.2305213    403.54599  0.037532179  0.038321439            7 
  897000    1.0892309   -6.2212266    403.80919  0.037514789  0.038311278            3 
  898000    1.1131563   -6.1961378    404.09336  0.037499384  0.038301256            6 
  899000    1.1211974   -6.2375324    403.71841  0.037422915  0.038291116            6 
  900000    1.0996733   -6.2477826    405.05848  0.037505414  0.038280887            4 
  901000    1.0966793   -6.2334529    404.90998  0.037450054  0.038270608            3 
  902000    1.1071599   -6.2127939    405.11224  0.037427221  0.038260307            4 
  903000    1.0973972   -6.2488878    405.76013  0.037445564  0.038250217            4 
  904000    1.1122367   -6.2187265    405.36757  0.037367955  0.038240127            6 
  905000    1.0999777   -6.2115848    407.35356  0.037509535  0.038230153            5 
  906000    1.1097274   -6.2083564    408.29418  0.037554653  0.038220187            4 
  907000    1.0938776   -6.2120892    408.90842  0.037569682   0.03821054            4 
  908000     1.114923   -6.2248861    408.85394  0.037523306  0.038200863            4 
  909000    1.0849355    -6.208734    407.51269  0.037359066  0.038191212            3 
  910000    1.0977156   -6.2450171    408.45943  0.037404709  0.038181161            6 
  911000    1.1458221   -6.2001043    410.41476  0.037542513  0.038171314            5 
  912000    1.1212689   -6.2165443    409.68125  0.037434325  0.038161794            3 
  913000    1.0969827   -6.2075047    410.81306  0.037496628  0.038152056            3 
  914000    1.1195371   -6.2256507    409.82988  0.037365963  0.038142204            8 
  915000     1.107043   -6.2491568    410.19659  0.037358524  0.038132414            5 
  916000    1.0963768   -6.1793752     411.7982  0.037463446  0.038122603            4 
  917000    1.0847192   -6.2219967      411.371   0.03738377  0.038113177            5 
  918000    1.1192169   -6.1989498    411.58784   0.03736273  0.038103799            5 
  919000     1.102883   -6.2412401    411.94281  0.037354263  0.038094263            7 
  920000    1.1119259   -6.2292792    412.60934  0.037374035   0.03808469            5 
  921000    1.1137015   -6.2307701    413.71934  0.037433889  0.038075085            3 
  922000    1.0895909   -6.2525645    413.98903  0.037417664  0.038065701            2 
  923000    1.0792156   -6.2033713    414.21749  0.037397751  0.038056432            6 
  924000    1.1270116   -6.2442109    414.89287  0.037418188  0.038047022            4 
  925000    1.1205353   -6.2668922    412.90195  0.037198374  0.038037212            6 
  926000    1.1016444   -6.2384501    415.30062  0.037374066   0.03802776            3 
  927000    1.0989325   -6.2111249     414.0476  0.037221107  0.038018254            8 
  928000    1.0670784   -6.2245875    414.23043  0.037197417  0.038008487            6 
  929000    1.0996218   -6.2179565    416.39225  0.037351296  0.037998601            5 
  930000    1.0853254   -6.2266916    416.41985  0.037313607  0.037988776            2 
  931000    1.1020027   -6.2679172    414.65952  0.037115962  0.037978911            5 
  932000    1.0850665    -6.251628    416.46155  0.037237263  0.037969129            8 
  933000    1.1408665   -6.2221246    417.18887  0.037262314  0.037959057            4 
  934000    1.1000376   -6.1647672    417.34682  0.037236511  0.037949208            4 
  935000    1.1025179    -6.246448    416.74517  0.037143064  0.037939007            2 
  936000    1.1217472   -6.2380137    418.09022  0.037223132  0.037928577            5 
  937000    1.0926631    -6.208565    417.51045  0.037131844  0.037918607            3 
  938000    1.0956744   -6.2148101    417.65877  0.037105434  0.037908443            4 
  939000    1.0632532   -6.2381691    416.66012  0.036977291  0.037897804            6 
  940000    1.1201901   -6.2328994    418.75013  0.037123238  0.037887568            5 
  941000    1.1059347   -6.2535289    418.54766  0.037065857  0.037877289            3 
  942000    1.1304239   -6.2298425    418.82899  0.037051397  0.037866918            4 
  943000    1.1082302   -6.2278595    420.23171  0.037136065  0.037856816            4 
  944000    1.1354019   -6.2493912    419.01486  0.036989306  0.037846615            5 
  945000    1.0729125   -6.2872408    419.50828  0.036993675  0.037836293            6 
  946000    1.1049638     -6.25876    421.19089  0.037102791  0.037825909            2 
  947000    1.0732615   -6.2305433    421.32804  0.037075681  0.037815801           10 
  948000    1.1094493   -6.1859061    422.95589  0.037179667  0.037805552            7 
  949000    1.0802732   -6.2612539    421.43149  0.037006629  0.037795591            2 
  950000    1.0908441   -6.2450459    421.83096  0.037002716  0.037785398            4 
  951000    1.1179755   -6.2564341    421.77107  0.036958559  0.037775114            6 
  952000    1.0948492   -6.2537882    423.21719  0.037046322  0.037764904            3 
  953000    1.1122234   -6.2557444    423.02915  0.036991007  0.037754722            2 
  954000    1.1345028   -6.2483722    423.67414  0.037008573  0.037744529            5 
  955000    1.0816294   -6.2248434     425.6015  0.037138002  0.037734701            3 
  956000    1.0974971   -6.2283687    424.17534  0.036974838  0.037725033            8 
  957000    1.0789144   -6.2766542     425.9222  0.037088314  0.037715181            3 
  958000    1.1051152   -6.2540985    425.13989  0.036981549  0.037705332            4 
  959000    1.1027956   -6.2358723    425.54081  0.036977825  0.037695479            4 
  960000    1.0999563   -6.2125743     426.7222  0.037041857  0.037685856            3 
  961000    1.0845064   -6.2499299     427.0326  0.037030229  0.037676285            7 
  962000    1.0953944    -6.270239    427.38505  0.037022267  0.037666213            6 
  963000    1.0865982   -6.2457219    427.23766  0.036971068  0.037656322            6 
  964000    1.0918528   -6.2505497    426.40341  0.036860599  0.037646203           12 
  965000    1.0845518   -6.2445595    427.67865  0.036932526  0.037636412            6 
  966000    1.1075434   -6.2330399    428.20714  0.036939885  0.037626671            4 
  967000    1.1184872    -6.239676    428.00263   0.03688406  0.037616725            9 
  968000    1.0849664   -6.2426252    428.87908  0.036921409  0.037606835            2 
  969000    1.1155123   -6.2424395    429.42357  0.036930132  0.037596701            3 
  970000    1.0953196   -6.2551523    428.09492  0.036777914  0.037586515            4 
  971000    1.1094997   -6.2785189    429.93165   0.03689767  0.037576507            4 
  972000    1.1170144   -6.2560988    430.81756  0.036935661  0.037566601            2 
  973000    1.1190743   -6.2352992    430.21167   0.03684581  0.037556852            9 
  974000    1.1068958   -6.2579334     432.4006   0.03699526  0.037547116            3 
  975000    1.0857069   -6.2932821    431.15192  0.036850591  0.037537356            4 
  976000    1.1000875   -6.2478078    431.82318  0.036870149  0.037527311           10 
  977000    1.1008707   -6.2718357    430.94778  0.036757743   0.03751746            4 
  978000    1.0955994   -6.2709891    430.83144  0.036710245  0.037507428            8 
  979000    1.1097089   -6.2343844    432.01975  0.036773897   0.03749737            2 
  980000    1.0968049   -6.2885506    433.52909  0.036864718  0.037487501            4 
  981000    1.1044477   -6.2554377    432.25654   0.03671904  0.037477542            6 
  982000    1.1016908   -6.2463716     433.5746  0.036793499  0.037467953            5 
  983000    1.0954682   -6.2634726    434.12766  0.036802955  0.037458314           10 
  984000    1.0846947   -6.2243649    435.42369  0.036875312   0.03744878            4 
  985000    1.1012118   -6.2568372    435.72535  0.036863396   0.03743931            5 
  986000    1.0869551   -6.2788594    434.47859  0.036720638  0.037429759            4 
  987000    1.0919988   -6.2468847    435.86535  0.036800519  0.037420039            3 
  988000    1.0826808   -6.2330707    435.70843  0.036750036  0.037410357            3 
  989000    1.0776451   -6.2263668    434.56887  0.036616858  0.037400695            4 
  990000    1.0764632   -6.2308088     436.3467   0.03672952  0.037390839           14 
  991000    1.0841717    -6.277713    436.03278   0.03666606  0.037380897            3 
  992000    1.0997736   -6.2218338    436.56631  0.036673917   0.03737111            5 
  993000    1.1046501   -6.2417124    436.79692  0.036656338  0.037361355            4 
  994000    1.1028979   -6.2704828    437.35461  0.036666215  0.037351382            3 
  995000    1.0620758   -6.2453619      438.769  0.036747823  0.037341448            4 
  996000    1.0951446   -6.2495686     436.5304  0.036523628  0.037331502            3 
  997000    1.0822901   -6.2223531    438.22491  0.036628628  0.037321497            3 
  998000     1.094972   -6.2811319    439.05309   0.03666108  0.037311564           13 
  999000     1.106758   -6.2959397    436.73679  0.036431164  0.037301634           10 
 1000000    1.0751751   -6.2865358    439.21198  0.036600998  0.037291543            4 
 1001000     1.084426   -6.2400949    440.94234  0.036708486  0.037281507            3 
 1002000    1.0893574   -6.2368846    440.28801  0.036617433  0.037271772            4 
 1003000    1.0926331   -6.2804533    441.39548  0.036672938  0.037262212            2 
 1004000    1.0744298   -6.2954882    440.07623  0.036526911  0.037252531            4 
 1005000    1.0688281   -6.2536053    440.85586  0.036555213  0.037242562            4 
 1006000    1.0788401   -6.2827306    441.15693  0.036543814  0.037232713            6 
 1007000    1.0888774    -6.241368    442.52263  0.036620542    0.0372232            7 
 1008000    1.0877955   -6.2529776    442.79368   0.03660662   0.03721376            5 
 1009000    1.0905409   -6.2676738     442.1274  0.036515312  0.037203997            5 
 1010000    1.0757643   -6.2518341    444.10126  0.036642018  0.037194352            4 
 1011000    1.0903851   -6.2413797    443.13425  0.036526068  0.037184658            4 
 1012000    1.0905029   -6.2948441    443.96717  0.036558561  0.037175285            4 
 1013000    1.1122715   -6.2294806    443.57326  0.036490068   0.03716568            4 
 1014000    1.0901838   -6.2505472    444.77256  0.036552643  0.037155829            4 
 1015000    1.0752442   -6.2346745    443.62493  0.036422408   0.03714609            5 
 1016000    1.0874725   -6.2518715    444.88637  0.036490024  0.037136123            4 
 1017000    1.1175666   -6.2824997    444.55821  0.036427254  0.037126211            3 
 1018000    1.0861825    -6.232909    444.76346  0.036408273  0.037116193            2 
 1019000    1.0741518   -6.2656215    445.74155  0.036452531  0.037106429            5 
 1020000    1.1160243   -6.2601181    445.95361  0.036434118  0.037096598            3 
 1021000    1.1125759   -6.2534472    446.25359  0.036422918  0.037086708            5 
 1022000    1.0913587   -6.2222739    447.37455  0.036478681  0.037076868           11 
 1023000     1.091616   -6.2516712    445.90475  0.036323294  0.037066846            3 
 1024000    1.0837267   -6.2677116    446.48606  0.036335129  0.037056752            4 
 1025000    1.0768049   -6.2711138    445.39345  0.036210849  0.037046315            6 
 1026000    1.0813747   -6.2401753    446.43878   0.03626046  0.037036081            2 
 1027000     1.084367   -6.2659415    446.33706  0.036216899  0.037025872            5 
 1028000    1.0820906   -6.2683523    447.06708  0.036240847   0.03701545            3 
 1029000    1.0833984   -6.2525732    446.27699  0.036141641  0.037005101            4 
 1030000     1.095989   -6.2521335    449.50026  0.036367335  0.036994934            3 
 1031000    1.1100432   -6.3027389    448.12059  0.036220545  0.036984745            6 
 1032000    1.0938736   -6.2358277    450.83554  0.036404679  0.036974967            2 
 1033000     1.084205   -6.2683896    450.17934    0.0363165  0.036965297            1 
 1034000    1.0946175   -6.2650423     451.2753  0.036369705  0.036955506            5 
 1035000    1.0817442   -6.2335143    452.05622  0.036397441  0.036946144            3 
 1036000    1.0985348   -6.2112464    451.62513  0.036327633   0.03693674            9 
 1037000    1.0954499   -6.2276526    453.87065  0.036473051  0.036927313            5 
 1038000    1.1008396   -6.3021212    451.75946  0.036268422   0.03691784            4 
 1039000    1.0942807   -6.2784566    452.13725  0.036263815  0.036908009           12 
 1040000    1.0889233   -6.2287653    454.60045  0.036426318  0.036898691            5 
 1041000    1.0822283   -6.2462524    453.87825  0.036333513  0.036889632            5 
 1042000    1.0755251   -6.2250502    456.46312  0.036505368  0.036880301            3 
 1043000    1.1032792   -6.2909879    453.98502  0.036272373  0.036871077            3 
 1044000    1.1208327   -6.2828746    453.90367  0.036231136   0.03686156            4 
 1045000    1.0872004   -6.2575633    455.36528  0.036313021   0.03685227            4 
 1046000    1.0859849   -6.2928211    455.20133  0.036265243  0.036842868            4 
 1047000    1.1150951    -6.273719    455.12782  0.036224755  0.036833287           10 
 1048000    1.0911132   -6.3102921    455.62445   0.03622968  0.036823843            6 
 1049000    1.0859601   -6.2588583    456.53647  0.036267593  0.036814444            2 
 1050000    1.0764982   -6.2702436    457.57381  0.036315382  0.036805018            5 
 1051000    1.0917423   -6.2558293    457.69945  0.036290791   0.03679562            7 
 1052000    1.0778069   -6.2613476     458.9595  0.036356107  0.036786414            5 
 1053000    1.0834513   -6.2277115    458.51876  0.036286702  0.036777175            6 
 1054000    1.0826972   -6.2543584    458.97113   0.03628804  0.036767781            4 
 1055000    1.1051006   -6.2566706    458.70082  0.036232293  0.036758219            2 
 1056000    1.0640511   -6.2806986    458.86018  0.036210557  0.036748995            5 
 1057000     1.087109     -6.31804    459.76687  0.036247782  0.036739609            3 
 1058000    1.0674174   -6.2934235    458.88133  0.036143772  0.036730114            5 
 1059000    1.0709638   -6.2844574    458.69044  0.036094621   0.03672038            4 
 1060000    1.0780493    -6.312782    457.95629  0.036002853  0.036710566            3 
 1061000    1.1068227   -6.2557049    459.29313  0.036073918  0.036700726            6 
 1062000    1.0879653   -6.2663201    460.79306  0.036157647  0.036691322            2 
 1063000    1.1074465   -6.2719918    460.88878  0.036131137  0.036681946            5 
 1064000    1.0903382   -6.2552878    462.60876  0.036231889  0.036672541            9 
 1065000    1.0791368   -6.2761243    462.48928  0.036188519  0.036663261            6 
 1066000    1.0964887   -6.2885022    460.94102  0.036033538  0.036654014            9 
 1067000    1.0787008   -6.2933736    463.43775  0.036194763  0.036644726            3 
 1068000    1.0855782   -6.2917832    462.71133  0.036104192  0.036635415            7 
 1069000    1.0662193   -6.2533586    463.97305  0.036168776  0.036626194            5 
 1070000     1.087419   -6.2882892    463.22495   0.03607671  0.036616944            6 
 1071000    1.0928923   -6.2917763     463.8147  0.036088912  0.036607822            3 
 1072000    1.0797306   -6.2606466     463.8665  0.036059274  0.036598666            2 
 1073000    1.0615438   -6.2769631    465.20947  0.036129968   0.03658977            7 
 1074000    1.0781327   -6.3002385    464.76818  0.036062087  0.036580991            6 
 1075000    1.0669253   -6.3138738    466.28428  0.036146068  0.036571824            4 
 1076000     1.071906    -6.266727    466.22506  0.036107889  0.036563015            5 
 1077000    1.0707635    -6.320359    466.12015  0.036066245   0.03655425            4 
 1078000    1.0438427     -6.27884    467.28404  0.036122761  0.036545427            3 
 1079000    1.0742736   -6.3044366    466.09504  0.035997454  0.036536524            4 
 1080000    1.0691211   -6.2876688    467.30921  0.036057809  0.036527487            5 
 1081000    1.0637977    -6.306804    466.96266  0.035997738  0.036518258            3 
 1082000    1.0618236   -6.2824434    468.78127  0.036104534  0.036509119            4 
 1083000    1.0849627   -6.2687777    467.73455  0.035990655  0.036500355           11 
 1084000    1.0847059   -6.2716503    469.22376  0.036071937   0.03649154            5 
 1085000    1.0725837    -6.270736    470.58094  0.036142929  0.036482925            3 
 1086000    1.0944836   -6.2884162    470.29902  0.036088016  0.036474144            3 
 1087000    1.0725164   -6.3084235    468.81569  0.035941099  0.036465208            5 
 1088000    1.0816607   -6.2717486    469.85966  0.035988026  0.036456385            4 
 1089000    1.0719524   -6.2758046    470.34714  0.035992282  0.036447577            4 
 1090000    1.0640585    -6.278588    471.36696   0.03603723   0.03643892            6 
 1091000    1.0547733   -6.3063804    470.82745  0.035962989  0.036430366            4 
 1092000     1.085232   -6.2676276    473.15133  0.036107397  0.036421661            6 
 1093000     1.063782   -6.2740659    471.98938  0.035985771  0.036412866            6 
 1094000    1.0841957   -6.2876174    472.80068  0.036014677  0.036403923            4 
 1095000    1.0704582   -6.2812738    473.45149  0.036031316  0.036395036            3 
 1096000    1.0617047   -6.2538198    473.04334  0.035967407  0.036386198            3 
 1097000    1.0765033   -6.2567501    473.68879  0.035983651  0.036377226            6 
 1098000    1.0728639   -6.3177174    473.13663  0.035908973  0.036368196            4 
 1099000    1.0876893   -6.2750022    473.26497  0.035886031   0.03635915            3 
 1100000    1.0788392   -6.2945987    473.22172   0.03585013  0.036350141            4 
 1101000    1.0765373   -6.2689031    475.00505  0.035952547  0.036341136           17 
 1102000    1.0905371    -6.290761    473.44871  0.035802232    0.0363323            5 
 1103000    1.0626339   -6.3307894    473.88434  0.035802685  0.036323325            2 
 1104000    1.0769077   -6.3231937    475.34205  0.035880288  0.036314226            5 
 1105000    1.0817482   -6.2806748    475.52253  0.035861427  0.036305206            3 
 1106000    1.0869466   -6.2906446    476.73633  0.035920459   0.03629664            3 
 1107000    1.0822388   -6.2868266    477.54287  0.035948725   0.03628831            3 
 1108000    1.0923639   -6.2728603    476.11855  0.035809157  0.036280009            5 
 1109000    1.1015692   -6.2684646    479.82907  0.036055686  0.036271622            2 
 1110000    1.0916342   -6.3023881    478.68272  0.035937141  0.036263476            7 
 1111000     1.080872   -6.2649501    478.08206   0.03585974  0.036255244            5 
 1112000    1.0670477    -6.271204    480.52633  0.036010666  0.036247071            1 
 1113000    1.0683179   -6.2823937    478.95114  0.035860373  0.036238696            4 
 1114000    1.0833474   -6.2891514    479.21644  0.035848028  0.036230231            9 
 1115000    1.0925168   -6.2872265    479.57092  0.035842371  0.036221871            5 
 1116000     1.080208   -6.3124736    480.46286  0.035876856  0.036213393            5 
 1117000    1.0742134   -6.2944377    481.47739  0.035920426  0.036205166            4 
 1118000    1.0791785   -6.2763695    481.13112  0.035862487   0.03619687            6 
 1119000    1.0826573   -6.2570141    481.54684  0.035861397  0.036188492            3 
 1120000    1.0884633   -6.2966774    481.66865  0.035838442  0.036180136            4 
 1121000    1.0531246   -6.2851689    481.54919   0.03579759  0.036171775            5 
 1122000    1.0861478   -6.2444496    482.29304  0.035820933  0.036163369            4 
 1123000     1.064142   -6.2962661    483.54138   0.03588167   0.03615508            7 
 1124000    1.0767734   -6.2776402    481.96686  0.035733012  0.036146562            8 
 1125000    1.0838125   -6.2473213    483.39181    0.0358068   0.03613808            2 
 1126000    1.0708009   -6.2970508      482.151   0.03568317  0.036129566            8 
 1127000    1.0721708   -6.3119132    484.82077  0.035848918  0.036121149            9 
 1128000       1.0651   -6.3323507    485.59197  0.035874111  0.036112821            5 
 1129000    1.0693147   -6.2898148    484.98494   0.03579753  0.036104565            4 
 1130000    1.0568761   -6.3046803    484.14073  0.035703593   0.03609623            8 
 1131000     1.051925   -6.2679681    486.04899  0.035812628  0.036088074            4 
 1132000     1.060277   -6.3068437    485.96065  0.035774488  0.036079944            3 
 1133000    1.0714933   -6.2952513    487.16096  0.035831197   0.03607175            5 
 1134000     1.069286   -6.2882782    485.57049  0.035682723  0.036063745            6 
 1135000    1.0717764   -6.2530951    487.15085  0.035767316  0.036055526            4 
 1136000    1.0563581   -6.2709065    486.41945  0.035682178   0.03604735            5 
 1137000    1.0619069   -6.3119656    489.44793   0.03587276   0.03603941            4 
 1138000    1.0435407   -6.3291048    487.24033  0.035679579  0.036031264            5 
 1139000    1.0467642   -6.2982072    489.90168  0.035842968   0.03602331            8 
 1140000    1.0663326   -6.2977391    488.86516  0.035735757  0.036015453           10 
 1141000    1.0822406   -6.3024502    489.62094  0.035759636  0.036007733            3 
 1142000    1.0783715   -6.2783506    490.66387  0.035804427  0.036000161            7 
 1143000     1.051027   -6.3183667    490.56816  0.035766124  0.035992602            2 
 1144000    1.0511453   -6.2891608     490.4067  0.035723099  0.035984882            4 
 1145000    1.0766661   -6.3060444    490.94315  0.035730942  0.035977068            5 
 1146000    1.0713414   -6.2980289    492.70752  0.035828063  0.035969491            3 
 1147000    1.0759277     -6.27363    494.70672  0.035942075  0.035962146            5 
 1148000     1.093111   -6.2716112    493.29407  0.035808222  0.035954598            3 
 1149000     1.067833    -6.295321     491.9817  0.035681876  0.035946962            3 
 1150000    1.0602221   -6.2959407    492.37589  0.035679412  0.035939191            6 
 1151000    1.0809899   -6.3502671    491.36138  0.035574963  0.035931135            4 
 1152000    1.0711218   -6.3103998    493.26116  0.035681507  0.035923197            6 
 1153000    1.0587577   -6.2645802    493.47898  0.035666304  0.035915206            4 
 1154000    1.0604739   -6.2958248    493.96194  0.035670273   0.03590732            7 
 1155000    1.0806403   -6.3015403    493.57435  0.035611425  0.035899218            4 
 1156000    1.0490067   -6.3190921     493.0463  0.035542554  0.035891138            3 
 1157000    1.0592926   -6.3029853    495.30871  0.035674785  0.035883091            4 
 1158000    1.0895359   -6.2993175     495.6043  0.035665249  0.035875183            4 
 1159000    1.0499961   -6.2886147    493.22806  0.035463623  0.035867316            7 
 1160000     1.045495   -6.2868161    495.69952  0.035610598  0.035859451            2 
 1161000    1.0468796   -6.3137173    495.83073  0.035589343  0.035851394            6 
 1162000    1.0902813   -6.2897347    496.11434  0.035579055  0.035843361            4 
 1163000    1.0539098   -6.3243945     496.1204  0.035548896  0.035835322            5 
 1164000    1.0515185   -6.2800545    497.56524  0.035621796  0.035827229            3 
 1165000    1.0547539   -6.3207643    495.71467  0.035458846   0.03581922            8 
 1166000    1.0823862   -6.2852026    497.07116  0.035525383  0.035811237            2 
 1167000    1.0513959   -6.3275013    497.25387  0.035507988  0.035803084            2 
 1168000    1.0559597   -6.3351989    497.82432  0.035518288  0.035794802            6 
 1169000    1.0657672   -6.3216197    496.53069  0.035395687  0.035786674            3 
 1170000      1.05959   -6.3061005    498.70038   0.03551997  0.035778674            3 
 1171000     1.069434   -6.3086467    498.68109  0.035488264  0.035770786            4 
 1172000    1.0610837   -6.3158362    498.85388   0.03547027  0.035762852            6 
 1173000    1.0638422   -6.3076304    498.44373  0.035410893  0.035754772            3 
 1174000    1.0743434   -6.2885937    499.98414  0.035490072  0.035746504            5 
 1175000    1.0744586   -6.3069733    501.19487  0.035545735  0.035738665            5 
 1176000    1.0649577   -6.3135029    501.69622  0.035551036  0.035731083            3 
 1177000    1.0789086   -6.2916901    501.25646  0.035489695  0.035723391            4 
 1178000    1.0800181    -6.280068    501.24927   0.03545906  0.035715755            2 
 1179000    1.0915023   -6.2841676    502.69312  0.035531038  0.035708067            3 
 1180000    1.0739257    -6.286424    503.21062  0.035537473  0.035700316           10 
 1181000    1.0680046   -6.3065302    502.56898  0.035462107  0.035692563            3 
 1182000    1.0621064   -6.3230725    501.65765  0.035367855  0.035684729            8 
 1183000    1.0797559   -6.3308673    503.32453  0.035455377  0.035676629            6 
 1184000    1.0406243   -6.3156275    501.88336  0.035323998  0.035668548           14 
 1185000    1.0431409   -6.2821028    504.70582  0.035492674  0.035660539           10 
 1186000    1.0867676   -6.3005693    503.58592  0.035384059  0.035652642            4 
 1187000    1.0651797   -6.3290572    504.05969   0.03538751  0.035644778            4 
 1188000    1.0784918   -6.3061864    504.72992  0.035404736  0.035636795            5 
 1189000    1.0379583   -6.2776536    506.11307    0.0354719  0.035628946            6 
 1190000    1.0435109   -6.3040915    505.26245  0.035382524  0.035621086            5 
 1191000    1.0492433   -6.2894965    507.00585  0.035474801   0.03561322            6 
 1192000    1.0623326   -6.3288282    505.57124  0.035344745  0.035605554            3 
 1193000    1.0450608   -6.3363849    506.17196   0.03535708  0.035597773            2 
 1194000    1.0564648    -6.295072    507.54282  0.035423145  0.035590054            3 
 1195000    1.0584749   -6.3081354    508.23031  0.035441444  0.035582268            3 
 1196000    1.0823011   -6.3275198    508.15505  0.035406567  0.035574744            4 
 1197000    1.0693832   -6.2971145    507.95724  0.035363217  0.035567176            9 
 1198000    1.0523235   -6.3224442    508.97006   0.03540415  0.035559634            4 
 1199000    1.0562534   -6.3045908    511.46396  0.035547954  0.035552446            4 
 1200000    1.0501457   -6.3287185    508.71779  0.035327624   0.03554504            5 
 1201000    1.0730497    -6.305993    510.31898   0.03540931  0.035537461            6 
 1202000     1.068819   -6.3034333    511.44965  0.035458239  0.035530305            4 
 1203000    1.0610029   -6.3100134    512.39895  0.035494524  0.035523163            5 
 1204000     1.063159   -6.3279615    510.51707  0.035334792  0.035515806            6 
 1205000    1.0902069   -6.2948197    510.59909   0.03531114  0.035508565            7 
 1206000    1.0695876   -6.3157729    511.38052  0.035335857  0.035501338            6 
 1207000     1.072443   -6.2907318    513.16098  0.035429507  0.035494021            8 
 1208000    1.0447586   -6.3194777    512.11253  0.035327851  0.035486904            4 
 1209000    1.0540263   -6.3230761    512.83954  0.035348741  0.035479561            4 
 1210000    1.0887165   -6.2934466    514.28071  0.035418781  0.035472561            5 
 1211000    1.0661757   -6.3018441    513.20193  0.035315299  0.035465671           14 
 1212000    1.0535266    -6.324938    515.68414   0.03545683  0.035458715            6 
 1213000    1.0795478   -6.3445474     515.6353  0.035424245  0.035451651            8 
 1214000    1.0606158   -6.3016449    515.34206  0.035374935  0.035444652            2 
 1215000     1.055726   -6.2757527    517.96816  0.035525937  0.035437776            4 
 1216000    1.0518311   -6.2980458    516.66237  0.035407235  0.035430913            5 
 1217000     1.037251   -6.3300973    516.72779   0.03538262  0.035424073            3 
 1218000    1.0565311   -6.3303813    517.20982   0.03538655  0.035417131            6 
 1219000    1.0615731   -6.3185927    518.77024  0.035464195  0.035410195            3 
 1220000    1.0531328   -6.3083575    519.35088  0.035474787   0.03540342            3 
 1221000    1.0532085   -6.2846078    518.45853   0.03538483  0.035396733            3 
 1222000    1.0561299   -6.2990501    518.71969  0.035373683   0.03538987            5 
 1223000    1.0657124   -6.3403032     519.0007  0.035363907  0.035382974            3 
 1224000    1.0701702   -6.2779788    520.03185  0.035405218  0.035376236            6 
 1225000    1.0493882   -6.3047044    520.34475  0.035397602   0.03536968            5 
 1226000    1.0758727   -6.3156421     521.2747   0.03543194  0.035363249            4 
 1227000    1.0424032    -6.307961    521.40815  0.035412126    0.0353568            3 
 1228000    1.0586313   -6.3099357    522.29438   0.03544343   0.03535022            6 
 1229000    1.0416727   -6.3513777    519.67748   0.03523715  0.035343598            5 
 1230000    1.0244625   -6.3438867    521.14592  0.035307989  0.035336733            2 
 1231000     1.043169    -6.370797    520.87577  0.035261019  0.035329843            4 
 1232000    1.0447984   -6.3261325    522.08638  0.035314285  0.035323224            4 
 1233000    1.0452636   -6.2976629    523.74257  0.035397579  0.035316609            6 
 1234000    1.0903255   -6.2818904     524.1808  0.035398487  0.035309985            6 
 1235000    1.0546657   -6.3283263    522.48277  0.035255247  0.035303453            5 
 1236000    1.0634605    -6.317336     522.1015  0.035201018   0.03529661            3 
 1237000    1.0498876   -6.3160093    524.06815  0.035305049  0.035289741            5 
 1238000    1.0597509   -6.3013461    523.57021  0.035243013  0.035283044            4 
 1239000     1.040099   -6.3195539    522.41821  0.035137087  0.035276382            6 
 1240000    1.0693457   -6.3203152    524.89585  0.035275258   0.03526963            6 
 1241000    1.0437312   -6.3167186    525.77009   0.03530554  0.035262859            5 
 1242000    1.0574412   -6.3155962    526.01492   0.03529354  0.035256019            4 
 1243000    1.0633789   -6.3308175    526.23274  0.035279749  0.035249249            6 
 1244000    1.0378841   -6.2982906    526.70783  0.035283215  0.035242571            6 
 1245000    1.0608112   -6.3168462    526.32132  0.035229004  0.035235646            7 
 1246000    1.0610158   -6.3153099    527.44756  0.035276054  0.035228896            2 
 1247000    1.0512295   -6.3381207    527.53168  0.035253387  0.035221979            3 
 1248000    1.0474258   -6.3004375     527.0377  0.035192154  0.035215187            4 
 1249000    1.0868943   -6.3083789    528.82568  0.035283272  0.035208733            3 
 1250000    1.0545058   -6.3529996    529.04594   0.03526973  0.035202028           11 
 1251000    1.0523447   -6.2996283    530.51736  0.035339553  0.035195619            2 
 1252000     1.053867   -6.3025945    530.40399   0.03530378  0.035189135            4 
 1253000    1.0519325   -6.3149359    530.67141   0.03529339    0.0351827            4 
 1254000    1.0502544   -6.2950071    531.70199  0.035333731  0.035176383            4 
 1255000    1.0748273   -6.3483371    530.91962  0.035253627  0.035169982            4 
 1256000    1.0375574   -6.3558487    530.48025  0.035196407  0.035163409            5 
 1257000    1.0459283   -6.3266385    531.91072  0.035263241  0.035157108            6 
 1258000    1.0724746   -6.3033748     532.1304  0.035249761  0.035150804            5 
 1259000    1.0730892   -6.3202289    531.82852  0.035201782  0.035144384            4 
 1260000    1.0604352   -6.2968172    532.88514  0.035243726  0.035138051            4 
 1261000    1.0497604   -6.2956752    533.15835  0.035233833  0.035131646            3 
 1262000    1.0354614   -6.2711953    532.61992  0.035170359  0.035125243            5 
 1263000    1.0465048    -6.321805    533.69259  0.035213288  0.035118829            5 
 1264000    1.0536923   -6.3419619    533.34886  0.035162768  0.035112392            8 
 1265000     1.043184   -6.3426653    532.41359  0.035073359   0.03510612            4 
 1266000    1.0389653   -6.3412633    532.67766  0.035063037  0.035099634           13 
 1267000    1.0623855   -6.3367351    533.80227  0.035109331  0.035092958            6 
 1268000    1.0695662    -6.328016    534.38185  0.035119732  0.035086418            6 
 1269000    1.0315691   -6.3017481    536.13489  0.035207177  0.035079745            6 
 1270000    1.0536528   -6.3161316    534.62593  0.035080442  0.035073346            7 
 1271000    1.0479409   -6.2903591    537.06725  0.035212907  0.035066893            3 
 1272000    1.0159091   -6.3474558    534.35338  0.035007428  0.035060543            6 
 1273000    1.0505962   -6.3200013    534.70376  0.035002864  0.035054078            3 
 1274000    1.0291667   -6.3340794    537.20422  0.035138947  0.035047554            3 
 1275000    1.0371738   -6.3197044    537.76197  0.035147841  0.035040991            4 
 1276000     1.051677   -6.3349636    537.41888  0.035097889  0.035034499            4 
 1277000    1.0477515   -6.3240275    536.31068  0.034998087    0.0350279           10 
 1278000    1.0578632   -6.3571469    537.54234  0.035051013  0.035021384            4 
 1279000    1.0494201   -6.3290567    537.34416  0.035010696   0.03501506            2 
 1280000    1.0702845   -6.3381755    538.92746  0.035086423  0.035008644            5 
 1281000     1.043511   -6.3500458    539.00251  0.035063915  0.035002023           11 
 1282000    1.0703452    -6.349689    537.83259  0.034960517   0.03499521            6 
 1283000    1.0516387   -6.3271204    538.64263  0.034985882  0.034988301            5 
 1284000    1.0522847   -6.3006104    540.79691   0.03509845  0.034981549            3 
 1285000    1.0648068   -6.3367298    539.12663  0.034962817  0.034974667            8 
 1286000    1.0497027   -6.3319197    539.10447  0.034934193  0.034967845            4 
 1287000    1.0648342   -6.3473422    539.56005  0.034936548  0.034961114            4 
 1288000     1.038408   -6.3645313    539.94996  0.034934651  0.034954372            6 
 1289000    1.0706896    -6.328264    541.93815  0.035036084  0.034947622            4 
 1290000    1.0359905   -6.3505634    540.96891  0.034946312   0.03494096            3 
 1291000    1.0329524   -6.3208592    542.31947  0.035006421  0.034934343            3 
 1292000    1.0386058   -6.3731696    540.40232  0.034855671  0.034927664            8 
 1293000     1.025999   -6.3621731    540.97002  0.034865302  0.034920759            3 
 1294000     1.061026   -6.3294486     542.4612  0.034934389  0.034914047            8 
 1295000    1.0437553   -6.3387368    543.05766  0.034945795  0.034907342            5 
 1296000    1.0599708   -6.3265459    544.38672   0.03500429  0.034900939            3 
 1297000    1.0354191    -6.377907    544.48418  0.034983563  0.034894584            6 
 1298000     1.046787    -6.363166    544.80327  0.034977097  0.034888232            4 
 1299000    1.0489201   -6.3873899    545.01436  0.034963713  0.034881859            4 
 1300000    1.0592258   -6.3275993    545.46148   0.03496548  0.034875515            2 
 1301000    1.0397543   -6.3248961    546.96443  0.035034873  0.034869172            6 
 1302000    1.0671555   -6.3380131    545.84516  0.034936326  0.034862775            5 
 1303000    1.0404651   -6.3532324    546.63566   0.03496007  0.034856351            4 
 1304000     1.040545   -6.3259595    548.76426  0.035069291  0.034850097            5 
 1305000    1.0330507   -6.3658071     546.8888  0.034922656  0.034843897            3 
 1306000    1.0304688   -6.3415178    547.86518  0.034958217  0.034837697            7 
 1307000    1.0303321   -6.3143166     548.5568  0.034975568   0.03483159            3 
 1308000    1.0503145   -6.3440458    549.67373  0.035019988  0.034825644            7 
 1309000     1.035784   -6.3359265    548.66029  0.034928717  0.034819617            9 
 1310000    1.0635034   -6.3731594    548.95791  0.034920986  0.034813343            7 
 1311000     1.031227   -6.3148101    549.72717  0.034943247  0.034807331            6 
 1312000    1.0614095   -6.3424068    549.21157  0.034883865  0.034801259            4 
 1313000    1.0342123   -6.3416157    549.27717  0.034861461  0.034795113            6 
 1314000    1.0479964   -6.3676654    549.33139  0.034838368  0.034788921            3 
 1315000    1.0626588   -6.3658445    550.54173  0.034888576  0.034782622            5 
 1316000    1.0427038   -6.3644922    549.91176  0.034822173  0.034776361            3 
 1317000    1.0419245   -6.3231753    550.70762  0.034846091  0.034770089            5 
 1318000    1.0556246   -6.3195246    551.80427   0.03488899  0.034763912            7 
 1319000    1.0880073   -6.3371806    552.18477  0.034886579  0.034757871            4 
 1320000    1.0410521   -6.3871404    551.32781  0.034806048  0.034751603            8 
 1321000    1.0433529    -6.311057    550.72188  0.034741476  0.034745238           10 
 1322000     1.035458   -6.3553138    551.02288   0.03473417  0.034738816            6 
 1323000    1.0288784   -6.3736045    551.70144  0.034750657  0.034732361            2 
 1324000    1.0693042   -6.3673251    551.88381  0.034735889  0.034725921            4 
 1325000    1.0221277   -6.3347012    553.05422  0.034783284  0.034719455            3 
 1326000    1.0328817    -6.347438    553.71843  0.034798795  0.034713074            5 
 1327000    1.0475348   -6.3297354    553.22538  0.034741609  0.034706625            4 
 1328000    1.0344584   -6.3251649    555.22347   0.03484083  0.034699913            5 
 1329000    1.0399634   -6.3338175    555.21293  0.034813953  0.034693298            3 
 1330000     1.056297   -6.3528792    554.08945  0.034717384  0.034686505            3 
 1331000    1.0617998   -6.3456025    553.47751  0.034652987  0.034679737            6 
 1332000    1.0500676   -6.3747625    555.55802  0.034757133  0.034672987            4 
 1333000    1.0167141   -6.3527045    555.67771  0.034738542   0.03466623            6 
 1334000    1.0229133   -6.3400682    553.71523  0.034589907  0.034659622            4 
 1335000    1.0310292   -6.3484828    554.57595  0.034617725  0.034653018            5 
 1336000    1.0498078    -6.349416    556.15181  0.034690108   0.03464641            5 
 1337000    1.0571661    -6.360226    554.63821  0.034569821   0.03463981            4 
 1338000    1.0357989   -6.3441584    557.08825  0.034696578  0.034633341            7 
 1339000    1.0428533   -6.3395275    555.91715  0.034597781   0.03462674            8 
 1340000    1.0113209   -6.3247232    557.98669  0.034700665  0.034620179           10 
 1341000    1.0192658   -6.3142631    557.65846  0.034654391  0.034613632            5 
 1342000    1.0384356   -6.2945644    559.49158  0.034742398  0.034607238            4 
 1343000    1.0326537   -6.3479782    557.17204  0.034572601  0.034600583            3 
 1344000    1.0217405   -6.3695118     557.0099  0.034536824  0.034593955            5 
 1345000    1.0509196   -6.3862094    556.95572  0.034507789  0.034587236            5 
 1346000    1.0296085   -6.3691162    557.58179  0.034520913  0.034580508            3 
 1347000    1.0210007   -6.3485052    557.10055  0.034465513  0.034573621            2 
 1348000    1.0449521   -6.3566496     557.9344  0.034491494  0.034566869            4 
 1349000    1.0443905   -6.3429559    560.76631  0.034640864  0.034560207            4 
 1350000    1.0523755   -6.3483915    559.27372  0.034523069  0.034553439            5 
 1351000    1.0474348   -6.3321223    559.96427   0.03454011  0.034546508            5 
 1352000    1.0230235   -6.3849892    560.71714  0.034560968  0.034539504            5 
 1353000    1.0144051   -6.3783301    560.38548  0.034514996  0.034532539            4 
 1354000    1.0480488   -6.3897937    560.23597  0.034480304  0.034525562            3 
 1355000    1.0430072   -6.3569769    560.14072  0.034448999   0.03451862           12 
 1356000    1.0593029    -6.345135    562.07884  0.034542702  0.034511726            4 
 1357000     1.030786   -6.3442643    562.99418  0.034573457  0.034504947            3 
 1358000    1.0282829   -6.3541479    561.53961  0.034458739  0.034498139            4 
 1359000    1.0246221   -6.3529614    561.97142  0.034459861  0.034491327            4 
 1360000    1.0348214    -6.392503    562.05334  0.034439543  0.034484417           10 
 1361000     1.041625   -6.3487273    564.58291  0.034569123  0.034477626            8 
 1362000     1.007463   -6.3324468    562.70613  0.034428912  0.034470859            9 
 1363000    1.0365555   -6.3025472    565.12433    0.0345515  0.034464131            4 
 1364000    1.0337569   -6.3388161    565.51535  0.034550058  0.034457648            6 
 1365000    1.0232202   -6.3896659     563.3405  0.034391972  0.034451126            4 
 1366000    1.0387249   -6.3473555    566.53587   0.03456173  0.034444602            4 
 1367000    1.0270817   -6.3947805    564.96166  0.034440482  0.034437984            3 
 1368000    1.0333002   -6.3977766    565.16699  0.034427814  0.034431266            5 
 1369000    1.0193232   -6.3799479    565.13322   0.03440061  0.034424414            5 
 1370000    1.0439992   -6.3872211    565.01883  0.034368542  0.034417682            5 
 1371000    1.0391257    -6.355452    566.34208  0.034423905  0.034410835            5 
 1372000    1.0201386   -6.3565897    567.08393  0.034443874  0.034404176            7 
 1373000    1.0523279   -6.3070883    567.78832  0.034461539  0.034397376            4 
 1374000    1.0381081   -6.3473556    567.70218  0.034431234  0.034390797            4 
 1375000    1.0427592   -6.3817463    566.79359  0.034351127  0.034384158            3 
 1376000     1.024804   -6.3493673    568.69257  0.034441168  0.034377362            4 
 1377000    1.0216457   -6.3538882    569.83533  0.034485314  0.034370718           13 
 1378000    1.0308674   -6.3345702    569.46924  0.034438149  0.034364271            3 
 1379000    1.0421339   -6.3790342    570.00679  0.034445661  0.034357754           13 
 1380000    1.0425826   -6.3847739    568.54059  0.034332161  0.034351149           10 
 1381000    1.0346713   -6.3350256    569.96117  0.034393023  0.034344546            7 
 1382000    1.0284003   -6.3767435    569.63413  0.034348416  0.034337856           18 
 1383000    1.0548952   -6.3523792    569.23639  0.034299614  0.034331242           10 
 1384000     1.032831   -6.3579149    570.03826  0.034323113  0.034324634            4 
 1385000    1.0663002   -6.3888581    570.91694    0.0343512  0.034318019            5 
 1386000    1.0402525   -6.3649616    570.05266   0.03427445  0.034311302            5 
 1387000     1.038482   -6.3825178    569.47662  0.034215129  0.034304421            7 
 1388000    1.0350734   -6.3882108    570.29241  0.034239458  0.034297504           10 
 1389000    1.0288388   -6.3285444    573.61078  0.034413894  0.034290683            5 
 1390000    1.0204054   -6.3685807    572.03949  0.034294933   0.03428388            8 
 1391000    1.0201408   -6.3655174    572.55959  0.034301437   0.03427702            5 
 1392000    1.0389037   -6.3302974    572.30686  0.034261666  0.034270213            4 
 1393000    1.0474305   -6.3869054    573.54307  0.034311024  0.034263416            2 
 1394000    1.0156865   -6.3635992    572.67069  0.034234259  0.034256492            6 
 1395000    1.0352161   -6.3705862    572.66687  0.034209491  0.034249445            4 
 1396000    1.0512516   -6.3959718    573.65115  0.034243741  0.034242381            3 
 1397000    1.0528405   -6.3547257    574.20216  0.034252097    0.0342354            4 
 1398000    1.0436212   -6.3855787    574.71826  0.034258361   0.03422858            3 
 1399000    1.0328756   -6.3375081     574.6934  0.034232392  0.034221667            3 
 1400000    1.0212989   -6.3442997    573.75651  0.034152173  0.034214762            5 
 1401000    1.0149022   -6.3719182    575.65133  0.034240502  0.034207746            5 
 1402000    1.0288078    -6.394691    575.13868  0.034185609  0.034200698            3 
 1403000     1.029653   -6.3852986    574.78026  0.034139953  0.034193634            6 
 1404000    1.0226198   -6.3644432     576.1813  0.034198795  0.034186907            4 
 1405000    1.0228276   -6.3605119    575.38089   0.03412698  0.034180229           16 
 1406000    1.0199835    -6.368415    577.23805  0.034212782  0.034173657            7 
 1407000    1.0244066   -6.3684748     578.6753  0.034273591  0.034166974            5 
 1408000    1.0238369   -6.3961271    576.81731  0.034139282  0.034160356            5 
 1409000    1.0413612   -6.4168051    577.62554  0.034162854  0.034153607           12 
 1410000    1.0256242   -6.3721528    578.50193  0.034190421  0.034146809            4 
 1411000    1.0468616   -6.3552726    579.04909  0.034198505  0.034140203            4 
 1412000    1.0529221   -6.3768302    576.67203  0.034033996  0.034133415            4 
 1413000    1.0129841   -6.3647036    578.41828  0.034112897  0.034126537            4 
 1414000   0.99779603   -6.3438509     579.2927  0.034140305  0.034119823            7 
 1415000    1.0544465   -6.4055479    579.64502  0.034136927  0.034113072            4 
 1416000    1.0447196   -6.3859343    578.62007  0.034052499  0.034106407            5 
 1417000     1.055588   -6.3954429    580.36381  0.034131017   0.03409974            7 
 1418000    1.0425592   -6.3797574    580.76766  0.034130681  0.034093185            7 
 1419000     1.031825   -6.3731004    581.27502  0.034136423  0.034086589            4 
 1420000    1.0031011   -6.3672575    582.19557  0.034166407  0.034080082            3 
 1421000    1.0238634   -6.3670947    582.70484  0.034172229  0.034073583            5 
 1422000    1.0308498   -6.3583734    582.84375  0.034156338  0.034066964            6 
 1423000    1.0503321   -6.3907726     581.8202  0.034072394  0.034060327            4 
 1424000    1.0163666   -6.3810063    584.24302  0.034190251  0.034053882            4 
 1425000    1.0290465   -6.3863336    583.62355  0.034130032  0.034047469           19 
 1426000    1.0575157   -6.3888476    583.36981   0.03409127  0.034040947           10 
 1427000     1.020026   -6.3643666    583.57288  0.034079239  0.034034298           12 
 1428000    1.0315262   -6.3645521    584.03201  0.034082167   0.03402768            9 
 1429000    1.0338031   -6.3935018    583.12253   0.03400528  0.034021229            6 
 1430000    1.0484712   -6.3794155    584.59011  0.034067023  0.034014553            5 
 1431000    1.0361879   -6.3574464    584.77801  0.034054159  0.034008048            3 
 1432000    1.0310426   -6.3783366    584.41991  0.034009539  0.034001565            3 
 1433000    1.0233304   -6.4100889      584.896  0.034013492  0.033994999            4 
 1434000    1.0116944   -6.3804133    585.70719  0.034036913  0.033988412            8 
 1435000    1.0317181   -6.4113062    586.48073  0.034058115  0.033981882            8 
 1436000    1.0317411   -6.4027767    587.03154  0.034066362   0.03397544            6 
 1437000    1.0259037   -6.3819789    586.36715  0.034004126   0.03396896            8 
 1438000    1.0260651    -6.377712    587.33495  0.034036564  0.033962664            7 
 1439000    1.0129506   -6.3706145    589.22341  0.034122273  0.033956395            8 
 1440000    1.0204923   -6.3844513    587.71006  0.034010999  0.033949937            5 
 1441000     1.017383   -6.3617446    589.36935  0.034083354  0.033943604            9 
 1442000     1.021329   -6.3547271    589.36469  0.034059448  0.033937339            3 
 1443000    1.0428776   -6.3640901    588.74175   0.03399987  0.033931013            4 
 1444000    1.0243756   -6.3840403     588.4107  0.033957219  0.033924554            5 
 1445000    1.0086283    -6.370327    589.45896  0.033994173  0.033918138            4 
 1446000     1.019868   -6.4041372    590.17756  0.034012077  0.033911761            3 
 1447000    1.0368698   -6.3874977    589.35897  0.033941429  0.033905172            5 
 1448000    1.0478096   -6.3894369    589.64423  0.033934405  0.033898696            5 
 1449000    1.0183116   -6.3333906    593.84828  0.034152765  0.033892331            3 
 1450000    1.0265022   -6.3936365    591.77969  0.034010327  0.033886045            4 
 1451000    1.0059162   -6.3645751    591.14239  0.033950287  0.033879666            3 
 1452000    1.0285215    -6.385944     590.2882  0.033877881  0.033873064            9 
 1453000    1.0404865   -6.3758252    593.71286  0.034050978  0.033866698            5 
 1454000    1.0306604   -6.3873749    591.25621  0.033886761  0.033860159           14 
 1455000     1.031557   -6.3933724    589.97943  0.033790345  0.033853636           15 
 1456000    1.0006577    -6.390358     590.3679  0.033789371  0.033846964            4 
 1457000      1.00635   -6.3917783    591.95178  0.033856771  0.033840418            3 
 1458000    1.0451446   -6.3849786    593.02962  0.033895154  0.033833736            3 
 1459000     1.006362    -6.397656    593.68212  0.033909191  0.033827101            8 
 1460000     1.000827   -6.3910491    592.34327  0.033809547  0.033820376            9 
 1461000    1.0162291   -6.3806203    593.06741   0.03382771  0.033813793            4 
 1462000    1.0335002   -6.3637512    593.71963  0.033841748  0.033807275            5 
 1463000    1.0122659   -6.3887668    594.19899  0.033845921  0.033800474            5 
 1464000    1.0470223     -6.37755    594.51034  0.033840525  0.033793687            5 
 1465000    1.0148147   -6.3780177    594.15303  0.033797101  0.033786951            3 
 1466000    1.0394243   -6.3765711    594.71675  0.033806091  0.033780218            8 
 1467000    1.0146247   -6.4072774    592.67563    0.0336671  0.033773366            5 
 1468000    1.0258808   -6.3770322    594.77539  0.033763362  0.033766547            3 
 1469000    1.0210409   -6.3713503    594.93694  0.033749543  0.033759714            5 
 1470000    1.0188741   -6.3822471    595.01212  0.033730846  0.033752898            7 
 1471000    1.0351277   -6.3724299    595.93717   0.03376032  0.033746225            4 
 1472000    1.0179845   -6.3799133    595.65235  0.033721261  0.033739536            7 
 1473000     1.004317   -6.3704041    593.37279  0.033569404  0.033732703            6 
 1474000    1.0172644    -6.398836    595.43367  0.033663143  0.033725762            8 
 1475000    1.0289473   -6.3774343    594.33255   0.03357811  0.033718848            6 
 1476000    1.0162942   -6.4017479     594.1718  0.033546285  0.033711898            4 
 1477000   0.99455406   -6.3777494    596.91271  0.033678217  0.033704904            6 
 1478000    1.0092604   -6.3459083    597.59161  0.033693708  0.033697912            6 
 1479000   0.99905375   -6.4108133    596.24069   0.03359481  0.033691017            4 
 1480000    1.0223876   -6.3947983    596.44048   0.03358336  0.033684064            4 
 1481000    1.0343861   -6.3599109    598.55091  0.033679434  0.033677169            6 
 1482000    1.0208952   -6.3528418    599.90526  0.033732864  0.033670445           10 
 1483000    1.0101708   -6.3702708    599.82946  0.033705858  0.033663841            6 
 1484000   0.98638991     -6.37106    599.43059  0.033660747  0.033657187            5 
 1485000     1.014479   -6.3959303    598.99904  0.033613863  0.033650502            3 
 1486000    1.0024893   -6.4288794    599.19122   0.03360202  0.033643649            6 
 1487000    1.0205778   -6.4166162    599.46075  0.033594527  0.033636836            5 
 1488000    1.0130178   -6.4089322    599.01522     0.033547  0.033630147            4 
 1489000    1.0233001   -6.3791254    601.22894  0.033648362  0.033623408            8 
 1490000    1.0203111   -6.3622763    599.99021  0.033556499  0.033616684            6 
 1491000    1.0199559   -6.4073376    601.06118  0.033593851  0.033609953           13 
 1492000    1.0077241   -6.3808965    601.80537  0.033612901   0.03360324            5 
 1493000    1.0019081   -6.3885875    601.62859   0.03358052  0.033596479            3 
 1494000   0.99210958   -6.3812144    601.45413  0.033548312  0.033589725            4 
 1495000    1.0290919   -6.3797006    602.89124  0.033605978  0.033582947            7 
 1496000   0.99407245   -6.3916538     603.9126  0.033640408  0.033576307            7 
 1497000    1.0183473   -6.3884494    603.28065  0.033582757  0.033569539           13 
 1498000   0.99734141   -6.3987081    604.37826  0.033621399  0.033562811            2 
 1499000   0.99400383   -6.4073621    603.81786  0.033567815  0.033556152            9 
 1500000    1.0167418   -6.4117757    601.71811  0.033428784  0.033549289           14 
 1501000    1.0033182   -6.4038197    603.82538  0.033523506  0.033542423            7 
 1502000    1.0061104   -6.4106295    604.10347  0.033516615  0.033535629            3 
 1503000    1.0186154   -6.4012776    605.39039  0.033565668   0.03352882            3 
 1504000   0.99620328   -6.4014467    604.71104  0.033505709  0.033522043            4 
 1505000    1.0319025   -6.3811073    604.29708  0.033460525  0.033515239            4 
 1506000   0.99792547   -6.3835989    606.00614  0.033532877  0.033508488            4 
 1507000   0.98800246   -6.3763099    605.18632  0.033465291  0.033501665            7 
 1508000    1.0208396   -6.4014469    604.19643  0.033388397  0.033494795            3 
 1509000    1.0054868   -6.3593785    606.30792  0.033482876  0.033487916            4 
 1510000   0.99357917   -6.4090414    605.17671  0.033398273  0.033480975            6 
 1511000    1.0290213   -6.3719439    606.65109  0.033457484  0.033474089            4 
 1512000      1.00433   -6.3915516     605.5178  0.033372894  0.033466997            5 
 1513000   0.99932309   -6.4126222    607.27325  0.033447524  0.033459839            5 
 1514000   0.98763227   -6.4059356    605.39998  0.033322324  0.033452852            7 
 1515000   0.99359139   -6.4069402     605.7762  0.033321023  0.033445939            4 
 1516000    1.0161452   -6.3924773    606.78719  0.033354617  0.033439047            7 
 1517000    1.0102009   -6.4022751    607.51605  0.033372668  0.033432055            6 
 1518000   0.99473254   -6.4130325    607.50768  0.033350224  0.033425018            6 
 1519000   0.99073239   -6.4002149    606.66136  0.033281839  0.033417936            4 
 1520000   0.98910945   -6.4205703    607.75832  0.033320083  0.033410966           15 
 1521000    1.0219781   -6.4332402    609.19245   0.03337675  0.033403935            8 
 1522000    1.0086005    -6.400898    609.30753  0.033361122  0.033396793            6 
 1523000   0.99880815   -6.4152384    610.63012  0.033411585  0.033389756            4 
 1524000    1.0238173   -6.3942332    609.96387   0.03335323  0.033382606            3 
 1525000   0.99493603    -6.388533    609.50686  0.033306386  0.033375626            4 
 1526000   0.98493847   -6.4269624    610.09861  0.033316875  0.033368567            3 
 1527000    1.0134475   -6.3877873    608.54748  0.033210406  0.033361389            3 
 1528000    1.0069402    -6.400452    608.98547  0.033212558  0.033354228            3 
 1529000    1.0093766   -6.4309833    610.75543  0.033287303  0.033347049            4 
 1530000   0.99216992   -6.4106635    609.34362   0.03318865  0.033339747            6 
 1531000    1.0312364   -6.3991203    610.26259  0.033216993   0.03333245            4 
 1532000   0.99521882   -6.3760407    610.06843  0.033184749  0.033325249           11 
 1533000    0.9957366   -6.4345222     609.6389  0.033139753  0.033317961            6 
 1534000    1.0102599   -6.4149022    608.99165  0.033082989  0.033310605            3 
 1535000   0.99290071   -6.4263987    612.35999  0.033244299  0.033303383            5 
 1536000    1.0233624   -6.3655057    611.57939  0.033180306   0.03329601            4 
 1537000    1.0147024   -6.4060025    612.81495  0.033225707  0.033288882            4 
 1538000    1.0126388   -6.4056276    612.18042  0.033169724  0.033281535            6 
 1539000   0.99761723   -6.4440792    610.96989  0.033082624   0.03327418            3 
 1540000   0.98950997   -6.4021304    613.40357  0.033192834  0.033266888            6 
 1541000    1.0011299   -6.4321441     612.2185  0.033107209  0.033259497            7 
 1542000   0.99762441   -6.4220606    612.44128  0.033097778  0.033252208            5 
 1543000   0.99918673   -6.3743765    614.22171  0.033172484  0.033244909            5 
 1544000   0.98431202   -6.4409023    613.24824  0.033098459  0.033237593           11 
 1545000    1.0065544   -6.3916712    612.92402  0.033059548   0.03323023            9 
 1546000   0.98395174   -6.4152384    615.45084  0.033174366  0.033222974            9 
 1547000    1.0001819    -6.416236    614.73077  0.033114133  0.033215656            5 
 1548000    0.9926204   -6.4266607    614.72689  0.033092533  0.033208246            4 
 1549000    1.0247602   -6.3946148    614.42871  0.033055127  0.033200808            6 
 1550000    1.0322061   -6.4459708    613.26984  0.032971497  0.033193288            6 
 1551000   0.97492294   -6.4078405    613.96009  0.032987325  0.033185739            4 
 1552000    1.0226797   -6.4757462    613.25433  0.032928175  0.033177999            4 
 1553000    1.0120609    -6.427665    614.72714  0.032986002  0.033170298            4 
 1554000    1.0317543   -6.4202947    615.06819  0.032983064  0.033162765            7 
 1555000    1.0003147   -6.4239872    614.97931  0.032957091   0.03315528            7 
 1556000    1.0041899   -6.4130908     614.7417  0.032923184  0.033147698            5 
 1557000    1.0308109   -6.4059238    614.15042  0.032870393  0.033140148            5 
 1558000   0.98416575   -6.3853781    618.83964  0.033100109  0.033132658            9 
 1559000   0.99524088   -6.4213662    615.00156   0.03287372  0.033125015           10 
 1560000    1.0007212   -6.3950839    616.53924  0.032934789  0.033117242           11 
 1561000   0.99023045   -6.4063425    615.21133    0.0328428  0.033109503            4 
 1562000   0.99625481   -6.3883056    614.72175  0.032795655  0.033101798            5 
 1563000   0.96937673   -6.4601381    616.25234  0.032856278   0.03309398            5 
 1564000   0.97135988   -6.4139585    615.71688  0.032806739   0.03308627            3 
 1565000     1.008598   -6.4255002    617.38235   0.03287446  0.033078604            7 
 1566000    0.9717247   -6.4233277    616.24133  0.032792748   0.03307099            6 
 1567000    1.0106677   -6.4009844    616.78041   0.03280049  0.033063222            6 
 1568000    1.0059838   -6.4053479    619.36719  0.032917049  0.033055729            5 
 1569000    1.0043248   -6.4107474    619.30788  0.032892919  0.033048008            5 
 1570000    1.0003481   -6.4405609    619.60109  0.032887531  0.033040434           13 
 1571000    0.9997637   -6.4204949    619.24726  0.032847828  0.033032855            5 
 1572000   0.98751739   -6.4397761    618.05755  0.032763865   0.03302512            8 
 1573000   0.98237996   -6.4332458    617.87434   0.03273333   0.03301727            3 
 1574000   0.98715886   -6.4263321    617.48741  0.032692048  0.033009401            6 
 1575000    1.0138869   -6.4068072     617.8754   0.03269182  0.033001602            4 
 1576000     1.009203   -6.4225824    620.97945  0.032835208  0.032993786            4 
 1577000    1.0041815   -6.3902229    620.81827  0.032805869  0.032986004           11 
 1578000    1.0029718   -6.4486895    618.33565  0.032653974  0.032978329            7 
 1579000   0.99715622   -6.4056281    621.09824  0.032779092  0.032970632            5 
 1580000   0.99872127   -6.4145456    619.59451  0.032679035  0.032962895           11 
 1581000     1.019599   -6.4249892    621.30687  0.032748623  0.032955312            5 
 1582000    1.0000269   -6.4201396     621.8827  0.032758254  0.032947656            5 
 1583000    1.0000452   -6.4183391    622.59369  0.032774989  0.032939885            4 
 1584000   0.97792892   -6.4558339    622.05882  0.032726158  0.032932087            5 
 1585000    1.0010557   -6.4438489    620.63221  0.032630505  0.032924241            5 
 1586000    1.0097852   -6.4327737    620.34739  0.032594966  0.032916394            4 
 1587000   0.99133268   -6.4216332     621.9317  0.032657619  0.032908646            3 
 1588000   0.98430968   -6.4221832    620.89714  0.032582763  0.032900632            8 
 1589000    0.9754172   -6.4056332    623.34662  0.032690718   0.03289267            5 
 1590000   0.99948731   -6.4036579    622.14008  0.032606923   0.03288474            5 
 1591000    1.0007784   -6.4195622    621.46444  0.032551039  0.032876783            4 
 1592000    1.0075322   -6.4357622    622.58121   0.03258905  0.032868825            8 
 1593000   0.95835711   -6.4181234     623.0962  0.032595532  0.032860784            3 
 1594000   0.99663325   -6.4321042    622.42939  0.032540223  0.032852801            6 
 1595000   0.99250423   -6.4076475    623.63232  0.032582671  0.032844797            8 
 1596000    0.9885294   -6.4254013     623.3479  0.032547405  0.032836652            5 
 1597000   0.97408955   -6.4582283    622.41159  0.032478167  0.032828484            7 
 1598000    1.0011482   -6.4118079    622.83983  0.032480175  0.032820316            9 
 1599000   0.99514059   -6.4091786    623.18381  0.032477789  0.032812214            3 
 1600000    1.0190529   -6.4479366    622.66298  0.032430363  0.032804118           10 
 1601000   0.97264061   -6.4336007    624.17107  0.032488605  0.032796111            5 
 1602000    1.0009644     -6.44775    622.99446  0.032407119  0.032788107            4 
 1603000     1.007011   -6.4393319     626.0982  0.032548253  0.032780028            4 
 1604000     1.013759   -6.4054585    627.23514  0.032587029   0.03277216            3 
 1605000   0.99077243    -6.446017    625.36146  0.032469442  0.032764207            6 
 1606000   0.99118109   -6.4573057    625.36599   0.03244946  0.032756178            6 
 1607000   0.99009415   -6.4445815    624.77049  0.032398387  0.032748181            3 
 1608000   0.99100641   -6.4523274    625.58553  0.032420478  0.032740062            5 
 1609000   0.99705637   -6.4524391    626.65342  0.032455636  0.032732144            6 
 1610000   0.98733741   -6.4260581    625.74628  0.032388524  0.032724269            7 
 1611000   0.99794203   -6.4540212    627.18444  0.032442812  0.032716414            5 
 1612000   0.98200478   -6.4157689    627.58202  0.032443239   0.03270843            6 
 1613000   0.98501638   -6.4710417    627.92989  0.032441098  0.032700545            6 
 1614000   0.99442971   -6.4174426    628.90424  0.032471305  0.032692632            7 
 1615000   0.97912957   -6.4388674    628.81307  0.032446495  0.032684762           10 
 1616000    1.0022837   -6.4517017    628.37318  0.032403732  0.032676878            6 
 1617000   0.98397248   -6.3945397    629.92258  0.032463543   0.03266902            4 
 1618000   0.98963396    -6.436361    628.22061   0.03235582  0.032661056            4 
 1619000    1.0047887   -6.4431327       627.87  0.032317789  0.032653091            7 
 1620000    1.0150709   -6.4311412    629.64037  0.032388908  0.032645031            7 
 1621000   0.98234137   -6.4341675    628.74625  0.032322962  0.032636926            9 
 1622000   0.99855126   -6.4168059    629.56669  0.032345186  0.032628877            4 
 1623000    1.0072081   -6.4195776    629.83781  0.032339177  0.032620872            4 
 1624000    0.9803308   -6.4358883    628.64343  0.032257976  0.032612801            5 
 1625000    1.0395621    -6.432822    628.34426  0.032222783  0.032604644            6 
 1626000    1.0127989   -6.4673323    629.77422  0.032276251  0.032596552            5 
 1627000   0.98116686   -6.4508092    630.16284  0.032276318  0.032588522            4 
 1628000    0.9871451    -6.434049    629.51683  0.032223425   0.03258048            8 
 1629000   0.99736297   -6.4136353    630.72082  0.032265235  0.032572474            5 
 1630000   0.98549905   -6.4422033    631.91493  0.032306489  0.032564373            3 
 1631000   0.98707006   -6.4528934    631.22199  0.032251277  0.032556293            5 
 1632000    1.0181259   -6.4142002    631.16581  0.032228646  0.032548188            4 
 1633000   0.98504839   -6.4361374    633.66907  0.032336654  0.032540131            3 
 1634000    1.0062181   -6.4369805    630.58903  0.032159783  0.032532116            5 
 1635000    1.0032056   -6.4369024    631.07479  0.032164872  0.032524027            5 
 1636000     0.996298   -6.4327306    631.46991  0.032165337  0.032516015            7 
 1637000    1.0118495   -6.4362129    632.32753  0.032189347  0.032507918            5 
 1638000   0.99241668   -6.4617081    632.55488  0.032181262   0.03249984           13 
 1639000    1.0049356   -6.4372446    632.07869  0.032137416  0.032491699            9 
 1640000   0.98820969   -6.4434892    632.55552  0.032142049  0.032483529            7 
 1641000     1.004334   -6.4674485    630.85066  0.032035886  0.032475317            4 
 1642000   0.96869806   -6.4289033    632.42092  0.032096068  0.032467097            2 
 1643000   0.98048223   -6.4971684    631.87897  0.032049045  0.032458935            4 
 1644000   0.99225154   -6.4441726    632.98863  0.032085798  0.032450785            9 
 1645000   0.98107842   -6.4398033    635.61328  0.032199254  0.032442639            5 
 1646000   0.99691403   -6.4268417    634.06002  0.032101054  0.032434533            4 
 1647000   0.97149032   -6.4242435    633.37629  0.032046969  0.032426297            5 
 1648000   0.98150659   -6.4295759    633.89346  0.032053674  0.032418043            6 
 1649000     0.963427   -6.4348042    635.04399  0.032092379  0.032409797            6 
 1650000   0.97249748      -6.4378    634.73101  0.032057122  0.032401533            5 
 1651000   0.99430236   -6.4523863    633.64996   0.03198314  0.032393275           14 
 1652000   0.96283075   -6.4484965    634.68739  0.032016112  0.032384993           23 
 1653000   0.97693825   -6.4729287    633.16344  0.031919915  0.032376607           11 
 1654000   0.98279963    -6.422544    633.55614  0.031920402  0.032368283            4 
 1655000    1.0067329   -6.4518783    636.47037  0.032047853   0.03235992            8 
 1656000   0.99866671   -6.4510128    635.82352   0.03199595  0.032351479           10 
 1657000   0.96538344   -6.4284195    636.80367  0.032025934  0.032343199            7 
 1658000    1.0017726   -6.4352998    636.95184  0.032014065  0.032334996            8 
 1659000   0.98655922   -6.4406962    637.12966    0.0320037  0.032326783            5 
 1660000   0.98083636    -6.427686    636.31909  0.031943729  0.032318578            4 
 1661000   0.96306499   -6.4302627    639.19219  0.032068643  0.032310358            8 
 1662000   0.98575952   -6.4365764    638.69341  0.032024338  0.032302234            8 
 1663000   0.98756287   -6.4239171    637.16974   0.03192873  0.032293998            3 
 1664000   0.97876317   -6.4633501    637.12354  0.031907229  0.032285639           11 
 1665000    0.9879508   -6.4438591     637.4608  0.031904945   0.03227728            3 
 1666000   0.97359839   -6.4655422    638.43394  0.031934471  0.032269015            7 
 1667000   0.99001862   -6.4453979    638.08785  0.031898013   0.03226072            3 
 1668000   0.97056998   -6.4287354    637.63477  0.031856253  0.032252501            6 
 1669000   0.97642129   -6.4277681    640.06024  0.031958271  0.032244321            8 
 1670000   0.96161609   -6.4304947    639.32622  0.031902506  0.032236007            8 
 1671000   0.97995823   -6.4156476    640.86641  0.031960224  0.032227745            7 
 1672000   0.98799362   -6.4209281    640.38892   0.03191731  0.032219672            8 
 1673000   0.97483921   -6.4228983    639.89599  0.031873679  0.032211595            7 
 1674000    0.9690938   -6.4938322    640.93822  0.031906522  0.032203487            4 
 1675000   0.97524699   -6.4774886    641.30342  0.031905643  0.032195353           10 
 1676000   0.99178786   -6.4364613     640.3345   0.03183843  0.032187268            3 
 1677000   0.98305023   -6.4491004    642.74571  0.031939262  0.032179287            4 
 1678000   0.97720435   -6.4509996    641.90925  0.031878687  0.032171305            6 
 1679000   0.99480737   -6.4530004    642.94565   0.03191114  0.032163389            6 
 1680000   0.97645403   -6.4316011    644.33346  0.031960985  0.032155397            7 
 1681000   0.98108904   -6.4370519    640.95848  0.031774662  0.032147431            4 
 1682000   0.95944509   -6.4411839    642.51113  0.031832696  0.032139425            4 
 1683000   0.97366582   -6.4536923    643.36472  0.031856047  0.032131352            7 
 1684000   0.98188109   -6.4193296    643.66186  0.031851834  0.032123249            6 
 1685000   0.99887059    -6.470648     643.9171  0.031845554   0.03211511            5 
 1686000   0.96731539   -6.4517924    644.22221  0.031841746  0.032106988            4 
 1687000   0.96471369   -6.4683102    643.70697   0.03179742  0.032098906            6 
 1688000   0.98229309   -6.4654781    644.13854  0.031799888  0.032090757            3 
 1689000   0.97605166   -6.4530925    642.84509  0.031717243  0.032082564            3 
 1690000   0.98318377   -6.4390693    642.56548  0.031684688  0.032074437            4 
 1691000   0.98466979   -6.4445285    644.32949  0.031752882  0.032066337            4 
 1692000   0.98328355   -6.4524362    644.19779   0.03172763  0.032058347            5 
 1693000   0.96146092   -6.4961872    645.09024  0.031752817  0.032050258            8 
 1694000    1.0032854     -6.42783    647.77396  0.031866094  0.032042185            5 
 1695000   0.97036939   -6.4328119    646.35681  0.031777621  0.032034114            5 
 1696000    1.0034266   -6.4575656    645.79569  0.031731313  0.032026105            7 
 1697000   0.97883216   -6.4694384    645.99508  0.031722406  0.032018035            3 
 1698000   0.99463796   -6.4593127    645.86192  0.031697189  0.032009944            5 
 1699000   0.99261127   -6.4779083     643.9421  0.031584368  0.032001743            5 
 1700000    0.9867601   -6.4712241    644.87338   0.03161144  0.031993608            3 
 1701000   0.99223272   -6.4546827    647.16926  0.031705333  0.031985551            3 
 1702000   0.98401904   -6.4606963    647.08502   0.03168258  0.031977499            5 
 1703000    0.9855893   -6.4635124    647.50615  0.031684584  0.031969458            4 
 1704000   0.97322251   -6.4722955     646.4936  0.031616471   0.03196138            6 
 1705000   0.97556724   -6.4747771    649.97128  0.031767902  0.031953467            9 
 1706000   0.98419758   -6.4569331    650.26876  0.031763812  0.031945642            2 
 1707000   0.98009035   -6.4564199    648.50636  0.031659166  0.031937747            8 
 1708000   0.99810767   -6.4506966    650.48372  0.031737106  0.031929722            3 
 1709000   0.98006668   -6.4559997    650.61814   0.03172509   0.03192185            6 
 1710000   0.99565858   -6.4596011    651.12748  0.031731359  0.031913952            6 
 1711000   0.98184775   -6.4931346    649.98127  0.031656988  0.031906057           10 
 1712000   0.96259742   -6.4791018    650.30439  0.031654225  0.031898074            9 
 1713000   0.98443894   -6.4354893    651.45372  0.031691658  0.031890086            6 
 1714000   0.97251314   -6.4727277    649.29374  0.031568151  0.031882098            6 
 1715000   0.98965284     -6.47877    650.54785  0.031610682  0.031874031            3 
 1716000   0.96799757   -6.4445385    650.79372  0.031604202  0.031865964            6 
 1717000     0.995107   -6.4581426    652.08867  0.031648645  0.031857959            5 
 1718000   0.97850902   -6.4949954    650.17202  0.031537253  0.031849935            5 
 1719000    0.9632281   -6.4585921    651.75293  0.031595547  0.031841956            5 
 1720000   0.96646025   -6.4744951    650.47647  0.031515333  0.031833902            5 
 1721000   0.96989476   -6.4687013    651.27687  0.031535777  0.031825827            3 
 1722000   0.97208754   -6.4961412    650.15551  0.031463197  0.031817765            4 
 1723000    1.0040571   -6.4645843    652.31943  0.031549595  0.031809783           11 
 1724000   0.95652685    -6.489792    651.91963   0.03151197  0.031801769            8 
 1725000   0.97416299   -6.4907242    652.34614  0.031514306  0.031793647            8 
 1726000   0.99031714   -6.4553932    652.07015  0.031482723  0.031785647            8 
 1727000   0.98660079   -6.4332473    652.44942  0.031482794  0.031777594            5 
 1728000   0.96776605   -6.4348516    653.11217  0.031496536  0.031769602            5 
 1729000    0.9860906   -6.4571895    654.23312  0.031532346   0.03176167            7 
 1730000   0.96907485   -6.4648792    654.20745  0.031512883  0.031753755            6 
 1731000   0.97885894   -6.4669231    654.20293   0.03149446  0.031745748            4 
 1732000    1.0014422   -6.4331671     656.2602   0.03157526  0.031737826            3 
 1733000   0.97612154    -6.438407    655.82244   0.03153599  0.031729968            8 
 1734000   0.97115288   -6.4946053    654.79431  0.031468392  0.031722069           12 
 1735000   0.98729979   -6.4921822    655.87313  0.031502072  0.031714283           10 
 1736000    0.9923086   -6.4715233    653.89262  0.031388855  0.031706368            5 
 1737000   0.99974658   -6.4723195    656.59831  0.031500591  0.031698517           12 
 1738000   0.95257343   -6.4595048    656.08469  0.031457839  0.031690786            6 
 1739000   0.95809851   -6.4740551     656.6197  0.031465387  0.031682999            7 
 1740000   0.98880796   -6.4801676    657.76612  0.031502209  0.031675269            2 
 1741000   0.97783288   -6.4863023    657.49847  0.031471304  0.031667511            7 
 1742000   0.97681899   -6.4627574    657.74964  0.031465252  0.031659713            4 
 1743000   0.97924111   -6.4637513     658.2295  0.031470142  0.031651925            5 
 1744000   0.97497612   -6.4860796    658.32149  0.031456493  0.031644213            6 
 1745000   0.97992615   -6.4832773    658.87433  0.031464868  0.031636466            5 
 1746000   0.95619176   -6.4714426    660.19265  0.031509768  0.031628835            3 
 1747000   0.98575654   -6.4891825    658.82275  0.031426386  0.031621158            5 
 1748000   0.96431968   -6.4611887    661.27311  0.031525224  0.031613468            5 
 1749000   0.95566426   -6.4871645    658.74151  0.031386579  0.031605883           11 
 1750000   0.95447851   -6.4717017    660.65225  0.031459631  0.031598273            9 
 1751000   0.98576326   -6.4421137    662.18026  0.031514385  0.031590773            5 
 1752000   0.96860415   -6.4632093    661.05184  0.031442725  0.031583245           10 
 1753000   0.98372527   -6.4670539    662.73867  0.031504976  0.031575723            4 
 1754000   0.95540637   -6.4977751    660.19621   0.03136622  0.031568219           10 
 1755000   0.97438052   -6.4545525    663.76903  0.031517998   0.03156078            5 
 1756000   0.95160526   -6.4610453    664.76008  0.031547081  0.031553538            4 
 1757000   0.95359977   -6.4806793    664.60165  0.031521611  0.031546216            5 
 1758000   0.96822717   -6.4856101    663.99351  0.031474854  0.031538886            7 
 1759000   0.96488266     -6.46929    665.75616  0.031540466  0.031531647            7 
 1760000   0.94987132   -6.4823688    664.05627  0.031442058  0.031524471            7 
 1761000   0.95944412   -6.4784273    662.90112   0.03136954  0.031517168            6 
 1762000   0.95728609   -6.4497913    664.56651  0.031430501  0.031509868            8 
 1763000    1.0013194    -6.462757    667.42443  0.031547761  0.031502727           10 
 1764000   0.95984255   -6.4879942    665.90877  0.031458275  0.031495473            6 
 1765000   0.96196078   -6.4797889    667.06949  0.031495255  0.031488265            6 
 1766000   0.95572921   -6.4563595    664.75327  0.031368123  0.031480936            5 
 1767000    0.9724812    -6.474654    665.08471  0.031366002  0.031473618           15 
 1768000    0.9684526   -6.4754432    666.71382  0.031425048  0.031466267            5 
 1769000   0.97336887   -6.4729363    668.78023  0.031504627  0.031458946            8 
 1770000   0.97280398   -6.4781722    667.82459  0.031441835    0.0314516            8 
 1771000   0.97882541    -6.468638    666.73341  0.031372737  0.031444263            5 
 1772000   0.97482901   -6.4698392    666.17096  0.031328582  0.031436867            3 
 1773000   0.96176955   -6.4680237    668.29012  0.031410515  0.031429526            5 
 1774000   0.95620344   -6.4821103    667.25851  0.031344349  0.031422255           15 
 1775000   0.95085984   -6.4632938    668.99135  0.031408045  0.031415069           12 
 1776000   0.97523899   -6.4678782    668.25698  0.031355902  0.031407922            6 
 1777000   0.98738668    -6.462155    669.50421  0.031396746  0.031400884            4 
 1778000   0.96792443   -6.4744061    668.55254  0.031334484  0.031393721            3 
 1779000   0.95028817   -6.4842445    668.20879  0.031300768  0.031386529            5 
 1780000    0.9506931   -6.4639407    668.43344  0.031293701   0.03137934           12 
 1781000   0.95191387   -6.4442098    668.61942  0.031284832  0.031372263            5 
 1782000   0.95199472   -6.4958971     671.5842   0.03140592  0.031365126            3 
 1783000   0.96641723    -6.476824     670.6695  0.031345555  0.031358033            6 
 1784000   0.96961124    -6.495212     670.3919  0.031315018  0.031350815            6 
 1785000   0.97999036   -6.4995502    672.26122  0.031384744  0.031343491           11 
 1786000   0.94652633   -6.4708628    670.98229  0.031307498  0.031336294            6 
 1787000    0.9634071   -6.5030242    671.60842  0.031319176  0.031329165           10 
 1788000   0.94208756   -6.4898983    670.92183   0.03126966  0.031321949           11 
 1789000   0.96272394   -6.4824314    670.95409  0.031253684  0.031314757            5 
 1790000   0.99248901   -6.4705709    672.88868  0.031326289  0.031307556            5 
 1791000   0.95895495   -6.5143239    672.84493  0.031306762  0.031300388            6 
 1792000    0.9676626    -6.503582    671.66905   0.03123461  0.031293175            9 
 1793000   0.95918349   -6.4964582    673.62647  0.031308165  0.031285936            4 
 1794000   0.98514954   -6.4893972     673.1116  0.031266797  0.031278762            7 
 1795000   0.98510897    -6.503732    673.67804  0.031275675  0.031271722            7 
 1796000   0.97210623   -6.4880084    674.47714  0.031295339  0.031264635           15 
 1797000   0.97869958   -6.5002758    673.23985  0.031220546  0.031257519            8 
 1798000   0.96334783   -6.4943703    675.57408  0.031311368  0.031250525           11 
 1799000   0.95400899   -6.4742562     676.0997  0.031318311  0.031243528            6 
 1800000     0.958473   -6.5054257    675.83463   0.03128864  0.031236545            4 
 1801000   0.97997682    -6.473955    676.60022  0.031306692  0.031229573           10 
 1802000   0.95126816   -6.4867403    675.42764  0.031235092  0.031222445            5 
 1803000   0.95758536   -6.5063155    673.88119  0.031146293  0.031215392            6 
 1804000    1.0010156   -6.5139102    675.24808  0.031192169  0.031208224            5 
 1805000    0.9586404   -6.4873188    677.18317  0.031264228  0.031201116            8 
 1806000   0.94612476   -6.4432121    675.66834  0.031177018   0.03119404            6 
 1807000   0.96340141   -6.5116693    675.31684  0.031143555  0.031187021           12 
 1808000   0.94633062   -6.5137327    676.10999  0.031162887  0.031179841            6 
 1809000   0.95492126   -6.4904261    675.73677  0.031128467  0.031172638            5 
 1810000   0.95301696   -6.4732086    677.84212  0.031208201  0.031165543            6 
 1811000   0.95289599   -6.4477084    675.94797  0.031103809   0.03115837            8 
 1812000    0.9831945   -6.5111778    677.02012  0.031135951  0.031151105            6 
 1813000   0.94802163   -6.4670733    674.73579   0.03101378  0.031143846            4 
 1814000   0.95890625   -6.4569025    678.31603  0.031161155  0.031136658           13 
 1815000    0.9599891   -6.5217787     676.9661  0.031082007   0.03112942           10 
 1816000   0.96141021   -6.4780937    677.06011  0.031069205  0.031122047            5 
 1817000   0.95834966   -6.4935119     677.9629   0.03109351  0.031114784            4 
 1818000   0.96761447   -6.4607114    678.91046  0.031119841  0.031107549           10 
 1819000   0.94687333    -6.451632     680.1304  0.031158622   0.03110034            5 
 1820000   0.98654533   -6.5042116     677.9501  0.031041671  0.031093112            5 
 1821000   0.93604579   -6.4835161    676.30975  0.030949558  0.031085695            5 
 1822000   0.99016168   -6.5112743     676.9265   0.03096078  0.031078345           12 
 1823000   0.98071872   -6.4648739    677.35929  0.030963581  0.031070954            4 
 1824000   0.94007862   -6.4898392    678.46707  0.030997216  0.031063654            8 
 1825000   0.96467728   -6.4746701    679.34616  0.031020373  0.031056309            6 
 1826000   0.96304787   -6.4938752    679.12909  0.030993478  0.031048944            9 
 1827000    0.9477027   -6.5045019    680.01726  0.031017025  0.031041561           12 
 1828000   0.97331782   -6.5041026    678.47121  0.030929577  0.031034261            9 
 1829000   0.97131364   -6.4820577    679.13208  0.030942778  0.031026975           11 
 1830000   0.95967637   -6.4626336    681.20365  0.031020203   0.03101977            6 
 1831000    0.9564537   -6.4939447    679.54469  0.030927758  0.031012573            9 
 1832000   0.97532044   -6.5166174    680.27805  0.030944234  0.031005274           14 
 1833000   0.96323888    -6.527473    679.50784  0.030892337  0.030997964            5 
 1834000   0.94472122   -6.5102433    682.26075  0.031000579  0.030990746           15 
 1835000   0.93627383   -6.4823874    682.01567  0.030972556  0.030983558           12 
 1836000   0.96132107   -6.5196713    682.37526  0.030972007  0.030976366            8 
 1837000     0.950847   -6.5157964    683.27969  0.030996175  0.030969259            5 
 1838000   0.95327378    -6.508312    683.63215  0.030995292  0.030961994            5 
 1839000   0.96133641   -6.4793275    681.16473  0.030866627  0.030954766            5 
 1840000   0.95021316   -6.5252005    682.44136   0.03090767  0.030947493            9 
 1841000   0.96774067   -6.4824818    681.54247  0.030850193  0.030940166            6 
 1842000   0.96888585   -6.4983089    683.94022  0.030941921  0.030932874            6 
 1843000   0.96663773   -6.5190336    680.70746  0.030778959   0.03092561            8 
 1844000   0.96914443   -6.5011837    682.59995  0.030847792  0.030918157            8 
 1845000   0.96245343   -6.5279991    684.26258  0.030906169  0.030910841            4 
 1846000   0.97367188   -6.4952804     684.2535  0.030889017  0.030903621            3 
 1847000   0.96227443   -6.5073338    684.42476   0.03088002   0.03089633            7 
 1848000   0.95413272   -6.5216619    681.70966  0.030740876  0.030889104            5 
 1849000   0.95705542   -6.4915221    685.36558   0.03088902  0.030881884            5 
 1850000   0.94363828   -6.5199097     684.4432  0.030830775  0.030874556           10 
 1851000   0.94944818   -6.4810772    684.17301  0.030801954  0.030867304            3 
 1852000   0.96567827    -6.492969    684.36538  0.030793978  0.030860039            7 
 1853000   0.97535076   -6.4883508    686.36619  0.030867341  0.030852868            4 
 1854000   0.94213646   -6.5103892    684.55288  0.030769187  0.030845659           11 
 1855000   0.94598867   -6.5273788    685.98381  0.030816883  0.030838455            4 
 1856000    0.9317927   -6.5267119    684.53717  0.030735326  0.030831325            8 
 1857000   0.96245244   -6.4925885    686.69284  0.030815511  0.030824159            8 
 1858000   0.92704484   -6.4989066    688.53933  0.030881742  0.030817014            4 
 1859000   0.97369961   -6.5288064    686.75747  0.030785255  0.030809839           10 
 1860000   0.94610977    -6.504688    687.10743  0.030784383  0.030802573            5 
 1861000   0.96360439    -6.525812    686.44823  0.030738323  0.030795385            6 
 1862000   0.96225646   -6.4513302    688.04309  0.030793192  0.030788226            3 
 1863000   0.94911499   -6.4971669     689.2536   0.03083081  0.030781177            4 
 1864000   0.93817174   -6.5054969    687.62108  0.030741286   0.03077404            9 
 1865000   0.98078203   -6.5110341    688.79003  0.030777034  0.030766893            5 
 1866000   0.93288452   -6.4990032    688.99712  0.030769789  0.030759757            7 
 1867000   0.95865918    -6.517064    689.57171  0.030778955  0.030752648            5 
 1868000   0.92911125   -6.5166557    690.74834  0.030814969  0.030745435            7 
 1869000   0.94570779   -6.5297941    690.13139  0.030770973  0.030738262            5 
 1870000   0.94876992   -6.5302409    689.07387  0.030707392  0.030731019            5 
 1871000   0.94396776   -6.4918335    690.62422  0.030760031   0.03072379           10 
 1872000   0.95049445   -6.5067282    691.69315  0.030791184  0.030716611            4 
 1873000   0.95944229    -6.518086    689.93461  0.030696504  0.030709448           10 
 1874000   0.94983244   -6.5147874     691.1035  0.030732101  0.030702221            4 
 1875000   0.96511666   -6.5013431    691.81999  0.030747555  0.030695097            4 
 1876000   0.94474006   -6.4887131     688.7736  0.030595842  0.030687887           12 
 1877000   0.94903526   -6.5256118    690.71946  0.030665932  0.030680584            8 
 1878000   0.95064387    -6.515466    691.57159  0.030687415  0.030673178            6 
 1879000   0.94787629   -6.5075875     690.4837  0.030622836  0.030665773            4 
 1880000   0.96695387   -6.4850039    689.37985  0.030557617  0.030658438            4 
 1881000   0.93953839   -6.4777166    690.58897  0.030594939  0.030651022            7 
 1882000   0.94134183   -6.4961221    691.08711   0.03060074  0.030643673            5 
 1883000   0.93542484   -6.5053923    690.27523  0.030548559   0.03063627            6 
 1884000   0.92917891   -6.5212968    688.93929  0.030473252  0.030628785            3 
 1885000   0.95818313   -6.5138397    690.28548    0.0305166  0.030621186            3 
 1886000   0.94876818   -6.5209393    689.59219  0.030469786   0.03061361            3 
 1887000   0.97135886   -6.5423952    689.08858  0.030431398  0.030605985            7 
 1888000   0.94164795   -6.5119533    690.68318  0.030485663  0.030598448           14 
 1889000   0.96158797   -6.4947163    692.49328  0.030549377  0.030590981            6 
 1890000   0.95386941   -6.5295718    692.25082  0.030522523   0.03058356           11 
 1891000   0.95027106    -6.535139    691.84394  0.030488452  0.030576128            5 
 1892000   0.93399573   -6.5050844    689.95099  0.030388962  0.030568664            6 
 1893000   0.93452814   -6.4979463    692.17551  0.030470836  0.030561218           23 
 1894000   0.95119683   -6.5054122    692.14268  0.030453304  0.030553714            6 
 1895000   0.96854864   -6.5170007    690.43288  0.030362044  0.030546186            5 
 1896000   0.95406866    -6.515353    689.76086  0.030316494  0.030538661           11 
 1897000   0.96439996   -6.5174139    692.83235   0.03043544  0.030531268            7 
 1898000   0.95963887   -6.4970798    691.23555  0.030349295  0.030523788            6 
 1899000   0.96566368   -6.5370868    692.34235  0.030381883   0.03051638           15 
 1900000   0.91370344   -6.5014991    693.71498  0.030426096  0.030508984           18 
 1901000   0.95585781   -6.5471393    693.92718  0.030419393   0.03050154           15 
 1902000   0.93401369   -6.5207951    693.37924  0.030379392  0.030494103            4 
 1903000   0.93836434   -6.5179754    694.57898  0.030415965  0.030486652           10 
 1904000   0.96510334   -6.5481755    694.48183  0.030395738  0.030479199           10 
 1905000   0.93280667   -6.5274257    694.50998  0.030381014  0.030471725            8 
 1906000   0.94542504   -6.5162039    693.45487  0.030318943  0.030464284            5 
 1907000   0.92261497   -6.5348781    694.16237  0.030333961  0.030456787            5 
 1908000   0.94617083   -6.5344076    695.55486  0.030378881  0.030449326            7 
 1909000   0.93949612   -6.5455744    695.52755  0.030361776  0.030441842            7 
 1910000   0.96412534   -6.5218587    695.55469  0.030347063  0.030434501            5 
 1911000    0.9596808   -6.5253501    696.40516   0.03036827  0.030427122            5 
 1912000   0.93977503   -6.5151935     696.1748  0.030342347  0.030419727            4 
 1913000    0.9501967   -6.5297591    696.46906  0.030339304  0.030412418            2 
 1914000   0.94313653   -6.5248316    696.77838   0.03033692  0.030405033            5 
 1915000   0.95962126   -6.5474693     695.8839  0.030282154  0.030397603            7 
 1916000   0.96456741   -6.5109293     696.8204  0.030307081  0.030390234           12 
 1917000   0.94320043   -6.5380545    698.95127  0.030383901  0.030382909            5 
 1918000   0.93394661   -6.5292243    697.50405  0.030305181  0.030375634            9 
 1919000   0.94580912    -6.521472    697.46578  0.030287727  0.030368282            8 
 1920000   0.94678578   -6.5411614    698.43003  0.030313804  0.030360888            9 
 1921000   0.94101066   -6.5256663    700.27294  0.030377969  0.030353573            4 
 1922000   0.94671796   -6.5110537    699.21235  0.030316179  0.030346308            5 
 1923000   0.93168653   -6.4936003    700.39088  0.030351485  0.030339102            8 
 1924000   0.95590476   -6.5155558    699.87998  0.030313582  0.030331762           24 
 1925000   0.94521571   -6.4976343    698.21044   0.03022556  0.030324377            5 
 1926000   0.94106579   -6.5357161    699.50194  0.030265747   0.03031702            8 
 1927000   0.95313311   -6.5651276    701.23293  0.030324897  0.030309734            8 
 1928000   0.93715212   -6.5159505      700.013   0.03025644  0.030302406           12 
 1929000   0.92515471    -6.500069    701.55183  0.030307233  0.030295071           14 
 1930000   0.93255164   -6.5421321    697.83419   0.03013101  0.030287693            6 
 1931000   0.95206642    -6.522428    699.66201  0.030194287  0.030280342            6 
 1932000   0.95037812   -6.5063239    701.84207  0.030272691  0.030272986            7 
 1933000   0.94944507   -6.5408292    702.16163  0.030270806  0.030265645            3 
 1934000    0.9501889   -6.5324619    700.38919  0.030178783  0.030258378            5 
 1935000    0.9405029   -6.4906022    702.73157  0.030264064  0.030251102            6 
 1936000   0.96447424   -6.5491895    701.20232  0.030182607  0.030243787            7 
 1937000   0.94182598   -6.5135978    701.75696  0.030190886  0.030236478            6 
 1938000   0.94926553   -6.5124852     701.9786  0.030184838   0.03022918            9 
 1939000   0.95118167   -6.5164652    702.07707  0.030173503  0.030221898            7 
 1940000   0.95580928    -6.524231    700.78122  0.030102286  0.030214435            5 
 1941000   0.93256315   -6.5285067    701.20748  0.030105078  0.030206943           10 
 1942000   0.92827827   -6.5777845     700.9306  0.030077695  0.030199446           10 
 1943000   0.94980656   -6.5455854    701.93005   0.03010508  0.030191888            5 
 1944000   0.93355728   -6.5259347      700.671  0.030035622  0.030184521           10 
 1945000    0.9395605   -6.5123185    704.10178  0.030167171    0.0301772            3 
 1946000   0.94295517   -6.5328393    702.70162   0.03009171  0.030169764            4 
 1947000   0.94715673   -6.5383692    702.30712   0.03005937   0.03016231            6 
 1948000   0.95787621   -6.5537837    702.48434   0.03005152  0.030154865            6 
 1949000   0.91602283   -6.5183734    702.72953  0.030046585  0.030147299            9 
 1950000   0.95605927   -6.5523759      701.709  0.029987564  0.030139797           17 
 1951000   0.93511515   -6.5288553    702.41047  0.030002156  0.030132298            5 
 1952000   0.94239222    -6.566237    704.75155   0.03008673  0.030124842           13 
 1953000   0.93379695   -6.5439588     704.7478  0.030071164  0.030117431            7 
 1954000   0.93201572   -6.5378481    703.96455  0.030022371   0.03010995            5 
 1955000    0.9370497   -6.5304276    703.57735  0.029990509  0.030102451            5 
 1956000   0.93593022   -6.5445039    704.14227  0.029999244   0.03009503           11 
 1957000   0.92018425    -6.549301    704.97168  0.030019233  0.030087534            5 
 1958000   0.92828437   -6.5371606    703.51386  0.029941857  0.030080008            4 
 1959000   0.95721001   -6.5324279    705.48597  0.030010463   0.03007255            7 
 1960000   0.92114156   -6.5539384    704.77318  0.029964846   0.03006498            7 
 1961000   0.94788642   -6.5355476    706.44018  0.030020405  0.030057444            5 
 1962000   0.93016816   -6.5421457    705.92294  0.029983135  0.030050044            6 
 1963000    0.9445118    -6.538711    705.81721  0.029963373   0.03004266            5 
 1964000   0.95910769   -6.5128605    705.49572  0.029934475  0.030035287            9 
 1965000   0.91436031   -6.5459199    706.41359  0.029958167  0.030027969            9 
 1966000   0.92366421   -6.5198047    707.37843  0.029983826  0.030020596            8 
 1967000   0.94190981   -6.5309721    706.38336  0.029926426  0.030013183            8 
 1968000   0.94293172   -6.5167346    707.39139  0.029953904  0.030005815            6 
 1969000   0.94243323   -6.5420661     706.6313  0.029906522   0.02999839            8 
 1970000   0.93738376   -6.5552766    706.27272  0.029876173  0.029990996            7 
 1971000   0.94279499   -6.5798659    707.83342  0.029927001    0.0299835            5 
 1972000   0.92744841   -6.5322531    708.04924  0.029920945  0.029976052            3 
 1973000   0.92854388   -6.5702426    708.61743  0.029929778  0.029968564            6 
 1974000    0.9367071    -6.537608     709.2109   0.02993967  0.029961011            5 
 1975000   0.93543297   -6.5467089    706.61342  0.029814912   0.02995352            6 
 1976000   0.93939559   -6.5228758    706.62271  0.029800216  0.029946061            7 
 1977000   0.93384421   -6.5164624    707.29327  0.029813407  0.029938538            9 
 1978000   0.93224025   -6.5631889    706.21995  0.029753115  0.029931027            6 
 1979000   0.92882158   -6.5466194    707.79617  0.029804454   0.02992344            9 
 1980000    0.9403773   -6.5443262     707.0664  0.029758687  0.029915772            7 
 1981000   0.94556677    -6.543493    707.10741   0.02974539  0.029908191            8 
 1982000   0.95990722   -6.5332662    708.56378  0.029791615  0.029900641            6 
 1983000     0.931583   -6.5504056    706.74409  0.029700122  0.029893135            4 
 1984000   0.94743078   -6.5421265    709.30798  0.029792842  0.029885496            5 
 1985000   0.94180994   -6.5149677    708.73089  0.029753606    0.0298779            8 
 1986000   0.91113686   -6.5426547    710.51479  0.029813477  0.029870254            6 
 1987000   0.92308554   -6.5571326    705.51805  0.029588913  0.029862547            6 
 1988000    0.9201427   -6.5565223    705.98614  0.029593651  0.029854892            6 
 1989000   0.91151335   -6.5595835    709.45002  0.029723899  0.029847231            4 
 1990000    0.9446602   -6.5294531    709.51297  0.029711598  0.029839632           11 
 1991000   0.92848212   -6.5551692    708.81192  0.029667333  0.029832071            9 
 1992000   0.93251035   -6.5413307     710.2488   0.02971255  0.029824448            4 
 1993000   0.94478164   -6.5441186    711.92728  0.029767824  0.029816859            8 
 1994000   0.92469748   -6.5742046    709.24319  0.029640722   0.02980924            3 
 1995000   0.93779503   -6.5615696    710.46957  0.029677092  0.029801621            4 
 1996000   0.94344254   -6.5657272    710.48965  0.029663062   0.02979391           10 
 1997000   0.93370572   -6.5432978    712.60436  0.029736453  0.029786263            9 
 1998000   0.92622288   -6.5287127    711.20549  0.029663225  0.029778593            7 
 1999000   0.92409764   -6.5541982    710.34356  0.029612454  0.029770901           11 
 2000000   0.93666667   -6.5516418    710.26464   0.02959436  0.029763217            9 
 2001000   0.92357336   -6.5486171    712.34659  0.029666275  0.029755596            9 
 2002000   0.92228872   -6.5571836    711.53029  0.029617478  0.029748031           14 
 2003000   0.93137735   -6.5445647    710.63988  0.029565647   0.02974044            5 
 2004000   0.93037979   -6.5551913    712.06518  0.029610162  0.029732933            6 
 2005000   0.92015003   -6.5331426    712.17181  0.029599826  0.029725415            6 
 2006000   0.93581166   -6.5394061    712.90717  0.029615619  0.029717899            5 
 2007000   0.92717332   -6.5353679    714.20684  0.029654827  0.029710433            6 
 2008000   0.94507271   -6.5604026    713.68784  0.029618519  0.029702962            8 
 2009000   0.91341731    -6.575097     713.5661  0.029598726  0.029695482            8 
 2010000   0.93812359    -6.525753    714.22677  0.029611392   0.02968794            8 
 2011000   0.95584154   -6.5779473    713.73458  0.029576271  0.029680409            8 
 2012000   0.92880352    -6.517857    714.77184  0.029604533  0.029672855            8 
 2013000   0.92837017   -6.5402123    714.30132  0.029570348  0.029665376            6 
 2014000   0.92350032    -6.529409    716.38768  0.029641993  0.029657816            4 
 2015000   0.92339822   -6.5361663    714.45267  0.029547257   0.02965032            6 
 2016000   0.94067305   -6.5495348    714.47994  0.029533728  0.029642882           16 
 2017000   0.93147118   -6.5758524    716.21748  0.029590872   0.02963536            7 
 2018000   0.92182197   -6.5655947    715.85966  0.029561433  0.029627781            5 
 2019000   0.91585004   -6.5455026    715.47227  0.029530802  0.029620211            7 
 2020000    0.9271758   -6.5857108    716.04131  0.029539658   0.02961268           10 
 2021000   0.93357998   -6.5765189    715.85137   0.02951721  0.029605156           16 
 2022000   0.94757597   -6.6003265    716.30222  0.029521193  0.029597601            7 
 2023000   0.93659333   -6.5710908    716.10515  0.029498482  0.029590102            5 
 2024000   0.91877942   -6.5564536    717.33174  0.029534409  0.029582635           10 
 2025000   0.95183768   -6.5427019    715.23346  0.029433476  0.029575188           11 
 2026000   0.93524405   -6.5584167    717.58653  0.029515734  0.029567707           11 
 2027000   0.92335897   -6.5659589    716.07618   0.02943908  0.029560248            3 
 2028000   0.93142447   -6.5349489     718.6676  0.029531048  0.029552804            8 
 2029000   0.94259676   -6.5292999    719.40593  0.029546818   0.02954542           10 
 2030000   0.91194668   -6.5480375    719.59277  0.029539933  0.029538175            3 
 2031000   0.95379667   -6.5196101    718.82931  0.029494063  0.029530904            6 
 2032000   0.93557662   -6.5696532    719.66684  0.029513896  0.029523677            6 
 2033000   0.92840572   -6.5787145    718.03263  0.029432392  0.029516329            8 
 2034000   0.93112148   -6.5635301    719.21482  0.029466356  0.029509014            5 
 2035000   0.93271005   -6.5630555    716.57977  0.029343971  0.029501625            5 
 2036000   0.93320594   -6.5524107    719.68951   0.02945684  0.029494348            5 
 2037000   0.94109671   -6.5544266    722.26007   0.02954754  0.029487131            8 
 2038000    0.9155778   -6.5475829    723.08537  0.029566788  0.029480021            6 
 2039000   0.93405505    -6.548385     721.0071  0.029467349  0.029472895           12 
 2040000   0.93216825   -6.5611976    722.45964   0.02951224   0.02946575            8 
 2041000    0.9183302   -6.5707824    722.15892  0.029485502  0.029458554           10 
 2042000   0.91204866   -6.5510927    721.14189  0.029429558  0.029451336           12 
 2043000   0.94566592   -6.5822816    722.02771  0.029451285   0.02944416            5 
 2044000   0.93036104   -6.5603546    721.73425  0.029424912  0.029436928            5 
 2045000   0.91695618   -6.5777442    722.54337  0.029443495  0.029429719            8 
 2046000     0.909256   -6.5632936    722.98797  0.029447213  0.029422506            7 
 2047000   0.94212566   -6.5742949    722.82689   0.02942627   0.02941532            6 
 2048000   0.92931536   -6.5704913    724.14181  0.029465406  0.029408145            7 
 2049000   0.94081366   -6.5780918    720.26595  0.029293393  0.029400941            6 
 2050000   0.92951135   -6.6025752    723.27453  0.029401404   0.02939375            4 
 2051000   0.93470688   -6.5462681    724.26998  0.029427514  0.029386645            7 
 2052000   0.93296918   -6.5823843     722.9562   0.02935982  0.029379553            9 
 2053000   0.92123368   -6.6072831    724.17391  0.029394947  0.029372408           22 
 2054000    0.9174876   -6.5324212     725.1691  0.029421012  0.029365261            5 
 2055000   0.92931343   -6.5776332    725.36651    0.0294147  0.029358139            5 
 2056000   0.92611435   -6.5697126    725.24009   0.02939527  0.029351001            7 
 2057000   0.91430723   -6.5773627    723.09297  0.029293995   0.02934397            5 
 2058000   0.91012043   -6.5555458    728.32632  0.029491671  0.029336909            5 
 2059000   0.92103513   -6.6265412    726.10928  0.029387619  0.029329911            8 
 2060000   0.91811015   -6.5867912    726.76276  0.029399788  0.029322885           10 
 2061000    0.9389097   -6.5601396    725.52417  0.029335443  0.029315904            9 
 2062000   0.92730444   -6.5708998    729.58286  0.029485243  0.029308917            6 
 2063000   0.93609032   -6.5860779    726.54897  0.029348399  0.029302064            8 
 2064000   0.92051587   -6.5839501    726.98119  0.029351631  0.029295139            9 
 2065000   0.93185232   -6.5812599    726.68792  0.029325582   0.02928811            7 
 2066000   0.92518855   -6.5681072     727.9671  0.029362984   0.02928113           14 
 2067000   0.90519505   -6.5987338    726.43598  0.029287049  0.029274033           10 
 2068000   0.94437371   -6.5538307    730.19343    0.0294243  0.029267014            6 
 2069000    0.9019423   -6.5633222    727.63659  0.029307097  0.029260024           10 
 2070000   0.92583551    -6.591597    727.07489  0.029270326  0.029252946            9 
 2071000   0.89963043   -6.5780557    728.68033  0.029320792  0.029245908            6 
 2072000   0.90076131   -6.5806356    727.65183  0.029265276  0.029238889            6 
 2073000   0.90681551   -6.5748611    729.01097  0.029305796  0.029231823            9 
 2074000    0.9141857   -6.5808225    728.91223  0.029287698  0.029224692            7 
 2075000   0.93113987   -6.5935539    729.17447  0.029284115  0.029217568            3 
 2076000   0.89236184   -6.5620732    728.80768  0.029255286  0.029210512           15 
 2077000   0.93029547   -6.5276969    730.24109  0.029298712  0.029203574           11 
 2078000   0.92897773   -6.5641796    729.34255  0.029248578  0.029196567           13 
 2079000   0.91176184   -6.5912979     731.1593  0.029307331  0.029189634            9 
 2080000   0.89642886   -6.5837497    731.29711  0.029298762  0.029182637           10 
 2081000   0.93158676   -6.5345814    730.19864  0.029240695  0.029175722            8 
 2082000   0.91891218   -6.6018509    730.63957  0.029244299  0.029168808           15 
 2083000   0.93711708   -6.5895671      731.255  0.029254881  0.029161905           11 
 2084000   0.90506388   -6.5910504    730.83892  0.029224205  0.029154944           15 
 2085000   0.92840639   -6.5675434    730.23408  0.029186014  0.029147985           12 
 2086000   0.92913448   -6.5604516    731.74161  0.029232247  0.029141026           25 
 2087000   0.92462597   -6.5488194     732.8449  0.029262294  0.029134099            3 
 2088000   0.91550822   -6.5879511    731.55189  0.029196675  0.029127214            5 
 2089000   0.90850747   -6.5872136    732.61074  0.029224938  0.029120321           12 
 2090000   0.92680022    -6.555886    732.26937  0.029197343  0.029113437           11 
 2091000   0.92967406   -6.5780831    733.39737  0.029228334  0.029106495            5 
 2092000   0.92481492   -6.5893071    731.56197  0.029141251  0.029099504            8 
 2093000   0.92428424   -6.5794865     732.5629   0.02916718  0.029092576            5 
 2094000   0.90969303   -6.5661089    731.96381   0.02912941  0.029085576           10 
 2095000   0.90885759   -6.5980535    730.79799  0.029069132  0.029078546            5 
 2096000   0.91910875    -6.557933    733.87556  0.029177623    0.0290715            7 
 2097000   0.92234687   -6.5525416    734.78521  0.029199857  0.029064561           10 
 2098000   0.90054055   -6.5651916    732.25604   0.02908548  0.029057629            8 
 2099000   0.94072047   -6.5822911    730.96316  0.029020294   0.02905068            8 
 2100000   0.92522406   -6.6006924    733.59663  0.029110977  0.029043712            8 
 2101000   0.93568929   -6.6165866     734.7576   0.02914317  0.029036743           12 
 2102000   0.90219673   -6.5999199    736.39143  0.029194078  0.029029732           11 
 2103000   0.92704637   -6.5692983    735.00461  0.029125242  0.029022746            6 
 2104000   0.90782429   -6.5814498    732.66784  0.029018847  0.029015774            8 
 2105000   0.90996525   -6.5783039    736.47706  0.029155861  0.029008774            7 
 2106000   0.92294724   -6.5740995    733.77898  0.029035255  0.029001709            9 
 2107000   0.92360296    -6.579914    733.38947   0.02900607  0.028994736            4 
 2108000   0.91937382   -6.5704758    734.42511  0.029033251  0.028987754            6 
 2109000   0.92683938    -6.595897    735.87961  0.029076956  0.028980774           11 
 2110000   0.92111454   -6.6281141    736.14679  0.029073728  0.028973774           19 
 2111000   0.91144235   -6.5638746    736.79659  0.029085607  0.028966862           17 
 2112000   0.91917605   -6.5777397     737.2986  0.029091643  0.028959946            4 
 2113000    0.9149933   -6.5949563    736.54671  0.029048222  0.028952986            8 
 2114000   0.91203149   -6.5980896    737.39308  0.029067845  0.028946008           10 
 2115000   0.89595967   -6.5526236    737.03555  0.029040014  0.028939041           15 
 2116000   0.90475336   -6.5859167    736.93103  0.029022173  0.028932112            5 
 2117000   0.91995474   -6.5781986    736.48307  0.028990831  0.028925083            7 
 2118000   0.90459656   -6.5821939    735.78548  0.028949696  0.028918119            9 
 2119000   0.92454403   -6.5785146    734.29881  0.028877569  0.028911152            7 
 2120000   0.88925195   -6.5917839    736.98556  0.028969558    0.0289042            6 
 2121000   0.91065945   -6.5840638    738.19628  0.029003468  0.028897218           10 
 2122000   0.90982773   -6.5954418    737.23482  0.028952043  0.028890173           13 
 2123000   0.90534596   -6.6055577    736.18819  0.028897323  0.028883117            7 
 2124000   0.91037626   -6.5804855    739.61138  0.029018023  0.028876094            5 
 2125000   0.90251337   -6.6040781    735.95069  0.028860811  0.028869041            9 
 2126000   0.93249993   -6.5892365    737.60213  0.028911968  0.028862041            6 
 2127000   0.90238665   -6.5795582    738.95834   0.02895151  0.028854977           14 
 2128000   0.90979489   -6.5671985    737.83103  0.028893759   0.02884796            5 
 2129000   0.90976732    -6.599622    738.71458  0.028914771  0.028840935           10 
 2130000   0.92659479   -6.6093001    736.55926  0.028816872  0.028833862            4 
 2131000   0.92209644   -6.5795835    739.49908  0.028918312  0.028826779            5 
 2132000   0.91391559   -6.5617596    738.46074  0.028864163   0.02881974            9 
 2133000   0.90185123    -6.624687    738.72561  0.028860979  0.028812715            6 
 2134000   0.92642214   -6.5869647    740.39265  0.028912553  0.028805712            3 
 2135000   0.89865978   -6.5619828    739.79134   0.02887554  0.028798742            9 
 2136000   0.90032088   -6.5949365    739.40117    0.0288468  0.028791797            9 
 2137000   0.92042109   -6.5995946    739.86211  0.028851275    0.0287849            7 
 2138000   0.92793162   -6.5452314    739.94852  0.028841149  0.028778002            6 
 2139000   0.91802065   -6.5645025    740.51493  0.028849732  0.028771043           14 
 2140000   0.92471591   -6.6002206    741.94746  0.028892035  0.028764101            6 
 2141000   0.89969525   -6.5932699    741.20981  0.028849829  0.028757119            8 
 2142000   0.90493027   -6.5824259    741.66689  0.028854143  0.028750165            8 
 2143000   0.91229045   -6.6003089    740.45543  0.028793569  0.028743215            6 
 2144000   0.90715985   -6.5834316    741.35913  0.028815265  0.028736272            6 
 2145000   0.89477685    -6.585406    741.51211  0.028807774  0.028729409            4 
 2146000   0.91872699   -6.6093987    742.60591  0.028836825  0.028722497            3 
 2147000   0.90803436   -6.6247413    741.32173   0.02877355  0.028715527            7 
 2148000   0.91162967   -6.5714481    744.35613  0.028877876  0.028708603            5 
 2149000   0.93331525   -6.5952911    743.32826  0.028824579   0.02870169            8 
 2150000   0.90179158   -6.6300206    742.29048  0.028770949  0.028694766            9 
 2151000   0.90826672   -6.5795204    742.03923  0.028747839  0.028687804            6 
 2152000   0.90229102   -6.5942943    744.95012  0.028847201  0.028680871           10 
 2153000   0.88786813   -6.5975431    742.27312  0.028730187  0.028673954           12 
 2154000   0.92604976   -6.5894788    744.94122  0.028820072  0.028667054            7 
 2155000    0.8961834   -6.5836931    744.95035  0.028807051  0.028660232            6 
 2156000   0.89414778   -6.5882762    743.95857  0.028755356   0.02865336            6 
 2157000   0.90817921   -6.6004433    745.12369  0.028787038  0.028646435            7 
 2158000   0.90313148   -6.5958339    744.60145  0.028753532  0.028639621            6 
 2159000   0.87399502   -6.5672406    745.15609  0.028761622  0.028632738           10 
 2160000   0.89670612   -6.5970753    742.76034  0.028655877  0.028625824            4 
 2161000   0.91530538   -6.5771446    745.72676  0.028757009  0.028618968           11 
 2162000   0.89976397    -6.626261    746.07856  0.028757268  0.028612147           12 
 2163000   0.91479082   -6.5971345    744.72836  0.028691954  0.028605273            8 
 2164000   0.90990841   -6.5844229    745.64832  0.028714122  0.028598486            9 
 2165000   0.91047631   -6.6198721    744.87133  0.028670952  0.028591589            3 
 2166000   0.90042779    -6.607049    745.58444  0.028685151  0.028584708            7 
 2167000   0.90908081   -6.5783397    745.92055  0.028684839  0.028577791            5 
 2168000   0.93192036   -6.6080795     744.9984  0.028636162  0.028570956            8 
 2169000   0.91523188    -6.594829    747.68416  0.028726147  0.028564087            5 
 2170000   0.91290071   -6.6107299     745.8017  0.028640618  0.028557242            4 
 2171000   0.89961418   -6.5968631    747.47209  0.028691543  0.028550364           13 
 2172000   0.90532372   -6.6132514    747.57415  0.028682249  0.028543531            8 
 2173000   0.89612742   -6.5833987    745.60951  0.028593707  0.028536735            5 
 2174000    0.9089613   -6.6132286    746.34234  0.028608645  0.028529932            6 
 2175000   0.90935636   -6.6015297    748.19058  0.028666306  0.028523168           12 
 2176000   0.87374331   -6.6178424    747.91905  0.028642733  0.028516288            5 
 2177000    0.9082456   -6.5808579    749.76692  0.028700311  0.028509541           10 
 2178000   0.90720231   -6.6022603    747.94242  0.028617326  0.028502808            8 
 2179000   0.92151125   -6.6232646    749.78762   0.02867476   0.02849605           10 
 2180000   0.91495371   -6.5923861    748.33011  0.028605891  0.028489364            6 
 2181000   0.94552466   -6.5882915    749.71839   0.02864582  0.028482645            8 
 2182000    0.8927862   -6.6047927    750.51963  0.028663292  0.028475964            9 
 2183000   0.90279511    -6.610144    748.70725  0.028580976  0.028469221            8 
 2184000   0.91570702   -6.5881348    749.74078  0.028607325  0.028462388            5 
 2185000   0.92161967   -6.6337568    750.05887  0.028606364  0.028455582            7 
 2186000   0.90730897   -6.6104663    750.48431  0.028609496  0.028448796           13 
 2187000   0.91138551    -6.605822    748.63758  0.028526047  0.028442005            7 
 2188000   0.88582232   -6.6198959    752.48368  0.028659494  0.028435205            8 
 2189000   0.88835447    -6.642533    751.74836  0.028618409   0.02842846            9 
 2190000   0.89638088   -6.5922169    750.46959  0.028556682  0.028421712            6 
 2191000   0.90343514   -6.5933597    749.39631  0.028502826  0.028414952            7 
 2192000   0.91551734   -6.5943524    751.13828  0.028556048  0.028408154            7 
 2193000   0.90034673   -6.6017046    751.55199  0.028558747  0.028401478            7 
 2194000   0.88141762   -6.5966469    753.23442  0.028609633  0.028394747            6 
 2195000   0.90663475   -6.6445985    750.45123  0.028490935  0.028387941            5 
 2196000    0.9046075   -6.5876988    751.43732  0.028515381  0.028381138           19 
 2197000   0.91726007   -6.5925776    751.65048  0.028510487  0.028374407           10 
 2198000    0.8984567   -6.5995123    752.07486  0.028513605  0.028367736            6 
 2199000   0.89697804    -6.587665    752.26917  0.028508002   0.02836101            5 
 2200000   0.89744922   -6.6113589    754.39313  0.028575497  0.028354364            6 
 2201000   0.89371506   -6.5946313    755.46573  0.028603125  0.028347697            6 
 2202000   0.89559612   -6.6191256    754.15759  0.028540629  0.028340988            5 
 2203000   0.89056996   -6.6387084    750.80592   0.02840089  0.028334342           13 
 2204000   0.90464783   -6.6121733    754.27414  0.028519137  0.028327627            7 
 2205000    0.9389743   -6.5778856    754.41313  0.028511456  0.028320946           11 
 2206000   0.89246449   -6.5918494     754.0875  0.028486231  0.028314253            7 
 2207000   0.91234197   -6.6153255    755.48755  0.028526188  0.028307573            7 
 2208000   0.89836298   -6.6226211    754.78886  0.028486898  0.028300883            9 
 2209000    0.9096135   -6.6215776    753.00963  0.028406882  0.028294187            8 
 2210000   0.91248298   -6.6268216    755.64276  0.028493317  0.028287542            9 
 2211000   0.88771202   -6.6217704     755.1607  0.028462261  0.028280857           10 
 2212000   0.91572759   -6.6073449    754.74033  0.028433557  0.028274215            5 
 2213000   0.89063899   -6.6329112    756.27865  0.028478636  0.028267551            9 
 2214000    0.8798725   -6.6123177    756.61382  0.028478388  0.028260857            5 
 2215000   0.90600301    -6.639943    756.12194  0.028447025  0.028254229            6 
 2216000   0.88941257   -6.6421944    754.40535  0.028369636   0.02824758           11 
 2217000   0.89389631   -6.6139968    755.47578  0.028397075  0.028240914           10 
 2218000    0.8930194   -6.5781958    756.58739  0.028426037  0.028234228            4 
 2219000   0.88766339   -6.6310133    755.91601  0.028388013  0.028227563           14 
 2220000    0.9015382   -6.6168771    758.85979  0.028485728  0.028220897            8 
 2221000   0.88605138   -6.5868922    757.94872  0.028438718   0.02821423            7 
 2222000   0.89360807   -6.6634592    755.74233  0.028343172  0.028207523            5 
 2223000   0.90206737   -6.6425486     756.5783   0.02836176  0.028200829           34 
 2224000   0.88045151   -6.6493092     757.2985  0.028375993  0.028194114            7 
 2225000   0.87363045   -6.6234579    757.64998  0.028376404  0.028187372           12 
 2226000   0.90643981   -6.6300972     758.7321  0.028404166  0.028180725            8 
 2227000   0.88139294   -6.6328189    757.28929  0.028337423  0.028174035            3 
 2228000   0.90300653   -6.6350083    757.85925  0.028346022  0.028167354            7 
 2229000    0.8875627    -6.612528    759.00383  0.028376097  0.028160659           12 
 2230000   0.91504594    -6.610217    759.50897  0.028382249  0.028153985           11 
 2231000   0.88270163   -6.5970013     756.3949  0.028253209  0.028147277            9 
 2232000   0.91601075   -6.6079155    757.92853   0.02829781  0.028140597           17 
 2233000   0.89617597   -6.6527044    757.94419  0.028285721   0.02813385           10 
 2234000   0.89500432   -6.6069006    756.98382  0.028237236   0.02812707           14 
 2235000   0.89734742   -6.5983241    756.70721  0.028214288  0.028120305            4 
 2236000   0.89994528   -6.6195825     758.9126  0.028283863  0.028113626           19 
 2237000    0.8940388   -6.5998204    759.45201  0.028291313  0.028106898           11 
 2238000   0.90380381   -6.6258896    758.24591  0.028233762  0.028100183            5 
 2239000   0.89569224   -6.6316515    758.11811  0.028216395  0.028093463            9 
 2240000   0.90149868    -6.634922    759.40931  0.028251835  0.028086724           15 
 2241000   0.88733639   -6.6015821    760.07115  0.028263839  0.028079937            7 
 2242000   0.88628995   -6.6510264    759.34366  0.028224192   0.02807326           20 
 2243000   0.88170132   -6.6328139    759.87483  0.028231343  0.028066425            7 
 2244000   0.88106826   -6.6171278    758.40877  0.028164319  0.028059682            6 
 2245000     0.896798   -6.6249557    761.55524  0.028268569   0.02805291            7 
 2246000   0.93198917     -6.60065    762.77789  0.028301347  0.028046188            9 
 2247000   0.89976141    -6.622152    760.02197  0.028186544  0.028039399           16 
 2248000    0.9064542   -6.6076477    759.56748  0.028157158  0.028032573           12 
 2249000   0.88568961   -6.6500239    759.01925  0.028124324  0.028025742           11 
 2250000    0.8777924   -6.6779917    759.59071  0.028132989  0.028018846            5 
 2251000   0.88853699   -6.6152074    759.74715  0.028126283  0.028011957            6 
 2252000   0.89737528   -6.6052116    758.86681  0.028081217  0.028005129            9 
 2253000   0.90387784   -6.6471682    761.05995  0.028149872  0.027998279           10 
 2254000   0.89214247   -6.6544192    760.41525  0.028113548  0.027991375            8 
 2255000   0.88292838    -6.651092    759.62202  0.028071767  0.027984513            6 
 2256000   0.88963724   -6.6499331    759.97564  0.028072386  0.027977586           11 
 2257000   0.89093071   -6.6308791     762.4257   0.02815041  0.027970716            6 
 2258000   0.88521106   -6.6480023    760.97245  0.028084309  0.027963924            9 
 2259000   0.88246721   -6.6166468    762.05052  0.028111647  0.027957141            5 
 2260000   0.88338216   -6.6315116    760.25521  0.028033009   0.02795037           12 
 2261000   0.90158749   -6.6420123    761.42307  0.028063654  0.027943473            9 
 2262000   0.89475762   -6.6139698    759.97822  0.027998019   0.02793663            9 
 2263000   0.88736822    -6.652963    762.19376  0.028067232  0.027929746            9 
 2264000   0.89096623   -6.6467037    760.28449  0.027984559  0.027922891           11 
 2265000   0.89310628   -6.6399421    762.53054   0.02805484  0.027916012            4 
 2266000   0.88314156    -6.637203    760.56781  0.027970278   0.02790912            6 
 2267000   0.88852926   -6.6745846    760.71696  0.027963423  0.027902249            6 
 2268000   0.88325377   -6.6263637    761.77422  0.027989941  0.027895379            3 
 2269000   0.89979685   -6.6314363    764.20592  0.028066914  0.027888581            9 
 2270000   0.88134519    -6.614943    762.46601  0.027990676    0.0278817           12 
 2271000   0.91574388   -6.6374629    760.25226  0.027897118  0.027874782            9 
 2272000   0.89788783   -6.5988843    762.34157  0.027961472  0.027867884           19 
 2273000   0.89107613   -6.6419757    763.25245  0.027982565  0.027861028           23 
 2274000   0.89845253   -6.6822156    760.68949  0.027876337  0.027854092            8 
 2275000   0.89687367   -6.6148048    762.76578  0.027940138  0.027847124           12 
 2276000     0.862752   -6.6119756    764.36425  0.027986389  0.027840261            6 
 2277000   0.88976996   -6.6479761    762.32942  0.027899627  0.027833359           10 
 2278000    0.8766739    -6.634387    762.19848   0.02788259  0.027826391           23 
 2279000   0.88860889   -6.6655075    762.45013  0.027879557  0.027819399           17 
 2280000   0.88174536   -6.6463748    762.10416  0.027854684  0.027812408           13 
 2281000   0.87870535   -6.6389766    765.02176  0.027949063  0.027805524            6 
 2282000   0.89452737   -6.6145011    763.76837  0.027891045  0.027798616            8 
 2283000   0.87268674   -6.6276706    762.43843  0.027830283  0.027791746           10 
 2284000   0.89121755   -6.6178595    763.10147   0.02784229  0.027784894            3 
 2285000   0.89479738   -6.6310381    763.83261  0.027856769  0.027777973            6 
 2286000   0.88994095   -6.6313758    765.13271  0.027891977  0.027771085           15 
 2287000   0.88854802   -6.5970647    765.03363  0.027876171  0.027764197            6 
 2288000   0.87918136   -6.6582064    764.99861  0.027862712  0.027757322            7 
 2289000   0.89936561   -6.6389383    765.50258  0.027868887  0.027750337           21 
 2290000   0.87658744   -6.6294613    764.39431  0.027816387  0.027743367           15 
 2291000   0.88463692   -6.6324858    763.30904  0.027764769  0.027736377            9 
 2292000   0.87819127    -6.672696    763.56735  0.027762047  0.027729419           12 
 2293000    0.8644182   -6.6508498    765.66924  0.027826328  0.027722479           10 
 2294000   0.88512612   -6.6426871    767.58188  0.027883678  0.027715507           14 
 2295000   0.87745304   -6.5835013    764.94259  0.027775693  0.027708603            5 
 2296000   0.89249802   -6.6405609    765.00492  0.027765858  0.027701653           14 
 2297000   0.88727319   -6.6595655    765.29343  0.027764237  0.027694742            5 
 2298000   0.88192641   -6.6434532    765.78359   0.02776993   0.02768778           13 
 2299000   0.89121679    -6.623213     766.4976  0.027783732  0.027680803            6 
 2300000    0.8641758   -6.6499557    765.85471  0.027748359  0.027673875           11 
 2301000   0.87891135   -6.6561633    764.54206  0.027688761  0.027666898           11 
 2302000   0.89122995   -6.6299345    765.39221  0.027707508  0.027659863            7 
 2303000   0.88049455   -6.6437164    764.96819  0.027680134  0.027652867            6 
 2304000   0.89620799   -6.6720797    766.50574  0.027723732   0.02764586            9 
 2305000   0.90038292   -6.6308528    765.34325  0.027669676  0.027638814            7 
 2306000   0.87227935   -6.6409442    765.22674  0.027653467  0.027631732            8 
 2307000   0.87718008   -6.6487617    764.31543  0.027608562  0.027624662            5 
 2308000   0.88922768   -6.6529558    766.90137  0.027689968  0.027617624           13 
 2309000   0.88193915     -6.64008    766.10711  0.027649311  0.027610604           12 
 2310000   0.88359366   -6.6470796    765.46342  0.027614121  0.027603505            5 
 2311000    0.8597215    -6.632059    764.13899  0.027554413  0.027596336           23 
 2312000   0.88489417   -6.6409008    765.09994  0.027577132  0.027589215           16 
 2313000   0.87885007   -6.6228289    765.46193  0.027578251  0.027582093            9 
 2314000   0.89088148   -6.6487382    767.38756   0.02763568  0.027574985           10 
 2315000   0.89426072   -6.6653446    767.71864   0.02763566  0.027567883           10 
 2316000   0.87197305     -6.64145    767.82525  0.027627564  0.027560779            7 
 2317000   0.87722184   -6.6391967    766.52626   0.02756892  0.027553645           14 
 2318000   0.88945857   -6.6690554    767.15836  0.027579751  0.027546533            9 
 2319000   0.89040148   -6.6365469    767.12842  0.027566782  0.027539407           14 
 2320000   0.89103055   -6.6452136    765.50287  0.027496511  0.027532269           17 
 2321000   0.87052805   -6.6552948    766.11799   0.02750675  0.027525111            6 
 2322000   0.88917054   -6.6265689    767.69623  0.027551544   0.02751804           10 
 2323000   0.87575229   -6.6290686    769.17551   0.02759275  0.027510954           11 
 2324000   0.87672521   -6.6197012    769.30381  0.027585478  0.027503874           11 
 2325000   0.87113754   -6.6297474    767.76956  0.027518622  0.027496776            5 
 2326000   0.88929589   -6.6575912    767.69301  0.027504049  0.027489642            8 
 2327000   0.88510946   -6.6680453    765.67012  0.027419787  0.027482498            7 
 2328000   0.87767831   -6.6567204    767.73646  0.027481975  0.027475384            9 
 2329000   0.87289599   -6.6764947    769.09026  0.027518615  0.027468234           12 
 2330000   0.87203589   -6.6644369    768.72038  0.027493576  0.027461125           10 
 2331000   0.86883078   -6.6604945     766.5782  0.027405198  0.027453997            6 
 2332000   0.88506473   -6.6687767    767.79695  0.027436998  0.027446908           13 
 2333000   0.87575804   -6.6462345    768.80496  0.027461243  0.027439796            9 
 2334000   0.88517224   -6.6387554    767.67774  0.027409231  0.027432663            9 
 2335000   0.90406307     -6.67497    768.81559  0.027438101  0.027425476           13 
 2336000   0.88551097   -6.6521186    769.71329  0.027458379  0.027418357           17 
 2337000   0.90212878   -6.6552398    768.44599   0.02740144  0.027411265            6 
 2338000   0.88116587   -6.6512548    769.34678  0.027421827  0.027404129            5 
 2339000   0.87721581   -6.6520341    769.79496  0.027426071  0.027397018            5 
 2340000   0.87639261   -6.6426514    770.97344  0.027456319  0.027389934            5 
 2341000   0.87800278   -6.6692939    768.89697  0.027370674  0.027382818            9 
 2342000   0.88809489   -6.6500525    769.55471  0.027382391  0.027375672           12 
 2343000   0.88454297   -6.6390479    771.09668  0.027425547  0.027368549            5 
 2344000   0.88029695   -6.6422098    771.84762  0.027440544  0.027361495            3 
 2345000   0.86853448   -6.6519075    771.70353  0.027423722  0.027354417            3 
 2346000    0.8837079   -6.6500292    770.68525  0.027375861   0.02734734            7 
 2347000   0.85255042   -6.6868164    770.39615  0.027353932  0.027340155            8 
 2348000   0.87811228   -6.6653355    769.89441  0.027324475  0.027332946            6 
 2349000   0.87711623   -6.6493449     768.6796  0.027269746  0.027325787           12 
 2350000   0.88594778   -6.6600527    770.62245  0.027327037  0.027318597           12 
 2351000   0.87347985   -6.6910752    768.36512    0.0272354  0.027311406            6 
 2352000   0.87177199   -6.6732959    771.71241  0.027342418  0.027304225           10 
 2353000    0.8730503   -6.6886044    768.86458   0.02722994   0.02729703           14 
 2354000   0.89449256   -6.6700968    770.45162  0.027274555  0.027289803           14 
 2355000   0.87931433    -6.684372    773.11976  0.027357387  0.027282613           11 
 2356000    0.8619555   -6.6583064    770.17377  0.027241574   0.02727551            5 
 2357000    0.8768148   -6.6537302    770.94886   0.02725742  0.027268429            4 
 2358000   0.87451751   -6.6584927     772.3881  0.027296724  0.027261401            3 
 2359000   0.87035917   -6.6536499    771.61436   0.02725782  0.027254257           10 
 2360000   0.88905225   -6.6694005    771.69103  0.027248977  0.027247061            9 
 2361000    0.8680732    -6.644281    772.45432  0.027264377  0.027239886           11 
 2362000    0.8644571   -6.6530253    773.18811  0.027278723  0.027232704           14 
 2363000   0.88591469    -6.653955    770.79703  0.027182855  0.027225487            8 
 2364000   0.87580527   -6.6537142    772.60628  0.027235134  0.027218377            9 
 2365000   0.87597716   -6.6740501    771.96183   0.02720091  0.027211287            4 
 2366000   0.86775465   -6.6624034    772.44074  0.027206281  0.027204149            3 
 2367000   0.86234101   -6.6682531    772.10545  0.027182983  0.027197033            6 
 2368000   0.86925454   -6.6465341    772.65887  0.027190979  0.027189917           12 
 2369000   0.87334418    -6.672023    771.00188  0.027121214  0.027182754           10 
 2370000    0.8516114   -6.6768967    769.73853  0.027065349  0.027175554           13 
 2371000   0.83967609   -6.6495393    773.99604  0.027203572  0.027168301           11 
 2372000   0.88087755   -6.6871311    772.37114  0.027135018  0.027161055           13 
 2373000   0.86617401   -6.6757494    772.96842  0.027144558  0.027153842            9 
 2374000   0.88406208   -6.6815359    774.33959  0.027181255  0.027146718            7 
 2375000   0.86524147    -6.669825    773.51771  0.027140972  0.027139546            7 
 2376000   0.87465516   -6.6770227    771.52549  0.027059676  0.027132332           10 
 2377000   0.88127433    -6.678333    773.02907  0.027101005  0.027125128            9 
 2378000   0.88366478   -6.6707657    773.38234  0.027101988  0.027117931           12 
 2379000   0.86954021   -6.6878386    771.55669  0.027026646  0.027110679            6 
 2380000   0.85700781   -6.6663639    771.70683  0.027020547  0.027103473            6 
 2381000    0.8617317   -6.6893529    772.47983  0.027036253  0.027096252           11 
 2382000   0.88089083   -6.6626269    772.00219  0.027008193  0.027089018            7 
 2383000   0.86825177   -6.6823294    773.55546  0.027051177  0.027081718            7 
 2384000   0.86416519   -6.7064823    772.55649  0.027004911  0.027074441           11 
 2385000    0.8461129   -6.6445344       773.94  0.027041929  0.027067241            8 
 2386000   0.87336131   -6.6597464    773.73721  0.027023513  0.027060082            9 
 2387000   0.88991898   -6.6355731    775.10699  0.027060012  0.027052912            8 
 2388000   0.88281048   -6.6923984    774.54628  0.027029114  0.027045746           12 
 2389000   0.87405057   -6.6735591    774.32856  0.027010205  0.027038523           11 
 2390000   0.88966365   -6.6396433    776.94754  0.027090221  0.027031292            8 
 2391000   0.86725271     -6.67351    774.29887  0.026986577  0.027024113            7 
 2392000   0.85500352   -6.6597058    776.87177  0.027064931  0.027016954           10 
 2393000   0.87634019   -6.6775387    775.44833  0.027004051  0.027009803            6 
 2394000   0.86912056   -6.6668556    776.74585  0.027037937  0.027002633            7 
 2395000   0.87001836   -6.6849884    775.89466   0.02699703  0.026995428           10 
 2396000   0.87036226   -6.6678042    774.55842  0.026939288  0.026988249            7 
 2397000   0.86678303   -6.6722026    776.82653  0.027006902  0.026981061            9 
 2398000    0.8474435   -6.6817391    775.82859   0.02696096  0.026973875           11 
 2399000   0.87155793   -6.6624437    777.59001  0.027010908  0.026966702            9 
 2400000   0.88306149   -6.6505251    777.95402  0.027012292  0.026959546           12 
 2401000   0.88799538   -6.6456611    774.92439   0.02689589  0.026952366            9 
 2402000   0.86829253   -6.6717055     776.7827  0.026949164  0.026945254            5 
 2403000    0.8466364   -6.6636326    777.45544  0.026961279  0.026938137           11 
 2404000   0.88105521   -6.6936545    777.32353  0.026945491  0.026931004            7 
 2405000   0.86663931   -6.6616015    777.50893  0.026940711  0.026923862           27 
 2406000   0.88073768   -6.6629969    778.09425  0.026949787  0.026916716           12 
 2407000   0.85790467     -6.65162     778.1579  0.026940794  0.026909599            8 
 2408000   0.87320991   -6.6697978    777.38927  0.026903006   0.02690254            7 
 2409000   0.87527229    -6.651321     779.7502  0.026973509  0.026895503            8 
 2410000   0.84419747   -6.6836329    779.27684  0.026945949  0.026888441            7 
 2411000   0.88499292   -6.7014961    778.58516  0.026910865  0.026881375            8 
 2412000   0.84677985   -6.6815271    778.67806  0.026902918  0.026874298            9 
 2413000    0.8740962   -6.6675182    778.46049  0.026884255  0.026867217           10 
 2414000   0.87063548   -6.6332524    781.23435  0.026968874  0.026860166           13 
 2415000   0.86857275   -6.6769797    779.70378  0.026904892  0.026853158            6 
 2416000   0.87809755   -6.6742216    778.83504  0.026863791  0.026846106           20 
 2417000    0.8603913   -6.6801904    780.61209  0.026913946  0.026839089            7 
 2418000   0.86303226   -6.6972474    778.76999   0.02683933   0.02683204           11 
 2419000   0.87147303   -6.6525649    780.76603  0.026896997  0.026825014            6 
 2420000   0.87699367   -6.7081331    782.45804  0.026944147  0.026818009           17 
 2421000   0.85690177   -6.6518297    781.74199  0.026908371  0.026811005           23 
 2422000    0.8835982   -6.6567315    781.16742  0.026877492  0.026803964           13 
 2423000   0.84721651   -6.6674448    779.91532  0.026823336  0.026796872           11 
 2424000    0.8612266   -6.6948761    781.15644  0.026854938  0.026789777           15 
 2425000   0.86505637   -6.6883955    779.58004  0.026789692  0.026782675           13 
 2426000   0.86343815    -6.669447    779.77019  0.026785181  0.026775597           15 
 2427000   0.86514464   -6.6801547    782.79352  0.026877954  0.026768511            7 
 2428000   0.87248824   -6.6608181    780.50834  0.026788452  0.026761424           13 
 2429000   0.86541748    -6.679728    781.19752  0.026801068  0.026754384           23 
 2430000   0.84582698   -6.6851211    780.57157  0.026768572  0.026747335           25 
 2431000   0.87531768   -6.7055373    781.85677  0.026801617  0.026740247            8 
 2432000   0.83429828   -6.6794076    781.98059  0.026794839  0.026733121            8 
 2433000   0.87097082   -6.6823185    781.51914  0.026768021  0.026725978           10 
 2434000   0.85477388   -6.6683041     780.8839  0.026735274  0.026718886           12 
 2435000   0.85577403   -6.6729492    782.50671  0.026779833  0.026711723            6 
 2436000   0.86274132   -6.6862204    780.20237   0.02669001  0.026704584            7 
 2437000   0.86543298   -6.6703935    782.39182  0.026753926  0.026697453            4 
 2438000   0.84134185   -6.6932444    780.95599  0.026693874  0.026690332           12 
 2439000   0.85466757   -6.6848999    781.86372  0.026713944  0.026683176           15 
 2440000   0.85428497   -6.6910879      780.575  0.026658982  0.026676019           14 
 2441000   0.85168186   -6.6915224    780.83191  0.026656832  0.026668862           10 
 2442000   0.85029719   -6.6788235     781.3374  0.026663165  0.026661712           16 
 2443000   0.86020442   -6.6901115    781.07326  0.026643241   0.02665457            7 
 2444000    0.8635031   -6.7224316    780.56677   0.02661507  0.026647396            6 
 2445000   0.87721177   -6.6471365    781.73056   0.02664385  0.026640227            7 
 2446000   0.84869788   -6.6864788    782.53861  0.026660487  0.026633135            8 
 2447000    0.8567724   -6.6877381    781.66226  0.026619747  0.026626004            5 
 2448000   0.86105051   -6.6903923    781.61054  0.026607113  0.026618882            9 
 2449000   0.84675801   -6.7020285    782.09029  0.026612573  0.026611777           23 
 2450000   0.84281915   -6.6910716    783.91633  0.026663821  0.026604664            5 
 2451000   0.87325324   -6.6711111    784.96717   0.02668867   0.02659757            7 
 2452000   0.85385904   -6.6807494    781.87871  0.026572822  0.026590465            7 
 2453000   0.84366433   -6.6914474    781.89653  0.026562594  0.026583315            4 
 2454000   0.85367567   -6.7092426    781.83604  0.026549716  0.026576168           14 
 2455000    0.8510297   -6.6778924    784.05684  0.026614285  0.026568943            9 
 2456000    0.8616818   -6.6927147    782.67159  0.026556446  0.026561764            7 
 2457000    0.8648846   -6.6903912    781.87983  0.026518784  0.026554645           24 
 2458000   0.85094913   -6.7233408    783.14991  0.026551055  0.026547465           14 
 2459000   0.84878598    -6.695747    781.49756  0.026484261   0.02654022           16 
 2460000    0.8697299   -6.6638774     783.7436   0.02654958  0.026532991           13 
 2461000   0.86250877   -6.6814905    782.79627  0.026506714  0.026525776            6 
 2462000   0.85914897   -6.7047406    782.81681  0.026496643   0.02651853            7 
 2463000   0.87160921   -6.7015699    783.37611  0.026504808  0.026511357            5 
 2464000    0.8687487   -6.6984116    782.90874  0.026478245  0.026504168           10 
 2465000   0.86668441    -6.688063    783.04577  0.026472136  0.026496929            9 
 2466000   0.83652646   -6.6879789    783.76975  0.026485866  0.026489736           11 
 2467000   0.85357887    -6.681246    783.54818  0.026467646  0.026482526           11 
 2468000   0.84535374   -6.7070873    785.17841  0.026511967  0.026475395           11 
 2469000   0.86635432   -6.7387487    784.16939  0.026467173    0.0264682            7 
 2470000   0.85359203   -6.7020179    784.75009  0.026476049  0.026461035           15 
 2471000   0.86679139   -6.6900338    784.95614  0.026472283  0.026453909            6 
 2472000   0.84901015   -6.7070875    786.17348  0.026502612  0.026446781           19 
 2473000   0.84481559   -6.7044301    785.52745  0.026470126  0.026439656            6 
 2474000   0.85046162    -6.713137     785.1489  0.026446675   0.02643256            9 
 2475000   0.85656486   -6.6932779    784.75912  0.026422866  0.026425469           12 
 2476000   0.84893795   -6.7205401    784.73822  0.026411491  0.026418427            8 
 2477000   0.85111084   -6.6881022    784.54201  0.026394227  0.026411375            8 
 2478000   0.86125332   -6.6776487    785.14479  0.026403847  0.026404271           10 
 2479000   0.85400598   -6.6599617     788.4106  0.026502978  0.026397177            3 
 2480000   0.84083328   -6.6864259    784.46891  0.026359842  0.026390107           10 
 2481000   0.84894327    -6.681565    787.20273  0.026441043   0.02638298            9 
 2482000   0.84797326   -6.6794557    786.16555  0.026395566  0.026375855            8 
 2483000   0.87523268   -6.7120099    785.67009  0.026368307  0.026368714           16 
 2484000   0.85479732   -6.6795964    786.66448  0.026391052  0.026361542           13 
 2485000   0.86135704    -6.694697    786.79109  0.026384678  0.026354422           12 
 2486000   0.85041865   -6.7182181    786.36959  0.026359935  0.026347306            9 
 2487000   0.84851142   -6.6912782    787.98871  0.026403589  0.026340157           24 
 2488000   0.85806249   -6.7145983     785.9992   0.02632634  0.026332985            9 
 2489000   0.85272941   -6.7021516    788.00666  0.026382974  0.026325825           12 
 2490000   0.86081322   -6.7172832    785.29414  0.026281598  0.026318622           20 
 2491000    0.8570359   -6.7321224     786.3277  0.026305624  0.026311394           20 
 2492000   0.87002063   -6.6953662    785.28812  0.026260304  0.026304252           24 
 2493000   0.83241356   -6.7281727    785.80614  0.026267086  0.026297095           39 
 2494000   0.85355155   -6.7400754    785.91156  0.026260076   0.02628989            8 
 2495000   0.86251361   -6.7109714     786.4893  0.026268848  0.026282679           14 
 2496000   0.85725738   -6.7160893     787.6257  0.026296264  0.026275509           10 
 2497000   0.86280695   -6.6917482    786.73469  0.026255997  0.026268366            7 
 2498000   0.85085464   -6.7126619    787.96612  0.026286567  0.026261296           15 
 2499000   0.86689505   -6.7120755    788.94898  0.026308823  0.026254155           14 
 2500000   0.86099447   -6.6793663    788.48709  0.026282903  0.026247114            7 
 2501000   0.85260881   -6.6811513    789.08109  0.026292186  0.026240044           10 
 2502000   0.83717454   -6.6757078    789.79067  0.026305311  0.026233021            4 
 2503000    0.8445404   -6.7090763    789.34238  0.026279877  0.026225937            7 
 2504000   0.84816619   -6.7070436    787.07647  0.026193972  0.026218889            9 
 2505000   0.87183916   -6.7031906    789.12503  0.026251664   0.02621179            8 
 2506000   0.84141668   -6.6831849    789.56195  0.026255718  0.026204715           20 
 2507000   0.87018803   -6.7060854     791.4912  0.026309374  0.026197752            8 
 2508000   0.83840538   -6.7178458    788.61954  0.026203467  0.026190681           10 
 2509000   0.83106138   -6.7107039    788.91145  0.026202719  0.026183629            8 
 2510000   0.86060321   -6.7048468    790.03975  0.026229739  0.026176598           10 
 2511000   0.86607328   -6.7055659    791.73045  0.026275403  0.026169586           12 
 2512000   0.85610047   -6.6983674    790.48845  0.026223741  0.026162572           10 
 2513000   0.84695036   -6.7069803    789.64385  0.026185298  0.026155524            8 
 2514000    0.8356756    -6.701948     791.0814  0.026222534  0.026148533            8 
 2515000    0.8564656   -6.7161065    790.35886  0.026188166  0.026141507            5 
 2516000    0.8311066   -6.7061569    790.05252  0.026167611  0.026134459            7 
 2517000   0.85273264   -6.7150728    788.90456  0.026119208  0.026127367           17 
 2518000   0.84447493   -6.7299781    791.49241   0.02619448   0.02612028           10 
 2519000   0.83943816   -6.7157169     789.6768  0.026124018  0.026113218            7 
 2520000   0.84150851   -6.6902651      791.212  0.026164418  0.026106187            9 
 2521000    0.8390651   -6.7120868    792.18525  0.026186211  0.026099142            5 
 2522000   0.86731598    -6.669575    794.02019  0.026236459  0.026092164            7 
 2523000   0.85920648   -6.7132182    791.61169  0.026146508  0.026085163            8 
 2524000    0.8439161   -6.6966554    791.34799  0.026127443  0.026078132           14 
 2525000   0.84236563   -6.6974587    790.92924  0.026103275  0.026071075           10 
 2526000   0.84270878   -6.7282747    789.49716  0.026045697  0.026064058            7 
 2527000   0.85360149   -6.7193709    790.69086  0.026074755  0.026056988           13 
 2528000   0.85153275   -6.7041487    790.84138  0.026069402  0.026049926            7 
 2529000   0.85285043   -6.6951762    791.23766  0.026072152   0.02604284            7 
 2530000   0.84378803   -6.7146549     792.4688  0.026102398    0.0260358            8 
 2531000   0.85312788   -6.7413959    791.88641   0.02607291  0.026028761           10 
 2532000   0.84832924   -6.7107641    791.74213  0.026057864  0.026021643            9 
 2533000   0.84431514   -6.7109316    791.62202  0.026043625  0.026014635           12 
 2534000   0.85984741   -6.7345905     792.3637  0.026057738  0.026007633           16 
 2535000   0.82845291   -6.7276546    794.26493  0.026109958  0.026000642           16 
 2536000    0.8435164   -6.7350793     792.5772  0.026044203  0.025993644           15 
 2537000   0.83300885   -6.7049278     793.7361  0.026072004  0.025986705           15 
 2538000    0.8527725   -6.7328369    792.07708  0.026007259  0.025979708           22 
 2539000   0.83331785   -6.7390858    796.54259   0.02614358   0.02597271           19 
 2540000   0.85352429   -6.7237416    794.04266  0.026051269  0.025965717           13 
 2541000   0.83015571   -6.7262642    792.51926  0.025991055   0.02595869           13 
 2542000   0.84356832   -6.7181606    793.60227  0.026016335  0.025951637           16 
 2543000   0.85686084   -6.7352026    791.62949  0.025941457   0.02594466           13 
 2544000    0.8652225   -6.7094845    795.52958  0.026059014  0.025937656           28 
 2545000   0.84256073   -6.7473732    794.00712  0.025998923  0.025930626           12 
 2546000   0.85018954   -6.7299718    793.00781  0.025956003  0.025923569           12 
 2547000   0.84189064   -6.7207017    794.99022  0.026010673   0.02591655            7 
 2548000   0.85890849   -6.7230294    796.61118  0.026053479  0.025909583           11 
 2549000   0.84747436   -6.7044632    795.93553  0.026021169   0.02590266           24 
 2550000    0.8525931   -6.7415287    794.53034  0.025965044  0.025895656            8 
 2551000   0.83643967   -6.7003381    795.19847  0.025976691  0.025888709           13 
 2552000   0.84498686   -6.7267077    795.93843  0.025990675  0.025881764            9 
 2553000   0.85071254   -6.6749817    796.52789  0.025999735  0.025874842           10 
 2554000   0.85400195     -6.70576    796.22214  0.025979579   0.02586798           13 
 2555000   0.82769656   -6.7155305    796.54162  0.025979831  0.025861088            7 
 2556000   0.85188849   -6.7004309    797.86429   0.02601279  0.025854193           17 
 2557000   0.84129973   -6.7427853    797.07606  0.025976928  0.025847288           13 
 2558000   0.84825353   -6.7136089    799.73309  0.026053332  0.025840379            8 
 2559000   0.83664506   -6.7180089    797.21211  0.025961056  0.025833466           14 
 2560000   0.83004361   -6.7289722    797.25068  0.025952171  0.025826548            8 
 2561000   0.85171345   -6.7158076     794.5643  0.025854624   0.02581961            8 
 2562000   0.83261659   -6.7152234    795.60098  0.025878252  0.025812677           11 
 2563000   0.83482118   -6.6982296     798.1431   0.02595081  0.025805792            7 
 2564000   0.85225254   -6.7573782      796.218   0.02587812  0.025798892           11 
 2565000   0.83275628   -6.7203492    797.59867  0.025912887  0.025792006            6 
 2566000    0.8444183   -6.7139909    797.40828  0.025896605  0.025785145           11 
 2567000   0.84357019   -6.7211217    797.77291  0.025898355  0.025778313            5 
 2568000   0.83124459   -6.7065406    796.66688  0.025852378   0.02577143           13 
 2569000   0.85805823   -6.7216125    797.10355  0.025856479  0.025764487           23 
 2570000   0.83038868   -6.7090953    795.74801  0.025802465  0.025757519            8 
 2571000   0.84238585   -6.7269852    797.82302  0.025859685  0.025750553           15 
 2572000   0.84105854    -6.734331    799.22448  0.025895039  0.025743618            5 
 2573000   0.83449979   -6.7249053    796.70965  0.025803526  0.025736634            7 
 2574000   0.83011723    -6.705499    798.71618  0.025858462  0.025729669           16 
 2575000   0.82964181   -6.7362811    798.10502  0.025828642  0.025722708           15 
 2576000   0.83351522   -6.6881269    797.96212  0.025813992  0.025715764           13 
 2577000   0.83317579   -6.7069293    799.10461   0.02584092  0.025708841            7 
 2578000   0.83549778   -6.7386593    798.01263  0.025795598  0.025701901           13 
 2579000   0.83635344   -6.7545159    797.03312  0.025753946  0.025694895            9 
 2580000   0.83248533   -6.7285977    798.19717  0.025781562  0.025687917            6 
 2581000   0.84528342   -6.7233166    798.48818  0.025780969   0.02568093            8 
 2582000   0.83174303   -6.7173152    797.74266  0.025746923  0.025673957           10 
 2583000   0.84200029   -6.7426897    799.74981   0.02580171  0.025667043           15 
 2584000   0.84151993   -6.7154855    798.00873  0.025735576  0.025660112           12 
 2585000   0.83817926   -6.7124625    798.23696  0.025732977   0.02565316            5 
 2586000   0.85068923   -6.7284106    799.25213   0.02575574  0.025646201           13 
 2587000   0.83246146   -6.7325091    799.60162  0.025757042  0.025639263            7 
 2588000   0.84035364    -6.721259    800.43351  0.025773877  0.025632326           18 
 2589000    0.8356994   -6.7319023    798.77672  0.025710594  0.025625403           15 
 2590000    0.8323235   -6.7162429    798.23173  0.025683131  0.025618488           19 
 2591000   0.85632447   -6.7416199    796.45166  0.025615967   0.02561151            9 
 2592000   0.84810116   -6.7154897    798.30042  0.025665523  0.025604532            7 
 2593000   0.84522391   -6.7504075    799.95806  0.025708898  0.025597596           13 
 2594000   0.83364774   -6.7709418    799.93916   0.02569838  0.025590678           15 
 2595000   0.85406176   -6.7439074    798.54555  0.025643723  0.025583715           23 
 2596000   0.85412216    -6.746347    799.39491   0.02566111  0.025576773           12 
 2597000   0.85036922   -6.7452818    799.92037   0.02566809  0.025569864            7 
 2598000   0.81256868    -6.729021    800.18243  0.025666616   0.02556298            7 
 2599000   0.84514756   -6.7462215        800.4  0.025663717   0.02555609            9 
 2600000   0.83543081    -6.734174    800.21677  0.025647974  0.025549191           17 
 2601000   0.84425767   -6.7089511     803.0694  0.025729508  0.025542283            8 
 2602000   0.81690407    -6.748348    799.73115  0.025612707  0.025535387           11 
 2603000   0.82234068   -6.7273363     800.9106  0.025640626   0.02552847           14 
 2604000   0.83755205    -6.720749    800.63446  0.025621943   0.02552154            6 
 2605000   0.83712755   -6.7582123    801.19447  0.025630021  0.025514621            6 
 2606000   0.81282663   -6.7141457    800.90004  0.025610771  0.025507716           14 
 2607000   0.84773988   -6.7476033    801.27296  0.025612868  0.025500812           10 
 2608000   0.82591549   -6.7430987    799.77283  0.025555113  0.025493903           12 
 2609000   0.86458727   -6.7183875    801.52252  0.025601205  0.025487016           16 
 2610000   0.83523072   -6.7233286    800.60777  0.025562189  0.025480134           27 
 2611000   0.82893917   -6.7378494    801.63427  0.025585161  0.025473188           10 
 2612000   0.85232937   -6.7282983    800.99684  0.025555029  0.025466258            7 
 2613000   0.83447325   -6.7440872    799.41251  0.025494722  0.025459334           10 
 2614000   0.84039224   -6.7447358    801.75763  0.025559731  0.025452399           10 
 2615000   0.84879016   -6.7482257    800.25383  0.025502034  0.025445439           11 
 2616000     0.827941   -6.7399972    800.53886  0.025501365  0.025438477           14 
 2617000   0.82778142   -6.7433472    799.07475  0.025444999  0.025431467           11 
 2618000   0.83633601    -6.752495    801.81691  0.025522565  0.025424501            8 
 2619000   0.82163178   -6.7158077     802.1916  0.025524742  0.025417516            9 
 2620000   0.82920199   -6.7411938    802.47674  0.025524069  0.025410574           13 
 2621000   0.84221314   -6.7354639    803.20014  0.025537331  0.025403589           17 
 2622000   0.82662436   -6.7151561    801.71393  0.025480356  0.025396676           12 
 2623000   0.82131165   -6.7344409    804.27591  0.025552037  0.025389744           12 
 2624000   0.82301312   -6.7392718    801.96837  0.025469016  0.025382828           12 
 2625000   0.81983894   -6.7420362    802.22081  0.025467327  0.025375957            9 
 2626000   0.84523521   -6.7177449    804.27048  0.025522673   0.02536908           28 
 2627000   0.85009515   -6.6838735    804.33064  0.025514866  0.025362238            9 
 2628000   0.85001708   -6.7469528    804.19051  0.025500714  0.025355425            9 
 2629000   0.84076183   -6.7240372    803.45273  0.025467628   0.02534862           19 
 2630000   0.83512969   -6.7404115    802.29004  0.025421104  0.025341755           10 
 2631000   0.83762446   -6.7525231    806.44049  0.025542902   0.02533488            9 
 2632000    0.8370402   -6.7353999    805.12608  0.025491581  0.025328031           17 
 2633000    0.8466139   -6.7432252     803.0663  0.025416708  0.025321194           12 
 2634000   0.82539268   -6.7440745    803.82017  0.025430909  0.025314389           12 
 2635000   0.82369004   -6.7178629    804.31925  0.025437042  0.025307566            7 
 2636000   0.83105567   -6.7622108    804.12715  0.025421319  0.025300757           13 
 2637000   0.81423115   -6.7602682     805.7913  0.025464268  0.025293952            5 
 2638000   0.82458744   -6.7579956    805.57486  0.025447778  0.025287131            8 
 2639000    0.8360375   -6.7669291    805.92489  0.025449188  0.025280289           14 
 2640000   0.82334013   -6.7503464    804.17283  0.025384243  0.025273463           15 
 2641000   0.82925108   -6.7405428    806.37345  0.025444069  0.025266682           10 
 2642000   0.82873572   -6.7417883    806.01011  0.025422978  0.025259968            7 
 2643000   0.83229353   -6.7506368    805.69416  0.025403398  0.025253205           14 
 2644000   0.82432994   -6.7547299    808.04013   0.02546773  0.025246427           15 
 2645000   0.81341827    -6.732814    807.13411  0.025429556  0.025239707            9 
 2646000   0.83050183   -6.7831866    806.39474   0.02539666  0.025232946           11 
 2647000   0.83247013   -6.7839567    805.79531  0.025368194  0.025226139           22 
 2648000   0.82596667   -6.7472886    806.60294   0.02538403  0.025219338           13 
 2649000   0.82472168   -6.7641104    806.58168  0.025373779  0.025212564           10 
 2650000   0.81836022   -6.7559097    806.15256  0.025350709  0.025205793           21 
 2651000   0.82505194   -6.7783921    806.90178  0.025364698  0.025198984           12 
 2652000   0.83190802   -6.7683662    807.69118  0.025379939  0.025192182           10 
 2653000   0.82429948   -6.7660991    806.40969   0.02533012  0.025185391           13 
 2654000   0.81396414   -6.7533066    809.75807  0.025425712  0.025178602           10 
 2655000   0.84864516   -6.7413952    808.15839  0.025365925  0.025171817           10 
 2656000   0.82166962   -6.7326654    809.11654  0.025386438  0.025165077            7 
 2657000   0.84378876   -6.7603553    806.70041  0.025301104   0.02515831            8 
 2658000   0.82571167   -6.7553794    808.58848   0.02535078  0.025151555           18 
 2659000   0.82639801   -6.7321704    808.25117  0.025330675   0.02514478            6 
 2660000   0.82763844   -6.7310889    807.84385  0.025308391  0.025138019           16 
 2661000   0.82765217   -6.7758397    806.59537  0.025259782  0.025131256           11 
 2662000   0.84290469   -6.7583494    807.02313  0.025263684  0.025124473            9 
 2663000   0.84076179   -6.7104636    809.31374  0.025325877  0.025117737           11 
 2664000   0.81444776   -6.7611424    804.81783  0.025175733  0.025111021           10 
 2665000   0.83559287   -6.7546933    809.37232  0.025308703  0.025104255           11 
 2666000    0.8178522   -6.7854342    807.43302  0.025238591  0.025097506            7 
 2667000   0.83920084   -6.7467529    808.49867  0.025262426  0.025090728            8 
 2668000   0.83954226   -6.7295456    808.39747  0.025249796  0.025083954           17 
 2669000   0.82126666   -6.7616972    809.56417  0.025276763  0.025077184            7 
 2670000   0.80875649   -6.7544655    808.32331  0.025228568  0.025070415           18 
 2671000   0.83795806   -6.7461676    808.04649  0.025210486   0.02506364            9 
 2672000   0.82195681   -6.7618978    808.50128  0.025215235   0.02505687            7 
 2673000   0.83977905   -6.7755867    807.91053  0.025187384    0.0250501            6 
 2674000   0.82983914    -6.769768    811.12893  0.025278264  0.025043307           15 
 2675000   0.83067569   -6.7634051    807.80742   0.02516534  0.025036483            8 
 2676000   0.79790237   -6.7665966    808.93169  0.025190947  0.025029673            8 
 2677000   0.81801301   -6.7677995    807.63299  0.025141109  0.025022894           12 
 2678000   0.82440303   -6.7516773    808.98416  0.025173766  0.025016148            8 
 2679000   0.83521888    -6.761695    808.21552   0.02514046  0.025009348           15 
 2680000   0.83783985   -6.7990784    809.78633  0.025179923  0.025002506           39 
 2681000     0.831283   -6.7759689    810.62025  0.025196452  0.024995703           62 
 2682000   0.80891041   -6.7543091    809.86824  0.025163691  0.024988941           41 
 2683000    0.8280849   -6.7949263    811.10325  0.025192671  0.024982157           50 
 2684000   0.82722599   -6.7900426    809.47835  0.025132835  0.024975362           27 
 2685000   0.81148912   -6.7793368     811.5605  0.025188098  0.024968593           16 
 2686000   0.79250459    -6.764837    808.83067  0.025094027  0.024961862           14 
 2687000   0.83725272   -6.7552218    811.04228  0.025153277  0.024955117            8 
 2688000   0.82671162   -6.7516544    810.77052  0.025135495  0.024948405           17 
 2689000    0.8203531   -6.7663071    811.11789  0.025136913  0.024941674           11 
 2690000    0.8127121   -6.7468723    811.58721  0.025142107  0.024934984            7 
 2691000   0.81121675   -6.7514335    812.12337  0.025149367  0.024928302           13 
 2692000   0.82736753   -6.7248702    812.17359   0.02514158  0.024921633           10 
 2693000   0.81883652   -6.7713805    812.37449  0.025138461     0.024915           18 
 2694000   0.79273298   -6.7807819    811.58925  0.025104839  0.024908293           34 
 2695000   0.79403507   -6.7633626    811.28276  0.025086047  0.024901596           18 
 2696000   0.81539139   -6.7655294    811.88393  0.025095324  0.024894938            8 
 2697000   0.83178437   -6.7980643     812.0496  0.025091138  0.024888241           13 
 2698000    0.8191868   -6.7689948    811.58707  0.025067552  0.024881556           12 
 2699000    0.8019663   -6.7758505    811.82893  0.025065732   0.02487483            8 
 2700000    0.8289047   -6.7691035    812.73913  0.025084541  0.024868143           14 
 2701000   0.80661331   -6.8105434    810.71892  0.025012925   0.02486142           19 
 2702000   0.82108728   -6.7791508    812.57563  0.025060931  0.024854717           24 
 2703000   0.83522451   -6.7398182    814.33486  0.025105896  0.024848059            7 
 2704000   0.83315005   -6.7839908    812.63271  0.025044154  0.024841446            8 
 2705000   0.82576101   -6.7727207    814.03496  0.025078095  0.024834797           11 
 2706000   0.81025612   -6.7336601    814.13048  0.025071769  0.024828181            8 
 2707000   0.82433512    -6.767436    813.26976   0.02503601  0.024821562           12 
 2708000   0.80687097   -6.7627113    812.86221  0.025014224  0.024814919            9 
 2709000   0.80075335   -6.7842035    814.35258  0.025050836  0.024808262           12 
 2710000   0.80176609   -6.7604039    814.76045  0.025054134  0.024801657           10 
 2711000   0.82369006   -6.7710353    813.76846    0.0250144   0.02479506            9 
 2712000   0.82308829   -6.7471303    814.09658  0.025015259  0.024788463            6 
 2713000   0.81877585   -6.7870076    814.60161  0.025021551   0.02478185            7 
 2714000   0.81767146   -6.7868751    813.09874  0.024966186  0.024775227           19 
 2715000   0.81877155    -6.776102    813.92829  0.024982452  0.024768593           24 
 2716000   0.81408457    -6.792766     814.2846  0.024984186  0.024761937           24 
 2717000   0.81820222   -6.8005304    816.66804  0.025048094  0.024755309            9 
 2718000   0.81631033   -6.7737742    815.98896  0.025018057  0.024748649            8 
 2719000     0.807052   -6.7717989    813.62425  0.024936381  0.024742001           10 
 2720000   0.81553043   -6.7728068    813.40678  0.024920551  0.024735359           10 
 2721000   0.81188759   -6.7569071    814.36737  0.024940811  0.024728806            8 
 2722000   0.79938379   -6.7815198    814.73134  0.024942792  0.024722241           22 
 2723000   0.79917079   -6.7770112    815.17184  0.024947112  0.024715673           15 
 2724000   0.80255711   -6.7831163    815.69764  0.024954039  0.024709084            7 
 2725000   0.82386123   -6.7377339    815.16218  0.024928507  0.024702501            7 
 2726000    0.8084708   -6.7841138    815.54879  0.024931181  0.024695928           25 
 2727000   0.80511415   -6.7893359    816.29391  0.024944808  0.024689307           27 
 2728000   0.83449061   -6.7755253    814.73708  0.024888107  0.024682733           18 
 2729000   0.81828597   -6.7580682    815.66205  0.024907232  0.024676177           10 
 2730000   0.82134264   -6.7881161    817.94642   0.02496784  0.024669618            6 
 2731000   0.79723321   -6.7687597    816.67278  0.024919833  0.024663055           16 
 2732000     0.794458   -6.7767691    817.72133  0.024942696  0.024656493           14 
 2733000   0.79645402   -6.7816937    819.12284  0.024976303  0.024649949            7 
 2734000    0.8147835   -6.7616801    816.03355  0.024873005   0.02464341           18 
 2735000   0.80274899   -6.7617958    817.58627  0.024911221  0.024636863           17 
 2736000    0.8084207   -6.7994264    817.83834  0.024909793  0.024630321            8 
 2737000   0.81598876   -6.7856063    818.16416  0.024910613  0.024623779           21 
 2738000   0.81598295   -6.7610498    818.08513  0.024899109  0.024617251           25 
 2739000   0.82624615   -6.7638591    820.09494  0.024951166  0.024610757            9 
 2740000   0.82357633   -6.7816506    820.16464   0.02494418  0.024604255           14 
 2741000   0.82589284   -6.7568613    819.72928  0.024921844   0.02459774           10 
 2742000   0.78748674   -6.7734986    817.66208  0.024849929  0.024591206           10 
 2743000   0.79939878   -6.7792323    817.76227  0.024843914  0.024584669           11 
 2744000   0.80437118   -6.7696127    818.96498  0.024871386   0.02457817           18 
 2745000   0.81968651   -6.7805738    819.13557  0.024867504  0.024571625           24 
 2746000   0.83803916   -6.7759377    818.02644  0.024824789  0.024565025           29 
 2747000   0.79889771   -6.7828874    817.02387  0.024785338  0.024558494           14 
 2748000   0.81042241   -6.7873015    819.86161  0.024862373  0.024551972           13 
 2749000   0.80308838   -6.7822175    818.65999  0.024816903  0.024545492            9 
 2750000   0.80972252   -6.7718111    819.22701  0.024825061  0.024539013           14 
 2751000   0.79976197   -6.7614987    818.58387  0.024796555  0.024532524            7 
 2752000   0.80744554   -6.7527976    819.32301  0.024809926  0.024526024           10 
 2753000   0.80909817   -6.7711858    822.12398    0.0248857  0.024519554           13 
 2754000    0.7906734   -6.7874911    819.77539  0.024805598  0.024513049            8 
 2755000   0.82365475   -6.7984089    818.30957  0.024752255    0.0245065            7 
 2756000   0.82020761   -6.7806563    818.43525  0.024747075  0.024499972           15 
 2757000   0.80872222   -6.7788652    820.16983  0.024790528  0.024493424           20 
 2758000   0.81615593    -6.803392    818.98089  0.024745616  0.024486886           10 
 2759000   0.82184887   -6.8028824    819.73998  0.024759574  0.024480323            5 
 2760000   0.80956785   -6.7913627    820.10606  0.024761656  0.024473787           11 
 2761000   0.80509358   -6.7825867      819.149  0.024723802  0.024467244            8 
 2762000   0.79765929    -6.783049    819.49686  0.024725346  0.024460711           17 
 2763000   0.80429193   -6.7626226    820.19607  0.024737485  0.024454178           10 
 2764000   0.80331285   -6.7956736    820.85902  0.024748523  0.024447671           32 
 2765000   0.81225578   -6.7923329    818.40844  0.024665715  0.024441162           16 
 2766000   0.80349641   -6.7755471    821.30627  0.024744103  0.024434633            8 
 2767000   0.82371994   -6.7806032    820.70609  0.024717085  0.024428123           20 
 2768000    0.8116023   -6.7866436    821.54931  0.024733541  0.024421583           27 
 2769000   0.79406693   -6.7841774    820.76262  0.024700933  0.024415033           12 
 2770000   0.79697126   -6.7796221    821.58373  0.024716719  0.024408487           18 
 2771000   0.78711145   -6.7854716    820.71341  0.024681625  0.024401934           15 
 2772000   0.80580717   -6.7951744     820.2099  0.024657585  0.024395402           14 
 2773000   0.82221608   -6.7777001    820.53569  0.024658483  0.024388876           10 
 2774000   0.81842776   -6.7940157    821.32307  0.024673248   0.02438237           13 
 2775000   0.79149917   -6.7871345    822.44271  0.024697979  0.024375839           10 
 2776000   0.79950365   -6.8209507    819.29184  0.024594496  0.024369299           16 
 2777000    0.8170499   -6.7980752    819.89051  0.024603604  0.024362805           42 
 2778000   0.81628914   -6.7897073    822.92408  0.024685748  0.024356275           21 
 2779000   0.80788518   -6.7728924    822.26917  0.024657226  0.024349786           13 
 2780000   0.80247211   -6.7590132    821.81896  0.024634861  0.024343344           11 
 2781000    0.8115659   -6.7946454    820.54007   0.02458768  0.024336863           10 
 2782000   0.80154916   -6.8193376    821.37106  0.024603734  0.024330326           18 
 2783000   0.81147041   -6.8094565    820.88347  0.024580293  0.024323771           23 
 2784000    0.8040159   -6.7972845    820.02336  0.024545718  0.024317221           16 
 2785000   0.83084474   -6.8094875    821.75833  0.024588819  0.024310685           13 
 2786000   0.80211824   -6.7943213    822.69008  0.024607863   0.02430415            4 
 2787000   0.78870806   -6.8115989    822.49918  0.024593326  0.024297646            7 
 2788000   0.81185371   -6.7749674    822.27993  0.024577951  0.024291127            5 
 2789000   0.81370972   -6.8007891    822.77898   0.02458405  0.024284673           12 
 2790000   0.80057079   -6.7924256    823.38233   0.02459326  0.024278166           11 
 2791000   0.79217528   -6.7882598    822.83219  0.024568022  0.024271686           27 
 2792000   0.81036718   -6.7935207    822.70718  0.024555491  0.024265226           11 
 2793000   0.80483471   -6.7993953    823.82078  0.024579925  0.024258749            9 
 2794000   0.79524975   -6.7981733    822.62409  0.024535436  0.024252281           14 
 2795000   0.79200469   -6.8110249    823.07907  0.024540223   0.02424579           16 
 2796000   0.79911405   -6.8218769    823.42252  0.024541682  0.024239305           19 
 2797000   0.80134887   -6.8039421    823.59421  0.024538023  0.024232851           10 
 2798000   0.79765489   -6.7995161    822.81185  0.024505952  0.024226395           13 
 2799000   0.80877659   -6.7795332    824.12191  0.024536201  0.024219951            8 
 2800000   0.80748783   -6.7642026    825.81508   0.02457783  0.024213545           18 
 2801000   0.79895343   -6.7957061    824.31799  0.024524515  0.024207121           21 
 2802000   0.79813142   -6.7835511    823.12841  0.024480383  0.024200662           10 
 2803000   0.79727674   -6.7880468    824.02349  0.024498261  0.024194211           23 
 2804000   0.79454216   -6.8172812    823.55785  0.024475685  0.024187689           14 
 2805000   0.82277726   -6.8025163    823.20556  0.024456493  0.024181207           18 
 2806000   0.80339355   -6.7987277    824.57733  0.024488517  0.024174741           22 
 2807000   0.79643115   -6.8303078    822.40965  0.024415439  0.024168273           12 
 2808000   0.80163163   -6.7816976    825.23115  0.024490478  0.024161771            9 
 2809000   0.79330091    -6.821336    822.42154  0.024398408   0.02415533            9 
 2810000   0.80279816   -6.8211129    825.82522  0.024490665   0.02414884            7 
 2811000   0.78845933   -6.8013371    823.04528   0.02439954  0.024142367            7 
 2812000   0.79960613    -6.798533    823.92173  0.024416836  0.024135894           16 
 2813000   0.79026441   -6.7992615    824.29519   0.02441922  0.024129459           12 
 2814000   0.81059522   -6.7963374    825.32728  0.024441106  0.024123002           31 
 2815000   0.80925591   -6.7784423    825.93147   0.02445031  0.024116582           11 
 2816000   0.78968102   -6.7968586    823.64918  0.024374088  0.024110121           19 
 2817000   0.80328454   -6.8035278    825.42975  0.024418109  0.024103663           17 
 2818000   0.79556847   -6.7889515    822.74496   0.02433005  0.024097204           18 
 2819000   0.78101169   -6.7869176    824.46768  0.024372345  0.024090724           20 
 2820000   0.79473873   -6.8103863    826.65147  0.024428235  0.024084289           12 
 2821000   0.79627438   -6.7978206    826.04954  0.024401794  0.024077855           18 
 2822000   0.79651636    -6.797658    824.99992  0.024362152  0.024071436           13 
 2823000   0.78766022   -6.8054692    824.51074  0.024339082  0.024064977           18 
 2824000   0.79591015   -6.7997362     825.1007  0.024347873   0.02405853           10 
 2825000   0.78395459   -6.8051643    824.32629   0.02431641  0.024052075           11 
 2826000   0.81327671   -6.8220283    823.71893  0.024289895   0.02404561            9 
 2827000   0.81550118   -6.8362339    825.09775  0.024321948  0.024039132           14 
 2828000    0.8140448   -6.8561731    825.19919  0.024316336   0.02403265           22 
 2829000   0.80118939   -6.7879647     826.8729  0.024357043  0.024026158           14 
 2830000   0.79865664     -6.77912    823.21205  0.024240638   0.02401969           29 
 2831000   0.80482932   -6.8065489    826.63288  0.024332771  0.024013268           14 
 2832000   0.79441823   -6.7973173    825.86891  0.024301698  0.024006839           10 
 2833000   0.79247875   -6.7809883    828.55905  0.024372251  0.024000453           14 
 2834000   0.79751109   -6.8465908    825.58633  0.024276239  0.023994014           13 
 2835000   0.79822887   -6.8329952    825.70353  0.024271121  0.023987535           15 
 2836000    0.8047872   -6.8238922     827.2601  0.024308301  0.023981051           34 
 2837000   0.79877813   -6.8218112     827.1185  0.024295573  0.023974609           22 
 2838000   0.79754534   -6.7947218    826.64129     0.024273   0.02396822            7 
 2839000   0.78940024   -6.7990723    827.22987  0.024281727  0.023961811           10 
 2840000    0.7991506     -6.81832    824.11742  0.024181849  0.023955397           31 
 2841000   0.80496703    -6.794215    825.28303  0.024207527  0.023948956           10 
 2842000   0.78309147   -6.8212271    826.77793  0.024242843  0.023942519           11 
 2843000   0.80149004   -6.7965859    828.28629  0.024278529  0.023936053            9 
 2844000   0.79766725    -6.790084     828.3461  0.024271745  0.023929611           52 
 2845000   0.78179984   -6.8131828    827.73864   0.02424542  0.023923199           41 
 2846000   0.79089809   -6.7880149    827.60262  0.024232918  0.023916772           24 
 2847000    0.8004001   -6.8349331    828.63949  0.024254756  0.023910323            8 
 2848000   0.79280616   -6.8028563    826.31759    0.0241783  0.023903869           13 
 2849000   0.79679953    -6.780007     826.1164  0.024163929   0.02389742           49 
 2850000   0.78245601    -6.799732    830.66706   0.02428851  0.023891018           25 
 2851000   0.80386368   -6.8416456    827.48882  0.024187093  0.023884598           34 
 2852000   0.79388164   -6.8057834    828.29134  0.024202061  0.023878158           11 
 2853000   0.78428862   -6.8279857    829.70097  0.024234752  0.023871751           13 
 2854000   0.79973057   -6.8072414    828.35638     0.024187  0.023865361           13 
 2855000    0.8068599   -6.7853774    827.11271  0.024142227   0.02385895           10 
 2856000   0.77509824   -6.8437506     826.8155  0.024125102  0.023852529            6 
 2857000   0.79165137   -6.8125379    829.86473  0.024205598  0.023846119           16 
 2858000    0.8055739   -6.7950658    829.46538  0.024185485  0.023839695            9 
 2859000   0.79643864   -6.8202056    829.08499  0.024165938  0.023833277           21 
 2860000   0.82425178   -6.8111758    830.01789   0.02418467  0.023826865           11 
 2861000   0.82009508   -6.8041778    829.66419  0.024165915  0.023820489           34 
 2862000   0.79633127   -6.8038447    827.26217  0.024087531  0.023814086           23 
 2863000   0.80127512   -6.8057413    828.73345  0.024121942  0.023807661           11 
 2864000   0.78960785   -6.8271306    826.52268  0.024049193  0.023801233           56 
 2865000   0.79432621   -6.8363853    828.13218  0.024087614  0.023794816           21 
 2866000   0.80044601   -6.7982249    828.69361  0.024095534  0.023788423           24 
 2867000   0.78141648    -6.820508    828.66043  0.024086165  0.023782014           12 
 2868000   0.80068131   -6.8341767     831.0707  0.024147801  0.023775612           10 
 2869000   0.81919528   -6.8399891    830.01415  0.024108695  0.023769203           12 
 2870000   0.78660924   -6.7851825    830.37138  0.024110667  0.023762806            8 
 2871000   0.78504968    -6.824778    829.12379  0.024066057  0.023756457           14 
 2872000   0.79255188   -6.8120389    829.19695    0.0240598  0.023750113            8 
 2873000   0.79579674   -6.8121292    830.11488  0.024078051  0.023743734           25 
 2874000    0.7985999   -6.8201576    829.42141  0.024049565  0.023737361           15 
 2875000   0.78733513   -6.8059835     830.7574  0.024079925  0.023731029           31 
 2876000   0.77327544   -6.8040961    828.98411   0.02402017  0.023724638           13 
 2877000   0.77998383    -6.826167    830.80147  0.024064462  0.023718267           10 
 2878000   0.77625703   -6.8529394    827.94871  0.023973498  0.023711856           16 
 2879000   0.81249807   -6.8599647     828.5954  0.023983889  0.023705463           12 
 2880000    0.7776485   -6.8553146    830.23618  0.024023038  0.023699048            6 
 2881000   0.80132043   -6.8179153    831.87217  0.024062021  0.023692652            9 
 2882000   0.79703486   -6.8489172    831.72504  0.024049417  0.023686243           35 
 2883000   0.81071614   -6.8399808    830.97988  0.024019536  0.023679812           15 
 2884000   0.78875783   -6.8287814    831.15785   0.02401635  0.023673424           34 
 2885000    0.7869379   -6.8462826    830.01508  0.023975017  0.023667048           30 
 2886000   0.80042155   -6.8567816    830.73693  0.023987553  0.023660626           10 
 2887000   0.78595924   -6.8465684    829.84091   0.02395338  0.023654163           34 
 2888000   0.78024639   -6.8600463    831.33648  0.023988241  0.023647765           21 
 2889000   0.79365396   -6.8114895     832.3465  0.024009072  0.023641421           11 
 2890000   0.80082839   -6.8285665    834.14961  0.024052757  0.023635116            8 
 2891000   0.79586612   -6.7989253     832.8309  0.024006425  0.023628755           11 
 2892000   0.80066981    -6.833459    831.35111  0.023955484  0.023622415            8 
 2893000   0.78285017   -6.8248081    831.27808    0.0239451  0.023616042           10 
 2894000   0.80037277   -6.8143231    830.36819  0.023910625  0.023609673           16 
 2895000   0.79846716   -6.8252868    832.31514  0.023958409  0.023603303           15 
 2896000   0.79661844   -6.8495421    829.40919  0.023866517  0.023596932           18 
 2897000   0.79787473   -6.8270015    832.02142   0.02393342  0.023590558           12 
 2898000   0.78981149   -6.8457415    831.46856  0.023909264  0.023584165           15 
 2899000   0.79621391   -6.8531388    831.14717  0.023891778  0.023577789            9 
 2900000   0.78890686   -6.8237067    833.02938  0.023937626  0.023571434           22 
 2901000   0.77718373   -6.8281159    834.96557  0.023984993  0.023565064           11 
 2902000   0.77252572   -6.8411886    832.91318  0.023917792  0.023558708            6 
 2903000   0.79741918   -6.8297347    832.55507  0.023899273  0.023552346           14 
 2904000   0.80107627   -6.8356014    831.29566  0.023854903  0.023545959           10 
 2905000   0.78611433   -6.8334195    832.93215  0.023893636  0.023539555            6 
 2906000   0.79486393   -6.8344594    832.68051  0.023878198  0.023533159           40 
 2907000   0.77356057   -6.8461577    831.41425  0.023833684  0.023526798            9 
 2908000   0.78508106   -6.8490608    831.61427   0.02383122  0.023520445           30 
 2909000   0.78305707   -6.8277642    832.49775  0.023848337    0.0235141           13 
 2910000    0.7888442   -6.8256621    832.43683  0.023838397  0.023507735            8 
 2911000   0.78606453   -6.8143193    833.78708  0.023868862  0.023501417            8 
 2912000   0.78625881   -6.8202227    832.05038  0.023810966  0.023495089           11 
 2913000   0.77817818    -6.817976     833.9346  0.023856694   0.02348877           13 
 2914000   0.77538519   -6.8206359    832.84423  0.023817325  0.023482452           38 
 2915000   0.77581627   -6.8086921    835.44098   0.02388339  0.023476111           12 
 2916000   0.78388245   -6.8531192    833.48545  0.023819314  0.023469747           12 
 2917000    0.7928364   -6.8337171    832.85501  0.023793138  0.023463382           18 
 2918000   0.80987998   -6.8422852     834.2043  0.023823518  0.023457041           37 
 2919000   0.79202113   -6.7912609    833.91079  0.023806977  0.023450711            9 
 2920000   0.78545308   -6.8213016    832.94184  0.023771171  0.023444354            6 
 2921000   0.79490014   -6.8539244     832.3987  0.023747538  0.023437988           11 
 2922000   0.78642729   -6.8402056    833.32224  0.023765749  0.023431598           20 
 2923000   0.78390713   -6.8430451    834.09423  0.023779628  0.023425223           26 
 2924000   0.77586088   -6.8389608    834.33563  0.023778375  0.023418836           14 
 2925000   0.77622062   -6.8389456    832.19522  0.023709265  0.023412441           13 
 2926000   0.79632317   -6.8455009    832.44201  0.023708191  0.023406034            9 
 2927000   0.77858379   -6.8414344    832.54838   0.02370312  0.023399646           19 
 2928000   0.77991801    -6.814299    834.68962  0.023755966  0.023393281           14 
 2929000   0.74867985   -6.8299645    833.40363  0.023711267  0.023386948           12 
 2930000   0.76580908   -6.8431155    833.75221  0.023713089  0.023380582           11 
 2931000   0.79000028   -6.8395992    833.69386   0.02370334  0.023374214           10 
 2932000   0.79537254   -6.8053479    833.20948  0.023681488  0.023367861           23 
 2933000   0.77941626   -6.8308925    833.46846  0.023680772  0.023361509           18 
 2934000    0.7829818   -6.8310464    834.09572  0.023690517  0.023355173           20 
 2935000   0.77065334   -6.8438819     832.7277  0.023643603  0.023348793           12 
 2936000   0.77384912   -6.8325014    834.48452  0.023685414  0.023342404           15 
 2937000   0.78338285   -6.8547881    835.88992  0.023717226   0.02333601           16 
 2938000    0.7897895   -6.8666941    833.70224  0.023647102  0.023329605           29 
 2939000   0.77800042   -6.8754833    833.24298  0.023626034  0.023323195           23 
 2940000   0.77080331   -6.8429842    832.09346  0.023585416  0.023316786           21 
 2941000   0.77806783   -6.8417499    835.69997  0.023679587  0.023310393           16 
 2942000   0.77636219   -6.8544107     833.8225  0.023618358  0.023303996           11 
 2943000   0.77236672   -6.8665553    833.09589  0.023589758  0.023297608           26 
 2944000   0.77175763   -6.8464024    833.29172  0.023587288  0.023291235           24 
 2945000   0.79275118   -6.8583762    834.27319  0.023607051  0.023284862           27 
 2946000   0.77618142   -6.8347964    835.23196  0.023626159   0.02327849           15 
 2947000   0.77660138   -6.8598538    833.81075  0.023577953  0.023272098           12 
 2948000   0.76729393   -6.8745102    834.90626  0.023600923  0.023265677            9 
 2949000   0.77707437   -6.8370865    834.47782  0.023580813  0.023259292           27 
 2950000   0.76207589    -6.830657    833.87169  0.023555698  0.023252913           11 
 2951000   0.77700281   -6.8324547     833.5769  0.023539391  0.023246553            8 
 2952000   0.77585695   -6.8509134      833.582  0.023531561   0.02324019           17 
 2953000   0.79226798   -6.8690271    833.91949  0.023533116   0.02323378           21 
 2954000   0.78701046   -6.8515707    835.02622   0.02355637  0.023227373           21 
 2955000   0.77803654   -6.8446896    834.86464  0.023543842  0.023220971           16 
 2956000    0.7826728   -6.8577681    835.79986  0.023562242  0.023214609            9 
 2957000   0.77546809   -6.8742284    835.28648  0.023539806  0.023208234           19 
 2958000   0.77494343   -6.8700828    834.42818  0.023507668  0.023201862           30 
 2959000   0.77830428   -6.8632385    836.11858   0.02354733  0.023195502           11 
 2960000   0.78190564   -6.8430743    836.05819  0.023537674   0.02318915           24 
 2961000   0.78519331   -6.8433237    834.51571  0.023486314  0.023182775           16 
 2962000   0.78555735   -6.8521722    835.14288   0.02349603  0.023176428           22 
 2963000   0.79074291   -6.8206408    836.34902  0.023522022    0.0231701           23 
 2964000   0.78091177   -6.8260633    836.88615  0.023529188  0.023163768           10 
 2965000   0.78152612   -6.8435321    837.56668  0.023540379  0.023157433           19 
 2966000   0.78692269   -6.8432354    836.78342  0.023510436  0.023151099           43 
 2967000   0.76946021   -6.8455486     835.0062  0.023452595  0.023144753           15 
 2968000   0.77894557    -6.861857    835.01136  0.023444838  0.023138424           37 
 2969000   0.77242837   -6.8368036    835.42312  0.023448499  0.023132097           28 
 2970000   0.76123753   -6.8667438    837.23353  0.023491401  0.023125777           23 
 2971000   0.77333931   -6.8555625    836.67664  0.023467874  0.023119462           13 
 2972000   0.76706759   -6.8602956    838.12935  0.023500711  0.023113164           15 
 2973000    0.7719079   -6.8509817    837.04485  0.023462408  0.023106849           18 
 2974000   0.77709566   -6.8245042    836.78769  0.023447312   0.02310056           11 
 2975000   0.78293338   -6.8509926    838.52261  0.023488028  0.023094266           26 
 2976000   0.76657169   -6.8283839    836.19998  0.023415098  0.023087964           19 
 2977000   0.76154959   -6.8362265    836.79977  0.023424022  0.023081654           25 
 2978000   0.78470029   -6.8350305    836.41418  0.023405367  0.023075296           11 
 2979000   0.75807351   -6.8828908    835.19319  0.023363354  0.023068907           13 
 2980000   0.77549657   -6.8623262    836.18381  0.023383216  0.023062539           18 
 2981000   0.77844307   -6.8732712    836.67236  0.023389029  0.023056195           13 
 2982000   0.77341825   -6.8441189    836.08127  0.023364668  0.023049841           13 
 2983000   0.78622518    -6.864869     836.8327  0.023377827   0.02304352           13 
 2984000   0.78476761    -6.873378    835.21857  0.023324915  0.023037181           16 
 2985000   0.77227844    -6.886796    835.34764  0.023320705   0.02303084           46 
 2986000   0.77900904   -6.8747056    837.80285  0.023381415  0.023024486           33 
 2987000   0.77133498   -6.8593266    837.54127  0.023366289  0.023018136           19 
 2988000   0.76874368   -6.8686576    838.41612  0.023382868  0.023011826           18 
 2989000   0.75372372   -6.8761239    836.83275  0.023330901  0.023005518           16 
 2990000   0.76631166   -6.8851738    837.54025  0.023342816  0.022999177           19 
 2991000   0.78832175    -6.882628    837.01943  0.023320501  0.022992851           33 
 2992000   0.76074068   -6.8531921     836.6494  0.023302401  0.022986547           33 
 2993000   0.77233096   -6.8601549    838.63548  0.023349913  0.022980245           16 
 2994000   0.77295019   -6.8851324    836.24418  0.023275556  0.022973919           28 
 2995000   0.77327373   -6.8505121    837.21174  0.023294706  0.022967585           20 
 2996000   0.76409737    -6.885753    838.81075  0.023331407  0.022961309           13 
 2997000   0.76362146   -6.8663897    840.26879  0.023364164   0.02295503           47 
 2998000   0.77676638   -6.8690035    839.79235  0.023343127  0.022948768           37 
 2999000   0.76207447   -6.8370026    839.04049  0.023314452  0.022942512           44 
 3000000   0.78965209   -6.8785368    839.24771  0.023312436  0.022936223           33 
 3001000   0.76817946   -6.8767701    840.10289  0.023328415  0.022929974           12 
 3002000   0.76592864   -6.8726562    840.10808  0.023320788  0.022923737           13 
 3003000   0.76894462   -6.8678734    839.46054  0.023295053  0.022917451           10 
 3004000   0.77295755   -6.8696074    839.13457  0.023278256  0.022911158           21 
 3005000   0.76347136   -6.8666027     840.0299  0.023295338  0.022904884           11 
 3006000   0.75342027   -6.8603883    838.66261  0.023249684  0.022898625           12 
 3007000   0.77164948   -6.8386298    838.61663  0.023240678  0.022892346           15 
 3008000     0.797839   -6.8814847    838.66609  0.023234322  0.022886056           20 
 3009000   0.75880294   -6.8815079    839.32322  0.023244799  0.022879763           48 
 3010000   0.77068683   -6.8548533    839.34056  0.023237557  0.022873459           11 
 3011000   0.79009173   -6.8682452    839.94295  0.023246511  0.022867179           11 
 3012000   0.76386712   -6.8687053     840.1716   0.02324512  0.022860889           11 
 3013000   0.75799953   -6.8737961    839.64572   0.02322286  0.022854566           12 
 3014000   0.76808747   -6.8765848    841.42602  0.023264378  0.022848272           20 
 3015000   0.77429331   -6.8655177    840.45403  0.023229796     0.022842            8 
 3016000   0.77338001    -6.850797    840.14072  0.023213437  0.022835707           15 
 3017000   0.78339042   -6.8771915    839.89818  0.023199044  0.022829417           10 
 3018000   0.78193796   -6.8864101    839.75749  0.023187472  0.022823121           11 
 3019000   0.75176286   -6.8739466    839.74636  0.023179484   0.02281679           17 
 3020000   0.77308836   -6.8925995    839.23513  0.023157702  0.022810492           16 
 3021000   0.77220814   -6.8530134    840.94858  0.023197302  0.022804202           20 
 3022000   0.76416689   -6.8659662    840.22639  0.023169711  0.022797938           17 
 3023000   0.76626874   -6.8660418    840.58915  0.023172046  0.022791654           18 
 3024000   0.76629744   -6.8873077     839.1131  0.023123708  0.022785365           15 
 3025000   0.76542616   -6.8795698    839.19728  0.023118382  0.022779037           22 
 3026000   0.75685833   -6.8660321    837.12675  0.023053722  0.022772691           16 
 3027000   0.76474327   -6.8690343    841.07673  0.023154849   0.02276638           21 
 3028000   0.76191372   -6.8734788    839.78438  0.023111635  0.022760102           19 
 3029000   0.75985217   -6.9009316    839.16173  0.023086875  0.022753808           17 
 3030000   0.76871851   -6.8897392    841.28645  0.023137691  0.022747523           21 
 3031000   0.78360309    -6.869719    840.77602  0.023116024  0.022741232           12 
 3032000   0.76371996   -6.8716076    840.12651  0.023090548   0.02273495           16 
 3033000   0.75888664   -6.8696868    840.82178  0.023102038   0.02272865            8 
 3034000   0.76980654   -6.8771006    838.63153  0.023034265  0.022722328            9 
 3035000   0.75752996   -6.8676496    840.11757  0.023067479  0.022716031            9 
 3036000   0.75064792   -6.8757517    840.77458  0.023077915  0.022709714           13 
 3037000   0.76574914   -6.8794963    840.28751  0.023056951  0.022703406           15 
 3038000   0.76009239   -6.8822273    839.30544  0.023022423   0.02269711           12 
 3039000   0.75762498   -6.8812916    841.18365   0.02306635  0.022690787           14 
 3040000   0.78189265   -6.8942902    840.84447  0.023049465  0.022684525           13 
 3041000   0.74618406   -6.8979158     841.2339  0.023052557  0.022678189           15 
 3042000   0.76352956   -6.8782775    841.35775  0.023048371  0.022671869           17 
 3043000   0.76660701   -6.8858914    840.56432  0.023019069  0.022665561            8 
 3044000   0.76452754   -6.8911486     841.1344  0.023027114  0.022659254            7 
 3045000   0.77373031   -6.8523463     839.4579   0.02297367  0.022652936           12 
 3046000   0.75553015   -6.8685879    841.26433  0.023015549  0.022646641           12 
 3047000   0.76819631   -6.8711483    841.05942  0.023002391  0.022640332           20 
 3048000   0.75148595   -6.8985645    838.77234  0.022932315  0.022633995           10 
 3049000   0.77087613   -6.8926952    841.75799  0.023006395  0.022627679           33 
 3050000   0.78985365   -6.8811413    841.15578  0.022982398  0.022621364           15 
 3051000   0.76437241   -6.8646064     841.9803  0.022997386  0.022615072           10 
 3052000     0.746857   -6.8686626    839.63791  0.022925893  0.022608783           12 
 3053000   0.76844564   -6.8676077    841.60446  0.022972062  0.022602553            8 
 3054000   0.77769302   -6.8641935    843.29265  0.023010605  0.022596308           46 
 3055000   0.77131917   -6.8580424    841.44909  0.022952785  0.022590075           26 
 3056000   0.77780475   -6.8910298     842.1606  0.022964676  0.022583832           23 
 3057000   0.77351619   -6.8637422    841.15914  0.022929864  0.022577592           14 
 3058000   0.78333081   -6.8952066    842.59871  0.022961596  0.022571304           32 
 3059000   0.75331512   -6.8991525     841.0036  0.022910635  0.022565009           14 
 3060000   0.73969514   -6.8887656    839.18521  0.022853628  0.022558683           21 
 3061000   0.77359885   -6.9017443    840.89435  0.022892692  0.022552376           35 
 3062000   0.75374649    -6.908852    842.72987   0.02293517  0.022546107           36 
 3063000   0.77339164   -6.9104977     841.5065  0.022894398  0.022539835           24 
 3064000   0.75691093   -6.8662886    840.20936  0.022851647  0.022533554           25 
 3065000   0.76895443   -6.8962899    841.89752   0.02289009   0.02252727           19 
 3066000   0.77597383   -6.8842352    841.62307  0.022875165   0.02252101            9 
 3067000   0.77104534   -6.9043751    842.19493  0.022883244  0.022514741           20 
 3068000   0.76757361   -6.8895728    842.23312  0.022876823  0.022508465           28 
 3069000   0.75405917   -6.9228417    842.50634  0.022876788  0.022502168           59 
 3070000   0.75461339   -6.8952198    841.34117  0.022837708  0.022495899           15 
 3071000   0.76636551   -6.8804363    844.70595  0.022921577  0.022489641           26 
 3072000   0.74370952    -6.869287    842.42001  0.022852105  0.022483368           17 
 3073000   0.75743642   -6.8769999    841.14201  0.022810012  0.022477054           57 
 3074000   0.76293221   -6.9277443    843.50478  0.022866645   0.02247073           19 
 3075000   0.75515038    -6.897757    843.79371  0.022867038  0.022464452           27 
 3076000   0.75712794   -6.8824878    843.64178  0.022855488  0.022458214           22 
 3077000   0.76211608   -6.9344158    842.74129  0.022823673  0.022451987           32 
 3078000    0.7587301   -6.9021715    844.15606  0.022854561  0.022445758           20 
 3079000   0.77036282   -6.9093088    842.14549  0.022792722  0.022439559           12 
 3080000   0.76315593   -6.8583741    844.25889  0.022842502  0.022433356           12 
 3081000    0.7634261    -6.905398     842.8846  0.022797917  0.022427128            9 
 3082000   0.76830451   -6.8885908    843.97656  0.022820045  0.022420924           11 
 3083000   0.76302004   -6.8900236    840.99206  0.022731973  0.022414719           31 
 3084000   0.75232477   -6.8782272    845.40314  0.022843794  0.022408487           21 
 3085000   0.75272815   -6.9114332     843.5115  0.022785292  0.022402239           54 
 3086000   0.74740841   -6.8984508    845.60402  0.022834414  0.022396019           37 
 3087000    0.7502086   -6.9159267    843.25368   0.02276357  0.022389795           12 
 3088000   0.76111652   -6.9127969    842.54009  0.022736941  0.022383551           40 
 3089000   0.75789125   -6.9050784    842.80241  0.022736657  0.022377309           26 
 3090000   0.76400911   -6.9061603    845.02356  0.022789201  0.022371089           12 
 3091000   0.76751596   -6.9100657    844.92673  0.022779217  0.022364867           41 
 3092000   0.74860288   -6.8925036    844.08423  0.022749144  0.022358668           18 
 3093000   0.74974816   -6.8927481    845.94687  0.022791973  0.022352469           15 
 3094000   0.76987355   -6.9069309    845.65891  0.022776851  0.022346307           19 
 3095000   0.75692574   -6.9056774    845.85769  0.022774844  0.022340108           19 
 3096000   0.76986082   -6.9094596    846.50331  0.022784865  0.022333909           14 
 3097000   0.74500697   -6.8816162    845.17127  0.022741666  0.022327717            6 
 3098000   0.75748206   -6.8792314    844.55625  0.022717782  0.022321535           17 
 3099000   0.75585307   -6.8933575    845.12567  0.022725763  0.022315381           17 
 3100000    0.7542308   -6.8818967    846.56434  0.022757106   0.02230922           10 
 3101000   0.75350186    -6.909139    843.75819  0.022674357   0.02230302           20 
 3102000   0.76335869   -6.9016672    844.24717  0.022680184  0.022296846           10 
 3103000   0.75016444   -6.8693475    847.31037  0.022755139  0.022290659           15 
 3104000    0.7329173   -6.8941572    845.12773  0.022689211   0.02228448           13 
 3105000   0.77884087    -6.867329    846.65079   0.02272278  0.022278308           17 
 3106000   0.75893961   -6.8830001    845.24427  0.022677728  0.022272143           10 
 3107000   0.74237926   -6.9007423    844.68059   0.02265531  0.022265947           30 
 3108000   0.75613596   -6.8670655    845.75001  0.022676695  0.022259736           13 
 3109000    0.7617582   -6.9226563    846.16786  0.022680601  0.022253531           30 
 3110000   0.76396758   -6.9076972    845.46845  0.022654567  0.022247325           21 
 3111000   0.73587094   -6.8948932    843.69546  0.022599793  0.022241102           63 
 3112000    0.7557398   -6.8987723    846.80349  0.022675758  0.022234933           38 
 3113000   0.75341118   -6.9045065      845.798  0.022641557  0.022228759           41 
 3114000   0.76062586   -6.9261398    845.36687  0.022622749  0.022222592           41 
 3115000   0.75223165   -6.9188467     845.6443  0.022622908  0.022216399           13 
 3116000   0.74620496   -6.9050012     845.4963   0.02261169  0.022210219           24 
 3117000    0.7581646   -6.8985355    844.83708  0.022586811  0.022204041           22 
 3118000   0.75350585   -6.8958447    847.11142  0.022640352  0.022197886           12 
 3119000   0.75796788   -6.9126592     846.2188  0.022609244  0.022191718           14 
 3120000   0.76158162   -6.8978177    845.87804  0.022592896  0.022185548           17 
 3121000     0.751122   -6.9253275    846.94827  0.022614234  0.022179383           26 
 3122000   0.75570592   -6.9167148    844.03144  0.022529133  0.022173195            6 
 3123000   0.75010188   -6.9175019    846.07848  0.022576542  0.022167013           20 
 3124000   0.76747319   -6.9223623    846.66179  0.022584875  0.022160832           20 
 3125000   0.76327952   -6.9086973    847.08612  0.022588963  0.022154642           12 
 3126000   0.74770295   -6.9011576    845.55816  0.022541005  0.022148471           12 
 3127000    0.7434252   -6.8812245    846.13324  0.022549122  0.022142281           21 
 3128000   0.76000115    -6.894585    845.79094  0.022532794  0.022136123           11 
 3129000   0.75973617   -6.9114658    844.91981  0.022502392  0.022129928            9 
 3130000   0.75652543   -6.9120704    845.60256   0.02251338  0.022123729           26 
 3131000   0.76109907   -6.8927424    844.60767   0.02247971  0.022117527           12 
 3132000    0.7470301   -6.8937043    844.91637  0.022480746  0.022111326           40 
 3133000   0.75089453   -6.8993657    847.08815  0.022531337  0.022105124           22 
 3134000    0.7580393   -6.9074596    846.16945  0.022499719  0.022098922           13 
 3135000   0.76179559   -6.9014858    846.05246  0.022489433  0.022092737           12 
 3136000   0.73311483   -6.8932113    846.44299  0.022492639  0.022086537           15 
 3137000   0.74977383   -6.9153936    845.76027  0.022467333  0.022080341           14 
 3138000   0.74780675   -6.8853355    847.13932  0.022496795  0.022074144           16 
 3139000   0.74142028   -6.9107501    847.59612  0.022501755  0.022067937           15 
 3140000   0.74008361    -6.907201    845.83284  0.022447793  0.022061721           28 
 3141000   0.76101506   -6.9266524    846.41368  0.022456056   0.02205548           42 
 3142000   0.75842283   -6.9383506    844.81821  0.022406594  0.022049257           33 
 3143000   0.75097589   -6.9233296    847.21373  0.022462979  0.022043047           76 
 3144000   0.76013603   -6.9125215    845.50214  0.022410468  0.022036873           17 
 3145000   0.72573467   -6.9282437    847.48499  0.022455882   0.02203068           21 
 3146000   0.74528078   -6.8804558    846.94272   0.02243438  0.022024506           26 
 3147000   0.75514829   -6.8881082    846.56238   0.02241718  0.022018368           12 
 3148000    0.7303626   -6.9197711    846.94953  0.022420307  0.022012214           15 
 3149000   0.75196855   -6.9128934    847.04646  0.022415753   0.02200607           20 
 3150000   0.75445995   -6.9082198    848.62778   0.02245047   0.02199993           30 
 3151000     0.720192   -6.9121502    849.65808  0.022470594  0.021993805           13 
 3152000   0.74664464   -6.9265054    846.40596  0.022377484  0.021987654           27 
 3153000   0.75017488   -6.9023598    847.40984  0.022396919  0.021981486           29 
 3154000   0.74090261   -6.8925736    848.47893  0.022418065  0.021975323           22 
 3155000   0.74145783   -6.9275178    847.74375  0.022391541  0.021969182           19 
 3156000   0.74838406   -6.9208644    847.02523  0.022365474  0.021963012           35 
 3157000   0.76009868   -6.9207295    847.87901  0.022380926  0.021956842           24 
 3158000   0.74064357   -6.9028413    847.92441  0.022375037  0.021950701           51 
 3159000   0.74025792   -6.9012552     847.9676  0.022369094  0.021944584           49 
 3160000   0.74317004   -6.9039995    850.26294  0.022422546  0.021938478           33 
 3161000   0.74286816   -6.9263412     846.8911  0.022326561  0.021932348           46 
 3162000   0.75233625   -6.8735477    849.44351  0.022386768  0.021926233           24 
 3163000   0.72970988   -6.9395551    848.24893  0.022348217  0.021920089           30 
 3164000   0.74865842   -6.8941874    848.40646  0.022345303   0.02191395           24 
 3165000   0.74967853     -6.91239    847.49718  0.022314302  0.021907794           13 
 3166000   0.75648868   -6.9588843    847.63423  0.022310861  0.021901658            9 
 3167000   0.74090089   -6.8888473    848.36039  0.022322924  0.021895524           13 
 3168000   0.76839646   -6.9236839    847.88064  0.022303257   0.02188938           24 
 3169000   0.72088217   -6.9074823    846.84389  0.022268957  0.021883244           19 
 3170000   0.73978387   -6.9195345    848.33396  0.022301103   0.02187707           44 
 3171000   0.73636735   -6.9152024     847.7098  0.022277667  0.021870917           25 
 3172000   0.75460196   -6.9237394    848.03642  0.022279225  0.021864777           28 
 3173000    0.7363628   -6.9193275    849.62627  0.022313958  0.021858634           34 
 3174000   0.74376537   -6.9167062    849.22485  0.022296389  0.021852488           16 
 3175000   0.75444922   -6.9193428    849.74295  0.022302965  0.021846373           29 
 3176000   0.72743251    -6.955689    848.91434  0.022274201  0.021840234            9 
 3177000   0.74184319   -6.9266634    848.19816  0.022248404  0.021834102           17 
 3178000   0.76310777   -6.9052745    847.91491  0.022233976  0.021827993           26 
 3179000   0.74234396   -6.8971748    849.37577  0.022265276  0.021821903           25 
 3180000   0.75405356   -6.9197158    851.37729  0.022310726  0.021815808           47 
 3181000   0.73213545   -6.9170646    847.80979  0.022210253  0.021809716           90 
 3182000   0.73267254   -6.9036104    848.90679  0.022232003   0.02180363           52 
 3183000   0.75374257   -6.9361858    848.45743  0.022213253   0.02179753           90 
 3184000   0.74185859   -6.9320783    850.80957  0.022267839  0.021791425          102 
 3185000    0.7289934   -6.9170967    851.11972  0.022268962  0.021785345          132 
 3186000    0.7235794    -6.909668      851.726   0.02227783   0.02177926          133 
 3187000   0.73905928   -6.9366927    849.51017    0.0222129  0.021773176           86 
 3188000      0.73351   -6.9278353    849.59589  0.022208174  0.021767104          133 
 3189000   0.73396452   -6.9248533    851.64243  0.022254689  0.021761025           57 
 3190000   0.74802115   -6.9103218    850.00439  0.022204921  0.021754958          135 
 3191000   0.73199218   -6.9232803    850.15892  0.022201998  0.021748898          149 
 3192000   0.74378608   -6.9414559    850.24405  0.022197265   0.02174281          165 
 3193000   0.73952282   -6.9196256    851.15501  0.022214088  0.021736713          168 
 3194000    0.7369836    -6.942002    851.45583  0.022214982  0.021730642          174 
 3195000   0.74535593   -6.9392363    850.76989  0.022190138  0.021724564          145 
 3196000    0.7230517   -6.9448821    850.17253  0.022167619   0.02171847          132 
 3197000   0.76333575   -6.9268459    850.40596   0.02216677  0.021712394          118 
 3198000   0.74719638   -6.9385008    850.17343  0.022153779   0.02170634           91 
 3199000   0.72394391   -6.9523195    850.06677  0.022144076  0.021700267          170 
 3200000   0.75049722   -6.9339234     850.9555  0.022160299  0.021694191          102 
 3201000   0.73974082   -6.9441556    849.45664  0.022114356  0.021688123          172 
 3202000    0.7528395   -6.9209952    851.22398  0.022153445  0.021682057          210 
 3203000   0.74290766   -6.9537075    850.27747  0.022121903  0.021675995          178 
 3204000   0.73898678   -6.9632507    849.57401  0.022096702  0.021669925          179 
 3205000   0.72387293   -6.9059819    850.74839  0.022120343  0.021663872          213 
 3206000   0.73465963   -6.9511961    852.97608  0.022171348  0.021657814          199 
 3207000    0.7484926   -6.9311735    851.84606  0.022135071   0.02165175          248 
 3208000   0.74109856   -6.9498654    851.58486  0.022121386  0.021645685          224 
 3209000   0.73722564   -6.9408379    850.97177  0.022098571  0.021639618          223 
 3210000    0.7357992   -6.9207954    849.53085   0.02205428  0.021633545          193 
 3211000   0.71628241    -6.925046    849.45154  0.022045353  0.021627488          207 
 3212000   0.72957717   -6.9709116    850.91462  0.022076448  0.021621398          202 
 3213000   0.74131646   -6.9676162    849.03168  0.022020741  0.021615288          261 
 3214000   0.71741709   -6.9647892    849.94024  0.022037447  0.021609169          264 
 3215000   0.73399892   -6.9504027    849.92228  0.022030126  0.021603056          236 
 3216000    0.7283864   -6.9639281    849.09773   0.02200191  0.021596924          277 
 3217000   0.73741203   -6.9573994      849.451  0.022004222  0.021590791          353 
 3218000   0.73501272   -6.9937457    851.98575  0.022063024   0.02158463          335 
 3219000   0.74400317   -6.9986542    848.80263  0.021973766   0.02157847          339 
 3220000   0.76075582   -6.9561254    848.67565  0.021963656  0.021572327          337 
 3221000   0.73208859   -6.9706898    848.94355  0.021963768  0.021566188          320 
 3222000   0.72922886   -6.9640603     850.6102  0.022000057  0.021560064          387 
 3223000   0.73334961   -6.9806165    849.77203  0.021971559  0.021553941          426 
 3224000   0.72537604   -6.9612177    850.06344  0.021972277  0.021547847          359 
 3225000   0.74340708   -6.9356021    850.50239  0.021976806  0.021541781          398 
 3226000   0.72365092   -6.9791121    852.04913  0.022009948  0.021535693          471 
 3227000   0.74837198    -6.963322     851.2725  0.021983073  0.021529581          530 
 3228000   0.74719068   -6.9537579    851.11614  0.021972226  0.021523476          581 
 3229000   0.74889421   -6.9730523    850.05167   0.02193795   0.02151737          504 
 3230000   0.73341191    -6.981826    852.08951  0.021983734   0.02151127          511 
 3231000   0.74038052    -6.999259    851.37199  0.021958423  0.021505139          518 
 3232000   0.73846446   -7.0232505    849.88276  0.021913231  0.021498971          509 
 3233000   0.72830206   -7.0150618    849.85467  0.021905729  0.021492819          726 
 3234000   0.74074984   -7.0085696    849.93645  0.021901063  0.021486678          746 
 3235000   0.74094525   -7.0284131    851.32924  0.021930171  0.021480509          712 
 3236000   0.73371195   -7.0093117    849.55417  0.021877683  0.021474343          772 
 3237000     0.729032   -7.0161976    849.48541  0.021869154  0.021468172          713 
 3238000    0.7441165   -7.0354999     850.9045  0.021898922   0.02146201          780 
 3239000   0.72578989   -7.0282141    850.23303  0.021874885  0.021455844          718 
 3240000   0.73440634   -7.0037807    849.47465  0.021848628  0.021449696          742 
 3241000    0.7374783   -7.0234524    850.68788  0.021873081  0.021443518          841 
 3242000   0.73127683   -7.0161736    848.56654  0.021811807  0.021437334          820 
 3243000    0.7230509   -7.0293293    850.35055  0.021850924  0.021431126          815 
 3244000   0.74175428    -7.035263    847.24268  0.021764352  0.021424911          902 
 3245000   0.70871063   -7.0368464    849.91711  0.021826325  0.021418696          814 
 3246000   0.71084748   -7.0087804    849.95637  0.021820609  0.021412472          901 
 3247000   0.73790816   -7.0456516    848.12145  0.021766796  0.021406282         1005 
 3248000   0.74206887   -7.0384516    848.20012  0.021762113  0.021400072          980 
 3249000   0.72319212    -7.022843    849.23577  0.021781978  0.021393862          960 
 3250000   0.73693145   -7.0434956    849.93055  0.021793091   0.02138764          897 
 3251000   0.73701656   -7.0346424    848.21885  0.021742511  0.021381426          935 
 3252000   0.72490909   -7.0178961    849.94961  0.021780176  0.021375218          984 
 3253000   0.73427565   -7.0259903    848.11913  0.021726589  0.021368994         1026 
 3254000    0.7323931   -7.0269542    847.99219  0.021716661  0.021362773         1048 
 3255000   0.72466595   -7.0565521    847.23664  0.021690646  0.021356514         1027 
 3256000   0.72547378   -7.0584081    846.50761  0.021665326  0.021350266         1204 
 3257000   0.73202963   -7.0536182    846.23914  0.021651805  0.021343999         1185 
 3258000   0.73079016   -7.0741193    847.64864  0.021681211  0.021337715         1265 
 3259000   0.71935919   -7.0695346    847.63821  0.021674292  0.021331427         1305 
 3260000   0.74447011   -7.0821746    847.66117   0.02166823  0.021325121         1287 
 3261000   0.73368794   -7.0984229    847.90641  0.021667853  0.021318812         1393 
 3262000   0.73978052   -7.0797276    846.49711  0.021625207  0.021312489         1361 
 3263000   0.72580209   -7.0900054    845.71435  0.021598589  0.021306152         1352 
 3264000   0.71890309   -7.0839086    845.55949  0.021588018  0.021299791         1435 
 3265000   0.73373836    -7.115395      845.559  0.021581394  0.021293427         1461 
 3266000   0.73106532   -7.1071356    845.21575  0.021566027  0.021287075         1401 
 3267000   0.73518321   -7.1057651    845.08931  0.021556201  0.021280717         1439 
 3268000   0.73011917     -7.11605    844.72636   0.02154035  0.021274341         1519 
 3269000   0.74429014   -7.1145724      844.688  0.021532783  0.021267959         1566 
 3270000   0.72841569   -7.1513151    844.25504  0.021515164  0.021261568         1656 
 3271000   0.72154282    -7.142044    845.14645  0.021531296   0.02125516         1649 
 3272000   0.71880896   -7.1326121    844.78732  0.021515569  0.021248741         1671 
 3273000   0.71648395   -7.1375354    845.09721  0.021516886  0.021242302         1706 
 3274000   0.72244449   -7.1444434    843.85561  0.021478711  0.021235864         1816 
 3275000   0.74898936   -7.1552935    846.21993  0.021532314  0.021229403         1800 
 3276000    0.7329572   -7.1507452    842.48333  0.021430691  0.021222919         1920 
 3277000   0.73575747   -7.1500974    843.27176  0.021444201   0.02121644         1950 
 3278000   0.72531275   -7.1382529    843.33452  0.021439255  0.021209948         1986 
 3279000   0.72671098   -7.1587448    844.13246  0.021452995  0.021203422         2052 
 3280000   0.72814581   -7.1857526    841.94722  0.021390935  0.021196875         2087 
 3281000   0.74218309   -7.2004154    841.50657  0.021373224  0.021190324         2130 
 3282000    0.7253008   -7.2083993     841.2186    0.0213594   0.02118375         2169 
 3283000   0.70823616   -7.1961997    841.93712  0.021371132  0.021177169         2156 
 3284000   0.75251953   -7.1888343    839.87866   0.02131239  0.021170576         2332 
 3285000    0.7265489   -7.2190095    841.37176  0.021343779  0.021163962         2362 
 3286000   0.72760599   -7.2060219    841.93436  0.021351551  0.021157336         2365 
 3287000   0.73009063   -7.2450379    840.12226  0.021299114  0.021150687         2465 
 3288000   0.72162633    -7.259062    840.52888  0.021302942  0.021144028         2488 
 3289000    0.7352496   -7.2470084    838.80961  0.021252904  0.021137357         2578 
 3290000   0.71686725   -7.2584679    839.36547  0.021260523  0.021130668         2728 
 3291000   0.72498087   -7.2592956    838.78954   0.02123948  0.021123963         2826 
 3292000   0.73643285     -7.30317    837.33702  0.021196259  0.021117235         2829 
 3293000   0.74258094   -7.2752198    838.76445  0.021225945  0.021110508         2874 
 3294000   0.74310978   -7.2549274    838.43892  0.021211266  0.021103775         2880 
 3295000   0.72930747   -7.2784576    836.70757  0.021161041  0.021097012         3046 
 3296000   0.72436455   -7.3122759    836.86694   0.02115865  0.021090212         3059 
 3297000   0.73098006   -7.3305707    836.73697  0.021148948  0.021083403         3118 
 3298000    0.7314428   -7.3134296    836.68295   0.02114117  0.021076576         3137 
 3299000   0.72099193   -7.3237987    834.89067  0.021089488  0.021069749         3201 
 3300000   0.70747557   -7.3288238    834.73297  0.021079116  0.021062892         3256 
 3301000   0.72256664    -7.324026    834.54212  0.021067912  0.021056042         3204 
 3302000   0.71035409   -7.3568913    834.50422  0.021060575  0.021049179         3279 
 3303000   0.73094515   -7.3663155    834.14792  0.021045209  0.021042301         3306 
 3304000   0.72263142   -7.3618895    835.32988  0.021068651  0.021035426         3269 
 3305000   0.71923501   -7.3744187    833.50703  0.021016314  0.021028543         3335 
 3306000   0.72338406   -7.3687139    834.70367  0.021040121  0.021021643         3363 
 3307000    0.7363922   -7.3715735    834.22809  0.021021774   0.02101475         3385 
 3308000     0.725177   -7.3683598    832.30044  0.020966859  0.021007838         3445 
 3309000   0.73353183   -7.3856716    833.73118  0.020996554  0.021000941         3350 
 3310000   0.73477351   -7.3789983    832.30083    0.0209542  0.020994019         3465 
 3311000   0.72325899   -7.3670405    833.29863  0.020972985  0.020987091         3472 
 3312000   0.73561599   -7.3971136    834.21164  0.020989625  0.020980161         3487 
 3313000   0.71430506   -7.3887914    831.61328  0.020917931  0.020973231         3558 
 3314000   0.72214095   -7.3773709    832.89508  0.020943851  0.020966285         3511 
 3315000   0.73202688   -7.3870696    833.32329  0.020948298  0.020959347         3517 
 3316000   0.71641374   -7.3830639     830.9293  0.020881818  0.020952401         3567 
 3317000   0.72067327   -7.3919369    832.67991  0.020919503  0.020945434         3595 
 3318000    0.7293894   -7.4020287    832.06112  0.020897657   0.02093848         3525 
 3319000   0.73534534   -7.3935402    833.45287  0.020926305  0.020931529         3565 
 3320000   0.71417366   -7.3989787    831.69552  0.020875892  0.020924558         3616 
 3321000   0.72795435   -7.3979063    831.90853  0.020874951   0.02091759         3631 
 3322000   0.71104985   -7.4273752    831.23156  0.020851685  0.020910626         3577 
 3323000   0.73616803   -7.4039285    831.74107  0.020858187  0.020903658         3587 
 3324000   0.71380049   -7.4220483    831.67442  0.020850241  0.020896695         3563 
 3325000   0.71906084   -7.4059904    831.99495  0.020852004  0.020889719         3619 
 3326000    0.7219779   -7.4081631    832.44417   0.02085699  0.020882736         3630 
 3327000   0.71801912    -7.422245    831.81284  0.020834907   0.02087575         3623 
 3328000   0.73916202   -7.4206413    832.73554  0.020851751  0.020868782         3613 
 3329000   0.71124459   -7.4115584    831.43374    0.0208129  0.020861804         3645 
 3330000   0.72264943    -7.422328    832.36117  0.020829859   0.02085484         3608 
 3331000   0.72102901   -7.4437435     833.0318  0.020840383  0.020847866         3585 
 3332000   0.72019094   -7.4334674     831.3081  0.020791019  0.020840881         3593 
 3333000   0.70409425    -7.417589    831.51895  0.020790053  0.020833904         3590 
 3334000   0.71710578   -7.4269097    829.75085  0.020739623  0.020826927         3618 
 3335000    0.7221898    -7.411176    831.91187  0.020787403  0.020819946         3624 
 3336000   0.73010945   -7.4117216    831.27475  0.020765256  0.020812967         3590 
 3337000   0.72269111   -7.4007004    831.33523  0.020760544  0.020805987         3615 
 3338000   0.72929177   -7.4221673    830.52284  0.020734043  0.020799011         3617 
 3339000   0.73383122   -7.4162867    830.45392  0.020726113  0.020792035         3622 
 3340000   0.71319715   -7.4076883    830.09745  0.020711014  0.020785063         3616 
 3341000   0.71719288   -7.4345399    831.44577  0.020738446  0.020778073         3661 
 3342000   0.71183062   -7.4394343    831.36327  0.020730183  0.020771099         3659 
 3343000   0.70596093   -7.4019203    831.52745  0.020728075  0.020764107         3694 
 3344000   0.71595319   -7.4332828    831.64615  0.020724834  0.020757128         3640 
 3345000   0.74086783   -7.4188964    832.18569   0.02073208  0.020750155         3607 
 3346000   0.70970447   -7.4319527    830.95944  0.020695344   0.02074318         3655 
 3347000   0.72009164   -7.4202365    829.88957  0.020662523    0.0207362         3658 
 3348000   0.71373188   -7.4322127    829.88065  0.020656129  0.020729209         3616 
 3349000   0.70450621   -7.4227992    830.04422  0.020654032  0.020722222         3658 
 3350000   0.72048576    -7.434425    829.71552   0.02063969  0.020715225         3663 
 3351000   0.71617983   -7.4094344    829.89272  0.020637937  0.020708241         3645 
 3352000   0.71186872   -7.4297527    831.71062  0.020676975  0.020701238         3679 
 3353000   0.72415715   -7.4378814    831.48273  0.020665144   0.02069424         3679 
 3354000   0.73060528   -7.4446869     828.9894  0.020597033   0.02068724         3682 
 3355000   0.71394598   -7.4349863    832.06726  0.020667344  0.020680243         3665 
 3356000   0.70152437   -7.4559386    829.65806  0.020601362  0.020673239         3684 
 3357000    0.7179886   -7.4197038     830.1138  0.020606539  0.020666252         3675 
 3358000   0.71105041   -7.4330994    830.00088    0.0205976   0.02065926         3643 
 3359000   0.72089999   -7.4385139    830.65978  0.020607814  0.020652282         3649 
 3360000   0.70907476   -7.4488016     830.0384   0.02058627  0.020645296         3625 
 3361000   0.71791038   -7.4396353    831.26383  0.020610528  0.020638306         3627 
 3362000    0.7142272   -7.4243376      832.043  0.020623711   0.02063132         3684 
 3363000   0.71991006   -7.4574656    829.53175  0.020555351  0.020624333         3691 
 3364000   0.72763883   -7.4541798    830.12319  0.020563892  0.020617346         3672 
 3365000     0.721924    -7.437296    831.50802  0.020592076  0.020610351         3633 
 3366000   0.72352021   -7.4491357    829.58801  0.020538424  0.020603354         3678 
 3367000   0.70618418   -7.4331975      830.257  0.020548881  0.020596369         3654 
 3368000   0.72341186   -7.4332768    829.70663  0.020529163  0.020589389         3684 
 3369000   0.70493365   -7.4456173    829.49965  0.020517949  0.020582396         3621 
 3370000   0.68932242    -7.441778    829.31204  0.020507222  0.020575396         3656 
 3371000   0.71422348   -7.4508853    829.15415  0.020497235  0.020568403         3680 
 3372000   0.70483208   -7.4638287    829.37163  0.020496531  0.020561413         3718 
 3373000   0.70363643   -7.4699663    829.47646  0.020493044  0.020554421         3650 
 3374000    0.7021248    -7.462584    830.16778  0.020504045  0.020547441         3672 
 3375000   0.70480843   -7.4461958    830.87791  0.020515504  0.020540477         3666 
 3376000   0.69846614   -7.4406724    830.16398  0.020491804  0.020533504         3674 
 3377000   0.71686345   -7.4694433    830.36807  0.020490773  0.020526533         3653 
 3378000   0.72416918   -7.4570743    830.24887  0.020481766  0.020519569         3632 
 3379000    0.7199765   -7.4546945    829.35115  0.020453565  0.020512598         3608 
 3380000   0.71966849   -7.4465125    830.65389  0.020479632  0.020505637         3600 
 3381000   0.70708608   -7.4671968    830.76821  0.020476393  0.020498664         3655 
 3382000   0.71139825   -7.4709408    831.43369  0.020486736  0.020491701         3667 
 3383000   0.71050308   -7.4552163    831.14223  0.020473501  0.020484735         3632 
 3384000   0.70953567   -7.4305127    832.43073  0.020499181  0.020477775         3657 
 3385000   0.69457912   -7.4633992    828.49178  0.020396154  0.020470805         3711 
 3386000    0.7122147   -7.4615093    830.49289   0.02043938  0.020463829         3646 
 3387000   0.71526213   -7.4447711    829.66728  0.020413032  0.020456869         3639 
 3388000   0.71945398   -7.4357238    829.91251  0.020413039  0.020449916         3609 
 3389000     0.722657   -7.4411722    831.66982  0.020450227  0.020442961         3624 
 3390000   0.72560736   -7.4445823    830.58076  0.020417423  0.020436009         3661 
 3391000   0.69768803   -7.4357602    831.82104  0.020441881  0.020429053         3638 
 3392000   0.70996995   -7.4470662    830.96823  0.020414903   0.02042211         3620 
 3393000   0.69763917   -7.4808004    830.13146  0.020388335  0.020415154         3655 
 3394000    0.6961215   -7.4518053    830.81401  0.020399087  0.020408207         3664 
 3395000   0.71251757   -7.4488854    829.36179  0.020357432  0.020401247         3587 
 3396000   0.72193544   -7.4597134    829.95422  0.020365975  0.020394311         3635 
 3397000   0.71107429   -7.4563904    830.88469  0.020382806  0.020387366         3641 
 3398000   0.70255337   -7.4519494    830.40946  0.020365153  0.020380421         3621 
 3399000   0.70772173   -7.4637637    830.55098  0.020362631  0.020373485         3633 
 3400000   0.71873835   -7.4488989    831.00893  0.020367866  0.020366544         3631 
 3401000   0.69924794   -7.4394788    830.50096  0.020349431   0.02035961         3632 
 3402000   0.70802536   -7.4757981    830.45317  0.020342278   0.02035267         3634 
 3403000   0.71261233   -7.4483042    829.48608  0.020312618  0.020345723         3656 
 3404000   0.71097909    -7.456919     830.5537  0.020332787  0.020338771         3668 
 3405000   0.71407718   -7.4797178     828.7575  0.020282856  0.020331826         3674 
 3406000   0.70424648   -7.4652258    830.72917  0.020325141  0.020324866         3657 
 3407000   0.70969155   -7.4275038    830.75254  0.020319747  0.020317927         3692 
 3408000   0.70782411   -7.4715298     828.5532  0.020260006  0.020310984         3695 
 3409000   0.70308847   -7.4510155    830.67027  0.020305815  0.020304045         3674 
 3410000   0.70165456   -7.4727305    829.90149  0.020281073  0.020297099         3703 
 3411000   0.71108652   -7.4557247    828.21404  0.020233901  0.020290159         3680 
 3412000   0.70655848   -7.4757654    829.25148  0.020253309  0.020283223         3675 
 3413000   0.70208698    -7.451862    830.37817  0.020274884  0.020276284         3658 
 3414000   0.69507535   -7.4726533    829.17951  0.020239687  0.020269346         3667 
 3415000   0.70049995    -7.467644    830.42131  0.020264063  0.020262401         3666 
 3416000   0.71319636   -7.4765258    829.44286  0.020234262  0.020255453         3644 
 3417000   0.71227039   -7.4656786    830.15659  0.020245747  0.020248513         3690 
 3418000   0.71298955   -7.4599459    830.28003  0.020242833  0.020241575         3679 
 3419000   0.70501762   -7.4726306    829.95937  0.020229097  0.020234645         3665 
 3420000   0.69556911   -7.4618319    831.92117  0.020270984  0.020227719         3636 
 3421000   0.70547911   -7.4554737    830.65289  0.020234164  0.020220786         3685 
 3422000   0.70150504   -7.4445086    830.69423  0.020229258  0.020213858         3626 
 3423000   0.71867682   -7.4571529    829.84783  0.020202742  0.020206935         3621 
 3424000   0.71227055   -7.4740172    830.73875  0.020218525  0.020200006         3646 
 3425000   0.70370321   -7.4670099    831.68378  0.020235615   0.02019308         3635 
 3426000   0.70969237   -7.4429485    832.35755  0.020246097  0.020186156         3632 
 3427000   0.70417863   -7.4477015    829.64836  0.020174311  0.020179237         3644 
 3428000   0.69654334   -7.4717952    829.50866   0.02016503   0.02017232         3624 
 3429000   0.71080559   -7.4811086    829.34392  0.020155145   0.02016539         3668 
 3430000    0.6895386   -7.4630058    829.36509  0.020149784  0.020158475         3680 
 3431000   0.70260737   -7.4740447    829.26766  0.020141544  0.020151559         3667 
 3432000   0.70349267   -7.4769386    829.55759  0.020142715  0.020144644         3653 
 3433000   0.68846245   -7.4771188    829.49689  0.020135375  0.020137735         3661 
 3434000   0.70216201   -7.4467821    829.59419  0.020131872   0.02013082         3626 
 3435000   0.71300988   -7.4797335     829.7449  0.020129668  0.020123899         3627 
 3436000   0.71687649   -7.4630916    828.61827  0.020096485   0.02011699         3642 
 3437000   0.69365709   -7.4906763    829.46343   0.02011113  0.020110076         3671 
 3438000   0.72298732   -7.4716745     830.0102  0.020118533  0.020103164         3667 
 3439000   0.69372678   -7.4579736    830.83544   0.02013268  0.020096247         3664 
 3440000   0.68684243   -7.4654305    828.72515  0.020075706  0.020089335         3639 
 3441000   0.68177733   -7.4953846    829.23583  0.020082239  0.020082421         3644 
 3442000   0.71349741   -7.4799573    828.33999  0.020054716  0.020075511         3665 
 3443000     0.694879   -7.4933786    829.60186  0.020079433  0.020068618         3643 
 3444000    0.6980595   -7.4801614    829.37154   0.02006803  0.020061714         3704 
 3445000   0.69747357   -7.4594821    829.49639  0.020065225  0.020054815         3649 
 3446000   0.69579731   -7.4954514    831.04365  0.020096819  0.020047915         3639 
 3447000    0.7127675   -7.4869432    829.84792  0.020062081  0.020041013         3704 
 3448000    0.6894712   -7.4877029    829.64467   0.02005135  0.020034122         3649 
 3449000   0.70111715   -7.4499516    829.78717   0.02004898  0.020027237         3614 
 3450000   0.70099081   -7.4763425    829.56208  0.020037731  0.020020354         3633 
 3451000   0.71257964    -7.475492    829.03561  0.020019212  0.020013462         3672 
 3452000   0.70140381   -7.4691769    829.65939  0.020028471  0.020006574         3635 
 3453000   0.67878601   -7.4982411    828.27709  0.019989311  0.019999698         3675 
 3454000   0.71762889   -7.4861597    828.45466  0.019987808  0.019992813         3659 
 3455000   0.68644154   -7.4668403     829.4312  0.020005576  0.019985937         3684 
 3456000    0.6932351   -7.4674172    829.63843  0.020004785  0.019979055         3637 
 3457000   0.69591571   -7.4779814    828.03491  0.019960344  0.019972169         3679 
 3458000   0.69313102   -7.4816266    828.31337  0.019961282  0.019965294         3670 
 3459000   0.69606225   -7.4950816    829.90477  0.019993851  0.019958417         3622 
 3460000   0.69293984   -7.4655935    829.61682  0.019981137  0.019951544         3653 
 3461000   0.68058884   -7.4790555    830.37682  0.019993663  0.019944667         3638 
 3462000   0.70134543   -7.4814383    829.25197  0.019960812  0.019937797         3681 
 3463000   0.70086575   -7.4706699    827.76237  0.019919202  0.019930932         3655 
 3464000   0.68672664   -7.4455436    828.66108  0.019935072   0.01992407         3662 
 3465000   0.69990616    -7.493897    831.28771  0.019992489  0.019917207         3628 
 3466000   0.68908103   -7.4920742    829.29121  0.019938719  0.019910341         3629 
 3467000   0.70238233   -7.4751673    831.31555  0.019981625  0.019903467         3664 
 3468000   0.69766626   -7.4701688    830.82688  0.019964122  0.019896606         3662 
 3469000   0.67248491    -7.498261    828.42016  0.019900552  0.019889745         3646 
 3470000   0.70323226   -7.4839906    829.42374  0.019918918  0.019882885         3680 
 3471000   0.70582589    -7.475137    829.30962  0.019910439  0.019876027         3630 
 3472000   0.68461844   -7.5066113    829.18883  0.019901806  0.019869167         3677 
 3473000   0.69326749   -7.4816326    830.94025    0.0199381   0.01986231         3641 
 3474000   0.69795523   -7.4797508    829.30032  0.019893022  0.019855454         3626 
 3475000      0.68923   -7.4659076    829.74202   0.01989789    0.0198486         3649 
 3476000   0.70838139   -7.4745631    830.93785  0.019920835   0.01984175         3644 
 3477000   0.70498789   -7.4806212    829.89903  0.019890208  0.019834903         3670 
 3478000   0.70632943   -7.4799525    827.81359  0.019834522  0.019828053         3677 
 3479000   0.68574689   -7.4618745    828.41567  0.019843242  0.019821207         3657 
 3480000   0.70128557   -7.4729571    828.73619  0.019845215  0.019814366         3671 
 3481000   0.69316608   -7.4856908    827.05895  0.019799362  0.019807518         3682 
 3482000   0.70476989   -7.4582006    828.49304  0.019827997  0.019800668         3681 
 3483000   0.69273858    -7.480142    828.73333  0.019828054  0.019793828         3626 
 3484000    0.7013975   -7.4868549    828.85923  0.019825374     0.019787         3643 
 3485000   0.68344659   -7.4982134    829.42653   0.01983325  0.019780157         3673 
 3486000   0.69722066   -7.4914845    830.55337  0.019854498  0.019773315         3647 
 3487000    0.6900598   -7.4515785    829.37895  0.019820738  0.019766491         3664 
 3488000   0.69763449   -7.4965827    829.22771  0.019811442  0.019759658         3653 
 3489000   0.70140021    -7.476911    827.87961  0.019773565  0.019752836         3622 
 3490000   0.71269761   -7.4724259    829.94336  0.019817177  0.019746013         3659 
 3491000   0.70024575   -7.5061677    828.58896  0.019779169  0.019739186         3661 
 3492000   0.71002775   -7.4657953    829.61951  0.019798098  0.019732362         3618 
 3493000   0.68639858   -7.4832195    830.07242  0.019803236  0.019725546         3656 
 3494000   0.70100494    -7.481001    827.53545   0.01973706  0.019718724         3656 
 3495000   0.69012302   -7.4903358    828.28902  0.019749381  0.019711905         3680 
 3496000   0.68276575   -7.5049255    829.20875  0.019765655  0.019705088         3642 
 3497000   0.68213685   -7.4895607    830.80971  0.019798153  0.019698271         3683 
 3498000   0.67390855   -7.4956481    828.88229  0.019746576  0.019691449         3690 
 3499000   0.68332256   -7.4855101     829.6267  0.019758662  0.019684637         3652 
 3500000   0.71702535   -7.5027018    829.41587  0.019747997  0.019677827         3695 
 3501000   0.69559419   -7.4724803    828.28156  0.019715357  0.019671023         3635 
 3502000   0.69304861   -7.4650611    829.13917  0.019730135  0.019664217         3625 
 3503000   0.69494546   -7.4679005    829.04077  0.019722161  0.019657405         3610 
 3504000    0.7031241   -7.4766687    829.99061  0.019739122    0.0196506         3642 
 3505000   0.69302161   -7.5036836    830.02206  0.019734238  0.019643797         3636 
 3506000   0.69253082   -7.4997457    829.21148  0.019709343  0.019637001         3670 
 3507000    0.6800454   -7.4950739    827.77509  0.019669592    0.0196302         3680 
 3508000   0.68602225   -7.4892033    831.24355  0.019746378  0.019623409         3660 
 3509000   0.68783318   -7.4935428    828.02406  0.019664293  0.019616615         3660 
 3510000   0.69704635   -7.4780479    828.56678  0.019671576  0.019609831         3659 
 3511000   0.68430211   -7.4828264    829.88294  0.019697212  0.019603032         3676 
 3512000   0.66927831   -7.5011188    828.64112  0.019662138  0.019596233         3658 
 3513000   0.68493284   -7.5350522    829.09644  0.019667341  0.019589436         3627 
 3514000   0.68627618   -7.4957054    827.83305  0.019631784  0.019582641         3645 
 3515000   0.70114945    -7.515445    829.91222  0.019675491  0.019575842         3664 
 3516000   0.70512497   -7.4898464     829.0464  0.019649374  0.019569056         3679 
 3517000   0.68547088   -7.4945774    828.15604  0.019622691  0.019562274         3665 
 3518000    0.6845974   -7.4908649    829.81553  0.019656422  0.019555494         3632 
 3519000   0.69452898    -7.526891    829.09437  0.019633759  0.019548714         3690 
 3520000   0.70718475   -7.4615175    827.89379  0.019599758  0.019541929         3656 
 3521000   0.70368864   -7.4689496    828.97741  0.019619838  0.019535157         3642 
 3522000   0.69976314   -7.4864419    827.60631  0.019581826  0.019528388         3671 
 3523000   0.68935332   -7.4991452    828.35878  0.019594067  0.019521618         3657 
 3524000   0.67917048   -7.4985136    829.42362  0.019613688   0.01951485         3681 
 3525000   0.68665035   -7.4967272    828.84432  0.019594428  0.019508078         3643 
 3526000   0.69995173   -7.5007244    828.81281  0.019588126   0.01950131         3618 
 3527000   0.67606835   -7.4849074    828.29493  0.019570337  0.019494545         3653 
 3528000    0.6995015   -7.4882479     828.6078   0.01957218  0.019487778         3682 
 3529000   0.68455892   -7.5001206    827.28682   0.01953544  0.019481017         3649 
 3530000   0.69830483   -7.4858499    827.26196  0.019529319  0.019474246         3620 
 3531000   0.68353027   -7.5156607     827.7935  0.019536333  0.019467487         3642 
 3532000     0.699116   -7.5140869    828.15876   0.01953942  0.019460723         3675 
 3533000    0.6803103   -7.4970156    829.49834  0.019565486  0.019453962         3672 
 3534000   0.67135199   -7.4846302    828.59631  0.019538679  0.019447199         3664 
 3535000   0.68098124   -7.5079972    829.08626  0.019544702  0.019440434         3660 
 3536000   0.67787195   -7.5251107    829.94711  0.019559462  0.019433687         3631 
 3537000   0.68743024   -7.5122003    827.62164  0.019499143  0.019426929         3638 
 3538000   0.68879839   -7.5123793    827.82898  0.019498516  0.019420175         3643 
 3539000   0.69434613   -7.4957907    828.53046  0.019509524  0.019413425         3652 
 3540000   0.68714899   -7.5050657    828.72565  0.019508607  0.019406668         3674 
 3541000   0.66779522   -7.5158797    828.99594  0.019509459  0.019399927         3671 
 3542000   0.68725287   -7.4953393    829.08433  0.019506031  0.019393182         3690 
 3543000   0.67644648   -7.4993257     830.2823  0.019528702  0.019386438         3630 
 3544000    0.6835131   -7.4965374    830.38565  0.019525622  0.019379703         3612 
 3545000   0.67691436   -7.4945441    828.78075  0.019482387  0.019372972         3657 
 3546000   0.69137026   -7.5055396    827.13371  0.019438186  0.019366239         3660 
 3547000   0.67886053   -7.4919683    830.74916  0.019517648  0.019359511         3632 
 3548000   0.70533293   -7.4971377    830.34173  0.019502577  0.019352789         3667 
 3549000   0.67255685   -7.4957716    828.14345  0.019445465  0.019346058         3652 
 3550000    0.6752979   -7.5007362    827.46317  0.019424018   0.01933933         3677 
 3551000   0.69602315   -7.5099395    828.31945  0.019438643  0.019332604         3656 
 3552000   0.69666899   -7.5108046    827.88158  0.019422898  0.019325875         3642 
 3553000   0.67061369   -7.5052126    826.53144  0.019385764  0.019319148         3671 
 3554000    0.6707558   -7.5046929    825.80235  0.019363214  0.019312422         3652 
 3555000   0.67270611   -7.5136186    827.85918  0.019405982  0.019305703         3641 
 3556000   0.68247642   -7.5120596    829.47373  0.019438361  0.019298988         3688 
 3557000   0.67181283   -7.5193591    827.53343  0.019387439  0.019292278         3693 
 3558000   0.67678318   -7.4954229    827.84749  0.019389345  0.019285567         3665 
 3559000   0.68279825   -7.5088357    828.09067  0.019389591  0.019278864         3663 
 3560000   0.68295676   -7.5143914    828.60586  0.019396205  0.019272154         3701 
 3561000   0.68164228   -7.5001444    828.79702  0.019395231   0.01926544         3632 
 3562000   0.66296238   -7.4967992    827.17152  0.019351757  0.019258729         3628 
 3563000   0.68375912   -7.5181298    829.37944  0.019397966  0.019252018         3641 
 3564000   0.65806921   -7.5165562    828.41538  0.019369982  0.019245316         3648 
 3565000   0.67525191   -7.5077782    828.97572  0.019377647  0.019238614         3664 
 3566000   0.67241445   -7.5104778    827.74006  0.019343337  0.019231918         3660 
 3567000   0.67418024   -7.5035899    828.45223  0.019354552  0.019225227         3649 
 3568000   0.67965874   -7.4902676    828.12549  0.019341496  0.019218533         3664 
 3569000    0.6838391   -7.5087448    828.29844  0.019340115  0.019211834         3695 
 3570000   0.68396108   -7.5073001    828.93274  0.019349504  0.019205139         3697 
 3571000   0.68805734   -7.4993226    828.95288  0.019344555  0.019198456         3633 
 3572000    0.6824405    -7.507465    828.06503  0.019318426  0.019191774         3637 
 3573000   0.67767161    -7.518118    828.49367  0.019323017  0.019185093         3659 
 3574000   0.68322967   -7.5143715    828.02337  0.019306644  0.019178413         3650 
 3575000   0.67620863   -7.5079808    826.67826  0.019269889  0.019171727         3651 
 3576000    0.6814654   -7.5172332    829.36664  0.019327149  0.019165041         3635 
 3577000   0.67478256   -7.5080737    828.88036  0.019310417  0.019158365         3624 
 3578000   0.68391623   -7.5073356    827.78239  0.019279448  0.019151689         3624 
 3579000   0.69157954   -7.5262855    827.86036  0.019275877  0.019145011         3637 
 3580000   0.68619883   -7.5200543    828.82793  0.019293015  0.019138335         3673 
 3581000   0.67102493   -7.5139136     828.0667  0.019269913  0.019131651         3657 
 3582000   0.67277587   -7.5217739    828.84247  0.019282581  0.019124982         3664 
 3583000   0.67623743   -7.5133805    827.43052   0.01924436  0.019118307         3665 
 3584000   0.68215712   -7.5159069    827.89712   0.01924984  0.019111635         3669 
 3585000   0.68020901   -7.5024096    829.78693  0.019288399  0.019104968         3687 
 3586000   0.68199486   -7.5200451    827.47508  0.019229296  0.019098296         3652 
 3587000   0.66281414   -7.5192515    828.26794  0.019242355  0.019091629         3644 
 3588000   0.69301282    -7.513795    827.32874  0.019215179  0.019084967         3684 
 3589000    0.6764656   -7.5144424    827.97831  0.019224907  0.019078301         3676 
 3590000   0.66549334    -7.514527     827.9561  0.019219037  0.019071634         3677 
 3591000   0.67916543   -7.5233989    827.47821  0.019202595  0.019064975         3644 
 3592000   0.67274348   -7.5156234     826.9727  0.019185521  0.019058317         3661 
 3593000   0.69573995   -7.5142447    827.82929  0.019200049  0.019051662         3672 
 3594000   0.66151339   -7.5168706    826.91213   0.01917344     0.019045         3654 
 3595000   0.67484696   -7.5098451    826.98085    0.0191697   0.01903834         3675 
 3596000   0.67829905   -7.5154449    827.13298  0.019167894   0.01903169         3654 
 3597000   0.68233935   -7.5095136    827.36684  0.019167984  0.019025046         3684 
 3598000   0.67571491   -7.5226459    827.14445  0.019157505  0.019018392         3671 
 3599000    0.6785272   -7.5180316    827.66941  0.019164338  0.019011745         3660 
 3600000   0.68634332   -7.5265872    828.43412  0.019176716  0.019005096         3665 
 3601000    0.6886777   -7.5195535    828.85255  0.019181074  0.018998452         3676 
 3602000   0.66014842    -7.491871     826.9685   0.01913216  0.018991813         3625 
 3603000   0.66910434   -7.5359054    828.06327  0.019152171  0.018985172         3678 
 3604000    0.6674066   -7.5187045    827.62908  0.019136817  0.018978535         3667 
 3605000   0.66397362   -7.5137537    827.36051  0.019125301    0.0189719         3668 
 3606000   0.68135398   -7.5093441    827.10616  0.019114119  0.018965269         3646 
 3607000    0.6720509   -7.5292198    828.28834  0.019136132  0.018958636         3671 
 3608000   0.68132173   -7.4974273    827.77036  0.019118865  0.018952006         3677 
 3609000   0.67505009   -7.5265442    828.33074  0.019126506  0.018945381         3679 
 3610000   0.66424445   -7.5417606    829.13744   0.01913983  0.018938752         3655 
 3611000   0.66954142   -7.5138157    828.26763  0.019114457  0.018932124         3670 
 3612000   0.66285903   -7.4997803     829.2191  0.019131116  0.018925493         3642 
 3613000     0.694965   -7.4988872     827.5325   0.01908692  0.018918873         3634 
 3614000   0.67223769   -7.5115858    828.42036  0.019102111  0.018912259         3663 
 3615000   0.67678146   -7.5220326    827.20773  0.019068874  0.018905637         3678 
 3616000   0.66563439    -7.518028    827.14966  0.019062262  0.018899014         3677 
 3617000    0.6741917   -7.5333173    828.22032  0.019081659  0.018892407         3663 
 3618000    0.6905703   -7.5126908    827.68024  0.019063945  0.018885793         3666 
 3619000   0.66852425   -7.5140418    828.18102  0.019070209  0.018879182         3639 
 3620000   0.67663737   -7.5132217    826.75485   0.01903211  0.018872572         3657 
 3621000   0.67268028   -7.5181359    827.10012    0.0190348  0.018865962         3642 
 3622000   0.67604407   -7.5222516    826.40069  0.019013452  0.018859352         3666 
 3623000   0.67439988   -7.5254585    827.38699   0.01903089  0.018852744         3690 
 3624000   0.66981969   -7.5306503    827.89464  0.019037312  0.018846138         3663 
 3625000    0.6705899     -7.54756    827.43832  0.019021571   0.01883954         3685 
 3626000    0.6661343   -7.5166804    826.32863  0.018990822  0.018832951         3665 
 3627000   0.66502172   -7.5384421    826.96416  0.019000187  0.018826351         3677 
 3628000   0.67420132   -7.5431413    826.98732  0.018995482  0.018819763         3682 
 3629000   0.66140921   -7.5151413    826.55318  0.018980279   0.01881317         3667 
 3630000    0.6855324   -7.5313814    826.55171  0.018975016  0.018806579         3689 
 3631000   0.66317333   -7.5506349    826.81902  0.018975925  0.018799986         3682 
 3632000   0.67096085   -7.5306371    827.83154  0.018993932  0.018793395         3660 
 3633000   0.65711336   -7.5205419    828.75162  0.019009809  0.018786808         3671 
 3634000   0.65896326   -7.5004263    827.53177  0.018976605  0.018780229         3687 
 3635000    0.6815045   -7.5445991    826.79004   0.01895438  0.018773644         3662 
 3636000   0.67606238   -7.5380544    826.18423  0.018935282  0.018767059         3665 
 3637000   0.66975462   -7.5198396    826.03703  0.018926703  0.018760474         3709 
 3638000   0.66296001   -7.5408727    827.38549  0.018952389  0.018753897         3680 
 3639000    0.6667529   -7.5327376     827.8165  0.018957051   0.01874732         3636 
 3640000   0.66538306   -7.5188189    826.46754   0.01892096  0.018740744         3683 
 3641000   0.66916529   -7.5413459    827.10501  0.018930354  0.018734164         3681 
 3642000   0.66202228   -7.5400791    827.32153   0.01893011  0.018727591         3671 
 3643000   0.65952198   -7.5403748    826.63888  0.018909298  0.018721025         3689 
 3644000   0.66456422    -7.527272    826.36682  0.018897887  0.018714458         3662 
 3645000   0.67855254   -7.5447861    827.46867  0.018917894  0.018707895         3678 
 3646000   0.65164087   -7.5322555     826.8365  0.018898256   0.01870133         3685 
 3647000   0.67482136   -7.5397088    825.66784  0.018866371  0.018694758         3687 
 3648000   0.68116845   -7.5330466    827.48726  0.018902761  0.018688196         3667 
 3649000   0.67870789   -7.5360765    828.26744  0.018915398  0.018681638         3671 
 3650000   0.65494359   -7.5138052    826.09489  0.018860614  0.018675075         3650 
 3651000   0.66173798   -7.5385329    825.28885   0.01883705  0.018668521         3684 
 3652000   0.68157835   -7.5256709    826.83411  0.018867153  0.018661966         3697 
 3653000   0.66106594   -7.5255129    828.30868  0.018895627  0.018655414         3674 
 3654000   0.66727601   -7.5300181    827.45644  0.018871019   0.01864886         3695 
 3655000   0.66806503   -7.5329485    826.90691  0.018853327  0.018642309         3694 
 3656000   0.66625773   -7.5384762    828.25862   0.01887898  0.018635766         3678 
 3657000   0.66495199   -7.5550231    828.25472  0.018873729  0.018629225         3699 
 3658000   0.65937723   -7.5271103    826.63406  0.018831649  0.018622687         3711 
 3659000   0.66116616   -7.5367017    827.22061  0.018839861  0.018616155         3679 
 3660000   0.67862052   -7.5363823    825.67374  0.018799493  0.018609619         3651 
 3661000    0.6476402   -7.5194323    827.85364  0.018843978  0.018603084         3693 
 3662000   0.65185866   -7.5480583    827.47679  0.018830257  0.018596551         3677 
 3663000    0.6643493   -7.5362944    826.29083  0.018798135  0.018590022         3695 
 3664000    0.6678699   -7.5444254    825.42706  0.018773359  0.018583494         3676 
 3665000   0.67373747   -7.5300861    825.24342  0.018764061  0.018576965         3699 
 3666000   0.67291414   -7.5449455    827.13976  0.018802049  0.018570435         3641 
 3667000   0.66943743   -7.5498756     825.5815   0.01876151   0.01856391         3677 
 3668000   0.66873836   -7.5453823    826.77832  0.018783586  0.018557393         3672 
 3669000   0.66428732    -7.537971    827.70394   0.01879949  0.018550877         3659 
 3670000   0.67160849   -7.5306398    827.67378  0.018793683  0.018544357         3686 
 3671000   0.66733129   -7.5606548    827.71699  0.018789544  0.018537847         3692 
 3672000   0.65889369   -7.5529073     827.2812  0.018774537  0.018531342         3686 
 3673000    0.6704683   -7.5509162    827.10706  0.018765475  0.018524831         3667 
 3674000   0.66093774   -7.5522945    826.50457  0.018746701  0.018518322         3682 
 3675000   0.65353563   -7.5530249    826.27921   0.01873649  0.018511813         3651 
 3676000   0.66474912   -7.5407768    826.65262  0.018739858  0.018505305         3648 
 3677000   0.65739086   -7.5300534    828.40885  0.018774564  0.018498811         3679 
 3678000   0.66325007   -7.5561594    826.67818  0.018730247  0.018492311         3668 
 3679000   0.66420835   -7.5561273    826.94791  0.018731265  0.018485808         3699 
 3680000   0.66181405   -7.5383626    827.75427  0.018744436  0.018479326         3687 
 3681000   0.65782007   -7.5172413    827.92377  0.018743181  0.018472835         3664 
 3682000    0.6465188   -7.5454964     826.1065   0.01869696  0.018466344         3673 
 3683000   0.67007172    -7.544384    826.64559  0.018704081  0.018459851         3700 
 3684000   0.65880011   -7.5499093    826.37129    0.0186928  0.018453367         3666 
 3685000   0.65785072   -7.5582025    827.17237  0.018705843  0.018446885         3717 
 3686000   0.66337022   -7.5536097    827.80678  0.018715111  0.018440404         3691 
 3687000   0.65436334   -7.5456937    826.60093   0.01868278  0.018433921         3677 
 3688000   0.66011075   -7.5671202    828.89819  0.018729623  0.018427436         3690 
 3689000   0.65348075   -7.5470687    825.83578  0.018655367  0.018420956         3676 
 3690000   0.64596436   -7.5427742    826.00433  0.018654118  0.018414479         3670 
 3691000     0.671782   -7.5313269    828.73331  0.018710677  0.018408002         3668 
 3692000   0.65736182   -7.5531062     826.8043  0.018662069  0.018401534         3702 
 3693000    0.6702091    -7.542521     826.5637  0.018651586  0.018395062         3678 
 3694000   0.66359507   -7.5643941    826.70321  0.018649684  0.018388587         3673 
 3695000   0.65812332   -7.5278056    826.70567  0.018644693  0.018382121         3666 
 3696000   0.65870604   -7.5396888     825.8838  0.018621117   0.01837565         3696 
 3697000   0.67700735    -7.527343    825.10857  0.018598606  0.018369195         3694 
 3698000   0.65509773   -7.5337439    827.08375  0.018638087  0.018362733         3671 
 3699000   0.65799118    -7.545922    826.04086  0.018609554  0.018356263         3683 
 3700000   0.67767737   -7.5516006    828.45729  0.018658948  0.018349802         3689 
 3701000   0.66775404   -7.5433086    825.52151  0.018587803  0.018343341         3712 
 3702000   0.66215271   -7.5485896    826.27693  0.018599787  0.018336889         3692 
 3703000   0.66178934    -7.553016    826.65803   0.01860334  0.018330432         3673 
 3704000   0.66897259   -7.5470199    826.46542  0.018593984  0.018323981         3687 
 3705000   0.65808708   -7.5446083    826.53287  0.018590483  0.018317531         3710 
 3706000   0.65979738   -7.5597822    825.41119  0.018560245  0.018311075         3709 
 3707000   0.64938594   -7.5341608    826.29467  0.018575098  0.018304627         3689 
 3708000   0.66128118   -7.5648515    826.54048  0.018575613  0.018298172         3683 
 3709000   0.65906668   -7.5556583    827.14038  0.018584083  0.018291733         3717 
 3710000   0.66545772    -7.564231    826.89492  0.018573561  0.018285286         3677 
 3711000   0.64731004    -7.548567    826.18085  0.018552521  0.018278838         3666 
 3712000   0.65804464   -7.5643337    825.27664  0.018527223  0.018272388         3693 
 3713000   0.64835618   -7.5657268     827.6581  0.018575682  0.018265949         3680 
 3714000   0.66122926   -7.5477409    825.38923  0.018519773   0.01825951         3674 
 3715000   0.64337693   -7.5563804    826.00808  0.018528669  0.018253077         3716 
 3716000   0.65417719   -7.5376447    827.21074  0.018550654  0.018246635         3666 
 3717000    0.6560339   -7.5619032    826.86263  0.018537858  0.018240203         3684 
 3718000   0.65170584    -7.550137    825.89955  0.018511286  0.018233774         3707 
 3719000   0.64632951    -7.516601    827.41905  0.018540357  0.018227351         3665 
 3720000   0.66074959   -7.5566879    825.24811  0.018486741  0.018220934         3703 
 3721000   0.65426283   -7.5655788    825.70203  0.018491938  0.018214512         3710 
 3722000   0.64587368   -7.5598554    826.90474  0.018513898  0.018208096         3675 
 3723000   0.66544368    -7.534079    827.43379  0.018520767  0.018201688         3719 
 3724000   0.63576772   -7.5802019    827.04706   0.01850714  0.018195271         3698 
 3725000   0.64958483    -7.562101    824.99592  0.018456285  0.018188853         3704 
 3726000   0.65836855   -7.5485499    825.94078  0.018472463  0.018182442         3669 
 3727000   0.66156856   -7.5355331    825.59597  0.018459797  0.018176032         3669 
 3728000   0.65003602   -7.5263735    826.19046  0.018468134  0.018169627         3661 
 3729000   0.64658198   -7.5521607    826.86756  0.018478313  0.018163227         3723 
 3730000   0.67206332   -7.5697998    825.72426  0.018447816  0.018156824         3668 
 3731000   0.65576511   -7.5546256    826.04104  0.018449947  0.018150423         3670 
 3732000   0.65049324    -7.552719    827.38873  0.018475097  0.018144031         3662 
 3733000   0.67241084   -7.5708002    826.52525  0.018450872  0.018137635         3677 
 3734000   0.65821872    -7.549424    827.00171  0.018456564  0.018131237         3658 
 3735000    0.6509306   -7.5660359    826.28061  0.018435534  0.018124852         3673 
 3736000   0.64386741   -7.5684711    825.56339  0.018414601  0.018118462         3704 
 3737000   0.63977757   -7.5373277    827.44805    0.0184517  0.018112076         3673 
 3738000   0.66045806    -7.545081      825.789  0.018409778  0.018105701         3657 
 3739000   0.64552978   -7.5676107    826.34793  0.018417311  0.018099327         3724 
 3740000    0.6606877     -7.55942    826.02897   0.01840528  0.018092952         3685 
 3741000   0.66245421   -7.5660198    826.45829  0.018409924  0.018086574         3663 
 3742000    0.6495826   -7.5661841      825.093  0.018374599  0.018080201         3684 
 3743000   0.64632093   -7.5474162    825.53199  0.018379464   0.01807383         3691 
 3744000   0.65536124   -7.5768688    827.68276  0.018422426  0.018067459         3683 
 3745000   0.64413966   -7.5757972    825.34016   0.01836538  0.018061083         3686 
 3746000    0.6537049   -7.5597036    825.88766  0.018372657  0.018054706         3703 
 3747000   0.66729373   -7.5567914    826.63006  0.018384264  0.018048343         3658 
 3748000   0.65704177   -7.5714097    827.20234  0.018392083  0.018041984         3697 
 3749000   0.65685905   -7.5418758    825.73194  0.018354493   0.01803563         3713 
 3750000   0.64548736   -7.5582703    823.81584  0.018307019  0.018029273         3730 
 3751000   0.65332694   -7.5638887    827.14485  0.018376096  0.018022908         3669 
 3752000   0.64457499   -7.5359012    826.48986  0.018356651   0.01801655         3657 
 3753000   0.66824432   -7.5679914    827.32034    0.0183702  0.018010211         3657 
 3754000   0.65298354   -7.5519196    826.48102  0.018346675   0.01800386         3662 
 3755000   0.65591701   -7.5533729    827.03357  0.018354052  0.017997517         3660 
 3756000   0.66051469   -7.5689307    826.93073  0.018346883  0.017991178         3671 
 3757000   0.65771582    -7.566296     825.6974  0.018314644  0.017984839         3660 
 3758000   0.64570434   -7.5511264    825.44735  0.018304225  0.017978503         3668 
 3759000   0.64654119   -7.5601718    826.31845  0.018318667  0.017972172         3677 
 3760000   0.64882732   -7.5357348    825.97626  0.018306211  0.017965831         3679 
 3761000   0.66144406   -7.5633387    826.50637   0.01831309  0.017959501         3674 
 3762000   0.65288397   -7.5517983    825.84144  0.018293493  0.017953172         3702 
 3763000   0.64748655   -7.5742054    826.88462  0.018311733  0.017946842         3695 
 3764000   0.65117023   -7.5613531    825.57588  0.018277893  0.017940518         3690 
 3765000   0.65611427   -7.5504288    825.54611   0.01827238  0.017934182         3730 
 3766000   0.65166256    -7.564008    824.80258  0.018251075  0.017927855         3699 
 3767000   0.65257146   -7.5677538    825.07843  0.018252332  0.017921534         3669 
 3768000     0.653099   -7.5732264    827.11766  0.018292588  0.017915208         3691 
 3769000   0.64502211   -7.5711266    826.94182  0.018283847  0.017908885         3672 
 3770000   0.65074165   -7.5833698    825.42102  0.018245381  0.017902568         3672 
 3771000   0.65736397   -7.5756579    825.44348  0.018241039  0.017896251         3683 
 3772000   0.64917848   -7.5557274    825.53321  0.018238185  0.017889941         3689 
 3773000   0.64756914   -7.5573231    825.43338  0.018231146  0.017883634         3673 
 3774000   0.64628904   -7.5503361    825.95948  0.018237932  0.017877317         3659 
 3775000   0.64911427   -7.5821187    825.18672  0.018216042  0.017871002         3678 
 3776000   0.65159044   -7.5687872    826.19456   0.01823346  0.017864695         3675 
 3777000   0.64854223   -7.5813233    824.61658  0.018193817  0.017858385         3655 
 3778000   0.64286679   -7.5674306    825.09302  0.018199511  0.017852083         3706 
 3779000   0.63706135   -7.5713355    824.73586  0.018186819  0.017845782         3662 
 3780000   0.65602241   -7.5624111    826.52865  0.018221531  0.017839481         3640 
 3781000   0.63842468   -7.5941341    826.32757   0.01821228  0.017833182         3703 
 3782000   0.64298745   -7.5651746    825.47439  0.018188665  0.017826885         3682 
 3783000   0.64036874   -7.5615235    825.51728  0.018184802  0.017820587         3719 
 3784000   0.63098251   -7.5940103    825.87264  0.018187822  0.017814295         3697 
 3785000   0.63605925   -7.5597986    825.48817  0.018174552  0.017807999         3692 
 3786000   0.64919345    -7.574805    825.19514  0.018163302  0.017801711         3687 
 3787000   0.64815712   -7.5499807    825.22101  0.018159075  0.017795428         3690 
 3788000   0.63942353   -7.5972419    823.56828  0.018117922  0.017789142         3700 
 3789000   0.63171563   -7.5550925      824.969  0.018143947  0.017782858         3678 
 3790000   0.63827572   -7.5891189    826.28757  0.018168152  0.017776576         3698 
 3791000   0.64614286   -7.5699362    824.25088   0.01811859  0.017770295         3657 
 3792000   0.64664055   -7.5708853    825.08669  0.018132179  0.017764023         3700 
 3793000   0.64157017   -7.5721614    825.33038  0.018132753  0.017757748         3688 
 3794000   0.65747853   -7.5849359    825.73659  0.018136896  0.017751474         3667 
 3795000   0.64013074    -7.564603    823.58927  0.018084964  0.017745193         3697 
 3796000   0.65374524   -7.5743286    826.72999  0.018149148  0.017738925         3684 
 3797000   0.63538377   -7.5932817    825.83475   0.01812472  0.017732655         3674 
 3798000   0.63831857   -7.5914035    823.98961  0.018079463  0.017726384         3689 
 3799000   0.64723726   -7.5884668    825.42769  0.018106249  0.017720125         3700 
 3800000   0.62533365   -7.5754543    823.79615  0.018065705  0.017713863         3693 
 3801000   0.64487533   -7.5728346     826.2596  0.018114961  0.017707597         3670 
 3802000   0.62854183   -7.5772825    825.24525  0.018087964  0.017701345         3652 
 3803000   0.64699444   -7.5865795    824.45113  0.018065806  0.017695089         3691 
 3804000   0.64699619   -7.5875418    826.71583  0.018110669  0.017688834         3670 
 3805000   0.63926421   -7.5819091     827.1871  0.018116231  0.017682586         3711 
 3806000   0.64887719   -7.5783952    825.49083  0.018074331  0.017676332         3688 
 3807000   0.63545285   -7.5719897    824.06426  0.018038356  0.017670079         3702 
 3808000   0.63195184   -7.5651136    825.78776  0.018071336  0.017663838         3690 
 3809000   0.65755639   -7.5817219    825.05676  0.018050599  0.017657604         3690 
 3810000   0.64691499   -7.5606775    826.59787  0.018079568  0.017651362         3673 
 3811000   0.63977168    -7.565158    826.37072  0.018069857  0.017645124         3681 
 3812000   0.64400161   -7.5758148    824.53771  0.018025046  0.017638886         3686 
 3813000   0.63866082   -7.5884689    824.31365  0.018015422  0.017632645         3699 
 3814000    0.6459673   -7.5869616    824.79845  0.018021291  0.017626407         3694 
 3815000   0.63217148    -7.586908    825.87382  0.018040057  0.017620181         3685 
 3816000   0.63292747   -7.5689709     825.5541  0.018028348  0.017613952         3677 
 3817000   0.64910097   -7.5819027    825.12042  0.018014156  0.017607724         3690 
 3818000   0.63607874   -7.5567033    824.48859  0.017995648  0.017601495         3673 
 3819000   0.64528398   -7.5836419    825.13811  0.018005108  0.017595271         3708 
 3820000   0.64806003   -7.5807777    826.26507   0.01802498  0.017589047         3696 
 3821000   0.62900889   -7.5788213    824.31578   0.01797775  0.017582829         3655 
 3822000   0.63924433   -7.5919208    825.26099  0.017993655  0.017576616         3700 
 3823000   0.63513785   -7.5552522    825.35768  0.017991056  0.017570401         3670 
 3824000   0.64511215   -7.5793687    825.69455  0.017993692  0.017564192         3669 
 3825000   0.65654563   -7.5893543    824.87917  0.017971224  0.017557982         3670 
 3826000   0.64300609    -7.581613    823.46542  0.017935734  0.017551777         3691 
 3827000   0.64004044   -7.5797243    826.01182  0.017986495  0.017545571         3717 
 3828000    0.6357186   -7.5938408    825.79517  0.017977081  0.017539366         3664 
 3829000   0.64996463   -7.5688217    824.63526  0.017947142  0.017533168         3687 
 3830000   0.63562521   -7.5835928    825.45674  0.017960329  0.017526967         3719 
 3831000   0.63125145   -7.5791816    825.52577  0.017957143  0.017520773         3686 
 3832000    0.6442224    -7.594545    824.91596  0.017939195  0.017514579         3684 
 3833000    0.6298075   -7.5955206    826.55308  0.017970108  0.017508385         3718 
 3834000   0.64509645   -7.5950101    823.10584  0.017890494  0.017502203         3727 
 3835000   0.64951546   -7.5621475    826.33281   0.01795595  0.017496015         3740 
 3836000   0.63557957   -7.5961918    824.08344  0.017902404  0.017489829         3665 
 3837000    0.6397847   -7.5999528    823.27247  0.017880125  0.017483637         3703 
 3838000   0.63159905   -7.5754815     824.7359  0.017907241  0.017477454         3684 
 3839000   0.63563298   -7.5929119    824.74792  0.017902838  0.017471271         3680 
 3840000   0.62221012   -7.5823242    824.80498  0.017899414  0.017465091         3717 
 3841000    0.6293806   -7.5823148    825.91243   0.01791878  0.017458918         3710 
 3842000   0.63974747   -7.5724165    825.42824  0.017903614  0.017452746         3667 
 3843000   0.64519078   -7.5963458    824.49948  0.017878816  0.017446567         3673 
 3844000   0.63805544   -7.5899159    824.53455  0.017874925    0.0174404         3701 
 3845000   0.62786457   -7.5727523    825.09908  0.017882511  0.017434234         3670 
 3846000   0.63553053   -7.5843954    824.32447  0.017861078  0.017428067         3707 
 3847000   0.64833342   -7.5858772    825.51239  0.017882168  0.017421899         3724 
 3848000   0.64186562   -7.5966077     824.1779  0.017848621  0.017415733         3728 
 3849000   0.64708392   -7.5768057    824.53658  0.017851749  0.017409569         3698 
 3850000   0.62488778   -7.5886183    824.01214   0.01783576  0.017403415         3688 
 3851000   0.63665947   -7.5929325    825.51828  0.017863721  0.017397256         3702 
 3852000   0.63490871   -7.5849746    824.59767  0.017839167  0.017391103         3724 
 3853000   0.63786671   -7.6112675    825.32912  0.017850357  0.017384953         3689 
 3854000   0.61931979   -7.5962295     824.3756  0.017825108  0.017378806         3688 
 3855000   0.62666605   -7.6006583    825.34991  0.017841546  0.017372652         3679 
 3856000   0.63416805   -7.5972362    823.98154  0.017807347  0.017366503         3648 
 3857000   0.62800957   -7.5815062    823.30431  0.017788098  0.017360358         3685 
 3858000   0.62327621   -7.6038869     824.4369  0.017807951  0.017354216         3673 
 3859000   0.64672165   -7.5855597    824.15539  0.017797257   0.01734808         3667 
 3860000   0.63496709     -7.60062    824.56519  0.017801494   0.01734194         3680 
 3861000   0.63781062    -7.583577    824.37938  0.017792873  0.017335807         3686 
 3862000   0.63905219   -7.5866754    823.78978  0.017775543  0.017329672         3683 
 3863000   0.63372608    -7.589347    823.89509  0.017773214  0.017323545         3697 
 3864000   0.63074291   -7.6124867    824.90419  0.017790377   0.01731743         3688 
 3865000   0.62634296   -7.6131802    824.62991   0.01777986  0.017311307         3673 
 3866000   0.63857811   -7.5685579    825.46326  0.017793224  0.017305191         3679 
 3867000   0.63344879   -7.5898998     824.5322  0.017768559  0.017299081         3652 
 3868000   0.63155957   -7.5890957    826.14945  0.017798808   0.01729297         3692 
 3869000   0.63140682   -7.5780812    823.42139  0.017735448  0.017286861         3678 
 3870000    0.6416164    -7.586748    823.87394   0.01774061  0.017280749         3699 
 3871000   0.65165087   -7.6036153    824.96098  0.017759429  0.017274646         3697 
 3872000   0.62704178   -7.5981364    824.63539  0.017747835   0.01726854         3717 
 3873000   0.64505507   -7.6239477    825.79771  0.017768261  0.017262447         3709 
 3874000   0.63393658   -7.5943222    825.28917  0.017752735   0.01725635         3673 
 3875000   0.63651599   -7.5859869    825.09236  0.017743922   0.01725025         3670 
 3876000    0.6317435   -7.5992987    822.39402   0.01768133  0.017244157         3700 
 3877000   0.62954945   -7.5896386    823.96481  0.017710533  0.017238066         3692 
 3878000   0.64133587   -7.6004376    823.02307  0.017685729  0.017231981         3711 
 3879000   0.62872401   -7.5867908    824.41648  0.017711104  0.017225898         3669 
 3880000   0.64114923   -7.5958849    824.18117  0.017701486   0.01721982         3686 
 3881000   0.64229246   -7.5657576    823.70084  0.017686611  0.017213735         3707 
 3882000   0.61212359   -7.5688748    823.59908   0.01767987  0.017207658         3661 
 3883000   0.63581375   -7.5966237    824.82698  0.017701669   0.01720158         3687 
 3884000   0.65268629   -7.5822836    826.50873  0.017733195  0.017195512         3692 
 3885000   0.63152246   -7.5985722    823.11671  0.017655871  0.017189442         3685 
 3886000   0.62740316   -7.6016978    823.34169  0.017656152  0.017183367         3669 
 3887000   0.63630316   -7.5852864    823.20402  0.017648658  0.017177296         3686 
 3888000   0.64868102   -7.6040845    825.06323  0.017683968  0.017171227         3695 
 3889000   0.63334642   -7.6082038    824.18871  0.017660682  0.017165163         3714 
 3890000   0.62773658   -7.5790056    825.85641  0.017691868  0.017159097         3710 
 3891000   0.63371061   -7.5996838    824.11723  0.017650073  0.017153036         3713 
 3892000    0.6386214    -7.605023    823.86145  0.017640062  0.017146972         3708 
 3893000   0.60744419   -7.5950942      824.588  0.017651083  0.017140915         3714 
 3894000   0.64655412   -7.5934726    824.00884  0.017634156  0.017134851         3688 
 3895000   0.63112691   -7.6095908    822.69256  0.017601467  0.017128794         3706 
 3896000    0.6108844   -7.5974513    824.86097   0.01764333  0.017122738         3663 
 3897000   0.61945448    -7.596067    822.86487  0.017596118  0.017116684         3676 
 3898000   0.63088911    -7.594875    823.69254  0.017609298  0.017110637         3694 
 3899000   0.63609153   -7.6223653     824.2167  0.017615985   0.01710459         3698 
 3900000   0.62095928   -7.5942554    823.48984  0.017595937  0.017098539         3704 
 3901000   0.61770976   -7.5857598    825.21391  0.017628256   0.01709249         3705 
 3902000   0.62767986    -7.593503    822.99201  0.017576286  0.017086438         3699 
 3903000   0.62660396   -7.6209838    824.54398  0.017604919  0.017080396         3733 
 3904000   0.62722574   -7.5814445    824.16656  0.017592353  0.017074357         3690 
 3905000   0.63706825    -7.589396    823.63126  0.017576425  0.017068321         3705 
 3906000   0.62044187   -7.5902733    823.54353  0.017570053  0.017062285         3723 
 3907000    0.6329076   -7.5787753    823.73449  0.017569629  0.017056254         3682 
 3908000   0.62617505   -7.6011554    823.40008  0.017558002  0.017050225         3692 
 3909000   0.62561779   -7.6057995      823.705  0.017560011  0.017044196         3720 
 3910000   0.62933351   -7.5999844    823.63882  0.017554109   0.01703817         3688 
 3911000   0.62731419   -7.6154748    823.87531   0.01755466  0.017032144         3702 
 3912000   0.62362987   -7.6017994    823.84169  0.017549457  0.017026128         3714 
 3913000   0.63905707   -7.6024949    821.80883  0.017501679  0.017020108         3707 
 3914000   0.63121306   -7.6335693    823.25856  0.017528074  0.017014086         3712 
 3915000   0.61426733   -7.6069663    823.75495  0.017534162  0.017008068         3687 
 3916000   0.64714527   -7.5876498    824.07818  0.017536563  0.017002055         3677 
 3917000   0.62060608   -7.5992459    823.50325  0.017519855  0.016996042         3679 
 3918000   0.61680192   -7.6120843    821.37265  0.017470066  0.016990027         3680 
 3919000   0.62940202    -7.608734    823.34345  0.017507516  0.016984013         3722 
 3920000   0.61745868   -7.5993758    823.03302   0.01749645  0.016978009         3705 
 3921000   0.64063795   -7.5983381    823.81967  0.017508707  0.016972003         3718 
 3922000   0.62893518   -7.6241056    825.20827  0.017533747  0.016965997         3709 
 3923000   0.62087382   -7.5932187    821.94404  0.017459938  0.016959993         3731 
 3924000    0.6237211   -7.6218046    823.31974  0.017484704  0.016953994         3702 
 3925000   0.62983795   -7.6159213    822.85478  0.017470377  0.016947999         3707 
 3926000   0.62773178    -7.601173    822.59885  0.017460495  0.016942007         3719 
 3927000   0.60056384   -7.5991097    821.30836  0.017428664  0.016936009         3690 
 3928000   0.62633403    -7.601604    822.05544  0.017440076  0.016930017         3718 
 3929000   0.61786264   -7.6008335    823.78492  0.017472319  0.016924034         3702 
 3930000   0.61983992   -7.6092821    824.78056  0.017488986  0.016918052         3673 
 3931000    0.6196284   -7.5824639    823.02596  0.017447341  0.016912074         3682 
 3932000   0.63203375   -7.5941482    823.59233  0.017454907  0.016906094         3684 
 3933000    0.6307953   -7.5975419    822.90729  0.017435954  0.016900116         3704 
 3934000   0.61004816   -7.5998014    823.06132  0.017434785  0.016894139         3717 
 3935000   0.61665025   -7.6127822    822.51072  0.017418694  0.016888158         3707 
 3936000   0.62605177   -7.6193902    824.00954  0.017446002  0.016882183         3705 
 3937000   0.60951448   -7.6002359     823.7773  0.017436654  0.016876212         3678 
 3938000   0.62442661   -7.6133001    823.54837  0.017427382  0.016870245         3718 
 3939000   0.60840914   -7.5956507    822.90738  0.017409397  0.016864276         3689 
 3940000   0.62316913   -7.6156742    823.69447  0.017421626  0.016858316         3713 
 3941000   0.62415699    -7.618473    822.09546  0.017383394  0.016852355         3712 
 3942000   0.61435973   -7.6110617    823.83029  0.017415658  0.016846396         3721 
 3943000   0.63137251   -7.6167436     824.6003  0.017427515  0.016840444         3713 
 3944000   0.62939153   -7.6209164    824.14586  0.017413494  0.016834482         3715 
 3945000   0.62429041   -7.5979669    823.36357  0.017392555   0.01682853         3699 
 3946000   0.61218138   -7.5952332    823.58422  0.017392807  0.016822585         3704 
 3947000   0.61168375   -7.6137861    822.78375  0.017371501  0.016816633         3725 
 3948000   0.61552814   -7.6037658    823.28443  0.017377669  0.016810684         3726 
 3949000   0.61561312   -7.6081142      823.681  0.017381637  0.016804741         3698 
 3950000   0.61390576   -7.5956368    823.24773  0.017368096  0.016798798         3702 
 3951000   0.62203333   -7.6233896    823.44435  0.017367847  0.016792854         3725 
 3952000   0.64012163   -7.6072679    825.00522  0.017396365  0.016786915         3704 
 3953000   0.62281998   -7.6121579     823.2715  0.017355416  0.016780986         3732 
 3954000   0.62890334   -7.6182465    823.93506  0.017365011  0.016775055         3700 
 3955000    0.6229686    -7.600852    823.05121  0.017341998  0.016769124         3706 
 3956000   0.62308667   -7.6162622    823.08692  0.017338366  0.016763199         3702 
 3957000   0.61876095   -7.6165685    823.34936  0.017339511  0.016757274         3697 
 3958000   0.60588076   -7.6088376    822.27628  0.017312537  0.016751354         3687 
 3959000   0.61328041   -7.6258834    822.36865  0.017310109  0.016745435         3696 
 3960000   0.62171369    -7.598809    822.54143  0.017309373  0.016739517         3685 
 3961000   0.61714908   -7.6168817    824.03274  0.017336379  0.016733607         3699 
 3962000   0.61993877   -7.6295123    823.01134  0.017310519  0.016727696         3692 
 3963000   0.62163467   -7.6313731    822.45994  0.017294557  0.016721792         3700 
 3964000   0.61992151    -7.595196    823.97166  0.017321974  0.016715886         3672 
 3965000   0.60952569   -7.6255206    823.06636  0.017298578  0.016709987         3699 
 3966000   0.62287144   -7.5929898     823.7565  0.017308718  0.016704086         3659 
 3967000   0.62059925   -7.6021474      822.925  0.017286888  0.016698197         3666 
 3968000    0.6087187   -7.5863318    823.11267  0.017286472  0.016692304         3701 
 3969000   0.61846256   -7.5983389    822.70152  0.017273485  0.016686407         3704 
 3970000   0.63135059    -7.622658     823.5435  0.017286807  0.016680519         3687 
 3971000   0.62031605   -7.6193402    821.91336  0.017248245  0.016674629         3706 
 3972000    0.6217282   -7.5966596    823.84279  0.017284382  0.016668743         3683 
 3973000   0.62900305   -7.5922539    824.08367  0.017285084  0.016662861         3676 
 3974000   0.60594596   -7.6155917     824.7781  0.017295296  0.016656982         3683 
 3975000   0.61409459   -7.6113968    823.09265  0.017255611  0.016651105         3695 
 3976000   0.62535071     -7.62407    822.85383  0.017246266  0.016645226         3693 
 3977000   0.61417037   -7.6158567     823.8747   0.01726332  0.016639353         3692 
 3978000   0.61697498   -7.5959686    823.40515  0.017249144  0.016633484         3682 
 3979000   0.62637806   -7.6019898    824.29932  0.017263536  0.016627622         3652 
 3980000    0.6083821   -7.6028995    823.13782  0.017234879  0.016621753         3699 
 3981000   0.62080664   -7.6134361    824.26941  0.017254237  0.016615885         3703 
 3982000   0.62191986   -7.6189368    823.43924   0.01723253  0.016610018         3683 
 3983000   0.61765643   -7.6276076    822.28157  0.017203983  0.016604157         3687 
 3984000   0.61091627   -7.5956618    822.04913  0.017194803  0.016598295         3699 
 3985000   0.60961866   -7.6134519    824.21433  0.017235766  0.016592441         3695 
 3986000   0.62468545   -7.6317891    822.67656  0.017199293   0.01658658         3687 
 3987000   0.60037605    -7.634004    822.82324  0.017198045  0.016580732         3700 
 3988000   0.63014527   -7.6183414    823.27436  0.017203159  0.016574876         3699 
 3989000   0.61011795   -7.6106795      822.157  0.017175504  0.016569025         3695 
 3990000   0.61957181   -7.6142462    823.32569  0.017195607  0.016563175         3709 
 3991000   0.62627398   -7.6115557    822.05344  0.017164734  0.016557322         3686 
 3992000   0.61855489   -7.6292106    824.09277  0.017203005  0.016551474         3698 
 3993000   0.61575199   -7.6356873     823.3647  0.017183502  0.016545627         3711 
 3994000   0.61434197   -7.6377298    823.88584  0.017190073  0.016539786         3708 
 3995000   0.61234071   -7.6362333    823.64443  0.017180735  0.016533946         3719 
 3996000   0.60598128   -7.6242222    823.23078  0.017167809  0.016528108         3711 
 3997000   0.61729816   -7.6380581    822.30711  0.017144256  0.016522272         3680 
 3998000   0.62101999   -7.6253186    821.86134  0.017130677  0.016516439         3709 
 3999000   0.59742571   -7.6132715    824.31845  0.017177595  0.016510608         3713 
 4000000   0.61267142   -7.6237397    823.11374  0.017148203  0.016504783         3729 
 4001000   0.60681307   -7.6151215    822.92048  0.017139892  0.016498957         3714 
 4002000   0.61548865   -7.6200522    823.78785   0.01715367  0.016493134         3705 
 4003000    0.6027128   -7.6256283    822.50283  0.017122634  0.016487314         3705 
 4004000   0.60910776   -7.6399286     821.6183  0.017099948  0.016481493         3735 
 4005000   0.62163244   -7.6007952     822.7521   0.01711927  0.016475673         3724 
 4006000   0.61264841   -7.6288777    822.80608  0.017116119  0.016469856         3717 
 4007000   0.59870818    -7.618844    823.01635  0.017116221  0.016464045         3728 
 4008000   0.60649257   -7.6265516     823.8345  0.017128961  0.016458234         3716 
 4009000    0.6114102   -7.6253651     822.6925   0.01710095  0.016452421         3731 
 4010000   0.59990349   -7.6211866     822.3529  0.017089628  0.016446613         3735 
 4011000   0.61001193   -7.6514165    823.24623  0.017103927  0.016440804         3703 
 4012000   0.61056245   -7.6281595    822.29401  0.017079886  0.016435002         3727 
 4013000   0.60374572   -7.6337562    822.32648  0.017076304  0.016429199         3722 
 4014000   0.60842055   -7.6340626    823.24097  0.017091035  0.016423403         3718 
 4015000   0.59486763   -7.6299793    823.59272  0.017094079  0.016417599         3706 
 4016000   0.60887055   -7.6436725    823.38714  0.017085557    0.0164118         3694 
 4017000   0.61772608   -7.6356101    822.79599   0.01706904  0.016406001         3718 
 4018000   0.61006333   -7.6420977    822.77684  0.017064394  0.016400206         3721 
 4019000   0.59410994   -7.6300891    821.57183  0.017035163  0.016394411         3698 
 4020000   0.61359472   -7.6322742    822.14149  0.017042734  0.016388623         3711 
 4021000   0.59953558    -7.607692    822.63539  0.017048731  0.016382841         3743 
 4022000   0.59871334   -7.6360722     821.6529  0.017024136   0.01637706         3731 
 4023000   0.60953487   -7.6247317    822.61394  0.017039811  0.016371286         3735 
 4024000   0.61186118   -7.6233653      822.209  0.017027191  0.016365511         3709 
 4025000   0.62444591   -7.6327289    821.98615  0.017018347  0.016359737         3717 
 4026000   0.61304481    -7.635113    821.57676  0.017005646   0.01635396         3716 
 4027000   0.61546725   -7.6257127    822.53462  0.017021245  0.016348187         3724 
 4028000   0.60287557   -7.6350365    821.24342  0.016990306  0.016342418         3702 
 4029000   0.61683244   -7.6266236    821.66698  0.016994849  0.016336651         3719 
 4030000    0.5999193   -7.6250068     822.9657  0.017017488  0.016330883         3703 
 4031000     0.599255   -7.6190092    822.12695  0.016995926  0.016325118         3714 
 4032000   0.59924302   -7.6210196    821.61398  0.016981109  0.016319358         3727 
 4033000   0.60950865   -7.6307826    822.09771  0.016986894  0.016313604         3723 
 4034000   0.59813241   -7.6397684    822.02037  0.016981085  0.016307846         3735 
 4035000   0.61855193    -7.634652    822.60096  0.016988868  0.016302085         3739 
 4036000    0.5941412   -7.6335026    821.54885  0.016962935  0.016296338         3712 
 4037000   0.61278329    -7.616847    822.17475  0.016971653  0.016290588         3755 
 4038000   0.59779002   -7.6308465    822.72116  0.016978726  0.016284844         3710 
 4039000   0.60793542   -7.6271445    823.16536  0.016983687  0.016279104         3717 
 4040000   0.60841008   -7.6399334    821.29611  0.016940926   0.01627336         3735 
 4041000   0.60037377   -7.6227083    822.89382  0.016969682  0.016267622         3744 
 4042000   0.59473674   -7.6275909    821.58165  0.016938431  0.016261883         3711 
 4043000   0.59191513   -7.6419286    822.10476  0.016945024  0.016256147         3725 
 4044000   0.60613613    -7.642279    821.54493  0.016929297  0.016250411         3718 
 4045000   0.60635012   -7.6430079     822.1258  0.016937079  0.016244682         3720 
 4046000   0.61544828   -7.6247939    823.52564  0.016961724  0.016238954         3728 
 4047000   0.60002591   -7.6355278    821.40769  0.016913922  0.016233227         3719 
 4048000   0.59909864   -7.6340745    823.20098  0.016946661  0.016227505         3728 
 4049000   0.60141506   -7.6182472    821.84632  0.016914594  0.016221779         3750 
 4050000   0.61221086    -7.638423    823.20475  0.016938369  0.016216062         3728 
 4051000   0.60291549   -7.6450386    822.51123  0.016919922  0.016210348         3732 
 4052000   0.61136373   -7.6388098    822.26988  0.016910782  0.016204635         3714 
 4053000   0.60974509   -7.6457064    822.64138  0.016914248  0.016198916         3724 
 4054000   0.60672783   -7.6354528    820.94761  0.016875259  0.016193204         3731 
 4055000   0.59663834   -7.6226053    821.76027  0.016887798  0.016187495         3713 
 4056000   0.58948791    -7.619065    822.02175  0.016889007  0.016181787         3727 
 4057000   0.60182832   -7.6340526    823.41874  0.016913539  0.016176083         3727 
 4058000   0.58856349   -7.6450671    823.51302  0.016911307  0.016170382         3734 
 4059000   0.59888357   -7.6280449    822.28557  0.016881941  0.016164679         3738 
 4060000   0.60548628   -7.6197495    822.80256  0.016888394  0.016158977         3734 
 4061000   0.60208238    -7.646323    819.99156  0.016826553  0.016153282         3728 
 4062000   0.60155179   -7.6399341    822.48045  0.016873471  0.016147587         3720 
 4063000   0.59688561   -7.6096198    821.15443  0.016842121  0.016141897         3712 
 4064000   0.59385995   -7.6366925     822.1347  0.016858077  0.016136213         3739 
 4065000   0.61005886   -7.6177281    822.80998  0.016867773  0.016130531         3707 
 4066000   0.60335436   -7.6278072    823.36425  0.016874985   0.01612485         3735 
 4067000   0.60130327   -7.6329881    822.13012  0.016845548  0.016119171         3719 
 4068000   0.60759366   -7.6316525    821.78873  0.016834413  0.016113489         3739 
 4069000   0.59400175    -7.629982    821.52064  0.016824786  0.016107818         3725 
 4070000   0.59989677   -7.6489829    821.22604   0.01681462  0.016102146         3715 
 4071000   0.59588394   -7.6481103    822.10765  0.016828536  0.016096476         3730 
 4072000   0.59889614   -7.6439362    821.04518   0.01680266  0.016090808         3724 
 4073000   0.60086562   -7.6222383    821.36525  0.016805083  0.016085135         3702 
 4074000   0.59165761    -7.643097    822.45387  0.016823226  0.016079477         3721 
 4075000   0.60666352   -7.6253693    821.89787  0.016807727  0.016073814         3719 
 4076000   0.59671289   -7.6338704    820.29589  0.016770852  0.016068154         3711 
 4077000   0.60524576   -7.6380701    821.31294  0.016787526  0.016062493         3733 
 4078000   0.59196083   -7.6311377    822.62177  0.016810155  0.016056837         3701 
 4079000   0.59640686   -7.6468058    822.36817  0.016800853   0.01605118         3715 
 4080000   0.59775184   -7.6283565    821.92821  0.016787749  0.016045527         3719 
 4081000   0.58929165   -7.6338955    822.30332  0.016791295  0.016039877         3721 
 4082000   0.59660439   -7.6411806    822.77361  0.016796783  0.016034227         3721 
 4083000   0.60313139   -7.6558887    821.07389  0.016757978  0.016028579         3725 
 4084000   0.59543055     -7.62803    821.00797   0.01675253  0.016022932         3715 
 4085000   0.59987785    -7.637213    821.74401  0.016763444  0.016017289         3695 
 4086000   0.58891282   -7.6428523    821.43476  0.016753034  0.016011648         3711 
 4087000   0.58585006   -7.6339286    822.08271  0.016762146   0.01600601         3719 
 4088000   0.59550216    -7.629003    821.25361  0.016741145  0.016000372         3715 
 4089000   0.59812606   -7.6422383    823.15111  0.016775722  0.015994737         3734 
 4090000   0.58507604   -7.6451546    822.38098  0.016755929  0.015989107         3740 
 4091000   0.59308892   -7.6462842    822.56623  0.016755606  0.015983478         3738 
 4092000   0.59520957    -7.659682    820.93869  0.016718367  0.015977853         3723 
 4093000   0.59872354    -7.650872    823.44751  0.016765362  0.015972227         3731 
 4094000   0.61247647   -7.6437849    821.69339  0.016725562  0.015966608         3729 
 4095000   0.59050509   -7.6308033    821.63001  0.016720187  0.015960992         3727 
 4096000   0.59524525   -7.6380982    822.50177  0.016733841  0.015955375         3730 
 4097000   0.58760664   -7.6505267    821.69514   0.01671335  0.015949756         3749 
 4098000   0.61005194   -7.6343652    822.55894  0.016726837  0.015944146         3717 
 4099000   0.60347936   -7.6366692    821.61922  0.016703652   0.01593854         3710 
 4100000   0.60164891   -7.6511032    822.22494  0.016711889  0.015932932         3725 
 4101000   0.58865045   -7.6445754    822.28226  0.016708979  0.015927324         3741 
 4102000   0.58875067   -7.6636332    822.03879  0.016699959  0.015921719         3717 
 4103000   0.60330454   -7.6658646    822.64429  0.016708187   0.01591612         3724 
 4104000   0.59692127   -7.6639884    822.87188  0.016708737  0.015910521         3722 
 4105000   0.59071823   -7.6543484    820.63006  0.016659157  0.015904921         3752 
 4106000   0.59206503   -7.6281312    819.58982  0.016633987  0.015899321         3723 
 4107000   0.60186262   -7.6553906    820.48417  0.016648084  0.015893732         3733 
 4108000   0.60058058   -7.6527031    821.71847   0.01666907  0.015888142         3730 
 4109000   0.58882507   -7.6617694    821.36359  0.016657816  0.015882554         3709 
 4110000   0.59364328   -7.6480214    820.87229  0.016643801  0.015876967         3722 
 4111000    0.5933245   -7.6399007    822.59425  0.016674658  0.015871387         3722 
 4112000   0.59280122   -7.6524291     820.5624  0.016629426  0.015865803         3737 
 4113000   0.59241133   -7.6496977    820.55359  0.016625204  0.015860222         3737 
 4114000   0.57953439   -7.6437419    820.89638  0.016628107   0.01585464         3721 
 4115000   0.59526886   -7.6507098      821.153  0.016629263  0.015849062         3742 
 4116000   0.59649907   -7.6378162    822.60157  0.016654551  0.015843493         3724 
 4117000   0.59586608   -7.6272265     821.8178  0.016634641  0.015837926         3729 
 4118000   0.58892011   -7.6398407    820.41617  0.016602238  0.015832356         3734 
 4119000    0.5969809   -7.6445099    821.27071  0.016615496  0.015826789         3717 
 4120000   0.61413851   -7.6497961    821.55591  0.016617231  0.015821226         3750 
 4121000   0.59681406   -7.6514646    821.97093  0.016621591  0.015815664         3711 
 4122000    0.5898391   -7.6747656    820.70838  0.016592034  0.015810102         3719 
 4123000    0.5835552   -7.6386558    821.81261  0.016610329  0.015804544         3697 
 4124000    0.5830823   -7.6436415    820.87162  0.016587286  0.015798991         3710 
 4125000   0.60378371   -7.6608721    821.53137  0.016596593  0.015793445         3737 
 4126000   0.58899336    -7.656609    821.16425  0.016585156  0.015787892         3748 
 4127000   0.59699572   -7.6648771    822.21714  0.016602398  0.015782345         3718 
 4128000   0.58795699   -7.6515074    821.15482   0.01657693  0.015776803         3716 
 4129000   0.60662141    -7.678167    821.08215  0.016571449  0.015771256         3733 
 4130000   0.59044597    -7.663918     821.2213  0.016570244  0.015765712         3720 
 4131000   0.59302348   -7.6462632     821.4195  0.016570231   0.01576017         3728 
 4132000    0.5963121   -7.6569988    822.68025  0.016591647  0.015754631         3734 
 4133000    0.5851602   -7.6587713    822.06691  0.016575266  0.015749099         3734 
 4134000   0.59534522   -7.6554689    821.14504  0.016552674  0.015743562         3726 
 4135000   0.58903493    -7.651555    822.25238  0.016570987  0.015738035         3744 
 4136000   0.59875116   -7.6498462    821.26753  0.016547138  0.015732507         3716 
 4137000   0.57886905   -7.6470846     820.1691  0.016521012  0.015726986         3731 
 4138000   0.58866267   -7.6665728    820.75933  0.016528906  0.015721459         3735 
 4139000    0.5776712   -7.6595483    820.56096  0.016520918  0.015715934         3743 
 4140000   0.58091332   -7.6547562    822.27029  0.016551334  0.015710408         3728 
 4141000   0.58517153    -7.651736    820.55074  0.016512733  0.015704883         3716 
 4142000   0.59779026    -7.652647    819.48606  0.016487326  0.015699366         3741 
 4143000    0.5819974   -7.6510319    821.91377  0.016532178   0.01569385         3739 
 4144000   0.58169272    -7.659613    821.10567  0.016511938  0.015688341         3750 
 4145000   0.60295872   -7.6585753    821.22356  0.016510325  0.015682834         3737 
 4146000   0.59309545   -7.6562379    822.35217  0.016529027  0.015677326         3727 
 4147000   0.57533689   -7.6672447    820.20432  0.016481881  0.015671815         3733 
 4148000   0.58695372   -7.6627299     821.1715  0.016497338  0.015666313         3722 
 4149000   0.58361145   -7.6600045    821.43842  0.016498723  0.015660809         3758 
 4150000   0.58547139   -7.6739678    820.69051  0.016479729  0.015655305         3736 
 4151000   0.57985255   -7.6615915    821.67589  0.016495541  0.015649807         3742 
 4152000   0.59244543    -7.636564    821.25454  0.016483111  0.015644312         3744 
 4153000   0.58256087   -7.6553783    821.81339  0.016490356  0.015638818         3725 
 4154000   0.59755747   -7.6517158    821.54342   0.01648097  0.015633326         3727 
 4155000   0.58315852   -7.6575498    820.52785  0.016456636  0.015627835         3729 
 4156000   0.58428932   -7.6536044    821.62287  0.016474632  0.015622344         3748 
 4157000    0.5876188   -7.6749795    820.50991  0.016448358  0.015616861         3731 
 4158000   0.58763012   -7.6512545    820.11601  0.016436508  0.015611377         3739 
 4159000   0.59723479   -7.6508299    820.70273  0.016444312  0.015605894         3714 
 4160000    0.5757118    -7.660661    821.17464  0.016449812  0.015600419         3732 
 4161000   0.57558598   -7.6445827    820.11629  0.016424663  0.015594945         3717 
 4162000   0.59469279   -7.6759734    820.08279  0.016420046  0.015589473         3734 
 4163000   0.59293418   -7.6763476    820.25499  0.016419549     0.015584         3740 
 4164000   0.59325515   -7.6692677    820.47822  0.016420073  0.015578527         3719 
 4165000   0.57709475   -7.6641245     820.7655  0.016421879  0.015573062         3736 
 4166000   0.59171327   -7.6579841    820.56466  0.016413919  0.015567597         3728 
 4167000   0.59866904   -7.6750523    821.73368  0.016433359  0.015562133         3714 
 4168000   0.58923121   -7.6507503    820.24557  0.016399663  0.015556673         3731 
 4169000   0.58671498   -7.6672544     821.0273  0.016411356  0.015551215         3717 
 4170000    0.5872812   -7.6819087    822.15696  0.016429995  0.015545757         3728 
 4171000   0.59756168   -7.6592244    820.73769    0.0163977  0.015540304         3719 
 4172000   0.57857021   -7.6424883    820.95997   0.01639821  0.015534849         3741 
 4173000   0.58111157   -7.6633169    820.83822  0.016391849  0.015529403         3706 
 4174000   0.58666085   -7.6735739    820.04262  0.016372038  0.015523955         3733 
 4175000   0.57526771    -7.657042    821.54905  0.016398185  0.015518507         3748 
 4176000     0.585751   -7.6649922     821.7568  0.016398404  0.015513059         3725 
 4177000   0.57497447   -7.6489224    821.57653  0.016390881  0.015507612         3729 
 4178000   0.56428195   -7.6416395    820.33085  0.016362112   0.01550217         3722 
 4179000   0.58951456   -7.6610371    821.15665  0.016374664  0.015496731         3738 
 4180000   0.59807316   -7.6662954    820.08398  0.016349362  0.015491293         3723 
 4181000   0.58019435   -7.6743851    820.74763  0.016358679  0.015485865         3738 
 4182000   0.57940615   -7.6778205    819.00898  0.016320122  0.015480428         3740 
 4183000   0.58057079   -7.6599324    820.82996  0.016352497     0.015475         3715 
 4184000   0.58266756   -7.6619412    820.32346  0.016338501  0.015469572         3729 
 4185000   0.57954709   -7.6734534     821.4494  0.016357017  0.015464144         3710 
 4186000   0.58310271   -7.6707617    819.87176  0.016321702  0.015458726         3724 
 4187000   0.58001212    -7.661542    819.96895  0.016319739  0.015453307         3730 
 4188000   0.58727833    -7.637731    820.89171  0.016334203  0.015447894         3702 
 4189000   0.59082445   -7.6503315       819.56  0.016303811  0.015442478         3706 
 4190000   0.58216204   -7.6903337     820.6678  0.016321953  0.015437065         3725 
 4191000      0.57947   -7.6485986    821.19206  0.016328483  0.015431654         3721 
 4192000   0.58549767   -7.6827559    821.64073  0.016333507  0.015426242         3701 
 4193000   0.58830427   -7.6616383    820.29865  0.016302939   0.01542084         3719 
 4194000   0.57420282   -7.6698496    821.64811  0.016325864  0.015415434         3730 
 4195000   0.57093978   -7.6684128    821.34021  0.016315856  0.015410038         3735 
 4196000   0.58036131   -7.6715011     818.8228  0.016261972  0.015404634         3727 
 4197000   0.59242464   -7.6638936    820.90066  0.016299354  0.015399234         3727 
 4198000   0.58919913   -7.6811012    822.00022  0.016317298  0.015393836         3741 
 4199000   0.58117355   -7.6732578    819.77324  0.016269216  0.015388443         3723 
 4200000   0.57402346   -7.6720614    821.00126  0.016289707  0.015383049         3704 
 4201000   0.57950803   -7.6654964    819.98961  0.016265762  0.015377664         3721 
 4202000    0.5925047   -7.6846688    819.93436  0.016260796  0.015372277         3694 
 4203000   0.57721267   -7.6685949    820.73914  0.016272883  0.015366893         3733 
 4204000   0.58225177   -7.6745162    822.47188   0.01630336  0.015361512         3732 
 4205000   0.57410536   -7.6758831    821.31983  0.016276651   0.01535613         3733 
 4206000   0.57974284   -7.6755301     821.6995  0.016280304  0.015350754         3750 
 4207000   0.58986009   -7.6754454    820.74444  0.016257516   0.01534538         3737 
 4208000   0.58888093   -7.6800997    820.65262  0.016251834  0.015340006         3735 
 4209000   0.58165231   -7.6755549    820.93651  0.016253594  0.015334636         3734 
 4210000   0.57005839   -7.6718695    820.74453  0.016245933  0.015329267         3727 
 4211000   0.59186475   -7.6589683    819.13384    0.0162102  0.015323898         3723 
 4212000    0.5703867   -7.6939202    821.03832  0.016244031  0.015318533         3740 
 4213000    0.5906759   -7.6890139     820.5382  0.016230283  0.015313172         3731 
 4214000   0.57475013   -7.6885607    819.76484  0.016211138  0.015307808         3741 
 4215000   0.57352232   -7.6743342    820.15022  0.016214911   0.01530245         3721 
 4216000   0.58588255   -7.6906981    820.15696  0.016211199  0.015297092         3748 
 4217000   0.58072437   -7.6561275     820.7217  0.016218514  0.015291737         3737 
 4218000   0.58487671   -7.6885016    821.02983  0.016220757  0.015286386         3712 
 4219000    0.5733183     -7.68025    821.29537  0.016222157  0.015281035         3728 
 4220000   0.57714491   -7.6778651    820.44874  0.016201594  0.015275682         3716 
 4221000   0.57744906   -7.6711048    818.97296   0.01616862  0.015270334         3739 
 4222000   0.58432602   -7.6670499    819.71839  0.016179504  0.015264989         3707 
 4223000   0.57429756   -7.6780211    819.89375  0.016179133  0.015259646         3724 
 4224000   0.56378131   -7.6688938    818.74399   0.01615262  0.015254306         3725 
 4225000    0.5760004   -7.6841406    820.35979  0.016180666  0.015248969         3721 
 4226000   0.56587378    -7.671273    821.48046  0.016198936   0.01524364         3714 
 4227000   0.58137973   -7.6856516    820.58641  0.016177478  0.015238311         3727 
 4228000   0.58714641   -7.6703401    820.24953  0.016167012  0.015232981         3714 
 4229000   0.57825674   -7.6890472      820.758  0.016173209  0.015227655         3722 
 4230000   0.57736599   -7.6739708    818.98453  0.016134447  0.015222328         3707 
 4231000   0.57413996   -7.6764992    820.46119  0.016159718  0.015217004         3718 
 4232000   0.57255562   -7.6777782    819.98951  0.016146611  0.015211678         3721 
 4233000   0.58829155   -7.6826763    820.17522  0.016146453  0.015206361         3726 
 4234000   0.57241218   -7.6672048    820.03695  0.016139918  0.015201045         3707 
 4235000   0.57228005   -7.6643312    820.42019  0.016143648  0.015195726         3728 
 4236000   0.57792853   -7.6921454    821.11202  0.016153447   0.01519041         3705 
 4237000    0.5961458   -7.6988942    820.52761   0.01613814  0.015185099         3716 
 4238000   0.56692958   -7.6818605    821.12451   0.01614607  0.015179787         3727 
 4239000   0.58014629   -7.6935518    820.67661  0.016133455  0.015174483         3720 
 4240000   0.56433877    -7.675299    820.60554  0.016128254  0.015169176         3727 
 4241000   0.58120152   -7.6893721    819.63063  0.016105294  0.015163871         3734 
 4242000   0.57855948    -7.680129    819.68417  0.016102549   0.01515857         3727 
 4243000   0.57760369   -7.6886493    819.03406  0.016085986  0.015153267         3732 
 4244000   0.56739936   -7.6715615    818.94883  0.016080522  0.015147966         3711 
 4245000   0.57959813   -7.6686771    820.73332  0.016111765  0.015142676         3734 
 4246000     0.578172   -7.6549738    819.29546  0.016079751  0.015137387         3738 
 4247000   0.56965764   -7.6997918    820.40206  0.016097678  0.015132096         3725 
 4248000   0.57214119   -7.6915995    820.65154  0.016098783  0.015126808         3712 
 4249000   0.57312445   -7.6816694    821.57228  0.016113052  0.015121525         3718 
 4250000   0.57328289   -7.6796136    820.33992  0.016085097  0.015116241         3725 
 4251000   0.56425682   -7.6776218    819.77898  0.016070316  0.015110957         3724 
 4252000   0.58634311    -7.691002    818.99258  0.016051124  0.015105679         3705 
 4253000   0.56607815   -7.6942722    818.98587  0.016047219  0.015100402         3712 
 4254000   0.56341895   -7.6954407    819.77756  0.016058955  0.015095126         3728 
 4255000   0.55832699   -7.6930556     819.3919  0.016047628   0.01508985         3745 
 4256000   0.57452013   -7.6702083     820.0763  0.016057258  0.015084582         3716 
 4257000   0.58044508   -7.6806202     819.6903   0.01604593  0.015079312         3751 
 4258000   0.56593185   -7.7073978    820.39011  0.016055858  0.015074049         3734 
 4259000   0.56988747    -7.694404    820.85335  0.016061152  0.015068791         3732 
 4260000    0.5653593    -7.685642    820.16977   0.01604401  0.015063533         3725 
 4261000   0.55410855   -7.6926045    819.97681  0.016036471  0.015058274         3738 
 4262000    0.5732299   -7.6857721     822.1595  0.016075385  0.015053022         3720 
 4263000   0.56630392   -7.6979977    821.01335  0.016049209  0.015047773         3749 
 4264000   0.58586317   -7.6902411    820.55175  0.016036424  0.015042523         3730 
 4265000   0.57215367   -7.6843369    819.13056  0.016004896  0.015037277         3708 
 4266000   0.57715927   -7.6865585    820.77292  0.016033226   0.01503203         3712 
 4267000    0.5676411   -7.6987071    820.38603  0.016021913  0.015026787         3723 
 4268000   0.57392877   -7.6862548    820.07071  0.016012002  0.015021547         3717 
 4269000   0.56213354   -7.6933424    818.72472  0.015981977  0.015016305         3731 
 4270000   0.57195553   -7.6880097    819.11106  0.015985774  0.015011068         3731 
 4271000   0.57252662   -7.7023089    820.64959   0.01601205  0.015005832         3752 
 4272000   0.57676384   -7.6883506    820.76472  0.016010548  0.015000592         3745 
 4273000   0.56837366   -7.6848928    820.29029  0.015997548  0.014995357         3735 
 4274000   0.57174509   -7.6956805    821.46482  0.016016706  0.014990126         3706 
 4275000   0.55972836   -7.6889409    819.57522  0.015976125  0.014984897         3725 
 4276000   0.56822505   -7.7071188    820.44863   0.01598941  0.014979668         3737 
 4277000   0.55806828   -7.7049322    819.66209  0.015970347  0.014974438         3746 
 4278000   0.57263147   -7.7007018    819.97928  0.015972793  0.014969217         3735 
 4279000   0.56628821   -7.6986849    819.46088  0.015958964  0.014963993         3715 
 4280000   0.56278195   -7.6993166    819.68341  0.015959568  0.014958773         3706 
 4281000   0.54622711   -7.6973101    820.31357  0.015968107  0.014953556         3697 
 4282000   0.57239858   -7.6784364     820.8102  0.015974042  0.014948342         3730 
 4283000   0.56243908   -7.7100238    819.90102  0.015952623  0.014943131         3730 
 4284000   0.56729322   -7.6758315    820.35253  0.015957682  0.014937928         3729 
 4285000   0.55836924   -7.6850392    819.46838  0.015936764  0.014932725         3724 
 4286000   0.56770259   -7.7039474    820.20767  0.015947419  0.014927521         3729 
 4287000   0.56239635   -7.7136562    820.18363  0.015943232  0.014922319         3727 
 4288000   0.57648839   -7.6763614    818.80616  0.015912744  0.014917123         3710 
 4289000   0.57324207   -7.6976539    820.21402  0.015936388  0.014911925         3715 
 4290000   0.55578918   -7.6890726    819.38099  0.015916492  0.014906731         3745 
 4291000   0.56750835   -7.6943462    818.99525  0.015905291  0.014901541         3699 
 4292000   0.56934254   -7.6991771    821.59966  0.015952152  0.014896355         3722 
 4293000   0.57511122   -7.6816518    820.10214  0.015919368  0.014891169         3729 
 4294000   0.56780221   -7.6985229    821.38474  0.015940552  0.014885987         3700 
 4295000   0.57277797   -7.6959884    818.84674  0.015887597    0.0148808         3706 
 4296000   0.56396877   -7.6906347    818.74537  0.015881932  0.014875619         3703 
 4297000   0.57093801   -7.7070414    819.92543  0.015901122   0.01487044         3693 
 4298000   0.56640778    -7.707421    819.59889  0.015891091  0.014865265         3709 
 4299000   0.55241828   -7.7097964    820.45603  0.015904009  0.014860088         3701 
 4300000    0.5628216   -7.7069045    820.57884  0.015902691  0.014854917         3722 
 4301000   0.56940852   -7.6988069    819.03403  0.015869062  0.014849746         3725 
 4302000   0.55549065   -7.6935614    819.72962  0.015878847  0.014844574         3711 
 4303000   0.56541079   -7.7013401    820.49085  0.015889899  0.014839412         3729 
 4304000   0.55930573   -7.7233832    819.90442  0.015874853  0.014834241         3711 
 4305000   0.55593863   -7.7057974    819.59963  0.015865266  0.014829078         3721 
 4306000   0.56979472   -7.6841599    819.20746  0.015853992  0.014823919         3703 
 4307000   0.56609794   -7.7074572    818.83018  0.015843011  0.014818759         3715 
 4308000   0.57262457   -7.6807063      817.751  0.015818458  0.014813598         3706 
 4309000   0.55652047   -7.7024669    820.00131  0.015858306  0.014808444         3713 
 4310000   0.56235036   -7.6895608    819.05953  0.015836418  0.014803286         3706 
 4311000   0.55953037   -7.6824032    821.29897  0.015876034  0.014798135         3700 
 4312000   0.56167184   -7.6966753    819.57464  0.015839028  0.014792982         3714 
 4313000   0.56621024   -7.7048207    819.32217  0.015830477  0.014787833         3733 
 4314000   0.57949326   -7.6970234     818.4487  0.015809935  0.014782689         3734 
 4315000   0.56594603   -7.6970542    820.15082  0.015839143  0.014777541         3711 
 4316000    0.5665279   -7.6983109    818.66333  0.015806753    0.0147724         3724 
 4317000   0.57121993   -7.7014696    820.08449  0.015830524  0.014767259         3737 
 4318000   0.55699671   -7.6962904    819.58039   0.01581713  0.014762121         3725 
 4319000    0.5556297   -7.7079532    820.50732  0.015831352  0.014756986         3738 
 4320000   0.55758579   -7.7129738    818.63072  0.015791488  0.014751852         3718 
 4321000   0.56491576   -7.7007574    819.73271  0.015809086  0.014746719         3740 
 4322000   0.55397986   -7.7129802    818.41256  0.015779974   0.01474159         3707 
 4323000   0.55989107   -7.7052686    819.82717  0.015803593  0.014736459         3726 
 4324000   0.56718909   -7.6789238    819.08277  0.015785591   0.01473133         3714 
 4325000   0.54710532   -7.6931437    820.37243  0.015806791  0.014726207         3731 
 4326000   0.56876825   -7.7222654    818.25302   0.01576231  0.014721082         3724 
 4327000    0.5728145   -7.6945681    819.15888  0.015776113  0.014715963         3741 
 4328000   0.54998996   -7.6986556    819.68388  0.015782576  0.014710842         3727 
 4329000   0.55665818   -7.7226257    819.76687  0.015780528  0.014705728         3724 
 4330000   0.54855596   -7.6807823    819.86471  0.015778767  0.014700614         3730 
 4331000   0.55867367   -7.7040091    819.27924  0.015763858    0.0146955         3740 
 4332000   0.56702333   -7.6993891    819.75064  0.015769287  0.014690397         3733 
 4333000   0.56973967   -7.6839476    818.65913  0.015744656  0.014685288         3722 
 4334000   0.55875068   -7.6979531    818.38558  0.015735763  0.014680182         3725 
 4335000   0.55662987   -7.6902623    818.58931   0.01573605  0.014675073         3721 
 4336000   0.56665128   -7.6950447    818.99107  0.015740142   0.01466997         3720 
 4337000   0.55573772   -7.6944959    818.45186  0.015726152  0.014664874         3718 
 4338000   0.55289945   -7.7060158    818.74286  0.015728117  0.014659783         3727 
 4339000   0.55708671   -7.7049991    818.77647  0.015725138   0.01465469         3718 
 4340000   0.54910902   -7.7010977    819.21428  0.015729921  0.014649596         3721 
 4341000   0.55511137   -7.7113855    818.42944  0.015711231  0.014644504         3712 
 4342000   0.55535869   -7.7203074    819.03535  0.015719241  0.014639414         3732 
 4343000   0.56256322   -7.6958055     819.3152  0.015720992  0.014634331         3747 
 4344000   0.54931509   -7.6920703    818.40225  0.015699859  0.014629251         3727 
 4345000   0.54820048    -7.692963     819.1983  0.015711513   0.01462417         3737 
 4346000   0.55732361   -7.6950812    817.99644  0.015684853  0.014619093         3733 
 4347000   0.55956861   -7.6951953    819.18624  0.015704053  0.014614012         3722 
 4348000   0.56589352   -7.7215204    818.91949  0.015695329  0.014608938         3721 
 4349000   0.54876302   -7.7200277    818.84535    0.0156903  0.014603861         3733 
 4350000   0.54990872    -7.712633    819.36494  0.015696646   0.01459879         3738 
 4351000   0.55912513   -7.7125573    820.00277  0.015705255  0.014593722         3736 
 4352000   0.56821616   -7.7165467    819.37867  0.015689696  0.014588654         3716 
 4353000   0.55624959   -7.7093883     819.1133  0.015681011  0.014583591         3720 
 4354000   0.54825985   -7.7127906     818.0854  0.015657736  0.014578527         3736 
 4355000   0.54306582   -7.7043177    818.69568  0.015665819  0.014573464         3721 
 4356000    0.5465391    -7.720005    818.56485  0.015659719  0.014568406         3740 
 4357000    0.5525018   -7.7206073    820.79102  0.015698704  0.014563346         3711 
 4358000   0.54183806   -7.7317935     819.5773  0.015671893  0.014558292         3720 
 4359000   0.55773926   -7.7117313    819.22205  0.015661506   0.01455324         3733 
 4360000   0.55737339   -7.6980896    818.59345  0.015645899   0.01454819         3723 
 4361000   0.56140904   -7.7019894    819.86036  0.015666521  0.014543144         3728 
 4362000   0.55871573   -7.7062957    818.76765  0.015642054    0.0145381         3727 
 4363000   0.55812921   -7.7186264    817.80252  0.015620034  0.014533054         3719 
 4364000   0.54754522   -7.6951794    819.82695  0.015655113  0.014528011         3740 
 4365000   0.55067798   -7.7234996    818.02723  0.015617167  0.014522966         3722 
 4366000   0.54693822   -7.7263819     819.7795  0.015647036  0.014517929         3721 
 4367000   0.54584033   -7.6950024    818.68344  0.015622537  0.014512891         3739 
 4368000   0.55009369   -7.7098492    819.51769  0.015634877  0.014507858         3738 
 4369000   0.55097438   -7.7309816    820.39601  0.015648051  0.014502826         3723 
 4370000   0.55133952   -7.7026793    819.78576  0.015632833  0.014497797         3721 
 4371000    0.5626477   -7.7042878    818.36763   0.01560222   0.01449277         3727 
 4372000   0.55671583   -7.7096102    819.49011  0.015620046  0.014487745         3730 
 4373000   0.55054795   -7.7126157    818.54146  0.015598397  0.014482719         3748 
 4374000   0.54315811   -7.7258056    820.75773  0.015637055    0.0144777         3746 
 4375000   0.54655725   -7.7330909    818.97586   0.01559954  0.014472679         3708 
 4376000   0.55867023   -7.7283532    819.95003  0.015614527  0.014467659         3728 
 4377000   0.54372401   -7.7064418    819.57529  0.015603825  0.014462644         3719 
 4378000   0.54487917   -7.7289868    819.43498   0.01559759  0.014457632         3749 
 4379000   0.55400609   -7.7148511    819.03122  0.015586344  0.014452621         3729 
 4380000   0.55468001   -7.7227721    819.51751  0.015592038   0.01444761         3728 
 4381000   0.55190741   -7.7152398    818.41887  0.015567581  0.014442601         3722 
 4382000   0.54762129   -7.7208798    818.42113  0.015564071  0.014437593         3732 
 4383000   0.54576518    -7.706933    818.15294  0.015555421  0.014432589         3725 
 4384000   0.54251867   -7.7293396    819.91578  0.015585382  0.014427587         3732 
 4385000   0.54051199    -7.732138    818.61712  0.015557148  0.014422585         3752 
 4386000   0.54901976   -7.7027568    818.44678  0.015550364  0.014417586         3741 
 4387000   0.53678692   -7.7177182    819.62525  0.015569205  0.014412592         3731 
 4388000   0.54685503   -7.7194772    818.76859  0.015549388  0.014407599         3727 
 4389000   0.54838219   -7.7202179    818.25117  0.015536021  0.014402609         3724 
 4390000   0.54791898    -7.732294    819.54666  0.015557074  0.014397619         3745 
 4391000    0.5406846   -7.7202395    819.30467  0.015548938  0.014392633         3731 
 4392000     0.544212   -7.6950166     818.0191  0.015521006  0.014387643         3736 
 4393000   0.55708858   -7.7191471    818.00953  0.015517291  0.014382661         3727 
 4394000   0.54513729   -7.7184877    819.85676  0.015548793  0.014377681         3744 
 4395000   0.55347443   -7.7215664    817.90805  0.015508306  0.014372699         3739 
 4396000    0.5579698   -7.7287339    818.37278  0.015513588   0.01436772         3759 
 4397000   0.53901509   -7.7092447    817.15647  0.015487008  0.014362746         3739 
 4398000   0.55844775   -7.7115023    818.88697  0.015516276  0.014357771         3737 
 4399000   0.55585975   -7.7311334    818.65998  0.015508449  0.014352801         3730 
 4400000    0.5503085   -7.7282296    819.23374  0.015515791  0.014347831         3745 
 4401000   0.55042326   -7.7317527    818.74789  0.015503065  0.014342864         3736 
 4402000   0.53431043   -7.7212344    818.77894  0.015500131  0.014337899         3734 
 4403000   0.53409536   -7.7261744    818.25005  0.015486601  0.014332932         3742 
 4404000   0.54684406   -7.7367314     818.4754  0.015487349   0.01432797         3726 
 4405000    0.5521071   -7.7218752    817.69798  0.015469126  0.014323012         3718 
 4406000   0.53390424   -7.7264016    818.34202  0.015477796  0.014318053         3733 
 4407000   0.54842553   -7.7131912     818.7753  0.015482477  0.014313091         3740 
 4408000   0.53911709   -7.7149141     818.8024  0.015479477  0.014308139         3748 
 4409000   0.54677748   -7.7230438    819.03422  0.015480347  0.014303188         3732 
 4410000   0.54341519     -7.71757    818.55065  0.015467699  0.014298241         3726 
 4411000   0.53761578   -7.7334068     818.5415   0.01546402  0.014293292         3728 
 4412000   0.53823076   -7.7155175     818.7409  0.015464281  0.014288348         3755 
 4413000   0.55133766   -7.7186037    818.10129  0.015448699  0.014283408         3727 
 4414000   0.54587838   -7.7137792      816.943  0.015423331  0.014278466         3762 
 4415000   0.54013821   -7.7231726     818.3484  0.015446365  0.014273526         3755 
 4416000   0.55320176    -7.714911    818.92158  0.015453683  0.014268591         3755 
 4417000   0.53993394   -7.7223525    819.39183  0.015459056  0.014263659         3725 
 4418000   0.54246973   -7.7254716    818.70049  0.015442517  0.014258733         3737 
 4419000     0.553625   -7.7207654    818.50564  0.015435348  0.014253805         3742 
 4420000    0.5473015   -7.7207482    817.97402  0.015421833   0.01424888         3739 
 4421000   0.53688909   -7.7137448    819.38861  0.015445009  0.014243957         3724 
 4422000   0.54605358   -7.7320438    817.73362  0.015410327  0.014239037         3745 
 4423000   0.54393416   -7.7214029    819.22123  0.015434871  0.014234115         3733 
 4424000   0.53910482   -7.7164326    818.21467  0.015412422  0.014229196         3751 
 4425000   0.54050537   -7.7266337    818.72873   0.01541862  0.014224278         3719 
 4426000   0.53645141   -7.7301085    819.67738  0.015432998  0.014219365         3731 
 4427000   0.54881968   -7.7143425    818.66042  0.015410369  0.014214454         3739 
 4428000   0.54834726   -7.7256396    818.42889  0.015402531  0.014209545         3731 
 4429000   0.54258306   -7.7211968    819.26973  0.015414874  0.014204636         3734 
 4430000    0.5432254    -7.708022    818.58695  0.015398551  0.014199733         3730 
 4431000   0.54728674   -7.7275986    819.26799  0.015407884  0.014194829         3742 
 4432000   0.53915646   -7.7247416    819.38604  0.015406627  0.014189929         3746 
 4433000   0.54282277   -7.7380258    819.34251  0.015402333  0.014185033         3744 
 4434000   0.54611676   -7.7250453    818.38921  0.015380943  0.014180135         3719 
 4435000   0.54015308   -7.7324416    816.89115  0.015349326  0.014175239         3736 
 4436000   0.54071325   -7.7114346    817.99849  0.015366668  0.014170341         3757 
 4437000   0.52626876   -7.7192917    817.12716   0.01534684  0.014165451         3714 
 4438000   0.55968479   -7.7289971    818.81977  0.015375165  0.014160564         3724 
 4439000    0.5407461   -7.7233829    817.60944   0.01534898  0.014155678         3739 
 4440000   0.54515321   -7.7348774    817.78185  0.015348758  0.014150794         3736 
 4441000   0.53950868   -7.7109485    816.67032  0.015324445  0.014145913         3731 
 4442000   0.54781184   -7.7291022    818.81886  0.015361302  0.014141031         3717 
 4443000   0.55727954   -7.7373807    819.29329  0.015366743  0.014136152         3716 
 4444000   0.54452116   -7.7131574    818.47264  0.015347897  0.014131276         3741 
 4445000   0.53521441   -7.7242044    819.90109  0.015371224    0.0141264         3723 
 4446000   0.54573148   -7.7397052    818.55977  0.015342626  0.014121523         3729 
 4447000   0.54866871    -7.725775    818.33949  0.015335048  0.014116653         3724 
 4448000   0.54446202   -7.7176327    818.26006  0.015330112  0.014111785         3735 
 4449000   0.53901377     -7.73209    819.38635  0.015347763  0.014106919         3698 
 4450000   0.54826646   -7.7365713    818.69066  0.015331286  0.014102049         3725 
 4451000   0.53757337   -7.7420641    817.67852  0.015308892  0.014097186         3724 
 4452000   0.53490994    -7.736327    817.83669  0.015308414   0.01409232         3723 
 4453000   0.54229532   -7.7452264    818.99407  0.015326635  0.014087465         3727 
 4454000   0.55053193   -7.7271438    817.81438  0.015301122  0.014082609         3717 
 4455000   0.53651047    -7.720271    818.28148  0.015306425  0.014077752         3717 
 4456000   0.56006589   -7.7320265    818.22144  0.015301867  0.014072902         3718 
 4457000   0.53282229   -7.7202878      818.821  0.015309644  0.014068051         3743 
 4458000   0.54487027   -7.7300628     817.4915  0.015281357  0.014063204         3749 
 4459000   0.53358547   -7.7332961    819.59381   0.01531722  0.014058357         3735 
 4460000   0.54793577   -7.7323124    818.51555  0.015293639  0.014053511         3718 
 4461000    0.5318133   -7.7311883    817.42898  0.015269913  0.014048666         3755 
 4462000   0.53028042   -7.7444585     817.9604  0.015276416  0.014043826         3711 
 4463000    0.5418795   -7.7290399    818.31127  0.015279544  0.014038985         3745 
 4464000   0.53967242   -7.7309249    817.52907  0.015261519   0.01403415         3717 
 4465000   0.53622365   -7.7281198    818.62293  0.015278517  0.014029315         3720 
 4466000   0.52628997   -7.7229927    819.01395  0.015282392  0.014024484         3722 
 4467000   0.53018719   -7.7185716    817.59502    0.0152525  0.014019655         3735 
 4468000   0.53993723   -7.7358034    817.01314  0.015238234  0.014014823         3715 
 4469000    0.5326085   -7.7227217    816.83916   0.01523158  0.014009994         3727 
 4470000   0.52861895   -7.7312769    818.45632  0.015258321   0.01400517         3699 
 4471000   0.53217966    -7.742716      817.463  0.015236394  0.014000347         3730 
 4472000   0.53814426   -7.7451532    818.13155  0.015245445  0.013995523         3722 
 4473000    0.5402363   -7.7439394    817.83046  0.015236427  0.013990702         3729 
 4474000   0.52985119   -7.7619934    817.69519  0.015230502  0.013985886         3726 
 4475000   0.53666236   -7.7497956    818.19288  0.015236366   0.01398107         3722 
 4476000   0.53428582    -7.730366    815.60337  0.015184751  0.013976258         3709 
 4477000   0.54663795   -7.7546771     818.9336  0.015243347  0.013971444         3742 
 4478000    0.5345546   -7.7281314     818.0674  0.015223824  0.013966637         3707 
 4479000   0.54308155   -7.7353703    817.37357  0.015207516  0.013961834         3718 
 4480000   0.52982905   -7.7247708    818.45654  0.015224266  0.013957028         3705 
 4481000   0.54753898   -7.7609861    817.74683   0.01520767  0.013952225         3735 
 4482000    0.5508299   -7.7660228    818.09862  0.015210818  0.013947426         3719 
 4483000   0.53000837   -7.7483011    817.20134  0.015190745  0.013942625         3727 
 4484000   0.53686359   -7.7597633    818.26561  0.015207137  0.013937827         3733 
 4485000   0.54340098   -7.7415053    817.76347  0.015194416  0.013933031         3719 
 4486000   0.52456213    -7.749497    817.95641  0.015194613  0.013928237         3718 
 4487000   0.51505018     -7.75753     818.4414  0.015200234  0.013923445         3706 
 4488000   0.52591792   -7.7407056    818.19711  0.015192311  0.013918655         3709 
 4489000    0.5303543   -7.7414082    818.89008  0.015201791   0.01391387         3705 
 4490000   0.54034218   -7.7471532    818.73754  0.015195574  0.013909085         3720 
 4491000   0.53564886    -7.731048    817.41112  0.015167578  0.013904305         3731 
 4492000   0.53402666   -7.7394323    818.17399  0.015178354  0.013899524         3733 
 4493000   0.52726088   -7.7462575     816.9113  0.015151556  0.013894745         3728 
 4494000   0.53197134   -7.7433922    817.93222  0.015167116  0.013889968         3744 
 4495000   0.52901278   -7.7410205    817.44024  0.015154621  0.013885196         3706 
 4496000   0.53193615   -7.7385953    817.67492    0.0151556  0.013880427         3729 
 4497000   0.53128441   -7.7432832     817.6985  0.015152667  0.013875654         3719 
 4498000   0.52661355   -7.7285596    818.22728  0.015159094  0.013870881         3741 
 4499000   0.53030417   -7.7350414    817.45819  0.015141479  0.013866115         3711 
 4500000   0.53244756   -7.7377033    817.72432  0.015143043  0.013861349         3712 
 4501000   0.54335632   -7.7566673    817.97638  0.015144345  0.013856585         3750 
 4502000   0.52691377   -7.7412553    818.59169  0.015152371  0.013851824         3740 
 4503000   0.53380837   -7.7483387    818.39151  0.015145301  0.013847065         3728 
 4504000    0.5274823   -7.7461076    818.09697  0.015136489   0.01384231         3741 
 4505000   0.53703393   -7.7427216    818.21809   0.01513537  0.013837556         3733 
 4506000   0.53271736   -7.7477993    817.46061  0.015118002  0.013832802         3718 
 4507000   0.52275888   -7.7479897     818.1257  0.015126945  0.013828052         3707 
 4508000   0.52789279   -7.7288722    817.37012  0.015109622  0.013823301         3704 
 4509000   0.53785659   -7.7409433    817.41324  0.015107068  0.013818555         3708 
 4510000   0.52902287   -7.7511198    817.55815  0.015106396  0.013813809         3744 
 4511000   0.53309911   -7.7433591    816.73208  0.015087787  0.013809066         3719 
 4512000    0.5324917   -7.7531037    817.28151  0.015094591  0.013804329         3748 
 4513000   0.52854317   -7.7384705    817.63796  0.015097828  0.013799589         3708 
 4514000   0.53236051   -7.7500852    818.28964  0.015106514  0.013794853         3729 
 4515000   0.52961475   -7.7460288    817.80116  0.015094152   0.01379012         3738 
 4516000   0.52519439   -7.7342277    818.14619  0.015097177  0.013785384         3711 
 4517000   0.52118218    -7.732725    817.67908  0.015085217  0.013780654         3727 
 4518000   0.54116518   -7.7498395    817.64731  0.015081292  0.013775924         3727 
 4519000   0.53877222    -7.749812    818.81973  0.015099575  0.013771197         3718 
 4520000   0.53333202    -7.745893    817.42684  0.015070554  0.013766469         3708 
 4521000   0.53436058   -7.7370641    817.29287  0.015064751  0.013761745         3722 
 4522000   0.52019978   -7.7612454    818.05494  0.015075463  0.013757024         3733 
 4523000   0.52818065   -7.7476468     816.9496  0.015051765  0.013752304         3715 
 4524000   0.51849036   -7.7613655    817.89732  0.015065895  0.013747585         3748 
 4525000   0.52370783   -7.7406458    817.96035  0.015063727   0.01374287         3727 
 4526000   0.52139542   -7.7716428    817.94623  0.015060138  0.013738157         3698 
 4527000    0.5320109   -7.7684888    817.03197  0.015039982  0.013733441         3696 
 4528000   0.52144525   -7.7607063    817.64255  0.015047897  0.013728732         3716 
 4529000   0.52829863   -7.7553296    817.96698  0.015050544  0.013724026         3719 
 4530000   0.52530795    -7.730085     817.6299  0.015041021  0.013719321         3713 
 4531000   0.51787767   -7.7654995    816.96562  0.015025484  0.013714618         3741 
 4532000    0.5209821    -7.752792    819.10069  0.015061428  0.013709916         3716 
 4533000   0.51682708   -7.7555033    818.63388  0.015049524  0.013705218         3722 
 4534000   0.53443696   -7.7604366    818.37065  0.015041366  0.013700523         3719 
 4535000   0.53071431    -7.745908    816.53305  0.015004282  0.013695829         3718 
 4536000   0.53864344   -7.7532216    816.52538  0.015000834  0.013691136         3723 
 4537000   0.51892921   -7.7452635    817.04662  0.015007101  0.013686447         3723 
 4538000   0.53109764   -7.7565232    816.97842  0.015002542   0.01368176         3709 
 4539000   0.51370911   -7.7525925    817.84021  0.015015059  0.013677073         3727 
 4540000   0.52120599   -7.7504429    817.04184  0.014997097   0.01367239         3732 
 4541000   0.53827942   -7.7512234    817.05561  0.014994047  0.013667705         3716 
 4542000   0.52150401   -7.7656795    817.97032  0.015007528  0.013663024         3733 
 4543000   0.52946843   -7.7514232     817.0089  0.014986589  0.013658345         3708 
 4544000   0.53161068   -7.7643729    817.19812  0.014986761  0.013653665         3717 
 4545000   0.53479432   -7.7303785    815.89909  0.014959646  0.013648994         3737 
 4546000    0.5188226   -7.7550712    817.17528  0.014979749  0.013644321         3724 
 4547000   0.52724707   -7.7409786    817.53275  0.014983006  0.013639649         3719 
 4548000   0.52815879   -7.7481206    816.36752  0.014958361   0.01363498         3709 
 4549000   0.52000056   -7.7463646    818.18465  0.014988361  0.013630311         3725 
 4550000   0.52310103   -7.7347507    817.06717    0.0149646  0.013625645         3717 
 4551000   0.52581873   -7.7614977    816.32322   0.01494769  0.013620981         3713 
 4552000   0.51941285   -7.7504549    816.47928  0.014947263   0.01361632         3727 
 4553000   0.52765977   -7.7459004    817.34582   0.01495984  0.013611661         3679 
 4554000   0.52389799   -7.7676753    817.96007  0.014967795  0.013607005         3731 
 4555000   0.52461665   -7.7631063    817.71986  0.014960114  0.013602351         3716 
 4556000   0.51456628   -7.7576287    818.03853   0.01496266  0.013597699         3735 
 4557000   0.52562534   -7.7503869    817.28789  0.014945649  0.013593046         3714 
 4558000   0.51392957   -7.7499647    817.20819  0.014940913  0.013588397         3713 
 4559000   0.51097246   -7.7469629    817.70355  0.014946691  0.013583749         3736 
 4560000   0.51526881   -7.7588354    818.10125  0.014950681  0.013579103         3712 
 4561000   0.52682455   -7.7675672    817.55996  0.014937513   0.01357446         3734 
 4562000   0.51963511   -7.7474558    817.42502  0.014931774  0.013569815         3710 
 4563000   0.52250314   -7.7668681    817.19929  0.014924379  0.013565175         3716 
 4564000     0.521111    -7.760232    816.98403  0.014917178  0.013560536         3709 
 4565000   0.51800976   -7.7632232    817.07292  0.014915533  0.013555898         3717 
 4566000   0.51917024   -7.7483209    815.71938  0.014887564  0.013551267         3712 
 4567000   0.51668236   -7.7630153     817.3188  0.014913488  0.013546636         3712 
 4568000   0.50580469    -7.770063    817.11805  0.014906561  0.013542004         3728 
 4569000   0.52486814   -7.7506293    817.48832  0.014910052  0.013537376         3725 
 4570000   0.52625292   -7.7521224    816.60551  0.014890691  0.013532749         3733 
 4571000   0.52261873   -7.7614257    815.96454  0.014875748  0.013528126         3725 
 4572000   0.52036951   -7.7575025    816.12508  0.014875421  0.013523503         3743 
 4573000   0.51668977    -7.755873    817.10062  0.014889945  0.013518883         3727 
 4574000    0.5222438   -7.7469591    816.07024  0.014867917  0.013514267         3712 
 4575000    0.5213151   -7.7485209    817.45866  0.014889957  0.013509652         3724 
 4576000   0.52129621   -7.7537578    816.52932  0.014869779  0.013505037         3729 
 4577000   0.52838925   -7.7554802    816.15818  0.014859773  0.013500422         3722 
 4578000   0.51683972   -7.7565209    817.80559  0.014886515  0.013495806         3724 
 4579000   0.52061626   -7.7783886    817.18694  0.014872005  0.013491196         3745 
 4580000   0.51781845   -7.7418429    817.01591  0.014865646  0.013486585         3724 
 4581000   0.53175993   -7.7611302    816.57892  0.014854452  0.013481981         3740 
 4582000   0.51802653   -7.7684862    818.49209  0.014886005  0.013477378         3741 
 4583000   0.52287841   -7.7520939    817.40749  0.014863035  0.013472774         3700 
 4584000   0.51825655    -7.760179     816.1483  0.014836902  0.013468172         3747 
 4585000   0.50873334   -7.7573208     817.5978  0.014860011  0.013463571         3724 
 4586000   0.52656569   -7.7581924    816.30751  0.014833324  0.013458976         3725 
 4587000   0.51925871   -7.7645238    818.00613   0.01486095  0.013454384         3716 
 4588000   0.52032671   -7.7638982    817.17676  0.014842647  0.013449789         3731 
 4589000   0.50753769   -7.7760042    815.82391  0.014814846  0.013445199         3725 
 4590000   0.51063834   -7.7515124    816.83597  0.014829992  0.013440609         3718 
 4591000   0.52265595   -7.7601501    816.79906  0.014826092   0.01343602         3728 
 4592000   0.51903723   -7.7713571     817.6737  0.014838736  0.013431437         3724 
 4593000    0.5119207   -7.7526594    815.46076  0.014795355  0.013426854         3732 
 4594000   0.51643879   -7.7648249    817.18216  0.014823359  0.013422276         3709 
 4595000   0.52664348   -7.7618939    816.03349  0.014799302  0.013417698         3720 
 4596000   0.51502991   -7.7713365    815.56906  0.014787661  0.013413118         3726 
 4597000   0.51592327    -7.761049    816.97297  0.014809894  0.013408543         3706 
 4598000   0.51893689     -7.77414     816.6734  0.014801243  0.013403967         3726 
 4599000   0.51746685   -7.7748614    817.03785  0.014804629  0.013399398         3746 
 4600000   0.51285462   -7.7706102    816.65382  0.014794453  0.013394829         3726 
 4601000   0.49990172   -7.7625283    816.10917  0.014781373   0.01339026         3710 
 4602000   0.52134872   -7.7663208    816.44211   0.01478419  0.013385694         3722 
 4603000   0.51814838   -7.7694105    817.23082  0.014795257  0.013381128         3722 
 4604000   0.51293523   -7.7617198    817.71477  0.014800803  0.013376565         3723 
 4605000   0.52529331   -7.7814233    815.63472  0.014759948  0.013372006         3715 
 4606000   0.50950494   -7.7688994    817.84996  0.014796822  0.013367448         3729 
 4607000   0.51804935   -7.7649176    815.96765  0.014759563  0.013362888         3722 
 4608000   0.50904266   -7.7603747    816.13395  0.014759367  0.013358333         3743 
 4609000   0.52273053   -7.7601211    817.10188  0.014773665  0.013353781         3703 
 4610000   0.50401589   -7.7733166    816.19328  0.014754036  0.013349231         3762 
 4611000   0.51336162   -7.7712007    816.45638  0.014755591  0.013344681         3726 
 4612000   0.50387476   -7.7585564    816.07676  0.014745533  0.013340131         3723 
 4613000   0.51058994   -7.7809829    816.68947  0.014753405  0.013335586         3721 
 4614000   0.51526994   -7.7679953    816.09865  0.014739536  0.013331039         3744 
 4615000   0.51483624   -7.7482611    816.31351  0.014740222  0.013326498         3724 
 4616000   0.51795613   -7.7643391    817.55088  0.014759367   0.01332196         3727 
 4617000    0.5199792    -7.771957    818.03008   0.01476482  0.013317425         3732 
 4618000   0.51265825   -7.7516636    816.52174  0.014734404  0.013312888         3727 
 4619000   0.51085963   -7.7756856     816.5647  0.014731989  0.013308356         3732 
 4620000   0.50339712   -7.7693905    816.62173  0.014729829  0.013303826         3719 
 4621000   0.52942992   -7.7628985    815.69629  0.014709953    0.0132993         3731 
 4622000   0.51253903   -7.7564584    815.75247  0.014707783  0.013294775         3717 
 4623000   0.51216787    -7.769043    815.83209  0.014706037  0.013290249         3719 
 4624000   0.52273471   -7.7755142    817.21785   0.01472783  0.013285726         3746 
 4625000   0.50804586   -7.7902257    817.53844  0.014730422  0.013281201         3724 
 4626000   0.50902966   -7.7604923    814.79653  0.014677845  0.013276683         3723 
 4627000   0.50296194   -7.7770484    817.22082  0.014718335  0.013272166         3708 
 4628000   0.51618785   -7.7861195    816.46535  0.014701551   0.01326765         3719 
 4629000   0.51749318   -7.7797489    817.02888   0.01470852  0.013263133         3734 
 4630000   0.50601203   -7.7757165    815.88964  0.014684839  0.013258621         3741 
 4631000    0.5062635   -7.7709482    815.66422  0.014677611   0.01325411         3728 
 4632000   0.52133309   -7.7847372      817.392  0.014705527  0.013249602         3732 
 4633000   0.50699073   -7.7784829    815.06523  0.014660501  0.013245096         3713 
 4634000   0.49887437   -7.7539455    816.03944  0.014674857   0.01324059         3721 
 4635000   0.51048937   -7.7703416    815.76725  0.014666797  0.013236088         3722 
 4636000   0.49823503   -7.7773393      817.321  0.014691562   0.01323159         3731 
 4637000   0.50266065   -7.7712073    816.75607  0.014678241  0.013227088         3723 
 4638000   0.50717842   -7.7719719    816.85859  0.014676919  0.013222591         3711 
 4639000   0.50763266   -7.7816723    816.72705  0.014671392  0.013218095         3733 
 4640000   0.50667256   -7.7850217    816.73537   0.01466838  0.013213603         3736 
 4641000   0.51486821   -7.7819505    816.98146  0.014669638   0.01320911         3727 
 4642000   0.50346859   -7.7606874    816.38704  0.014655806   0.01320462         3734 
 4643000   0.50919821     -7.78479    815.49618  0.014636661  0.013200134         3753 
 4644000   0.51692361   -7.7628235    817.86634   0.01467604  0.013195648         3740 
 4645000   0.51460901   -7.7642253     816.3927  0.014646442  0.013191166         3727 
 4646000   0.51121742   -7.7549024    816.09551  0.014637959  0.013186687         3730 
 4647000   0.51081965   -7.7779401    815.47123  0.014623614  0.013182209         3726 
 4648000   0.51549088   -7.7706992    815.46446  0.014620347  0.013177732         3715 
 4649000    0.5055418   -7.7990613    817.51601  0.014653976  0.013173256         3755 
 4650000   0.51269195    -7.782953    815.78849  0.014619865  0.013168781         3728 
 4651000   0.51514995   -7.7812626     815.1568  0.014605404  0.013164307         3738 
 4652000   0.50756364   -7.7823207    816.65844  0.014629164  0.013159838         3747 
 4653000   0.51348772   -7.7761065    817.00385  0.014632206  0.013155368         3709 
 4654000   0.52504794   -7.7853996    816.75939  0.014624685  0.013150904         3731 
 4655000   0.50716536   -7.7658847    816.68886   0.01462028  0.013146441         3714 
 4656000   0.51072393   -7.7625858     814.8156  0.014583612  0.013141979         3731 
 4657000    0.5050221   -7.7755497    817.21697  0.014623452  0.013137517         3743 
 4658000   0.51563136   -7.7878297    816.65772  0.014610307  0.013133061         3729 
 4659000    0.5048081   -7.7818947    816.40022  0.014602565  0.013128603         3726 
 4660000   0.52331902   -7.7848587    814.99885  0.014574371  0.013124147         3750 
 4661000   0.51266989   -7.7852172    816.45478  0.014597275  0.013119695         3741 
 4662000   0.51159088   -7.7646181    816.78702  0.014600083  0.013115244         3720 
 4663000    0.5002888   -7.7624353    816.03909  0.014583585  0.013110791         3717 
 4664000   0.50115258   -7.7830523    817.15251  0.014600352  0.013106344         3731 
 4665000   0.50642943   -7.7858181    816.17971  0.014579845  0.013101894         3721 
 4666000   0.51016707   -7.7769092    816.87745  0.014589181  0.013097452         3732 
 4667000   0.49770324    -7.788305    817.02814  0.014588746   0.01309301         3714 
 4668000   0.50156585   -7.7939734    816.43075  0.014574956  0.013088569         3737 
 4669000   0.49494282   -7.7859462    814.99538  0.014546216  0.013084128         3730 
 4670000   0.49626564   -7.7868067    816.14477  0.014563611  0.013079688         3710 
 4671000   0.49277301   -7.7742392    815.98621  0.014557665  0.013075253         3730 
 4672000   0.49797666   -7.7853735    816.49443  0.014563613  0.013070821         3711 
 4673000   0.51056557   -7.7887105    816.05714  0.014552699  0.013066392         3724 
 4674000    0.5017495   -7.7967693    815.57495  0.014540988  0.013061962         3732 
 4675000   0.50502189   -7.7543218    815.78424  0.014541609  0.013057535         3727 
 4676000   0.50028748   -7.7745378    816.19928  0.014545895   0.01305311         3749 
 4677000   0.50511069   -7.7725035    815.82937  0.014536194  0.013048686         3727 
 4678000    0.5040294   -7.7816993    816.81481  0.014550641  0.013044266         3733 
 4679000   0.50261892    -7.775713    816.61343  0.014543945  0.013039846         3730 
 4680000   0.49866512   -7.7836329    814.79917  0.014508532   0.01303543         3715 
 4681000    0.4977621   -7.7862425    816.08525  0.014528328  0.013031014         3739 
 4682000   0.50561696   -7.7822962    815.45988  0.014514094  0.013026602         3727 
 4683000   0.49189108   -7.7862856    816.48648  0.014529263  0.013022191         3735 
 4684000   0.51209329   -7.7727586    817.15581   0.01453807  0.013017782         3728 
 4685000   0.50462919   -7.7881343    815.29502  0.014501868  0.013013372         3728 
 4686000   0.49762548   -7.8010938      816.892  0.014527173  0.013008969         3729 
 4687000   0.50408804   -7.7839819    816.98414  0.014525712  0.013004563         3730 
 4688000   0.49812713   -7.7909424    815.13288  0.014489706  0.013000164         3729 
 4689000   0.49707696   -7.7981512    815.86342  0.014499599  0.012995764         3726 
 4690000   0.50268687   -7.7751239    815.75917  0.014494655  0.012991364         3742 
 4691000   0.49948561   -7.7732893    816.20875  0.014499552  0.012986968         3733 
 4692000   0.50694118   -7.7696118    815.23933  0.014479244  0.012982571         3714 
 4693000   0.50193653   -7.7803841    815.66731  0.014483758   0.01297818         3730 
 4694000     0.499586   -7.7919246    816.44504  0.014494479   0.01297379         3740 
 4695000   0.49903799   -7.7833053    815.71148  0.014478372  0.012969399         3724 
 4696000   0.50582014   -7.7766093    814.32066  0.014450608  0.012965013         3739 
 4697000   0.50368508   -7.7828411    816.08546  0.014478842  0.012960628         3740 
 4698000   0.50203686   -7.7964904     815.5504  0.014466269  0.012956244         3737 
 4699000   0.50020376   -7.7852537    814.76894  0.014449332   0.01295186         3720 
 4700000   0.49632038   -7.7890384    815.53173  0.014459782  0.012947483         3724 
 4701000    0.4841836   -7.7725799    815.79762   0.01446142  0.012943102         3721 
 4702000   0.50950428   -7.7797045    816.65944  0.014473618  0.012938727         3737 
 4703000   0.49289792   -7.7877283    816.05618  0.014459852  0.012934356         3733 
 4704000   0.49185965    -7.788639    815.19061  0.014441444  0.012929982         3733 
 4705000   0.48773128   -7.7952224    814.60985  0.014428088   0.01292561         3738 
 4706000   0.49224861   -7.7937482    816.00517   0.01444973  0.012921242         3743 
 4707000   0.48741575   -7.7978396    817.05827  0.014465305  0.012916876         3736 
 4708000   0.50262014    -7.778998     815.7371  0.014438847  0.012912512         3726 
 4709000   0.50401887    -7.778114    816.70596  0.014452926  0.012908149         3734 
 4710000   0.50492711   -7.7882701    814.61586  0.014412878  0.012903787         3732 
 4711000   0.50318536   -7.7744804    814.84822  0.014413929  0.012899427         3735 
 4712000   0.49010222   -7.7948528    815.46266  0.014421736  0.012895067         3731 
 4713000   0.49804454   -7.7765638    816.09977  0.014429941   0.01289071         3730 
 4714000   0.49835125   -7.7860697    815.69538  0.014419732  0.012886354         3726 
 4715000   0.49372603   -7.7857064     814.8877  0.014402398  0.012882004         3741 
 4716000    0.4896272   -7.7821855    815.20708  0.014404988  0.012877653         3732 
 4717000   0.50535034     -7.78414    814.28855  0.014385707  0.012873305         3733 
 4718000   0.50196784   -7.7761342    815.00609  0.014395332  0.012868961         3722 
 4719000   0.49448204   -7.7979239    815.73612  0.014405173  0.012864619         3739 
 4720000    0.5023087   -7.7716695    816.22848  0.014410814  0.012860278         3742 
 4721000   0.49904102   -7.7938684    815.44291  0.014393894  0.012855942         3726 
 4722000   0.49171172   -7.7824027    815.09026  0.014384623  0.012851602         3722 
 4723000   0.50254649    -7.786344    814.81585  0.014376735  0.012847264         3720 
 4724000   0.49330741   -7.7932677     815.9557  0.014393799   0.01284293         3728 
 4725000   0.48813437   -7.7855819    815.24311  0.014378185  0.012838596         3717 
 4726000   0.50627682   -7.7914015    816.54782  0.014398149  0.012834264         3728 
 4727000   0.49179302   -7.8053143    815.35574  0.014374088  0.012829936         3723 
 4728000   0.50660399   -7.7772573    817.18551  0.014403298  0.012825609         3713 
 4729000   0.49773643   -7.8086032    815.27524   0.01436659  0.012821286         3716 
 4730000   0.50105151   -7.7994449    815.02373  0.014359121  0.012816961         3740 
 4731000   0.48933429   -7.8051183    815.70064   0.01436801  0.012812638         3731 
 4732000   0.50155938   -7.7970366    816.05792  0.014371265  0.012808319         3724 
 4733000   0.49187362   -7.7798017    815.45488  0.014357611     0.012804         3728 
 4734000   0.48673916    -7.796057    814.02682   0.01432944  0.012799683         3734 
 4735000   0.49396197   -7.7869375    814.65618   0.01433749  0.012795369         3745 
 4736000   0.48730129    -7.805205    815.05822  0.014341537  0.012791054         3722 
 4737000   0.48111726   -7.7955221    814.58487  0.014330182  0.012786743         3751 
 4738000   0.49582416   -7.7997183    815.75054   0.01434766  0.012782432         3717 
 4739000   0.48909094   -7.8004094    815.50601  0.014340332  0.012778124         3722 
 4740000   0.48095853   -7.7887653    814.66736  0.014322563  0.012773818         3730 
 4741000   0.49686492   -7.7834397    814.82887   0.01432238  0.012769511         3715 
 4742000   0.48803472   -7.7914139    815.33388  0.014328235  0.012765212         3723 
 4743000    0.4935117   -7.7918636    816.32802  0.014342681  0.012760915         3721 
 4744000   0.50097286   -7.8041004     815.3201  0.014321952   0.01275662         3733 
 4745000   0.49927819   -7.8014143    815.71766  0.014325916  0.012752325         3715 
 4746000   0.50277242    -7.789211    816.01918  0.014328192  0.012748033         3727 
 4747000   0.48935156   -7.7943035       815.13  0.014309564  0.012743741         3728 
 4748000   0.49344939   -7.7969594    816.27427  0.014326633  0.012739452         3721 
 4749000   0.49463792   -7.7935645     815.1019  0.014303045  0.012735164         3748 
 4750000   0.48749818   -7.8008151    815.81439  0.014312533  0.012730878         3729 
 4751000   0.49381679   -7.7873837     813.4552   0.01426814  0.012726591         3748 
 4752000   0.49538007   -7.8001439    814.84666  0.014289539  0.012722308         3729 
 4753000   0.50168052   -7.7939572    815.37084  0.014295723  0.012718028         3732 
 4754000   0.48801823   -7.8010496    815.54359  0.014295744  0.012713748         3735 
 4755000   0.49010627   -7.8038437    815.63476  0.014294335  0.012709472         3742 
 4756000   0.49557253   -7.7915698    815.02393  0.014280627  0.012705199         3739 
 4757000   0.49645206   -7.7831249    814.40554  0.014266792  0.012700926         3748 
 4758000   0.50275149   -7.7996522    815.67865  0.014286091  0.012696657         3740 
 4759000   0.48654002   -7.8147008    815.27622  0.014276042   0.01269239         3733 
 4760000   0.49920358   -7.8070858    815.29682  0.014273404  0.012688123         3721 
 4761000   0.47908923   -7.7991508    815.79963  0.014279207  0.012683855         3721 
 4762000   0.49385101   -7.8112108    815.63444  0.014273317  0.012679589         3722 
 4763000   0.49777753   -7.8149817    813.86076  0.014239288  0.012675327         3743 
 4764000   0.49246529   -7.8109039    816.08618  0.014275227  0.012671064         3724 
 4765000   0.49585458   -7.8015073    814.93911   0.01425217  0.012666805         3727 
 4766000   0.50387112   -7.8078556    814.99376  0.014250136  0.012662547         3715 
 4767000   0.50004847   -7.7999913    815.55055   0.01425688  0.012658292         3728 
 4768000   0.49171811   -7.7883453     815.1544  0.014246966  0.012654038         3744 
 4769000    0.5017345   -7.7963386     814.5724  0.014233809  0.012649786         3735 
 4770000   0.48307209   -7.8117101      815.372  0.014244794  0.012645537         3735 
 4771000   0.47943305   -7.8041637    815.30758  0.014240683   0.01264129         3746 
 4772000   0.48292232   -7.8114879    814.66933  0.014226553  0.012637046         3735 
 4773000   0.49108378   -7.7962068    815.26524  0.014233977  0.012632803         3720 
 4774000   0.48447842   -7.7999617     815.1443  0.014228884  0.012628561         3744 
 4775000   0.48352483   -7.8040765    815.43286   0.01423094  0.012624322         3722 
 4776000   0.48468459   -7.8112174    815.24645  0.014224708  0.012620086         3730 
 4777000   0.49858622   -7.7924127    815.29819  0.014222633  0.012615853         3725 
 4778000   0.47732889   -7.7976018    815.42572   0.01422188  0.012611618         3744 
 4779000   0.49151724   -7.7921367    815.52188  0.014220581  0.012607385         3720 
 4780000   0.49615176   -7.7954781     814.5875  0.014201316  0.012603155         3725 
 4781000   0.49137882   -7.8038092    815.58029   0.01421565  0.012598924         3711 
 4782000   0.48609411   -7.8110932    814.78715  0.014198856  0.012594691         3737 
 4783000   0.48335759   -7.8013726    815.67031  0.014211274  0.012590466         3710 
 4784000   0.48814307   -7.8008304    815.85993  0.014211607  0.012586241         3739 
 4785000   0.48563272   -7.7828651    813.75057  0.014171901  0.012582017         3723 
 4786000   0.49399301   -7.7856067    815.36533  0.014197056  0.012577795         3726 
 4787000   0.48405602   -7.7922292    814.71492  0.014182768  0.012573575         3721 
 4788000      0.48451   -7.8023792    813.29712   0.01415513  0.012569354         3736 
 4789000   0.48938375   -7.8002593    815.66737  0.014193418  0.012565139         3741 
 4790000   0.49447999   -7.8027312    815.42645  0.014186264  0.012560928         3729 
 4791000   0.48360911   -7.8126152    815.00279  0.014175934  0.012556715         3723 
 4792000    0.4965182   -7.8049328    815.23259  0.014176972  0.012552505         3724 
 4793000   0.48516413   -7.8032658    814.39528  0.014159456  0.012548296         3741 
 4794000   0.47969138   -7.7987813    815.68676  0.014178952  0.012544088         3727 
 4795000   0.48547934   -7.8031752    815.81822   0.01417828  0.012539881         3738 
 4796000   0.48567278   -7.7990294    814.13014  0.014145992  0.012535673         3727 
 4797000   0.49121282   -7.8098085    815.49186  0.014166699  0.012531472         3731 
 4798000   0.49097019   -7.8194021    815.30585  0.014160516  0.012527275         3716 
 4799000   0.48468247   -7.8007476    814.33297  0.014140671  0.012523077         3739 
 4800000   0.47818841   -7.7924134     813.4598  0.014122566   0.01251888         3732 
 4801000   0.47876563   -7.8166926    814.97406  0.014145908  0.012514686         3733 
 4802000   0.48341794   -7.8026412    814.68644  0.014137971  0.012510492         3721 
 4803000   0.48133081   -7.8080136    814.58894  0.014133336    0.0125063         3714 
 4804000   0.47896613   -7.8120719    815.26344  0.014142094  0.012502111         3724 
 4805000   0.48638754   -7.7997819    813.81163  0.014113972  0.012497924         3739 
 4806000    0.4890168   -7.8041181    815.02296  0.014132039  0.012493736         3743 
 4807000   0.47981973      -7.7959    814.83218  0.014125792  0.012489551         3735 
 4808000   0.48623842   -7.8016599    814.39625  0.014115298  0.012485368         3748 
 4809000   0.47997953   -7.8025874    814.93989  0.014121784  0.012481186         3732 
 4810000   0.47840119   -7.8092053    815.11694  0.014121915  0.012477007         3737 
 4811000   0.49082774   -7.7900779    814.86929   0.01411469  0.012472827         3728 
 4812000   0.48703054   -7.8080911    813.94009  0.014095665  0.012468654         3732 
 4813000   0.48257485   -7.8127553    814.62418  0.014104581  0.012464481         3733 
 4814000   0.48534348    -7.812812    815.38926  0.014114895  0.012460308         3746 
 4815000   0.48219492   -7.8079559    815.13164  0.014107505   0.01245614         3722 
 4816000   0.47253649   -7.8116163     815.4436  0.014109974  0.012451973         3725 
 4817000   0.47952403   -7.8153073    815.79434  0.014113112   0.01244781         3730 
 4818000   0.49166859   -7.8135052    815.33149  0.014102177  0.012443648         3730 
 4819000   0.48208356   -7.8122362    814.18606  0.014079443  0.012439486         3750 
 4820000   0.47698938   -7.8229312    815.43547  0.014098124  0.012435325         3728 
 4821000   0.47704438   -7.8341105    814.87206   0.01408546  0.012431167         3728 
 4822000   0.47316992   -7.8039346    815.72016  0.014097196   0.01242701         3732 
 4823000   0.48705533   -7.8259127    813.85737  0.014062087  0.012422852         3720 
 4824000   0.47681773   -7.8149855     815.5093  0.014087709  0.012418699         3732 
 4825000   0.48541945   -7.7965963    814.25308  0.014063093  0.012414547         3738 
 4826000   0.48205358   -7.8124526    814.50892  0.014064597  0.012410397         3739 
 4827000   0.48367905   -7.7996019    814.63453  0.014063851  0.012406249         3722 
 4828000   0.48742196   -7.8192952    815.02407  0.014067662  0.012402104         3730 
 4829000   0.48080169   -7.8019401     816.4975  0.014090176  0.012397961         3728 
 4830000   0.48573262    -7.824512    815.24682   0.01406568  0.012393817         3727 
 4831000   0.48388967   -7.8250278    814.68694  0.014053111  0.012389678         3724 
 4832000   0.47590603   -7.8095473    813.40983  0.014028177  0.012385538         3742 
 4833000   0.48214412   -7.8158778    815.20035  0.014056148    0.0123814         3726 
 4834000   0.47672578   -7.8110489    814.78853  0.014046141  0.012377267         3718 
 4835000   0.47262125   -7.8326907    815.09832  0.014048575  0.012373134         3729 
 4836000   0.47891853   -7.8102169    813.61398  0.014020092  0.012369006         3734 
 4837000   0.47564633   -7.8147666    814.86146  0.014038685  0.012364878         3718 
 4838000   0.47784859   -7.8162311    814.01515  0.014021206  0.012360754         3723 
 4839000    0.4785032   -7.8159467    815.01732  0.014035567  0.012356629         3741 
 4840000   0.48391613   -7.8262057    814.40486  0.014022122  0.012352506         3727 
 4841000   0.47412502   -7.7997717    814.06834  0.014013433  0.012348383         3750 
 4842000   0.48640536    -7.809055    815.33214  0.014032289  0.012344263         3727 
 4843000   0.46754607   -7.8160804    814.86467  0.014021348  0.012340145         3712 
 4844000   0.48595435   -7.8183962    814.26362  0.014008113  0.012336027         3728 
 4845000   0.47360975   -7.8293768    814.63739  0.014011651   0.01233191         3740 
 4846000   0.47263543   -7.8137802    814.61582  0.014008389  0.012327796         3736 
 4847000   0.47628879   -7.8166924    814.85863  0.014009673  0.012323684         3723 
 4848000    0.4776107   -7.8112887    814.69492  0.014003969  0.012319573         3740 
 4849000   0.46687189   -7.8166163    814.66093  0.014000497  0.012315463         3737 
 4850000   0.47565024   -7.8065607    814.65822  0.013997564  0.012311358         3737 
 4851000   0.48070343   -7.8141649    814.50705  0.013992081  0.012307256         3728 
 4852000   0.47959476   -7.8193279    815.00385   0.01399773  0.012303152         3719 
 4853000   0.48429612   -7.8051749    814.57305  0.013987449  0.012299052         3729 
 4854000   0.47812775   -7.8092243    814.31414  0.013980122  0.012294948         3723 
 4855000   0.46875187   -7.8067307    813.82051  0.013968769  0.012290848         3705 
 4856000    0.4764165   -7.8315148    815.34666  0.013992083  0.012286751         3711 
 4857000   0.46911088   -7.8280337    814.46322  0.013974045  0.012282656         3720 
 4858000   0.47220971   -7.8123448    814.19883  0.013966633  0.012278563         3726 
 4859000   0.47521096   -7.8165214     814.0599  0.013961376   0.01227447         3725 
 4860000   0.48212845   -7.8356041    814.24464  0.013961671  0.012270381         3713 
 4861000    0.4789337   -7.8130465     813.8404  0.013951869  0.012266293         3719 
 4862000   0.48024601   -7.8302752    815.32813  0.013974498  0.012262209         3733 
 4863000   0.46318174   -7.8287747    813.97476  0.013948433  0.012258124         3728 
 4864000   0.47120485   -7.8179649     813.5869   0.01393892   0.01225404         3728 
 4865000   0.47411573   -7.8245349     813.8842  0.013941148   0.01224996         3742 
 4866000   0.47264276   -7.8248672    814.32166  0.013945774  0.012245877         3738 
 4867000   0.47475317     -7.81405    814.98307  0.013954234  0.012241795         3740 
 4868000   0.46995207   -7.8292429    814.70599  0.013946624  0.012237717         3734 
 4869000   0.47251541   -7.8380545    813.34762  0.013920511  0.012233638         3735 
 4870000    0.4728283    -7.826409    814.33398  0.013934531  0.012229564         3729 
 4871000   0.46800751   -7.8317403    814.61449  0.013936469  0.012225489         3737 
 4872000   0.48135795   -7.8395456    813.66233  0.013917322  0.012221417         3728 
 4873000   0.47865279   -7.8099632    813.93846  0.013919188  0.012217349         3736 
 4874000   0.47320097   -7.8085901    813.76846  0.013913426  0.012213282         3721 
 4875000     0.473293    -7.814491    814.10911  0.013916395  0.012209216         3717 
 4876000   0.47125446   -7.8014694    813.57328  0.013904383  0.012205152         3728 
 4877000    0.4753109   -7.8305007    813.04107  0.013892439  0.012201089         3734 
 4878000   0.47051237   -7.8311687     813.8364  0.013903178   0.01219703         3736 
 4879000   0.47491077   -7.8354366    813.53519  0.013895183  0.012192972         3737 
 4880000   0.46810533   -7.8290931    814.75765  0.013913211  0.012188913         3720 
 4881000   0.46656398    -7.815439    814.44483   0.01390502  0.012184859         3727 
 4882000   0.47168719   -7.8185358    813.94112  0.013893574  0.012180806         3739 
 4883000   0.47855238   -7.8359141    813.97217  0.013891258  0.012176758         3731 
 4884000    0.4714353    -7.835116    814.10943  0.013890756  0.012172705         3731 
 4885000    0.4694544   -7.8248248    813.04593   0.01386977  0.012168658         3714 
 4886000   0.47009722   -7.8269818    813.94639  0.013882289   0.01216461         3723 
 4887000   0.46888457   -7.8384016    813.52959  0.013872341  0.012160565         3734 
 4888000   0.45606295   -7.8191857    813.19953  0.013863876  0.012156521         3747 
 4889000   0.45331525   -7.8413088    814.67361  0.013886166  0.012152478         3751 
 4890000   0.46975738   -7.8286836    813.56953  0.013864511  0.012148438         3724 
 4891000   0.47122138   -7.8304776    814.74969  0.013881784  0.012144398         3729 
 4892000    0.4669811   -7.8351618    813.25757  0.013853529  0.012140358         3723 
 4893000    0.4607191   -7.8344133    814.55368  0.013872772  0.012136325         3731 
 4894000   0.47227392   -7.8227636    815.35691  0.013883614  0.012132292         3742 
 4895000   0.47216266   -7.8394591    813.31139  0.013845955  0.012128262         3737 
 4896000   0.47030017   -7.8351215    815.66928   0.01388326  0.012124232         3734 
 4897000   0.47631151   -7.8297843    813.90663  0.013850429  0.012120205         3722 
 4898000   0.46831785   -7.8254516    813.99536  0.013849111  0.012116181         3714 
 4899000   0.46655629   -7.8196412    813.50513  0.013837945  0.012112157         3733 
 4900000   0.47638399   -7.8180997    813.72396  0.013838843  0.012108134         3735 
 4901000   0.46556793   -7.8233418    813.82227  0.013837691  0.012104113         3739 
 4902000   0.47847582   -7.8174013    814.02227  0.013838268  0.012100094         3727 
 4903000   0.47040853   -7.8288978    813.29302  0.013823051  0.012096078         3728 
 4904000   0.46626426   -7.8444585    814.36486  0.013838446  0.012092063         3727 
 4905000   0.46341357   -7.8344722    814.16552  0.013832238   0.01208805         3734 
 4906000   0.46913508   -7.8319085    814.07844  0.013827939   0.01208404         3730 
 4907000   0.47227016   -7.8326189    813.99166  0.013823648  0.012080026         3752 
 4908000   0.46740758   -7.8381488    814.39492  0.013827678  0.012076019         3744 
 4909000    0.4713431   -7.8382839    814.04069  0.013818848  0.012072012         3742 
 4910000   0.46062328   -7.8312259    812.77708  0.013794587  0.012068005         3742 
 4911000   0.46017998   -7.8413847    813.53319  0.013804608  0.012064001         3741 
 4912000   0.47851441   -7.8310629    811.64553  0.013769773  0.012059997         3761 
 4913000   0.45259414   -7.8312863    813.36287    0.0137961  0.012055997         3733 
 4914000   0.47322821   -7.8326634    815.07904  0.013822396     0.012052         3711 
 4915000   0.47213201    -7.805756    814.71974  0.013813492  0.012048001         3718 
 4916000    0.4703953   -7.8249205    813.90017  0.013796789  0.012044006         3747 
 4917000   0.47054358   -7.8463142     814.4725  0.013803683  0.012040013         3731 
 4918000   0.45551344   -7.8310167     813.0802  0.013777284  0.012036019         3722 
 4919000   0.46116592   -7.8454449    813.19248  0.013776385  0.012032025         3728 
 4920000   0.46020085    -7.830036    814.69256  0.013798993  0.012028037         3735 
 4921000   0.46240414   -7.8162759    812.16999  0.013753471   0.01202405         3745 
 4922000   0.45164206   -7.8316948    814.52578  0.013790562  0.012020063         3726 
 4923000   0.45960691   -7.8330974    814.79231  0.013792273  0.012016082         3716 
 4924000   0.47410225   -7.8322083     813.4919  0.013767464  0.012012098         3728 
 4925000    0.4668996   -7.8280998     813.4502  0.013763963  0.012008119         3722 
 4926000   0.45973856   -7.8305211     812.8292  0.013750663  0.012004141         3737 
 4927000   0.46631872   -7.8285707    812.99673  0.013750706  0.012000167         3738 
 4928000   0.46286049   -7.8388775    813.35653     0.013754  0.011996193         3716 
 4929000   0.47115764    -7.835448    813.25055  0.013749418  0.011992221         3733 
 4930000   0.47153925   -7.8305094    813.38928  0.013748974   0.01198825         3725 
 4931000   0.45475343   -7.8314475    813.90652  0.013754927  0.011984282         3736 
 4932000   0.45889901   -7.8561607    815.80833  0.013784272  0.011980314         3726 
 4933000   0.46166811   -7.8182834    813.92076   0.01374959  0.011976346         3736 
 4934000    0.4608513   -7.8246485    812.40756  0.013721247  0.011972384         3747 
 4935000   0.46339653   -7.8390041    813.05333  0.013729371  0.011968423         3745 
 4936000   0.45450777    -7.835442    814.36482  0.013748731  0.011964461         3748 
 4937000   0.46435049   -7.8388372    814.10205  0.013741511  0.011960502         3736 
 4938000   0.46288626   -7.8289301    812.25218  0.013707509  0.011956544         3734 
 4939000   0.45918268   -7.8310853    812.78205  0.013713674  0.011952589         3739 
 4940000   0.46464383   -7.8471287    813.98711  0.013731227  0.011948636         3735 
 4941000   0.46831573    -7.833941    814.23482  0.013732625  0.011944685         3730 
 4942000    0.4630131   -7.8277589    812.04473  0.013692917  0.011940732         3738 
 4943000   0.46083148   -7.8311915    813.84734  0.013720536  0.011936785         3742 
 4944000   0.45968795   -7.8607824    814.32853  0.013725872  0.011932839         3741 
 4945000   0.44873351   -7.8206733    812.56983  0.013693458  0.011928893         3731 
 4946000   0.45520456   -7.8467672    813.30306  0.013703044  0.011924949         3737 
 4947000      0.45963   -7.8362903    813.36769  0.013701363  0.011921007         3742 
 4948000   0.45467388   -7.8486348    813.57215  0.013702037  0.011917065         3734 
 4949000    0.4506499   -7.8443422    814.29853  0.013711499  0.011913126         3725 
 4950000   0.45875638   -7.8380392    812.84829  0.013684315  0.011909187         3754 
 4951000   0.47198112   -7.8386399    813.13527  0.013686381  0.011905253         3742 
 4952000   0.46308581   -7.8369904     814.1438  0.013700589  0.011901321         3739 
 4953000    0.4595967   -7.8237816    812.69664  0.013673475  0.011897388         3717 
 4954000   0.45979569   -7.8354062    813.42209  0.013682918   0.01189346         3729 
 4955000   0.45389637   -7.8294558    813.09745  0.013674696  0.011889531         3753 
 4956000   0.45096821   -7.8357166    814.16931   0.01368996  0.011885604         3729 
 4957000   0.46181634   -7.8445374    812.25788  0.013655065  0.011881679         3718 
 4958000   0.45205135   -7.8589829    814.31633  0.013686909  0.011877755         3745 
 4959000   0.45595689   -7.8495822    812.42252  0.013652324  0.011873835         3730 
 4960000   0.45948644   -7.8280498    813.88291  0.013674108  0.011869914         3739 
 4961000   0.45066463   -7.8431858     813.3071   0.01366168  0.011865997         3729 
 4962000   0.46011185   -7.8484921    813.91041  0.013669058  0.011862082         3756 
 4963000   0.46132193   -7.8331581    812.53309  0.013643178  0.011858163         3755 
 4964000   0.45721052    -7.850171    814.32192  0.013670459   0.01185425         3750 
 4965000   0.45018802   -7.8513796    814.07509  0.013663563  0.011850338         3756 
 4966000   0.45897385   -7.8380647    811.91259  0.013624523  0.011846425         3752 
 4967000   0.45413893   -7.8534191    813.51362  0.013648641  0.011842517         3748 
 4968000   0.45480415   -7.8362831    812.82455  0.013634336  0.011838611         3742 
 4969000   0.45335799   -7.8586086    813.53524   0.01364351  0.011834705         3748 
 4970000   0.45982389   -7.8329276    813.40477  0.013638578  0.011830802         3738 
 4971000   0.44681475   -7.8520271    814.64349    0.0136566    0.0118269         3740 
 4972000   0.46525615   -7.8409951    813.33294  0.013631888     0.011823         3730 
 4973000   0.44970855   -7.8269709    813.43037  0.013630779  0.011819101         3749 
 4974000   0.45631204   -7.8321186    812.98107  0.013620511  0.011815205         3740 
 4975000   0.45338479   -7.8529272    814.30679   0.01363998   0.01181131         3744 
 4976000   0.45561803   -7.8413712    812.94555  0.013614442  0.011807414         3755 
 4977000   0.45703306   -7.8370463    813.93791  0.013628322  0.011803524         3736 
 4978000    0.4592837   -7.8429994    813.96918  0.013626108  0.011799632         3742 
 4979000   0.45290646   -7.8271301    812.25732   0.01359472  0.011795743         3737 
 4980000   0.44773858   -7.8274661    813.47778  0.013612413  0.011791855         3738 
 4981000   0.46213483   -7.8373538    812.68813  0.013596469  0.011787969         3737 
 4982000   0.46115618   -7.8393192    812.61613  0.013592535  0.011784084         3746 
 4983000   0.45632967   -7.8342862    813.23642  0.013600181  0.011780204         3750 
 4984000    0.4598852   -7.8402288    812.06875  0.013577929  0.011776322         3733 
 4985000   0.44999909   -7.8461318    814.37656  0.013613784  0.011772443         3738 
 4986000   0.46229536   -7.8420547    813.17054  0.013590897  0.011768566         3746 
 4987000   0.45183621   -7.8483385    812.56896  0.013578119   0.01176469         3734 
 4988000   0.45970373   -7.8578601    812.61898  0.013576233  0.011760816         3753 
 4989000   0.45769083   -7.8454962    813.72763   0.01359203  0.011756945         3731 
 4990000   0.45948721   -7.8696989    813.94609  0.013592954  0.011753075         3750 
 4991000   0.46393016   -7.8538999    812.91352   0.01357299  0.011749206         3759 
 4992000   0.45037208   -7.8417409     812.3708  0.013561211  0.011745337         3741 
 4993000   0.45900621    -7.853845    813.40398  0.013575739  0.011741472         3725 
 4994000   0.46014162   -7.8399332    812.70169  0.013561302  0.011737606         3744 
 4995000    0.4670061   -7.8389242    812.80984  0.013560391  0.011733744         3731 
 4996000   0.45376248   -7.8527147    813.21207  0.013564386  0.011729883         3734 
 4997000   0.46049461   -7.8575111    814.74011  0.013587154  0.011726025         3725 
 4998000   0.44692677   -7.8383445    813.53366   0.01356432  0.011722169         3719 
 4999000   0.45434376   -7.8308736    813.30827  0.013557849  0.011718313         3729 
 5000000   0.45199337   -7.8606944    814.63502   0.01357725  0.011714458         3746 
 5001000     0.445692   -7.8528575    813.09822  0.013548927  0.011710607         3741 
 5002000    0.4569544   -7.8444197    812.88331  0.013542638  0.011706757         3752 
 5003000   0.44521853   -7.8452658    812.50588  0.013533644   0.01170291         3734 
 5004000   0.46246489   -7.8420736    814.10479  0.013557567  0.011699064         3744 
 5005000   0.44733422   -7.8374655    812.34623  0.013525578  0.011695219         3737 
 5006000   0.45190622   -7.8493737    813.16701   0.01353654  0.011691378         3737 
 5007000   0.45610434   -7.8569475     813.8632  0.013545423  0.011687536         3733 
 5008000   0.45367024   -7.8371728    812.17468  0.013514621  0.011683695         3755 
 5009000   0.44673335   -7.8568342    813.09062  0.013527161  0.011679858         3753 
 5010000   0.45983196   -7.8640886    813.61162  0.013533127  0.011676021         3751 
 5011000   0.44845044   -7.8503296    813.42918  0.013527393  0.011672186         3746 
 5012000   0.45011573   -7.8483282    813.14683  0.013519999  0.011668353         3749 
Loop time of 10708.7 on 48 procs for 5000000 steps with 4000 atoms

Performance: 80682.406 tau/day, 466.912 timesteps/s
99.4% CPU use with 48 MPI tasks x no OpenMP threads

MPI task timing breakdown:
Section |  min time  |  avg time  |  max time  |%varavg| %total
---------------------------------------------------------------
Pair    | 638.39     | 729.79     | 762.77     |  71.5 |  6.81
Neigh   | 65.919     | 67.956     | 70.148     |   8.3 |  0.63
Comm    | 577.83     | 615.99     | 711.44     |  83.5 |  5.75
Output  | 17.941     | 17.946     | 18.028     |   0.3 |  0.17
Modify  | 9123.8     | 9160.4     | 9194.4     |  19.5 | 85.54
Other   |            | 116.6      |            |       |  1.09

Nlocal:        83.3333 ave          89 max          78 min
Histogram: 5 4 3 7 5 8 4 6 1 5
Nghost:        1779.96 ave        1796 max        1765 min
Histogram: 2 3 5 8 9 6 6 4 2 3
Neighs:        10612.4 ave       11672 max        9741 min
Histogram: 3 7 6 5 6 7 3 7 3 1
FullNghs:      21224.6 ave       23371 max       19519 min
Histogram: 4 5 3 10 8 6 3 4 4 1

Total # of neighbors = 1018782
Ave neighs/atom = 254.69550
Neighbor list builds = 269851
Dangerous builds = 0

#clear
#
#next RN
#
#jump SELF
Total wall time: 2:58:31
