
units lj                  # Use reduced LJ style units
atom_style atomic         # Uncharged point particles
atom_modify map hash      # Needed for indexing of clusters etc
                          # Used to be able to find where atoms are in relation to each other.

lattice fcc 1.0 spacing 1 1 1
Lattice spacing in x,y,z = 1.5874011 1.5874011 1.5874011
region box block 0 10 0 10 0 10 units lattice
create_box 2 box
Created orthogonal box = (0.0000000 0.0000000 0.0000000) to (15.874011 15.874011 15.874011)
  3 by 4 by 4 MPI processor grid
create_atoms 1 box
Created 4000 atoms
  using lattice units in orthogonal box = (0.0000000 0.0000000 0.0000000) to (15.874011 15.874011 15.874011)
  create_atoms CPU = 0.002 seconds
set type 1 type/fraction 2 0.55 78393
Setting atom values ...
  2215 settings made for type/fraction
mass 1 1.0
mass 2 1.0
pair_style lj/cut  3.5
pair_modify tail  yes
pair_coeff 1  1  1.0  1.0   # Intearaction between 1 and 1 set with epsilon = 1 and sigma = 1
pair_coeff 1  2  1.5  0.8
pair_coeff 2  2  0.5  0.88

write_data data.0
System init for write_data ...
Neighbor list info ...
  update every 1 steps, delay 10 steps, check yes
  max neighbors/atom: 2000, page size: 100000
  master list distance cutoff = 3.8
  ghost atom cutoff = 3.8
  binsize = 1.9, bins = 9 9 9
  1 neighbor lists, perpetual/occasional/extra = 1 0 0
  (1) pair lj/cut, perpetual
      attributes: half, newton on
      pair build: half/bin/atomonly/newton
      stencil: half/bin/3d
      bin: standard
WARNING: Not all mixed pair coeffs generated from mixing. Use write_data with 'pair ij' option to store all pair coeffs. (../write_data.cpp:312)


#############################
#   M E L T   S Y S T E M   #
#############################

velocity all create 2.4 5300450 mom yes dist gaussian # Assign velocities
                                                    # Temperature 2.4, random number seed, zero linear momentum
                                                                                # Gaussian distribution

timestep 0.002   # simulation timestep
thermo 1000       # output thermodynamic data every 1000 steps bf 100

# Define a fix  in this case with index 1 applied to all
# particles in the simulation. This fix is for simulations
# in the anisotropic NPT ensemble. Note that we use the MTK
# correction.
fix 1 all npt temp 2.4 2.4 0.1 iso 5.68 5.68 0.5 mtk yes tchain 5 pchain 5 # Use NPT ensemble
                                                                         # Set temperature and pressure and damping
                                                                         # Numbers of thermostats in chain and in barostat
run 10000          # run for 10000 steps
Per MPI rank memory allocation (min/avg/max) = 3.642 | 3.644 | 3.648 Mbytes
Step Temp E_pair E_mol TotEng Press Volume 
       0          2.4   -4.9973821            0   -1.3982821   -4.1559512         4000 
    1000    2.4751919   -4.7478417            0    -1.035982    5.9776428    3600.8316 
    2000    2.3824665    -4.688444            0   -1.1156378    5.5110044    3663.3201 
    3000    2.4433391   -4.6842778            0   -1.0201853    5.7232765    3653.1762 
    4000    2.4106409   -4.6370423            0   -1.0219849    5.4666245    3685.8101 
    5000    2.4091922   -4.7486787            0   -1.1357938    5.4624883    3637.2917 
    6000    2.3681705   -4.7778472            0   -1.2264796    5.4847906    3625.2336 
    7000    2.3918857   -4.7290677            0   -1.1421361      5.76319    3617.2871 
    8000    2.4474363   -4.8257125            0   -1.1554758    5.7142079    3591.2555 
    9000     2.381053   -4.7908772            0   -1.2201906     5.828875    3586.3069 
   10000    2.3780263   -4.7270642            0   -1.1609166     5.846148     3622.123 
Loop time of 2.67979 on 48 procs for 10000 steps with 4000 atoms

Performance: 644826.451 tau/day, 3731.635 timesteps/s
99.6% CPU use with 48 MPI tasks x no OpenMP threads

MPI task timing breakdown:
Section |  min time  |  avg time  |  max time  |%varavg| %total
---------------------------------------------------------------
Pair    | 1.198      | 1.2665     | 1.4044     |   3.3 | 47.26
Neigh   | 0.2159     | 0.22387    | 0.2479     |   1.1 |  8.35
Comm    | 0.79142    | 0.90615    | 0.99976    |   5.0 | 33.81
Output  | 0.00024568 | 0.00024895 | 0.00031723 |   0.0 |  0.01
Modify  | 0.2196     | 0.26736    | 0.31826    |   5.1 |  9.98
Other   |            | 0.01564    |            |       |  0.58

Nlocal:        83.3333 ave          90 max          73 min
Histogram: 1 2 5 1 9 8 3 2 12 5
Nghost:        1754.73 ave        1784 max        1730 min
Histogram: 2 4 8 8 3 10 6 3 0 4
Neighs:        10544.6 ave       11573 max        8504 min
Histogram: 1 0 2 3 6 6 8 8 5 9

Total # of neighbors = 506139
Ave neighs/atom = 126.53475
Neighbor list builds = 906
Dangerous builds = 201

# Equilibrate just above the melting temperature to avoid step fn in T

fix 1 all npt temp 1.25 1.25 0.1 iso 5.68 5.68 0.5 mtk yes tchain 5 pchain 5
run 2000
Per MPI rank memory allocation (min/avg/max) = 3.644 | 3.646 | 3.649 Mbytes
Step Temp E_pair E_mol TotEng Press Volume 
   10000    2.3780263   -4.7270642            0   -1.1609166     5.846148     3622.123 
   11000    1.2652799   -6.8363647            0   -4.9389193    5.6631878    2807.6772 
   12000    1.2487643   -6.8740084            0   -5.0013302    5.7559175    2792.8933 
Loop time of 0.659319 on 48 procs for 2000 steps with 4000 atoms

Performance: 524177.284 tau/day, 3033.433 timesteps/s
99.7% CPU use with 48 MPI tasks x no OpenMP threads

MPI task timing breakdown:
Section |  min time  |  avg time  |  max time  |%varavg| %total
---------------------------------------------------------------
Pair    | 0.29653    | 0.32168    | 0.35926    |   2.5 | 48.79
Neigh   | 0.04107    | 0.043675   | 0.048369   |   0.8 |  6.62
Comm    | 0.20558    | 0.24483    | 0.27318    |   3.2 | 37.13
Output  | 5.2194e-05 | 5.3149e-05 | 6.8696e-05 |   0.0 |  0.01
Modify  | 0.041171   | 0.044225   | 0.046849   |   0.9 |  6.71
Other   |            | 0.004861   |            |       |  0.74

Nlocal:        83.3333 ave          90 max          74 min
Histogram: 2 1 1 7 3 9 12 5 5 3
Nghost:        2101.38 ave        2119 max        2078 min
Histogram: 3 0 2 6 4 10 11 6 2 4
Neighs:        13666.8 ave       15094 max       11748 min
Histogram: 1 0 7 2 8 6 9 7 6 2

Total # of neighbors = 656005
Ave neighs/atom = 164.00125
Neighbor list builds = 143
Dangerous builds = 12

#############################
# L I N E A R  Q U E N C H  #
#############################

# Define solid atoms. This closely follows ten Wolde  Ruiz-Montero and Frenkel  Faraday Discuss  1996  104  93-110
# Compute components of the per-atom q6 vector
compute q6 all orientorder/atom degrees 1 6 components 6 nnn NULL cutoff 1.3 # compute the Q6 parameter.
                                                                             # Use all neighbours within 1.3 unit cell.

# get number of connections
compute coord_number all coord/atom orientorder q6 0.5

# An atom is solid if it has 8 or more connections (of a possible 14)
variable is_solid atom c_coord_number>=8
group solid dynamic all var is_solid    # Must be dynamic to update
dynamic group solid defined

# do clustering
compute cluster solid cluster/atom 1.3 # Create a cluster where all atoms within are solid and max 1.3 units from another member

# define chunks one chunk per cluster
compute clus_chunks solid chunk/atom c_cluster nchunk every compress yes  # Says which atoms are in which chunk

# count the size of each chunk
compute size_chunks solid property/chunk clus_chunks count


# Find the maximum entry in the vector of chunk sizes
variable max_n equal max(c_size_chunks)


# Thermo style which includes this variable
# thermo_style custom step temp pe vol v_max_n

thermo ${N}  # Print the thermo information every 100 steps
thermo 1000  

# Reset the npt fix at a lower temperature (below freezing)
fix 1  all npt temp  ${temp} ${temp}  0.1  iso  5.68  5.68  0.5  mtk yes tchain  5  pchain  5
fix 1  all npt temp  0.45 ${temp}  0.1  iso  5.68  5.68  0.5  mtk yes tchain  5  pchain  5
fix 1  all npt temp  0.45 0.45  0.1  iso  5.68  5.68  0.5  mtk yes tchain  5  pchain  5

dump dmp2 all dcd ${N} traj.dcd
dump dmp2 all dcd 1000 traj.dcd


compute msd all msd com yes
variable twopoint equal c_msd[4]/6/(step*dt+1.0e-6)
fix 9 all vector 10 c_msd[4]
variable fit equal slope(f_9)/6/(10*dt)
thermo_style custom step temp pe c_msd[4] v_twopoint v_fit v_max_n

fix 1 all npt temp 1.25 ${temp} 0.1 iso 5.68 5.68 0.5 mtk yes tchain 5 pchain 5
fix 1 all npt temp 1.25 0.45 0.1 iso 5.68 5.68 0.5 mtk yes tchain 5 pchain 5
run 5000000 # 5000000  # Run for this many steps
Neighbor list info ...
  update every 1 steps, delay 10 steps, check yes
  max neighbors/atom: 2000, page size: 100000
  master list distance cutoff = 3.8
  ghost atom cutoff = 3.8
  binsize = 1.9, bins = 8 8 8
  4 neighbor lists, perpetual/occasional/extra = 1 3 0
  (1) pair lj/cut, perpetual
      attributes: half, newton on
      pair build: half/bin/atomonly/newton
      stencil: half/bin/3d
      bin: standard
  (2) compute orientorder/atom, occasional
      attributes: full, newton on
      pair build: full/bin/atomonly
      stencil: full/bin/3d
      bin: standard
  (3) compute coord/atom, occasional
      attributes: full, newton on
      pair build: full/bin/atomonly
      stencil: full/bin/3d
      bin: standard
  (4) compute cluster/atom, occasional
      attributes: full, newton on
      pair build: full/bin/atomonly
      stencil: full/bin/3d
      bin: standard
Per MPI rank memory allocation (min/avg/max) = 9.845 | 9.849 | 9.855 Mbytes
Step Temp PotEng c_msd[4] v_twopoint v_fit v_max_n 
   12000    1.2487643   -6.8740084 1.7964335e-30 1.2475232e-32 8.3333333e+20            3 
   13000    1.2190723   -6.9360407   0.46277911 0.0029665326  0.037057307            1 
   14000    1.2631236   -6.9100658   0.88439159 0.0052642355  0.036007834            3 
   15000    1.2160374   -6.9577012    1.3094628 0.0072747932  0.035542872            2 
   16000      1.23321   -6.9256986    1.6915006 0.0088098987  0.034629517            4 
   17000    1.2705122   -6.9353425    2.1132115   0.01035888  0.034520292            1 
   18000    1.2534589   -6.9385723    2.5190672  0.011662348   0.03447497            3 
   19000    1.2075987   -6.9441559    2.9302261  0.012851868  0.034305648            1 
   20000    1.2329056   -6.9893235    3.3298537   0.01387439  0.034129791            2 
   21000    1.2285765   -6.8917519    3.7117733  0.014729259  0.033895709            5 
   22000    1.2375154   -6.9754232       4.1505  0.015721591  0.033908804            4 
   23000    1.2607467   -6.8940331    4.6199645  0.016739001  0.034098988            1 
   24000    1.2451611     -6.91099    5.0448976  0.017517005  0.034298852            3 
   25000    1.2563839   -6.9523726    5.4589384  0.018196461  0.034414209            1 
   26000    1.2562236   -6.9297373    5.8261624  0.018673597   0.03447257            3 
   27000    1.2304748   -6.9496309    6.1348784  0.018934809  0.034309267            1 
   28000    1.2318449   -6.9181881    6.6006957  0.019644927  0.034149231            1 
   29000    1.2393731   -6.8553598    7.0695036  0.020314665  0.034178793            4 
   30000    1.2220752   -6.9154628    7.4934177  0.020815049  0.034258447            2 
   31000    1.2727151   -6.8931295    7.8513796  0.021105859  0.034284261            5 
   32000    1.2661398   -6.9327114    8.1602508  0.021250653  0.034214362            1 
   33000     1.232266   -6.9487504    8.4976003  0.021458586  0.034023979            3 
   34000    1.2653589   -6.8956449    8.8969203  0.021806177  0.033867835            1 
   35000    1.2400509   -6.9111561    9.3957608  0.022370859  0.033783483            2 
   36000    1.2509392   -6.9456911    9.8036308   0.02269359  0.033761664            2 
   37000    1.2427513   -6.9695877    10.321717  0.023247111  0.033766614            4 
   38000    1.2172841   -6.9251226    10.700309   0.02346559  0.033802795            2 
   39000     1.236451   -6.9786133     11.13944  0.023802221  0.033837451            2 
   40000    1.2405946   -6.9268023    11.488685  0.023934759  0.033865714            3 
   41000    1.2296106    -6.943112    11.864423  0.024114681  0.033854573            2 
   42000     1.236193   -6.9476563    12.196467  0.024199339  0.033846026            3 
   43000    1.2305836   -6.9252245    12.635229  0.024486878  0.033828042            2 
   44000    1.2312634   -6.8950662    13.117214  0.024843207  0.033820112            2 
   45000    1.2281228   -6.9596484    13.502551  0.025004723  0.033817469            1 
   46000    1.2299937   -6.9203422    13.916226  0.025210554  0.033830958            3 
   47000    1.2267579   -6.9375402    14.143455  0.025077047  0.033812212            4 
   48000    1.2602248   -6.9350676    14.562671  0.025282415  0.033761664            3 
   49000    1.2596774   -6.9474317    14.998167  0.025507086  0.033739844            1 
   50000    1.2638601   -6.9280454    15.397989  0.025663314  0.033723232            1 
   51000    1.2372974   -6.9823761    15.826109  0.025859656  0.033702324            3 
   52000    1.2660837   -6.9444668    16.194575  0.025952844  0.033677754            1 
   53000    1.2569024    -6.904356     16.74819  0.026333632  0.033671034            3 
   54000    1.2206644   -6.9364369    17.102601  0.026392903  0.033679201            4 
   55000     1.235878    -6.956001    17.502108  0.026518345  0.033689067            2 
   56000    1.2646458   -7.0036898    17.874189  0.026598496  0.033691432            1 
   57000     1.259029   -6.9482951    18.366121  0.026851054  0.033704965            2 
   58000    1.2388972   -6.9795293    18.752726  0.026943571  0.033719739            3 
   59000     1.241678   -6.9565537    19.251163  0.027190908  0.033746112            3 
   60000    1.2546933   -6.9442563    19.687854  0.027344241  0.033772766            1 
   61000    1.2632689   -6.8853857    20.223598  0.027627866  0.033808415            2 
   62000    1.2274563   -6.9713018    20.735915  0.027870853   0.03386673            2 
   63000     1.223045   -6.9371993    21.372946  0.028271093  0.033943896            3 
   64000    1.2528371    -6.951748    21.688449  0.028240168  0.034023266            3 
   65000    1.2460033    -6.967211    22.001249  0.028206729  0.034096922            4 
   66000    1.2567165    -6.940537     22.42571   0.02831529  0.034144925            3 
   67000    1.2457073   -6.9251065    23.006166  0.028614634  0.034196185            1 
   68000    1.2210705   -6.9786746    23.396772  0.028672514   0.03425523            2 
   69000    1.2328622   -6.9270426     23.92714  0.028897511  0.034326216            3 
   70000    1.2462284   -6.9650119    24.297899   0.02892607  0.034389535            3 
   71000    1.2514161   -7.0041808    24.570139  0.028838191  0.034446153            2 
   72000    1.2315756   -6.9241341    25.151975  0.029111082    0.0344911            1 
   73000    1.2329337   -6.9970097    25.320896  0.028905132  0.034515397            2 
   74000    1.2447696   -6.9495225    25.522056  0.028741053  0.034520912            2 
   75000    1.2359578   -6.9086924    25.922967  0.028803297  0.034507623            2 
   76000    1.2636751   -6.9458559    26.151314  0.028674687  0.034484963            2 
   77000     1.224293   -6.9582833    26.637314  0.028828262  0.034454311            2 
   78000     1.244814    -6.941808    27.008434  0.028855165  0.034431726            7 
   79000    1.2323828   -7.0033557    27.333599   0.02883291  0.034406551            5 
   80000    1.2429436   -6.9244108    27.915053   0.02907818  0.034383737            2 
   81000    1.2430704   -6.9293849    28.409465  0.029227845  0.034374481            2 
   82000    1.2665251   -6.9747955    28.717978  0.029184937  0.034367433            5 
   83000    1.2203256   -6.9855044    29.185573  0.029302784  0.034363481            2 
   84000    1.2370504   -6.9679829    29.640368  0.029405127  0.034358275            2 
   85000    1.2109197   -6.9475703    30.025326  0.029436594  0.034356242            4 
   86000    1.2510874   -6.9592678    30.482952  0.029537744  0.034360875            3 
   87000    1.2411196   -7.0100729    30.892951  0.029590949  0.034363086            1 
   88000    1.2805317   -6.9435111    31.417658  0.029751569  0.034364585            3 
   89000    1.2139365   -7.0128554    31.684636  0.029667262  0.034366577            2 
   90000    1.2243949   -6.9352506    32.319741  0.029925686   0.03437008            2 
   91000     1.225923   -6.9466859    32.780838  0.030019082  0.034376491            2 
   92000    1.2670295   -6.9233749    33.246916   0.03011496  0.034392044            2 
   93000    1.2363086   -6.9413897    33.668808  0.030169183  0.034410805            2 
   94000    1.2357013   -6.9917075    33.971765  0.030116813  0.034422049            1 
   95000    1.2466334    -6.948505    34.389407  0.030166146  0.034430848            4 
   96000    1.2351411   -6.9935981    34.450255  0.029904735  0.034430725            3 
   97000    1.2645303   -6.9701245    34.939265   0.03001655  0.034424708            2 
   98000     1.264396   -6.9432748    35.332677  0.030044794   0.03441612            3 
   99000    1.2350471   -6.9909868    35.693097  0.030044695  0.034401573            4 
  100000    1.2327681   -6.9784254    36.046262  0.030038552  0.034386765            3 
  101000     1.245482   -6.9641319    36.446841  0.030071651  0.034370933            1 
  102000    1.2285876   -6.9656105    36.927393  0.030169439   0.03435454            2 
  103000    1.2425011   -6.9626796    37.332069  0.030203939  0.034340981            2 
  104000    1.2516159   -6.9913226    37.710608  0.030216833  0.034332651            2 
  105000    1.2313879   -6.9823294    37.961698  0.030128331  0.034316584            2 
  106000    1.2184704   -6.9688037    38.482861  0.030253822  0.034298409            4 
  107000    1.2053495   -6.9660688    38.924483  0.030315018  0.034290615            1 
  108000     1.241749    -6.967355    39.326607  0.030344604  0.034278819            4 
  109000    1.2206818   -7.0523449    39.550617  0.030237475  0.034264676            2 
  110000    1.2183552   -7.0216888    39.893369  0.030222249  0.034245201            1 
  111000    1.2392159   -6.8955825     40.30876  0.030261831  0.034228841            2 
  112000    1.2532568   -6.9304482     40.79306  0.030351979  0.034213693            2 
  113000    1.2362933    -6.984358    40.998444  0.030234841  0.034192716            2 
  114000    1.2555545   -6.9801597    41.330748  0.030212535  0.034167985            1 
  115000    1.2487894   -6.9743375    41.791556  0.030283736  0.034147438            4 
  116000    1.2294898   -6.9788085    42.269478  0.030366005  0.034129391            2 
  117000    1.2478772   -6.9414167    42.738746  0.030440702  0.034113421            2 
  118000    1.2299538   -6.9834187    42.959212  0.030338427  0.034096366            3 
  119000    1.2428656   -6.9812459    43.362822  0.030366122  0.034075541            4 
  120000    1.2765277   -6.9657421     43.73225  0.030369618  0.034059128            3 
  121000    1.2328573   -6.9332969     44.25993  0.030482046  0.034040682            1 
  122000    1.2453498   -6.9545313    44.473274  0.030377919  0.034019195            3 
  123000    1.2267585   -6.9872828    44.651646  0.030251792  0.033994732            2 
  124000    1.2257808   -6.9165307    45.088995  0.030301744  0.033967586            2 
  125000    1.2381113   -6.9348985     45.54238  0.030361586  0.033940082            2 
  126000    1.2330412   -6.9161489    45.824748  0.030307373  0.033905441            3 
  127000    1.2238601   -6.9581422    45.876154  0.030102463  0.033869436       -1e+20 
  128000    1.2461334   -6.9670211    46.457167  0.030245552  0.033834016            4 
  129000    1.2081157   -6.9913925     46.77855  0.030218701  0.033801674            3 
  130000     1.220843   -7.0307468    47.115555  0.030202279  0.033768527            2 
  131000    1.2381455   -6.9844906    47.405429  0.030156125   0.03373632            1 
  132000    1.2208134   -6.9778182    47.899821  0.030239786  0.033706425            2 
  133000    1.2321859   -6.9594139    48.501119  0.030389172  0.033677658            1 
  134000    1.2199091   -6.9706279    48.745105   0.03031412  0.033648418            1 
  135000    1.2283016   -6.9572734    49.020836  0.030259775  0.033620469            3 
  136000    1.2282803   -6.9992762    49.517192  0.030341417  0.033591538            2 
  137000    1.2432542   -6.9957093    49.919051  0.030364386  0.033565182            1 
  138000    1.2322264   -6.9819728    50.374932  0.030419645  0.033543324            3 
  139000    1.2320189   -6.9617327    50.891642  0.030510577  0.033526658            1 
  140000    1.2249424   -6.9895649    51.438093  0.030617912  0.033513751            1 
  141000    1.2248544   -7.0052464    51.717268  0.030565761  0.033499818            4 
  142000    1.2297122   -6.9695792    52.033086  0.030535848  0.033485221            4 
  143000    1.2217229    -7.002023    52.155126   0.03039343  0.033469397            2 
  144000    1.2311853   -6.9665524    52.891386  0.030608441  0.033452453            5 
  145000    1.2132625   -6.9945241    52.922018  0.030414953  0.033431456            3 
  146000    1.1957701   -6.9727991    53.122637   0.03032114  0.033404956            4 
  147000    1.2400871   -7.0129469    53.363825  0.030251602  0.033374535            3 
  148000    1.2145986   -6.9982605    53.862368   0.03032791  0.033345796            3 
  149000    1.2204169   -6.9759724     54.46978  0.030464082  0.033319267            2 
  150000    1.2456383   -7.0076958    54.650375  0.030361319  0.033299825            4 
  151000    1.2434124   -7.0066964    55.050211  0.030380911    0.0332775            2 
  152000    1.1960465   -6.9395355    55.485475  0.030419668  0.033253432            2 
  153000    1.2305231   -6.9884464    55.779091  0.030380768  0.033230406            4 
  154000    1.1944655   -6.9599111    56.430925  0.030536215  0.033209112            5 
  155000    1.2374278   -7.0260265     56.52425  0.030389381  0.033187017            2 
  156000    1.1909663   -7.0203703    56.869775  0.030379153  0.033164721            2 
  157000    1.2412084   -6.9554213    57.187835  0.030354477  0.033141944            3 
  158000     1.240768   -7.0257047    57.317035  0.030230504  0.033116839            2 
  159000    1.2130604    -6.955073    58.112098  0.030457074  0.033091729            1 
  160000    1.2237754   -6.9626105    58.416467  0.030425243  0.033067098            5 
  161000    1.2424566   -6.9904681    59.002239  0.030539461  0.033047744            2 
  162000    1.2401341   -7.0306627    59.294139    0.0305011   0.03303016            3 
  163000    1.2181275     -7.02085    59.494695   0.03041651  0.033010942            3 
  164000     1.199255   -7.0354835    59.853959  0.030413597  0.032989069            3 
  165000    1.2117852   -6.9805692    60.098273  0.030352663  0.032967923            2 
  166000    1.2505335   -7.0109984    60.654152  0.030448871  0.032946689            4 
  167000    1.2440912   -7.0261271    60.989488  0.030433876  0.032925024            3 
  168000    1.2407024   -6.9982862     61.41873   0.03046564  0.032904768            4 
  169000    1.2490795   -6.9313443    61.598337  0.030373933  0.032885495            2 
  170000    1.2123202   -7.0119981    62.074883  0.030428864  0.032867184            1 
  171000    1.2162385     -7.00288    62.548045  0.030481504  0.032847604            2 
  172000    1.2247118   -6.9802816    62.991715  0.030519242  0.032829348            4 
  173000    1.2239387     -6.94724    63.406883  0.030542814  0.032813009            3 
  174000    1.2322046   -7.0122386      63.6388  0.030478352  0.032797781            2 
  175000    1.2406011   -6.9993649    64.403949  0.030668547  0.032788449            2 
  176000    1.2085345   -6.9914912    64.446269  0.030514332  0.032776494            3 
  177000    1.2556316   -7.0201945    64.988122  0.030597044  0.032764785            2 
  178000    1.2021187   -7.0400285     65.35132  0.030595187   0.03275105            2 
  179000    1.2128249   -7.0247732    65.532217  0.030508481  0.032736582            3 
  180000    1.2106607   -7.0138775    65.977306  0.030545049  0.032721125            2 
  181000    1.2388417   -7.0088508    66.276077  0.030513848  0.032707098            1 
  182000    1.2419652   -6.9754094    67.053789  0.030702284     0.032694            4 
  183000    1.2229353    -6.989162    67.416101  0.030699499  0.032684061            3 
  184000    1.2292435    -7.010874    67.469503   0.03055684  0.032673133            2 
  185000    1.2487068   -7.0230413    67.577007  0.030440093  0.032659061            3 
  186000    1.2243709    -6.978477    68.224016  0.030566315  0.032642596            1 
  187000    1.2126764   -6.9351518    68.906817  0.030707138  0.032627813            1 
  188000    1.2349434   -6.9871236    69.143074  0.030648526  0.032613714            2 
  189000    1.2231498   -7.0022316    69.674207   0.03072055  0.032604399            4 
  190000     1.227227   -7.0000691    69.906376  0.030660691  0.032594905            1 
  191000    1.1948671   -6.9935854    70.545723  0.030779111   0.03258824            2 
  192000    1.2206224   -7.0350144    70.780362  0.030720643  0.032579515            2 
  193000    1.2328858   -7.0133343    71.196272   0.03074105  0.032570487            2 
  194000    1.2255647   -6.9868813    71.722645  0.030808696  0.032561972            4 
  195000    1.2347248    -7.014528    71.877482  0.030716873  0.032554569            2 
  196000    1.2269912   -7.0190591    72.611837   0.03087238  0.032549417            2 
  197000    1.2449636   -7.0063004    72.858034  0.030819811  0.032546192            2 
  198000    1.2144604   -7.0304104    73.275203  0.030839732  0.032543104            2 
  199000    1.2218728   -7.0476581    73.634806  0.030835346  0.032539385            1 
  200000    1.2050781   -6.9853082      74.2966  0.030956916  0.032537756            1 
  201000    1.2150384   -6.9346429    74.822044  0.031020748  0.032537547            3 
  202000    1.2301828   -7.0236398    74.991174  0.030936953  0.032534973            2 
  203000    1.2070607   -7.0310036    75.247246  0.030889674  0.032530873            1 
  204000    1.2194664   -6.9657455    75.931532  0.031017783  0.032528665            2 
  205000    1.1800214   -6.9831865    76.289337  0.031011926  0.032526491            3 
  206000    1.1989062   -6.9583015    76.924111  0.031118168  0.032525972            3 
  207000    1.2170137   -7.0134044    77.005606  0.031000647  0.032524805            2 
  208000    1.2009176   -7.0203117    77.381296  0.031002122  0.032524818            2 
  209000    1.1887996   -7.0427531    77.400714  0.030861529  0.032521243            2 
  210000    1.2307222   -7.0168808    77.859416  0.030896593  0.032518061            2 
  211000    1.2228728   -6.9811587    78.190611  0.030880968  0.032515814            2 
  212000    1.2110493   -7.0381235    78.786736  0.030969629   0.03251062            3 
  213000    1.1982552   -7.0287106    78.711594  0.030794833  0.032504036            1 
  214000    1.2087338   -7.0054028    79.472459  0.030947219  0.032498213            5 
  215000    1.1976304    -6.973097    79.954141  0.030989977  0.032494108            2 
  216000    1.1983858   -7.0122544    79.983665  0.030857896  0.032489502            2 
  217000    1.2200102   -7.0774846    80.063128  0.030746209  0.032484139            3 
  218000    1.2213039    -6.980887    81.201378  0.031040282  0.032481442            2 
  219000    1.2173608   -7.0392184    81.365261  0.030960906  0.032478539            1 
  220000    1.2300817   -6.9825208    82.022663   0.03106919  0.032475891            5 
  221000    1.2258788   -7.0037525    82.100611  0.030957998  0.032472661            6 
  222000    1.2272102    -6.970653    82.746596  0.031061035  0.032470619            3 
  223000    1.2080822   -6.9932175     82.66331  0.030890624  0.032466895            2 
  224000    1.2134326   -7.0184374    83.019333  0.030885168  0.032460237            1 
  225000    1.2095044   -7.0278885    83.319274   0.03085899  0.032454628            2 
  226000    1.1988931    -7.043812    83.714322  0.030868113  0.032447755            5 
  227000    1.2271564   -7.0103004    84.383871  0.030977926  0.032443373            4 
  228000    1.2038056    -6.962849     84.83047  0.031005289  0.032438876            2 
  229000    1.2334934    -6.987639     85.24839  0.031021976  0.032434849            2 
  230000    1.2023157   -7.0130332    85.647269  0.031031619  0.032430041            3 
  231000    1.2480883   -6.9948599    86.165048  0.031084072  0.032425984            5 
  232000    1.2296189   -7.0309644    86.077332  0.030918582  0.032422207            3 
  233000    1.2198426     -7.01639    86.318649  0.030872192   0.03241542            3 
  234000    1.2021625   -7.0261763    86.878783  0.030939737   0.03240887            2 
  235000    1.1881181   -7.0429312    87.172739  0.030912319  0.032403169            1 
  236000    1.2329435   -7.0667602     87.40269  0.030862532  0.032397468            3 
  237000    1.1918993   -6.9923904    87.827706  0.030881753  0.032389315            2 
  238000    1.2099361   -6.9896248    88.363656  0.030939655   0.03238226            1 
  239000    1.1962471   -7.0126123    88.271496  0.030778067  0.032372795            2 
  240000    1.2152075   -7.0200329    88.714439  0.030803625   0.03236176            3 
  241000    1.2126633   -7.0159009    88.853124  0.030723763  0.032350833            3 
  242000    1.2170928   -6.9807807    89.319683  0.030757467  0.032341284            1 
  243000    1.1985705   -7.0459722     89.97479  0.030855552  0.032332779            2 
  244000    1.2075672    -7.020234     90.20171  0.030806595  0.032323818            2 
  245000     1.231043   -7.0452805    90.278557  0.030706992  0.032313095            3 
  246000     1.221061    -7.049876    90.404197  0.030624728  0.032301244            1 
  247000    1.2103608   -7.0059916    91.112205   0.03073961  0.032290356            1 
  248000    1.1884106   -6.9840059    91.576254  0.030771591  0.032279047            1 
  249000    1.2184684   -7.0212016    91.853798  0.030740896  0.032269268            1 
  250000    1.1994827   -7.0442888     92.28201   0.03076067  0.032260456            2 
  251000    1.2084568   -7.0416723    92.846892  0.030825661  0.032252666            1 
  252000      1.21377   -7.0541207     93.22246  0.030827533  0.032243338            3 
  253000    1.2267699   -6.9899039    93.843385  0.030910206  0.032237297            2 
  254000    1.1844132   -7.0311259    93.593344  0.030706478  0.032228579            2 
  255000    1.2032209    -7.054553    94.258906  0.030803564  0.032221357            2 
  256000    1.2252429   -6.9835321    94.890627  0.030888876  0.032213841            2 
  257000     1.207256   -7.0454169    94.865649  0.030760587  0.032207433            2 
  258000    1.2167725   -7.0164769    95.775227  0.030935151  0.032200582            2 
  259000    1.2252949   -7.0493368     95.83856  0.030836088  0.032194595            6 
  260000    1.2011682   -7.0391448    96.608697  0.030964326  0.032190589            1 
  261000    1.2079002   -7.0437023    97.042967  0.030984345  0.032186106            2 
  262000     1.230749   -7.0469278     97.27178  0.030938861   0.03218182            1 
  263000    1.2058499   -7.0292246    97.687414  0.030952919  0.032179526            2 
  264000    1.2061715   -6.9873398    98.725296  0.031163288  0.032178959            3 
  265000    1.2142804   -7.0184415    99.226248  0.031203223  0.032180505            3 
  266000    1.2243294   -7.0403563    99.482371  0.031166156  0.032180336            3 
  267000    1.2012011   -7.0028113    99.840802  0.031161299  0.032180237            1 
  268000    1.2013187   -7.0201163    99.815115  0.031037038  0.032179662            3 
  269000    1.2004929   -7.0488869    99.970313  0.030969738  0.032177977            3 
  270000    1.2220555   -7.0006805    100.84242  0.031124205   0.03217578            1 
  271000    1.2099056   -7.0332266    100.78732  0.030992412  0.032172799            6 
  272000    1.2141919   -7.0022236    101.22679   0.03101311  0.032167832            2 
  273000    1.2023221   -7.0546453    100.59983   0.03070813  0.032160356            2 
  274000    1.2000345   -7.0352503    101.48921  0.030866547  0.032151295            4 
  275000    1.2180705   -7.0589443    101.36194  0.030715738  0.032141233            1 
  276000    1.1979728    -7.032944    101.73511  0.030717123  0.032131157            4 
  277000    1.2225132   -7.0884968    101.95614  0.030672727  0.032119777            2 
  278000    1.2094907   -7.0345698    102.54039  0.030737528  0.032108615            3 
  279000    1.2278705   -7.0551435    102.47254   0.03060709   0.03209861            3 
  280000    1.1873407   -7.0130908    103.59528  0.030831928  0.032088135            3 
  281000    1.2079589   -7.0196008    103.64576  0.030737177   0.03207916            2 
  282000    1.2273769   -7.0634626     103.7843  0.030669118  0.032067772            3 
  283000    1.2124318   -7.0469363    103.87016  0.030586031   0.03205743            2 
  284000    1.1884249   -7.0463342    104.81649  0.030756012  0.032047292            3 
  285000    1.1984324   -7.0622007    104.65371    0.0306005  0.032036861            2 
  286000    1.2077289    -7.047075    105.12376  0.030630465  0.032026222            1 
  287000    1.1996541   -7.0307073    105.65234  0.030677217  0.032015146            3 
  288000    1.2138871   -7.0797497    105.69063  0.030581778  0.032004196            2 
  289000    1.1993891   -7.0480837    106.57391  0.030730655  0.031995193            2 
  290000    1.2127465    -7.014629    106.93345  0.030728003  0.031985885            1 
  291000    1.2288872   -7.0150961    107.24786  0.030712445  0.031976782            2 
  292000    1.1941034   -7.0069123    108.13039   0.03085913  0.031967979            2 
  293000    1.2040074    -7.036421    108.20418  0.030774794  0.031960595            4 
  294000    1.2259251   -7.0655508    108.17187  0.030660962  0.031952967            2 
  295000    1.2102191   -7.0398155    109.12034  0.030824956  0.031946658            2 
  296000    1.2142823   -7.0726887    109.53623  0.030837901  0.031942114            3 
  297000    1.1945733   -7.0950468    110.18691  0.030916643  0.031937896            3 
  298000     1.194031    -7.051048    110.33159  0.030853352  0.031933808            2 
  299000    1.1680054   -7.0315635    110.85311  0.030895516  0.031930257            2 
  300000    1.2005157   -7.0569394    110.89362  0.030803784   0.03192615            2 
  301000    1.1824162   -7.0471819    111.76682  0.030943194  0.031923661            1 
  302000    1.2064031   -7.0513418    112.40855  0.031017812  0.031921414            3 
  303000    1.2091226   -7.0628523    112.61109  0.030971148  0.031920263            3 
  304000    1.2127922   -7.0502017    113.03383  0.030985152  0.031918438            5 
  305000    1.1678153   -7.0747929    113.23222  0.030937764  0.031917145            2 
  306000     1.202381   -7.0241173    113.64549  0.030949207  0.031916026            2 
  307000    1.2147884   -7.1061828    114.03212  0.030953345  0.031914265            1 
  308000    1.2078057   -7.0435561     114.5639  0.030996726   0.03191271            2 
  309000     1.189471   -7.0652104    114.55949  0.030895225  0.031911034            5 
  310000     1.202688   -7.0725413    115.68122  0.031097102  0.031909858            1 
  311000    1.2028934   -7.0684197    115.84752  0.031041671   0.03190749            1 
  312000    1.1997313    -7.035894    116.31904   0.03106812  0.031906128            3 
  313000    1.2042369   -7.0419749    116.68363  0.031065929  0.031906123            3 
  314000    1.2070907   -7.0641523    116.80015  0.030997916  0.031904711            1 
  315000    1.2246767   -7.0551534    117.14086  0.030989645  0.031901221            2 
  316000    1.2067598   -7.0420854    117.75372  0.031053196  0.031898644            2 
  317000    1.1740241   -7.1056641     117.9743  0.031013224  0.031896544            2 
  318000    1.1998613   -7.0473273    118.83069  0.031140118  0.031895829            3 
  319000    1.2030303   -7.0367377    119.31376  0.031168693  0.031896769            7 
  320000    1.2099477    -7.058003    119.75443   0.03118605  0.031897697            2 
  321000    1.1938296   -7.0569684    119.84426  0.031112218  0.031899641            3 
  322000    1.1925044   -7.0598721    120.51422  0.031188981  0.031900729            1 
  323000    1.2017565    -7.081107    121.04213  0.031228619  0.031903075            3 
  324000    1.1684968    -7.066343    121.30654  0.031200242  0.031904825            2 
  325000    1.1735796   -7.0731116    121.36349  0.031118845  0.031906096            2 
  326000    1.2197066   -7.0619505    121.81272   0.03113822  0.031907449            2 
  327000    1.2162694   -7.0799498    122.43828  0.031202417   0.03190746            3 
  328000    1.2080329   -7.0912044    122.33062  0.031079934  0.031907748            4 
  329000    1.1871792   -7.0562512    122.96698  0.031146652  0.031908266            4 
  330000    1.1652665   -7.0881412    123.07484  0.031079505  0.031907748            2 
  331000    1.1741836   -7.0656852    123.61696  0.031122096  0.031907467            2 
  332000    1.1852216   -7.0453414    123.87488  0.031093093   0.03190633            1 
  333000    1.2152305   -7.0518156    123.87982  0.031000957  0.031904029            3 
  334000    1.2207724   -7.0558838     124.5219  0.031068338   0.03190311            3 
  335000    1.2078214   -6.9940388    125.00281  0.031095226  0.031900728            3 
  336000    1.1793778    -7.038128     124.9955  0.031000868  0.031898204            2 
  337000    1.2064311   -7.0190142    125.49542  0.031032497  0.031895463            3 
  338000    1.1717251   -7.0238503    126.38409  0.031159786  0.031892372            3 
  339000    1.1884536   -7.0758042      125.811   0.03092699  0.031888478            2 
  340000    1.1842671   -7.0432508    126.26051  0.030946203   0.03188391            1 
  341000    1.2094071   -7.0685533    127.00449  0.031037266  0.031880041            2 
  342000    1.1718255   -7.1223836    126.55337  0.030836592  0.031875713            1 
  343000    1.2173539   -7.0757716    127.15157  0.030892023  0.031870882            1 
  344000    1.1962353   -7.0825506    127.12626   0.03079609  0.031866073            2 
  345000    1.2039814    -7.059032       127.66  0.030835748  0.031861639            4 
  346000     1.207078   -7.0415742    128.47556  0.030943054  0.031857048            1 
  347000    1.1656928   -7.1151898    128.47355  0.030853399   0.03185124            5 
  348000     1.171116   -7.0716363    128.60683  0.030796654  0.031845422            2 
  349000    1.2133494   -7.0447586    129.11381  0.030829467  0.031838818            3 
  350000    1.2083019   -7.0623212    129.25974  0.030776129  0.031833317            1 
  351000    1.2252922   -7.0785063    129.48287  0.030741422  0.031826471            3 
  352000    1.2125234   -7.0775862    129.89885  0.030752569  0.031819029            4 
  353000    1.2036022   -7.1135882    129.97418  0.030683233  0.031811518            2 
  354000    1.1704013   -7.0303506    130.66807  0.030759904  0.031804855            2 
  355000    1.1835787   -7.0724057    131.00561   0.03075249   0.03179769            3 
  356000    1.1979709   -7.0385786    131.28593  0.030731725  0.031789959            4 
  357000    1.2028595    -7.049188    131.76659   0.03075784  0.031782917            2 
  358000    1.1921407   -7.0478147    131.56519  0.030625044  0.031776424            2 
  359000    1.2183662   -7.0807632    132.28005  0.030705675  0.031769554            2 
  360000    1.2073608   -7.0474737    132.48427  0.030667656  0.031762245            3 
  361000    1.1797495   -7.0024952    133.31262   0.03077392  0.031755815            3 
  362000    1.1529036   -7.0916787    132.92849  0.030600482  0.031748592            2 
  363000    1.1733846   -7.1055594    133.55732  0.030660541  0.031740188            2 
  364000    1.2054957   -7.1532653    133.19812  0.030494074  0.031732144            2 
  365000    1.2124294   -7.1352659    133.94728   0.03058157  0.031723541            4 
  366000    1.1849621   -7.0710876    134.92424  0.030720455  0.031715685            2 
  367000    1.1837645   -7.0566198     135.2085  0.030701293  0.031709114            4 
  368000    1.1875087   -7.1054698    135.06344  0.030585019     0.031701            1 
  369000    1.2028569   -7.0761557     135.8128  0.030671363  0.031692643            3 
  370000    1.2081441   -7.0691718    135.80433  0.030586561  0.031684479            1 
  371000    1.1936573   -7.0602885    136.14666  0.030581011  0.031676079            2 
  372000    1.2344263    -7.082994    136.35657  0.030545825  0.031666889            2 
  373000     1.225348   -7.0494304    136.87783  0.030580391  0.031658101            5 
  374000    1.1865599   -7.1050024    136.75019  0.030470185  0.031648003            2 
  375000    1.2134415   -7.0761506    137.59925   0.03057761   0.03163993            1 
  376000    1.1825779   -7.0201849    137.87294  0.030556947  0.031631008            5 
  377000    1.1775938   -7.0447229    138.25996  0.030561442  0.031622063            3 
  378000     1.166912   -7.0429945    138.63252  0.030562724  0.031613413            2 
  379000    1.1991661   -7.0692019    138.54522  0.030462889   0.03160483            3 
  380000    1.1764399   -7.0613605    139.07822  0.030499609  0.031595815            4 
  381000    1.2061341   -7.0779081    139.23937  0.030454806  0.031586415            2 
  382000    1.1822746   -7.0441783    140.23224  0.030591675  0.031578259            4 
  383000     1.164578   -7.1430911    139.41002  0.030332903  0.031569334            2 
  384000     1.187089   -7.1206197    140.46223  0.030482256  0.031560876            2 
  385000    1.1735061   -7.1606825    140.09071  0.030322664  0.031551068            4 
  386000    1.2258332    -7.082319    141.16059  0.030475084  0.031541456            2 
  387000    1.1805866   -7.0964988    142.04842  0.030587514  0.031533254            3 
  388000    1.2383329   -7.0879436    142.83762  0.030678183  0.031527046            3 
  389000    1.1543693   -7.0912956    142.97491   0.03062873  0.031521722            3 
  390000    1.2056247   -7.0790747    143.62251   0.03068857   0.03151606            3 
  391000    1.2006602   -7.0873708    144.05084  0.030701373  0.031510709            5 
  392000    1.2184812   -7.0678422    143.84183  0.030578621  0.031504834            1 
  393000    1.1945414   -7.0586536    145.10821  0.030769341  0.031499197            2 
  394000    1.1975689   -7.0720983    145.15505  0.030701153  0.031494096            2 
  395000    1.2010641   -7.0567931    145.36002  0.030666671  0.031487903            2 
  396000    1.1772239   -7.1214723    145.60082  0.030639904  0.031482649            2 
  397000    1.1906884   -7.1231313    145.92868  0.030631544  0.031476867            3 
  398000    1.1747137   -7.0620515    146.59898  0.030694928  0.031472291            3 
  399000    1.1682419   -7.1317229    147.00545  0.030702893   0.03146707            5 
  400000    1.1976134   -7.1130977    147.13715  0.030653573  0.031462638            2 
  401000    1.1880843   -7.0482579    148.12327  0.030782058  0.031458979            1 
  402000    1.1757395   -7.1174781    147.48639  0.030573465  0.031454604            2 
  403000    1.1832957   -7.1203065    147.77047  0.030556343  0.031449477            3 
  404000    1.1722404     -7.05283    148.99955  0.030734231   0.03144483            3 
  405000    1.1834032   -7.1138719    148.44262  0.030543749  0.031440073            2 
  406000    1.1981283   -7.0690139    148.99141  0.030581159  0.031434549            3 
  407000    1.1755513   -7.1038141    149.08014   0.03052419  0.031428941            1 
  408000    1.1844983    -7.024969    149.99898  0.030637046  0.031422997            1 
  409000    1.1979949   -7.1609573    149.43299  0.030446819  0.031416964            4 
  410000    1.2076374   -7.0624909    150.44342  0.030577931   0.03140928            2 
  411000    1.1756167   -7.0609535    150.82769  0.030581446   0.03140229            2 
  412000      1.17102     -7.06757    151.22371  0.030587321  0.031395719            2 
  413000    1.1975392   -7.1185717    151.07205  0.030482657  0.031389582            1 
  414000    1.2047021   -7.0876606    151.69029  0.030533473  0.031382645            4 
  415000    1.1689185   -7.1038322    151.70631  0.030463114  0.031375021            4 
  416000    1.1708572   -7.1422014    151.95876  0.030440457  0.031366877            3 
  417000    1.2043289   -7.0838182    152.20484  0.030416634  0.031359368            2 
  418000    1.1743002   -7.0542137    152.64277  0.030431174   0.03135182            3 
  419000    1.1903679    -7.116176    152.65887  0.030361749  0.031344231            3 
  420000    1.1796082   -7.1247728    153.09711   0.03037641  0.031336172            3 
  421000    1.1561689   -7.0603099    154.25556  0.030533563  0.031328342            3 
  422000    1.2027722   -7.1354794    153.02099  0.030217416  0.031320778            4 
  423000     1.171302   -7.0854398    154.03691  0.030346121  0.031312827            5 
  424000    1.1785012   -7.0953433    155.01546  0.030466876  0.031304317            3 
  425000    1.1999451   -7.0800694     154.7204  0.030337333  0.031296756            2 
  426000    1.1746561   -7.1414574    154.65963  0.030254231  0.031288321            2 
  427000    1.1992296   -7.1278376    155.07083  0.030263628  0.031280129            3 
  428000    1.1764573   -7.0733932    156.18756   0.03041035  0.031271551            1 
  429000    1.1666404   -7.0794723    156.04181  0.030311151  0.031263413            2 
  430000    1.1903287   -7.1564221    156.07491  0.030247076  0.031255095            4 
  431000    1.2013898    -7.126395    156.59208   0.03027689   0.03124695            2 
  432000    1.2074034   -7.0471845    157.71429  0.030423281  0.031240071            3 
  433000    1.1886203   -7.1205539    157.70742  0.030351697   0.03123234            2 
  434000    1.1541058   -7.0801586    158.62865   0.03045865  0.031224446            2 
  435000    1.2017793   -7.0964772     157.8575  0.030240901  0.031216424            6 
  436000    1.1751263   -7.1195814    158.14164  0.030225848  0.031207234            2 
  437000    1.1767448   -7.0819198    159.08693  0.030336942  0.031199179            2 
  438000    1.1569831   -7.0808668    158.81786  0.030216487  0.031191828            3 
  439000    1.1816969    -7.106442    159.94117  0.030360891  0.031184013            2 
  440000    1.1620238   -7.0863697    160.52686  0.030402814  0.031176741            2 
  441000    1.1853065    -7.097534     160.7229  0.030370917  0.031169301            2 
  442000    1.1660771   -7.1303861    160.48167  0.030256726  0.031161249            3 
  443000    1.1651027   -7.1312933    161.28896  0.030340285  0.031153633            5 
  444000    1.1772036   -7.1078093    161.95719   0.03039737  0.031145895            2 
  445000    1.2060479   -7.0881222    161.79766  0.030299188  0.031137877            1 
  446000    1.1851796   -7.1296763    162.27472  0.030320389  0.031130646            2 
  447000    1.1844115   -7.1492874    161.69258   0.03014403  0.031122387            4 
  448000     1.189712   -7.1073448    162.89212  0.030299874  0.031114567            3 
  449000    1.1939666   -7.1091931    162.85953  0.030226341   0.03110684            2 
  450000    1.1726702   -7.0886988    163.22656   0.03022714   0.03109951            2 
  451000    1.1689445   -7.1395163    163.70579  0.030248669  0.031091942            2 
  452000    1.1604557   -7.1277089    163.91515  0.030220346  0.031083855            3 
  453000    1.1993115   -7.0678721    165.11161  0.030373733  0.031076495            2 
  454000    1.1843132   -7.0807492    164.73483   0.03023767  0.031069425            4 
  455000     1.223114   -7.1312682     164.7114  0.030166924  0.031061401            3 
  456000    1.1825524   -7.1118899    165.16331  0.030183353  0.031053617            1 
  457000    1.1887323   -7.1412759    165.28318  0.030139166  0.031045478            5 
  458000    1.2147918   -7.0691016    166.09706  0.030221444  0.031037504            1 
  459000    1.1619732   -7.1185261    165.66289  0.030076777   0.03102949            3 
  460000     1.180742   -7.0791847    166.49516  0.030162167   0.03102107            1 
  461000    1.1520478   -7.0795302    166.77777  0.030147825  0.031012865            4 
  462000    1.1776184    -7.151733    166.25327  0.029987964  0.031004014            1 
  463000    1.2139651   -7.1302538    167.34656  0.030119972  0.030995235            2 
  464000    1.1891455   -7.1075858    167.05802  0.030003237   0.03098691            2 
  465000     1.163614   -7.1193318    168.09211  0.030124035  0.030978866            2 
  466000    1.1783359   -7.0849137    169.20306  0.030258058  0.030971522            2 
  467000    1.1657459   -7.0792781    169.30686  0.030211788  0.030963403            1 
  468000    1.1707538   -7.0882348    168.82516  0.030061459  0.030955259            5 
  469000    1.1500595   -7.1167547    168.91161  0.030012723  0.030946545            2 
  470000    1.1702273   -7.1623833    169.04164  0.029971922  0.030937607            2 
  471000     1.168339   -7.0900292    170.02986  0.030083132  0.030928964            6 
  472000    1.1814385   -7.1724275     169.4791  0.029922157  0.030920265            2 
  473000    1.1774571   -7.1262997    170.81082   0.03009352   0.03091095            1 
  474000    1.1583388   -7.1075775     171.0684  0.030075317  0.030902496            3 
  475000    1.1929742   -7.1048199    171.89544  0.030157095  0.030894973            2 
  476000    1.1882461   -7.1291802    171.07883  0.029950776  0.030886357           10 
  477000    1.1764252   -7.1673408    172.03876  0.030055689  0.030876791            2 
  478000    1.1786527   -7.1010665    172.47423   0.03006873  0.030868233            3 
  479000    1.1863625   -7.1364674    172.49768  0.030010035  0.030859852            3 
  480000    1.1446552    -7.069531    173.21294  0.030071692   0.03085115            2 
  481000    1.1735105   -7.0809072    173.46315   0.03005252  0.030842609            4 
  482000    1.1745895   -7.0862756    173.41309  0.029981516  0.030833435            2 
  483000    1.2044061   -7.1285019    173.13305  0.029871126  0.030824084            6 
  484000    1.1718452   -7.1424806    173.36046  0.029848563  0.030814438            1 
  485000    1.1708614   -7.1228948    174.16869  0.029925891  0.030804577            3 
  486000    1.1669168   -7.1309373     174.2209  0.029873268   0.03079551            2 
  487000    1.1646917   -7.1165821    174.96653  0.029939515  0.030786342            2 
  488000    1.1704434   -7.1235525    175.48425  0.029966573  0.030776886            3 
  489000    1.1639232   -7.0865798    175.66149  0.029935495   0.03076806            5 
  490000    1.1459686   -7.1323779    175.73438    0.0298868  0.030759094            3 
  491000    1.1765822   -7.1076446    176.20382  0.029905604  0.030750538            5 
  492000    1.1627909   -7.1215284    177.09822  0.029996311   0.03074286            6 
  493000    1.1982107   -7.1395627    176.95978  0.029912065  0.030735421            2 
  494000    1.1778745   -7.1603614    177.47375  0.029938218   0.03072716            3 
  495000    1.1718006   -7.1357025    177.98355   0.02996356  0.030718622            2 
  496000    1.1532232   -7.1206043    178.56437  0.030000734  0.030711063            2 
  497000     1.143843   -7.1433892     178.0735  0.029858064  0.030703803            2 
  498000    1.1961302   -7.1710473    178.70047  0.029903024  0.030695858            8 
  499000    1.1596555   -7.1257017    178.79139  0.029858281  0.030687935            2 
  500000     1.153917   -7.0762719    180.06634  0.030011056  0.030681011            3 
  501000    1.1809123   -7.1235818    180.26237  0.029983761   0.03067344            2 
  502000     1.189116   -7.1382165    180.43959  0.029953451  0.030666714            2 
  503000    1.1621272   -7.1073656    180.69419  0.029936082  0.030659356            1 
  504000    1.1925589   -7.1916755    180.56258  0.029854925  0.030652173            4 
  505000    1.1534215   -7.1666216    181.15408  0.029893413  0.030644839            2 
  506000    1.1633151    -7.171947    182.14131  0.029996921  0.030637831            4 
  507000    1.1599853   -7.1491139    182.63146   0.03001832  0.030631114            5 
  508000    1.1636981   -7.1470614    182.57458  0.029949898   0.03062473            3 
  509000    1.2158595   -7.1659033    182.89985  0.029944311  0.030618321            2 
  510000    1.1720534   -7.1329372    183.80384  0.030033307  0.030611555            3 
  511000    1.1739433   -7.1395122    183.77401  0.029969669  0.030605664            3 
  512000    1.1477242   -7.1288387    184.40819  0.030014353   0.03059962            2 
  513000    1.1773473   -7.1472851    184.72769  0.030007746  0.030592791            4 
  514000    1.1888154   -7.1229113    183.88605  0.029812913  0.030585803            2 
  515000    1.1653882   -7.1705814    184.78351  0.029900244  0.030578761            2 
  516000    1.1743732   -7.1551063    184.90439   0.02986182  0.030571752            3 
  517000    1.1866494   -7.1775736    185.16223   0.02984562  0.030564182            6 
  518000    1.1904526   -7.1446315    185.80322  0.029891123  0.030556656            1 
  519000    1.1715428   -7.1053196    185.73408  0.029822428  0.030550293            2 
  520000    1.1598837   -7.1488222    185.61231  0.029745562  0.030543144            2 
  521000    1.1783706   -7.1370449    186.20613   0.02978345  0.030535708            2 
  522000    1.1857272   -7.1426041    186.37407  0.029753204  0.030528156            6 
  523000    1.1606753     -7.15629    186.85891  0.029773567  0.030520345            5 
  524000    1.1948204   -7.1378981    187.47583  0.029814858  0.030513005            5 
  525000     1.152777   -7.1801355     187.8573  0.029818619  0.030506252            1 
  526000    1.1692936   -7.1509206    188.12988  0.029805114  0.030498935            1 
  527000    1.1547216   -7.1291187    188.80409  0.029855169  0.030491741            2 
  528000    1.1803481   -7.1214388    189.63742  0.029930148   0.03048511            2 
  529000    1.1909285   -7.1132692     189.6667  0.029878182  0.030478627            1 
  530000    1.1705698   -7.1225324    189.81931  0.029845803  0.030471401            3 
  531000    1.1738807   -7.1045084    189.39472  0.029722962  0.030464077            4 
  532000    1.1728426    -7.094688    190.20571  0.029794127  0.030456487            1 
  533000    1.1687862   -7.1264244    190.59249  0.029798701  0.030448681            2 
  534000     1.163274   -7.1410191    189.81325  0.029621294  0.030441094            2 
  535000     1.160609   -7.1367252    190.83455  0.029725008   0.03043276            4 
  536000    1.1629541   -7.1126701    190.80341  0.029664709  0.030424393            2 
  537000    1.1637428    -7.124962    191.07746  0.029651996  0.030416289            3 
  538000    1.1732848    -7.144559    190.96992  0.029580223  0.030408173            7 
  539000    1.1737542   -7.1542603    191.45104  0.029599727  0.030399626            4 
  540000    1.1676972   -7.1485792    192.08412  0.029642611  0.030390838            1 
  541000    1.1781877    -7.195294    192.28265  0.029618399  0.030382321            5 
  542000    1.1707671   -7.1754764    192.44417  0.029588587  0.030373731            3 
  543000    1.1710739   -7.1368855    193.32113  0.029668682  0.030365243            3 
  544000    1.1981158   -7.1793893    193.70779  0.029673374  0.030356379            2 
  545000    1.1429455   -7.1499651    193.23894  0.029547239  0.030347723            3 
  546000    1.1702623   -7.1322958    193.63415  0.029553442  0.030338299            3 
  547000    1.1615957   -7.1263711    193.95541  0.029548356  0.030329412            1 
  548000    1.1870868   -7.1696632    193.85878  0.029479741  0.030320436            3 
  549000    1.1885402   -7.1667511    194.25796  0.029486637  0.030311553            1 
  550000    1.1695392   -7.1682739    194.23705  0.029429856  0.030302501            2 
  551000    1.1789621   -7.1340455    195.61617  0.029585023  0.030293719            2 
  552000    1.1671496   -7.1397661    195.56368  0.029523503  0.030284837            3 
  553000     1.196298   -7.1585507     195.6092  0.029476973  0.030275401            1 
  554000    1.1889942   -7.1644668     194.7219  0.029290297  0.030265895            3 
  555000    1.1562825   -7.1661017    195.25472  0.029317526  0.030256283            2 
  556000    1.1424211   -7.1634288    195.68435  0.029329189  0.030246278            4 
  557000    1.1661737   -7.1661598    196.20603  0.029354583  0.030236443            2 
  558000    1.1695724   -7.1817994    196.50653  0.029346853  0.030226093            1 
  559000    1.1612983   -7.1201676    196.42522  0.029282232  0.030215534            2 
  560000    1.1619222   -7.2018232    196.53994  0.029247015  0.030204811            4 
  561000     1.159716   -7.1974281    196.99122  0.029261915  0.030193869            6 
  562000    1.1334033    -7.158721    197.29833  0.029255387  0.030183118            2 
  563000     1.138271   -7.1188499    197.66964  0.029258384  0.030171873            1 
  564000    1.1394503   -7.1528502    197.87116  0.029236282  0.030160689            2 
  565000    1.1539297   -7.1408136    198.46612  0.029272289  0.030149905            3 
  566000    1.1582051   -7.1759617    198.43921  0.029216609  0.030139582            4 
  567000    1.1594685   -7.1565979    199.26393  0.029286292  0.030129342            1 
  568000    1.1736234   -7.2003769    198.56022  0.029131488   0.03011919            4 
  569000    1.1554173   -7.1395247    199.94904   0.02928369  0.030109581            3 
  570000    1.1451169   -7.1634233    199.56966   0.02917685  0.030099629            2 
  571000    1.1328997   -7.1624929    200.28099  0.029229567   0.03008935            2 
  572000     1.159292    -7.177247     200.4079  0.029196955  0.030078946            2 
  573000    1.1455165    -7.178279    199.78526  0.029055448  0.030068097            1 
  574000    1.1308569   -7.2168623    199.97864  0.029032903  0.030057017            2 
  575000    1.1618926   -7.1764982    200.60639  0.029073391  0.030046243            2 
  576000    1.1758134   -7.1588124    201.91624  0.029212419  0.030035798            3 
  577000    1.1704254   -7.1236087     202.8416  0.029295437  0.030025679            4 
  578000    1.1774739   -7.1854522    202.27132  0.029162531  0.030015832            2 
  579000    1.1386842   -7.1574466    202.69774  0.029173537  0.030006069            5 
  580000    1.1533184   -7.1919092    203.27794    0.0292066  0.029996202            5 
  581000    1.1610481    -7.194857     203.2793  0.029156526  0.029986335            5 
  582000     1.142455   -7.1266271    204.14084  0.029229789  0.029977478            6 
  583000    1.1576835   -7.1884054    204.42543   0.02922033  0.029968609            2 
  584000    1.1625603   -7.2349385    204.38217  0.029164122  0.029959443            1 
  585000    1.1629246   -7.1746932    205.87398  0.029326778  0.029950545            2 
  586000    1.1405913   -7.2284849    204.42739  0.029071016  0.029941342            2 
  587000    1.1754959   -7.1583326    205.81363  0.029218289  0.029932721            2 
  588000    1.1397621   -7.1551753    207.16973   0.02936079  0.029924435            2 
  589000     1.168238   -7.1752636    206.69721  0.029244088  0.029915948            4 
  590000    1.1649274   -7.1770071    206.90862  0.029224382  0.029907476            3 
  591000    1.1643498   -7.1782311    207.47337  0.029254564  0.029898892            6 
  592000    1.1612355   -7.1959281    207.08325  0.029150232  0.029890655            2 
  593000     1.166784   -7.1721334    208.54603  0.029306637  0.029882494            2 
  594000    1.1610153   -7.1535935     208.7358  0.029283923  0.029874358            3 
  595000    1.1597559   -7.1450714    209.18931  0.029298223  0.029866362            3 
  596000    1.1668398   -7.1756563    208.91609  0.029210863  0.029858251            2 
  597000    1.1637008   -7.2137111    209.24891  0.029208391  0.029849816            2 
  598000    1.1598223   -7.1827677    209.53865  0.029199923  0.029841332            4 
  599000    1.1430983   -7.1642796    210.26465  0.029252177  0.029833071            2 
  600000    1.1388214   -7.1885115    210.31928  0.029211011  0.029824909            3 
  601000    1.1653882    -7.176203    210.80186  0.029229321  0.029816528            4 
  602000    1.1646569   -7.1728953     211.3657  0.029258818  0.029808625            3 
  603000    1.1511487    -7.133596    211.42068  0.029217894  0.029800534            2 
  604000    1.1352902    -7.150675    210.96172  0.029106198  0.029791831            2 
  605000    1.1549198   -7.2047249    211.71326  0.029161607  0.029783775            3 
  606000    1.1391752   -7.1508878    211.42128  0.029073333  0.029775525            2 
  607000    1.1453577   -7.1917999    212.17838  0.029129376  0.029766987            3 
  608000    1.1622018   -7.1736602    212.91645  0.029182628  0.029758801            3 
  609000    1.1522278   -7.1591174    213.04082  0.029151727  0.029750915            2 
  610000    1.1440368   -7.1600377    214.27716  0.029272836  0.029744069            4 
  611000    1.1742723   -7.1709037    213.69863  0.029146022  0.029736444            3 
  612000    1.1524739   -7.1894664    213.88376  0.029123605   0.02972832            3 
  613000    1.1894375    -7.156759    214.78719  0.029198911  0.029720468            2 
  614000    1.1583005   -7.2140804    214.54991  0.029119152  0.029713074            3 
  615000    1.1583815    -7.197535    215.09071  0.029145083  0.029705204            2 
  616000    1.1607569   -7.2284041    215.11584  0.029101168  0.029697994            5 
  617000    1.1734929   -7.1388385    216.23695  0.029205423  0.029691067            3 
  618000    1.1583649    -7.189966    215.50927  0.029060042   0.02968368            6 
  619000    1.1573025   -7.2253597    215.66404   0.02903393  0.029675626            1 
  620000    1.1685752   -7.1980609    216.87395  0.029149724  0.029668153            2 
  621000     1.178185   -7.1762367    216.65976  0.029074041  0.029660586            4 
  622000    1.1639015   -7.1704712    217.14447  0.029092239  0.029652863            3 
  623000     1.146825   -7.2163469    216.11377  0.028907674  0.029644639            2 
  624000    1.1623461    -7.200611    216.70456  0.028940246   0.02963635            2 
  625000    1.1319926   -7.2368472    217.25572   0.02896743  0.029627583            2 
  626000    1.1444684   -7.2133193    218.52031  0.029089498  0.029619166            1 
  627000    1.1528415   -7.1399029    218.67071  0.029063093  0.029611774            2 
  628000     1.141051   -7.1569881    219.28136  0.029097846  0.029604505            2 
  629000    1.1402398   -7.2111559    218.94321  0.029006785  0.029596692            2 
  630000    1.1777991   -7.1432572    219.54699  0.029040607  0.029589259            1 
  631000    1.1517165   -7.1874143    220.30692  0.029094945  0.029581979            3 
  632000    1.1253889   -7.1778017    219.89173  0.028994163  0.029574161            1 
  633000    1.1642467   -7.2121806    220.64596  0.029047651  0.029566816            2 
  634000    1.1464052   -7.2050783    221.48472  0.029112082   0.02955933            4 
  635000    1.1430848    -7.241905    220.73086  0.028967304  0.029551468            3 
  636000    1.1127258   -7.2144726    220.60875  0.028905759   0.02954312            3 
  637000    1.1354907   -7.2022037    221.40092  0.028964014  0.029535199            1 
  638000    1.1736413   -7.1888038    221.01184  0.028867795  0.029527678            3 
  639000     1.132951   -7.1766654    222.06408  0.028959843  0.029519893            2 
  640000    1.1633773    -7.203057    221.83446  0.028884695  0.029511667            9 
  641000    1.1472625   -7.1922669    222.15084  0.028880765  0.029503495            1 
  642000    1.1445934   -7.1666963    222.68063  0.028904546  0.029495422            4 
  643000    1.1509885   -7.2350712    222.21407  0.028799128  0.029487118            2 
  644000    1.1452428   -7.1703082    223.86612  0.028968183  0.029478626            2 
  645000    1.1708651   -7.1675164    223.90212  0.028927922  0.029470296            2 
  646000    1.1500867   -7.1612826    224.44692  0.028953421  0.029462245            1 
  647000     1.151582   -7.2188061    224.45882  0.028910203  0.029454104            1 
  648000    1.1465624   -7.2079316    224.03841  0.028811523   0.02944553            3 
  649000    1.1606032   -7.1835159    225.16662  0.028911996  0.029437069            2 
  650000    1.1362341   -7.2293402    225.16242  0.028866977  0.029428755            2 
  651000    1.1310575    -7.199508    225.46431  0.028861279  0.029420347            2 
  652000    1.1409403   -7.2606658    225.41421   0.02881061  0.029412086            4 
  653000    1.1220543   -7.2202714    225.26638  0.028747624  0.029403482            3 
  654000    1.1534456   -7.2130777    225.61307  0.028747842  0.029394304            2 
  655000    1.1652397   -7.2553241    225.18181  0.028649086  0.029385242            3 
  656000     1.141498   -7.2254468    226.17489  0.028731566  0.029376413            3 
  657000    1.1562035   -7.2040647    226.23607  0.028695595  0.029367838            2 
  658000    1.1366173   -7.2004303    227.34633  0.028792595  0.029358828            3 
  659000    1.1491717   -7.1833958    226.83655   0.02868444  0.029349927            4 
  660000     1.142826   -7.2166616    227.82736  0.028766081  0.029341157            3 
  661000    1.1423568    -7.268101    227.90113  0.028731862   0.02933187            2 
  662000    1.1652037   -7.1419315    228.46129  0.028758974  0.029322909            3 
  663000    1.1452023   -7.1845675    228.73296  0.028749743  0.029314382            2 
  664000     1.139576    -7.196558    229.03825   0.02874476  0.029305945            4 
  665000     1.150296   -7.2416689     227.7301  0.028537606  0.029296979            2 
  666000    1.1356105   -7.2303645    228.86129  0.028636297  0.029287732            7 
  667000    1.1497667   -7.1975997    230.69511  0.028822477  0.029279667            3 
  668000    1.1361204   -7.2127201    230.19672  0.028717155  0.029271603            4 
  669000    1.1403423   -7.1687255    230.34366  0.028692534  0.029263684            2 
  670000    1.1328888   -7.2167449    229.90317  0.028594921  0.029255354            1 
  671000    1.1456098   -7.2442057    230.35939  0.028608965  0.029246808            3 
  672000    1.1576049    -7.208368    230.93017  0.028637174  0.029238187            2 
  673000    1.1247616   -7.1897496    231.94135  0.028719831   0.02922998            3 
  674000    1.1397584   -7.2383793    231.40381  0.028610758  0.029222094            3 
  675000    1.1557891   -7.1925336    231.72851  0.028608458  0.029213553            4 
  676000    1.1443506   -7.2271765    231.98271  0.028597474  0.029205452            2 
  677000     1.170463   -7.2275716    232.53116  0.028622742  0.029196995            2 
  678000    1.1482301   -7.1774352    233.55352  0.028706185  0.029189087            3 
  679000    1.1302977   -7.2465738    233.45748  0.028652121  0.029181061            2 
  680000    1.1338416   -7.2469998    232.76961  0.028525688  0.029172645            2 
  681000    1.1530457   -7.2097601    234.30197  0.028671313  0.029164127            4 
  682000    1.1408739   -7.1917774    233.33634  0.028511283  0.029155461            9 
  683000    1.1183869   -7.2149419    233.94698  0.028544043  0.029146956            1 
  684000     1.124807   -7.1868719    235.00083  0.028630705  0.029138484            2 
  685000    1.1610899     -7.25188     234.5554   0.02853472  0.029129822            4 
  686000    1.1249585   -7.2282707     234.7614  0.028518149  0.029121348            4 
  687000    1.1399708   -7.2281825    235.12956  0.028521296  0.029112878            2 
  688000    1.1363422   -7.2321515    235.69591  0.028548439  0.029104642            2 
  689000    1.1204334   -7.2191774    236.40561  0.028592841  0.029096175            2 
  690000    1.1210212   -7.1421772    236.48272  0.028560715  0.029088078            1 
  691000    1.1348878   -7.2649571    236.64397  0.028538829  0.029079683            4 
  692000    1.1093614   -7.1903131    237.20861  0.028565584  0.029071237            1 
  693000    1.1474042    -7.182892    237.45175  0.028553601  0.029062537            1 
  694000     1.141169   -7.1907601     237.9043  0.028566799  0.029053605            5 
  695000      1.14616   -7.1823724    237.28124  0.028450988  0.029044563            4 
  696000    1.1059886   -7.2370877    236.72617   0.02834365  0.029035115            2 
  697000    1.1128312   -7.2292423    237.44853  0.028389351  0.029025705            3 
  698000    1.1362538    -7.212863    237.80105  0.028390765  0.029016228            3 
  699000    1.1290107   -7.2362748    237.78336   0.02834804  0.029006895            2 
  700000    1.1341445   -7.1905254    238.16346  0.028352792  0.028997523            1 
  701000    1.1430316   -7.1900192    238.53427  0.028356428  0.028988425            2 
  702000    1.1261557   -7.1989707    238.28468  0.028286405  0.028979475            3 
  703000    1.1481239   -7.1623838    240.38089  0.028494652  0.028970786            4 
  704000     1.123142   -7.2224709      239.265  0.028322088  0.028961924            2 
  705000    1.1435785   -7.1535222    241.24085  0.028515467  0.028953481            4 
  706000    1.1359479   -7.1720545    241.68101  0.028527031  0.028945157            3 
  707000    1.1265838   -7.2438335    240.31645  0.028325843  0.028936776            6 
  708000    1.1288494   -7.2543161    240.48722  0.028305934  0.028928186            2 
  709000     1.141423   -7.1962264    241.35804  0.028368364  0.028919062            1 
  710000     1.143603   -7.2576439    241.49336  0.028344291  0.028910232            2 
  711000    1.1566522   -7.2201032    242.29368  0.028398228  0.028901194            5 
  712000    1.1640477    -7.203972    242.74875  0.028411605  0.028892478            2 
  713000    1.1332917   -7.1915323    242.73054  0.028369629   0.02888402            3 
  714000    1.1270893   -7.2705348    242.00321  0.028245005  0.028875192            3 
  715000    1.1326828   -7.2098949     242.9559  0.028316538  0.028866371            6 
  716000    1.1134476   -7.2285259    243.84357  0.028380303  0.028857892            3 
  717000    1.1194459     -7.20371    243.84372  0.028340739  0.028849746            3 
  718000    1.1411034   -7.2579758    244.14352  0.028336064  0.028841767            5 
  719000    1.1317858   -7.2120942     244.5622  0.028345178   0.02883349            2 
  720000    1.1479503   -7.2470951     244.4998  0.028298588  0.028825016            4 
  721000    1.1090581    -7.225942    244.47745  0.028256755  0.028816288            4 
  722000    1.1234935   -7.2134799    245.17447  0.028298069  0.028807912            2 
  723000    1.1201889   -7.1919241    245.62797    0.0283112  0.028799558            2 
  724000    1.1475196   -7.1896552    246.78303  0.028405045  0.028791584            4 
  725000    1.1300038   -7.2316142    246.79273  0.028366981  0.028783725            2 
  726000    1.1157553   -7.2293006    246.65581  0.028312191  0.028775989            2 
  727000    1.1334445   -7.2398996    247.70267  0.028393245    0.0287683            7 
  728000    1.1618443   -7.2302338    247.96306   0.02838405  0.028760416            5 
  729000    1.1320726   -7.2539242    247.20179  0.028258093   0.02875245            2 
  730000     1.143196   -7.2330749    247.22259  0.028221757  0.028744419            5 
  731000     1.128845   -7.2363517    247.34333  0.028196914  0.028736512            1 
  732000    1.1444341   -7.2647403    246.97258  0.028116186  0.028728234            2 
  733000    1.1497346   -7.2171042    248.69923  0.028274128  0.028719819            5 
  734000    1.1273837   -7.2247107    248.49173   0.02821205  0.028711672            5 
  735000    1.1262038   -7.2195199    248.40443  0.028163767  0.028703223            3 
  736000    1.1246035   -7.2652546     248.3522  0.028119588  0.028694696            3 
  737000    1.1463502    -7.220125    249.18047  0.028175087  0.028686062            2 
  738000    1.1039939   -7.2271185    249.19073  0.028138068  0.028677682            3 
  739000    1.1345342   -7.2118423    249.87446  0.028177093  0.028670097            3 
  740000    1.1291554   -7.1974311    250.67755  0.028229454  0.028662064            5 
  741000    1.1126124   -7.1998956    250.59723  0.028182324  0.028653742            5 
  742000    1.1262873   -7.2902811    250.14515  0.028093571   0.02864567            2 
  743000    1.1327678   -7.2425821     250.6389  0.028111137  0.028637579            2 
  744000     1.142058   -7.2477794    251.59359  0.028180285   0.02862921            3 
  745000    1.1456279   -7.1722283    253.17085  0.028318887  0.028620889            3 
  746000    1.1343006   -7.2485754    251.27778  0.028069457  0.028612545            3 
  747000    1.1316831   -7.2321221    252.25796  0.028141227  0.028603988            5 
  748000    1.1527608   -7.2190267    251.93486   0.02806761  0.028595764            3 
  749000    1.1566287   -7.2185621    252.62271  0.028106665  0.028587551            2 
  750000     1.115876   -7.2403971    252.25659   0.02802851  0.028579342            6 
  751000    1.1592979   -7.2497677    252.98393  0.028071897  0.028571162            2 
  752000      1.12362    -7.232928     253.9686  0.028143683  0.028563091            2 
  753000     1.110132   -7.3125161     253.1776  0.028018769  0.028555029            5 
  754000    1.1585474   -7.2292562    255.04101  0.028187556  0.028547061            3 
  755000    1.1384387   -7.1955711    255.58783  0.028210577  0.028539654            4 
  756000    1.1251196   -7.2392813    255.21782  0.028132476  0.028532123            3 
  757000    1.1034814   -7.2339473    255.42185  0.028117773  0.028524414            3 
  758000    1.1274584   -7.2701315    255.40514  0.028078841  0.028516311            1 
  759000    1.1483274   -7.2331225    256.82392   0.02819762  0.028508824            3 
  760000    1.1273376   -7.2570754    256.18075  0.028089995  0.028501279            6 
  761000    1.1220786   -7.2572697    256.20521  0.028055761  0.028493527            3 
  762000    1.1033152   -7.2425533    257.50205  0.028160766  0.028485727            4 
  763000    1.1165319   -7.2204004    257.03625  0.028072985  0.028478003            3 
  764000    1.1290202   -7.2741028    257.03629  0.028036245  0.028470058            5 
  765000    1.1520187   -7.2616725    257.40895  0.028040191  0.028461944            4 
  766000    1.1270527   -7.2602382    257.88871  0.028055778  0.028454102            5 
  767000     1.121838   -7.2425382    258.46648  0.028081973  0.028446235            2 
  768000    1.1228003   -7.2470579    258.36694  0.028034607  0.028438898            4 
  769000    1.1346735   -7.2202228    259.68004  0.028140447  0.028431426            3 
  770000    1.1235124   -7.2760218    259.22535  0.028054691  0.028423966            3 
  771000    1.1247824   -7.2380424    258.80711  0.027973099  0.028416381            2 
  772000    1.1087105   -7.2105548    260.90763  0.028163604  0.028408878            5 
  773000    1.1310913   -7.2493194    260.37557  0.028069811   0.02840159            2 
  774000    1.1328167   -7.2468226     260.5825  0.028055825  0.028394462            2 
  775000     1.126609   -7.2530521    260.73579  0.028036107  0.028387537            2 
  776000    1.1304026   -7.2596554     260.7346   0.02799985  0.028380347            3 
  777000    1.1008403    -7.239115    261.13988  0.028007281  0.028373277            4 
  778000    1.1383195   -7.2549697    262.29513  0.028095022  0.028366182            2 
  779000    1.1122802   -7.2076484    262.03946  0.028031606  0.028359423            2 
  780000    1.1320189   -7.2591311    260.93788  0.027877979  0.028351882            4 
  781000    1.1253817   -7.2275778    262.39474  0.027997731  0.028344477            6 
  782000    1.1187117   -7.2338063    262.63223  0.027987237  0.028337219            9 
  783000    1.1215191   -7.3077338    261.90181  0.027873755  0.028329704            3 
  784000    1.1308671   -7.2557852    262.51517  0.027903398  0.028322371            5 
  785000      1.12846   -7.2345769     264.0253  0.028028164   0.02831543            2 
  786000    1.1202778   -7.2240407    264.47787  0.028040487  0.028308512           10 
  787000    1.0934588   -7.2230741    263.90989  0.027944715  0.028301493            2 
  788000    1.1511314   -7.2377743    263.67007  0.027883891  0.028294092            2 
  789000    1.0979948   -7.2772113    264.45786  0.027931755  0.028286626            2 
  790000    1.1179327   -7.1802311    266.11442  0.028071141  0.028279192            3 
  791000    1.1267888   -7.2821381    265.04293  0.027922769  0.028271571            3 
  792000    1.1430343   -7.3321935    263.74337  0.027750776  0.028263478            2 
  793000    1.1160837   -7.2724952    264.52127  0.027797528  0.028255509            2 
  794000    1.1303934   -7.2606572    264.82327  0.027794214  0.028247486            4 
  795000    1.1417409   -7.2741581    265.55219   0.02783566  0.028239487            4 
  796000    1.1057556   -7.2623959    265.99369  0.027846911   0.02823179            3 
  797000    1.1265899   -7.2145542    267.40835  0.027959886  0.028224322            2 
  798000    1.1013792   -7.2186039    267.03601  0.027885966  0.028216612            2 
  799000     1.121602   -7.2539355    266.80042  0.027826493  0.028208903            3 
  800000     1.114955   -7.2267466    267.86962  0.027903085  0.028201523            2 
  801000    1.1326577   -7.2352877    267.59353  0.027839526  0.028194066            2 
  802000    1.1330248   -7.2352302    268.11018  0.027858498  0.028186703            5 
  803000    1.1508001   -7.2635936    268.14383  0.027827297  0.028179161            6 
  804000    1.1211557     -7.29109    268.15681   0.02779403  0.028171441            5 
  805000    1.1153904   -7.2360755    268.26519  0.027770724   0.02816382            4 
  806000    1.1180733   -7.2420106    269.38341  0.027851883   0.02815646            4 
  807000    1.1095823   -7.2595703    269.33359  0.027812226  0.028149042            2 
  808000    1.1387382    -7.253703    270.21099  0.027868295  0.028141651            2 
  809000    1.1411662   -7.2517783    270.13935  0.027826468   0.02813421            2 
  810000    1.1204696   -7.2914417    269.80746  0.027757969  0.028126618            4 
  811000    1.1194732   -7.2540944    270.06338  0.027750039  0.028118863            2 
  812000    1.1226645   -7.2521121    270.08502  0.027718085  0.028110967            5 
  813000    1.1180658   -7.2425419    269.43535  0.027617399  0.028103702            3 
  814000    1.1277425   -7.2642377    270.54283   0.02769685  0.028095855            7 
  815000    1.1278575   -7.2618806    271.31655  0.027741979  0.028088034            2 
  816000    1.1166718    -7.280473    271.09694  0.027685553  0.028080603            1 
  817000     1.137884   -7.2820087    272.42624  0.027787255  0.028073193            4 
  818000    1.1328354   -7.2579696     272.0308  0.027712999  0.028065824            3 
  819000    1.1196491   -7.2530028    272.39634  0.027716355  0.028058219            2 
  820000    1.1288081   -7.3191841       272.38  0.027680894  0.028050238            5 
  821000    1.1147808   -7.2908719    272.45518  0.027654809  0.028042648            4 
  822000    1.0960154   -7.2890019    272.84993  0.027661185  0.028035165            6 
  823000    1.1205353   -7.2568898    273.10227  0.027653126  0.028027804            3 
  824000    1.1172486    -7.289246    273.50837  0.027660636  0.028020078            2 
  825000    1.1429707   -7.2679955    273.38852  0.027615002  0.028012319            1 
  826000     1.101873   -7.2457486    273.78341  0.027621409  0.028004645            3 
  827000    1.1065111   -7.2921701    272.52846  0.027461554  0.027996729            2 
  828000    1.1201047   -7.3103944    273.45306  0.027521443  0.027988686            4 
  829000     1.108203   -7.2862716    274.06251  0.027549508  0.027980406            3 
  830000    1.1401098   -7.2793944    273.51777  0.027461623  0.027971829            2 
  831000    1.1017035   -7.2916385    273.99761  0.027476696  0.027962991            2 
  832000    1.1373803   -7.2878593    274.04188  0.027448104  0.027954591            3 
  833000    1.0795236   -7.2668504     274.4132    0.0274523  0.027945944            3 
  834000     1.095678   -7.2699031    273.47449  0.027325589  0.027936989            2 
  835000    1.1416606   -7.2708858    274.71607  0.027416774  0.027928212            2 
  836000    1.0919453    -7.266299    275.25958  0.027438156  0.027919388            3 
  837000    1.0999533   -7.2355988    275.95017  0.027474131   0.02791096            3 
  838000    1.1079683   -7.2860914    275.47834  0.027394425   0.02790271            5 
  839000    1.1123569   -7.2739101    277.03847  0.027516733  0.027894285            4 
  840000    1.1167042   -7.3110849     276.2208  0.027402857  0.027885718            2 
  841000    1.1173981   -7.2922048    276.23338   0.02737152  0.027877153            3 
  842000    1.0973489   -7.2914981    277.29477  0.027444059  0.027868872            3 
  843000    1.1001139   -7.2639472    277.66391  0.027447994  0.027860678            2 
  844000    1.1219021   -7.3160638    276.77484  0.027327689  0.027852316            2 
  845000    1.1280266   -7.2753742    277.76682  0.027393178  0.027843897            5 
  846000    1.1093022   -7.3005533    278.64202  0.027447008    0.0278357            4 
  847000     1.108333   -7.2811202    279.19845  0.027469347  0.027827773            5 
  848000    1.1255325   -7.3186598    278.45982  0.027364369  0.027819485            3 
  849000    1.0967816   -7.2900907     278.8122  0.027366726  0.027811144            5 
  850000    1.1238812   -7.2145778     280.5579  0.027505676   0.02780315            4 
  851000    1.1342713   -7.3237687    278.72901  0.027294263  0.027795165            2 
  852000    1.1088322   -7.2845797    279.96348   0.02738297  0.027787184            2 
  853000    1.1084347    -7.268277    280.67735  0.027420608  0.027779219            5 
  854000    1.1040869   -7.3065226    279.63921  0.027287198  0.027771216            2 
  855000    1.0992993   -7.2879289    280.69401   0.02735809  0.027763216            3 
  856000    1.1129611   -7.2976376     281.4529  0.027400009  0.027754859           12 
  857000    1.0968855   -7.2956328    280.91022  0.027315268  0.027746615            4 
  858000    1.0974929   -7.2827081    280.56642  0.027250041  0.027738097            2 
  859000    1.0983713     -7.32594    280.64635  0.027226072  0.027729604            7 
  860000    1.1131318   -7.3117963    281.74485  0.027300858  0.027721239            1 
  861000    1.0842988   -7.3076992    282.64427  0.027356202  0.027713252            3 
  862000    1.1015086    -7.279737    282.07211  0.027269152  0.027705093            2 
  863000    1.1210973   -7.2536686    282.49768  0.027278648  0.027696811            2 
  864000    1.1144968   -7.3201257    282.49807  0.027247113   0.02768859            1 
  865000    1.1199815   -7.3220667    282.62068  0.027227426  0.027680116            2 
  866000    1.1106235   -7.2812093    281.92325  0.027128873  0.027671435            3 
  867000    1.0816219   -7.3049449     283.2332  0.027223491  0.027662691            3 
  868000    1.1323343   -7.2714337     283.2452   0.02719328  0.027654099            6 
  869000     1.096658   -7.2589749    283.67146  0.027202863  0.027645615            4 
  870000    1.1069998     -7.29988    283.38068  0.027143743  0.027637095            6 
  871000    1.1391834   -7.2940699    284.04937  0.027176557  0.027628643            3 
  872000    1.1198604   -7.2801637    284.06735  0.027147109  0.027620089            2 
  873000    1.1461663   -7.3090586    284.86813  0.027192452  0.027611157            4 
  874000    1.0942708   -7.2853449    284.08187  0.027086372  0.027602466            2 
  875000    1.1189549    -7.293678    285.04396  0.027147044   0.02759407            3 
  876000     1.108942   -7.3097918    284.55303  0.027069352   0.02758556            2 
  877000    1.1059768    -7.262714    284.49456  0.027032931  0.027577046            5 
  878000    1.1231971   -7.2700301    285.40244   0.02708831  0.027568603            4 
  879000    1.1069138   -7.3015843    285.28155  0.027046032  0.027559675            6 
  880000    1.1028015   -7.3121958    284.96374  0.026985203  0.027550668            3 
  881000    1.1179079    -7.292515    285.45149  0.027000708  0.027541853            4 
  882000    1.1036679   -7.2687811    285.42966  0.026968033  0.027532862            3 
  883000    1.1215365    -7.283646    287.14138  0.027099036  0.027523843            4 
  884000    1.1005533   -7.3323391    286.21232    0.0269808  0.027514948            4 
  885000    1.1165656   -7.2939658    286.29876  0.026958452  0.027505866            3 
  886000    1.1159768   -7.3139409     286.3362  0.026931546  0.027496602            2 
  887000    1.1133621   -7.2928645    287.43488  0.027004404  0.027487467            3 
  888000    1.1218293   -7.2676548    287.55967  0.026985705  0.027478466            4 
  889000    1.1234254   -7.3190803     286.6987  0.026874644  0.027469359            4 
  890000    1.0871887   -7.3502366    287.40106  0.026910211  0.027460076            3 
  891000    1.1049129   -7.2889232    288.43994  0.026977173  0.027450833            2 
  892000    1.1047679   -7.3329748    287.23576  0.026834432  0.027441698            5 
  893000    1.1030067   -7.2799746    289.07165  0.026975705   0.02743243            4 
  894000    1.0954355   -7.2788387    288.67808  0.026908845  0.027423279            4 
  895000    1.0952612   -7.2957671    287.88503  0.026804937  0.027414028            9 
  896000    1.0953749   -7.3419235    289.01593  0.026880202  0.027404901            3 
  897000    1.1101678   -7.3040996    289.85212  0.026927919  0.027395922            9 
  898000    1.1107278   -7.2773665    290.51204  0.026959173  0.027387131            1 
  899000     1.105837   -7.2987912    289.78205  0.026861517  0.027378457            2 
  900000      1.10329   -7.3289817    290.61147   0.02690847  0.027369336            4 
  901000    1.0788435   -7.2837992    290.45038  0.026863705  0.027360409            5 
  902000    1.0912433    -7.350526    289.65749   0.02676067  0.027351315            4 
  903000     1.118763   -7.3197308    290.69332  0.026826626  0.027342328            2 
  904000    1.1209633   -7.2770177    291.93942   0.02691182  0.027333375            1 
  905000     1.108129   -7.3358386    291.50181  0.026841787  0.027324313            4 
  906000    1.1160967   -7.3011027     291.9079  0.026849512  0.027315379            4 
  907000    1.1400698   -7.3141228    291.98866   0.02682733  0.027306526            5 
  908000    1.1053021   -7.2620857     292.7933  0.026871632   0.02729777            2 
  909000    1.0904733   -7.2792795    291.92874  0.026762811  0.027288904            3 
  910000    1.1193635   -7.3123897    293.04614  0.026835727  0.027279998            5 
  911000    1.1224419   -7.3095971    293.04907  0.026806538    0.0272712            4 
  912000    1.1131925   -7.3043525    292.45374  0.026722747  0.027262294            7 
  913000    1.1009787   -7.2620214    294.00653  0.026835208  0.027253554            6 
  914000     1.089632   -7.2780766     294.1662  0.026820405  0.027244917            1 
  915000     1.076138   -7.3537113    294.09354  0.026784475  0.027236273            3 
  916000     1.112442    -7.279667    294.44596  0.026787296  0.027227437            1 
  917000    1.1221808   -7.2835474    294.06241  0.026723229   0.02721866            2 
  918000    1.0994612   -7.2652869      295.188  0.026796296  0.027209777            6 
  919000    1.1149783   -7.2750004    294.86702  0.026738032  0.027200863            5 
  920000    1.1158139   -7.3467929    294.27056  0.026654942  0.027191965            2 
  921000    1.1235651   -7.3420242    295.54354  0.026741182  0.027183187            1 
  922000    1.0999905   -7.3517438    294.17146  0.026588165  0.027173943            4 
  923000    1.0979597   -7.3258663    295.30153  0.026661387  0.027164834            2 
  924000    1.1214853   -7.3201367    295.96996  0.026692818  0.027155804            2 
  925000    1.1048173   -7.3185189    294.91615  0.026569023  0.027146786            3 
  926000    1.0910403   -7.3550671    295.91048  0.026629813  0.027137583            6 
  927000    1.1056208   -7.2929318    295.21501  0.026538566  0.027128249            9 
  928000    1.1068217   -7.3061098    296.51932  0.026627094   0.02711925            3 
  929000    1.1217525   -7.2828725    298.05245  0.026735957  0.027110436            4 
  930000    1.0630843   -7.3073064    298.18061  0.026718693  0.027101729            5 
  931000    1.0946351   -7.2895831    297.34198  0.026614928  0.027092892            3 
  932000    1.1123449   -7.2804302    298.42928  0.026683591  0.027083857            5 
  933000    1.0915478   -7.3471019    296.57561  0.026489426   0.02707452            4 
  934000    1.1078596    -7.339632    297.35457  0.026530565  0.027065226            2 
  935000    1.1087033    -7.288845    298.03513  0.026562846  0.027055957            2 
  936000    1.0875508   -7.3084912    298.00527  0.026531809  0.027046765            5 
  937000    1.0974105   -7.3122994    298.17201  0.026518322  0.027037578            6 
  938000    1.1105759   -7.3181447    299.08392  0.026571066   0.02702827            2 
  939000    1.0937735   -7.3598735    297.35383  0.026389229   0.02701895            4 
  940000    1.1057303   -7.3529467    299.27493  0.026531466  0.027009604            3 
  941000    1.1052913   -7.3523066    299.16695  0.026493708   0.02700044            3 
  942000    1.0968994   -7.3784859    299.02404   0.02645294  0.026991281            3 
  943000    1.0796644   -7.3337911    299.09521  0.026431178  0.026982038            3 
  944000    1.1118955   -7.3408385    300.48168  0.026525572  0.026972826            4 
  945000     1.080117   -7.3037492    302.00443  0.026631784  0.026963909            2 
  946000    1.1162218   -7.3123615     300.6303  0.026482584  0.026955185            2 
  947000    1.0601202   -7.3302699    301.00583  0.026487665  0.026946234            2 
  948000    1.0742108   -7.3005834    301.95766  0.026543395  0.026937144            8 
  949000    1.1003193   -7.3250845    301.41299  0.026467596  0.026928171            3 
  950000    1.0924692   -7.3368042    301.35388  0.026434551  0.026919268            3 
  951000    1.0983512   -7.3398298    301.00733  0.026376387   0.02691048            2 
  952000    1.1048752   -7.3551374    301.50423  0.026392177  0.026901202            3 
  953000    1.1233298   -7.3086129    302.70614  0.026469582  0.026891978            4 
  954000    1.1124246   -7.3833306    301.19955  0.026310233  0.026882779            1 
  955000    1.0915462   -7.3422045    301.90554  0.026344288  0.026873405            2 
  956000    1.0785014   -7.3546646     301.9997  0.026324939  0.026863845            3 
  957000    1.0981716   -7.3427272    302.39431  0.026331793  0.026854414            3 
  958000    1.0887539   -7.2940756    304.06947  0.026450023   0.02684507            2 
  959000    1.0848513   -7.2952952    303.42255  0.026366228  0.026835814            5 
  960000    1.0925737   -7.3637869    301.80686  0.026198512  0.026826283            2 
  961000    1.0844976   -7.3150542    303.71599  0.026336801   0.02681671            4 
  962000    1.1006359   -7.3138575    303.78999  0.026315834  0.026807516            2 
  963000    1.0767232   -7.3602899    302.60053  0.026185577  0.026798022            4 
  964000    1.1145403   -7.3603022    302.83676  0.026178834  0.026788508            1 
  965000    1.1016107   -7.2910512    303.87691  0.026241529  0.026779015            3 
  966000    1.0831839   -7.3235994    305.51055  0.026355292   0.02676954            3 
  967000    1.0935952   -7.3233962    304.60977  0.026250411   0.02675993            2 
  968000    1.0948146    -7.313039    304.68972  0.026230175  0.026750699            3 
  969000    1.0891294   -7.3112484    305.27144  0.026253134  0.026741424            2 
  970000    1.0935054   -7.3891358    303.76894  0.026096988   0.02673205            1 
  971000    1.0791471   -7.3388746    305.13866  0.026187664  0.026722599            3 
  972000    1.0984874   -7.3470986    305.52737  0.026194047  0.026713242            2 
  973000    1.0772188   -7.3401573     306.2686   0.02623061  0.026704125            5 
  974000     1.114982   -7.3502836    306.40651  0.026215479  0.026694962            2 
  975000    1.0866578   -7.3249538    306.40963  0.026188857  0.026685726            8 
  976000    1.0851606   -7.2995295     307.7253  0.026274359  0.026676664            3 
  977000    1.0912177   -7.3592201    307.53172  0.026230955  0.026667323            5 
  978000    1.1175447   -7.3119862     308.0885  0.026251577  0.026658064            2 
  979000    1.0965692   -7.3399181    307.45808  0.026171099  0.026648911            5 
  980000    1.0639402   -7.3088285    308.29955  0.026215948  0.026639847            6 
  981000    1.0614361   -7.3898352     308.3972  0.026197519  0.026630735            5 
  982000    1.0917005   -7.3552404    307.49826  0.026094557  0.026621715            8 
  983000    1.1066549   -7.3178823    309.50989  0.026238546   0.02661256            3 
  984000    1.0877535   -7.3405085    308.36373  0.026114815  0.026603608            5 
  985000    1.1001971   -7.3020717    309.79983  0.026209799  0.026594643            2 
  986000    1.0878669   -7.3393055    309.43979  0.026152789  0.026585754            4 
  987000     1.082819   -7.3788145    308.65419  0.026059962  0.026576807            4 
  988000    1.1011993   -7.3730652    309.29837  0.026087919  0.026567541            3 
  989000    1.0836021   -7.3346037    310.39872  0.026154257  0.026558653            7 
  990000    1.1173474   -7.3389168    310.03242  0.026097005  0.026549526            3 
  991000    1.0896918   -7.3129627    310.71412  0.026127995  0.026540914            3 
  992000    1.1073182   -7.3111174    311.05588  0.026130366   0.02653225            3 
  993000    1.0783012   -7.3385392     311.1845  0.026114845  0.026523373            3 
  994000     1.110995   -7.3239251    310.69851  0.026047829  0.026514498            5 
  995000    1.1110785   -7.3318454    311.87709   0.02612036  0.026505581            1 
  996000    1.0869643   -7.3401005    310.89214  0.026011725  0.026496888            4 
  997000    1.1019007    -7.333272    312.19956  0.026094915  0.026488217            3 
  998000    1.0780593   -7.3662365    312.57648  0.026100241  0.026479312            4 
  999000    1.0967283   -7.3303127    312.99905  0.026109364  0.026470281            7 
 1000000    1.0854989    -7.319859    312.94935  0.026079113   0.02646145            2 
 1001000    1.1032041   -7.3262621    312.88112  0.026047379  0.026452519            2 
 1002000    1.0913589   -7.3304851    314.09692  0.026122498  0.026443607            2 
 1003000    1.0831945   -7.3715084    312.15854  0.025935405  0.026434641            3 
 1004000    1.0776509   -7.3848496    312.89534  0.025970729  0.026425676            3 
 1005000    1.0895081   -7.3492475    313.97063  0.026034049  0.026416764            4 
 1006000    1.0739018   -7.3518126    313.05035  0.025931937  0.026407714            2 
 1007000    1.0740962   -7.2999004     314.4607  0.026022898  0.026398973            3 
 1008000    1.0967378   -7.3520195    314.37822  0.025990263  0.026390208            5 
 1009000    1.1112201   -7.3379999    315.16194  0.026029232  0.026381541            4 
 1010000     1.120838   -7.3336216    314.48478  0.025947589   0.02637286            5 
 1011000    1.1189877   -7.3171863    314.48294  0.025921772   0.02636417            2 
 1012000    1.0849984   -7.3773579    314.72622  0.025916191  0.026355362            5 
 1013000    1.1079095   -7.3488282    314.34974  0.025859636  0.026346686            3 
 1014000    1.0929553   -7.3435724    315.70195  0.025945262  0.026337964            2 
 1015000    1.0758366   -7.3475194     316.5178  0.025986683  0.026329186            2 
 1016000    1.0833838   -7.3928392    316.54268  0.025963146  0.026320341            7 
 1017000    1.0956986   -7.3621124    316.66757  0.025947851  0.026311692            3 
 1018000    1.0822681   -7.3609461    316.82539   0.02593528   0.02630334            3 
 1019000    1.0841488   -7.3854492     316.5506  0.025887357  0.026294927            4 
 1020000    1.0840647   -7.3487995    317.69871  0.025955777  0.026286352            3 
 1021000    1.0726203   -7.3753613     317.6349  0.025925147  0.026277906            3 
 1022000    1.0950078   -7.3481117     318.0097  0.025930341  0.026269303            5 
 1023000    1.0778934   -7.3419165    318.54935  0.025948954  0.026260846            2 
 1024000    1.0996898   -7.3607756    318.95161  0.025956348  0.026252425            3 
 1025000    1.0985047   -7.3690611    318.61937  0.025904014  0.026243704            8 
 1026000    1.0748792   -7.3926425    319.18638  0.025924819  0.026234972            3 
 1027000    1.0819541   -7.3610814    318.92618  0.025878463  0.026226432            6 
 1028000    1.0960168   -7.3394412    319.27566  0.025881619  0.026218098            4 
 1029000     1.083103   -7.3495542    319.52966  0.025877038   0.02620943            3 
 1030000    1.0578976   -7.3716801    319.76826  0.025871219  0.026200845            5 
 1031000     1.095089    -7.347103    319.24787  0.025804063  0.026192229            3 
 1032000    1.1046761   -7.3476673    320.41125  0.025873001  0.026183821            5 
 1033000    1.0820947   -7.3705595     320.8523  0.025883535  0.026175394            2 
 1034000      1.06171   -7.3651848    319.83491  0.025776508   0.02616692            4 
 1035000    1.0810923    -7.330857    320.60715   0.02581378  0.026158378            3 
 1036000    1.0864624   -7.3635218    319.47842  0.025698071  0.026149953            4 
 1037000    1.1017232   -7.3886038    321.25509  0.025816063  0.026141388            4 
 1038000    1.0758817   -7.3818382    322.12433  0.025860977  0.026132862            2 
 1039000    1.0743779   -7.3734114    321.54037   0.02578925  0.026124328            2 
 1040000    1.0726843   -7.3849184    321.71413  0.025778376  0.026115729            3 
 1041000    1.0914759   -7.3250174     323.0918  0.025863897  0.026107272            2 
 1042000    1.0815732   -7.3921424    321.15103  0.025683864  0.026098938            3 
 1043000    1.0949538   -7.3539287    323.09921  0.025814894  0.026090722            4 
 1044000    1.0475642   -7.3960491    321.97275  0.025700251  0.026082378            4 
 1045000     1.083906   -7.3622082    323.14466  0.025769111  0.026073956            3 
 1046000    1.0990514   -7.3608431    323.94258  0.025808045  0.026065579            4 
 1047000    1.1022341   -7.3736074    323.56567  0.025753396  0.026057249            2 
 1048000    1.0950519   -7.3496362    324.15405  0.025775609  0.026048792            4 
 1049000    1.0706621   -7.3637346     323.4079  0.025691762  0.026040471            2 
 1050000    1.0979355   -7.3610302    323.62651  0.025684643  0.026032197            8 
 1051000    1.0851273   -7.3829008     323.6515  0.025662187  0.026023806            3 
 1052000    1.0761062   -7.3267813    324.39693  0.025696842  0.026015392            3 
 1053000    1.0795589   -7.3289007     325.6386  0.025770702  0.026007023            2 
 1054000    1.0812027   -7.3579084    324.95362  0.025692096   0.02599863            3 
 1055000    1.0908491   -7.3603055    324.66216   0.02564472  0.025990055            3 
 1056000    1.0833231   -7.3612255    324.65682  0.025620014   0.02598143            7 
 1057000     1.094221   -7.3875961    324.94162   0.02561823  0.025972876            2 
 1058000    1.0820721   -7.4025804     323.6732  0.025494108  0.025964125            4 
 1059000    1.0823667   -7.3731591     326.2724  0.025674567   0.02595522            4 
 1060000    1.0841152   -7.3795829    326.66245   0.02568101  0.025946554            2 
 1061000    1.0614437   -7.3766162    325.73146  0.025583684  0.025937969            5 
 1062000     1.089882   -7.3674574     326.4603  0.025616784  0.025929112            2 
 1063000    1.0818417   -7.4112688    325.43941  0.025512654  0.025920261            1 
 1064000    1.1122355   -7.4197819    325.72587  0.025511112  0.025911409            3 
 1065000    1.0766489    -7.392708    326.34782  0.025535823  0.025902555            2 
 1066000    1.0933738   -7.3915193    326.65409   0.02553581  0.025893843            5 
 1067000    1.0706759   -7.3617791    328.52916  0.025658322  0.025885316            2 
 1068000    1.0774442   -7.3716471    328.45922  0.025628841  0.025876957            4 
 1069000    1.0865839   -7.3721246    327.63258  0.025540426  0.025868479            3 
 1070000    1.0868849   -7.3719233    327.42997  0.025500777  0.025860033            4 
 1071000    1.0856333    -7.356204    327.84105  0.025508952  0.025851565            2 
 1072000    1.0799924   -7.3734367    328.05907  0.025502104  0.025843142            3 
 1073000    1.0648464   -7.3369521    329.59698  0.025597777  0.025834627            6 
 1074000    1.0874571   -7.3949982    328.96444  0.025524864   0.02582604            4 
 1075000     1.081403   -7.3539711    330.26299  0.025601782  0.025817476            3 
 1076000    1.0869814   -7.3795119    328.45472  0.025437943   0.02580896            3 
 1077000    1.0915529   -7.4318402    328.85117  0.025444999  0.025800452            5 
 1078000    1.0692188   -7.4208146    328.71302  0.025410716  0.025791946            4 
 1079000    1.0794457   -7.4006858    329.83253  0.025473628  0.025783429            5 
 1080000    1.0778555   -7.3462631    330.51019   0.02550233  0.025775121            3 
 1081000    1.0632809   -7.3683848    331.26276  0.025536753  0.025766997            1 
 1082000    1.0721998     -7.44259    330.32876  0.025441217  0.025758712            2 
 1083000    1.0739331   -7.3535814    331.82165  0.025532599  0.025750468            2 
 1084000    1.0855875   -7.4150686    330.43631  0.025402545  0.025742455            5 
 1085000    1.0909551   -7.4151017    330.73428  0.025402019  0.025734216            5 
 1086000    1.0763475   -7.4388262    331.21171  0.025415263  0.025725886            2 
 1087000    1.0821598   -7.4056523    332.44093  0.025486118  0.025717594            4 
 1088000    1.0819838   -7.4092857    332.77684  0.025488422  0.025709637            1 
 1089000    1.0818451   -7.3992596    332.57292  0.025449413  0.025701739            2 
 1090000    1.0573805   -7.3770345    333.09088  0.025465664  0.025693683            3 
 1091000    1.0690691   -7.3752226    332.49979  0.025397173   0.02568557            3 
 1092000     1.064618   -7.3913209    333.85048   0.02547699  0.025677502            2 
 1093000    1.0853881   -7.3987071     333.6025  0.025434774  0.025669599            4 
 1094000    1.0774607   -7.4223121    333.87144  0.025432011   0.02566147            4 
 1095000    1.0705933   -7.3646134    335.15485  0.025506457   0.02565354           12 
 1096000    1.1067211   -7.4009496    333.67106  0.025370367  0.025645582            3 
 1097000    1.0769134   -7.3857501    334.74451  0.025428784  0.025637405            7 
 1098000    1.0570104   -7.3970501    334.29192  0.025371275  0.025629307            2 
 1099000    1.0791316   -7.4315433    334.53256  0.025366436  0.025621091            2 
 1100000    1.0582897   -7.3608741    335.44987  0.025412869  0.025612841            3 
 1101000    1.0981131   -7.3936589     334.8572  0.025344929  0.025604666            2 
 1102000    1.0534805   -7.3770189    334.73561  0.025312736  0.025596368            5 
 1103000    1.0799808   -7.3968693     335.7664  0.025367664  0.025588131            3 
 1104000     1.068218    -7.360735    336.13843  0.025372768  0.025580076            3 
 1105000    1.0835222   -7.3967034     336.1739  0.025352481  0.025572174            2 
 1106000    1.0698437   -7.3950326    336.20629  0.025331999  0.025564236            3 
 1107000    1.0614726    -7.405526    335.83985   0.02528153  0.025556329            2 
 1108000    1.0944079   -7.3863835    336.71177  0.025324291  0.025548276            3 
 1109000    1.0732434   -7.4056184    336.82683  0.025310102  0.025540253            5 
 1110000    1.0897715    -7.389194    336.86388  0.025290081  0.025532126            5 
 1111000    1.0974463    -7.367762    337.27527  0.025298175  0.025524154            6 
 1112000    1.0699933   -7.4172101    336.48422  0.025216143  0.025516287            5 
 1113000    1.0690138   -7.3800328    338.49557  0.025344083  0.025508411            4 
 1114000    1.0790692   -7.3608605    338.19253  0.025298663  0.025500745            2 
 1115000    1.0638776   -7.4119382    337.97242  0.025259523  0.025492798            1 
 1116000    1.0780413   -7.4056175    338.97914  0.025312063  0.025485024            2 
 1117000    1.0808913   -7.4299521    338.65115  0.025264932   0.02547725            3 
 1118000    1.0639532   -7.3737797    341.02697  0.025419422  0.025469675            2 
 1119000     1.083732   -7.3663706    339.85177  0.025309187  0.025461972            3 
 1120000    1.0465718   -7.3640635    340.03921  0.025300536  0.025454229            3 
 1121000    1.0664756   -7.3816571    339.52255  0.025239559  0.025446437            5 
 1122000    1.0675729   -7.3873599    340.27635   0.02527305  0.025438606            3 
 1123000    1.0782676   -7.4239021    338.72932  0.025135747   0.02543065            3 
 1124000    1.0237484   -7.3979676    340.63465  0.025254645  0.025422816            6 
 1125000    1.0479261   -7.4106731    339.70387   0.02516325  0.025414963            4 
 1126000    1.0910636   -7.4317543    340.46449  0.025197194   0.02540702            4 
 1127000    1.0682824   -7.4418201    340.58217  0.025183538  0.025399153            3 
 1128000    1.0647092   -7.3788122     341.4677  0.025226633  0.025391468            2 
 1129000    1.0815758   -7.3799204    340.58791  0.025139349  0.025383833            2 
 1130000     1.089429   -7.3806713    342.40971  0.025251454  0.025376103            3 
 1131000    1.0702218    -7.443919    341.34572  0.025150731   0.02536858            2 
 1132000    1.0831874   -7.3905521    342.60798  0.025221435  0.025360922            2 
 1133000    1.0791103   -7.4524805    342.49411  0.025190799  0.025353076            2 
 1134000    1.0679455   -7.4219952    342.15734  0.025143838  0.025345465           10 
 1135000    1.0604207   -7.4201024    343.24751  0.025201726  0.025337701            4 
 1136000    1.0594097   -7.4162528    343.57918  0.025203872  0.025330195            4 
 1137000    1.0521993   -7.3943209    345.03639  0.025288507  0.025322925            2 
 1138000    1.0741421   -7.4128442    343.78981  0.025175001  0.025315499            4 
 1139000    1.0521917   -7.3582655    344.44407  0.025200766  0.025308044            4 
 1140000    1.0875512   -7.4093195     343.2432  0.025090877  0.025300659            4 
 1141000    1.0689848   -7.3822794    346.04057  0.025273194  0.025293056            7 
 1142000    1.0723121   -7.4137426     344.2143  0.025117798  0.025285582            6 
 1143000    1.0662814   -7.4325846    343.95874   0.02507719  0.025277789            4 
 1144000    1.0593069   -7.4513758    344.61153  0.025102821  0.025270215            2 
 1145000    1.0674476   -7.4428734    344.56476  0.025077494  0.025262523            5 
 1146000    1.0732174   -7.3841731    346.12329  0.025168942  0.025254939            3 
 1147000    1.0630305   -7.3923133    346.14012  0.025148222  0.025247549            7 
 1148000    1.0500386   -7.3975309    345.83995  0.025104526  0.025239889            4 
 1149000      1.07307   -7.3649757    346.91127  0.025160377  0.025232355            2 
 1150000    1.0684504   -7.4465757    346.27714  0.025092547  0.025224687            3 
 1151000    1.0519933   -7.4372867     345.3543  0.025003931  0.025216928            3 
 1152000    1.0454077   -7.4569492    346.53117  0.025067359  0.025209207           10 
 1153000    1.0516987   -7.3899516    346.65957  0.025054898  0.025201411            4 
 1154000    1.0715746   -7.3781805    347.13633  0.025067615  0.025193818            5 
 1155000    1.0534284   -7.4357936    347.20838  0.025051109  0.025186148            2 
 1156000    1.0611379   -7.4344613    346.10212  0.024949692  0.025178485            2 
 1157000    1.0584412   -7.3871232    347.53911  0.025031627   0.02517077            2 
 1158000    1.0554457    -7.409869    347.50458  0.025007526  0.025163217            4 
 1159000    1.0597764   -7.4180124    348.93376  0.025088709  0.025155698            5 
 1160000    1.0570479   -7.4284808    347.53533  0.024966619  0.025148255            8 
 1161000     1.079571   -7.3975325    348.95172  0.025046779  0.025140814            5 
 1162000    1.0767034    -7.402717    349.10958  0.025036545  0.025133104            3 
 1163000    1.0910336   -7.4839751    347.86874  0.024926107  0.025125557            3 
 1164000    1.0700781   -7.4642637    348.19606  0.024928126  0.025117838            4 
 1165000    1.0699352   -7.3847829    348.99528  0.024963897  0.025110179            5 
 1166000    1.0689051    -7.439375    348.72635  0.024923267  0.025102503            6 
 1167000    1.0806999    -7.450232    349.15295  0.024932373  0.025094891            6 
 1168000    1.0538475   -7.4393171    349.13739  0.024909917  0.025087173            6 
 1169000    1.0560518   -7.4205906    349.83665  0.024938455  0.025079643            5 
 1170000    1.0613888   -7.4460786    350.12192  0.024937459   0.02507208            3 
 1171000    1.0467885   -7.4389678    351.46229  0.025011549  0.025064435            6 
 1172000    1.0845685   -7.4104404    350.27726  0.024905948  0.025056957            2 
 1173000     1.050434   -7.4355625    351.11036  0.024943902  0.025049532            6 
 1174000    1.0651655   -7.4185945    352.93124  0.025051905  0.025042029            5 
 1175000     1.065716   -7.4113402     351.7711  0.024948305  0.025034721            4 
 1176000    1.0491096   -7.4344997    351.48995  0.024907167  0.025027289            3 
 1177000    1.0866362   -7.4021932     351.6263   0.02489566  0.025019988            7 
 1178000    1.0512443   -7.4181313    352.69519  0.024950141  0.025012776            9 
 1179000    1.0753727   -7.4424242    352.81505   0.02493745  0.025005256            2 
 1180000    1.0855367    -7.399853    352.41414  0.024888004   0.02499777            2 
 1181000     1.069365   -7.4544377    351.74119  0.024819446  0.024990177            5 
 1182000    1.0266936   -7.4568915    351.26295  0.024764732  0.024982458            4 
 1183000    1.0600946   -7.4743994    351.82399  0.024783319  0.024974755            5 
 1184000    1.0502542   -7.4304953     353.4283  0.024875303  0.024967297            2 
 1185000    1.0531845   -7.4336938    353.44658  0.024855596  0.024959794            9 
 1186000    1.0582882   -7.3939389    353.54022  0.024841219  0.024952291            7 
 1187000    1.0390207   -7.4606186    353.84363  0.024841592  0.024944891            2 
 1188000    1.0595934   -7.4363084    353.69611  0.024810333  0.024937417            3 
 1189000    1.0640536   -7.4422765    354.30083   0.02483185    0.0249299            7 
 1190000    1.0418413    -7.434588    354.06577  0.024794522  0.024922277            2 
 1191000    1.0560785   -7.4202308    354.33455   0.02479251  0.024914472            2 
 1192000    1.0652123    -7.448302    354.12366  0.024756967  0.024906648            4 
 1193000    1.0592038    -7.460767    354.09048  0.024733898  0.024899068            4 
 1194000    1.0816882   -7.4270505    354.17262  0.024718916  0.024891414            2 
 1195000    1.0769286   -7.4369012    355.66052  0.024801989   0.02488381            3 
 1196000    1.0687517   -7.4783844    354.27751  0.024684888  0.024876092            4 
 1197000    1.0666714   -7.4620902    354.63383  0.024689072  0.024868638            2 
 1198000    1.0421488   -7.4286913    356.29975  0.024784346  0.024861208            4 
 1199000    1.0720558   -7.4228246    356.11054  0.024750524  0.024853958            1 
 1200000    1.0431831   -7.4226321    356.58544  0.024762878   0.02484677            2 
 1201000    1.0550958   -7.4348603    357.15413  0.024781719  0.024839617            1 
 1202000    1.0514197   -7.4458461    356.39826  0.024708698  0.024832351            5 
 1203000    1.0645757   -7.4538917    357.47245  0.024762569  0.024825095            4 
 1204000    1.0482822   -7.4442435    358.23936  0.024795083  0.024817874            5 
 1205000    1.0430231   -7.4367344    357.33501  0.024711965    0.0248107            3 
 1206000    1.0576465   -7.4369398    357.85248   0.02472723  0.024803325            3 
 1207000     1.077019   -7.4485317    357.14494  0.024657895  0.024795993            9 
 1208000    1.0471118   -7.4456952    358.07687  0.024701771  0.024788699            3 
 1209000    1.0390756   -7.4266475    358.67339  0.024722456   0.02478148            7 
 1210000    1.0623884   -7.4197804    359.97847  0.024791906  0.024774246            3 
 1211000    1.0644239   -7.4548789    358.43539  0.024665249  0.024766946            9 
 1212000    1.0599603   -7.4971943    357.94454  0.024611148  0.024759651            8 
 1213000    1.0641333   -7.4593908    358.96972  0.024661289  0.024752134            6 
 1214000    1.0610282   -7.4868771    358.72759  0.024624354  0.024744787            3 
 1215000    1.0620756   -7.4376644    360.70971  0.024740035  0.024737624            3 
 1216000    1.0586236   -7.4588336    360.51425  0.024706295  0.024730312            5 
 1217000    1.0683357   -7.4371013    360.72736  0.024700586  0.024723178            4 
 1218000    1.0497173   -7.4562892    361.06006   0.02470307  0.024716084            3 
 1219000    1.0612341   -7.4735932    359.97055  0.024608323  0.024708909            2 
 1220000    1.0351058   -7.4544273    361.16729  0.024669897  0.024701725            5 
 1221000     1.065393   -7.4368938     360.4622   0.02460157  0.024694714            4 
 1222000     1.065635   -7.4572384    361.83587  0.024675114  0.024687725            1 
 1223000    1.0584799    -7.410273    361.17176  0.024609687  0.024680763            6 
 1224000    1.0402286   -7.4581076    362.13533  0.024655183  0.024673904            6 
 1225000    1.0575544   -7.4638123    362.82532  0.024681995  0.024666985            4 
 1226000    1.0428121   -7.4634145    362.69046  0.024652696  0.024660096            5 
 1227000    1.0497236   -7.4768947    363.21988   0.02466856  0.024653133            9 
 1228000    1.0709032   -7.4756842     362.6963  0.024612941  0.024646287            5 
 1229000    1.0534362   -7.4825312    363.10557  0.024620665  0.024639287            6 
 1230000     1.042844   -7.4245601    363.32456  0.024615485  0.024632298            5 
 1231000    1.0756514   -7.4364235    364.63319  0.024684077  0.024625371            4 
 1232000    1.0642076   -7.4490747    364.23233  0.024636927  0.024618533            3 
 1233000    1.0714653   -7.4327098     362.8622  0.024524344  0.024611603            3 
 1234000    1.0608223   -7.4780987    363.76736  0.024565597  0.024604665            5 
 1235000     1.034727   -7.3936941    364.47132  0.024593207   0.02459778            4 
 1236000    1.0528328   -7.4714126    364.55289  0.024578808  0.024590873            4 
 1237000    1.0467506   -7.4522426    363.95153  0.024518427  0.024583789            4 
 1238000     1.053148   -7.3912246    365.56671  0.024607345  0.024576716            2 
 1239000    1.0277992   -7.4349405    364.05558  0.024485847  0.024569601            3 
 1240000    1.0543562   -7.4720866    365.16266  0.024540502  0.024562472            5 
 1241000    1.0551003   -7.4882743    363.48258  0.024407909  0.024555216            3 
 1242000    1.0710092    -7.443788    365.15288  0.024500327  0.024548128            5 
 1243000    1.0549403   -7.4928337    364.42787   0.02443201  0.024540884            7 
 1244000    1.0551993   -7.4099808     365.9823  0.024516499  0.024533615            3 
 1245000    1.0491254    -7.478019    365.34343  0.024454045  0.024526176            3 
 1246000    1.0512346   -7.4395287    364.95875  0.024408691  0.024518803            1 
 1247000    1.0351666   -7.4644019    365.24186  0.024408037  0.024511306            4 
 1248000    1.0597852   -7.4487379    365.82355   0.02442732  0.024503981            4 
 1249000     1.069365   -7.4654709    366.65504   0.02446324  0.024496674            3 
 1250000    1.0654862    -7.458699    366.99074  0.024466049  0.024489408            2 
 1251000    1.0532347    -7.443366     367.7374   0.02449623  0.024482129           13 
 1252000    1.0471909   -7.4807444    366.11106  0.024368414  0.024474618            3 
 1253000    1.0365539   -7.4776144    366.29506  0.024361204  0.024467241            4 
 1254000    1.0630297   -7.4972771    367.66875  0.024433064  0.024460076            2 
 1255000    1.0533237   -7.4166328    368.15377  0.024445801  0.024453033            3 
 1256000     1.054004   -7.4789186    367.16357   0.02436064  0.024445828            4 
 1257000    1.0480454   -7.4539437    366.96787  0.024328286  0.024438793            2 
 1258000    1.0394492   -7.4876394    368.09322  0.024383494   0.02443154            3 
 1259000    1.0346615   -7.5018276    367.68575  0.024337156  0.024424209            4 
 1260000    1.0523464   -7.4826614    368.59428  0.024377929  0.024417098            2 
 1261000     1.066993   -7.5111011    368.27734  0.024337651  0.024409859            5 
 1262000    1.0475671   -7.4732801    368.37377  0.024324734  0.024402818            3 
 1263000    1.0576636   -7.4741722    369.12636  0.024355131  0.024395895            2 
 1264000    1.0579187   -7.5090195    369.09771  0.024333973   0.02438884            3 
 1265000    1.0497301   -7.4573814    370.53263  0.024409264  0.024381625            5 
 1266000     1.060526   -7.4822511    370.08059  0.024360228  0.024374568            1 
 1267000    1.0725303   -7.4962994    369.25719  0.024286845  0.024367532            5 
 1268000      1.05234   -7.4555078    370.55614  0.024353059  0.024360412            2 
 1269000    1.0513713   -7.4710202    370.15782  0.024307711  0.024353307            3 
 1270000    1.0629426   -7.5155758    369.69287  0.024258063  0.024346019            3 
 1271000    1.0483093   -7.4757018    371.00106  0.024324748  0.024338793            6 
 1272000    1.0353377   -7.4442141    370.26571   0.02425745  0.024331623            4 
 1273000    1.0350621   -7.4462179    371.24469   0.02430248  0.024324526            4 
 1274000    1.0170867   -7.5212657    370.75997  0.024251698  0.024317338            4 
 1275000    1.0383049   -7.4624166    371.12705   0.02425667  0.024310044            2 
 1276000    1.0357296   -7.4685425    371.52271    0.0242635  0.024302764            3 
 1277000     1.048722   -7.4773104     371.2598  0.024227343  0.024295342            5 
 1278000     1.057958   -7.5183631    371.43051  0.024219517   0.02428788            5 
 1279000     1.056886   -7.4655451    371.43687  0.024200995  0.024280484            3 
 1280000    1.0473425   -7.4835214    372.05089  0.024222063  0.024273126            5 
 1281000    1.0521327    -7.468617    371.73917  0.024182876  0.024265825            6 
 1282000    1.0501716   -7.4881294    371.02329  0.024117479  0.024258519            2 
 1283000    1.0451899   -7.5132162    371.74029  0.024145252  0.024251275            3 
 1284000    1.0308823    -7.483926    371.89153  0.024136262  0.024243922            4 
 1285000    1.0567542   -7.5164106     371.8317  0.024113599  0.024236417            8 
 1286000    1.0299266   -7.5000381    372.54171  0.024140857  0.024228799            2 
 1287000    1.0312771   -7.4603107    372.64622  0.024128867  0.024221334            3 
 1288000    1.0445286   -7.4606924    372.98747  0.024132212   0.02421391            5 
 1289000    1.0563559   -7.4630804    372.80542  0.024101721  0.024206449            3 
 1290000    1.0414854   -7.4913906    374.14902  0.024169833  0.024199057            2 
 1291000    1.0296419   -7.5195816     372.0946    0.0240185  0.024191587            5 
 1292000     1.034244   -7.4843638    373.01275   0.02405913  0.024184069            2 
 1293000    1.0441179   -7.4995018    373.51154   0.02407267  0.024176708            4 
 1294000    1.0710777   -7.5053618     373.2264  0.024035703  0.024169267            9 
 1295000    1.0614734    -7.497511    373.96159  0.024064452    0.0241618            5 
 1296000    1.0257676   -7.5294564    373.93927  0.024044449  0.024154309            7 
 1297000    1.0551405   -7.4450509    374.97725  0.024092601   0.02414688            2 
 1298000    1.0634814   -7.4377113    375.58522  0.024113073  0.024139587            7 
 1299000     1.035153   -7.4244813    375.27075  0.024074336  0.024132233            4 
 1300000     1.056715   -7.4310365    375.40443  0.024064386  0.024125001            2 
 1301000    1.0436094   -7.4526566    375.31518  0.024040173  0.024117832            3 
 1302000    1.0497722   -7.4689642    375.86817  0.024057102  0.024110472            3 
 1303000    1.0289684   -7.4444167    375.64548  0.024024397  0.024103218            2 
 1304000    1.0422275    -7.470294    376.25053   0.02404464  0.024096046            7 
 1305000    1.0315744   -7.4850882    376.97006  0.024072162  0.024088805            3 
 1306000    1.0523277   -7.4975485    376.04475  0.023994688  0.024081473            4 
 1307000    1.0339188   -7.4550346    376.72165  0.024019488  0.024074185            4 
 1308000    1.0478226   -7.5242434    375.49545  0.023923002  0.024066913            3 
 1309000    1.0543863   -7.4725219    377.16731  0.024011161  0.024059565            2 
 1310000    1.0623254   -7.4754634    378.04966  0.024048961  0.024052267            2 
 1311000    1.0594823   -7.5314123    376.47564  0.023930565  0.024045033            2 
 1312000    1.0269894   -7.5185085    377.64159  0.023986381  0.024037763            8 
 1313000    1.0430013   -7.5088575    378.36757   0.02401419  0.024030536            2 
 1314000    1.0198336   -7.4742809    378.77313  0.024021634  0.024023401           11 
 1315000     1.050021   -7.4685288    378.30867  0.023973934  0.024016275            1 
 1316000    1.0254548   -7.4841955    378.94331  0.023995903  0.024009237            5 
 1317000    1.0359864   -7.5046273    378.09993  0.023924319  0.024002138            4 
 1318000    1.0363624   -7.4618664    380.92291  0.024084655  0.023995192            3 
 1319000    1.0317449   -7.4808407    379.72976  0.023991013  0.023988168            2 
 1320000    1.0537245   -7.4707223     380.6833  0.024033037   0.02398115            2 
 1321000    1.0771034   -7.4536193    380.04838   0.02397479  0.023973967            3 
 1322000    1.0525186   -7.4785941    379.63938  0.023930874  0.023966874            4 
 1323000    1.0564218   -7.5212044    379.00801  0.023873016  0.023959561            2 
 1324000     1.060043   -7.4767106    380.11228  0.023924489  0.023952375            3 
 1325000    1.0340053   -7.5327977    378.47261  0.023803309  0.023945032            3 
 1326000    1.0459051   -7.5239867    379.51474  0.023850851  0.023937424            3 
 1327000    1.0463519   -7.4996989    380.31141  0.023882907  0.023930015            5 
 1328000    1.0212689   -7.5113894    380.47316  0.023875073  0.023922688            6 
 1329000    1.0448896   -7.4364444    380.05382  0.023830814   0.02391551            3 
 1330000    1.0605924   -7.4915177    380.02524  0.023811105  0.023908411            5 
 1331000    1.0442085   -7.5120776    381.71812  0.023899206  0.023901178            4 
 1332000    1.0453923    -7.494115    380.93224  0.023832097  0.023893862            4 
 1333000    1.0197556   -7.5083144    381.37179  0.023841697  0.023886568           12 
 1334000    1.0355408   -7.4823175    380.85356  0.023791452  0.023879211            6 
 1335000    1.0429968    -7.517206    380.73044  0.023765945  0.023871875            3 
 1336000    1.0331088   -7.4969762    381.16004  0.023774953  0.023864502            4 
 1337000    1.0458241   -7.5094499    381.21765  0.023760761  0.023857053            7 
 1338000    1.0335487   -7.4865857    382.25509  0.023807617  0.023849617            6 
 1339000    1.0353327   -7.5081681    382.37622  0.023797375  0.023842289            6 
 1340000    1.0403623   -7.5432151    381.95404  0.023753361  0.023834818            5 
 1341000    1.0460527   -7.4773009    383.23774   0.02381542  0.023827534            5 
 1342000    1.0491319   -7.4904953    382.55503   0.02375528  0.023820304            4 
 1343000    1.0358256   -7.5170817    382.23615  0.023717805  0.023812973            3 
 1344000    1.0184419   -7.4927068    382.76567   0.02373299  0.023805532            6 
 1345000    1.0504028   -7.5603567    381.96225  0.023665567   0.02379806            3 
 1346000    1.0313553   -7.5139181    383.89126  0.023767413  0.023790645            3 
 1347000    1.0040376   -7.5244578    383.14039  0.023703315  0.023783246            2 
 1348000    1.0571163   -7.5298578    383.25083  0.023692559  0.023775926            5 
 1349000    1.0374625   -7.5381516    383.60248  0.023696718  0.023768463            2 
 1350000    1.0303557   -7.5236022    383.67475  0.023683626  0.023760969            3 
 1351000    1.0292686   -7.5323126    383.19008  0.023636201  0.023753409            5 
 1352000    1.0582445   -7.5086655     383.2281  0.023621062  0.023745935            4 
 1353000    1.0151863   -7.4668031    385.02612  0.023714346  0.023738453            3 
 1354000    1.0469422   -7.5066025    384.97672  0.023693791  0.023730978            4 
 1355000    1.0493193   -7.4893836    384.14732  0.023625297  0.023723546           10 
 1356000    1.0315612   -7.4879642    383.53129  0.023570015  0.023716072            2 
 1357000    1.0305096    -7.492524    384.80832  0.023631069  0.023708638            5 
 1358000    1.0557864   -7.5419202    383.94023  0.023560397  0.023701051            2 
 1359000    1.0325779   -7.5581132    383.57321  0.023520555  0.023693452            3 
 1360000    1.0299266   -7.5769155    384.10407  0.023535788  0.023685758            4 
 1361000    1.0311453   -7.4630423    385.90156  0.023628555  0.023678177            5 
 1362000    1.0334521   -7.4688141     385.6318  0.023594701  0.023670757            2 
 1363000    1.0345339    -7.502263    385.83733  0.023589957   0.02366328            4 
 1364000    1.0244817   -7.5013321    386.70989  0.023625971  0.023655899            4 
 1365000    1.0261878    -7.508555    386.34805  0.023586572  0.023648676            4 
 1366000    1.0135255   -7.4691249    387.59864  0.023645598  0.023641525            3 
 1367000    1.0620121   -7.5496249    386.89856  0.023585623  0.023634274            4 
 1368000    1.0126434   -7.5015326    385.71004  0.023495982  0.023626984            6 
 1369000    1.0428636   -7.5096618    386.92308  0.023552659  0.023619564            3 
 1370000    1.0313371   -7.5431111     386.2446  0.023494197  0.023612059            5 
 1371000    1.0309078   -7.5138657    387.36474  0.023545146  0.023604584            3 
 1372000    1.0268842   -7.5114264    387.03181  0.023507763  0.023597049            2 
 1373000    1.0281404   -7.5195142     386.2391  0.023442529  0.023589618            2 
 1374000    1.0118252   -7.5493011     385.4048  0.023374866  0.023582052            5 
 1375000     1.026474   -7.4945972    388.27387   0.02353175  0.023574559            2 
 1376000    1.0179512   -7.5399995    386.82281  0.023426769  0.023567019            5 
 1377000    1.0236228    -7.550008    386.79003  0.023407772  0.023559519            4 
 1378000    1.0270415   -7.5011135    388.31835  0.023483209  0.023551855            5 
 1379000    1.0258016   -7.4522465    388.75694  0.023492684  0.023544356            3 
 1380000    1.0562239   -7.5133841    387.52398  0.023401206  0.023536781            3 
 1381000     1.042506   -7.4774499    390.21331  0.023546543  0.023529315            2 
 1382000    1.0387964   -7.5243412    387.73876  0.023380292  0.023521753            7 
 1383000    1.0252973   -7.5296232    387.97146  0.023377408  0.023514203            3 
 1384000    1.0185641   -7.5226292    388.66762  0.023402434  0.023506619            5 
 1385000    1.0302733   -7.5201033    388.91376  0.023400347  0.023498955            3 
 1386000    1.0258653    -7.550546    389.18402  0.023399712  0.023491413            2 
 1387000    1.0221602   -7.5472736    388.53152  0.023343639  0.023483663            4 
 1388000    1.0319644   -7.5265888    389.02772  0.023356612   0.02347619            4 
 1389000    1.0298307   -7.5199307    390.80911  0.023446671  0.023468704            6 
 1390000     1.028842   -7.5447816    389.48148  0.023350208  0.023461063            8 
 1391000    1.0329191   -7.5330782    389.47749  0.023333183  0.023453569            3 
 1392000    1.0155042   -7.5366707    391.12711  0.023415177  0.023446023           10 
 1393000    1.0090762   -7.5144609    390.81748  0.023379844  0.023438516           10 
 1394000    1.0369803   -7.5258856    389.37458  0.023276816  0.023431047            2 
 1395000    1.0471093   -7.5300641    391.64692  0.023395873  0.023423503            4 
 1396000    1.0394117    -7.524104    391.21621  0.023353403  0.023415963            5 
 1397000    1.0212765    -7.551652    390.59966  0.023299908  0.023408428            2 
 1398000    1.0312751   -7.5550388    390.42401  0.023272771  0.023401005            4 
 1399000    1.0291682   -7.5490547    391.68829  0.023331444  0.023393471            6 
 1400000    1.0358153   -7.5343992    390.67019  0.023254178  0.023386056            5 
 1401000    1.0401288   -7.5474224    391.83111  0.023306632  0.023378587            2 
 1402000     1.048214   -7.5533646    390.77514  0.023227243  0.023371019            3 
 1403000    1.0370579   -7.5193749    392.73662  0.023327193  0.023363471            9 
 1404000    1.0384742   -7.5792486    390.30306  0.023166136  0.023355883            2 
 1405000    1.0260969   -7.5647906    391.53654  0.023222808  0.023348177            9 
 1406000     1.037738   -7.5208505    390.88243  0.023167522  0.023340479            3 
 1407000    1.0234985   -7.5152261    391.44073  0.023184123  0.023332814            5 
 1408000     1.037269   -7.5168093    392.11165  0.023207366  0.023325226            6 
 1409000    1.0466926   -7.5462063    391.58113  0.023159518  0.023317549            3 
 1410000    1.0133425    -7.515926    392.98576  0.023226108  0.023309912            3 
 1411000     1.035486   -7.5215282    392.43487  0.023177113   0.02330236            4 
 1412000    1.0235245   -7.5131388    394.68788  0.023293666  0.023294967            5 
 1413000    1.0257101   -7.5174393    392.87332  0.023170165  0.023287588            5 
 1414000    1.0381752   -7.5413115    393.26884  0.023177089  0.023280138            5 
 1415000    1.0464302   -7.5047448    395.51296  0.023292871  0.023272844            5 
 1416000    1.0274466   -7.5597261    394.01478  0.023188252  0.023265545            2 
 1417000    1.0432086   -7.5316749    394.29685  0.023188476  0.023258079            2 
 1418000   0.98922763   -7.5522236    396.15629  0.023281399  0.023250738            9 
 1419000    1.0559415   -7.5202344     396.2821  0.023272381  0.023243491            7 
 1420000    1.0370631   -7.5732456    394.84208  0.023171483  0.023236177            3 
 1421000    1.0085936   -7.5790584     394.5994  0.023140945  0.023228715            2 
 1422000     1.034447   -7.5339514    395.45565   0.02317485  0.023221448            3 
 1423000    1.0183201   -7.5325975    396.19866  0.023202077  0.023214116            8 
 1424000    1.0337362   -7.5858216    396.01562  0.023175072  0.023206873            8 
 1425000    1.0488403   -7.5217686    396.79133  0.023204171  0.023199562            4 
 1426000    1.0228889   -7.5430067    397.30349  0.023217829  0.023192433            4 
 1427000    1.0324445   -7.5489449    395.60611  0.023102436    0.0231852            3 
 1428000    1.0303151   -7.5334969    396.64158  0.023146684  0.023177971            1 
 1429000    1.0301251   -7.5104474    397.77094  0.023196346  0.023170778            3 
 1430000    1.0018853   -7.5326652    396.99191  0.023134727  0.023163638            2 
 1431000    1.0176153   -7.5417304    396.56758  0.023093849  0.023156525            4 
 1432000    1.0470368   -7.5885438     397.2392  0.023116806  0.023149262            4 
 1433000   0.99045075   -7.5272113    397.44226  0.023112483  0.023141999            3 
 1434000    1.0204735   -7.5032554    398.36775  0.023150148  0.023134744            3 
 1435000    1.0183898   -7.5428864    398.63503  0.023149537  0.023127634            4 
 1436000     1.023682   -7.5087589    398.58988  0.023130796  0.023120476            4 
 1437000     1.025644   -7.5387641    397.64392  0.023059842  0.023113253            5 
 1438000     1.042434   -7.5647278    396.80079  0.022994946  0.023105965            2 
 1439000    1.0129278   -7.5546927    398.29942  0.023065753  0.023098627            3 
 1440000    1.0197667   -7.5260688    398.33783  0.023051958  0.023091338            8 
 1441000    1.0207061   -7.4736412    399.51834   0.02310423  0.023084057            2 
 1442000     1.027017   -7.5557915    398.49147  0.023028864  0.023076923            3 
 1443000    1.0417979   -7.5828759    397.69294   0.02296679  0.023069624            2 
 1444000     1.020911   -7.5879516    398.63601   0.02300531  0.023062322            7 
 1445000    1.0165406   -7.5469478    398.89609  0.023004388  0.023054955            9 
 1446000    1.0396987   -7.5480139    399.36884  0.023015724  0.023047733            6 
 1447000     1.019949   -7.5504171    399.90705  0.023030814  0.023040464            6 
 1448000    1.0405146   -7.5817626    399.12391  0.022969838  0.023033109            6 
 1449000    1.0086585   -7.5761717    399.48609  0.022974816  0.023025732            4 
 1450000    1.0154143   -7.6028413    398.82956  0.022921239  0.023018379            4 
 1451000    1.0458918   -7.5429796    399.74658  0.022958108   0.02301094            5 
 1452000    1.0129023   -7.5174268    401.09508   0.02301969   0.02300359            2 
 1453000    1.0079893   -7.5631407    400.82026  0.022988086  0.022996339            4 
 1454000    1.0014406   -7.5312563    399.64741  0.022905056   0.02298907            4 
 1455000    1.0338196   -7.5413249    399.78088  0.022896958  0.022981669            6 
 1456000    1.0350567   -7.5798954    400.01532   0.02289465  0.022974183            5 
 1457000    1.0085532   -7.5645815     399.8581  0.022869944  0.022966753            5 
 1458000    1.0125541   -7.5515232    401.59583   0.02295358  0.022959271            3 
 1459000    1.0300374   -7.5985175    399.67642  0.022828217   0.02295174            4 
 1460000    1.0070816   -7.5780128    399.25713  0.022788649  0.022944173            3 
 1461000    1.0087805   -7.4963142    402.63558  0.022965753  0.022936682            4 
 1462000    1.0233769   -7.5651328    401.90946  0.022908656  0.022929232            5 
 1463000    1.0067005   -7.5632303    401.14653   0.02284954   0.02292183            6 
 1464000    1.0346533   -7.5898278    399.58079  0.022744808   0.02291421            4 
 1465000    1.0257363    -7.580938    400.83941  0.022800876  0.022906585            5 
 1466000    1.0416408   -7.5757156    400.54465  0.022768568  0.022898995            3 
 1467000   0.98984578    -7.553698    401.73284  0.022820543  0.022891618            6 
 1468000    1.0123621   -7.5581148    401.52523  0.022793213  0.022884253            4 
 1469000    1.0182261   -7.5496178    402.39135  0.022826829  0.022876688            5 
 1470000    1.0350678    -7.583004    402.06502  0.022792802  0.022869255            3 
 1471000    1.0017082   -7.5537532    401.64388  0.022753449   0.02286175            3 
 1472000    1.0325453   -7.5836316    401.93148  0.022754273  0.022854392            6 
 1473000    1.0260148   -7.5888403    402.38197  0.022764311  0.022847009            5 
 1474000    1.0181046   -7.5460481    402.93804  0.022780305  0.022839615            2 
 1475000    1.0277623   -7.5639266    403.07015  0.022772325  0.022832302            4 
 1476000    1.0130892   -7.5588567    402.92029  0.022748435  0.022824967            7 
 1477000    1.0067422    -7.581359    402.63878  0.022717151  0.022817609            3 
 1478000    1.0191724   -7.5787968    402.48473  0.022693095  0.022810126            6 
 1479000    1.0152245   -7.5818307    403.24164  0.022720399  0.022802627            5 
 1480000    1.0070134   -7.6017908     402.4189  0.022658722  0.022795065            4 
 1481000    1.0265158   -7.5395095    403.74915  0.022718273   0.02278759            3 
 1482000    1.0272274   -7.5517231    404.04676  0.022719679  0.022780138            1 
 1483000    1.0073798   -7.5121484    403.63589  0.022681271    0.0227727            4 
 1484000    1.0205966    -7.604155     403.4629  0.022656272  0.022765137            5 
 1485000    1.0003084   -7.5845137    403.60438  0.022648955  0.022757562            2 
 1486000   0.99439107   -7.5647262    403.80475   0.02264495  0.022750001            3 
 1487000    1.0209058    -7.571771    403.94597  0.022637636  0.022742404            3 
 1488000   0.99604346   -7.5687766    404.15602  0.022634186  0.022734745            4 
 1489000    1.0316677   -7.5916101    403.93214  0.022606455  0.022727035            3 
 1490000    1.0243264   -7.5931104    402.34939  0.022502762  0.022719391            8 
 1491000    1.0302725   -7.5747744    404.66105   0.02261687  0.022711801            5 
 1492000    1.0434716    -7.543457    405.02476  0.022622026  0.022704153            2 
 1493000    1.0183584   -7.5942113    403.73384   0.02253482  0.022696441            4 
 1494000    1.0154518   -7.5927039    403.71991   0.02251896  0.022688782            4 
 1495000    1.0191904    -7.569749    404.92679   0.02257117  0.022681173            8 
 1496000    1.0191509   -7.5565337    406.01742  0.022616835  0.022673693            2 
 1497000   0.99954797   -7.5795378    406.26661  0.022615599  0.022666279            4 
 1498000    1.0032592   -7.5792589    406.22695  0.022598295  0.022658862            3 
 1499000   0.99057549   -7.5572793    406.83404  0.022616969  0.022651427            4 
 1500000    1.0039701   -7.5428636    407.12698  0.022618166  0.022644021            3 
 1501000   0.99195183   -7.5717681    407.39594  0.022618029  0.022636653            7 
 1502000    1.0207166   -7.6155254    405.57468  0.022501924   0.02262919            9 
 1503000    1.0172274   -7.5829648    407.15258  0.022574439  0.022621647            3 
 1504000    1.0126096   -7.5464449    406.50265  0.022523418  0.022614226            2 
 1505000   0.99791331   -7.6273109    406.92635  0.022531913  0.022606754            3 
 1506000   0.98596612   -7.6350545    407.41057  0.022543746  0.022599174            6 
 1507000   0.98050567   -7.5760755    407.78213  0.022549332  0.022591697            2 
 1508000    1.0114024   -7.5678714    408.12223  0.022553173  0.022584321            2 
 1509000    1.0195271   -7.5653708     407.6846   0.02251406  0.022576896            4 
 1510000    0.9944384   -7.6366339     406.7152  0.022445651  0.022569448            4 
 1511000   0.99718313   -7.5953679    407.40287  0.022468722   0.02256206            4 
 1512000    1.0203802   -7.5925035    408.53318  0.022516158  0.022554677            7 
 1513000   0.99760327   -7.5796029    408.63771  0.022507034  0.022547257            5 
 1514000    1.0072046   -7.5797568    409.75569  0.022553704  0.022539871            2 
 1515000    1.0323256   -7.5804849    409.11771  0.022503725  0.022532533            3 
 1516000    1.0003996   -7.5876119    407.91755  0.022422909  0.022525178            5 
 1517000   0.99294494   -7.5853141    409.35424  0.022487049  0.022517853            2 
 1518000    1.0198952   -7.5856301    410.77942  0.022550473   0.02251059            2 
 1519000    1.0070776   -7.5842735    409.59724  0.022470773  0.022503359            6 
 1520000    1.0278472   -7.6007942     410.2157  0.022489896  0.022496124            4 
 1521000   0.99682108   -7.5774141    409.40376  0.022430625  0.022488819            3 
 1522000     0.977697   -7.5961346    410.52311  0.022477174  0.022481481            3 
 1523000    1.0050278   -7.6152583    408.76429  0.022366179  0.022474183            6 
 1524000    1.0169789   -7.5853908    410.02516  0.022420448  0.022466869            5 
 1525000    1.0129023   -7.5983476     410.3313  0.022422476  0.022459499            3 
 1526000     1.011425   -7.5718286    410.54644   0.02241953  0.022452177            5 
 1527000   0.99667888   -7.5861279    409.81534   0.02236495  0.022444836            3 
 1528000   0.98433411   -7.5806266    410.89757  0.022409335  0.022437459            2 
 1529000   0.98683155   -7.5748232    410.37854  0.022366391  0.022430167            1 
 1530000   0.99514524   -7.5838348    409.79914  0.022320215  0.022422772            3 
 1531000   0.99245136   -7.5812897    411.63131  0.022405362  0.022415428            4 
 1532000    1.0165842    -7.624152    411.36741  0.022376382  0.022408029            2 
 1533000    1.0128654   -7.5866222    410.59719  0.022319917   0.02240076            2 
 1534000    1.0052111   -7.5791188    412.03628  0.022383544  0.022393615            4 
 1535000   0.98732275   -7.5999383    411.79423  0.022355821  0.022386441            4 
 1536000    1.0162995   -7.5819658    412.39949  0.022374104  0.022379222            8 
 1537000   0.99248836   -7.5866239     411.8897  0.022331908  0.022372138            4 
 1538000    1.0088419   -7.5415518    413.36524  0.022397336  0.022364975            8 
 1539000   0.98629199   -7.5819749     413.6428  0.022397812  0.022357759            2 
 1540000   0.99173281   -7.5757151    413.51693  0.022376457  0.022350401            2 
 1541000   0.99677597   -7.6084633    413.29911  0.022350157  0.022343158           11 
 1542000   0.99445819   -7.6130644    412.88416  0.022313238  0.022335985            5 
 1543000    1.0086834   -7.5608283    414.41082  0.022381228  0.022328873            2 
 1544000   0.98709975   -7.5968311     414.0206  0.022345672  0.022321639            4 
 1545000    1.0210048   -7.5637323    414.09253  0.022335088  0.022314531            3 
 1546000    1.0010977   -7.6587205    413.20392  0.022272742   0.02230741            2 
 1547000    1.0014144   -7.6306575    413.60478  0.022279939  0.022300241            6 
 1548000   0.99841737   -7.5994889    414.16258  0.022295574  0.022293185            4 
 1549000    1.0037598   -7.5775135    415.96778  0.022378297  0.022286249            3 
 1550000   0.98750159   -7.6448909    414.13978  0.022265579  0.022279206            8 
 1551000    1.0054022   -7.5983554    415.49858  0.022324231  0.022272123            5 
 1552000     1.012593   -7.6081024    415.83623  0.022327976  0.022265077            9 
 1553000   0.98490846   -7.6136315    415.44953  0.022292849  0.022258089            7 
 1554000   0.99092847   -7.6547435    415.06948  0.022258123  0.022251151            4 
 1555000   0.99971331   -7.5975264     417.1876   0.02235732  0.022244168            4 
 1556000   0.99827878   -7.6152106    415.26999  0.022240252  0.022237198            5 
 1557000   0.99070784   -7.5696082    416.75528  0.022305464  0.022230285            5 
 1558000    1.0092733   -7.5913416    416.92591  0.022300273  0.022223426            6 
 1559000     1.011816   -7.6226307    415.67282  0.022218987  0.022216554            4 
 1560000    1.0194342   -7.6050972    416.25088  0.022235624  0.022209604            9 
 1561000    1.0188039   -7.6329848    417.13532  0.022268595  0.022202699            3 
 1562000   0.98782928   -7.6032081    416.93679  0.022243747  0.022195781            6 
 1563000    1.0192348   -7.6015361    417.38284  0.022253297  0.022188832            3 
 1564000   0.98955051   -7.6369968    416.38697  0.022186006  0.022181836            5 
 1565000   0.99714719   -7.6027106    417.48159  0.022230117  0.022174802            8 
 1566000   0.98766014   -7.5979529    418.29871  0.022259403  0.022167879            6 
 1567000   0.99373923   -7.6112791    417.23606  0.022188686  0.022160891            3 
 1568000    1.0058864   -7.5908344     419.6129  0.022300856  0.022153971            5 
 1569000   0.98684103   -7.6154151    417.77694   0.02218913  0.022147078            3 
 1570000   0.99110261   -7.6281038    417.98151  0.022185855  0.022140111            5 
 1571000   0.98755021    -7.595151     419.2307  0.022237996   0.02213323            3 
 1572000   0.99308202    -7.595199     419.2819  0.022226564  0.022126252            6 
 1573000    1.0126731   -7.5927511    418.59567  0.022176079  0.022119375            8 
 1574000    1.0123895   -7.6207479    417.67595  0.022113297  0.022112263            4 
 1575000    1.0043195   -7.6102758    417.71777  0.022101469   0.02210525            7 
 1576000   0.98919709   -7.6218403    418.68489  0.022138584  0.022098173            5 
 1577000   0.99056955    -7.589447    418.55798  0.022117839  0.022091182            2 
 1578000   0.99480763   -7.5988667    418.74942  0.022113932  0.022084172            4 
 1579000    1.0000451    -7.647118     418.4322  0.022083186  0.022077015            3 
 1580000   0.99920951   -7.6341159    417.29272   0.02200911  0.022069851            3 
 1581000    1.0090143   -7.6123333    419.07485  0.022089123  0.022062815            8 
 1582000    1.0215522   -7.6482735    419.21109  0.022082337  0.022055769            3 
 1583000   0.98729899   -7.5856877     419.9754  0.022108623  0.022048831            4 
 1584000    1.0169406   -7.6228011    420.79293  0.022137675  0.022041846            5 
 1585000   0.96975134   -7.5856842      420.861  0.022127287  0.022034791           13 
 1586000   0.97930965   -7.6340528    419.89435  0.022062545  0.022027693            8 
 1587000   0.98946221   -7.6210513     420.0579  0.022057231  0.022020641            6 
 1588000    1.0105758   -7.6460344    419.47922  0.022012973  0.022013477            4 
 1589000   0.98299147   -7.6209957    419.99973  0.022026418  0.022006357            4 
 1590000   0.98894161   -7.5893929    420.32502  0.022029613  0.021999335            7 
 1591000   0.99003286   -7.5784793    420.98539  0.022050355  0.021992283            9 
 1592000    1.0096259   -7.6395901    420.30604  0.022000944  0.021985275            9 
 1593000   0.99925771   -7.6295324    419.42598  0.021941096  0.021978141            7 
 1594000    1.0102215   -7.6424452    419.74879  0.021944207  0.021970933            5 
 1595000   0.99494701   -7.6719677    419.30395  0.021907208  0.021963726            4 
 1596000   0.97768724   -7.6037662    420.49487  0.021955664  0.021956615            5 
 1597000    1.0005402   -7.6262597    421.32023  0.021984984  0.021949463            6 
 1598000   0.95408614   -7.6837709     419.8724  0.021895724  0.021942212            4 
 1599000    1.0122827   -7.6203397     420.8242  0.021931634  0.021934979            4 
 1600000    1.0055225   -7.6471042    420.46617   0.02189928  0.021927669            3 
 1601000    1.0273912   -7.6226142    420.96167  0.021911392  0.021920337            7 
 1602000   0.99706986   -7.6377755    421.69431  0.021935825  0.021913149            7 
 1603000    1.0060294   -7.6577156     420.1497  0.021841843  0.021905975            6 
 1604000   0.97459394   -7.6207522    420.59867  0.021851552  0.021898836            3 
 1605000   0.99912828   -7.6307738    420.38091  0.021826631  0.021891645            6 
 1606000   0.98021916   -7.6158673    421.81287  0.021887343  0.021884507            3 
 1607000   0.99020184   -7.6087552     422.1231   0.02188981  0.021877413            3 
 1608000   0.96772561   -7.5978153    422.61884  0.021901888  0.021870263            4 
 1609000    1.0055977   -7.6187962    422.77617  0.021896425  0.021863107            5 
 1610000    0.9992162   -7.6199867    422.18075  0.021852006  0.021855905            3 
 1611000   0.98798723   -7.5855257    422.91501  0.021876423  0.021848748           15 
 1612000   0.98210576   -7.6177718    422.75091  0.021854369    0.0218417            2 
 1613000   0.99619853   -7.5990208    423.30833  0.021869618  0.021834726            3 
 1614000    1.0110017   -7.6152728    423.14605  0.021847689  0.021827631            8 
 1615000   0.98641856   -7.6075009    423.30035  0.021842123  0.021820564            6 
 1616000   0.97912764   -7.5947335    423.66996  0.021847667  0.021813473            6 
 1617000   0.97321865   -7.6074533    424.47646  0.021875719  0.021806354            8 
 1618000    1.0039516   -7.5912598    424.80176  0.021878953  0.021799252            4 
 1619000   0.99532605   -7.5717108    425.03415  0.021877401  0.021792279            5 
 1620000    1.0189842   -7.6565291    423.11952  0.021765407  0.021785216            5 
 1621000   0.99979797    -7.642507    422.93354   0.02174242   0.02177803            7 
 1622000   0.98708789   -7.6663721    423.60198  0.021763357  0.021770799            4 
 1623000   0.99060101   -7.6220369    424.27465  0.021784486  0.021763631            2 
 1624000   0.99069592   -7.6396811    423.21938  0.021716922  0.021756492            3 
 1625000   0.99834301   -7.6588755      423.499  0.021717897  0.021749215            5 
 1626000   0.99443878   -7.6494371     423.5881  0.021709107  0.021742029            5 
 1627000   0.99840464   -7.6476072    424.77151  0.021756377  0.021734834            5 
 1628000    0.9798023     -7.58739    426.01807  0.021806822  0.021727591            5 
 1629000   0.99489479   -7.6027907    426.67869   0.02182723  0.021720515            2 
 1630000   0.97551521   -7.6523383    424.42269  0.021698501  0.021713368            4 
 1631000   0.98417107   -7.6513111    424.26505  0.021677144  0.021706221            6 
 1632000    0.9875014    -7.637874    424.94362   0.02169851   0.02169892            3 
 1633000   0.96892998   -7.6133935     424.6998   0.02167278  0.021691772            5 
 1634000   0.97995702   -7.5797137    426.18111  0.021735063  0.021684665            4 
 1635000   0.99741933   -7.6586425    425.06226  0.021664743   0.02167742            2 
 1636000   0.99573139   -7.6620918    425.14769  0.021655852  0.021670162            4 
 1637000   0.98959321   -7.6563118    424.63179  0.021616361  0.021662873            4 
 1638000   0.97907192   -7.6830618    425.12986  0.021628503  0.021655563            4 
 1639000    1.0090216   -7.6488741    425.94441  0.021656722  0.021648352            3 
 1640000   0.99738951   -7.6252782    426.37694  0.021665495  0.021641182           12 
 1641000   0.98135468   -7.6442167    424.75385  0.021569869  0.021634002            3 
 1642000    0.9843983   -7.6566581    425.87947  0.021613858  0.021626759            5 
 1643000    1.0048119   -7.6563334    425.43342   0.02157808  0.021619572            8 
 1644000    1.0063907   -7.6275501    426.97078  0.021642882  0.021612479            3 
 1645000   0.99142026    -7.607469    426.35157  0.021598357  0.021605284            6 
 1646000   0.97035262   -7.6045597    426.84157  0.021610043  0.021598154            5 
 1647000    1.0137061   -7.6534664    426.77622  0.021593615   0.02159107            4 
 1648000   0.97479634   -7.6362053    426.03121   0.02154284  0.021583837            3 
 1649000   0.99714496   -7.6642332    426.65784  0.021561443  0.021576644            2 
 1650000   0.98125835   -7.6173774    427.51057  0.021591443  0.021569402            4 
 1651000   0.97233904   -7.6835365    426.45985   0.02152533  0.021562176            7 
 1652000   0.99728851   -7.6805331    426.52566   0.02151562  0.021554947            5 
 1653000   0.98429579   -7.6428217    428.80267  0.021617396  0.021547837           14 
 1654000    1.0057314   -7.6394031    428.44896  0.021586505  0.021540706            5 
 1655000   0.99863249   -7.5974721    429.19863   0.02161121  0.021533695            6 
 1656000   0.99136618   -7.6197083    429.28005  0.021602257  0.021526721            3 
 1657000   0.99065197   -7.6684545    427.59478  0.021504465   0.02151968            8 
 1658000    1.0077663    -7.644694    428.80186  0.021552164   0.02151256            9 
 1659000    1.0096468   -7.6519833    429.12785  0.021555548  0.021505425            2 
 1660000    0.9801228   -7.6758719    429.09093  0.021540709  0.021498339            3 
 1661000    1.0050811   -7.6679342     428.4419  0.021495179  0.021491243            3 
 1662000   0.98953694   -7.6816949    428.89906  0.021505168  0.021484179            7 
 1663000   0.99682891    -7.700328    428.68175  0.021481347  0.021477099            5 
 1664000    1.0109022   -7.7071478    428.71614  0.021470159  0.021469986           14 
 1665000    1.0071751   -7.6615384    430.16861   0.02152996   0.02146298            3 
 1666000   0.98344372   -7.6406847    430.26767  0.021521992  0.021456025            2 
 1667000   0.98824942   -7.6366559    432.14577  0.021602968   0.02144917            3 
 1668000    0.9843504   -7.6942713    430.95233  0.021530392  0.021442273            3 
 1669000   0.97427426   -7.6752175    431.19069  0.021529393  0.021435376            6 
 1670000   0.97085621   -7.7159707    429.08128  0.021411242  0.021428405            2 
 1671000   0.98999713   -7.6535127    431.51263   0.02151968  0.021421382            3 
 1672000   0.97737513   -7.6714784    430.75109  0.021468854  0.021414446            6 
 1673000   0.97500384   -7.6867716    431.12588   0.02147469  0.021407474            9 
 1674000   0.99857633   -7.6614999    430.71068  0.021441193  0.021400486           12 
 1675000   0.99182788   -7.6412173    432.35108  0.021510004  0.021393526            4 
 1676000   0.97599427   -7.6951183    431.46155  0.021452941  0.021386505            4 
 1677000    0.9667418   -7.7200369      430.363   0.02138556  0.021379433            2 
 1678000   0.99517429   -7.6891134    430.77846  0.021393448  0.021372393            6 
 1679000    0.9775094   -7.6449877    431.05896  0.021394628  0.021365397            8 
 1680000   0.97833088   -7.7171703    429.71649  0.021315302  0.021358395            9 
 1681000   0.97504069   -7.6200241    433.20405  0.021475513  0.021351449            5 
 1682000    1.0005146   -7.6377919    431.85944  0.021396128  0.021344481            4 
 1683000    1.0115659   -7.6839523    432.77658  0.021428826  0.021337544            7 
 1684000   0.98120553   -7.6961053    433.22974  0.021438527  0.021330468            4 
 1685000   0.99103084   -7.6729626    432.10865  0.021370359  0.021323478            5 
 1686000   0.95854862   -7.7020165    432.50467  0.021377258  0.021316595            5 
 1687000   0.97257554   -7.6923894    433.00491  0.021389296  0.021309544            4 
 1688000   0.95300295   -7.6841076    432.93258  0.021373054  0.021302537            4 
 1689000   0.97717116   -7.7114381    431.53398  0.021291394  0.021295521            8 
 1690000   0.97737933   -7.6777533    433.21686  0.021361778  0.021288529            5 
 1691000   0.98374654   -7.6811957    432.84492  0.021330816  0.021281543            8 
 1692000   0.97687297   -7.6819356    432.52885  0.021302642  0.021274499            5 
 1693000   0.98509844   -7.6827967    432.29897  0.021278744  0.021267432            9 
 1694000   0.96228132   -7.6973849    432.81897  0.021291764  0.021260391           10 
 1695000   0.97873114   -7.6743731    433.77113  0.021326014  0.021253392            5 
 1696000   0.98084893   -7.6733416    433.65478  0.021307723  0.021246432            5 
 1697000   0.99012201   -7.6625181    433.54211  0.021289634  0.021239477            3 
 1698000   0.97595332   -7.6501342    433.66451  0.021283103   0.02123253            3 
 1699000   0.97007906   -7.6385891    434.29128  0.021301319  0.021225657            4 
 1700000   0.98706865   -7.6510648    434.66236  0.021306979    0.0212188            5 
 1701000   0.96996109   -7.6469983    434.69147  0.021295878  0.021211901            4 
 1702000   0.99450214   -7.6411254    434.76046  0.021286744  0.021205145            3 
 1703000    0.9975221   -7.7091427    434.92334  0.021282215  0.021198272            5 
 1704000   0.97161589    -7.650903    435.75532  0.021310413  0.021191368            9 
 1705000   0.99080595   -7.6794458    433.27676  0.021176772  0.021184491            3 
 1706000   0.99620477   -7.6876073    433.80186  0.021190009  0.021177547            5 
 1707000   0.97728807   -7.7438742    433.19414  0.021147927  0.021170522            6 
 1708000    0.9972435   -7.6896804    434.95189  0.021221306  0.021163555            4 
 1709000    0.9741342   -7.7000891    435.88665  0.021254469  0.021156633            9 
 1710000    0.9631627   -7.6519753    435.70484  0.021233179  0.021149786           11 
 1711000   0.99003228   -7.6808301    436.19582  0.021244683  0.021142983            5 
 1712000    0.9683693   -7.6936588    436.47685  0.021245953  0.021136134            2 
 1713000   0.99783582   -7.6741366    436.42269  0.021230915  0.021129264           10 
 1714000   0.99587536   -7.6565156    436.51812  0.021223168  0.021122529            4 
 1715000   0.98611194   -7.6363537    436.54073  0.021211891   0.02111585            4 
 1716000   0.98483672   -7.6356041    437.98057  0.021269453  0.021109116            4 
 1717000   0.96627494   -7.6644688    436.81505  0.021200498  0.021102392            3 
 1718000   0.97436334    -7.628333    437.75497  0.021233749  0.021095598            6 
 1719000   0.97885464   -7.6583474    437.40883  0.021204616  0.021088877            3 
 1720000   0.95639103   -7.6746938    437.57543   0.02120036  0.021082191           11 
 1721000   0.96911186   -7.6813745    438.18755  0.021217681  0.021075438            7 
 1722000   0.97374973   -7.7223363    437.42316  0.021168368  0.021068615            2 
 1723000    0.9609965   -7.6886545    437.51515  0.021160532  0.021061841           11 
 1724000    0.9703471   -7.6880022    438.63239  0.021202262    0.0210551            4 
 1725000   0.99589953   -7.6791705    437.47646  0.021134129  0.021048356            3 
 1726000   0.97498122    -7.676853    438.25221  0.021159338  0.021041653            7 
 1727000   0.97104247   -7.6770786    439.05609  0.021185876  0.021035006            7 
 1728000   0.99142148   -7.6603094    439.28059  0.021184442  0.021028314            3 
 1729000   0.96644992   -7.6695787    438.21403  0.021120784  0.021021601            5 
 1730000   0.97527281   -7.7046319    437.70665  0.021084135  0.021014847            1 
 1731000    1.0065491   -7.6932592    438.69554  0.021119562  0.021008117            7 
 1732000   0.95859384   -7.7354271    438.03003  0.021075348  0.021001356            7 
 1733000    0.9844158   -7.6900302    438.95143  0.021107493  0.020994627            4 
 1734000   0.96804022   -7.6876294    439.52619  0.021122943  0.020987875           11 
 1735000   0.98930719   -7.6776426    440.07766  0.021137255  0.020981117            3 
 1736000   0.97524173   -7.6786896    439.75308  0.021109499  0.020974494            2 
 1737000   0.99648544   -7.7055682    439.65913  0.021092839  0.020967852            6 
 1738000   0.98387553   -7.7110129    439.45884  0.021071099  0.020961188            7 
 1739000   0.99649123   -7.6717693     440.3817  0.021103206  0.020954549            4 
 1740000   0.97172004   -7.6827415    439.54375  0.021050946  0.020947881            6 
 1741000   0.98190472   -7.6709621    440.56533  0.021087753  0.020941333           10 
 1742000   0.99886907   -7.6561079    441.49921  0.021120322  0.020934806            4 
 1743000    0.9847804   -7.7005788     440.6404  0.021067145  0.020928177            2 
 1744000   0.97867142   -7.6909558    441.09932  0.021076994  0.020921589            4 
 1745000   0.96576065   -7.7026834    440.09431   0.02101692  0.020914965            4 
 1746000    0.9660711   -7.7232933     442.2788  0.021109145  0.020908342            3 
 1747000   0.97725504   -7.7010676    441.24971  0.021047973  0.020901742            5 
 1748000   0.97509435   -7.6996449    441.73525  0.021059079  0.020895158            5 
 1749000    1.0008373    -7.729219    440.60666  0.020993265  0.020888529            6 
 1750000   0.98069582   -7.6752904    442.29326  0.021061584  0.020881905            5 
 1751000   0.95287203   -7.6635762    442.66474  0.021067235  0.020875337            3 
 1752000   0.95082113   -7.6845514    441.99527  0.021023367  0.020868723            3 
 1753000   0.96511635   -7.7009307    442.29137   0.02102545  0.020862152            4 
 1754000   0.98122181   -7.6583225    442.49536  0.021023155  0.020855571            3 
 1755000   0.97603574   -7.6782101    442.90544  0.021030648  0.020849023            3 
 1756000   0.98294598   -7.7400243    441.99635  0.020975529  0.020842455            9 
 1757000   0.95063058   -7.6818331    442.86627  0.021004851  0.020835879            4 
 1758000   0.94849552    -7.708167    442.30563  0.020966327    0.0208293            4 
 1759000   0.98120216   -7.7084768    443.04596  0.020989481  0.020822695            7 
 1760000   0.97738504   -7.7059884     443.9017  0.021018073  0.020816095            4 
 1761000   0.97930293   -7.6753287    443.57858  0.020990847  0.020809527            4 
 1762000   0.97167133   -7.6498973    444.90198  0.021041524  0.020803095            3 
 1763000   0.96557256   -7.6952407    443.53329  0.020964894  0.020796626            3 
 1764000   0.98626764   -7.6826856     444.6574  0.021006113  0.020790052            4 
 1765000   0.94411241   -7.7006051    442.38668  0.020887001  0.020783409            4 
 1766000   0.96099218   -7.7007008    443.45019  0.020925358  0.020776723            6 
 1767000   0.97542378   -7.7057019    444.20791  0.020949251  0.020770072           13 
 1768000   0.98274555   -7.6778183     444.2421  0.020939013  0.020763457            5 
 1769000   0.96478584   -7.6714335    444.71477  0.020949443  0.020756904            4 
 1770000   0.95983969   -7.7001373    444.29981   0.02091807  0.020750329            3 
 1771000    0.9502034   -7.7176498    444.84633  0.020931975  0.020743731            5 
 1772000   0.96694961   -7.6738359     445.7668   0.02096345  0.020737123            3 
 1773000   0.95858172   -7.7055888    444.86616  0.020909295  0.020730564            5 
 1774000   0.96360608   -7.7351331    444.38233  0.020874781  0.020723932            5 
 1775000   0.96013091   -7.6923415     444.0061  0.020845357  0.020717205            4 
 1776000   0.96115171   -7.6820491    445.20115  0.020889693  0.020710601           15 
 1777000   0.97100755   -7.7298812    445.05708  0.020871182  0.020704004            3 
 1778000    0.9607338   -7.6759011    444.41409  0.020829307  0.020697419            7 
 1779000   0.95824476   -7.7030879    444.71038  0.020831478  0.020690823            4 
 1780000      0.96266   -7.6902725    445.02023   0.02083428  0.020684187            5 
 1781000   0.96478424   -7.6906222    444.76316  0.020810554   0.02067756            5 
 1782000   0.96185356    -7.717239    444.90039  0.020805293  0.020670899            5 
 1783000   0.96862384   -7.6885609    445.31935  0.020813206   0.02066427            5 
 1784000   0.95995183    -7.692798     443.7607  0.020728732  0.020657652            2 
 1785000   0.96411995   -7.6840371    444.46121  0.020749823  0.020650987           11 
 1786000   0.96290643   -7.7136007    445.03462   0.02076496  0.020644233           12 
 1787000   0.97463885   -7.7286351    444.57296  0.020731811   0.02063746           10 
 1788000   0.95934732   -7.7262187    444.68427  0.020725404  0.020630753            3 
 1789000   0.96965766   -7.7018465    445.38883  0.020746638  0.020624044            2 
 1790000   0.96273241   -7.6836505    445.62599  0.020746089  0.020617334            8 
 1791000   0.96188091   -7.7187045    445.76004  0.020740743  0.020610643            5 
 1792000   0.97413347   -7.7572638    445.44376   0.02071446  0.020603932            4 
 1793000   0.97352824   -7.7339543    445.14503  0.020689024   0.02059722            3 
 1794000   0.96426677   -7.7037032    445.59651  0.020698463  0.020590513            3 
 1795000   0.94738917   -7.7300966     445.1977  0.020668417  0.020583805            5 
 1796000   0.94910476   -7.7165974    445.74784  0.020682435  0.020576994            5 
 1797000    0.9674709   -7.7300028    445.74264  0.020670685  0.020570251            6 
 1798000   0.95422947   -7.7024014    446.60821  0.020699305  0.020563479            6 
 1799000   0.95601376   -7.6842006    446.91599  0.020702056  0.020556859            4 
 1800000    0.9616403   -7.7174682    447.05888   0.02069717  0.020550121            6 
 1801000   0.98243931   -7.7348209    447.02753  0.020684228  0.020543347           25 
 1802000   0.97359821   -7.7409589    447.56317   0.02069752  0.020536663           10 
 1803000   0.96484667   -7.7171445    446.82764  0.020652045  0.020529955            6 
 1804000   0.96278764   -7.7300875     447.5938  0.020675989  0.020523218            5 
 1805000   0.95585051    -7.744099    447.69373  0.020669147  0.020516421            4 
 1806000   0.97072302   -7.7321441    447.86142   0.02066544  0.020509656            3 
 1807000   0.96486902   -7.7430708    446.62701  0.020597077  0.020502955            3 
 1808000    0.9756553   -7.7260269    446.68357  0.020588292  0.020496178            6 
 1809000   0.92772244   -7.7131859    449.29152  0.020697048  0.020489391            3 
 1810000   0.95407759   -7.7363846    447.43277  0.020600035  0.020482656            4 
 1811000   0.97034866   -7.6985123      448.206  0.020624241  0.020475911            6 
 1812000   0.95138985   -7.6892954     447.5068  0.020580703  0.020469207            2 
 1813000   0.95593035   -7.6874153     449.3391  0.020653572  0.020462531            9 
 1814000    0.9579491   -7.7405954    449.11466  0.020631875  0.020455875            4 
 1815000    0.9823404   -7.7063566    448.72397   0.02060257  0.020449191            3 
 1816000   0.96080834   -7.6876541     449.2869  0.020617057  0.020442546            7 
 1817000    0.9775591    -7.723452    447.20321  0.020510145  0.020435867            3 
 1818000    0.9618355   -7.6825848    449.32643  0.020596187  0.020429171            7 
 1819000   0.95455202   -7.7335403    447.82142  0.020515916  0.020422535            7 
 1820000   0.98175741   -7.7034723    449.74165  0.020592566  0.020415869            5 
 1821000   0.98785973   -7.6973931    449.15695  0.020554501  0.020409228            8 
 1822000   0.95610198   -7.7464477    449.20085  0.020545227   0.02040259            5 
 1823000   0.96641996   -7.7548046    449.11756   0.02053015  0.020395823            6 
 1824000   0.95813521    -7.717213    449.20813  0.020523032  0.020389131            3 
 1825000   0.97841289   -7.7297024    448.71005  0.020489043  0.020382408            9 
 1826000   0.97844552   -7.7400506    448.51006  0.020468696  0.020375652            7 
 1827000   0.97726854   -7.7218222     449.7699  0.020514956   0.02036894            4 
 1828000   0.95561036   -7.7109044    448.64461  0.020452435  0.020362272            4 
 1829000   0.95737689   -7.7205721    449.51986  0.020481131  0.020355638            8 
 1830000   0.95432232   -7.7452911    449.13813  0.020452556  0.020348964           16 
 1831000   0.92147621   -7.7071851    451.23554  0.020536844  0.020342327            4 
 1832000   0.93515743   -7.7374819    450.33106  0.020484492  0.020335712            4 
 1833000    0.9663948   -7.7207191    451.11703  0.020509048  0.020329029            4 
 1834000   0.97554828   -7.7225023     450.2485  0.020458402  0.020322315            9 
 1835000   0.95177402   -7.6966286    450.49201  0.020458311  0.020315585            3 
 1836000   0.97928798   -7.7390104     451.1267  0.020475976  0.020308951            3 
 1837000   0.96391953   -7.7287793    450.53886  0.020438163  0.020302282            7 
 1838000   0.96393678   -7.7529361    450.09991  0.020407141  0.020295579            5 
 1839000   0.95587717   -7.7577625    450.68293  0.020422464  0.020288903            8 
 1840000   0.96419836   -7.7055968    450.58092  0.020406745  0.020282262            4 
 1841000   0.95498034   -7.7395286    450.99229  0.020414281  0.020275576            3 
 1842000   0.97200154   -7.7203358     451.6623   0.02043351    0.0202689           11 
 1843000   0.97692826   -7.7371749    450.24757  0.020358454   0.02026221            5 
 1844000   0.94030555   -7.7649918    451.01088  0.020381909  0.020255461            3 
 1845000    0.9621585   -7.7384615    451.28358  0.020383179  0.020248705           10 
 1846000   0.94936785    -7.719007    450.86361  0.020353179  0.020241976            4 
 1847000    0.9613146   -7.7671575    450.78845  0.020338768  0.020235221            7 
 1848000   0.95287004   -7.7221683    451.20215  0.020346417  0.020228431            4 
 1849000   0.94389594   -7.7531812    450.42399  0.020300342   0.02022171            4 
 1850000   0.94676104   -7.7459964    452.53683  0.020384542  0.020214876            4 
 1851000   0.95054953   -7.7646779    449.94046  0.020256639    0.0202081            5 
 1852000   0.95596519   -7.7540023    450.64467  0.020277388  0.020201203            4 
 1853000   0.97528757   -7.7454446    451.69815  0.020313822  0.020194405            3 
 1854000   0.93986929   -7.7491234    451.19369  0.020280191  0.020187607            4 
 1855000   0.97028497   -7.7736134    450.71745  0.020247864   0.02018075            6 
 1856000   0.96868109   -7.7598911    450.65737  0.020234257  0.020173852            4 
 1857000   0.94316556   -7.7252865    452.48177  0.020305231  0.020166945            5 
 1858000   0.95983095    -7.773156    450.42182  0.020201912  0.020160118            3 
 1859000   0.96647502   -7.7103021    452.09925  0.020266239  0.020153315            7 
 1860000   0.94512166   -7.7387597    452.35948  0.020267002   0.02014658            7 
 1861000   0.96308644   -7.7501135    453.08378  0.020288545  0.020139776            9 
 1862000   0.94911531    -7.758876    452.00037  0.020229161   0.02013295            6 
 1863000   0.95162227   -7.7788536    451.56221  0.020198703  0.020126098            8 
 1864000   0.95535399   -7.7422595    452.28585  0.020220219   0.02011922            5 
 1865000   0.94110243   -7.7825604      451.203  0.020160992  0.020112331            9 
 1866000   0.93828902   -7.7756329    452.34185  0.020201047  0.020105486            5 
 1867000   0.95380404    -7.771166     451.8478  0.020168175  0.020098644            8 
 1868000   0.97458662   -7.7273997    453.42291  0.020227646  0.020091949            4 
 1869000   0.95233029   -7.7378239    454.52927  0.020266153  0.020085207            4 
 1870000   0.95736729   -7.8088847    450.55548   0.02007823  0.020078368           10 
 1871000   0.96698379   -7.7557795    452.03974  0.020133607  0.020071458            5 
 1872000   0.94903408   -7.8047826    452.01196  0.020121615  0.020064585            5 
 1873000   0.95769232   -7.7590001    453.26841  0.020166774  0.020057749            3 
 1874000    0.9586971   -7.7578907    453.45215  0.020164183  0.020050958            5 
 1875000   0.96283894   -7.7702363    453.17337  0.020141038  0.020044135            4 
 1876000   0.96618439   -7.7481767    453.27532  0.020134831  0.020037303            6 
 1877000   0.94726652   -7.7496571    454.05554  0.020158744  0.020030471            6 
 1878000   0.94548471   -7.7342105    453.56185  0.020126103  0.020023655            3 
 1879000   0.96849616   -7.7850436     453.2701  0.020102453  0.020016848            4 
 1880000   0.94467433   -7.7251706     453.9761  0.020123054  0.020010089            4 
 1881000    0.9358637   -7.7527496    453.56421  0.020094108  0.020003244           12 
 1882000   0.92251091   -7.7385265    454.81567  0.020138845  0.019996489            4 
 1883000   0.96095775   -7.7487164     454.4353  0.020111316  0.019989729           15 
 1884000   0.93920499   -7.7411636    454.44778  0.020101193  0.019983049            6 
 1885000   0.95559327   -7.7649604    453.87002  0.020064988  0.019976332            9 
 1886000   0.97605131   -7.7622645    455.08138  0.020107873  0.019969581            4 
 1887000   0.95585514   -7.8005716    454.24441  0.020060255  0.019962727            5 
 1888000   0.96708355   -7.7596337    455.55573  0.020107509  0.019955965            5 
 1889000   0.95242454   -7.7652661    454.84502  0.020065512  0.019949236            3 
 1890000   0.95462868   -7.7889672    455.39356  0.020079081  0.019942451           11 
 1891000   0.93549742   -7.7502086    456.85727  0.020132966  0.019935771           10 
 1892000   0.94171569   -7.7781912    454.83736  0.020033358  0.019929096            7 
 1893000   0.94357495   -7.7984141    455.49034   0.02005152  0.019922468            5 
 1894000     0.936458   -7.7681502    456.23103  0.020073523  0.019915791            6 
 1895000   0.95041589     -7.77148    456.47383  0.020073607  0.019909104            5 
 1896000   0.93348014   -7.7986519    455.81626  0.020034118  0.019902449            5 
 1897000   0.95025605   -7.7802181    456.83219  0.020068186  0.019895774            7 
 1898000    0.9537643   -7.7376845    457.66111  0.020094007  0.019889126            3 
 1899000   0.95052846   -7.7355678    456.87562  0.020048956  0.019882598            5 
 1900000   0.95924383   -7.7799484    456.73535  0.020032252  0.019876032            5 
 1901000   0.95589941   -7.7747217    456.60216  0.020015876  0.019869445            8 
 1902000   0.94876312   -7.7888724     457.3021  0.020036019  0.019862775            2 
 1903000   0.93994236   -7.7823638    456.47374  0.019989216  0.019856104            3 
 1904000    0.9289097   -7.8248941    456.45105  0.019977725  0.019849461            6 
 1905000   0.94396363   -7.7862125    456.52913  0.019970653  0.019842815            3 
 1906000   0.94707929   -7.8087603    456.07504  0.019940322  0.019836162            6 
 1907000   0.94489067   -7.7931331    455.70294  0.019913605  0.019829541            6 
 1908000   0.95120123   -7.7759907    458.41029  0.020021414  0.019822913            9 
 1909000   0.93831975   -7.7691856    457.44421  0.019968754  0.019816378           14 
 1910000   0.94065327   -7.7765669    458.43298  0.020001439  0.019809881           14 
 1911000   0.94542551    -7.772967    458.54878  0.019996022  0.019803379            7 
 1912000   0.93960823   -7.7494965    457.71923  0.019949409  0.019796779            3 
 1913000   0.94424063   -7.7577037    458.95801  0.019992943  0.019790271            4 
 1914000   0.94417373   -7.7552787    458.09751  0.019945033   0.01978378           13 
 1915000   0.95450915   -7.7507043    457.97478  0.019929277    0.0197773            2 
 1916000   0.92469884   -7.7163144    459.71586  0.019994601   0.01977083            5 
 1917000   0.95573743   -7.7662609    458.76247  0.019942726  0.019764364            7 
 1918000   0.95527363    -7.733492    461.41407  0.020047535  0.019757866            8 
 1919000   0.93998463   -7.7659909    459.14806  0.019938686  0.019751418            6 
 1920000   0.93374488   -7.7703565    460.29383  0.019978031  0.019744963            5 
 1921000   0.96504615   -7.7382388    460.62135  0.019981839  0.019738494            6 
 1922000   0.96985288    -7.766446    459.10533  0.019905712  0.019731981            5 
 1923000   0.92569166   -7.7851948    460.25663  0.019945252  0.019725512            4 
 1924000   0.95162088   -7.7729647    460.27653  0.019935747  0.019719068           11 
 1925000   0.93808237   -7.7946873    459.60521  0.019896329  0.019712597            7 
 1926000   0.92840795   -7.7729036    459.70436  0.019890289  0.019706142            2 
 1927000   0.94360399   -7.7855885    459.45391  0.019869136  0.019699716            4 
 1928000   0.93793124   -7.7459313    460.50715  0.019904355  0.019693236            8 
 1929000    0.9323714   -7.8037238    459.25871  0.019840103  0.019686742           13 
 1930000   0.95874432   -7.7511282    461.03229  0.019906403  0.019680138            3 
 1931000   0.96583154   -7.7987857    459.54091  0.019831733   0.01967362            9 
 1932000   0.93756385   -7.7584603    459.58017  0.019823161  0.019667072            2 
 1933000   0.93419321    -7.770377    460.44239  0.019850077  0.019660534            5 
 1934000   0.95955382   -7.7657521    459.08053  0.019781133  0.019653984            5 
 1935000   0.94731803    -7.776722    460.22774  0.019820316  0.019647455            5 
 1936000   0.96289879   -7.7620017    461.59488  0.019868926  0.019640898            4 
 1937000    0.9502283   -7.7802352    461.05487  0.019835436  0.019634358            3 
 1938000   0.94093232   -7.7875084    461.68676  0.019852372  0.019627865            4 
 1939000   0.94096831   -7.7836304    461.61107  0.019838881  0.019621387            7 
 1940000   0.92846752   -7.7423663    461.12789  0.019807899   0.01961497            3 
 1941000   0.94245101   -7.7779096    461.44341  0.019811241  0.019608533            8 
 1942000   0.95455482   -7.7676647    462.25079  0.019835685   0.01960207            7 
 1943000   0.93731976   -7.8181971    460.73966  0.019760665  0.019595611            5 
 1944000   0.92711372   -7.8027174    459.98597  0.019718192  0.019589095           14 
 1945000   0.92435466   -7.8501112    459.83535    0.0197016  0.019582544            3 
 1946000    0.9438304   -7.8131565    459.99367  0.019698256  0.019576016            8 
 1947000   0.92921289   -7.8295183    461.48578  0.019752002  0.019569475            6 
 1948000   0.94018139   -7.7890914    461.47868  0.019741559  0.019562956            5 
 1949000   0.92862272   -7.8315643    461.46119  0.019730682  0.019556445            6 
 1950000   0.92596195   -7.7842885     461.4411  0.019719705   0.01954992            4 
 1951000   0.94642852   -7.8524692     460.5643  0.019672147   0.01954339            6 
 1952000   0.95078661   -7.7826347    463.03342  0.019767479  0.019536879            4 
 1953000   0.92616441   -7.7754314    462.60767  0.019739191  0.019530424            8 
 1954000   0.95585029   -7.7918128    463.12146     0.019751  0.019523976            3 
 1955000   0.93368688   -7.8046009    461.81201  0.019685082  0.019517534            7 
 1956000   0.94517841   -7.8374926     462.8628  0.019719785  0.019511033            6 
 1957000   0.94627044   -7.7960637    463.25127  0.019726251  0.019504615            4 
 1958000   0.92910002   -7.8392105    461.79977  0.019654399  0.019498087            4 
 1959000   0.93103363    -7.831312    462.28635  0.019665065   0.01949163            3 
 1960000   0.93611406   -7.8121952    463.31223  0.019698649  0.019485184            4 
 1961000   0.92194044    -7.817845    462.51841  0.019654871  0.019478697            4 
 1962000    0.9457897   -7.8045451    463.49299  0.019686247  0.019472272            4 
 1963000   0.93091005   -7.8226261    462.56137  0.019636669  0.019465846           13 
 1964000   0.93481786   -7.8034412    462.50923  0.019624458  0.019459377            4 
 1965000   0.95201819   -7.8169287    463.40504  0.019652461  0.019452877            3 
 1966000   0.93820903    -7.803432    464.03077  0.019668988  0.019446413            9 
 1967000   0.92679998   -7.8205458     463.0755  0.019618518   0.01943991            3 
 1968000   0.93680846   -7.8150419    462.64577  0.019590353  0.019433448            7 
 1969000   0.94543714   -7.8357972    463.65299  0.019623032  0.019426976            3 
 1970000   0.95811019    -7.813715    464.43156  0.019646005  0.019420515            5 
 1971000   0.94462399    -7.799376    463.34782  0.019590217  0.019414059            5 
 1972000   0.94347824    -7.840529    464.86569  0.019644426  0.019407595            5 
 1973000   0.94496605   -7.8177471    464.24495  0.019608251  0.019401127            6 
 1974000   0.92322566   -7.8141205    463.76207  0.019577933  0.019394666            4 
 1975000    0.9303389   -7.8220041    463.33935  0.019550184  0.019388266            6 
 1976000   0.93127641    -7.787709    465.48265  0.019630678  0.019381794            2 
 1977000   0.94666667   -7.7889124    465.69796  0.019629825  0.019375395            5 
 1978000   0.94928878   -7.7857306    465.48309  0.019610848  0.019369004            4 
 1979000   0.97722384   -7.7829617    465.65064  0.019607994  0.019362619            7 
 1980000   0.96124706   -7.8218959    465.55282  0.019593974  0.019356223            2 
 1981000   0.92408421   -7.8007191    464.91368  0.019557197   0.01934983            6 
 1982000   0.92091352   -7.7624021    464.95744  0.019549169  0.019343398            5 
 1983000   0.95283274   -7.8081607    465.73956  0.019572178  0.019336926            3 
 1984000   0.91908463   -7.8103475    465.15362  0.019537702  0.019330412           11 
 1985000   0.94421263   -7.8101201    464.74901  0.019510874  0.019323962            8 
 1986000   0.94334198    -7.812465    464.64714  0.019496775  0.019317493            8 
 1987000   0.95373654    -7.790953    465.56566  0.019525485   0.01931105            4 
 1988000   0.94074619   -7.8238271    465.20727   0.01950064  0.019304525            7 
 1989000   0.93650009   -7.8179852    465.03857  0.019483768  0.019297993           19 
 1990000   0.93799297   -7.8000249    465.27656  0.019483943  0.019291497            5 
 1991000   0.94283264   -7.8217251    464.24927   0.01943116  0.019284952            3 
 1992000   0.94458157   -7.7799119    465.92484  0.019491501  0.019278439            7 
 1993000   0.94494435   -7.7941249    466.06573  0.019487612  0.019271995            4 
 1994000   0.92028749   -7.8663728     464.2504  0.019401973  0.019265501            2 
 1995000   0.93926668   -7.8481746    465.56278  0.019447067  0.019258947            7 
 1996000   0.94374943    -7.818159    463.28988   0.01934243  0.019252348            7 
 1997000   0.92866037   -7.8177937    465.44933  0.019422856  0.019245779            8 
 1998000   0.92028699   -7.8393039    465.56006  0.019417753  0.019239241            7 
 1999000   0.94529429   -7.8081223    465.57756  0.019408769  0.019232732            9 
 2000000   0.94213011   -7.7940701    464.91822  0.019371592  0.019226257            4 
 2001000   0.95099594   -7.8224675    465.17093  0.019372436  0.019219823            4 
 2002000   0.94457918   -7.8115843    464.97593  0.019354642  0.019213285            3 
 2003000   0.91694075   -7.8449808    466.56075  0.019410915  0.019206725            4 
 2004000   0.94142811   -7.8649892    464.94406  0.019334001  0.019200167            6 
 2005000   0.93571247   -7.8105203    465.44961   0.01934537  0.019193649            6 
 2006000   0.92664496   -7.8005862     465.6239  0.019342967  0.019187066            6 
 2007000   0.93752227   -7.8419103    465.18057  0.019314922  0.019180553           13 
 2008000   0.93682468   -7.8363976     465.1644  0.019304632  0.019173921           20 
 2009000   0.92740455     -7.85019    465.26521  0.019299204   0.01916733            7 
 2010000   0.91092092   -7.8143469    465.16969  0.019285642  0.019160756            6 
 2011000   0.91795689    -7.810254    466.82604  0.019344689  0.019154164           16 
 2012000   0.92399682    -7.796844    465.99414  0.019300619  0.019147589           10 
 2013000   0.92457698   -7.8550946    465.71906  0.019279643  0.019141004            6 
 2014000    0.9337402   -7.7954901     466.4011  0.019298291  0.019134447            5 
 2015000   0.92291044   -7.8455274    466.38445  0.019288025    0.0191279           10 
 2016000   0.92082376   -7.8486656    466.00599  0.019262814   0.01912136            4 
 2017000   0.93890594   -7.7948018    467.46935  0.019313723  0.019114829            7 
 2018000   0.91415169   -7.8227039    465.76456  0.019233753  0.019108333            4 
 2019000   0.92320797   -7.8301893    467.13284  0.019280702  0.019101742            6 
 2020000     0.899345    -7.810086    467.62515  0.019291467  0.019095169            3 
 2021000    0.9222893   -7.8228778    466.37877  0.019230528  0.019088633            6 
 2022000   0.91606306   -7.8612854    466.14007   0.01921118   0.01908207           11 
 2023000    0.9101426   -7.8363961     466.1543   0.01920227  0.019075504           11 
 2024000   0.91292571   -7.8339666    468.46418  0.019287886  0.019068981            4 
 2025000   0.92615841   -7.8058614    468.21194  0.019267981  0.019062487            4 
 2026000   0.93567373   -7.8247812    469.12248  0.019295923  0.019055956           16 
 2027000   0.93378415   -7.8519046    467.70232  0.019228019  0.019049427            6 
 2028000   0.91834986   -7.7940846    468.15977  0.019237334  0.019042941            6 
 2029000   0.94264333    -7.785899    468.67228  0.019248903  0.019036497            4 
 2030000   0.93499609   -7.8294091    466.82352  0.019163527  0.019030051            2 
 2031000   0.90878427   -7.8358923    468.17245  0.019209439  0.019023555            6 
 2032000   0.92566799   -7.8196715    468.37566  0.019208319  0.019017045            5 
 2033000   0.90730976   -7.8406762    468.16258  0.019190137  0.019010561            3 
 2034000   0.92984283   -7.8066661    468.75162  0.019204835   0.01900403            9 
 2035000   0.91409448   -7.8630077     467.8517  0.019158546  0.018997486            6 
 2036000   0.90553877   -7.8132862    469.03788  0.019197687  0.018990972            2 
 2037000   0.91300796   -7.8222085    469.08617  0.019190238  0.018984451            5 
 2038000   0.91620405   -7.8556762    468.83728  0.019170644  0.018977987            7 
 2039000     0.932304   -7.8388782    469.83409  0.019201982  0.018971477            7 
 2040000   0.92156268   -7.8516481    467.78019  0.019108668  0.018965014            3 
 2041000   0.90533147   -7.8305317    468.06731  0.019111029  0.018958524            3 
 2042000   0.91465575   -7.8147842    469.65479  0.019166454  0.018952044            7 
 2043000   0.93433416   -7.8727362    468.84167  0.019123906  0.018945531            5 
 2044000   0.91538062   -7.8297505    467.94341  0.019077928  0.018938993            5 
 2045000   0.91838791    -7.853791    469.11268  0.019116246  0.018932525            2 
 2046000   0.93397062   -7.8818117    467.93941  0.019059116  0.018925981            7 
 2047000   0.91045274    -7.852018    468.93235  0.019090228  0.018919484            9 
 2048000   0.92245813   -7.8336859    469.43628  0.019101411  0.018912995           15 
 2049000   0.93644319   -7.8560865    469.69101  0.019102449  0.018906516            5 
 2050000     0.919456   -7.8070676    469.86461  0.019100187  0.018900073            4 
 2051000    0.9088269   -7.8527524    468.68426  0.019042917  0.018893657            4 
 2052000   0.90588299   -7.8542726    468.56341  0.019028728    0.0188872            7 
 2053000   0.91493189   -7.8087427    471.58107   0.01914195  0.018880839           11 
 2054000   0.92453148   -7.8579229    470.04768  0.019070419  0.018874415            9 
 2055000   0.92402835   -7.8555174     469.6307   0.01904423  0.018867953            4 
 2056000   0.91870493   -7.8324394    471.23673  0.019100062  0.018861493            3 
 2057000   0.91358537   -7.8436925    470.09056  0.019044343  0.018855047            5 
 2058000   0.92790542   -7.8191829     469.6117  0.019015699  0.018848607            5 
 2059000   0.93703786   -7.8167139    471.90005  0.019099079  0.018842181            9 
 2060000   0.93543894   -7.8619515    470.20574  0.019021268  0.018835784            3 
 2061000    0.9056432   -7.8517123    470.49026  0.019023543   0.01882937           10 
 2062000   0.94399238   -7.8658291    470.53488   0.01901612  0.018822942            7 
 2063000   0.90875834   -7.8512669    471.53227  0.019047191  0.018816518           14 
 2064000    0.9341413   -7.8810958    470.19032  0.018983782    0.0188101            2 
 2065000   0.92972515   -7.8728246     470.7201  0.018995969  0.018803719            5 
 2066000   0.91136962   -7.8370253    473.09604  0.019082609  0.018797278            9 
 2067000   0.92612289   -7.8553668    471.97738  0.019028277   0.01879086            7 
 2068000   0.91219994   -7.8594322    472.04351  0.019021741  0.018784446            4 
 2069000    0.9141732   -7.8700474    471.76247  0.019001227  0.018777977            6 
 2070000   0.92908397   -7.8777357    471.56583  0.018984132  0.018771509           11 
 2071000   0.91213829    -7.822784    471.79774  0.018984296   0.01876507            3 
 2072000   0.91968301   -7.8327678    471.05966  0.018945449   0.01875868           10 
 2073000   0.91762422   -7.8204542    474.11044   0.01905895  0.018752318           11 
 2074000   0.90295088   -7.8357567    472.59666  0.018988937  0.018745988            2 
 2075000   0.90280508   -7.8565588    471.44311  0.018933458  0.018739638            4 
 2076000   0.93086011   -7.8452891    473.47218  0.019005787  0.018733289            5 
 2077000   0.92239481   -7.8469432    472.56123  0.018960088   0.01872692            7 
 2078000   0.91322605   -7.8663769    471.79079  0.018920067  0.018720545            4 
 2079000   0.90119915   -7.8324237    473.26955   0.01897024  0.018714182            7 
 2080000   0.92398448   -7.8394032     472.7844  0.018941683  0.018707883            6 
 2081000   0.94003966   -7.8246374    474.10802  0.018985585  0.018701599            8 
 2082000   0.92088897   -7.8614542    471.71532  0.018880696  0.018695311           11 
 2083000   0.91124618   -7.8680602    472.93286  0.018920342   0.01868901            7 
 2084000   0.91734212    -7.828701    473.14579  0.018919777  0.018682738           14 
 2085000   0.92851771    -7.852693    473.22659  0.018913933  0.018676456           16 
 2086000   0.93126563   -7.8704586    471.56633   0.01883854  0.018670051            3 
 2087000   0.91724248   -7.8678273    472.08089  0.018850059  0.018663668            9 
 2088000   0.90553315   -7.8804198    473.41051  0.018894098  0.018657258            5 
 2089000   0.91936589    -7.865666    473.13634  0.018874116  0.018650894            5 
 2090000   0.90635395   -7.8650648    472.60989  0.018844094  0.018644529            3 
 2091000   0.90644154    -7.820691    472.76012   0.01884107  0.018638169            8 
 2092000    0.9161085   -7.8460211    473.86115  0.018875922  0.018631828            5 
 2093000   0.91040218   -7.8423443    473.84743  0.018866357  0.018625442            5 
 2094000    0.9398003   -7.8944035    472.05385   0.01878597  0.018618968            7 
 2095000   0.91810186   -7.9008289    471.47174  0.018753848  0.018612497            4 
 2096000    0.9296572   -7.8742149    473.42551  0.018822579  0.018606081            5 
 2097000   0.92347405   -7.8389637    473.55792  0.018818865  0.018599638            8 
 2098000   0.91346864   -7.8722442    472.57684  0.018770926  0.018593251            7 
 2099000   0.90917224   -7.8701895    473.76356  0.018809098  0.018586829            7 
 2100000    0.9239339   -7.8715107    472.50737  0.018750293  0.018580393            9 
 2101000   0.92456239    -7.845961    473.49824   0.01878067  0.018573939            5 
 2102000   0.91749141   -7.8401912    474.00493  0.018791822  0.018567498            5 
 2103000   0.91711629   -7.8981267    472.89506  0.018738907  0.018561093            5 
 2104000   0.90945565   -7.8814563    472.94398  0.018731939  0.018554611           11 
 2105000   0.91475485   -7.8630219    473.18266  0.018732488  0.018548126            9 
 2106000   0.92016368   -7.8963914    473.10807  0.018720642  0.018541551            4 
 2107000   0.92461018   -7.8951473    472.69156  0.018695284  0.018535034            6 
 2108000   0.92322737   -7.9025715    473.45086  0.018716432  0.018528517            8 
 2109000   0.92662352   -7.9027383    473.04579  0.018691552  0.018521992            9 
 2110000   0.90907723   -7.9043574     473.5368  0.018702085  0.018515464            5 
 2111000   0.88421083   -7.8919088    472.83321  0.018665451  0.018508995           16 
 2112000   0.91872192   -7.8590173    474.55114  0.018724398  0.018502567           14 
 2113000   0.91053774    -7.851314    474.41532   0.01871018   0.01849618            5 
 2114000   0.92667024   -7.8345001    475.09545   0.01872814  0.018489836            4 
 2115000   0.90152627   -7.8858879    473.67565  0.018663343  0.018483506           16 
 2116000   0.92065168    -7.865142    475.60933  0.018730676  0.018477154            5 
 2117000   0.91686799   -7.8734199    473.64125  0.018644357  0.018470779           15 
 2118000   0.91422992   -7.8723375    475.27755  0.018699935  0.018464349           33 
 2119000    0.9361644   -7.8885118    474.55445  0.018662673  0.018457935           14 
 2120000   0.91689355   -7.8965753    475.31464  0.018683752  0.018451576           15 
 2121000   0.91185403   -7.8864146     474.5211  0.018643765  0.018445198            7 
 2122000   0.90883067    -7.894629    474.92027  0.018650655  0.018438814            6 
 2123000   0.90686737   -7.8748851    474.61976  0.018630074  0.018432459           11 
 2124000   0.93129803   -7.8956297    474.79177  0.018628051  0.018426068            8 
 2125000   0.91817067   -7.8433416    476.45862  0.018684652  0.018419788            6 
 2126000   0.88966535   -7.8865407    476.42861  0.018674687  0.018413521            9 
 2127000   0.92824356   -7.8901115    475.59742  0.018633342  0.018407249            5 
 2128000   0.90311068   -7.8536898    475.67817  0.018627748  0.018400985           16 
 2129000    0.9063013   -7.8802825    475.96935  0.018630396  0.018394678           13 
 2130000   0.91410724   -7.9125605    475.65001  0.018609156  0.018388284            5 
 2131000   0.92046654   -7.8960415    475.73697  0.018603823  0.018381899           13 
 2132000   0.91459951   -7.8897873    475.91122  0.018601908   0.01837551            7 
 2133000   0.93025272   -7.9337324    475.75833  0.018587214  0.018369175            7 
 2134000   0.91875838   -7.8909442    475.80254   0.01858023  0.018362797            8 
 2135000   0.89711126   -7.9286725    476.05151  0.018581245  0.018356456            9 
 2136000   0.90501375    -7.888819    476.68281  0.018597176  0.018350107            5 
 2137000   0.90697803   -7.8898942      475.681  0.018549407  0.018343702            5 
 2138000   0.90669998    -7.884927    477.50736  0.018611918  0.018337382            4 
 2139000   0.90702129   -7.8775582    477.24783  0.018593106  0.018331107            7 
 2140000     0.909611   -7.8748515    477.08892  0.018578229  0.018324875            5 
 2141000   0.89964579   -7.8470053      479.057  0.018646154  0.018318614           10 
 2142000   0.90385696   -7.8556127     478.1568  0.018602428  0.018312361            7 
 2143000   0.91164322   -7.9066594    476.08175  0.018513056  0.018306057            5 
 2144000    0.9148117   -7.9105585    476.21424  0.018509571  0.018299722           14 
 2145000   0.92317025    -7.895842    476.92696  0.018528631  0.018293357            4 
 2146000   0.92020701   -7.9079572    476.86981  0.018517778  0.018287024            6 
 2147000   0.91058942   -7.9012985     477.0813  0.018517361   0.01828072            5 
 2148000    0.9088658   -7.8886067    478.87904  0.018578485  0.018274446            4 
 2149000   0.90449707   -7.8842902    476.34479  0.018471568  0.018268109            2 
 2150000   0.87892047   -7.9033946    477.74087  0.018517088  0.018261801            8 
 2151000    0.9066855   -7.9247403    476.51326   0.01846092  0.018255495           22 
 2152000   0.90095712    -7.911718    476.97324  0.018470153  0.018249161            9 
 2153000   0.91106425   -7.9111051    478.24844  0.018510932  0.018242805           10 
 2154000   0.91458955   -7.9199011    476.48211  0.018434003  0.018236436            4 
 2155000   0.92428002   -7.9048603    477.63805  0.018470149  0.018230094            8 
 2156000   0.90652569   -7.9044785      478.293  0.018486897  0.018223744            9 
 2157000   0.93431394   -7.9241099    476.61728  0.018413587  0.018217388            6 
 2158000   0.90907079     -7.92933    477.14707  0.018425512   0.01821107            4 
 2159000   0.90810975   -7.8873139    478.58096  0.018472323  0.018204783            5 
 2160000   0.91639042   -7.9035683    477.39523  0.018418026  0.018198476            7 
 2161000   0.91083809   -7.9619861     477.1167  0.018398762   0.01819211           11 
 2162000   0.89093375   -7.9165956    477.31644  0.018397951  0.018185795            5 
 2163000   0.91665158   -7.8842329    477.96496   0.01841443  0.018179452            7 
 2164000   0.90957009   -7.8792808    478.61151  0.018430819  0.018173116            9 
 2165000   0.90052099   -7.8872556    478.52832  0.018419104  0.018166788            4 
 2166000   0.89924942   -7.8853008    478.11578  0.018394728  0.018160475            4 
 2167000   0.91410441   -7.8777221    478.55792  0.018403242  0.018154212            5 
 2168000   0.90816665    -7.878096    479.11804  0.018416284  0.018147889            6 
 2169000   0.89902435   -7.9060358    478.01086  0.018365255   0.01814158            7 
 2170000   0.92784697   -7.8905122    478.02826   0.01835746  0.018135266            3 
 2171000   0.89691102   -7.8643866    477.67742  0.018335537  0.018128933            4 
 2172000   0.88500389   -7.8702694    479.52379  0.018397935  0.018122635            4 
 2173000   0.90224009   -7.9053987    477.49877  0.018311811  0.018116318            4 
 2174000    0.9056093   -7.9087607    476.69152  0.018272444  0.018109924            6 
 2175000   0.90997839   -7.9250863     476.4668  0.018255433  0.018103548           18 
 2176000   0.90305683   -7.8853512    478.08306  0.018308941  0.018097135            5 
 2177000   0.91492831   -7.9108052    477.46557  0.018276894  0.018090731            7 
 2178000   0.88219495   -7.8983816    478.50368  0.018308222  0.018084386            7 
 2179000   0.91100641   -7.9249895    479.27715    0.0183294  0.018078068           10 
 2180000   0.89477872   -7.9064349     478.0144  0.018272722   0.01807172           21 
 2181000   0.87794383   -7.9141632    478.29685  0.018275136  0.018065362           15 
 2182000   0.91061246   -7.9061842    478.43252  0.018271942  0.018058975            8 
 2183000   0.89576155   -7.8488047    478.45148  0.018264295  0.018052648           16 
 2184000   0.90316576   -7.8749658     478.5806  0.018260859  0.018046385            7 
 2185000    0.9036555   -7.8688389    479.81317  0.018299511  0.018040096           13 
 2186000   0.92098632   -7.8726369    479.79152  0.018290314  0.018033763            7 
 2187000   0.89591019    -7.904744    479.03358   0.01825307  0.018027415           10 
 2188000    0.8954827   -7.9056725    477.97599  0.018204448  0.018021022            3 
 2189000   0.91068175   -7.8823477    478.84996  0.018229403  0.018014685           14 
 2190000   0.91058249   -7.8378609    480.24849  0.018274296  0.018008366           16 
 2191000   0.90842465      -7.8702    479.65809    0.0182435  0.018002099           11 
 2192000   0.89764626   -7.8974312    478.17877  0.018178937  0.017995816            7 
 2193000   0.89063723   -7.8906048     479.4414  0.018218627    0.0179895            4 
 2194000   0.91232491   -7.9088605     478.5975   0.01817827  0.017983161            4 
 2195000   0.89596931   -7.9234694    480.11113  0.018227454  0.017976808           10 
 2196000    0.9023848   -7.9372095    479.24686  0.018186356  0.017970456            4 
 2197000   0.90297031   -7.9462905    479.41918  0.018184615  0.017964048            9 
 2198000   0.88224154   -7.9295545    479.63395  0.018184484  0.017957674            4 
 2199000   0.88789891   -7.9320857    479.61564  0.018175521  0.017951278            3 
 2200000   0.90137176   -7.9289413    478.44612  0.018122959  0.017944881            7 
 2201000   0.88641485   -7.9084075    478.88111  0.018131194   0.01793844            8 
 2202000   0.91188482   -7.9165966    479.45687   0.01814475   0.01793201            7 
 2203000   0.91555168    -7.893841    480.14397  0.018162505  0.017925633            4 
 2204000   0.89115213   -7.9230444    479.83264  0.018142492  0.017919228            6 
 2205000   0.88977895   -7.9350776    479.11158  0.018107013  0.017912869           15 
 2206000   0.88275961   -7.9026527    480.52684  0.018152268  0.017906528            8 
 2207000   0.90269613   -7.9256042    479.78707   0.01811611  0.017900164            4 
 2208000    0.8968909   -7.9252142    480.85568  0.018148237  0.017893814            5 
 2209000   0.88534503   -7.9086226     479.3644  0.018083763  0.017887469           10 
 2210000   0.88172192   -7.9249738    479.33745  0.018074564  0.017881103            6 
 2211000   0.90878938   -7.9211561    479.89726  0.018087489  0.017874774            5 
 2212000    0.8914544   -7.9150867    480.06331  0.018085568  0.017868425           11 
 2213000   0.90519153    -7.941495    480.29616  0.018086164  0.017862042           12 
 2214000    0.8900397   -7.9394532    479.63094  0.018052956  0.017855677            4 
 2215000   0.90199833   -7.9327042    480.04452  0.018060366  0.017849288            8 
 2216000   0.89758062   -7.9514863     481.0017  0.018088211  0.017842924            6 
 2217000   0.90942491   -7.9144077    479.91136  0.018039068  0.017836566            9 
 2218000   0.90950127   -7.9076335    480.43548  0.018050627  0.017830186            6 
 2219000   0.89317604   -7.9101708    479.44467  0.018005283  0.017823836            5 
 2220000   0.91159691   -7.9178651    480.77647  0.018047165  0.017817466           11 
 2221000   0.89067396   -7.9355716     481.3752  0.018061504  0.017811122            8 
 2222000      0.88162   -7.8919409    481.03365  0.018040566  0.017804789           13 
 2223000   0.89734189   -7.9578105    480.68351  0.018019325  0.017798392           10 
 2224000    0.8972982   -7.9081385    481.03615  0.018024436   0.01779206           11 
 2225000   0.90462053   -7.9361434    481.19305  0.018022212  0.017785739           11 
 2226000   0.85994995   -7.9231178    481.50589  0.018025827  0.017779393           14 
 2227000   0.91671399   -7.8862977    481.09793  0.018002467  0.017773039           26 
 2228000   0.88950582    -7.930111    480.52736  0.017973046  0.017766718           17 
 2229000    0.9164029   -7.8977309    481.85416  0.018014587   0.01776039            8 
 2230000   0.88003478   -7.9102133     483.0226  0.018050172  0.017754056            4 
 2231000   0.89994655   -7.9521848    480.55323  0.017949844  0.017747683           19 
 2232000   0.89969484   -7.9813665    479.57981  0.017905459  0.017741284           13 
 2233000   0.89340316   -7.9579849    480.35563  0.017926393  0.017734878           30 
 2234000    0.8928724   -7.9877515    478.71341   0.01785711  0.017728397           22 
 2235000    0.8819709   -7.9855005    481.32831  0.017946619  0.017721923           19 
 2236000   0.92192288   -7.9824195    480.44638  0.017905724  0.017715516           17 
 2237000   0.88600592   -7.9358506    480.92547  0.017915567   0.01770911           15 
 2238000   0.90248343   -7.9478688    480.41899  0.017888702  0.017702701           12 
 2239000   0.89664115   -7.9155111    481.07836  0.017905254  0.017696318            7 
 2240000   0.90087465   -7.9388414    481.67987  0.017919638  0.017689933           13 
 2241000   0.88936664   -7.9490273    480.91976  0.017883376  0.017683538           12 
 2242000   0.90713547   -7.9513345    481.97522  0.017914631  0.017677173           11 
 2243000   0.86929431   -7.8874093    482.66372  0.017932223  0.017670814            4 
 2244000   0.89749909    -7.901753    481.04094  0.017863968  0.017664478            8 
 2245000   0.88151141   -7.9412185    480.94857  0.017852582  0.017658108            4 
 2246000    0.9113089   -7.9487846    481.48548  0.017864555  0.017651784           11 
 2247000   0.90448046    -7.923765    481.86246  0.017870585  0.017645429           12 
 2248000   0.88006674   -7.9437718    481.47963  0.017848444   0.01763903            6 
 2249000   0.87997774   -7.9097432    482.96726   0.01789563  0.017632644            5 
 2250000   0.87682045   -7.9480882    482.43336  0.017867902  0.017626306            4 
 2251000   0.89481673    -7.916095    481.78908  0.017836113  0.017619957            7 
 2252000   0.88212177   -7.9367201    483.59114  0.017894876   0.01761359           10 
 2253000   0.90847246     -7.94598    481.52731  0.017810597  0.017607273           23 
 2254000   0.87773343   -7.9080917     482.1723  0.017826542  0.017600952            8 
 2255000   0.88409431   -7.9320378    482.55544  0.017832795  0.017594648           15 
 2256000   0.89583104   -7.9457427    481.17011  0.017773719  0.017588323            4 
 2257000    0.9037168   -7.8997947    482.68537   0.01782179  0.017582013           13 
 2258000   0.89145716   -7.9337323    482.66089  0.017812994  0.017575728           10 
 2259000   0.89662091    -7.945761    482.91752  0.017814576  0.017569419            7 
 2260000   0.89027272   -7.9218563     484.5063  0.017865276  0.017563147           18 
 2261000   0.89000225   -7.9592802     483.0723  0.017804522   0.01755686           14 
 2262000   0.89160224   -7.9458553    483.19903   0.01780132  0.017550581           13 
 2263000     0.900481   -7.9742605    481.52954  0.017731976   0.01754429           14 
 2264000   0.88519686   -7.9581347    483.01725  0.017778904  0.017537997           10 
 2265000   0.89013249   -7.9628378     482.9998  0.017770412  0.017531695           27 
 2266000   0.88335702   -7.9860443    482.12722   0.01773048  0.017525325           39 
 2267000   0.88329084   -7.9702554    482.29901  0.017728974  0.017518945           24 
 2268000   0.88411551   -7.9540322    482.88529  0.017742699  0.017512594           21 
 2269000   0.87154143   -7.9680113    484.21465  0.017783702  0.017506289           12 
 2270000   0.88874326   -7.9916219    482.00603  0.017694788  0.017499937           28 
 2271000    0.8759236   -7.9843565     483.4933  0.017741571  0.017493553           29 
 2272000   0.88514924   -7.9724451    482.56679  0.017699779  0.017487182           10 
 2273000   0.87927337   -7.9539423    482.76745  0.017699349  0.017480783            7 
 2274000   0.88798927   -7.9708317    483.06493  0.017702467  0.017474464           12 
 2275000   0.88764359    -7.935907    483.34355  0.017704892   0.01746819           10 
 2276000   0.88264814   -7.9786902    484.03951  0.017722595  0.017461936            5 
 2277000    0.8782068   -7.9494929    483.19911  0.017684055  0.017455654            7 
 2278000   0.86903695   -7.9612041    483.89347  0.017701693  0.017449448           11 
 2279000   0.88932327   -7.9945235    482.47629  0.017642105  0.017443167            9 
 2280000   0.87892744   -7.9613577    483.93417  0.017687652  0.017436875           10 
 2281000   0.89505391   -7.9750964    482.41748  0.017624488  0.017430568           11 
 2282000   0.91318088   -7.9482774     484.0965  0.017678078  0.017424304            5 
 2283000   0.88782918   -7.9573425    483.75853  0.017657999  0.017418028           14 
 2284000   0.88005078   -7.9779669     483.7288  0.017649183  0.017411765           10 
 2285000    0.8745228   -7.9827861    484.26173  0.017660895   0.01740544           10 
 2286000   0.86324912   -7.9529569      485.029  0.017681139  0.017399154           15 
 2287000   0.89443971    -7.970394    483.03505  0.017600752  0.017392879            9 
 2288000   0.89997912   -7.9958369    483.32367  0.017603572  0.017386538            9 
 2289000   0.89955309   -7.9512621    483.35825   0.01759714  0.017380249           13 
 2290000   0.89936771   -7.9814651    483.02872  0.017577464  0.017373957            7 
 2291000   0.87911922   -7.9784486    483.88528  0.017600949  0.017367647           21 
 2292000   0.89505425    -7.953267    484.54935  0.017617414   0.01736138           18 
 2293000    0.8903507   -7.9746106    484.63316  0.017612777  0.017355091           22 
 2294000   0.90003985   -7.9815786    484.50353   0.01760039  0.017348822           12 
 2295000   0.85985698   -7.9548612    484.67375  0.017598902  0.017342556           13 
 2296000    0.8797133   -7.9506714    484.51205  0.017585368  0.017336318            6 
 2297000   0.89191176   -7.9590552    484.39585  0.017573496  0.017330055            8 
 2298000     0.877666   -7.9675269    484.42594   0.01756694  0.017323847            4 
 2299000   0.85908312   -7.9663482    484.94414  0.017578082  0.017317589           13 
 2300000   0.88186424   -7.9514026    485.65084  0.017596045  0.017311358            4 
 2301000   0.88479458   -7.9729526    485.02535  0.017565745  0.017305133           15 
 2302000   0.91133523   -7.9372587     486.8671  0.017624786  0.017298937            5 
 2303000   0.86713159   -7.9621637    484.80597  0.017542552  0.017292757            7 
 2304000   0.89424535   -7.9337391    485.38824  0.017555998   0.01728656            7 
 2305000   0.86671487   -7.9705013    484.02874  0.017499231  0.017280403            9 
 2306000   0.86526202   -7.9452908     487.3605  0.017612045  0.017274253           10 
 2307000    0.8668597   -7.9836327    486.36698  0.017568523  0.017268105            5 
 2308000   0.84300978   -7.9803875    485.04298  0.017513106  0.017261904            8 
 2309000   0.89789762   -7.9517316    485.57125  0.017524587  0.017255725           10 
 2310000   0.90426711   -7.9887429    486.36905  0.017545781    0.0172496           12 
 2311000   0.88553108   -7.9330999    487.59283  0.017582317  0.017243462           11 
 2312000   0.86776268   -7.9381143    486.40645  0.017531951  0.017237296            9 
 2313000    0.8683446   -8.0051473    486.71885  0.017535626   0.01723113           21 
 2314000    0.8811768   -7.9920629    485.80953  0.017495302  0.017224969           12 
 2315000   0.90077652   -8.0125938    484.99754  0.017458515   0.01721882            7 
 2316000   0.89455921   -7.9768906    485.71903  0.017476937  0.017212692            3 
 2317000   0.87193799   -7.9457739    487.69561  0.017540484  0.017206578            6 
 2318000   0.88130236   -7.9699795    486.43613  0.017487638   0.01720049           21 
 2319000    0.8961293   -7.9629534    487.81464  0.017529634  0.017194419            6 
 2320000   0.86941038   -7.9616987     485.9852  0.017456365  0.017188289            9 
 2321000   0.86863311   -7.9686157    487.75325  0.017512324  0.017182178            5 
 2322000   0.88663503    -7.975139    486.56479   0.01746213  0.017176072            8 
 2323000   0.86211327   -7.9538342    487.72518   0.01749624  0.017169968           12 
 2324000   0.86304173   -7.9447188    488.63923  0.017521487   0.01716391            6 
 2325000   0.86963985   -7.9311441    488.12724    0.0174956  0.017157853            4 
 2326000   0.86106678   -7.9734493    485.89765  0.017408199  0.017151755            5 
 2327000   0.87169783   -7.9497151    488.03614    0.0174773  0.017145676            6 
 2328000   0.89611133   -8.0143624    487.96253  0.017467158  0.017139575           10 
 2329000   0.87415668    -7.959026    487.74841  0.017451997  0.017133487            3 
 2330000   0.88090047   -7.9820279    487.39342   0.01743181  0.017127391           16 
 2331000   0.87667252   -7.9632721    487.57464  0.017430811  0.017121256            5 
 2332000   0.87288163   -7.9878863    487.65896  0.017426349  0.017115102           14 
 2333000   0.87735107    -8.010719    486.74299  0.017386162  0.017108966            7 
 2334000   0.87214268   -7.9722278    488.51651  0.017442035  0.017102832           11 
 2335000   0.89828141     -7.99491    486.82741  0.017374283  0.017096724           18 
 2336000   0.87204526   -8.0122351    487.54328  0.017392383  0.017090598            9 
 2337000   0.88188649   -7.9501744    488.86403  0.017432036  0.017084467           13 
 2338000   0.86890086   -8.0012203    487.49307  0.017375715  0.017078381            5 
 2339000   0.88099043   -7.9822939    487.61467  0.017372619  0.017072241           24 
 2340000   0.88369723   -7.9671676    487.74164  0.017369717  0.017066119           18 
 2341000   0.88003272   -7.9838883      488.604  0.017392995  0.017059985           10 
 2342000   0.85799744   -7.9975033    487.65699  0.017351871  0.017053847            6 
 2343000   0.87783381    -7.999143    486.07997  0.017288376  0.017047686           12 
 2344000   0.87848648   -8.0239587    487.84598  0.017343785  0.017041506            9 
 2345000   0.86961585   -7.9397483    489.08604  0.017380456  0.017035379           17 
 2346000   0.87517695    -7.985001    486.53417  0.017282402  0.017029238            8 
 2347000   0.90124181   -8.0149482    486.09347   0.01725939  0.017023096            6 
 2348000   0.87492592   -8.0166791    487.24821  0.017293023  0.017016929           13 
 2349000   0.87847144   -7.9759283    488.71416  0.017337667  0.017010799            5 
 2350000   0.86469604   -7.9972411    487.67122  0.017293306  0.017004682           15 
 2351000   0.88000927   -7.9682132    488.56936  0.017317785  0.016998639            8 
 2352000   0.90194372   -7.9900479    488.55789  0.017310016  0.016992595            4 
 2353000   0.87691549    -7.973639    489.78873  0.017346251  0.016986534            9 
 2354000   0.85537109   -7.9524949    487.93921  0.017273407  0.016980506            6 
 2355000   0.87974353   -7.9761117    490.08949  0.017342162  0.016974462            3 
 2356000   0.88504594   -7.9400819    490.28758  0.017341807  0.016968453            4 
 2357000   0.87022527   -7.9837508    488.95979  0.017287505  0.016962459            9 
 2358000   0.88555922   -7.9912327    487.70258  0.017235743  0.016956451            5 
 2359000    0.8562195    -7.989175    490.12465  0.017313998  0.016950443            4 
 2360000   0.89869936   -7.9706288    489.81991  0.017295901  0.016944447           11 
 2361000   0.85601436   -7.9647197    489.54606  0.017278909  0.016938457           10 
 2362000   0.84574515   -7.9566708    489.96367  0.017286328  0.016932516            7 
 2363000    0.8512693   -7.9472785    488.95513  0.017243445  0.016926564           12 
 2364000   0.87793029   -8.0060813     489.8526  0.017267788  0.016920592            8 
 2365000   0.86200681   -7.9979303    490.21648  0.017273308  0.016914609            8 
 2366000   0.88865354   -7.9897377    491.16909  0.017299559  0.016908646            8 
 2367000   0.87225001   -7.9904759    489.05964  0.017217985  0.016902692            8 
 2368000   0.86789617   -7.9753577    491.61756  0.017300731  0.016896743           10 
 2369000   0.85821315   -7.9820107    491.01507  0.017272234  0.016890809           16 
 2370000   0.88275146   -8.0030365     489.1009  0.017197641  0.016884861           11 
 2371000   0.87602883   -8.0199705    490.29712  0.017232431  0.016878906           11 
 2372000    0.8766884   -8.0266673      488.294  0.017154792  0.016872903           11 
 2373000   0.86410615   -7.9937059     490.6727  0.017231096  0.016866954           11 
 2374000   0.88245742   -7.9244559    491.33629  0.017247132  0.016861039           12 
 2375000   0.88568454   -7.9812589    491.04917  0.017229795  0.016855089           18 
 2376000   0.86239557   -7.9728723    491.49554  0.017238199  0.016849138           19 
 2377000   0.87972936   -7.9893647    491.15533   0.01721902  0.016843193            7 
 2378000   0.85697941   -7.9815922    491.16913  0.017212263  0.016837238           14 
 2379000   0.87411865   -8.0180692    489.79437  0.017156872  0.016831281           28 
 2380000   0.88841369   -7.9670041    490.38066  0.017170191   0.01682531           17 
 2381000   0.85863798   -7.9855962    490.53825  0.017168495  0.016819362           22 
 2382000   0.87352943   -7.9934347    490.95852  0.017175991  0.016813392           11 
 2383000     0.863635   -7.9991539    491.24925   0.01717895   0.01680745           20 
 2384000   0.87059158   -8.0301148    490.73456  0.017153753  0.016801511            9 
 2385000   0.86141387   -7.9922011    491.10828  0.017159618  0.016795521            7 
 2386000   0.88000817    -8.026371    490.27496  0.017123322  0.016789531           15 
 2387000   0.85845303   -7.9828904    491.91847  0.017173526  0.016783588            9 
 2388000   0.86500991   -7.9707611    491.55919  0.017153796  0.016777626           11 
 2389000   0.86926951   -8.0078872    491.12924  0.017131619  0.016771667           10 
 2390000   0.87834515   -7.9736289    492.37053  0.017167731  0.016765736            9 
 2391000   0.88004239   -7.9890119     491.8693  0.017143082    0.0167598           14 
 2392000   0.86402509   -8.0227549    490.35457  0.017083144  0.016753887            4 
 2393000   0.88130887   -8.0301656    491.09942  0.017101944  0.016747966            8 
 2394000   0.85589621   -8.0226331    491.39997  0.017105262   0.01674203           12 
 2395000   0.88887453   -7.9827873    493.30488  0.017164401   0.01673608            9 
 2396000   0.86313556   -8.0046433    491.98525   0.01711134  0.016730128           12 
 2397000   0.87941474   -7.9667664    493.33181  0.017151015  0.016724208            6 
 2398000   0.87521053   -8.0271023    491.18958  0.017069418  0.016718287            8 
 2399000   0.88536287    -8.007977     492.0044  0.017090607  0.016712361           18 
 2400000   0.86801275   -7.9885179    492.08998  0.017086458  0.016706412           18 
 2401000   0.86352144   -8.0240181     491.7091  0.017066122  0.016700497           10 
 2402000   0.86714442    -8.009672    491.36935   0.01704723  0.016694554            8 
 2403000   0.86238364   -8.0231292     490.8896  0.017023498  0.016688611            8 
 2404000   0.85523043   -7.9713794    491.94337  0.017052945   0.01668266           11 
 2405000   0.87442884   -8.0158449    492.10349  0.017051403  0.016676724           11 
 2406000   0.87663926   -8.0351278    490.86796  0.017001522  0.016670796            6 
 2407000   0.87795597   -7.9944423    491.87267  0.017029243   0.01666487           26 
 2408000   0.87421765   -8.0218085    491.78536   0.01701915  0.016658943           18 
 2409000   0.87880652    -7.976524    491.49115  0.017001908  0.016652973            7 
 2410000   0.87456602   -8.0253632     489.8144  0.016936874  0.016646973           15 
 2411000   0.85864695   -8.0415237    491.04639  0.016972432  0.016640906           18 
 2412000   0.87537373   -8.0197203    489.75069  0.016920629  0.016634873           15 
 2413000   0.86075473   -8.0664868    490.14282  0.016927159   0.01662883           15 
 2414000    0.8732741   -8.0421904    491.67957  0.016973197   0.01662281            6 
 2415000   0.84798398   -8.0390149    490.82076  0.016936534  0.016616769            5 
 2416000   0.86946911   -8.0515343    491.08172  0.016938525  0.016610744            7 
 2417000   0.89009069   -8.0383734    490.94708  0.016926875  0.016604703            5 
 2418000   0.86079461   -8.0639853    490.94872  0.016919931  0.016598661           14 
 2419000   0.86276311   -8.0531053    490.63465  0.016902117  0.016592597           11 
 2420000   0.87868376   -8.0446975    490.65438  0.016895812  0.016586546            6 
 2421000   0.85251237   -8.0171637    491.74704  0.016926443  0.016580492            6 
 2422000   0.84579833   -8.0537854    489.61045  0.016845942  0.016574457           12 
 2423000   0.86018937   -8.0378977    490.81426  0.016880391  0.016568431           10 
 2424000   0.86268713   -8.0319288    491.53014  0.016898038  0.016562401           18 
 2425000   0.84780358   -8.0395328    490.69845   0.01686249    0.0165564           25 
 2426000   0.88032377   -8.0328853    491.03732  0.016867179   0.01655038            6 
 2427000   0.87374331   -8.0269258    491.26356  0.016867997  0.016544325           24 
 2428000   0.87216612   -8.0799536    490.98925  0.016851635  0.016538314           47 
 2429000   0.86305518   -8.0482939    492.60979  0.016900295  0.016532253           61 
 2430000   0.86009947    -8.046411    489.58988  0.016789776  0.016526199           55 
 2431000   0.86565714   -8.0570647    490.05937  0.016798964  0.016520138           68 
 2432000   0.84331787   -8.0542937    490.62607  0.016811474  0.016514083           28 
 2433000    0.8661613   -8.0321529    491.04927   0.01681906  0.016508037           43 
 2434000   0.84687268   -8.0647611    490.37511  0.016789068  0.016501985           71 
 2435000   0.85212388   -8.0718571    490.85761  0.016798686  0.016495917           71 
 2436000   0.86500222   -8.0648919    491.16872  0.016802433   0.01648988           30 
 2437000   0.86085578   -8.0232719    490.99955  0.016789753  0.016483849           44 
 2438000   0.86924024   -8.0564534    491.62599  0.016804279  0.016477794           49 
 2439000   0.84896258    -8.035536    491.61784  0.016797111  0.016471727           62 
 2440000   0.86097133   -8.0445967    492.36386  0.016815706  0.016465654           37 
 2441000   0.85145041   -8.0467976    491.82935  0.016790569  0.016459616           46 
 2442000   0.85714685    -8.054359     491.0866  0.016758347   0.01645355           24 
 2443000   0.88347956   -8.0462386    492.05004  0.016784351  0.016447515           54 
 2444000   0.86377449    -8.047716    491.71658  0.016766114  0.016441469           46 
 2445000   0.86060561   -8.0696708    491.50024  0.016751883  0.016435401           41 
 2446000   0.83284464   -8.0669305    490.91262  0.016725014  0.016429333           48 
 2447000   0.85861229   -8.0760727    492.47368  0.016771342   0.01642328           38 
 2448000   0.85342008   -8.0678408    492.02744    0.0167493  0.016417251           25 
 2449000   0.85650722   -8.0460388    491.83541  0.016735927  0.016411201           16 
 2450000   0.85007202   -8.0530479    491.17835  0.016706747  0.016405206           19 
 2451000   0.83803637   -8.0211656     491.9676  0.016726765  0.016399195           35 
 2452000   0.85894541   -8.0463213    492.30233  0.016731319  0.016393228           56 
 2453000   0.85505566   -8.0234906    494.05496  0.016784039  0.016387252           28 
 2454000   0.87106361   -7.9843952    493.57922  0.016761044   0.01638129           17 
 2455000   0.86907347   -8.0423802    492.08341  0.016703442  0.016375345           28 
 2456000   0.84852306   -8.0198639    492.24486  0.016702119  0.016369403           11 
 2457000   0.87035599   -8.0230529    493.62047  0.016741978  0.016363472           22 
 2458000    0.8569809   -8.0449359    493.06563  0.016716356  0.016357493           56 
 2459000   0.87982255   -8.0462748    491.53937  0.016657834  0.016351538           50 
 2460000   0.86585175   -8.0516324    492.48958  0.016683252  0.016345557           20 
 2461000   0.86430176   -8.0659015    492.48292  0.016676247  0.016339577            7 
 2462000   0.87167612   -8.0536867    493.33207  0.016698215  0.016333594           19 
 2463000   0.85965157   -8.0646088    492.68583  0.016669571  0.016327622           19 
 2464000   0.85989389   -8.0438671    492.67456  0.016662424  0.016321667            4 
 2465000   0.85866409   -8.0741058    492.19011  0.016639287  0.016315667           10 
 2466000   0.85287204   -8.0643304    493.28137  0.016669417  0.016309635           10 
 2467000   0.82690582   -8.0827941    491.79223  0.016612357  0.016303626           11 
 2468000    0.8391132   -8.0787123     491.7677  0.016604798  0.016297578            6 
 2469000   0.84730671   -8.0478539    491.91944  0.016603194  0.016291558           12 
 2470000   0.86551323   -8.0316539    493.07837  0.016635573  0.016285552            7 
 2471000   0.85708224   -8.0758441    492.12045  0.016596535  0.016279541           10 
 2472000   0.86136644   -8.0496697    492.01918  0.016586407  0.016273501            7 
 2473000   0.85417066   -8.1043386    492.13599  0.016583636  0.016267447            7 
 2474000   0.85175967   -8.1064024    492.18549  0.016578601  0.016261354            4 
 2475000   0.88075033      -8.0929    492.03157   0.01656672  0.016255307           17 
 2476000   0.84736723   -8.0648014    490.96475  0.016524123  0.016249249           15 
 2477000   0.84750831    -8.118606     491.5341  0.016536607  0.016243168           12 
 2478000   0.85068411   -8.0802247    492.23336  0.016553449  0.016237051           10 
 2479000   0.84687536    -8.092282    491.06033  0.016507339  0.016230984            7 
 2480000   0.85334027   -8.1012464    491.71761  0.016522769  0.016224906           12 
 2481000   0.86186146   -8.1010353    492.20513  0.016532485  0.016218857           14 
 2482000   0.83914966   -8.0356814    492.64003  0.016540426  0.016212847           20 
 2483000   0.85934893   -8.0476486    494.04487  0.016580913  0.016206888            8 
 2484000   0.83986173    -8.029683    494.73283  0.016597317  0.016200927           22 
 2485000   0.85275262   -8.0084967    493.37349  0.016545053  0.016194995           14 
 2486000    0.8497499   -7.9974329    493.83873  0.016553994  0.016189044            9 
 2487000   0.82722562   -8.0217827    493.80631  0.016546251  0.016183118           16 
 2488000   0.84999496   -8.0199733    494.44224    0.0165609  0.016177171            6 
 2489000   0.85029775    -8.038316    492.99544  0.016505807  0.016171205            5 
 2490000   0.84197463   -8.0064784    494.27532  0.016542012  0.016165242           15 
 2491000   0.85613442   -8.0699067    492.81764  0.016486607  0.016159278            9 
 2492000   0.86353988   -8.0448252    492.35294  0.016464451  0.016153265            6 
 2493000   0.85287965   -8.0357798    492.38741  0.016458999  0.016147247           13 
 2494000   0.84418976   -8.0736972    491.97112   0.01643849  0.016141223           30 
 2495000   0.85586275    -8.062167     491.6475  0.016421092   0.01613521           13 
 2496000   0.84620616   -8.0510709    492.98832  0.016459279  0.016129185           33 
 2497000   0.86431256   -8.0552043    493.03008  0.016454081  0.016123146           16 
 2498000   0.87101885   -8.0591982    492.95612  0.016445027  0.016117142           11 
 2499000   0.86264505   -8.0594464    493.76408  0.016465389  0.016111138           19 
 2500000   0.84376822   -8.0525761    493.68572  0.016456191  0.016105137           27 
 2501000   0.84556834   -8.0542492    493.22772   0.01643435  0.016099163           34 
 2502000   0.86728538   -8.0693612    492.71102  0.016410572  0.016093144           11 
 2503000   0.84051869   -8.0894509    491.95535  0.016378857  0.016087142           59 
 2504000    0.8354319   -8.0867818    493.06598  0.016409278  0.016081087           65 
 2505000   0.85697397   -8.0809702    492.34555  0.016378761  0.016075044           62 
 2506000   0.85875231   -8.0832815    492.64136  0.016382062  0.016068988           99 
 2507000   0.83416224   -8.1287551    491.44487  0.016335755  0.016062933           86 
 2508000   0.85436978   -8.1207177    492.46752  0.016363222  0.016056842           53 
 2509000   0.84225338   -8.0991639    491.72264  0.016331959  0.016050788           86 
 2510000   0.84076354   -8.0827955    492.88038   0.01636389  0.016044725           77 
 2511000   0.86470905     -8.11532     491.7532  0.016319966  0.016038654           84 
 2512000   0.84628707   -8.1075248    492.52148  0.016338956  0.016032558           54 
 2513000   0.85660706   -8.1455377     491.6264  0.016302772  0.016026476           73 
 2514000   0.83560729   -8.1062595    491.69198  0.016298461  0.016020406          104 
 2515000   0.84834594   -8.0740782    493.52139  0.016352598  0.016014364          110 
 2516000   0.85619097   -8.1082752    492.26761  0.016304571  0.016008306          131 
 2517000   0.84822178   -8.1174037    490.52408  0.016240368  0.016002251          104 
 2518000   0.84957321   -8.1516181    491.67941  0.016272154  0.015996139          124 
 2519000   0.85011588   -8.1112342    491.96379  0.016275102  0.015990063          129 
 2520000   0.85806246   -8.0926549    492.42049  0.016283746  0.015983977          149 
 2521000   0.83316973   -8.0974354    492.03764  0.016264632  0.015977908          154 
 2522000   0.85888181   -8.0869775     491.9138  0.016254091  0.015971842          149 
 2523000   0.83324322   -8.1028024    492.77645  0.016276141  0.015965771          126 
 2524000   0.84385128   -8.1360646    491.81575  0.016237974   0.01595968          164 
 2525000     0.855434   -8.1177857    492.52736  0.016255028    0.0159536          170 
 2526000   0.85396114   -8.0926127    492.83421  0.016258716  0.015947516          183 
 2527000   0.85084776    -8.115682    491.46429  0.016207106   0.01594141          229 
 2528000   0.85414758   -8.1292905    492.96021  0.016250007  0.015935305          204 
 2529000   0.84866909   -8.1457587    491.33443   0.01619001  0.015929212          226 
 2530000   0.84653859   -8.1166064    492.57506  0.016224475  0.015923136          182 
 2531000   0.84850613   -8.1519466    491.27782  0.016175353  0.015917054          244 
 2532000   0.85348177   -8.1200942     493.0381  0.016226899  0.015910969          204 
 2533000   0.82990085   -8.1262752     492.0373  0.016187568  0.015904898          250 
 2534000    0.8631948   -8.1068439    491.69935  0.016170066   0.01589881          245 
 2535000   0.84303518   -8.1440545    491.78592  0.016166533  0.015892713          238 
 2536000   0.83637519   -8.1704563    491.68645  0.016156889  0.015886596          275 
 2537000   0.85094032   -8.1456092     490.6012  0.016114873   0.01588046          249 
 2538000   0.86006166   -8.1291105    492.94299  0.016185415  0.015874327          250 
 2539000   0.86127891   -8.1560484     491.8115  0.016141903  0.015868205          249 
 2540000   0.83561258   -8.1287192    492.01583  0.016142252  0.015862068          285 
 2541000   0.84979122   -8.1657762    490.98833  0.016102202   0.01585595          277 
 2542000   0.86568848   -8.1553371    492.35414  0.016140642  0.015849793          287 
 2543000    0.8665939   -8.1566183    491.60469  0.016109735  0.015843675          301 
 2544000   0.84704103   -8.1666068    491.63088  0.016104261  0.015837545          260 
 2545000   0.83646863   -8.2134139    490.12016  0.016048466   0.01583138          520 
 2546000   0.85395665   -8.1970692    490.33217  0.016049102  0.015825171          347 
 2547000    0.8451552   -8.1996523    491.10953  0.016068235  0.015818954          295 
 2548000   0.85169158   -8.2297922    489.05394    0.0159947  0.015812718          576 
 2549000   0.82273326   -8.2387468    489.36915   0.01599873  0.015806481          571 
 2550000   0.87008983    -8.193472    490.13585  0.016017511  0.015800247          597 
 2551000   0.84117631   -8.2143303    491.89774  0.016068788   0.01579403          606 
 2552000   0.83826793   -8.2316301    489.68915  0.015990372  0.015787794          696 
 2553000   0.84723754   -8.2500043    489.73138  0.015985487  0.015781538          739 
 2554000   0.83233261   -8.1922103    490.31305  0.015998207   0.01577527          414 
 2555000    0.8413549    -8.260893    488.75613  0.015941165  0.015769005          703 
 2556000   0.83740129   -8.2213367    489.17916  0.015948721  0.015762736          768 
 2557000   0.83993254   -8.2442858    490.18855   0.01597538  0.015756438          763 
 2558000   0.85780392   -8.2613321    489.54099  0.015948039  0.015750148          822 
 2559000   0.83218221   -8.2690408    487.75173  0.015883539  0.015743811          883 
 2560000   0.84265301   -8.2589967    489.90149  0.015947314  0.015737486          886 
 2561000   0.84365507    -8.247433    489.90471  0.015941192  0.015731188          923 
 2562000   0.82301221   -8.2540749    488.59972  0.015892523  0.015724871          988 
 2563000   0.84118607   -8.3133269    488.04316  0.015868226  0.015718499         1013 
 2564000   0.84698162   -8.2976091    488.18311  0.015866586  0.015712119         1033 
 2565000    0.8401853   -8.2877086    489.39195  0.015899673  0.015705757         1023 
 2566000   0.83990983   -8.2873642    488.67087   0.01587006  0.015699371         1121 
 2567000   0.83966443    -8.291597     487.9541  0.015840608  0.015692976         1050 
 2568000   0.83879232   -8.3185066    487.43156  0.015817483  0.015686602         1182 
 2569000     0.827742   -8.2903464    489.35179  0.015873615  0.015680199         1159 
 2570000   0.84122447   -8.3175027    488.55214  0.015841509  0.015673775         1201 
 2571000    0.8231377   -8.3680018    488.32064  0.015827844  0.015667335         1257 
 2572000   0.83890296   -8.3408649    487.71857  0.015802183  0.015660859         1231 
 2573000   0.82771641   -8.3688381    487.26186   0.01578125  0.015654348         1315 
 2574000   0.83970292    -8.359345    487.58416  0.015785553  0.015647871         1302 
 2575000   0.84515097   -8.3628393    487.27276  0.015769345  0.015641358         1423 
 2576000   0.82748669   -8.3785659     486.4335  0.015736073  0.015634859         1481 
 2577000   0.83391586   -8.3830721    487.40384  0.015761345  0.015628326         1493 
 2578000   0.84471012   -8.3859258    486.16213  0.015715093  0.015621792         1618 
 2579000   0.84813004   -8.3994612    485.53047   0.01568859  0.015615245         1588 
 2580000   0.82700844   -8.4024461    486.15901   0.01570281  0.015608706         1622 
 2581000   0.82272831   -8.4246898    485.98712  0.015691177  0.015602149         1688 
 2582000   0.83827817   -8.3853245    485.87856  0.015681596  0.015595573         1665 
 2583000   0.84778806   -8.3857977    486.88446  0.015707977  0.015589005         1687 
 2584000   0.83229588   -8.4329044    485.94669  0.015671655  0.015582426         1750 
 2585000   0.82713881   -8.4245703    485.56241  0.015653205  0.015575832         1886 
 2586000   0.84650231   -8.4507616    485.30599  0.015638888  0.015569215         1814 
 2587000   0.85688864   -8.4198835    486.57902  0.015673851  0.015562602         1898 
 2588000   0.86630718   -8.4858569    484.33113  0.015595412  0.015555953         1944 
 2589000   0.82527416   -8.4911454    484.67461  0.015600444  0.015549279         2037 
 2590000     0.843734   -8.5081058    484.66778  0.015594201  0.015542608         2122 
 2591000   0.82127382   -8.4912429    485.04344  0.015600265  0.015535937         2097 
 2592000   0.83487319   -8.5197744    483.48592  0.015544172  0.015529245         2156 
 2593000   0.82891568   -8.5242513    484.15712  0.015559748  0.015522543         2231 
 2594000    0.8242954   -8.5358854    483.50101  0.015532672  0.015515785         2302 
 2595000   0.83012027   -8.5451177     482.9266   0.01550824  0.015509007         2331 
 2596000   0.86008345   -8.5477573    483.92917  0.015534449  0.015502222         2313 
 2597000   0.84969271   -8.5601924    482.80654  0.015492444  0.015495415         2418 
 2598000   0.83613458   -8.5938259    481.44195  0.015442711   0.01548859         2497 
 2599000   0.83752572   -8.5879321    481.06102  0.015424555  0.015481753         2509 
 2600000   0.83219701   -8.5962974    481.46232  0.015431485  0.015474916         2560 
 2601000   0.84777666   -8.6165234    482.10061  0.015446002  0.015468058         2627 
 2602000   0.83837768   -8.6180473    480.80263  0.015398496  0.015461189         2660 
 2603000     0.841079    -8.594159    482.26101  0.015439269  0.015454334         2748 
 2604000   0.86177946   -8.6516908    480.70345  0.015383495   0.01544744         2813 
 2605000   0.83563045   -8.6552779     479.7048  0.015345643  0.015440534         2879 
 2606000   0.82451843   -8.6719814    481.54421  0.015398574  0.015433611         2906 
 2607000   0.83390588   -8.6579523    479.87797  0.015339406  0.015426688         2837 
 2608000    0.8469445   -8.6714619    479.50539  0.015321619   0.01541973         2948 
 2609000   0.81909112   -8.6752827    479.37408  0.015311552  0.015412781         2917 
 2610000   0.84104129   -8.6599556    479.63406  0.015313987  0.015405823         2931 
 2611000   0.82523528   -8.6719757    481.23625  0.015359257  0.015398866         2917 
 2612000   0.82610204   -8.7177125    479.06477  0.015284098  0.015391873         3070 
 2613000   0.83701383   -8.6885213    479.86525  0.015303777  0.015384854         3049 
 2614000    0.8298859    -8.717019    479.10999  0.015273846  0.015377862         3096 
 2615000    0.8250117   -8.7131241    480.50188  0.015312361  0.015370874         3062 
 2616000   0.83264844   -8.7287588    478.21788   0.01523375  0.015363879         3083 
 2617000   0.82571281   -8.7292808    478.21107  0.015227712  0.015356876         3133 
 2618000   0.83146983    -8.693214    478.34271  0.015226086  0.015349857         3154 
 2619000    0.8337459   -8.7075484    478.67336  0.015230793  0.015342832         3122 
 2620000   0.84331676   -8.7287432     478.7914  0.015228734  0.015335828         3099 
 2621000   0.82815696    -8.696369    478.94758  0.015227889  0.015328798         3169 
 2622000   0.84028174   -8.7227525    478.40627  0.015204878  0.015321779         3155 
 2623000    0.8133364   -8.7172412    478.27386  0.015194874   0.01531475         3199 
 2624000   0.82754292   -8.7109355    479.23935  0.015219746  0.015307712         3148 
 2625000   0.84059345   -8.7581438    478.32622  0.015184959  0.015300685         3246 
 2626000   0.83333716   -8.7449707    478.42278  0.015182241  0.015293647         3243 
 2627000   0.83691345   -8.7481475    478.04203  0.015164384  0.015286607         3263 
 2628000   0.84976583   -8.7591803    478.69873  0.015179437  0.015279559         3169 
 2629000   0.81459812   -8.7661691     478.8552  0.015178623  0.015272505         3282 
 2630000   0.84296056    -8.761028    478.81059  0.015171438  0.015265458         3308 
 2631000   0.82676363   -8.7758729    477.25453  0.015116386  0.015258389         3352 
 2632000   0.81503388   -8.7787815     477.3058  0.015112266  0.015251322         3375 
 2633000   0.83182146   -8.7606301    477.22368  0.015103927  0.015244244         3387 
 2634000   0.82941773   -8.7604778    477.21784  0.015098008  0.015237158         3428 
 2635000   0.83168017   -8.7643334    479.11428  0.015152254  0.015230075         3438 
 2636000   0.83446637   -8.7829198    477.27124  0.015088241  0.015222973         3350 
 2637000   0.85944625   -8.7722576    477.06541  0.015076015  0.015215869         3408 
 2638000   0.82345614   -8.7944148    477.18099  0.015073951   0.01520877         3405 
 2639000   0.85279124   -8.7731266    477.48423  0.015077814  0.015201647         3439 
 2640000   0.84212267    -8.774572    477.03788  0.015058014  0.015194543         3361 
 2641000   0.82131033    -8.800005    476.85709  0.015046608  0.015187442         3426 
 2642000   0.82144492    -8.805635    477.05481  0.015047149  0.015180342         3426 
 2643000   0.83180937   -8.7951952    476.13022  0.015012304  0.015173229         3358 
 2644000   0.81960754   -8.8006802    476.50844  0.015018546  0.015166119         3491 
 2645000   0.82762448   -8.8186951    476.32319  0.015007032  0.015158984         3555 
 2646000   0.82397199   -8.8286248    476.17894  0.014996817   0.01515183         3555 
 2647000   0.81763456   -8.8269828    475.84455  0.014980624  0.015144677         3555 
 2648000   0.82606097   -8.8336873    475.30585  0.014958014  0.015137527         3615 
 2649000   0.82809881   -8.8653346    475.82804  0.014968795   0.01513037         3589 
 2650000   0.84020411   -8.8592459    475.35198  0.014948176  0.015123192         3551 
 2651000   0.81234142   -8.8409033    475.34706  0.014942382  0.015116022         3612 
 2652000   0.84630859   -8.8627964    475.10407  0.014929112  0.015108839         3600 
 2653000   0.82012263   -8.8370689    475.09856  0.014923312  0.015101646         3637 
 2654000   0.82135542   -8.8787541    474.86726  0.014910426  0.015094448         3598 
 2655000   0.84291943   -8.8690166    474.87192  0.014904957  0.015087248         3615 
 2656000   0.80657366   -8.8872984    474.69013  0.014893641  0.015080047         3621 
 2657000   0.81924727   -8.8765635    474.11301  0.014869935  0.015072843         3633 
 2658000   0.82341952   -8.8549208    474.64013  0.014880867  0.015065641         3638 
 2659000   0.83607776   -8.8969155     475.5284  0.014903109  0.015058451         3622 
 2660000   0.81957067   -8.8683453    475.27464  0.014889556  0.015051252         3622 
 2661000    0.8221394   -8.9034138    475.48948  0.014890689   0.01504406         3633 
 2662000   0.81947815    -8.896121    474.41678  0.014851514   0.01503686         3672 
 2663000   0.83507727   -8.9143313    474.66902  0.014853831  0.015029673         3678 
 2664000   0.82763122   -8.8880469    473.48511  0.014811221  0.015022475         3701 
 2665000   0.82916787   -8.9242652    473.52957  0.014807053  0.015015287         3677 
 2666000   0.83515395   -8.9157671    474.17929  0.014821808  0.015008092         3739 
 2667000   0.84139942   -8.8690355    475.13642  0.014846158  0.015000897         3726 
 2668000   0.84764547   -8.9015647    474.33578  0.014815585  0.014993705         3705 
 2669000   0.81866081    -8.924557    473.33708  0.014778852  0.014986506         3715 
 2670000    0.8312613   -8.9097629    474.28578  0.014802927  0.014979319         3653 
 2671000   0.81364323   -8.9449294     473.5441  0.014774245  0.014972123         3668 
 2672000   0.83731807   -8.8906832    474.83204  0.014808884  0.014964911         3637 
 2673000   0.82174426   -8.9310606    472.67237  0.014736014  0.014957701         3676 
 2674000     0.824897   -8.9352482    473.24385  0.014748313  0.014950486         3728 
 2675000   0.82259211   -8.9438161    472.97295   0.01473436  0.014943267         3733 
 2676000   0.81047842   -8.9503209    473.31859  0.014739617  0.014936051         3735 
 2677000   0.82541219   -8.9567126    472.49082  0.014708343  0.014928826         3743 
 2678000   0.82000823   -8.9607507     472.1042   0.01469082  0.014921597         3721 
 2679000   0.83110235   -8.9474044     471.9468   0.01468044  0.014914359         3777 
 2680000   0.83528828   -8.9485413    473.83747  0.014733752  0.014907115         3763 
 2681000   0.82524891   -8.9455267    472.72082  0.014693548  0.014899874         3754 
 2682000   0.81683476   -8.9647268    471.96936   0.01466472  0.014892635         3758 
 2683000   0.81989731   -8.9776542    472.00935  0.014660497  0.014885385         3812 
 2684000   0.83372858    -8.970479    473.24993  0.014693552  0.014878137         3758 
 2685000   0.80960827   -8.9177455    473.53649  0.014696974  0.014870896         3795 
 2686000   0.81017039   -8.9512886    471.45532  0.014626934  0.014863658         3839 
 2687000   0.82976798   -8.9644263    472.76332  0.014662056  0.014856418         3796 
 2688000   0.81131939   -8.9251475    473.97747  0.014694242  0.014849167         3790 
 2689000   0.80690775   -8.9502798    472.85473  0.014653983  0.014841922         3818 
 2690000   0.82565862   -8.9593071    472.26998  0.014630421  0.014834687         3796 
 2691000   0.80252173   -8.9798083    472.24202  0.014624118  0.014827444         3798 
 2692000   0.81468609    -8.988294    471.52544  0.014596503  0.014820205         3812 
 2693000   0.82905112   -8.9700918    473.08657  0.014639391  0.014812976         3798 
 2694000   0.80695423   -8.9929814    473.04693  0.014632731  0.014805743         3792 
 2695000   0.79826902   -8.9755079     472.1945  0.014600943  0.014798521         3795 
 2696000   0.81646636   -9.0008401    472.12568    0.0145934  0.014791295         3826 
 2697000   0.81487342    -8.959743    471.97955  0.014583474  0.014784076         3807 
 2698000   0.82879149   -8.9717124    472.98083  0.014608995  0.014776865         3813 
 2699000   0.82401421   -8.9667777    472.08146  0.014575814  0.014769645         3753 
 2700000   0.81597588    -8.969372    473.03878  0.014599962  0.014762426         3794 
 2701000   0.81805547   -8.9627006    472.43446  0.014575912  0.014755211         3841 
 2702000   0.82767195   -8.9793318    472.54447   0.01457391  0.014748003         3850 
 2703000   0.81885849   -8.9506288    473.33609  0.014592924  0.014740801         3816 
 2704000   0.81614573   -8.9854396    471.97428  0.014545558  0.014733611         3817 
 2705000   0.82431851   -8.9849707    472.89004  0.014568393  0.014726415         3846 
 2706000   0.81781794   -8.9798015    473.29569  0.014575502  0.014719225         3800 
 2707000   0.81384451   -8.9728712     472.5038   0.01454574  0.014712029         3842 
 2708000   0.80662527   -9.0042587    471.89632  0.014521674  0.014704838         3817 
 2709000   0.84289363   -8.9795114    471.05336  0.014490383  0.014697647         3830 
 2710000   0.81746495   -8.9696749    472.20884  0.014520567  0.014690467         3779 
 2711000   0.82216597   -8.9857471    472.87121  0.014535571  0.014683288         3820 
 2712000   0.79935642   -9.0038261    471.22209  0.014479538  0.014676102         3838 
 2713000   0.79984385   -8.9670655    472.44211  0.014511675  0.014668916         3838 
 2714000   0.81438265   -8.9959691    472.36046  0.014503822  0.014661742         3865 
 2715000   0.79561919   -8.9833247    471.67225  0.014477356  0.014654574         3820 
 2716000   0.80054117   -8.9897158    471.65421  0.014471472  0.014647406         3859 
 2717000   0.81702358   -8.9804868    471.05081  0.014447639  0.014640233         3839 
 2718000   0.80850222   -9.0034171    472.19144  0.014477294  0.014633063         3842 
 2719000   0.82771294   -8.9749687    472.30172   0.01447535  0.014625895         3803 
 2720000   0.83846366   -8.9906734    471.17642  0.014435552  0.014618731         3862 
 2721000   0.80758231   -9.0109647    472.56733  0.014472845  0.014611583         3837 
 2722000   0.81412329   -8.9880835     472.2619  0.014458177  0.014604432         3867 
 2723000   0.81458393   -8.9896707    471.95638  0.014443518  0.014597279         3853 
 2724000   0.82197059   -8.9739363    471.94217   0.01443778  0.014590137         3862 
 2725000   0.82201881   -8.9922449    471.62875  0.014422898  0.014583011         3813 
 2726000   0.80921566   -8.9819128    471.89609  0.014425779  0.014575873         3834 
 2727000   0.80812309   -9.0202703    471.71076  0.014414826  0.014568736         3837 
 2728000   0.83660126   -8.9881345    472.73809  0.014440924  0.014561601         3880 
 2729000   0.80358765   -9.0178079    471.49178  0.014397575  0.014554475         3822 
 2730000   0.81478185   -9.0130499     472.4914  0.014422814  0.014547347         3842 
 2731000   0.81263223   -8.9889813    471.37528  0.014383476  0.014540215         3837 
 2732000   0.82096279   -8.9928337    471.64443  0.014386421  0.014533106         3869 
 2733000   0.80062225   -9.0300488    471.33628  0.014371761  0.014525974         3868 
 2734000   0.83070106   -9.0068911    472.39606  0.014398807  0.014518848         3862 
 2735000   0.82752915   -9.0062687    471.31527  0.014360612   0.01451173         3823 
 2736000   0.82552539   -9.0023645    472.28336  0.014384849  0.014504611         3869 
 2737000   0.81931426   -9.0113608    471.33113  0.014350601  0.014497496         3834 
 2738000   0.82325891   -9.0003105    471.78975  0.014359318   0.01449038         3871 
 2739000   0.80440876    -9.020048    471.56256  0.014347163  0.014483266         3862 
 2740000   0.80809588   -9.0030586    471.38657  0.014336575  0.014476158         3855 
 2741000   0.81365419   -9.0147815    471.79759   0.01434384  0.014469047         3841 
 2742000   0.79920246   -9.0248343     470.1115  0.014287366  0.014461935         3878 
 2743000   0.81271734   -9.0443922    471.68769  0.014330043  0.014454823         3874 
 2744000   0.82200091   -9.0171702    472.46479   0.01434842  0.014447724         3863 
 2745000   0.81248952   -9.0020284     471.6597  0.014318752  0.014440624         3877 
 2746000   0.81522866   -9.0188762    470.94952  0.014291986  0.014433536         3890 
 2747000   0.81831594   -9.0258175    471.74014  0.014310767  0.014426434         3877 
 2748000   0.81712528   -9.0318476    470.96871  0.014282166  0.014419348         3902 
 2749000   0.80469077   -9.0171215    471.08756  0.014280573  0.014412262         3879 
 2750000   0.80843812    -9.015144    471.20452  0.014278925  0.014405178         3887 
 2751000   0.79648121   -9.0282668    472.18443  0.014303418  0.014398105         3892 
 2752000   0.81664941   -9.0243479    471.77847  0.014285928  0.014391035         3894 
 2753000   0.81381059   -9.0414599    470.79575  0.014250991  0.014383961         3868 
 2754000   0.80829093   -9.0470379    471.79664  0.014276103  0.014376903         3878 
 2755000   0.80060777   -9.0192146    471.36746  0.014257939  0.014369843         3898 
 2756000   0.82489405   -9.0259478    471.64372  0.014261119  0.014362793         3897 
 2757000   0.81878472   -9.0149128    471.94948  0.014265188  0.014355735         3883 
 2758000   0.79966087   -9.0408319    471.54459  0.014247782   0.01434867         3897 
 2759000   0.80190344   -9.0242375    470.99584  0.014226043   0.01434162         3884 
 2760000   0.83026839    -9.009193    471.28365  0.014229579  0.014334572         3896 
 2761000   0.79915212   -9.0315877    472.53645  0.014262237  0.014327524         3891 
 2762000   0.81354174   -9.0413176    470.71333  0.014202068  0.014320481         3895 
 2763000   0.81851564   -9.0235397    472.28122  0.014244216  0.014313439         3901 
 2764000   0.80825415   -9.0115786    472.14846   0.01423506  0.014306402         3873 
 2765000   0.79821232   -9.0172528    471.17156  0.014200469  0.014299369         3886 
 2766000    0.8288787   -9.0293246    470.91946   0.01418774  0.014292329         3871 
 2767000   0.80882186   -9.0337112    471.08033  0.014187457  0.014285309         3892 
 2768000   0.80818341   -9.0405854     471.4462  0.014193347  0.014278282         3925 
 2769000   0.78597356   -9.0536978    471.99844   0.01420484  0.014271254         3870 
 2770000   0.82829816   -9.0153819    471.34741  0.014180127  0.014264231         3902 
 2771000   0.81689063   -9.0244226     471.2642  0.014172507  0.014257218         3904 
 2772000   0.79947629   -9.0582267    470.80506  0.014153591  0.014250209         3891 
 2773000   0.80603024   -9.0488731     471.1228  0.014158036  0.014243187         3883 
 2774000   0.79305634   -9.0684481    470.87721  0.014145554  0.014236179         3894 
 2775000   0.79119548   -9.0313711    471.59903  0.014162133  0.014229176         3866 
 2776000   0.80617534   -9.0220972    471.02437  0.014139781  0.014222183         3888 
 2777000   0.81117289   -9.0559216    472.26219  0.014171834  0.014215195         3891 
 2778000   0.81066708   -9.0433998    471.61775  0.014147401  0.014208195         3881 
 2779000    0.8043544   -9.0751483    469.32381  0.014073522  0.014201202         3903 
 2780000   0.77508573   -9.0431077     471.7867  0.014142287  0.014194208         3874 
 2781000    0.8185447   -9.0431711    471.07858  0.014115983  0.014187225         3910 
 2782000   0.79840473    -9.036332    471.67302  0.014128715   0.01418024         3897 
 2783000   0.81433825   -9.0482542    471.42581  0.014116236  0.014173261         3894 
 2784000   0.79186844   -9.0546569    471.33438  0.014108429  0.014166289         3872 
 2785000    0.8015304   -9.0192526    471.93263  0.014121264   0.01415932         3914 
 2786000   0.79737776    -9.022913    471.39751  0.014100189  0.014152351         3910 
 2787000   0.82109298   -9.0650303    470.65368  0.014072888  0.014145384         3900 
 2788000   0.80495181   -9.0424795    471.31131  0.014087497  0.014138427         3922 
 2789000   0.81082141   -9.0468704    470.29564  0.014052099  0.014131473         3887 
 2790000   0.79322586   -9.0077162    470.62759  0.014056977  0.014124517         3901 
 2791000   0.79399095   -9.0660087    470.09023  0.014035896  0.014117558         3896 
 2792000   0.81127906    -9.040929    471.44721  0.014071371  0.014110612         3889 
 2793000    0.7953775   -9.0469396    471.15074  0.014057487  0.014103677         3883 
 2794000   0.79283738   -9.0611176    470.72679  0.014039811  0.014096747         3884 
 2795000   0.80327168     -9.04648    471.16667  0.014047903  0.014089807         3894 
 2796000   0.80187801   -9.0638406    471.23133  0.014044806  0.014082873         3893 
 2797000   0.81379618   -9.0416875    471.51145   0.01404813   0.01407594         3881 
 2798000    0.8186372   -9.0676471    470.63975  0.014017148  0.014069016         3901 
 2799000   0.79099363   -9.0296879    470.78889   0.01401658  0.014062102         3895 
 2800000   0.79895746   -9.0366397    470.90898  0.014015148  0.014055178         3919 
 2801000   0.79580328    -9.032211    471.10002  0.014015828  0.014048257         3893 
 2802000   0.80706807   -9.0509497    471.31456  0.014017207  0.014041339         3907 
 2803000   0.79430228   -9.0745384    470.54495  0.013989326  0.014034426         3906 
 2804000    0.7982017   -9.0807903    470.27963  0.013976451  0.014027515         3902 
 2805000   0.81069788   -9.0363195    470.40475  0.013975186  0.014020603         3906 
 2806000    0.8119634   -9.0246124    470.90313  0.013985006  0.014013697         3895 
 2807000   0.80568049   -9.0883215    470.30565  0.013962286  0.014006801         3896 
 2808000   0.79490686   -9.0554629    470.51238  0.013963449  0.013999902         3892 
 2809000    0.7944756   -9.0667067     469.9147  0.013940747  0.013993012         3915 
 2810000   0.81274846   -9.0754666    470.68835  0.013958729  0.013986124         3892 
 2811000   0.80975491   -9.0766861    471.19241  0.013968707  0.013979245         3895 
 2812000   0.80329993   -9.0618092     470.3933  0.013940057   0.01397236         3895 
 2813000   0.79977743   -9.0682509    469.85524  0.013919162  0.013965479         3909 
 2814000     0.798943   -9.0495145    470.86373  0.013944081  0.013958606         3898 
 2815000   0.79525106   -9.0636828    470.65355  0.013932906  0.013951741         3913 
 2816000   0.79587408   -9.0614028    469.74437  0.013901053  0.013944871         3907 
 2817000   0.80095694   -9.0622098    470.31984  0.013913142  0.013938002         3904 
 2818000   0.79738096   -9.0640869    470.45654  0.013912247  0.013931143         3901 
 2819000   0.80735136   -9.0512093    469.94392  0.013892158  0.013924287         3912 
 2820000   0.79196145   -9.0550184    469.38804  0.013870805  0.013917435         3904 
 2821000   0.78324239    -9.070782    470.48501  0.013898293  0.013910578         3915 
 2822000   0.79168866   -9.0565596    470.65598  0.013898417  0.013903739         3893 
 2823000   0.80317306   -9.0351855    470.87677  0.013900011  0.013896898         3904 
 2824000   0.78428052   -9.0659024    470.08985  0.013871868   0.01389006         3912 
 2825000   0.80749189   -9.0490068    471.23356  0.013900695  0.013883229         3909 
 2826000   0.79192247   -9.0480714    471.33555  0.013898784  0.013876399         3880 
 2827000   0.77982537   -9.0658363    471.17888  0.013889249  0.013869571         3902 
 2828000    0.8130102   -9.0651249    470.25124  0.013857003   0.01386275         3922 
 2829000   0.80320807   -9.0744848    470.98664  0.013873767  0.013855938         3902 
 2830000   0.78449492   -9.0538124    470.37096  0.013850735  0.013849127         3910 
 2831000   0.79558478   -9.0700283     470.4131  0.013847083  0.013842317         3905 
 2832000    0.7824763   -9.0799668    469.60562  0.013818433  0.013835502         3909 
 2833000   0.81617079   -9.0717747    469.80848  0.013819522  0.013828695         3903 
 2834000   0.80812791    -9.064652    470.28395  0.013828627  0.013821896         3915 
 2835000   0.78873607   -9.0684882    471.01555  0.013845254    0.0138151         3903 
 2836000   0.79020669   -9.0721708    470.70994  0.013831392  0.013808309         3898 
 2837000   0.79927199   -9.0854467    470.25126  0.013813044  0.013801515         3882 
 2838000   0.78615119   -9.0827836    469.76447  0.013793883  0.013794727         3914 
 2839000    0.7946589   -9.0503315    471.07613  0.013827525  0.013787945         3918 
 2840000   0.79765931   -9.0148639    471.78286  0.013843394  0.013781159         3900 
 2841000   0.79808608   -9.0700542    470.41833  0.013798496   0.01377438         3896 
 2842000   0.80066419    -9.063196    470.24176  0.013788464  0.013767601         3917 
 2843000   0.79598449   -9.0774263    470.70729  0.013797259  0.013760824         3896 
 2844000   0.80841716   -9.0714814    470.41153  0.013783741   0.01375406         3895 
 2845000   0.80793034   -9.0673338    470.71869  0.013787894  0.013747292         3907 
 2846000   0.80234244   -9.0856375    470.11131  0.013765264  0.013740534         3910 
 2847000   0.78608783   -9.0556778    471.27088  0.013794371  0.013733776         3897 
 2848000   0.78814192   -9.0461582    470.13082  0.013756169  0.013727016         3908 
 2849000   0.78545148   -9.0768853    471.25727  0.013784289  0.013720263         3903 
 2850000   0.77283755   -9.0954001    469.39654  0.013725045  0.013713509         3906 
 2851000   0.78731974   -9.0504524    470.55691  0.013754148   0.01370677         3886 
 2852000   0.80642673   -9.0899155    470.25314  0.013740449  0.013700027         3910 
 2853000   0.82410855   -9.0912615    470.23642  0.013735145  0.013693289         3901 
 2854000    0.7968344   -9.0641345    471.19355  0.013758279  0.013686561         3902 
 2855000   0.78632273   -9.0939862    470.43759  0.013731395  0.013679835         3889 
 2856000   0.79979813   -9.0546619     470.7905  0.013736884  0.013673114         3891 
 2857000   0.79833214   -9.0864931    470.58425   0.01372606  0.013666388         3896 
 2858000   0.79964566   -9.0439146    471.29695  0.013742039   0.01365968         3883 
 2859000   0.78369721   -9.0496763    470.18374  0.013704784  0.013652962         3901 
 2860000   0.77317605   -9.0632271    470.67576  0.013714329  0.013646262         3892 
 2861000   0.78422087   -9.0688896    471.67274  0.013738574  0.013639557         3898 
 2862000   0.79130031   -9.0776526    469.66176   0.01367522   0.01363285         3912 
 2863000   0.80500655   -9.0572314    470.08011   0.01368262   0.01362615         3890 
 2864000   0.78363757   -9.0445241    470.54683  0.013691423  0.013619452         3908 
 2865000   0.79927938   -9.0693611    470.01405  0.013671148  0.013612761         3922 
 2866000   0.80251812   -9.0511029    471.13577  0.013698993  0.013606075         3867 
 2867000   0.79074323   -9.0687608     470.2121  0.013667367  0.013599386         3905 
 2868000   0.79218787   -9.0526316    471.14044  0.013689576   0.01359271         3897 
 2869000   0.79507084   -9.0862213    470.34705  0.013661759  0.013586031         3903 
 2870000    0.7987854   -9.0905167    469.53299  0.013633362  0.013579357         3877 
 2871000   0.76723258   -9.0755543    470.30615  0.013651055  0.013572682         3907 
 2872000   0.79130071   -9.0930093    469.80278  0.013631696  0.013566018         3909 
 2873000   0.78485543   -9.0788391    470.81903  0.013656429  0.013559359         3895 
 2874000   0.79781704   -9.0831441    470.13976  0.013631981  0.013552695         3896 
 2875000   0.79764267   -9.0573588    470.64798  0.013641971  0.013546033         3887 
 2876000   0.79757806   -9.0789862    471.15391  0.013651887  0.013539386         3908 
 2877000   0.79641599   -9.1220276    469.71319  0.013605411  0.013532732         3927 
 2878000    0.7834243   -9.1043104    470.15176  0.013613382  0.013526088         3903 
 2879000   0.79313806   -9.0581439    470.85796  0.013629094  0.013519448         3882 
 2880000   0.79663276   -9.0493012    470.33105  0.013609116  0.013512812         3893 
 2881000   0.80783589   -9.0891663    470.19379  0.013600422  0.013506172         3916 
 2882000   0.81274572   -9.0724242    469.27695  0.013569193  0.013499535         3901 
 2883000   0.78537854    -9.091661    470.09589  0.013588157  0.013492905         3900 
 2884000    0.7918978   -9.0586939    470.40153  0.013592277  0.013486285         3891 
 2885000   0.79209389   -9.0885383    470.38435   0.01358707  0.013479663         3903 
 2886000   0.78337598   -9.0969686    469.56835    0.0135588   0.01347304         3896 
 2887000   0.78164429   -9.0873786    469.67687  0.013557236  0.013466433         3922 
 2888000   0.81028892   -9.0918455    470.15957  0.013566469  0.013459828         3905 
 2889000   0.78959382   -9.0735675    470.43184  0.013569627  0.013453221         3901 
 2890000   0.79501251   -9.0881532    469.32584   0.01353304  0.013446611         3905 
 2891000    0.7694174   -9.0849142    469.20388  0.013524844  0.013440004         3910 
 2892000   0.78596953   -9.0806081    469.79579  0.013537223  0.013433411         3908 
 2893000   0.76808711   -9.0988989    468.67022  0.013500121  0.013426815         3917 
 2894000   0.77256572   -9.0748171    470.07376  0.013535872  0.013420216         3894 
 2895000   0.78677752   -9.0818029    469.98502  0.013528642  0.013413626         3896 
 2896000   0.78590243    -9.064887     468.7889  0.013489552  0.013407049         3927 
 2897000   0.78150401   -9.0719478    470.59568  0.013536868  0.013400471         3908 
 2898000   0.79051759   -9.1077911    469.45159  0.013499298  0.013393889         3916 
 2899000   0.79031147   -9.0676023    470.95977  0.013537995  0.013387328         3904 
 2900000   0.80080389   -9.0661019    470.30876  0.013514619  0.013380767         3889 
 2901000   0.79365838   -9.0716105    470.01375  0.013501487  0.013374201         3925 
 2902000   0.78510611   -9.0866307     470.4133  0.013508308  0.013367648         3909 
 2903000   0.79911966   -9.0745598    469.47846  0.013476819  0.013361086         3912 
 2904000   0.78913776   -9.0818679    469.83545  0.013482422  0.013354529         3919 
 2905000   0.78664879   -9.0832001    470.01817  0.013483023  0.013347981         3906 
 2906000   0.78106231   -9.0760702     469.4164  0.013461126  0.013341434         3913 
 2907000   0.78703265    -9.113728    469.43733  0.013457096  0.013334893         3908 
 2908000   0.77973645   -9.0701841    470.50132  0.013482958  0.013328347         3911 
 2909000   0.76820888   -9.0703415    470.73747  0.013485089  0.013321808         3894 
 2910000   0.77140167   -9.0908803    469.82827  0.013454418  0.013315281         3911 
 2911000   0.78422558   -9.0950734    469.91168  0.013452184  0.013308755         3905 
 2912000   0.78490163   -9.0828057    470.11535  0.013453393  0.013302224         3910 
 2913000   0.80191638   -9.1012097    470.17441  0.013450464  0.013295693         3908 
 2914000   0.78933413   -9.0697282    470.80835  0.013463977  0.013289172         3924 
 2915000   0.79939368   -9.1136826    469.69335  0.013427483   0.01328266         3901 
 2916000   0.79548483   -9.0955161    469.40446  0.013414622  0.013276143         3919 
 2917000   0.79122921    -9.094918    469.29051  0.013406768  0.013269636         3891 
 2918000   0.77578323   -9.0920467    470.17486  0.013427429  0.013263131         3903 
 2919000   0.78008753   -9.0732041    470.19194  0.013423317  0.013256629         3910 
 2920000   0.78436393   -9.0847697    470.68231  0.013432714  0.013250128         3927 
 2921000   0.77636798   -9.0969762    468.74935   0.01337297  0.013243639         3921 
 2922000   0.79046291   -9.0789644    469.97871  0.013403454  0.013237155         3907 
 2923000   0.77590907   -9.0837966    469.93138  0.013397519  0.013230674         3906 
 2924000   0.78535012   -9.0958292    469.70277  0.013386422  0.013224193         3898 
 2925000   0.79222708   -9.0634645    469.10652  0.013364858  0.013217718         3900 
 2926000   0.80092474   -9.0795844    471.50955  0.013428729  0.013211247         3904 
 2927000   0.78066595   -9.0816554    468.99804  0.013352637  0.013204783         3906 
 2928000   0.76450317    -9.117229    470.06118  0.013378335  0.013198317         3925 
 2929000   0.77235333   -9.0981439     469.4263  0.013355704  0.013191857         3898 
 2930000   0.78650311   -9.0980944    469.41028  0.013350691  0.013185403         3881 
 2931000   0.78392557   -9.0849453    469.10614  0.013337488  0.013178956         3894 
 2932000   0.78669352   -9.1006458    469.71166   0.01335015  0.013172497         3886 
 2933000   0.77908317   -9.0837754    468.29285  0.013305286   0.01316605         3910 
 2934000   0.78994919   -9.1205691    469.28315  0.013328878  0.013159606         3893 
 2935000   0.78514383   -9.0750828    470.19643  0.013350268  0.013153172         3898 
 2936000   0.78922111   -9.0873623    470.38089  0.013350956  0.013146734         3902 
 2937000   0.79023605   -9.1068847      469.277  0.013315089  0.013140301         3898 
 2938000   0.75659391   -9.1226432    470.37566  0.013341719  0.013133877         3914 
 2939000   0.76938132    -9.075088    470.44464  0.013339136  0.013127452         3922 
 2940000   0.78180244   -9.0812388    469.83452  0.013317305  0.013121032         3898 
 2941000   0.77579714   -9.1117024    470.02524  0.013318181  0.013114612         3914 
 2942000   0.78714242   -9.1004776    469.50875  0.013299024  0.013108198         3888 
 2943000   0.77799661   -9.1145097    470.39112   0.01331949  0.013101784         3874 
 2944000   0.78913415    -9.096963    469.78347  0.013297766  0.013095377         3908 
 2945000   0.76944728   -9.0929671    469.59529  0.013287926  0.013088975         3935 
 2946000   0.78405295   -9.0910946    470.26839  0.013302455  0.013082577         3901 
 2947000   0.77621853   -9.1055259    470.32595  0.013299569  0.013076184         3903 
 2948000   0.75346414   -9.0863745     469.8012  0.013280224   0.01306979         3900 
 2949000    0.7713153   -9.0997854     469.4105   0.01326468  0.013063391         3911 
 2950000   0.77731466   -9.0723133    470.35285  0.013286804  0.013057007         3898 
 2951000   0.77994405   -9.0729325    469.41599  0.013255845  0.013050619         3915 
 2952000    0.7851063   -9.0857246     470.1227  0.013271305  0.013044241         3894 
 2953000   0.78270154   -9.1105801    469.54929  0.013250629  0.013037859         3911 
 2954000   0.78942576   -9.1063385    470.19731  0.013264424  0.013031482         3944 
 2955000   0.77522291   -9.1119279     468.5876   0.01321454  0.013025102         3896 
 2956000   0.78793463   -9.1031162    469.68991  0.013241145  0.013018734         3905 
 2957000   0.76923088   -9.0719337    470.60465  0.013262446   0.01301237         3905 
 2958000   0.78133691   -9.1029361    468.82982  0.013207962   0.01300601         3913 
 2959000   0.78693767   -9.0865868    469.84578  0.013232111  0.012999659         3921 
 2960000    0.7810005   -9.1311375    469.15294  0.013208135  0.012993302         3931 
 2961000   0.76151035   -9.1022492    470.04453  0.013228767  0.012986945         3921 
 2962000   0.78114673   -9.0890443     470.6766  0.013242083  0.012980595         3909 
 2963000   0.77921057   -9.0899658    470.61284  0.013235821  0.012974253         3899 
 2964000    0.7786414    -9.079424     468.4993  0.013171933  0.012967903         3909 
 2965000   0.77584627   -9.0847704    469.17524  0.013186488  0.012961565         3912 
 2966000   0.78523955   -9.0992447    469.45296  0.013189845  0.012955229         3911 
 2967000   0.75955447   -9.0971109    469.33403  0.013182059  0.012948891         3920 
 2968000   0.79652787   -9.1017257    469.38218   0.01317897  0.012942559         3885 
 2969000   0.77841048   -9.1018298    469.44164  0.013176199  0.012936231         3904 
 2970000   0.79162549   -9.1185011    468.36083  0.013141437  0.012929904         3910 
 2971000   0.77596153   -9.1108878    469.64274   0.01317297  0.012923579         3880 
 2972000   0.77157092   -9.1081929    469.90844  0.013175988  0.012917259         3918 
 2973000   0.79328125   -9.1201296    468.70535  0.013137833  0.012910939         3923 
 2974000   0.75570584   -9.1084449     468.7347  0.013134238  0.012904626         3916 
 2975000    0.7842227   -9.1002788    469.33332  0.013146592  0.012898318         3911 
 2976000    0.7837057   -9.1253806    468.49992  0.013118837   0.01289201         3912 
 2977000   0.76385536    -9.125999     469.1855  0.013133622  0.012885706         3914 
 2978000   0.78991379   -9.1177268    469.19561  0.013129494  0.012879405         3908 
 2979000   0.77062506   -9.0904703    469.76568  0.013141034  0.012873102         3912 
 2980000   0.77645671   -9.1369033    469.41747  0.013126887  0.012866804         3905 
 2981000   0.78065056   -9.1312436    468.48796  0.013096499  0.012860514         3922 
 2982000    0.7500662   -9.0968902    470.28376  0.013142291  0.012854226         3913 
 2983000   0.77521507   -9.1064526    469.41523  0.013113622  0.012847949         3894 
 2984000   0.77074933   -9.1134384    469.38358  0.013108344  0.012841669         3927 
 2985000   0.78869934   -9.1117829    468.83977  0.013088771  0.012835396         3898 
 2986000   0.76674287    -9.113467    469.37528  0.013099332  0.012829127         3923 
 2987000   0.77145104   -9.1016706    469.32371  0.013093508  0.012822862         3914 
 2988000   0.78023629   -9.1276015    468.81947  0.013075063  0.012816593         3913 
 2989000   0.78108275   -9.1004826    469.14397  0.013079736  0.012810329         3918 
 2990000   0.77413812   -9.1417907     468.7771  0.013065136  0.012804068         3918 
 2991000   0.76569608   -9.0922042    469.24775  0.013073881  0.012797809         3899 
 2992000   0.78745894   -9.1576923    468.98232  0.013062119  0.012791548         3918 
 2993000   0.77122203   -9.1097615    468.75058  0.013051303  0.012785288         3915 
 2994000   0.77287205   -9.1248975    468.78832  0.013047994  0.012779039         3927 
 2995000   0.77687718   -9.1314563    469.26037  0.013056772  0.012772786         3918 
 2996000   0.78801118   -9.0946199    469.78955  0.013067133  0.012766548         3906 
 2997000    0.7717681   -9.1239777    469.71072  0.013060581  0.012760312         3919 
 2998000   0.76615078      -9.1324    468.48708  0.013022211  0.012754068         3914 
 2999000   0.76715763   -9.1265037    469.03413   0.01303307  0.012747831         3913 
 3000000   0.76594238   -9.1324991    468.24471  0.013006798  0.012741597         3937 
 3001000   0.77681915   -9.1386625    468.17524  0.013000534  0.012735372         3924 
 3002000   0.77917337   -9.1049003    469.10469  0.013022005  0.012729157         3925 
 3003000   0.76212575   -9.1313589    468.34013  0.012996452  0.012722942         3926 
 3004000   0.78216163   -9.1293635    468.80296  0.013004964  0.012716719         3925 
 3005000   0.77312186   -9.1138255    469.49909  0.013019942  0.012710514         3923 
 3006000   0.76264196   -9.1250129     469.1332  0.013005467  0.012704311         3910 
 3007000    0.7665306   -9.1135851    468.60431  0.012986485  0.012698108         3909 
 3008000   0.77902719   -9.1404075    469.52096  0.013007562  0.012691906         3939 
 3009000   0.76763528   -9.1355551     468.8572  0.012984856   0.01268571         3932 
 3010000   0.77643589   -9.1275454     468.9196   0.01298227  0.012679517         3912 
 3011000   0.78403628   -9.1078952     469.2982  0.012988437  0.012673329         3903 
 3012000   0.75781436   -9.1467918    469.43754   0.01298798   0.01266715         3924 
 3013000    0.7607334   -9.1480573    469.25385  0.012978589  0.012660965         3913 
 3014000   0.77093518   -9.1385101     468.5057  0.012953597  0.012654783         3927 
 3015000   0.77639452   -9.1380992    469.29348  0.012971075   0.01264861         3933 
 3016000   0.77625011   -9.1624529    468.15091  0.012935204  0.012642434         3914 
 3017000   0.77768126   -9.1239419    468.61754  0.012943806  0.012636266         3906 
 3018000   0.76237491   -9.1146072    468.51061  0.012936564    0.0126301         3907 
 3019000   0.76230892   -9.1421485    469.34945  0.012955434  0.012623941         3931 
 3020000   0.76785726   -9.1490635    468.68293  0.012932752  0.012617781         3899 
 3021000    0.7679912   -9.1428421    468.74958  0.012930309  0.012611618         3933 
 3022000   0.76767778   -9.1147818    468.13694  0.012909137  0.012605461         3904 
 3023000   0.78988661   -9.1409486    468.73844  0.012921448   0.01259931         3906 
 3024000   0.75837556   -9.1192745    468.37756   0.01290723  0.012593165         3915 
 3025000    0.7767818   -9.1365985    467.63899  0.012882617  0.012587019         3928 
 3026000   0.75979204   -9.1169172    468.71671  0.012908039  0.012580876         3905 
 3027000   0.77078947   -9.1236358    468.92179   0.01290942  0.012574744         3927 
 3028000   0.75795526   -9.1449807     468.5803  0.012895759  0.012568613         3923 
 3029000    0.7680016   -9.1477757    468.69926  0.012894774  0.012562483         3902 
 3030000   0.77156739   -9.1286426    468.36471  0.012881318  0.012556356         3902 
 3031000   0.75439981   -9.1118695    468.77414  0.012888325  0.012550232         3912 
 3032000   0.76607694   -9.1407687    469.02807  0.012891053  0.012544116         3898 
 3033000   0.75596242   -9.1523854    469.56063  0.012901435  0.012538001         3915 
 3034000   0.77517854   -9.1370375    468.51799  0.012868545  0.012531888         3944 
 3035000   0.76514793   -9.1436811    467.91814  0.012847835  0.012525783         3918 
 3036000   0.79122601   -9.1446851    468.38819  0.012856505  0.012519686         3918 
 3037000   0.76821898   -9.1335247    469.50233  0.012882843  0.012513591         3908 
 3038000   0.75077312   -9.1468697     467.9957  0.012837275  0.012507498         3925 
 3039000   0.76791232   -9.1456897    467.84069    0.0128288  0.012501402         3892 
 3040000   0.77480973   -9.1076686    469.48287  0.012869596  0.012495313         3907 
 3041000    0.7758164   -9.1481898    468.60891  0.012841415  0.012489233         3914 
 3042000   0.76924329   -9.1201233    468.60546  0.012837099  0.012483149         3898 
 3043000   0.78067883   -9.1446312    467.87841   0.01281297  0.012477074         3930 
 3044000   0.78648104    -9.145066    468.22676  0.012818297  0.012470996         3901 
 3045000   0.76741372   -9.1575705    468.60423  0.012824418  0.012464919         3931 
 3046000   0.77026912   -9.1297978    468.19016   0.01280888  0.012458849         3889 
 3047000   0.76311457   -9.1483801    468.74876  0.012819953   0.01245278         3923 
 3048000   0.76325569   -9.1778088    468.57884  0.012811101  0.012446711         3924 
 3049000   0.75863626    -9.143013    467.63868  0.012781204  0.012440649         3919 
 3050000   0.77697716    -9.119052    469.28479  0.012821989  0.012434593         3917 
 3051000   0.75701685    -9.147797    468.95188  0.012808693  0.012428539         3910 
 3052000   0.78002996   -9.1373467    468.66501  0.012796664   0.01242249         3909 
 3053000   0.77232831   -9.1564586    467.98789   0.01277399  0.012416447         3901 
 3054000   0.76475965   -9.1577059     469.0672  0.012799258  0.012410409         3919 
 3055000   0.75481245   -9.1092828    469.12823  0.012796733  0.012404374         3930 
 3056000   0.76525194   -9.1498435    468.23724  0.012768249  0.012398339         3905 
 3057000   0.77346917   -9.1460356    468.99537  0.012784739  0.012392312         3896 
 3058000   0.76919633     -9.13822     467.7188  0.012745771  0.012386281         3914 
 3059000   0.75774135   -9.1348791    469.40398  0.012787512  0.012380255         3918 
 3060000   0.78247833    -9.150594    468.37098  0.012755201  0.012374234         3908 
 3061000   0.76249606   -9.1633609     468.2773  0.012748484  0.012368219         3933 
 3062000   0.77256701   -9.1622424    468.46892  0.012749535  0.012362204         3923 
 3063000   0.76101366   -9.1363329     469.5407  0.012774532  0.012356188         3900 
 3064000   0.76410884   -9.1257552    468.07857  0.012730596  0.012350182         3912 
 3065000   0.76102466   -9.1677852     467.3223  0.012705881  0.012344177         3918 
 3066000   0.75057911    -9.131474    468.16647  0.012724681  0.012338176         3908 
 3067000   0.76571122   -9.1705579     468.8234  0.012738382  0.012332177         3891 
 3068000   0.77301997   -9.1417653    468.43848  0.012723774   0.01232618         3931 
 3069000   0.75568041   -9.1624254    467.49072  0.012693894  0.012320193         3921 
 3070000   0.76025384   -9.1468384    468.07919  0.012705733  0.012314205         3923 
 3071000   0.75751192   -9.1486447    467.94956  0.012698078   0.01230822         3914 
 3072000   0.74067488   -9.1514075    468.70596  0.012714463  0.012302235         3912 
 3073000   0.75879291   -9.1543242    468.49877  0.012704707  0.012296264         3915 
 3074000   0.74285752   -9.1315802    467.72928  0.012679714  0.012290289         3925 
 3075000   0.77444574   -9.1474422    468.86644  0.012706408  0.012284323         3893 
 3076000   0.76792965   -9.1340546    468.28441  0.012686509  0.012278359         3926 
 3077000   0.77360023   -9.1494715    468.90054  0.012699072  0.012272396         3908 
 3078000   0.76460783   -9.1351219    469.03465  0.012698577  0.012266445         3917 
 3079000   0.75629269   -9.1548885     468.6318   0.01268355  0.012260494         3927 
 3080000    0.7647128   -9.1341706    468.41581  0.012673588  0.012254541         3912 
 3081000   0.78909263   -9.1140055    468.48464  0.012671336  0.012248596         3899 
 3082000   0.75042939    -9.126091    469.21519  0.012686978  0.012242652         3902 
 3083000   0.75442054   -9.1494329    468.62122  0.012666808  0.012236716         3913 
 3084000    0.7668731   -9.1690695    468.84823  0.012668835   0.01223078         3912 
 3085000     0.762149   -9.1277352    469.09283  0.012671335  0.012224849         3928 
 3086000   0.74765682   -9.1330822    468.44976  0.012649864  0.012218921         3925 
 3087000   0.75180027   -9.1087298    469.93944   0.01268598  0.012212992         3921 
 3088000    0.7505671   -9.1591178    468.55766  0.012644583  0.012207073         3919 
 3089000   0.76253191   -9.1409844    468.06145  0.012627103  0.012201151         3911 
 3090000   0.77178792    -9.159406    468.05452  0.012622829  0.012195232         3924 
 3091000   0.74172809   -9.1429179    468.99915  0.012644213  0.012189323         3899 
 3092000   0.74631399   -9.1573654    469.25496  0.012647018  0.012183413         3920 
 3093000    0.7505481   -9.1799429    467.54811  0.012596942    0.0121775         3933 
 3094000   0.75232781   -9.1801483     468.0147  0.012605438  0.012171594         3927 
 3095000   0.76912525   -9.1508097    468.29889  0.012609017   0.01216569         3908 
 3096000   0.74766265   -9.1399951    468.90145  0.012621163  0.012159793         3918 
 3097000   0.75542734   -9.1524097    467.66193  0.012583735  0.012153903         3893 
 3098000    0.7381776   -9.1541216    468.76842  0.012609437  0.012148013         3910 
 3099000   0.75442948   -9.1699143     467.5206  0.012571814  0.012142123         3919 
 3100000   0.74493596   -9.1652607    467.51302  0.012567554  0.012136235         3926 
 3101000   0.76150805   -9.1669716    467.59253  0.012565638  0.012130347         3930 
 3102000   0.75424288   -9.1439077    468.32665  0.012581309  0.012124465         3909 
 3103000   0.76111781   -9.1637844    467.73746  0.012561431  0.012118593         3918 
 3104000   0.74706993   -9.1832209    468.31116  0.012572787  0.012112721         3937 
 3105000   0.74422438   -9.1647947    467.81686  0.012555471   0.01210685         3930 
 3106000   0.76956532   -9.1464602    468.40991   0.01256734  0.012100989         3905 
 3107000   0.76691275   -9.1663427    468.45993  0.012564637  0.012095132         3921 
 3108000   0.76587683   -9.1584824    468.16152  0.012552593  0.012089273         3893 
 3109000   0.74093593   -9.1519038    468.60007  0.012560311  0.012083422         3910 
 3110000   0.75771658   -9.1661418    467.97003   0.01253939  0.012077572         3915 
 3111000   0.74910578   -9.1684214    467.50616  0.012522934  0.012071725         3910 
 3112000   0.76543488   -9.1677542    467.99577   0.01253202  0.012065886         3918 
 3113000   0.76942818     -9.14142    468.09177  0.012530565  0.012060047         3906 
 3114000   0.76400232   -9.1539046    468.27864  0.012531541   0.01205422         3906 
 3115000    0.7524941    -9.137491    468.34346  0.012529253  0.012048393         3908 
 3116000   0.76149246   -9.1596337    467.65507  0.012506822  0.012042564         3915 
 3117000   0.74381293   -9.1685159    467.05299  0.012486712  0.012036732         3913 
 3118000   0.73824152   -9.1627237    467.98768  0.012507689  0.012030913         3907 
 3119000   0.74679388   -9.1469821    468.30316  0.012512107  0.012025091         3910 
 3120000   0.73783601   -9.1563072    468.04355  0.012501163  0.012019278         3898 
 3121000   0.77353914   -9.1194953    467.88844  0.012493016  0.012013461         3904 
 3122000    0.7548149   -9.1559601    468.58463  0.012507598   0.01200765         3920 
 3123000   0.75281928   -9.1502925    468.82552   0.01251002  0.012001841         3912 
 3124000   0.74452388    -9.186783    467.26837  0.012464478  0.011996036         3914 
 3125000   0.76350103   -9.1381876    468.50471  0.012493459  0.011990242         3913 
 3126000   0.72083587    -9.148325    468.60206  0.012492057  0.011984444         3898 
 3127000   0.76126514   -9.1693211     467.8765  0.012468727  0.011978651         3926 
 3128000   0.74935002   -9.1750699    468.72584  0.012487368  0.011972863         3917 
 3129000   0.75852182   -9.1495095    467.40416  0.012448177   0.01196708         3933 
 3130000   0.75658355   -9.1535719    467.90614  0.012457565  0.011961297         3900 
 3131000   0.74456406   -9.1681584    467.42373  0.012440747  0.011955523         3917 
 3132000   0.74168568   -9.1730529    467.11942  0.012428678  0.011949752         3919 
 3133000   0.74982894   -9.1692367    467.76522  0.012441888  0.011943984         3926 
 3134000   0.75066666   -9.1632954    467.68373  0.012435751  0.011938221         3922 
 3135000   0.74841505   -9.1819125    467.87528  0.012436876  0.011932458         3918 
 3136000   0.74630154   -9.1532999    468.41174  0.012447166  0.011926692         3906 
 3137000   0.73851849   -9.1858897    467.82819  0.012427696  0.011920933         3918 
 3138000   0.75350847   -9.1769562    468.53714  0.012442563  0.011915184         3912 
 3139000   0.75304243   -9.1802942    468.63766  0.012441267  0.011909431         3927 
 3140000   0.74812929   -9.1517601    467.66199  0.012411412  0.011903682         3919 
 3141000   0.75194901   -9.1431309    468.00519  0.012416566  0.011897934         3914 
 3142000    0.7526285   -9.1781316    468.50678  0.012425917  0.011892195         3921 
 3143000   0.75406538   -9.1981484    467.67018  0.012399782  0.011886458         3919 
 3144000   0.75482471   -9.1714826    467.49535  0.012391204   0.01188073         3897 
 3145000   0.75626359   -9.1594473    467.24336  0.012380587  0.011874996         3923 
 3146000    0.7404637   -9.2006265    466.87798  0.012366973  0.011869268         3913 
 3147000   0.74226511   -9.1458169     467.3256  0.012374897  0.011863545         3920 
 3148000   0.75229653   -9.1563297    467.35905  0.012371851  0.011857824         3934 
 3149000   0.75006363   -9.1454361    467.63571  0.012375244  0.011852102         3921 
 3150000   0.74798829   -9.1800147    467.65934   0.01237194  0.011846388         3930 
 3151000   0.74696341   -9.1501446    466.95788  0.012349463   0.01184068         3912 
 3152000   0.74566375   -9.1741728    467.11406  0.012349674  0.011834974         3917 
 3153000   0.75213242   -9.1495321    468.54913  0.012383686  0.011829271         3931 
 3154000   0.74317534   -9.1919033    468.18415  0.012370116  0.011823574         3920 
 3155000   0.76169536   -9.1975217    467.51702  0.012348574  0.011817875         3923 
 3156000   0.74466919   -9.1571043    467.80071  0.012352152  0.011812187         3889 
 3157000   0.76443331   -9.1319421    468.13914  0.012357173    0.0118065         3922 
 3158000   0.74805186   -9.1521959    467.96735  0.012348727  0.011800817         3911 
 3159000    0.7421441    -9.153935    468.14977   0.01234963  0.011795139         3899 
 3160000   0.74282864   -9.1542393    467.67802  0.012333281  0.011789453         3926 
 3161000   0.73932849   -9.1769954    467.81467  0.012332982  0.011783773         3918 
 3162000   0.74591164   -9.1804597    468.20914  0.012339478  0.011778102         3917 
 3163000   0.74256812   -9.1724341    468.17259  0.012334613  0.011772436         3903 
 3164000   0.74891661   -9.1794205    468.04741  0.012327418  0.011766767         3920 
 3165000   0.74258463   -9.1883117    467.28397  0.012303422  0.011761105         3906 
 3166000   0.75528586   -9.1875552    467.06142  0.012293678  0.011755446         3931 
 3167000   0.75436893   -9.1439114    468.11846   0.01231761  0.011749792         3915 
 3168000    0.7546183   -9.1563979    468.35386  0.012319914   0.01174414         3894 
 3169000   0.73983489   -9.1835663    467.21809   0.01228616  0.011738487         3906 
 3170000   0.75106927   -9.1689565    467.40196  0.012287118  0.011732843         3919 
 3171000   0.75298794   -9.1787606     466.5952  0.012262041  0.011727196         3909 
 3172000   0.73486138   -9.1727676    468.12552   0.01229838  0.011721555         3899 
 3173000   0.75064251   -9.1867199    467.49257   0.01227788  0.011715918         3906 
 3174000   0.74209709    -9.179602    467.82288  0.012282684  0.011710288         3897 
 3175000    0.7542508    -9.180697    468.11801  0.012286562  0.011704654         3908 
 3176000   0.74283218   -9.1417667    467.73116  0.012272543  0.011699028         3915 
 3177000   0.74127722   -9.1665735    467.41925  0.012260499  0.011693405         3917 
 3178000   0.74119355   -9.1842947    467.99518  0.012271743  0.011687779         3925 
 3179000   0.74249443   -9.1882478    467.30251  0.012249725  0.011682155         3924 
 3180000   0.74424197   -9.1820941    466.98152  0.012237461  0.011676546         3914 
 3181000   0.74058131   -9.1848413    468.06094  0.012261892  0.011670934         3909 
 3182000   0.74004629   -9.1912335    467.59804  0.012245916  0.011665331         3922 
 3183000    0.7419409   -9.1841018    468.06991  0.012254422  0.011659733         3885 
 3184000   0.73161288   -9.1961119    467.15347  0.012226588   0.01165413         3920 
 3185000   0.73257435   -9.1877305    467.05827  0.012220258  0.011648526         3906 
 3186000   0.74817861   -9.1764472    467.37278  0.012224649  0.011642938         3936 
 3187000   0.73154101   -9.1706493    468.72752  0.012256237  0.011637346         3904 
 3188000   0.73152558   -9.1787697    468.52356  0.012247061  0.011631754         3930 
 3189000   0.72873834   -9.1859065    468.07446  0.012231485  0.011626177         3921 
 3190000   0.75115799    -9.194754    467.54469  0.012213811  0.011620599         3913 
 3191000   0.74262362   -9.1655866    467.88178  0.012218787   0.01161502         3907 
 3192000   0.73473465   -9.1763498     468.2698  0.012225089  0.011609447         3935 
 3193000   0.73457652   -9.1683759    468.42195  0.012225231  0.011603885         3908 
 3194000   0.73590824   -9.1583418    467.66481  0.012201649  0.011598317         3923 
 3195000   0.75238089   -9.1796525    468.10677  0.012209358  0.011592756         3923 
 3196000   0.72396421   -9.1710679     467.9715   0.01220201  0.011587199         3924 
 3197000   0.72840576   -9.1806948    467.23402   0.01217897  0.011581641         3886 
 3198000   0.75490704   -9.1981883    467.80637  0.012190076  0.011576087         3933 
 3199000   0.73655697   -9.1624519    467.81807   0.01218657  0.011570546         3927 
 3200000   0.74734012   -9.1930163    467.83535  0.012183212  0.011564997         3935 
 3201000   0.72974177   -9.1672435    468.56482  0.012198397  0.011559455         3941 
 3202000   0.73796526   -9.1976865    468.16177  0.012184098  0.011553921         3932 
 3203000    0.7425407   -9.1862774    467.04178  0.012151155  0.011548392         3949 
 3204000    0.7451567   -9.1838817    467.51644  0.012159708  0.011542857         3939 
 3205000   0.72803033    -9.180947    468.08641  0.012170734  0.011537332         3920 
 3206000   0.73318554    -9.152806    467.68154  0.012156414   0.01153181         3928 
 3207000   0.73254792   -9.1834772    467.34404  0.012143853  0.011526291         3927 
 3208000   0.74218808   -9.2025854    468.15398  0.012161107  0.011520773         3930 
 3209000   0.73334724   -9.1621815    467.94314  0.012151842  0.011515259         3931 
 3210000   0.75129588   -9.1667904    467.68465  0.012141346  0.011509755         3931 
 3211000   0.73243757   -9.1858221    467.44979   0.01213147  0.011504251         3917 
 3212000    0.7365337   -9.1744303    468.21249  0.012147481  0.011498745         3927 
 3213000   0.73915766    -9.192899    467.73783  0.012131389   0.01149324         3942 
 3214000   0.74764089   -9.2126386    466.92554  0.012106553   0.01148774         3914 
 3215000   0.73792026   -9.1846848    467.59996  0.012120269   0.01148225         3917 
 3216000    0.7392403   -9.1829649    466.97086  0.012100198  0.011476758         3915 
 3217000   0.74328906   -9.1899547    467.96521  0.012122195  0.011471273         3905 
 3218000    0.7493477   -9.1852606    467.70027  0.012111567  0.011465788         3920 
 3219000   0.72453919   -9.1826352    466.69222  0.012081708  0.011460308         3921 
 3220000   0.75081666   -9.1971606    467.94117  0.012110279  0.011454834         3923 
 3221000   0.74522838   -9.1775071    468.03724  0.012109004  0.011449356         3914 
 3222000   0.74231526   -9.1805365    466.96633  0.012077548   0.01144388         3929 
 3223000   0.72580854   -9.1877387    468.25439  0.012107105  0.011438407         3924 
 3224000    0.7492523     -9.17459    466.64461   0.01206174  0.011432948         3928 
 3225000   0.74979366   -9.1900077    467.33856  0.012075932  0.011427485         3924 
 3226000   0.71772064   -9.2108366    467.35261  0.012072552   0.01142202         3934 
 3227000   0.71692026   -9.2123292    467.31808  0.012067919  0.011416563         3928 
 3228000   0.74191572   -9.1898605    466.76006  0.012049774  0.011411107         3916 
 3229000   0.73075782   -9.1737607     467.3864  0.012062207  0.011405655         3907 
 3230000   0.72759953   -9.1723753    467.66936  0.012065773  0.011400209         3911 
 3231000    0.7385157   -9.1740437    467.52974  0.012058437  0.011394767         3916 
 3232000   0.73327733   -9.2011561    467.29624  0.012048686  0.011389328         3920 
 3233000   0.73144581   -9.1735112    467.19625  0.012042382  0.011383894         3906 
 3234000   0.73581288   -9.1765497    467.78174  0.012053745  0.011378464         3955 
 3235000   0.70825204   -9.1478367    467.67855  0.012047361  0.011373036         3916 
 3236000   0.72770605   -9.1780257    467.34513  0.012035052  0.011367616         3916 
 3237000   0.74914645   -9.1566868    467.50273  0.012035391  0.011362198         3910 
 3238000   0.72250865   -9.1688645    467.95256  0.012043251  0.011356784         3915 
 3239000   0.72292743   -9.1891254    467.49395  0.012027734  0.011351367         3923 
 3240000   0.74646449   -9.1733971    468.40807  0.012047533  0.011345955         3920 
 3241000    0.7173816   -9.1831697    467.35474  0.012016732  0.011340549         3912 
 3242000   0.74488414   -9.1742021    467.78483  0.012024081  0.011335148         3912 
 3243000   0.72797121   -9.1816267    467.17547  0.012004715  0.011329751         3908 
 3244000   0.73061152   -9.2042916    467.16452  0.012000733  0.011324349         3928 
 3245000   0.74257516    -9.192625    467.99431  0.012018344  0.011318953         3920 
 3246000   0.73293263   -9.1913555    468.14863  0.012018603  0.011313562         3924 
 3247000   0.73490287   -9.2017252    467.49713  0.011998181  0.011308172         3918 
 3248000   0.72534411   -9.1882829    467.22786  0.011987579  0.011302786         3930 
 3249000   0.72397936   -9.2077983    467.54842  0.011992111  0.011297408         3910 
 3250000   0.74232665    -9.193268    467.48416  0.011986773  0.011292028         3923 
 3251000   0.73502427   -9.2017003    466.22416  0.011950789  0.011286655         3920 
 3252000    0.7243079   -9.1788699    467.21428  0.011972486  0.011281278         3896 
 3253000   0.72535502   -9.1859477    467.86583  0.011985496  0.011275903         3938 
 3254000   0.72316331   -9.1856411    466.55429  0.011948225  0.011270539         3918 
 3255000   0.72287108   -9.2018749    467.15428  0.011959915  0.011265176         3920 
 3256000   0.73455005   -9.2249359    467.47333  0.011964407  0.011259818         3924 
 3257000   0.73990092   -9.1908306    467.30407  0.011956403  0.011254457         3882 
 3258000   0.71807541   -9.2065283    467.51034   0.01195801  0.011249101         3939 
 3259000   0.73333394   -9.1617974    467.10741  0.011944037  0.011243749         3902 
 3260000   0.73399677   -9.1756838    467.71084  0.011955799    0.0112384         3918 
 3261000   0.73660447   -9.1875558    466.33911  0.011917078  0.011233053         3926 
 3262000   0.74444719   -9.1815448    467.21117  0.011935703  0.011227711         3925 
 3263000   0.74023196    -9.175449    466.85288  0.011922895  0.011222376         3907 
 3264000   0.71955259   -9.1703069    467.27138  0.011929927  0.011217037         3920 
 3265000   0.72746166    -9.203337    467.21976  0.011924955  0.011211699         3909 
 3266000   0.73702873   -9.1977532      467.582  0.011930547  0.011206372         3914 
 3267000   0.73266612   -9.2074151    467.63644  0.011928284  0.011201051         3908 
 3268000    0.7386722   -9.1933636    467.00319  0.011908486  0.011195732         3928 
 3269000   0.74157782    -9.204657    467.67508  0.011921971  0.011190409         3935 
 3270000   0.72316439   -9.1780193    468.11024  0.011929415  0.011185087         3920 
 3271000   0.73424824     -9.18436    467.91815  0.011920874  0.011179771         3940 
 3272000    0.7186371   -9.1949718    468.04625  0.011920493  0.011174461         3930 
 3273000   0.72757843   -9.1699573    466.86876  0.011886871  0.011169147         3919 
 3274000   0.72595113   -9.2048738    467.94164  0.011910549  0.011163837         3932 
 3275000   0.72254646   -9.1971788    467.01618  0.011883363  0.011158536         3919 
 3276000   0.72818332   -9.2038727    466.60999  0.011869403  0.011153235         3910 
 3277000   0.72837823   -9.1747426    468.09809  0.011903623  0.011147941         3897 
 3278000    0.7080127    -9.186735    467.40531   0.01188238  0.011142644         3927 
 3279000    0.7210674   -9.2024582    467.37238   0.01187792  0.011137353         3934 
 3280000   0.72349656   -9.2150351    466.37578  0.011848978  0.011132061         3930 
 3281000   0.73079486   -9.2122792    467.07233  0.011863058  0.011126776         3930 
 3282000   0.74774777   -9.2127818    466.06273  0.011833809  0.011121497         3912 
 3283000   0.73660794   -9.1946688    467.41777    0.0118646  0.011116219         3922 
 3284000   0.72504447   -9.2040601    467.06772  0.011852104  0.011110943         3922 
 3285000   0.73331407   -9.1956602    467.24697  0.011853043  0.011105669         3921 
 3286000    0.7261025   -9.2008187     467.2798  0.011850269  0.011100399         3919 
 3287000   0.71661263   -9.1963679    467.05186  0.011840885  0.011095128         3912 
 3288000   0.73011562   -9.2250644    465.64143  0.011801537   0.01108987         3924 
 3289000   0.73304436   -9.1943669    466.45369  0.011818529   0.01108461         3923 
 3290000    0.7333345   -9.2166605    466.58281  0.011818207  0.011079353         3931 
 3291000   0.71329849   -9.2028263     465.9482  0.011798546  0.011074099         3914 
 3292000   0.71755734   -9.2053957    467.07339  0.011823445   0.01106885         3925 
 3293000   0.71943828   -9.1904503    466.76419   0.01181203  0.011063602         3925 
 3294000   0.73561317   -9.2171793    466.23583  0.011795078  0.011058356         3919 
 3295000   0.73053356   -9.2160149    467.12484  0.011813982  0.011053121         3908 
 3296000   0.72277929   -9.1930613    466.98709  0.011806915  0.011047884         3902 
 3297000   0.73515234   -9.2131184    466.51776  0.011791471  0.011042649         3923 
 3298000   0.71030313    -9.213026    466.11031    0.0117776  0.011037424         3927 
 3299000   0.73923137    -9.210614    467.12724  0.011799718  0.011032198         3921 
 3300000   0.74431494   -9.1954509    467.31987  0.011801007  0.011026976         3901 
 3301000   0.71598676   -9.2212717    466.36557  0.011773341  0.011021758         3920 
 3302000    0.7269477   -9.2087309     467.2192  0.011791318  0.011016542         3913 
 3303000   0.70882685   -9.1881466    467.27052  0.011789043  0.011011324         3910 
 3304000   0.73355365   -9.2071655     467.7362  0.011797221  0.011006114         3939 
 3305000   0.73060668    -9.205053     466.6949  0.011767395  0.011000901         3933 
 3306000    0.7183865   -9.2041126    467.57242  0.011785955  0.010995695         3929 
 3307000   0.72765161   -9.1895224    467.65428  0.011784454  0.010990494         3925 
 3308000   0.70539459   -9.2151573    466.79795   0.01175932  0.010985298         3906 
 3309000   0.71510822   -9.2065976    466.84312  0.011756903  0.010980105         3926 
 3310000   0.71057613   -9.2007915    467.76243  0.011776496  0.010974908         3929 
 3311000   0.70587492   -9.2241354    467.49902   0.01176631  0.010969718         3933 
 3312000   0.71391965   -9.2094299     467.5832  0.011764875  0.010964532         3923 
 3313000   0.73021096   -9.2044229    466.58456  0.011736205  0.010959345         3904 
 3314000   0.72975315   -9.1986864    466.83424  0.011738942  0.010954164         3936 
 3315000   0.71234935   -9.2213118    467.04836  0.011740783  0.010948988         3944 
 3316000      0.71227   -9.2176284    467.48537  0.011748225  0.010943811         3919 
 3317000   0.70790156   -9.2272849    466.46563  0.011719064  0.010938635         3933 
 3318000   0.73081185    -9.202585    467.33933  0.011737476  0.010933464         3929 
 3319000   0.72354702   -9.1982657    467.18152  0.011729977  0.010928298         3925 
 3320000   0.72673018   -9.2259816    466.44133  0.011707865  0.010923139         3921 
 3321000    0.7187354   -9.2004701    467.67327  0.011735252  0.010917986         3921 
 3322000   0.73008709   -9.2197294     466.4456  0.011700923   0.01091283         3922 
 3323000   0.71029664    -9.218868    466.89228  0.011708604   0.01090767         3937 
 3324000   0.72432743   -9.2069751    467.92256   0.01173091  0.010902521         3919 
 3325000   0.72303566   -9.1988988    467.20579  0.011709418  0.010897381         3930 
 3326000   0.72570017   -9.2140275    466.88899   0.01169796  0.010892234         3925 
 3327000   0.71820755   -9.2162847    467.58715  0.011711931  0.010887091         3918 
 3328000   0.71455076    -9.238459    466.93702  0.011692133   0.01088195         3927 
 3329000   0.72224278   -9.2207407    466.90526  0.011687826  0.010876816         3931 
 3330000   0.70731979   -9.2133175     466.4662  0.011673328  0.010871684         3927 
 3331000   0.71316639   -9.2146556    465.74221  0.011651711  0.010866555         3915 
 3332000   0.71625185   -9.2073896     467.3916  0.011689466  0.010861429         3918 
 3333000   0.70936248   -9.2229661    467.23261  0.011681984  0.010856302         3884 
 3334000   0.71564516   -9.2311476    466.76367  0.011666758  0.010851187         3938 
 3335000   0.72632143   -9.2210202    466.85076  0.011665436  0.010846065         3949 
 3336000   0.72149232   -9.2238228    467.86087  0.011687172  0.010840946         3930 
 3337000   0.70816596   -9.2234983    466.20618  0.011642348  0.010835835         3916 
 3338000   0.71563231   -9.2019803    468.35471  0.011692498  0.010830731         3948 
 3339000   0.70438264   -9.2042749    466.95422  0.011654044  0.010825628         3924 
 3340000   0.73411277   -9.2128952    466.39611   0.01163663  0.010820525         3925 
 3341000   0.72665254   -9.2280105    466.52166  0.011636278   0.01081543         3925 
 3342000   0.72874732   -9.2256348     466.6464  0.011635907   0.01081033         3930 
 3343000    0.7152898    -9.229566    466.50327  0.011628858  0.010805234         3934 
 3344000   0.72518845   -9.2397636    466.37968  0.011622301  0.010800148         3938 
 3345000   0.71542209   -9.2175472    467.04207  0.011635328  0.010795061         3928 
 3346000   0.70464579   -9.2279924    467.08715  0.011632973  0.010789972         3929 
 3347000    0.7301339   -9.2140449    467.13999  0.011630813  0.010784891         3923 
 3348000    0.7164233   -9.2266335    467.09552  0.011626233  0.010779817         3907 
 3349000   0.71948484   -9.2183769    466.78297  0.011614984   0.01077474         3922 
 3350000    0.7188803   -9.2468437     466.2027  0.011597082  0.010769668         3927 
 3351000   0.72285696   -9.2343783    466.44035  0.011599531  0.010764595         3916 
 3352000   0.71327988   -9.2234337    466.62263  0.011600602  0.010759528         3935 
 3353000   0.70833987   -9.2215264    466.14484  0.011585268   0.01075447         3918 
 3354000   0.71212965   -9.2419104    467.49937  0.011615468  0.010749412         3937 
 3355000   0.69665181   -9.2294439    465.88262  0.011571848  0.010744355         3927 
 3356000    0.7198694   -9.2380673    466.13078  0.011574562  0.010739302         3925 
 3357000   0.71028995   -9.2078885    466.93288  0.011591026  0.010734254         3930 
 3358000   0.71582846   -9.2140202    466.54303  0.011577899  0.010729203         3922 
 3359000   0.71748425   -9.1969977    466.06348  0.011562555  0.010724158         3913 
 3360000   0.73396357   -9.2192363    466.36071  0.011566486  0.010719118         3928 
 3361000   0.71257339   -9.2344397    466.24706  0.011560227  0.010714076         3928 
 3362000   0.71394745   -9.2345071    465.61464  0.011541112  0.010709038         3929 
 3363000   0.70748231   -9.2174184    466.92441  0.011570136  0.010704006         3914 
 3364000   0.71674358   -9.2460283    466.44868  0.011554912  0.010698973         3929 
 3365000   0.72099605    -9.215638    466.25949  0.011546793  0.010693947         3939 
 3366000   0.71036203   -9.2260994    467.17099  0.011565929   0.01068892         3925 
 3367000   0.71897177    -9.233931    465.35498  0.011517547  0.010683894         3933 
 3368000   0.72133958   -9.2356382    465.87499  0.011526994  0.010678878         3934 
 3369000   0.71662506   -9.2230031    466.81122  0.011546731  0.010673862         3934 
 3370000   0.72326596   -9.2463326    466.49747  0.011535546  0.010668849         3924 
 3371000   0.71742512   -9.2172513    466.50139  0.011532221  0.010663841         3925 
 3372000   0.71290671   -9.2478382    465.94954  0.011515163  0.010658833         3942 
 3373000   0.70909489   -9.2216223    466.10741  0.011515649   0.01065383         3917 
 3374000   0.71853158   -9.2230966    466.70084  0.011526893  0.010648833         3911 
 3375000   0.71585482   -9.2420748    465.69383  0.011498613  0.010643839         3933 
 3376000   0.70683126   -9.2208778    466.14147  0.011506257  0.010638848         3930 
 3377000   0.71232731   -9.2531297    465.40188  0.011484599  0.010633855         3921 
 3378000   0.71869487   -9.2288978    466.44958  0.011507045  0.010628871         3905 
 3379000   0.71625857   -9.2216684    465.99549  0.011492441  0.010623886         3915 
 3380000   0.71570467   -9.2310925    466.49379  0.011501326  0.010618899         3946 
 3381000   0.69859823    -9.236023    466.77459  0.011504845  0.010613923         3919 
 3382000   0.71587273   -9.2472544    466.60293  0.011497214  0.010608948         3930 
 3383000   0.70736404   -9.2307259    466.32693  0.011487017  0.010603974         3917 
 3384000   0.68447183   -9.2383922    466.95895  0.011499186  0.010598999         3922 
 3385000    0.7183195   -9.2398103    466.15569  0.011476014   0.01059403         3939 
 3386000   0.70636874   -9.1953504    466.88862  0.011490663  0.010589067         3921 
 3387000   0.70990246   -9.2337704    466.51572  0.011478096  0.010584106         3929 
 3388000   0.71093587   -9.2529668    465.93378  0.011460394  0.010579145         3917 
 3389000   0.72344374   -9.2358447    465.80076  0.011453742   0.01057419         3921 
 3390000   0.71138155   -9.2323019    466.28982  0.011462385  0.010569236         3940 
 3391000   0.71465615   -9.2354553    466.91279  0.011474314  0.010564286         3940 
 3392000    0.6892018    -9.220975     467.1643   0.01147711  0.010559341         3940 
 3393000   0.70427592   -9.2294428    466.74073  0.011463325  0.010554395         3908 
 3394000    0.7125445   -9.2433779    466.23539   0.01144754  0.010549455         3927 
 3395000   0.70330726   -9.2415561    466.34786  0.011446928  0.010544517         3924 
 3396000   0.70627684   -9.2378379    466.10905  0.011437698  0.010539585         3911 
 3397000   0.71819107   -9.2513194    465.88716  0.011428887  0.010534648         3920 
 3398000    0.6837262   -9.2211386    466.20514  0.011433322  0.010529719         3922 
 3399000   0.70806162   -9.2449571    465.71912  0.011418043  0.010524794         3920 
 3400000   0.70409508   -9.2353299    466.25968  0.011427933  0.010519867         3921 
 3401000   0.71065434   -9.2201979    466.51325  0.011430786  0.010514949         3919 
 3402000   0.70568446   -9.2329591    465.09174  0.011392606  0.010510029         3933 
 3403000    0.6901897   -9.2369422    467.08322  0.011438026  0.010505119         3935 
 3404000   0.70635036   -9.2625654    466.05691   0.01140954  0.010500202         3927 
 3405000   0.69310922   -9.2336141    465.74861  0.011398644  0.010495292         3937 
 3406000   0.69312056   -9.2395232    467.00282  0.011425984  0.010490387         3926 
 3407000    0.7206996    -9.259978     466.2048  0.011403111  0.010485483         3943 
 3408000   0.70719311    -9.233072    466.37447  0.011403914  0.010480586         3941 
 3409000   0.69785754   -9.2418094    466.54918   0.01140484  0.010475694         3924 
 3410000   0.71834585   -9.2299475    465.86615  0.011384803  0.010470803         3930 
 3411000   0.70340704   -9.2119069    466.83478   0.01140513  0.010465913         3915 
 3412000   0.70358877   -9.2426655    465.59794  0.011371579  0.010461026         3930 
 3413000   0.69052981   -9.2490888    465.41197  0.011363707  0.010456142         3918 
 3414000   0.69095496   -9.2420142    465.64472  0.011366059  0.010451263         3943 
 3415000   0.70873276   -9.2436269    464.95797  0.011345973  0.010446387         3941 
 3416000   0.70160512   -9.2397927    466.70218  0.011385201  0.010441516         3937 
 3417000   0.70450144   -9.2390513     465.8001   0.01135987  0.010436643         3930 
 3418000   0.71143332   -9.2211295    465.49946  0.011349216  0.010431774         3925 
 3419000   0.71209903   -9.2615628    465.48678  0.011345588  0.010426905         3924 
 3420000   0.70558654   -9.2237789    466.24703  0.011360795  0.010422041         3916 
 3421000    0.6951244   -9.2414734    465.63226  0.011342499  0.010417176         3930 
 3422000   0.70528389    -9.255835    465.94502  0.011346801  0.010412318         3923 
 3423000   0.71395749   -9.2310203    467.00419  0.011369271  0.010407469         3911 
 3424000   0.71199311   -9.2326522    465.67179  0.011333523  0.010402617         3932 
 3425000   0.70251731   -9.2541604    465.77131  0.011332635  0.010397766         3930 
 3426000   0.70388269   -9.2295998    465.28027  0.011317383  0.010392919         3927 
 3427000   0.71081778   -9.2466595    465.52071  0.011319928  0.010388077         3922 
 3428000   0.70238738   -9.2439578    465.42125  0.011314208   0.01038324         3928 
 3429000   0.71184182   -9.2496734    465.74808  0.011318851  0.010378402         3922 
 3430000   0.70792697   -9.2457836    466.39628  0.011331299  0.010373568         3916 
 3431000   0.71630369   -9.2683946    465.34874  0.011302554  0.010368737         3933 
 3432000   0.69631437   -9.2397142    466.06191  0.011316577  0.010363913         3927 
 3433000   0.69817069   -9.2499515    465.49977  0.011299635  0.010359085         3920 
 3434000   0.70422634   -9.2659369    466.19176  0.011313137  0.010354261         3933 
 3435000   0.68938515   -9.2624887    466.57864  0.011319229  0.010349443         3941 
 3436000   0.70209082   -9.2447346    466.57149  0.011315762  0.010344621         3933 
 3437000    0.6927736   -9.2478539    465.96288  0.011297713  0.010339803         3943 
 3438000   0.72020455   -9.2369498     466.2263  0.011300812  0.010334991         3946 
 3439000   0.69730042    -9.255905    466.00324  0.011292121  0.010330179         3928 
 3440000    0.7052282   -9.2366139    467.11635  0.011315803  0.010325371         3934 
 3441000   0.72121061   -9.2364152    467.05891  0.011311123  0.010320571         3932 
 3442000   0.70250028   -9.2523257     465.8152  0.011277726  0.010315768         3911 
 3443000     0.690586   -9.2531471    464.79028  0.011249644   0.01031097         3931 
 3444000   0.72070898   -9.2409888    465.75274  0.011269666  0.010306179         3939 
 3445000   0.68481882   -9.2581297    466.30756  0.011279815  0.010301387         3948 
 3446000   0.69585894    -9.234769    465.62697  0.011260083  0.010296595         3928 
 3447000   0.70452908   -9.2575601    465.90963   0.01126365  0.010291811         3938 
 3448000   0.69361834   -9.2673189    465.77073  0.011257026   0.01028703         3937 
 3449000   0.70001753   -9.2761073    466.64546  0.011274898  0.010282246         3919 
 3450000   0.69559703   -9.2657686    465.88869   0.01125335  0.010277467         3932 
 3451000   0.69246117   -9.2813349    466.24025  0.011258579  0.010272692         3939 
 3452000   0.71200431   -9.2413721    467.70183    0.0112906  0.010267915         3931 
 3453000   0.71321434    -9.231171     465.9654  0.011245424  0.010263143         3918 
 3454000   0.71080641   -9.2606623    465.23253  0.011224487  0.010258379         3926 
 3455000    0.7044447    -9.263115    466.10361  0.011242248  0.010253612         3922 
 3456000   0.70186329   -9.2358537    465.70259  0.011229326  0.010248854         3920 
 3457000   0.69181723   -9.2753443    465.50556  0.011221328  0.010244095         3924 
 3458000   0.70315552   -9.2440274    465.50226  0.011218003  0.010239336         3926 
 3459000   0.69599043   -9.2667014    466.41451  0.011236738  0.010234583         3933 
 3460000   0.69335657   -9.2531376    465.71929  0.011216746  0.010229831         3939 
 3461000   0.69358021   -9.2597727    466.41893  0.011230351  0.010225086         3925 
 3462000   0.70293685   -9.2550884    465.29139  0.011199966  0.010220342         3936 
 3463000   0.70002575   -9.2333459    465.88836  0.011211097  0.010215603         3935 
 3464000    0.7007807    -9.249511    465.62496  0.011201524  0.010210868         3930 
 3465000   0.69912501   -9.2433952    465.12914  0.011186367  0.010206131         3942 
 3466000   0.72564151   -9.2607243    465.26336  0.011186367  0.010201401         3917 
 3467000   0.69857204   -9.2539456     465.7573  0.011195013   0.01019667         3937 
 3468000   0.69131355    -9.260705    466.53984  0.011210588  0.010191936         3934 
 3469000   0.69277629   -9.2498262    466.56888  0.011208054  0.010187216         3931 
 3470000    0.7105864   -9.2579683    466.30797  0.011198558  0.010182494         3927 
 3471000   0.68765925   -9.2531024    466.21408  0.011193078  0.010177772         3917 
 3472000   0.70840502    -9.242126    465.58276  0.011174702  0.010173059         3917 
 3473000   0.69513101   -9.2691638    465.30874  0.011164909  0.010168341         3933 
 3474000   0.68950409   -9.2655459    466.37809  0.011187346  0.010163633         3927 
 3475000   0.69069125   -9.2465504    465.23347  0.011156678  0.010158925         3932 
 3476000   0.69814832   -9.2378553     465.6713  0.011163965  0.010154222         3918 
 3477000   0.70254849   -9.2460312    465.68183  0.011161006  0.010149519         3932 
 3478000   0.68934121   -9.2732776    464.59897  0.011131852  0.010144814         3928 
 3479000   0.71109536   -9.2360942    465.92832  0.011160494  0.010140116         3931 
 3480000    0.7003222   -9.2568508    465.19077  0.011139626  0.010135423         3937 
 3481000   0.68558778   -9.2691267    465.23027  0.011137371  0.010130728         3935 
 3482000   0.67986526   -9.2456822    466.00855  0.011152799   0.01012604         3915 
 3483000   0.70316388   -9.2601274    466.24032  0.011155142   0.01012135         3912 
 3484000   0.69666696   -9.2680462    465.75714  0.011140383  0.010116668         3930 
 3485000   0.69830494   -9.2750661    465.40302  0.011128719  0.010111984         3939 
 3486000   0.71236616   -9.2625912     466.3792  0.011148862  0.010107306         3915 
 3487000   0.69775423   -9.2660691    465.41433  0.011122606  0.010102629         3924 
 3488000   0.67960701   -9.2717809    465.08648  0.011111584  0.010097957         3935 
 3489000   0.71235298   -9.2485123    465.16921  0.011110376   0.01009329         3924 
 3490000   0.70690367   -9.2386775    465.74971  0.011121053  0.010088626         3953 
 3491000   0.69563037   -9.2488743    465.57183  0.011113621   0.01008396         3931 
 3492000   0.68662126   -9.2377069    465.84688  0.011117003  0.010079299         3924 
 3493000   0.69256782   -9.2617674    465.91433  0.011115429  0.010074641         3915 
 3494000   0.69379715   -9.2575218    466.02821  0.011114964   0.01006999         3930 
 3495000    0.6962452   -9.2868373    465.80307  0.011106416   0.01006534         3942 
 3496000   0.69389041   -9.2642298    464.57812   0.01107404  0.010060689         3906 
 3497000   0.69304649   -9.2532032    465.78883  0.011099724  0.010056045         3920 
 3498000   0.68308394   -9.2577318    466.46086  0.011112561  0.010051405         3917 
 3499000   0.66965563   -9.2509365     465.9973  0.011098345  0.010046762         3931 
 3500000   0.69200322    -9.260013    465.72962  0.011088801  0.010042124         3921 
 3501000   0.68803703   -9.2508611    465.32228  0.011075937  0.010037493         3918 
 3502000    0.6989725   -9.2815469    465.02626   0.01106573  0.010032861         3914 
 3503000   0.70022008    -9.239227    464.89353  0.011059414  0.010028229         3946 
 3504000   0.69239941   -9.2617296    465.79525  0.011077703  0.010023602         3943 
 3505000   0.68652872   -9.2593652    465.16881  0.011059648  0.010018979         3921 
 3506000   0.68087622   -9.2549208    465.84204  0.011072496  0.010014356         3922 
 3507000   0.68574995   -9.2816398    466.08337  0.011075073   0.01000974         3940 
 3508000   0.69069387   -9.2679006    465.13117  0.011049296  0.010005124         3928 
 3509000   0.68816288   -9.2752806    466.54562  0.011079738   0.01000051         3932 
 3510000   0.67200094   -9.2715836    465.89359  0.011061101 0.0099959018         3936 
 3511000   0.70899036   -9.2720837    465.06383  0.011038257 0.0099912889         3917 
 3512000    0.7041867   -9.2426809    465.54966  0.011046642 0.0099866815         3902 
 3513000   0.68128858   -9.2662561    466.08252  0.011056137 0.0099820825         3930 
 3514000   0.68095488   -9.2637962    465.52714   0.01103982 0.0099774807         3931 
 3515000   0.69355464   -9.2614845    465.55898  0.011037434 0.0099728847         3920 
 3516000   0.68286859   -9.2518844    465.46254  0.011032009 0.0099682877         3915 
 3517000   0.66725024   -9.2768594    465.73325  0.011035287 0.0099636924         3912 
 3518000   0.69892602    -9.265565    465.98722  0.011038166  0.009959102         3913 
 3519000   0.68424314   -9.2713678    466.03463  0.011036152 0.0099545192         3924 
 3520000   0.69670956   -9.2468394    465.34491  0.011016688 0.0099499389         3923 
 3521000   0.68382163   -9.2659451    465.39914  0.011014843 0.0099453623         3930 
 3522000   0.68072674   -9.2875043    465.42731  0.011012382 0.0099407844         3926 
 3523000    0.6858189   -9.2652613    465.98191  0.011022375 0.0099362078         3915 
 3524000   0.67904618   -9.2634648    465.36279  0.011004606 0.0099316339         3934 
 3525000     0.678061   -9.2573379    465.19676  0.010997559 0.0099270677         3940 
 3526000   0.68173857   -9.2956609    464.71183   0.01098298 0.0099225007         3941 
 3527000   0.69508347   -9.2735146    465.66853   0.01100247 0.0099179368         3919 
 3528000   0.69738768   -9.2498707    465.73045  0.011000814 0.0099133762         3926 
 3529000   0.68978131   -9.2669156    465.49898  0.010992231  0.009908816         3934 
 3530000    0.6889054   -9.2777849    465.00404  0.010977432 0.0099042619         3925 
 3531000   0.69617934   -9.2857295    465.57468  0.010987791 0.0098997125         3930 
 3532000   0.69633812   -9.2619057    465.51887  0.010983363 0.0098951603         3922 
 3533000   0.68569118   -9.2703225    466.11102  0.010994222 0.0098906149         3928 
 3534000   0.69221974   -9.2452539    466.19592  0.010993113 0.0098860731         3928 
 3535000   0.67999796   -9.2541603    465.94872  0.010984175 0.0098815337         3934 
 3536000   0.69189167   -9.2931181    464.93544  0.010957189 0.0098769959         3918 
 3537000   0.66012179   -9.2495315    464.78566  0.010950562 0.0098724614         3920 
 3538000   0.67777274   -9.2672483    465.46609  0.010963494 0.0098679302         3923 
 3539000   0.68136081   -9.2497835    465.76731  0.010967489 0.0098634009         3934 
 3540000   0.65904502   -9.2878362    465.25677  0.010952372 0.0098588691         3925 
 3541000   0.67638637   -9.2596534    465.01557  0.010943603 0.0098543444         3918 
 3542000   0.67070654   -9.2707971    465.01143  0.010940416 0.0098498244         3929 
 3543000   0.67438061   -9.2859922    465.40053   0.01094648 0.0098453043         3923 
 3544000   0.70379579   -9.2610275    465.06417  0.010935482 0.0098407876         3926 
 3545000    0.6714956   -9.2835601     465.4225   0.01094082 0.0098362686         3919 
 3546000   0.68884597   -9.2746099    465.35187  0.010936075 0.0098317618         3934 
 3547000    0.6766249   -9.2639757    465.33022  0.010932483 0.0098272559         3926 
 3548000   0.69704179   -9.2969602    465.11758  0.010924408 0.0098227475         3931 
 3549000   0.68005989   -9.2766905    465.07547  0.010920341 0.0098182426         3916 
 3550000   0.66660676   -9.2879327    465.36266  0.010924006 0.0098137427         3923 
 3551000   0.68963205   -9.2934714     465.8207  0.010931679 0.0098092402         3925 
 3552000   0.67437558   -9.2617477    465.69449   0.01092564 0.0098047465         3930 
 3553000   0.68772146   -9.2769273    465.01746  0.010906686 0.0098002545         3927 
 3554000   0.68896467   -9.2802952    465.12656  0.010906175  0.009795769         3908 
 3555000   0.68817819   -9.2792356    465.06793  0.010901733  0.009791284         3934 
 3556000   0.68520337   -9.2710162    465.37265  0.010905808 0.0097867986         3940 
 3557000   0.69092212   -9.2939051    464.99869  0.010893981 0.0097823153         3922 
 3558000   0.69679239   -9.2886586    465.11391  0.010893618 0.0097778316         3942 
 3559000   0.68876014   -9.2640605    465.41555   0.01089762 0.0097733535         3934 
 3560000   0.67334212   -9.2938445    465.18544  0.010889172 0.0097688779         3932 
 3561000   0.68812656   -9.2552196    465.56502  0.010894997 0.0097644047         3924 
 3562000   0.66986174   -9.2906994    465.67347  0.010894476 0.0097599341         3948 
 3563000   0.67426865   -9.2649447    465.67446  0.010891441 0.0097554678         3932 
 3564000    0.6660681   -9.2847341    464.94535  0.010871337 0.0097510037         3929 
 3565000   0.68494736   -9.2720359    465.68888  0.010885668 0.0097465414         3915 
 3566000   0.66666393   -9.2608546    465.78853  0.010884944 0.0097420884         3931 
 3567000   0.67435274   -9.2496949    465.89352  0.010884346 0.0097376348         3930 
 3568000   0.67753231    -9.281494    464.65441  0.010852354 0.0097331824         3935 
 3569000   0.69044217   -9.2596503    465.32777  0.010865036 0.0097287323         3936 
 3570000   0.67890451   -9.2579674    465.20432  0.010859111 0.0097242877         3902 
 3571000   0.69452138   -9.2804666    465.18847    0.0108557 0.0097198434         3925 
 3572000    0.6804761    -9.286391    464.91223  0.010846217  0.009715399         3935 
 3573000   0.70911232   -9.2758606    465.40495  0.010854673 0.0097109611         3931 
 3574000   0.68539104   -9.2872975    465.98889  0.010865251 0.0097065252         3921 
 3575000   0.67895849   -9.2858695    465.50212  0.010850865 0.0097020947         3944 
 3576000   0.69332879   -9.2649705    465.65121  0.010851305 0.0096976643         3928 
 3577000   0.68403941   -9.2957555    465.47824  0.010844242 0.0096932369         3926 
 3578000   0.67031239   -9.2883382    465.24921  0.010835877 0.0096888123         3943 
 3579000   0.67378306   -9.2707428    465.76582  0.010844878 0.0096843863         3934 
 3580000    0.6794614   -9.2753856    464.54973  0.010813541 0.0096799673         3929 
 3581000   0.68194072   -9.2990069     465.0725  0.010822687 0.0096755456         3936 
 3582000   0.68054906   -9.2882867     465.2316  0.010823367 0.0096711286         3931 
 3583000   0.66253522   -9.2721605    464.46285  0.010802467 0.0096667132         3934 
 3584000   0.67711948   -9.2866989    464.82948  0.010807977 0.0096623043         3932 
 3585000   0.67728443   -9.2927628    464.97488  0.010808342 0.0096578917         3928 
 3586000   0.68940737   -9.2735664    466.26888  0.010835399 0.0096534868         3933 
 3587000   0.67489924   -9.2950208    464.36703  0.010788194 0.0096490842         3938 
 3588000   0.67744825   -9.3131609    465.34565  0.010807917  0.009644682         3925 
 3589000   0.68810081   -9.2781425    465.21105   0.01080178 0.0096402864         3927 
 3590000    0.6638231   -9.2863532    465.33811   0.01080172 0.0096358925         3926 
 3591000   0.68729544   -9.2972607    465.63994  0.010805717 0.0096314998         3931 
 3592000   0.67132807   -9.3046464    465.80742  0.010806594 0.0096271092         3940 
 3593000   0.68775764   -9.3023906    464.83302  0.010780987 0.0096227215         3939 
 3594000   0.67658108   -9.2898217    464.64876  0.010773715 0.0096183386         3925 
 3595000   0.67213937   -9.3151559    464.64555  0.010770643  0.009613963         3919 
 3596000   0.69952845   -9.3003076    465.95402   0.01079797 0.0096095853         3926 
 3597000   0.67153415   -9.2780495    465.53239    0.0107852 0.0096052101         3935 
 3598000   0.66571308   -9.2795508     465.7373  0.010786949 0.0096008384         3923 
 3599000   0.68026106   -9.3071524    464.76387  0.010761412 0.0095964675         3929 
 3600000   0.67635736   -9.2684035    465.46759  0.010774713 0.0095921011         3929 
 3601000   0.68970777   -9.2805247    465.36423  0.010769329  0.009587737         3930 
 3602000   0.67205504   -9.3003091    465.92623  0.010779341 0.0095833725         3943 
 3603000   0.66852067     -9.27078     465.4609  0.010765587 0.0095790146         3938 
 3604000   0.68227558   -9.2710234    465.23781  0.010757441 0.0095746581         3922 
 3605000   0.66285733   -9.2909332    464.38446  0.010734731 0.0095702999         3942 
 3606000    0.6808147   -9.3097521    465.11005  0.010748522 0.0095659494         3932 
 3607000   0.66502715   -9.2942857     464.6035  0.010733839 0.0095616004         3933 
 3608000    0.6640831   -9.2954687    464.77621  0.010734853 0.0095572524         3911 
 3609000    0.6672329   -9.2956179    465.23003  0.010742358 0.0095529091         3927 
 3610000   0.67217206   -9.3002835    464.97716  0.010733545 0.0095485705         3919 
 3611000   0.68148789   -9.2887895    465.97122  0.010753513 0.0095442273         3912 
 3612000   0.67797767   -9.3035183    465.15867  0.010731789 0.0095398922         3920 
 3613000   0.67828246   -9.3116408    465.78308  0.010743221 0.0095355586         3935 
 3614000   0.66691917   -9.2885406    465.18233  0.010726396 0.0095312279         3916 
 3615000   0.67646357   -9.2749605    464.80734  0.010714784 0.0095268973         3919 
 3616000   0.67735862   -9.2946686    465.22963  0.010721553 0.0095225713         3924 
 3617000    0.6644512   -9.2803878    465.15416   0.01071685 0.0095182498         3909 
 3618000   0.67415194   -9.2776612    464.91204  0.010708311 0.0095139283         3940 
 3619000   0.67551696   -9.2921896    465.23828  0.010712865 0.0095096089         3933 
 3620000   0.66823059   -9.2945661    464.71723  0.010697911 0.0095052931         3942 
 3621000   0.66410383   -9.2900413    465.48885  0.010712714 0.0095009829         3920 
 3622000   0.66665842   -9.2935871    465.95572  0.010720498 0.0094966686         3920 
 3623000   0.67870194   -9.2902473    465.26782  0.010701716 0.0094923595         3938 
 3624000   0.66728042   -9.3005139     464.9426  0.010691285 0.0094880518         3921 
 3625000   0.66012456   -9.2716918    465.71092  0.010705998 0.0094837482         3926 
 3626000    0.6664328   -9.2718653    464.31299  0.010670918 0.0094794453         3921 
 3627000   0.67931451   -9.2805312    464.89975  0.010681457 0.0094751508         3925 
 3628000    0.6957052   -9.2913803    464.35984  0.010666112 0.0094708571         3927 
 3629000   0.65406752   -9.2946446     465.2915  0.010684566  0.009466568         3922 
 3630000   0.67843978   -9.2726884    465.34935  0.010682951 0.0094622783         3927 
 3631000   0.66708404    -9.292731    465.18866  0.010676321 0.0094579919         3917 
 3632000   0.66444445   -9.3017362    464.20229   0.01065075 0.0094537034         3938 
 3633000   0.67682344   -9.3128555    464.10993    0.0106457 0.0094494239         3918 
 3634000   0.66570454   -9.2885531    465.03893  0.010664074 0.0094451412         3924 
 3635000   0.67328123   -9.2938426    464.98551  0.010659915 0.0094408654         3922 
 3636000   0.67763762    -9.300209    464.66823  0.010649712 0.0094365939         3933 
 3637000   0.66594618   -9.3034221    465.01427  0.010654712  0.009432321         3918 
 3638000   0.67221412   -9.2854134    465.46533  0.010662116 0.0094280582         3929 
 3639000     0.670263    -9.285893    464.97662  0.010647994 0.0094237914         3926 
 3640000   0.67814863   -9.2934696    464.84287  0.010642007 0.0094195266         3934 
 3641000   0.66721171   -9.2829589    464.29442  0.010626532 0.0094152614         3934 
 3642000   0.66687985   -9.2946245     463.9538   0.01061582 0.0094109985         3919 
 3643000   0.66388372   -9.2971645     464.3679  0.010622379 0.0094067437         3912 
 3644000   0.67635673   -9.2955545    465.67862  0.010649438 0.0094024884         3917 
 3645000   0.67528321   -9.3011505    465.47634  0.010641892 0.0093982381         3926 
 3646000   0.65799156   -9.3053254    464.70199  0.010621274 0.0093939877         3916 
 3647000   0.66275125   -9.3104801    464.40261  0.010611521 0.0093897398         3926 
 3648000   0.67424784   -9.3110898    465.31418  0.010629436 0.0093854976         3923 
 3649000   0.67109255   -9.3053087    465.57201  0.010632411 0.0093812577         3930 
 3650000   0.67275102   -9.3035214    465.13165  0.010619444 0.0093770188         3926 
 3651000   0.65796453    -9.296508    464.54476   0.01060314 0.0093727809         3937 
 3652000   0.67249064   -9.2999321    465.04451   0.01061164 0.0093685464         3919 
 3653000   0.67176142   -9.3083284     464.7028   0.01060094 0.0093643176         3936 
 3654000   0.67034968   -9.3095157    464.52458  0.010593974 0.0093600893         3928 
 3655000   0.66478929   -9.3180813    465.17892  0.010605995 0.0093558599         3930 
 3656000   0.67778225   -9.3073937    465.26417  0.010605037 0.0093516359         3924 
 3657000   0.68421323   -9.3160303    465.30107  0.010602978  0.009347412         3917 
 3658000   0.67498363   -9.2965992    463.81258   0.01056617  0.009343194         3924 
 3659000   0.65923191     -9.29892    464.56754  0.010580476 0.0093389737         3933 
 3660000   0.66790629   -9.2875341      464.617  0.010578711 0.0093347638         3921 
 3661000    0.6669223   -9.3100033    464.85744  0.010581295  0.009330551         3937 
 3662000   0.66390885   -9.3235685    465.04251  0.010582617 0.0093263389         3944 
 3663000   0.65753311   -9.2980983    465.04233  0.010579723  0.009322131         3922 
 3664000   0.65465984   -9.2993976    464.92743  0.010574223 0.0093179276         3918 
 3665000   0.66879988   -9.2903168     465.1302  0.010575948 0.0093137283         3922 
 3666000   0.65859597   -9.2869336    464.57685  0.010560485   0.00930953         3921 
 3667000   0.67417596   -9.3125792    463.71346  0.010537984 0.0093053293         3931 
 3668000   0.66091244   -9.3090328    465.15667    0.0105679 0.0093011332         3930 
 3669000   0.66418501   -9.2833406    464.75286  0.010555848 0.0092969399         3926 
 3670000   0.66327422    -9.314465    463.62631  0.010527391 0.0092927519         3931 
 3671000   0.65780496   -9.3007758    464.62557  0.010547207 0.0092885622         3929 
 3672000   0.66113004   -9.2949063    465.16656  0.010556612 0.0092843768         3923 
 3673000   0.64752649   -9.3049638    464.28415  0.010533718 0.0092801961         3942 
 3674000   0.66015729    -9.306312    464.47849  0.010535259 0.0092760186         3924 
 3675000   0.66386138   -9.2966328    464.44321  0.010531592 0.0092718426         3932 
 3676000   0.66978261   -9.3075435    463.94818  0.010517505 0.0092676676         3932 
 3677000   0.65958183   -9.3080296    464.64233  0.010530376 0.0092634958         3933 
 3678000   0.65833864    -9.315902    464.21041  0.010517727 0.0092593285         3947 
 3679000   0.64609076    -9.290133    465.52916   0.01054474 0.0092551626         3931 
 3680000   0.66646155   -9.3277505    464.59546   0.01052073 0.0092509954         3928 
 3681000   0.66954889   -9.2976833    465.42755   0.01053671 0.0092468345         3918 
 3682000   0.66180196   -9.3127841     463.9964  0.010501458 0.0092426709         3940 
 3683000   0.65256122   -9.2934928    464.26625  0.010504712 0.0092385121         3924 
 3684000   0.66536128   -9.2912862    463.72215  0.010489553 0.0092343589         3929 
 3685000   0.66099457   -9.3173982    464.68641  0.010508512 0.0092302098         3936 
 3686000   0.66202299   -9.2978326    465.14358  0.010515997   0.00922606         3931 
 3687000   0.67143016   -9.2905241    464.70401   0.01050321 0.0092219131         3943 
 3688000   0.67664497   -9.3223702     464.7087  0.010500468 0.0092177683         3926 
 3689000   0.66188604   -9.3049287    464.54337  0.010493886 0.0092136268         3931 
 3690000   0.66324212   -9.3096921    465.18542  0.010505543 0.0092094835         3919 
 3691000   0.66878985   -9.2948648     464.9877  0.010498232 0.0092053463         3926 
 3692000   0.67550886    -9.305013    464.27081  0.010479208 0.0092012145         3903 
 3693000   0.66751236    -9.297212    463.11076  0.010450193 0.0091970795         3924 
 3694000   0.66901708    -9.301888    465.58601  0.010503204 0.0091929541         3934 
 3695000   0.65604694    -9.324789    464.27912  0.010470887 0.0091888274         3932 
 3696000   0.66205673   -9.3129963    463.53965  0.010451381 0.0091847037         3943 
 3697000   0.65072864   -9.3016178     464.1893  0.010463198 0.0091805846         3935 
 3698000   0.65767733   -9.3237958    464.35429  0.010464086 0.0091764617         3935 
 3699000   0.65552383    -9.312355    464.47461  0.010463968 0.0091723467         3945 
 3700000   0.67751125   -9.2906481    464.46696  0.010460968  0.009168233         3934 
 3701000   0.65504601   -9.2939904    464.03081  0.010448321  0.009164121         3945 
 3702000   0.66925241   -9.3086786    463.88177  0.010442143 0.0091600109         3928 
 3703000   0.65433252   -9.3213152    464.50688  0.010453391 0.0091559015         3938 
 3704000   0.65680869   -9.3064846    464.47513  0.010449854 0.0091517957         3932 
 3705000   0.66078774   -9.3380343    464.53849  0.010448459 0.0091476956         3916 
 3706000   0.65669004   -9.3197936    464.42506  0.010443089 0.0091435945         3934 
 3707000   0.65749311   -9.2874524    465.13689  0.010456274 0.0091394987         3931 
 3708000   0.65919115   -9.3150404     464.2728  0.010434035 0.0091354028         3930 
 3709000   0.65298927   -9.3135161    464.61087  0.010438817  0.009131313         3926 
 3710000    0.6615078   -9.3088102    464.29256  0.010428853 0.0091272243         3929 
 3711000   0.65521625   -9.3274788     464.7136  0.010435498 0.0091231375         3952 
 3712000   0.65730317   -9.3319847     464.4303  0.010426327 0.0091190514         3942 
 3713000   0.67751976   -9.3177499    464.64737  0.010428391   0.00911497         3923 
 3714000   0.64633422   -9.3074024    464.21278  0.010415831 0.0091108884         3930 
 3715000   0.65687644   -9.2927442    465.27353  0.010436822 0.0091068115         3933 
 3716000   0.65787967   -9.3209621    464.06255  0.010406857  0.009102736         3953 
 3717000   0.65964995   -9.3033843    464.02723  0.010403265 0.0090986622         3936 
 3718000   0.64873889   -9.3190827    463.96144  0.010398992 0.0090945892         3943 
 3719000    0.6483255   -9.3457001    463.70124  0.010390366 0.0090905203         3935 
 3720000   0.64585281   -9.3208465     464.3837  0.010402861 0.0090864573         3943 
 3721000    0.6679247   -9.3072922    464.38696  0.010400138 0.0090823945         3944 
 3722000   0.65202781   -9.3131199    464.33987  0.010396289 0.0090783278         3937 
 3723000   0.64259348    -9.330484    464.45203  0.010396008 0.0090742736         3935 
 3724000   0.64566128   -9.3128526    464.59282  0.010396366 0.0090702175         3936 
 3725000   0.65761973   -9.3267163     463.9765  0.010379788 0.0090661604         3936 
 3726000   0.65018231   -9.3092416    464.56328  0.010390125 0.0090621118         3936 
 3727000   0.64505298   -9.3325667     464.5877  0.010387884 0.0090580599         3915 
 3728000   0.64921744   -9.3171447    464.80858  0.010390034 0.0090540105         3934 
 3729000   0.66035522   -9.3366174    463.66047  0.010361591 0.0090499692         3947 
 3730000   0.65038067   -9.3300817    464.35166  0.010374255 0.0090459285         3956 
 3731000   0.66441265   -9.3164234    464.22859  0.010368726 0.0090418895         3945 
 3732000   0.67091871   -9.3361022    463.90937   0.01035882 0.0090378509         3947 
 3733000    0.6546843   -9.3268626     464.1532  0.010361488 0.0090338197         3938 
 3734000   0.65879457   -9.3128024    464.50158  0.010366488 0.0090297894         3926 
 3735000    0.6710111   -9.3004726     463.9033  0.010350364 0.0090257581         3916 
 3736000   0.66627707    -9.320743    464.29995  0.010356441 0.0090217289         3918 
 3737000   0.63842007   -9.3236127     464.2964   0.01035359 0.0090177017         3960 
 3738000   0.65380126   -9.3264435    464.28321  0.010350526 0.0090136782         3949 
 3739000   0.65993952    -9.335458    463.79542  0.010336886 0.0090096582         3945 
 3740000   0.64499289   -9.3197442    464.31415  0.010345681 0.0090056433         3920 
 3741000   0.64445494   -9.3199155    463.63629  0.010327815 0.0090016321         3951 
 3742000   0.65307648   -9.3311956    464.88319  0.010352824 0.0089976226         3951 
 3743000   0.65510374   -9.3390589    464.46528  0.010340753 0.0089936103         3932 
 3744000   0.66306418   -9.3396556     464.8166  0.010345811 0.0089896055         3939 
 3745000   0.66225641    -9.323966    463.90088  0.010322672 0.0089856004         3949 
 3746000    0.6582271   -9.3220396    464.34657  0.010329831 0.0089815975         3943 
 3747000   0.66020099   -9.3105166    464.42842  0.010328895 0.0089776013         3941 
 3748000    0.6508467   -9.3367101     464.0297  0.010317274 0.0089736017         3948 
 3749000   0.65290006    -9.317404    464.25854  0.010319608 0.0089696029         3945 
 3750000   0.66743521    -9.326693    464.34492  0.010318776 0.0089656104         3954 
 3751000   0.64061531   -9.3397712    464.82707  0.010326737 0.0089616184         3948 
 3752000   0.65017419   -9.3227428    463.83017  0.010301843 0.0089576282         3955 
 3753000   0.65308467   -9.3303729    464.15012  0.010306202 0.0089536425         3949 
 3754000   0.65237745   -9.3429585    463.60006  0.010291246 0.0089496555         3946 
 3755000   0.65279732   -9.3225344    463.85346  0.010294129 0.0089456698         3931 
 3756000   0.64828242    -9.326286    463.17325  0.010276297 0.0089416895         3945 
 3757000   0.64494433   -9.3210653    464.30021  0.010298559 0.0089377066         3940 
 3758000    0.6445892   -9.3156436    464.54441  0.010301233 0.0089337309         3942 
 3759000    0.6569118   -9.3398288     464.4302  0.010295961 0.0089297577         3945 
 3760000   0.65177777   -9.3296703     464.5034  0.010294845 0.0089257883         3941 
 3761000   0.64106272   -9.3142045    464.66427  0.010295672 0.0089218163         3941 
 3762000   0.64554649   -9.3264183    464.21222  0.010282922 0.0089178471         3939 
 3763000   0.66330329   -9.3357409    462.67385  0.010246121 0.0089138832         3937 
 3764000   0.64734015   -9.3210065    463.99586  0.010272668  0.008909919         3951 
 3765000   0.66167251   -9.3348888    464.18264  0.010274074 0.0089059575         3952 
 3766000   0.65574331   -9.3258385    463.58147  0.010258043 0.0089019988         3945 
 3767000   0.64984937   -9.3286246    463.34279   0.01025004 0.0088980423         3956 
 3768000   0.64043677   -9.3577468    464.24006  0.010267163 0.0088940888         3943 
 3769000   0.63185308   -9.3329461    464.51829  0.010270591 0.0088901383         3915 
 3770000   0.64051344   -9.3493341    463.87025  0.010253542 0.0088861871         3923 
 3771000   0.65241521   -9.3363899    463.53318  0.010243374 0.0088822367         3935 
 3772000   0.65699003   -9.3333817    465.10893  0.010275471 0.0088782935         3951 
 3773000   0.63999903    -9.333853     464.5036  0.010259378 0.0088743551         3929 
 3774000   0.64790835   -9.3363164    464.62899  0.010259428 0.0088704152         3950 
 3775000   0.64707792   -9.3496313    464.11155  0.010245288 0.0088664775         3928 
 3776000   0.64615131   -9.3315421    464.30368  0.010246815 0.0088625395         3940 
 3777000   0.64920329    -9.341285    464.42137  0.010246699 0.0088586071         3923 
 3778000   0.64601401   -9.3523419    464.22902  0.010239744 0.0088546797         3935 
 3779000   0.65027989   -9.3434966    464.20104  0.010236417 0.0088507533         3937 
 3780000   0.64607858   -9.3373202    462.83165   0.01020352 0.0088468294         3937 
 3781000   0.64000089   -9.3394501    464.41346  0.010235684 0.0088429062         3953 
 3782000   0.65161457   -9.3330724     464.1134  0.010226366 0.0088389833         3945 
 3783000   0.64917355   -9.3408804    463.27478   0.01020519 0.0088350622         3946 
 3784000   0.63809518   -9.3332774    464.20334  0.010222942 0.0088311445         3924 
 3785000   0.64364654   -9.3370157    464.47022  0.010226117 0.0088272324         3942 
 3786000   0.63913514   -9.3309228    464.24586  0.010218477 0.0088233225         3925 
 3787000   0.64255086   -9.3460702    464.03485  0.010211136  0.008819409         3943 
 3788000   0.64637484   -9.3542872    463.80559  0.010203397 0.0088155008         3932 
 3789000   0.64197068   -9.3506604    464.05052  0.010206091 0.0088115895         3945 
 3790000   0.64352956   -9.3169807    463.71122  0.010195937 0.0088076857         3950 
 3791000   0.64244112   -9.3428278    464.44794  0.010209442 0.0088037862         3928 
 3792000   0.64695678   -9.3488424    463.70485   0.01019042 0.0087998912         3936 
 3793000   0.65422855   -9.3391311      463.978  0.010193734 0.0087959927         3950 
 3794000   0.63949891   -9.3392318    464.64326  0.010205659 0.0087920944         3929 
 3795000   0.63619324   -9.3409134    464.35567  0.010196655 0.0087882007         3944 
 3796000   0.64400881   -9.3409926    464.34955  0.010193835 0.0087843123         3936 
 3797000   0.64052333   -9.3411828    463.71158  0.010177148 0.0087804242         3951 
 3798000   0.63101311    -9.340881    464.43739  0.010190394  0.008776539         3957 
 3799000   0.63863936   -9.3272313    463.69809  0.010171494 0.0087726562         3946 
 3800000   0.64021232   -9.3424474     463.9169  0.010173616 0.0087687741         3938 
 3801000   0.65513149   -9.3469456    463.80696  0.010168529  0.008764895         3942 
 3802000   0.64156211   -9.3295721    464.41456  0.010179172 0.0087610179         3925 
 3803000   0.64268107   -9.3533449    464.32698  0.010174577 0.0087571441         3946 
 3804000   0.65754842   -9.3479988    463.92438  0.010163082 0.0087532682         3943 
 3805000   0.64247372   -9.3596941    463.89484  0.010159764  0.008749398         3928 
 3806000   0.63475368   -9.3554675    463.80527  0.010155134 0.0087455302         3948 
 3807000   0.63365424   -9.3379048    463.45365  0.010144769 0.0087416672         3955 
 3808000   0.63474119   -9.3239012    463.70015    0.0101475 0.0087378051         3923 
 3809000   0.63942421   -9.3497006    463.64262  0.010143577 0.0087339415         3945 
 3810000   0.65035667   -9.3431951     463.7318  0.010142865 0.0087300813         3950 
 3811000   0.65067029   -9.3243231    463.56276  0.010136507 0.0087262239         3947 
 3812000   0.63080792   -9.3678457    463.36291   0.01012948 0.0087223662         3966 
 3813000   0.63578056   -9.3582976    462.98365  0.010118534 0.0087185083         3960 
 3814000   0.64400804   -9.3239377    462.98332  0.010115874 0.0087146554         3958 
 3815000   0.64387068   -9.3183726    464.21407  0.010140106 0.0087108052         3954 
 3816000   0.63369737   -9.3329325    463.25172  0.010116433 0.0087069578         3961 
 3817000   0.63598895     -9.36081    464.06396  0.010131516 0.0087031116         3958 
 3818000   0.65083202   -9.3294207    463.68738  0.010120643  0.008699266         3944 
 3819000   0.63852828   -9.3367738    464.33338  0.010132089 0.0086954222         3954 
 3820000   0.63574718   -9.3454383    463.63605  0.010114224 0.0086915809         3970 
 3821000   0.64044935   -9.3504586    463.78644  0.010114857 0.0086877447         3959 
 3822000   0.64370182   -9.3370857     464.0163  0.010117223 0.0086839138         3951 
 3823000    0.6492167   -9.3527438    463.36488  0.010100377 0.0086800827         3954 
 3824000   0.63090752   -9.3455736    463.28761  0.010096051 0.0086762505         3956 
 3825000   0.64476875   -9.3360148    463.51647  0.010098398 0.0086724192         3953 
 3826000   0.63894088   -9.3472884    464.22129   0.01011111 0.0086685931         3958 
 3827000   0.63633555   -9.3529054    463.25123  0.010087345 0.0086647689         3947 
 3828000   0.65719964   -9.3239861    464.08104  0.010102774 0.0086609482         3958 
 3829000   0.65071253   -9.3573937    463.73663   0.01009264 0.0086571277         3956 
 3830000   0.61790039   -9.3432992    464.36867  0.010103757 0.0086533118         3948 
 3831000   0.63576239   -9.3446481     464.5866   0.01010586 0.0086494934         3967 
 3832000    0.6224785   -9.3320496    463.82505  0.010086662 0.0086456748         3961 
 3833000   0.65493851   -9.3568244    463.17105  0.010069812  0.008641865         3960 
 3834000    0.6447344   -9.3478102    463.60945  0.010076714 0.0086380563         3932 
 3835000   0.64382328   -9.3635689    463.07546  0.010062483  0.008634248         3963 
 3836000   0.62659871   -9.3332434    463.35408  0.010065913 0.0086304426         3947 
 3837000   0.62705777   -9.3455589     463.6344  0.010069377 0.0086266338         3946 
 3838000   0.63892933   -9.3508778    463.06264  0.010054339 0.0086228301         3965 
 3839000   0.63063322   -9.3617483    463.63725  0.010064193 0.0086190328         3951 
 3840000   0.62483639   -9.3499431    463.48717  0.010058315 0.0086152391         3948 
 3841000   0.63749913   -9.3636364    463.81411   0.01006279 0.0086114463         3961 
 3842000   0.63946146   -9.3520055    463.30932  0.010049222 0.0086076538         3959 
 3843000   0.64007876   -9.3754667    463.31079  0.010046639 0.0086038625         3958 
 3844000   0.62744861   -9.3535037    463.49607  0.010048042 0.0086000758         3943 
 3845000   0.63366668   -9.3658863    463.71488  0.010050171 0.0085962928         3962 
 3846000   0.62824128   -9.3497622    463.79982  0.010049398 0.0085925077         3955 
 3847000   0.63530969   -9.3745616    464.01163  0.010051374 0.0085887233         3942 
 3848000   0.62820717   -9.3552714    463.88907  0.010046108 0.0085849428         3945 
 3849000    0.6432372   -9.3624372    463.48725  0.010034798 0.0085811687         3961 
 3850000   0.64455235   -9.3519897     463.4825  0.010032089 0.0085773929         3960 
 3851000    0.6301432     -9.33823    464.16442   0.01004424 0.0085736175         3963 
 3852000   0.63458622   -9.3568354    463.21633  0.010021122 0.0085698459         3966 
 3853000   0.63934437   -9.3681536    463.73516  0.010029742 0.0085660792         3961 
 3854000   0.63475078   -9.3642756     463.5417  0.010022957 0.0085623137         3957 
 3855000   0.64169294    -9.366763    462.80632   0.01000446 0.0085585514         3963 
 3856000   0.64223803   -9.3443946    463.76254  0.010022531 0.0085547912         3963 
 3857000   0.63842774   -9.3493828    462.68324 0.0099966131 0.0085510361         3950 
 3858000    0.6273918     -9.33411    463.39446  0.010009384   0.00854728         3947 
 3859000   0.62228907   -9.3488808    463.81306   0.01001583  0.008543525         3961 
 3860000   0.62403401    -9.353261    463.53202  0.010007168 0.0085397699         3959 
 3861000   0.64318442   -9.3569386    463.72809  0.010008808 0.0085360188         3948 
 3862000    0.6419625    -9.373541    463.50619  0.010001428 0.0085322715         3952 
 3863000   0.63511715   -9.3668209    462.85997 0.0099848989 0.0085285252         3962 
 3864000   0.62768915   -9.3548003     463.6791 0.0099999805 0.0085247842         3956 
 3865000   0.63163495   -9.3644195    463.29186 0.0099890439 0.0085210406         3955 
 3866000   0.61565537   -9.3488184    463.72596 0.0099958174 0.0085173026         3950 
 3867000    0.6294355   -9.3707911    462.79224  0.009973111 0.0085135649         3957 
 3868000    0.6380918   -9.3557877     463.4279 0.0099842275 0.0085098315         3959 
 3869000   0.63984038   -9.3641687    463.58081 0.0099849403 0.0085060957         3950 
 3870000   0.63667978   -9.3678645    463.61944 0.0099831922 0.0085023663         3957 
 3871000   0.64424194   -9.3579179    463.34793  0.009974768 0.0084986367         3944 
 3872000    0.6315971   -9.3741172     463.0183 0.0099650977 0.0084949108         3957 
 3873000   0.64152579   -9.3599171    463.81704 0.0099797108 0.0084911883         3952 
 3874000   0.62274995   -9.3601107    463.70633 0.0099747533 0.0084874639         3937 
 3875000   0.63574219   -9.3577092    462.97305 0.0099564097 0.0084837443         3950 
 3876000   0.64160453   -9.3624689    463.58021 0.0099668948 0.0084800268         3959 
 3877000   0.64429531    -9.357199    463.83731 0.0099698502 0.0084763101         3963 
 3878000   0.63527986   -9.3474963    463.19876 0.0099535577 0.0084726004         3956 
 3879000   0.63962938    -9.366004    462.70891 0.0099404681 0.0084688895         3956 
 3880000   0.63361976   -9.3492768    463.16533 0.0099477089 0.0084651813         3946 
 3881000   0.62452871   -9.3655726    463.25006 0.0099469652 0.0084614782         3959 
 3882000   0.62128178   -9.3757357    462.95763 0.0099381254 0.0084577745         3947 
 3883000   0.63084932   -9.3688189    463.22961 0.0099414028 0.0084540718         3959 
 3884000   0.64766209   -9.3592397    463.37919 0.0099420527  0.008450372         3939 
 3885000   0.63059999   -9.3730752    463.39293 0.0099397882 0.0084466763         3935 
 3886000   0.64016186    -9.379716    463.54115  0.009940409  0.008442979         3953 
 3887000   0.63593465   -9.3810622    462.87868 0.0099236488 0.0084392856         3956 
 3888000   0.61743249   -9.3466137    462.76737 0.0099187107 0.0084355942         3956 
 3889000   0.61778286   -9.3583942    463.67629 0.0099356367  0.008431907         3956 
 3890000   0.63422591   -9.3799288    463.54655 0.0099303031 0.0084282197         3957 
 3891000   0.62673131   -9.3653567    462.10016 0.0098967736 0.0084245377         3958 
 3892000   0.63008428   -9.3682886    462.77164 0.0099086083 0.0084208554         3954 
 3893000    0.6205836    -9.389433    463.10862 0.0099132763  0.008417174         3961 
 3894000   0.61198974   -9.3549527    463.15201 0.0099116592 0.0084134953         3962 
 3895000   0.63447366   -9.3504555    463.75086 0.0099219268 0.0084098189         3961 
 3896000   0.62900067   -9.3631307    464.32886 0.0099317433 0.0084061478         3951 
 3897000   0.61810509   -9.3610845    462.78532 0.0098961876 0.0084024774         3957 
 3898000   0.61452808   -9.3759701    463.07151 0.0098997673 0.0083988088         3957 
 3899000   0.63306575   -9.3723185    463.15756 0.0098990673 0.0083951399         3963 
 3900000   0.63200123   -9.3789215    462.51585 0.0098828173  0.008391477         3955 
 3901000   0.61550363   -9.3637793     463.8954  0.009909754 0.0083878118         3958 
 3902000    0.6389323   -9.3705957     462.8138  0.009884115 0.0083841511         3937 
 3903000   0.62324577   -9.3684836    462.51973 0.0098753039 0.0083804893         3951 
 3904000   0.63920082   -9.3866966    463.20863 0.0098874793 0.0083768293         3959 
 3905000   0.61390191   -9.3669791    463.18321 0.0098844047 0.0083731717         3968 
 3906000   0.62708221    -9.379497    463.16301 0.0098814433 0.0083695162         3961 
 3907000    0.6295302   -9.3670242     462.4528 0.0098637659 0.0083658657         3956 
 3908000   0.62607509   -9.3929877    462.94621 0.0098717633 0.0083622175         3957 
 3909000   0.62891137   -9.3709028    463.15853 0.0098737642 0.0083585688         3962 
 3910000   0.63215359    -9.381394    462.56542  0.009858598 0.0083549238         3967 
 3911000   0.62241147   -9.3910099    461.74091 0.0098385092 0.0083512808         3950 
 3912000   0.62325619   -9.3800871    462.75175  0.009857527 0.0083476399         3952 
 3913000   0.61688601   -9.3478813    463.55827 0.0098721839 0.0083440048         3960 
 3914000   0.62747332   -9.3655229    463.38801 0.0098660367 0.0083403694         3958 
 3915000    0.6215984   -9.3696992    462.90334 0.0098532001 0.0083367346         3959 
 3916000   0.62636757   -9.3705298    463.66081  0.009866803 0.0083331015         3956 
 3917000   0.61964447   -9.3847944    463.42327 0.0098592304 0.0083294685         3936 
 3918000    0.6117506   -9.3779342    462.81594 0.0098437966 0.0083258396         3944 
 3919000   0.62230146   -9.3845458    462.09967 0.0098260541 0.0083222094         3951 
 3920000   0.62407283   -9.3873196     463.7002 0.0098575723 0.0083185826         3945 
 3921000   0.62331945   -9.3838994    462.06061  0.009820212 0.0083149596         3950 
 3922000   0.62803444   -9.3670963    463.65317 0.0098515461 0.0083113391         3952 
 3923000   0.61390224   -9.3964143    463.17088   0.00983879 0.0083077194         3954 
 3924000   0.63816147   -9.3602157    463.44709 0.0098421485 0.0083041043         3950 
 3925000   0.61456706   -9.3920785    463.61116 0.0098431244 0.0083004918         3962 
 3926000   0.63416514   -9.3818232     463.3281  0.009834609 0.0082968812         3948 
 3927000   0.62797408   -9.3891372    463.78739  0.009841851 0.0082932701         3951 
 3928000   0.61544656   -9.3891454    462.65408 0.0098153021  0.008289663         3945 
 3929000   0.63734526   -9.3797085    464.06311 0.0098426892 0.0082860601         3950 
 3930000   0.63734981   -9.3849877    463.51984  0.009828665 0.0082824602         3956 
 3931000   0.62773467   -9.3675039    463.25559 0.0098205627 0.0082788569         3955 
 3932000   0.63140118   -9.3772501     462.7904 0.0098082063 0.0082752594         3944 
 3933000   0.64228318   -9.3866744    462.85042  0.009806984 0.0082716633         3961 
 3934000   0.60829902   -9.3965583    462.99846 0.0098076272 0.0082680668         3961 
 3935000    0.6190073    -9.398934    463.42343 0.0098141345 0.0082644738         3952 
 3936000   0.60606411   -9.3657325    463.56109 0.0098145557 0.0082608829         3960 
 3937000   0.63289083   -9.3851904    463.01496 0.0098005029 0.0082572922         3947 
 3938000   0.62598779   -9.3726854    462.20949 0.0097809693 0.0082537068         3964 
 3939000   0.62279149   -9.3882401    462.98585 0.0097949109 0.0082501211         3940 
 3940000   0.62519889   -9.3870142    462.68413 0.0097860434 0.0082465387         3963 
 3941000   0.62010265   -9.4073979    462.52176  0.009780127 0.0082429585         3964 
 3942000   0.61492632   -9.3912973    462.77751 0.0097830523 0.0082393814         3938 
 3943000   0.60915528    -9.390966    462.91306 0.0097834361 0.0082358045         3959 
 3944000    0.6153567   -9.3757591    462.61384 0.0097746331 0.0082322303         3945 
 3945000   0.62804871   -9.3803389    462.98094   0.00977991  0.008228657         3967 
 3946000   0.61809079   -9.3856551    463.33406 0.0097848888  0.008225088         3953 
 3947000   0.61714454   -9.3804722    462.77652 0.0097706385 0.0082215205         3942 
 3948000   0.61941691   -9.3926327    463.58485 0.0097852257 0.0082179511         3973 
 3949000   0.61605448   -9.3764016    463.42557 0.0097793864 0.0082143832         3954 
 3950000   0.62685633   -9.3762176    463.20248 0.0097722041 0.0082108231         3949 
 3951000   0.62339759   -9.3991197    463.35264 0.0097728979 0.0082072631         3952 
 3952000   0.60704075   -9.4024108    463.26381  0.009768552  0.008203702         3951 
 3953000   0.63102757   -9.3979722    462.32474 0.0097462843 0.0082001463         3957 
 3954000   0.62270783   -9.3951874    462.00236  0.009737025  0.008196592         3961 
 3955000   0.62391138    -9.387774    462.54558 0.0097460088 0.0081930384         3947 
 3956000   0.61197497   -9.4071825     463.1193 0.0097556308 0.0081894884         3958 
 3957000   0.63044292   -9.3905493    462.45622  0.009739201 0.0081859406         3950 
 3958000   0.61618593    -9.393596    462.79802 0.0097439367 0.0081823942         3946 
 3959000   0.61255786   -9.3791555    463.45937 0.0097553965 0.0081788499         3951 
 3960000   0.61825139   -9.3939606    462.62113 0.0097352932 0.0081753078         3952 
 3961000   0.62181945   -9.3825251    462.43783  0.009728979   0.00817177         3957 
 3962000   0.62115385   -9.3927994    463.49889 0.0097488408 0.0081682318         3946 
 3963000    0.6256587   -9.3995131    462.14346 0.0097178791 0.0081646922         3956 
 3964000   0.62182744   -9.3787257    462.92726  0.009731905 0.0081611599         3951 
 3965000   0.62126407   -9.3962674    462.67309 0.0097241087 0.0081576249         3941 
 3966000   0.60138274   -9.3928654    463.35543  0.009735994 0.0081540938         3958 
 3967000   0.62008974   -9.4015308    463.06803 0.0097275025 0.0081505643         3959 
 3968000   0.61257073    -9.379153    462.69871 0.0097172949 0.0081470361         3956 
 3969000   0.61084779   -9.4008785    461.62103 0.0096922195 0.0081435121         3962 
 3970000   0.61340701   -9.4102852    461.76459 0.0096927915 0.0081399867         3960 
 3971000   0.61931404   -9.4083863    462.33624 0.0097023469 0.0081364675         3956 
 3972000    0.6139645   -9.3967612     463.1629 0.0097172479 0.0081329485         3968 
 3973000   0.60405759   -9.3903918    462.45026 0.0096998544 0.0081294323         3946 
 3974000   0.61876803   -9.3965735    462.34955 0.0096953017 0.0081259162         3952 
 3975000   0.62445816   -9.4012471     462.3199 0.0096922411 0.0081224007         3966 
 3976000    0.6139507   -9.3928347    461.97085 0.0096824876 0.0081188896         3970 
 3977000   0.61469317   -9.3940276    462.40529 0.0096891562 0.0081153837         3954 
 3978000   0.61819701   -9.4112071      462.245 0.0096833627 0.0081118773         3965 
 3979000   0.60915199   -9.3768009    462.33515 0.0096828171 0.0081083711         3951 
 3980000   0.61609796   -9.3884871    463.13037 0.0096970345 0.0081048686         3953 
 3981000   0.60967354   -9.3898685    462.82482 0.0096882027 0.0081013702         3948 
 3982000   0.61641398   -9.3997584    462.16057 0.0096718685 0.0080978727         3965 
 3983000   0.62223489     -9.40693    462.40049 0.0096744599 0.0080943782         3964 
 3984000   0.61371063   -9.4147399    462.24481 0.0096687753 0.0080908837         3978 
 3985000   0.62068352   -9.4085462    462.60753 0.0096739341 0.0080873906         3962 
 3986000   0.62487194   -9.4019612    462.17574 0.0096624799 0.0080838987         3967 
 3987000   0.62754382   -9.3885879    462.74689 0.0096719941 0.0080804107         3955 
 3988000   0.61765023   -9.4011996    462.50717 0.0096645598 0.0080769248         3960 
 3989000    0.5987791   -9.3952702    462.72488  0.009666685 0.0080734392         3954 
 3990000   0.61829376   -9.4100294    462.92442 0.0096684299 0.0080699597         3960 
 3991000   0.60141202   -9.3919735    463.04662 0.0096685588 0.0080664784         3956 
 3992000   0.61371589   -9.4077485    462.87052 0.0096624608     0.008063         3958 
 3993000   0.61984626   -9.3813596    463.00382 0.0096628228 0.0080595254         3952 
 3994000    0.6086473   -9.4085183    462.91909 0.0096586356 0.0080560555         3957 
 3995000   0.60734085   -9.3947242    462.56828 0.0096489002  0.008052586         3966 
 3996000   0.61336386   -9.3999929    463.45756 0.0096650309 0.0080491162         3965 
 3997000   0.60409625   -9.4140277    462.00772 0.0096323851  0.008045646         3966 
 3998000   0.60386938    -9.406596    462.54423 0.0096411588 0.0080421796         3956 
 3999000   0.61126525   -9.4022908     462.0093 0.0096276007 0.0080387163         3963 
 4000000    0.6107434   -9.4169709    463.91702 0.0096649379 0.0080352555         3942 
 4001000   0.61458098   -9.3957597    463.12071 0.0096459367 0.0080317936         3951 
 4002000   0.61449502   -9.4064127    463.55176  0.009652502 0.0080283352         3957 
 4003000   0.62126126   -9.3897087    463.17272 0.0096422001 0.0080248793         3945 
 4004000   0.60171119    -9.396835    462.51769  0.009626159 0.0080214258         3968 
 4005000   0.60903704   -9.4061889    462.72487 0.0096280664 0.0080179741         3954 
 4006000   0.59675473   -9.4007487    461.63286 0.0096029468 0.0080145233         3950 
 4007000   0.61339731   -9.4127315    462.63387 0.0096213683 0.0080110772         3954 
 4008000   0.62251971    -9.397472    462.58308 0.0096179117 0.0080076305         3954 
 4009000   0.61142245   -9.4127692    462.47976 0.0096133649 0.0080041857         3960 
 4010000   0.61944439   -9.4166947     462.3822 0.0096089402 0.0080007451         3961 
 4011000   0.61509998   -9.4173369    462.57437 0.0096105371 0.0079973042         3966 
 4012000   0.60718579   -9.3669904     462.8833 0.0096145584  0.007993868         3950 
 4013000   0.60041637   -9.3923088    463.11676 0.0096170106  0.007990432         3946 
 4014000   0.62303674    -9.420729    462.16071 0.0095947664 0.0079869942         3967 
 4015000   0.60637295   -9.3862885    462.05185 0.0095901173 0.0079835608         3971 
 4016000   0.60266129   -9.4068945    462.43274 0.0095956329 0.0079801334         3948 
 4017000   0.61132919   -9.4093431    462.48918  0.009594415 0.0079767054         3963 
 4018000   0.60531481   -9.4129414    461.11099 0.0095634434 0.0079732778         3960 
 4019000   0.61563254   -9.4106517    462.13782  0.009582355 0.0079698521         3963 
 4020000   0.61181034   -9.4070871    462.10212 0.0095792314 0.0079664321         3946 
 4021000   0.60295512   -9.3996304    462.26778 0.0095802824 0.0079630113         3958 
 4022000   0.62419674   -9.4216498    462.86574 0.0095902896 0.0079595942         3954 
 4023000   0.60134744   -9.3953286    462.56732 0.0095817243 0.0079561759         3968 
 4024000   0.59692258   -9.4057281    462.20929 0.0095719286 0.0079527605         3943 
 4025000   0.60398302   -9.4105206    462.49216  0.009575407 0.0079493488         3950 
 4026000   0.60679637    -9.413737      461.589 0.0095543344 0.0079459371         3961 
 4027000   0.61192772   -9.4153313    462.52278 0.0095712851 0.0079425243         3962 
 4028000   0.60128319   -9.4063689    462.42036 0.0095667899 0.0079391154         3956 
 4029000   0.61765423    -9.430237    461.64208  0.009548318 0.0079357091         3951 
 4030000    0.6190547   -9.4231869    462.61439 0.0095660544  0.007932304         3946 
 4031000   0.60027698   -9.3935346    462.07419 0.0095525136 0.0079289023         3969 
 4032000   0.60913875   -9.4041858    462.61574 0.0095613373 0.0079255049         3956 
 4033000   0.59820723    -9.399281    461.88287 0.0095438232 0.0079221105         3963 
 4034000   0.60368781    -9.400032    462.58616 0.0095559857 0.0079187145         3955 
 4035000   0.60278576   -9.4022007    462.03074 0.0095421467 0.0079153217         3953 
 4036000   0.58915976    -9.405435     462.4775 0.0095490069 0.0079119291         3962 
 4037000   0.60569109   -9.4110246     462.2602 0.0095421558 0.0079085377         3960 
 4038000   0.60391802   -9.4079365    462.81059 0.0095511513 0.0079051507         3960 
 4039000    0.6049083   -9.4168077    460.87558 0.0095088631 0.0079017665         3962 
 4040000    0.6045045   -9.4092844    461.97199 0.0095291252  0.007898383         3962 
 4041000    0.6206159    -9.392556    462.61793 0.0095400877  0.007895004         3948 
 4042000   0.60482647   -9.4007771    461.82691  0.009521419 0.0078916244         3959 
 4043000   0.59446116   -9.4213665     462.2392 0.0095275621 0.0078882448         3946 
 4044000    0.5916837   -9.4062941    461.91629  0.009518552  0.007884868         3954 
 4045000   0.60244608   -9.4121546    462.31584 0.0095244303 0.0078814926         3948 
 4046000   0.61142673   -9.4135928    462.60313 0.0095279933  0.007878121         3950 
 4047000   0.60563986   -9.4306723    461.66207 0.0095062612 0.0078747476         3965 
 4048000   0.61165621   -9.4176537    461.49021 0.0095003749 0.0078713794         3957 
 4049000   0.60970015   -9.4146445    462.22221 0.0095130941 0.0078680118         3952 
 4050000   0.59743297   -9.4059732    461.66607 0.0094993019 0.0078646441         3959 
 4051000    0.6127372   -9.4260133    461.61969 0.0094960027 0.0078612785         3969 
 4052000   0.61154951   -9.4172779    462.43294 0.0095103845 0.0078579159         3952 
 4053000   0.60396925   -9.4165352     462.0017 0.0094991715 0.0078545568         3954 
 4054000   0.61500955    -9.416272    462.36477 0.0095042915 0.0078512004         3970 
 4055000   0.60152816   -9.4096827    462.02234 0.0094949104 0.0078478445         3956 
 4056000   0.61442561   -9.4202163     461.7647 0.0094872761 0.0078444894         3954 
 4057000   0.61106369   -9.4310004    461.68458 0.0094832917 0.0078411388         3959 
 4058000   0.59948976    -9.420404    462.31193  0.009493838 0.0078377911         3955 
 4059000   0.60392336   -9.4127272    462.29671 0.0094911865 0.0078344449         3956 
 4060000    0.5963218   -9.4010231    462.19298 0.0094867195 0.0078310998         3964 
 4061000    0.5973362   -9.4061143    461.77004 0.0094757047 0.0078277553         3957 
 4062000   0.61057338   -9.4201247    462.55168 0.0094894076 0.0078244122         3960 
 4063000   0.60525953   -9.4123232    461.96234 0.0094749845 0.0078210704         3953 
 4064000   0.59752775   -9.4141729    461.68256  0.009466916 0.0078177314         3963 
 4065000   0.61391055   -9.4322557    462.11184 0.0094733875 0.0078143961         3960 
 4066000    0.5993404   -9.4135695    462.46995  0.009478397  0.007811061         3959 
 4067000   0.60081647   -9.4086451    461.95346 0.0094654836  0.007807726         3959 
 4068000   0.60569857   -9.4130902    461.53653 0.0094546159 0.0078043944         3950 
 4069000   0.59822568   -9.4070843    462.01108 0.0094620112 0.0078010657         3957 
 4070000   0.59800723   -9.3998198     462.0724 0.0094609419 0.0077977399         3950 
 4071000   0.59197968   -9.4131573    462.01759  0.009457496 0.0077944141         3956 
 4072000   0.59773487   -9.4069024    461.77256 0.0094501589 0.0077910903         3954 
 4073000   0.60536012   -9.4322565    461.93103  0.009451081 0.0077877684         3964 
 4074000   0.57381992   -9.4346674    462.43887 0.0094591489 0.0077844488         3961 
 4075000    0.5994589   -9.4326637    461.53025 0.0094382465 0.0077811296         3974 
 4076000   0.58967104   -9.4087648    461.89641 0.0094434169 0.0077778131         3956 
 4077000   0.59822382   -9.4127839    462.12426 0.0094457578 0.0077744978         3962 
 4078000    0.6042379   -9.4307302    462.73304 0.0094558819 0.0077711881         3959 
 4079000   0.59576797    -9.418375    462.17792 0.0094422227 0.0077678774         3958 
 4080000   0.59013711   -9.4247198    461.93333 0.0094349128 0.0077645704         3963 
 4081000   0.60754552   -9.4285522    460.90891 0.0094116824 0.0077612637         3961 
 4082000   0.59512064   -9.4287219    461.81859 0.0094279477 0.0077579621         3957 
 4083000   0.58893956   -9.4365006    461.70634 0.0094233476 0.0077546599         3948 
 4084000   0.60658747   -9.4221671    462.06653 0.0094283898 0.0077513574         3946 
 4085000   0.60678096   -9.4389228     461.2236 0.0094088861 0.0077480578         3954 
 4086000   0.59710714   -9.4156956    462.19872 0.0094264708 0.0077447615         3959 
 4087000     0.613404   -9.4547563    461.97734 0.0094196505 0.0077414679         3960 
 4088000   0.58918743   -9.4364926    462.24689 0.0094228411 0.0077381761         3963 
 4089000   0.60360913    -9.407747    462.71431 0.0094300625 0.0077348878         3958 
 4090000   0.59933464   -9.4111596    462.63334 0.0094261072 0.0077316017         3959 
 4091000   0.59022459   -9.4300299    461.39498 0.0093985779  0.007728315         3962 
 4092000   0.59747147    -9.423218    461.78954 0.0094043161 0.0077250297         3962 
 4093000   0.60414439   -9.4453002    461.15552 0.0093891098 0.0077217463         3964 
 4094000   0.61375923    -9.421775    462.43391  0.009412838 0.0077184647         3955 
 4095000    0.5920367    -9.437532    461.95085 0.0094007092 0.0077151835         3963 
 4096000    0.6080943   -9.4319174    461.59302  0.009391134 0.0077119041         3959 
 4097000   0.58796233   -9.4171977    462.25214 0.0094022484 0.0077086286         3958 
 4098000   0.60722678   -9.4377647    462.11495 0.0093971643 0.0077053515         3960 
 4099000   0.59367476   -9.4235413    461.28643 0.0093780278 0.0077020797         3948 
 4100000   0.59398973   -9.4248863    461.70215 0.0093841901 0.0076988089         3962 
 4101000   0.59164986   -9.4392439    462.29897 0.0093940293 0.0076955416         3960 
 4102000   0.60643115   -9.4222221    462.07806 0.0093872514 0.0076922736         3951 
 4103000   0.60632503   -9.4482561    461.15602 0.0093662366 0.0076890109         3959 
 4104000   0.59170237   -9.4302839    461.30864 0.0093670532 0.0076857484         3953 
 4105000   0.60145234   -9.4312204    461.45972 0.0093678385 0.0076824844         3961 
 4106000   0.58985765   -9.4153033    461.94953 0.0093754978 0.0076792252         3957 
 4107000   0.59360875    -9.436759    461.86324 0.0093714641 0.0076759682         3958 
 4108000   0.59224643   -9.4284729    461.46159 0.0093610351 0.0076727141         3965 
 4109000   0.60625738   -9.4294149    462.72251 0.0093843294   0.00766946         3963 
 4110000   0.60299584   -9.4112769    462.22353 0.0093719288 0.0076662095         3956 
 4111000   0.58742392    -9.411895    461.78297 0.0093607185 0.0076629615         3947 
 4112000    0.5924578   -9.4241767    461.84215 0.0093596414 0.0076597113         3953 
 4113000   0.58887964   -9.4198818    461.55028 0.0093514523 0.0076564638         3968 
 4114000    0.5864025   -9.4492196    461.66298 0.0093514621 0.0076532198         3965 
 4115000   0.59666844   -9.4162015    462.19891 0.0093600428 0.0076499793         3955 
 4116000   0.58822428   -9.4553572     461.5521 0.0093446732 0.0076467398         3966 
 4117000   0.60151868    -9.432729    462.07479 0.0093529833 0.0076434998         3954 
 4118000   0.60941655   -9.4156546    461.68877 0.0093429005 0.0076402641         3955 
 4119000   0.59794353   -9.4201525    462.22417 0.0093514642 0.0076370308         3970 
 4120000   0.59863839   -9.4208754    461.46299 0.0093337983 0.0076337961         3968 
 4121000   0.59671693   -9.4182652    462.01683 0.0093427329 0.0076305662         3958 
 4122000   0.58997145   -9.4372394    461.27055  0.009325379 0.0076273379         3955 
 4123000   0.59668177   -9.4390837    461.43489 0.0093264388 0.0076241104         3966 
 4124000   0.58833254   -9.4526999    462.11974  0.009338016 0.0076208851         3949 
 4125000     0.606098    -9.423693    462.44042 0.0093422306 0.0076176642         3963 
 4126000   0.59501819   -9.4407539    461.70801  0.009325174 0.0076144428         3963 
 4127000   0.59226353   -9.4191946    461.99585 0.0093287265 0.0076112247         3954 
 4128000   0.59319651   -9.4469062    461.29825 0.0093123839 0.0076080055         3954 
 4129000   0.58644108   -9.4597092    461.80503 0.0093203567 0.0076047896         3961 
 4130000     0.592913    -9.420052    462.20734 0.0093262176  0.007601577         3966 
 4131000   0.58492409   -9.4472367     461.9786 0.0093193456  0.007598362         3950 
 4132000    0.5844066    -9.433443    461.53915 0.0093082275 0.0075951514         3955 
 4133000   0.59607621   -9.4311154    461.41977 0.0093035682 0.0075919425         3952 
 4134000   0.57500651   -9.4408118     461.3104  0.009299113 0.0075887342         3960 
 4135000   0.60318108   -9.4312164    461.69682 0.0093046518 0.0075855293         3964 
 4136000   0.59008292   -9.4435202    462.16959 0.0093119275 0.0075823263         3965 
 4137000   0.58694142   -9.4166703     462.2207 0.0093107063 0.0075791222         3954 
 4138000   0.59142705   -9.4358402    461.62191 0.0092963974 0.0075759262         3969 
 4139000   0.59932058   -9.4461524    461.79516 0.0092976396 0.0075727265         3951 
 4140000   0.59591304   -9.4306246      462.258 0.0093047102 0.0075695315         3963 
 4141000    0.5879733   -9.4351895     461.4606 0.0092864162 0.0075663354         3955 
 4142000    0.5983081   -9.4505607     461.7608  0.009290214 0.0075631431         3953 
 4143000   0.59338478   -9.4279277    462.03535 0.0092934939 0.0075599523         3956 
 4144000   0.58964104   -9.4428956    461.24577 0.0092753734 0.0075567646         3958 
 4145000   0.58775021   -9.4303076    461.18328 0.0092718794 0.0075535789         3954 
 4146000   0.59684696   -9.4388829    461.60366 0.0092780925 0.0075503918         3956 
 4147000   0.58394714   -9.4379215    462.41017  0.009292062 0.0075472052         3957 
 4148000   0.59044361    -9.436115    461.70432 0.0092756414 0.0075440262         3957 
 4149000   0.58722064   -9.4486174    461.52789 0.0092698621 0.0075408466         3964 
 4150000   0.59738599   -9.4392539    462.25917 0.0092823127 0.0075376713         3960 
 4151000   0.58139704   -9.4536547    460.90636 0.0092529182 0.0075344938         3964 
 4152000   0.58650817   -9.4538633    462.19933 0.0092766403 0.0075313169         3951 
 4153000   0.58192801   -9.4432909    461.85343 0.0092674659  0.007528144         3956 
 4154000   0.59261483    -9.440605     460.8793  0.009245693 0.0075249721         3954 
 4155000   0.58584409   -9.4476831    461.44751 0.0092548638 0.0075218051         3944 
 4156000   0.59312606   -9.4343493    461.96631 0.0092630396 0.0075186366         3961 
 4157000   0.58015312   -9.4512165    461.29823 0.0092474186 0.0075154701         3955 
 4158000   0.58341881   -9.4489072    461.46706 0.0092485783 0.0075123061         3959 
 4159000   0.59656181   -9.4427555    461.94524 0.0092559358 0.0075091455         3964 
 4160000   0.59406144   -9.4498163    461.08667 0.0092365118 0.0075059862         3949 
 4161000   0.59887795   -9.4391369    462.27984 0.0092581878 0.0075028289         3958 
 4162000   0.56747926     -9.44336    462.02798 0.0092509207  0.007499671         3952 
 4163000   0.57526265   -9.4437743    461.38222 0.0092357719 0.0074965155         3959 
 4164000   0.57434913   -9.4279979    461.31155 0.0092321396 0.0074933659         3957 
 4165000   0.59406468   -9.4264154    461.24858 0.0092286631 0.0074902137         3954 
 4166000   0.59102273   -9.4530521    461.36062 0.0092286889 0.0074870632         3952 
 4167000    0.5942088   -9.4440573    461.06963  0.009220655 0.0074839161         3957 
 4168000   0.58587135   -9.4545288    460.51621 0.0092073777 0.0074807708         3967 
 4169000     0.571687   -9.4324531    461.66463 0.0092281248 0.0074776268         3952 
 4170000   0.58016274    -9.441734    461.00522 0.0092127342 0.0074744869         3959 
 4171000   0.60537197   -9.4430561    461.18233 0.0092140639 0.0074713484         3956 
 4172000   0.58531142   -9.4263058    461.54229 0.0092190455 0.0074682114         3956 
 4173000   0.58003572   -9.4349845    461.24036 0.0092108068 0.0074650753         3956 
 4174000   0.58814801   -9.4349953    462.00514 0.0092238687 0.0074619433         3964 
 4175000    0.5798612   -9.4575879    461.42814 0.0092101425 0.0074588107         3957 
 4176000   0.59317097   -9.4727254    461.06287  0.009200648 0.0074556799         3964 
 4177000   0.57839007   -9.4528553    461.25675 0.0092023132 0.0074525522         3960 
 4178000   0.58739927   -9.4504408    461.48053 0.0092045741 0.0074494259         3963 
 4179000   0.58832734   -9.4504855    461.26606 0.0091980949 0.0074462995         3968 
 4180000   0.58480131   -9.4338329     461.9193 0.0092089175 0.0074431757         3949 
 4181000   0.56848132   -9.4473234    461.56299 0.0091996131 0.0074400552         3970 
 4182000   0.59071883   -9.4463142    461.16048 0.0091893927 0.0074369347         3964 
 4183000   0.57853625   -9.4447411    461.07073 0.0091854078 0.0074338148         3956 
 4184000   0.58783542   -9.4401222    461.95719 0.0092008681  0.007430696         3963 
 4185000   0.57881461   -9.4420243     461.3367 0.0091863142 0.0074275817         3957 
 4186000   0.57936282   -9.4372767    460.83865 0.0091742046 0.0074244669         3960 
 4187000   0.59088601   -9.4318472    461.36525 0.0091824944 0.0074213571         3953 
 4188000   0.57719047   -9.4626817    461.95571  0.009192051 0.0074182471         3951 
 4189000   0.58321304    -9.452484    460.52809 0.0091614565 0.0074151412         3959 
 4190000   0.57268456   -9.4475593    461.55879 0.0091797691 0.0074120359         3962 
 4191000   0.59210479   -9.4605014    460.52309  0.009156985 0.0074089332         3961 
 4192000   0.58149545   -9.4475622    461.22266 0.0091687075 0.0074058316         3962 
 4193000   0.57816701   -9.4419871    461.19794 0.0091660295 0.0074027298         3962 
 4194000   0.57107863   -9.4642929    461.66753 0.0091731746 0.0073996303         3955 
 4195000   0.57482375   -9.4475596     461.5303 0.0091682618 0.0073965305         3962 
 4196000   0.58332165   -9.4701161    461.70064 0.0091694598 0.0073934355         3948 
 4197000   0.58405535   -9.4627783    460.63049 0.0091460267 0.0073903413         3956 
 4198000   0.58430471   -9.4553453    460.13122 0.0091339373 0.0073872484         3953 
 4199000   0.57894887   -9.4324373     461.7865 0.0091646125 0.0073841592         3954 
 4200000   0.57956291   -9.4605386    461.43765 0.0091555089 0.0073810698         3945 
 4201000   0.58917244   -9.4523096    461.19675 0.0091485509 0.0073779806         3949 
 4202000   0.57560378   -9.4641484    461.34208  0.009149256 0.0073748949         3956 
 4203000   0.58192118   -9.4544764    461.84705 0.0091570911 0.0073718105         3959 
 4204000   0.57586936   -9.4412609    461.38865 0.0091458264 0.0073687292         3950 
 4205000   0.60134378   -9.4639341    461.41506 0.0091441749 0.0073656499         3959 
 4206000    0.5846237   -9.4462109    461.18332 0.0091374093 0.0073625709         3952 
 4207000   0.57162302    -9.453702    461.29006 0.0091373517 0.0073594951         3960 
 4208000   0.59132984   -9.4728485    461.25838 0.0091345529 0.0073564201         3954 
 4209000    0.5736911   -9.4571252    461.30201 0.0091332464 0.0073533474         3953 
 4210000   0.57100304   -9.4421386     461.4023 0.0091330622 0.0073502765         3948 
 4211000    0.5832008   -9.4479953    461.94134 0.0091415607 0.0073472075         3958 
 4212000   0.58310066   -9.4464787    461.14115 0.0091235587 0.0073441392         3954 
 4213000    0.5613466   -9.4657247     461.8194  0.009134809 0.0073410738         3961 
 4214000   0.57498541   -9.4550297    460.97176 0.0091158789 0.0073380079         3956 
 4215000   0.57634638   -9.4570225    462.06852 0.0091353998 0.0073349457         3961 
 4216000   0.57921572   -9.4417173    461.52835  0.009122556 0.0073318853         3954 
 4217000    0.5785955   -9.4670767    461.12296 0.0091123816 0.0073288254         3962 
 4218000   0.57026099   -9.4515742    461.64672  0.009120569 0.0073257677         3959 
 4219000   0.58530404   -9.4786192    460.11094 0.0090880725 0.0073227106         3956 
 4220000    0.5818225   -9.4675526    461.51203 0.0091135867  0.007319654         3958 
 4221000    0.5667566   -9.4574666    460.64626 0.0090943352 0.0073165987         3946 
 4222000   0.57415579   -9.4496163    461.53343 0.0091096918  0.007313547         3953 
 4223000   0.57702995    -9.452953     461.1974 0.0091009038 0.0073104978         3954 
 4224000   0.57405791    -9.458632    461.25176 0.0090998217 0.0073074493         3961 
 4225000    0.5840822    -9.462515    460.63605 0.0090855237  0.007304406         3956 
 4226000   0.58507446   -9.4597181     460.6639  0.009083923 0.0073013609         3956 
 4227000   0.58528131   -9.4751275    460.74029   0.00908328 0.0072983185         3962 
 4228000   0.57686873    -9.456878    461.73312 0.0091007001 0.0072952778         3956 
 4229000    0.5828569   -9.4610435    461.27992 0.0090896177 0.0072922391         3976 
 4230000   0.59358777   -9.4462486    461.37534 0.0090893486 0.0072892027         3950 
 4231000   0.56664938   -9.4514592    460.65316 0.0090729765 0.0072861696         3948 
 4232000   0.56322719   -9.4618685     460.5635 0.0090690671 0.0072831371         3955 
 4233000   0.57357248   -9.4448655    460.95571 0.0090746459 0.0072801039         3955 
 4234000   0.59063079    -9.455099     461.1866 0.0090770469 0.0072770727         3959 
 4235000   0.57532129   -9.4576523    461.60506 0.0090831378 0.0072740456         3950 
 4236000   0.57378713    -9.453597     461.5689 0.0090802821   0.00727102         3966 
 4237000   0.57732515   -9.4446666    461.13736 0.0090696515 0.0072679938         3964 
 4238000   0.57500183   -9.4614273    460.52851 0.0090555393 0.0072649718         3956 
 4239000   0.56544763   -9.4669948    460.36562 0.0090502009 0.0072619507         3947 
 4240000   0.56373304   -9.4541408    461.24289 0.0090653084 0.0072589284         3961 
 4241000   0.57274633    -9.465356    461.80098  0.009074137 0.0072559097         3965 
 4242000   0.57354281   -9.4826901    460.55538 0.0090475282 0.0072528916         3963 
 4243000    0.5788574   -9.4460112    461.66721 0.0090672326 0.0072498771         3948 
 4244000   0.56291574   -9.4500729    461.15019 0.0090549441 0.0072468657         3951 
 4245000   0.58352541   -9.4554719    460.95991 0.0090490755 0.0072438537         3957 
 4246000   0.58062333   -9.4703611     461.2315 0.0090522748 0.0072408448         3955 
 4247000   0.58053291    -9.470138    461.04679 0.0090465189 0.0072378354         3958 
 4248000   0.56988938   -9.4735367    460.55384 0.0090347191 0.0072348289         3960 
 4249000    0.5686476   -9.4542668    461.83793 0.0090577768 0.0072318285         3949 
 4250000   0.57278299   -9.4656353     461.0697 0.0090405824 0.0072288257         3949 
 4251000   0.55911663   -9.4443828    461.65662 0.0090499613 0.0072258249         3962 
 4252000   0.57120137   -9.4474289     461.2945 0.0090407358 0.0072228267         3950 
 4253000   0.58355862   -9.4725755     460.7761 0.0090284524 0.0072198286         3958 
 4254000   0.58203511   -9.4608588    461.27408 0.0090360853 0.0072168333         3956 
 4255000   0.56497154   -9.4643072    460.49314 0.0090186671 0.0072138404         3960 
 4256000   0.56841119   -9.4767868    461.55792 0.0090373967 0.0072108487         3954 
 4257000   0.57983315   -9.4674451    461.01622 0.0090246695 0.0072078568         3964 
 4258000   0.57063639   -9.4803008    460.26235 0.0090077962 0.0072048674         3968 
 4259000   0.56096331   -9.4601627    460.39188 0.0090082156 0.0072018793         3961 
 4260000   0.56211779   -9.4789766    461.00154  0.009018027 0.0071988936         3957 
 4261000    0.5641705   -9.4776321    460.85873 0.0090131176 0.0071959085         3959 
 4262000   0.57432399   -9.4575293    461.01971 0.0090141505  0.007192926         3953 
 4263000   0.56890138   -9.4690326    461.15168 0.0090146157 0.0071899443         3967 
 4264000   0.56353233   -9.4702771    460.34805 0.0089967958 0.0071869637         3972 
 4265000    0.5765359   -9.4526139     460.8137 0.0090037846 0.0071839851         3972 
 4266000   0.58357529   -9.4729234    460.54391  0.008996404 0.0071810109         3961 
 4267000   0.55412738    -9.474672    460.75844 0.0089984852 0.0071780351         3966 
 4268000   0.57371454   -9.4739659    461.50737 0.0090109999 0.0071750629         3970 
 4269000   0.56652189   -9.4792568    461.08922 0.0090007266 0.0071720929         3969 
 4270000   0.57491287   -9.4723793    460.67812 0.0089905956 0.0071691219         3958 
 4271000   0.57325408   -9.4697351    460.78314 0.0089905396 0.0071661537         3963 
 4272000   0.56087675   -9.4754003    461.32888 0.0089990808 0.0071631882         3970 
 4273000   0.56642281   -9.4649419    460.94493 0.0089894869 0.0071602258         3967 
 4274000   0.56698051   -9.4494305    461.29894 0.0089942859 0.0071572649         3964 
 4275000   0.56638714   -9.4539447    460.64325 0.0089794006 0.0071543047         3961 
 4276000   0.57197716   -9.4581818    460.99852 0.0089842244 0.0071513466         3968 
 4277000   0.57378462    -9.473466    460.63101 0.0089749632 0.0071483861         3966 
 4278000   0.57656139   -9.4854772    461.13103 0.0089826053 0.0071454319         3965 
 4279000   0.56694824    -9.460471    460.74987 0.0089730831 0.0071424778         3962 
 4280000   0.57188598   -9.4608571    460.63055 0.0089686634 0.0071395236         3962 
 4281000   0.56325142   -9.4589236    461.24641 0.0089785567 0.0071365722         3968 
 4282000   0.57061235   -9.4657657    461.46667 0.0089807464 0.0071336221         3963 
 4283000   0.56995852   -9.4547198    460.63737  0.008962514  0.007130674         3970 
 4284000   0.56534118   -9.4803579    461.39828 0.0089752233 0.0071277286         3959 
 4285000   0.58165528   -9.4742417    460.51603  0.008955971 0.0071247837         3963 
 4286000   0.56289996    -9.456671    460.59222 0.0089553629 0.0071218387         3962 
 4287000   0.56755263   -9.4516259    460.63291 0.0089540649 0.0071188986         3962 
 4288000    0.5708888   -9.4542595    461.27765 0.0089645065  0.007115959         3957 
 4289000   0.55068576   -9.4731356    461.63656 0.0089693899 0.0071130222         3965 
 4290000   0.56551757   -9.4642914    460.99486  0.008954834 0.0071100867         3968 
 4291000   0.56987997   -9.4734097    461.21099 0.0089569445 0.0071071534         3972 
 4292000   0.56909771    -9.466675    460.58253 0.0089426555 0.0071042198         3969 
 4293000   0.56692157     -9.46482    461.37781   0.00895601 0.0071012872         3958 
 4294000   0.56306976    -9.465497    459.99562 0.0089271002 0.0070983573         3962 
 4295000   0.56280146   -9.4853399    460.71971 0.0089390708 0.0070954301         3967 
 4296000   0.56238798   -9.4901111    460.89313  0.008940354 0.0070925009         3966 
 4297000    0.5550921   -9.4785085    460.35155 0.0089277704 0.0070895754         3957 
 4298000   0.56446353   -9.4625543    460.82681 0.0089349079 0.0070866509         3961 
 4299000    0.5602239   -9.4919055    460.51791 0.0089268417 0.0070837266         3963 
 4300000    0.5625139   -9.4947649    461.33729 0.0089406452 0.0070808038         3964 
 4301000   0.57087962   -9.4757039    460.84703 0.0089290674 0.0070778831         3963 
 4302000   0.56675503   -9.4875756    461.33896  0.008936521  0.007074965         3959 
 4303000   0.56404887   -9.4622537    461.46068 0.0089368015 0.0070720485         3963 
 4304000   0.55050615   -9.4932758    460.45378 0.0089152296 0.0070691357         3971 
 4305000    0.5692001   -9.4766417    460.97662 0.0089232795 0.0070662238         3960 
 4306000   0.54851734   -9.4557655    461.02003 0.0089220473 0.0070633132         3963 
 4307000   0.56595998   -9.4772952    461.58991  0.008931002 0.0070604068         3961 
 4308000   0.55106679   -9.4744232    460.34558 0.0089048588  0.007057499         3966 
 4309000   0.56185471   -9.4702063    461.39845  0.008923154 0.0070545917         3961 
 4310000   0.56426071    -9.467315     461.3661 0.0089204583 0.0070516892         3959 
 4311000   0.55857104   -9.4768888    460.59411 0.0089034661 0.0070487839         3971 
 4312000   0.53821111   -9.4854597    460.46684 0.0088989417 0.0070458812         3951 
 4313000   0.55953912   -9.4751727    461.22132 0.0089114562 0.0070429812         3973 
 4314000   0.54572058   -9.4625076    459.99826 0.0088857645 0.0070400819         3961 
 4315000   0.56626104   -9.4763064    460.67585 0.0088967912 0.0070371869         3955 
 4316000   0.56735389   -9.4719429    460.09385 0.0088834927  0.007034292         3959 
 4317000   0.56482284   -9.4701183    460.83746 0.0088957891 0.0070314014         3969 
 4318000   0.55854271   -9.4740758    460.78663  0.008892748 0.0070285089         3964 
 4319000   0.55900019   -9.4668042    459.96452 0.0088748266 0.0070256182         3973 
 4320000   0.55975366   -9.4694294    460.50886 0.0088832727 0.0070227295         3972 
 4321000   0.55792028    -9.488522     460.9097 0.0088889474 0.0070198431         3967 
 4322000   0.55496716   -9.4750413    461.14856 0.0088914963 0.0070169583         3961 
 4323000   0.56121481   -9.4613132    460.49209 0.0088767849 0.0070140773         3956 
 4324000   0.55752987   -9.4699017    460.37074 0.0088723932 0.0070111959         3958 
 4325000   0.55594226   -9.4729818    460.53499 0.0088735066 0.0070083148         3964 
 4326000   0.55374529   -9.4990379    461.19425 0.0088841549 0.0070054382         3957 
 4327000   0.56654417   -9.4868523    460.39902 0.0088667864 0.0070025627         3969 
 4328000   0.56277463    -9.476047    460.10318 0.0088590414 0.0069996881         3971 
 4329000   0.55807532   -9.4882747    460.70965 0.0088686696 0.0069968131         3960 
 4330000   0.55981399   -9.4729611    461.23893 0.0088768077  0.006993941         3954 
 4331000   0.56468943   -9.4743524    460.33423 0.0088573507 0.0069910715         3964 
 4332000   0.55691469   -9.4861641    460.80291 0.0088643218 0.0069882018         3967 
 4333000   0.55714897   -9.4742882    460.75777 0.0088614079 0.0069853363         3958 
 4334000    0.5595842   -9.4853205    461.05456 0.0088650699 0.0069824721         3958 
 4335000   0.55339637   -9.4856007    460.67632  0.008855754 0.0069796088         3957 
 4336000   0.56092155   -9.4864816    460.42564 0.0088488937  0.006976746         3970 
 4337000     0.552888   -9.4894203    460.48108 0.0088479187 0.0069738842         3967 
 4338000   0.56155938   -9.4794471    461.15682 0.0088588601 0.0069710247         3962 
 4339000   0.55525652   -9.4928398    461.67073 0.0088666884 0.0069681664         3966 
 4340000   0.55290591   -9.4820532    460.29963 0.0088383186 0.0069653103         3968 
 4341000   0.54772068   -9.4788668    460.33857 0.0088370301 0.0069624556         3970 
 4342000   0.56322385    -9.487913    460.05139 0.0088294831 0.0069596052         3963 
 4343000   0.54967948   -9.4782228    460.13083 0.0088289744 0.0069567531         3965 
 4344000   0.54832427   -9.4891246    460.76943 0.0088391925 0.0069539038         3976 
 4345000   0.54833718   -9.4948542    460.43365 0.0088307182 0.0069510552         3964 
 4346000   0.54983647   -9.4977501    460.22931 0.0088247682 0.0069482091         3967 
 4347000   0.55374706   -9.4943707    460.89175 0.0088354373 0.0069453632         3964 
 4348000   0.54926512   -9.4864541    460.80372 0.0088317181 0.0069425178         3964 
 4349000   0.56829139    -9.490982    460.77928 0.0088292189 0.0069396756         3962 
 4350000   0.55023943   -9.4960227    460.07691 0.0088137339 0.0069368318         3968 
 4351000   0.56958764   -9.4918197    460.09027 0.0088119641  0.006933992         3959 
 4352000   0.54733741   -9.5048402    460.26405 0.0088132669 0.0069311538         3964 
 4353000   0.55556004   -9.4859978    460.78592 0.0088212328 0.0069283171         3965 
 4354000   0.56551439   -9.4852449    460.21109  0.008808205 0.0069254826         3964 
 4355000    0.5639135   -9.4763268    460.79684 0.0088173908 0.0069226512         3957 
 4356000   0.55268652   -9.4778099    459.50096 0.0087905754 0.0069198223         3963 
 4357000   0.56353506   -9.4808503    460.77359 0.0088128986 0.0069169941         3957 
 4358000    0.5491785   -9.4628055    460.93065 0.0088138796 0.0069141654         3968 
 4359000   0.55189832   -9.4829777    459.70155 0.0087883603 0.0069113394         3963 
 4360000   0.56078884   -9.4899736    460.83711 0.0088080488 0.0069085162         3965 
 4361000   0.55142166    -9.514467    460.49533  0.008799498 0.0069056908         3956 
 4362000   0.56140372   -9.4841612    460.21825 0.0087921872 0.0069028683         3964 
 4363000   0.54355229    -9.479534     460.9556 0.0088042554 0.0069000473         3958 
 4364000   0.54568616   -9.4841644    460.81065   0.00879947 0.0068972257         3965 
 4365000   0.56040717   -9.4852163     461.5273 0.0088111359 0.0068944093         3968 
 4366000   0.55108791   -9.4980903    460.22404 0.0087842427 0.0068915926         3975 
 4367000    0.5542435   -9.4852784    459.92337 0.0087764937 0.0068887802         3961 
 4368000   0.54056133   -9.4787916    460.66084 0.0087885539 0.0068859688         3962 
 4369000   0.54592697   -9.4764692    459.97891 0.0087735353 0.0068831573         3969 
 4370000   0.54329305   -9.4860053    460.38172 0.0087792089 0.0068803489         3960 
 4371000    0.5457014   -9.4767517    460.95865 0.0087881997 0.0068775416         3965 
 4372000   0.54641152   -9.4971014    460.29831 0.0087736031 0.0068747363         3969 
 4373000   0.56224405   -9.4890077    460.82686  0.008781669 0.0068719328         3970 
 4374000   0.55069731   -9.4823314    460.37109  0.008770978 0.0068691301         3964 
 4375000   0.54975935   -9.4902161    460.23832 0.0087664442 0.0068663306         3963 
 4376000   0.55610692   -9.4860975     460.4383 0.0087682492  0.006863533         3958 
 4377000   0.54832913   -9.4891093    460.36841 0.0087649153 0.0068607347         3963 
 4378000   0.54161134   -9.5027896    460.27964 0.0087612235 0.0068579381         3962 
 4379000   0.55538732   -9.4767561    460.18953 0.0087575079 0.0068551426         3963 
 4380000   0.54756174   -9.4738329    461.24868 0.0087756598 0.0068523515         3962 
 4381000   0.54017346   -9.4793532    459.88706 0.0087477567 0.0068495615         3963 
 4382000   0.55252326   -9.4755489    460.48913   0.00875721 0.0068467742         3966 
 4383000   0.56503796   -9.4801035    460.55305 0.0087564274  0.006843986         3972 
 4384000   0.54081935   -9.4981576    459.70918 0.0087383892 0.0068411976         3961 
 4385000    0.5443383     -9.48835    461.14736 0.0087637279 0.0068384112         3957 
 4386000   0.54773848   -9.4880648    460.60097 0.0087513484 0.0068356265         3957 
 4387000   0.55746357   -9.4836899    460.41663 0.0087458519 0.0068328443         3966 
 4388000   0.53767788   -9.5137856    460.26085 0.0087409003 0.0068300621         3969 
 4389000   0.55461361   -9.5033315    459.88847 0.0087318385 0.0068272834         3969 
 4390000   0.55198336   -9.4845878    459.88865 0.0087298529  0.006824505         3955 
 4391000   0.54886324    -9.489042    460.46537 0.0087388099 0.0068217282         3964 
 4392000   0.53844645   -9.4719472    460.28193 0.0087333396 0.0068189537         3959 
 4393000   0.54587476   -9.4831856     460.2645 0.0087310209 0.0068161814         3951 
 4394000   0.54869582   -9.4914984    459.38983 0.0087124455 0.0068134081         3970 
 4395000   0.54545554   -9.4984003    460.18145 0.0087254731 0.0068106384         3969 
 4396000   0.55792695   -9.4815918    459.94779 0.0087190589 0.0068078719         3961 
 4397000   0.54773752   -9.5099345    460.15411  0.008720986 0.0068051062         3963 
 4398000   0.55230046   -9.4996454     460.9323 0.0087337483 0.0068023404         3969 
 4399000   0.54806853   -9.5061099    460.17847 0.0087174826 0.0067995767         3968 
 4400000   0.55116252   -9.4922355    460.44168 0.0087204863 0.0067968118         3959 
 4401000   0.55736956   -9.5013675    460.01038 0.0087103381 0.0067940492         3952 
 4402000   0.55605424   -9.4887074    460.75639 0.0087224821 0.0067912896         3958 
 4403000   0.55184992   -9.5081944    460.60614 0.0087176573 0.0067885331         3965 
 4404000   0.55505341   -9.4986061     460.0968 0.0087060399 0.0067857752         3962 
 4405000   0.55132811    -9.490922     460.0758 0.0087036663 0.0067830177         3964 
 4406000   0.55131793   -9.4964801    460.30267 0.0087059817 0.0067802619         3963 
 4407000   0.55070757   -9.4973968    460.38639 0.0087055894 0.0067775106         3960 
 4408000   0.53686008   -9.4825151    459.88525 0.0086941404 0.0067747596         3966 
 4409000   0.54333871   -9.4980288    460.16823  0.008697517 0.0067720093         3972 
 4410000    0.5487972   -9.4915878    460.39409 0.0086998128 0.0067692626         3965 
 4411000   0.55349963   -9.5021509    460.15622 0.0086933465 0.0067665149         3954 
 4412000   0.54181681   -9.5070166    460.03744 0.0086891327 0.0067637716         3968 
 4413000   0.53974124    -9.502413    460.11006 0.0086885351 0.0067610295         3965 
 4414000    0.5415369   -9.5035527    459.95546 0.0086836479 0.0067582879         3965 
 4415000    0.5390229   -9.5100784    460.35424  0.008689208 0.0067555473         3962 
 4416000   0.54242295   -9.4859679    460.92758 0.0086980597  0.006752809         3964 
 4417000   0.55733781   -9.5032246    460.27148 0.0086837121 0.0067500732         3972 
 4418000   0.55940069    -9.505956    459.73706 0.0086716664 0.0067473379         3963 
 4419000   0.54544817   -9.5171049    459.68167 0.0086686593 0.0067446038         3959 
 4420000   0.54752917   -9.5116625    459.80374 0.0086689996 0.0067418712         3960 
 4421000   0.53777246    -9.496473    459.14655 0.0086546511 0.0067391419         3965 
 4422000   0.54824398   -9.4923039    460.26783 0.0086738246 0.0067364124         3959 
 4423000   0.53722515   -9.4978278     460.7604 0.0086811439 0.0067336824         3970 
 4424000    0.5429315   -9.5082055    460.44729 0.0086732838 0.0067309561         3966 
 4425000   0.53800131   -9.5094707    459.70222 0.0086572923 0.0067282337         3970 
 4426000    0.5351273   -9.4924779    460.49254 0.0086702166 0.0067255103         3959 
 4427000   0.55035164   -9.5227417    460.35048  0.008665584 0.0067227883         3968 
 4428000    0.5328506   -9.5038287    460.19445 0.0086606905 0.0067200684         3959 
 4429000   0.54386737    -9.511206    460.27023 0.0086601609  0.006717349         3967 
 4430000   0.53408442   -9.5193991    460.14822 0.0086559109 0.0067146305         3967 
 4431000    0.5433018    -9.502581    459.50691 0.0086418962 0.0067119141         3960 
 4432000   0.53673797   -9.4967938    459.78749 0.0086452221  0.006709199         3964 
 4433000   0.53830143   -9.5027296    459.61799 0.0086400856 0.0067064865         3972 
 4434000   0.55841996   -9.5073247     460.0357 0.0086459874 0.0067037744         3965 
 4435000   0.54354453   -9.4952342    459.50639 0.0086340922  0.006701065         3960 
 4436000   0.53273675     -9.48665    459.98946 0.0086412206 0.0066983538         3962 
 4437000   0.54150275   -9.5074632    460.03427 0.0086401148 0.0066956478         3968 
 4438000   0.55064843   -9.5039902    459.82462 0.0086342313 0.0066929415         3973 
 4439000   0.54411361   -9.5280833     460.3188 0.0086415634 0.0066902372         3967 
 4440000   0.54671439   -9.5067596    460.09157 0.0086353523  0.006687534         3959 
 4441000   0.54047932   -9.5108343    459.85435 0.0086289566 0.0066848314         3966 
 4442000   0.52736199   -9.5159305    459.49316 0.0086202378 0.0066821307         3967 
 4443000   0.52947785   -9.5010198    460.13141 0.0086302688 0.0066794343         3966 
 4444000   0.53866345   -9.5147843    459.59068 0.0086181871 0.0066767351         3964 
 4445000   0.53427193   -9.5001083    460.76134 0.0086381954 0.0066740417         3968 
 4446000   0.53506379    -9.506166    459.64861 0.0086153961 0.0066713484         3960 
 4447000   0.53641302   -9.5002423    459.90665 0.0086182941 0.0066686531         3965 
 4448000   0.54376242   -9.5015395    460.42192 0.0086260101 0.0066659618         3973 
 4449000   0.53292383   -9.5078163    459.90037 0.0086143022 0.0066632729         3969 
 4450000   0.53488251    -9.525727    460.44068 0.0086224846 0.0066605847         3971 
 4451000   0.53909329   -9.4932537    460.38223 0.0086194531 0.0066578974         3965 
 4452000   0.55145105   -9.5163337    460.37902 0.0086174569 0.0066552127         3963 
 4453000   0.54280494   -9.4993945    459.98992 0.0086082401 0.0066525295         3975 
 4454000   0.53135431   -9.4846744    460.38611 0.0086137201 0.0066498483         3971 
 4455000   0.53443221    -9.504643    459.73735 0.0085996511 0.0066471666         3972 
 4456000   0.53140832   -9.5051815    459.88521 0.0086004864 0.0066444872         3968 
 4457000   0.53700888   -9.5108876    460.40415 0.0086082596 0.0066418094         3966 
 4458000   0.53117445   -9.5036608    459.68651 0.0085929137 0.0066391321         3965 
 4459000   0.53472125   -9.5085754    459.59611  0.008589297 0.0066364572         3968 
 4460000   0.54358246   -9.5147302    460.82647   0.00861036 0.0066337845         3969 
 4461000   0.53174694    -9.518262    460.12563 0.0085953379 0.0066311129         3965 
 4462000   0.53831886    -9.501702    460.16208 0.0085940923 0.0066284437         3964 
 4463000   0.55560039   -9.5077472    459.51717 0.0085801248 0.0066257756         3972 
 4464000   0.53458761   -9.5117473    459.66348 0.0085809342 0.0066231088         3970 
 4465000   0.52664008   -9.5116081    460.03737 0.0085859905 0.0066204408         3970 
 4466000    0.5539311   -9.5014656    460.40529 0.0085909332 0.0066177753         3961 
 4467000   0.53499481   -9.5171946    459.82482  0.008578181 0.0066151136         3951 
 4468000   0.54604396   -9.5136311    460.04655 0.0085803967 0.0066124521         3974 
 4469000   0.52747062   -9.4957889    460.86181 0.0085936789  0.006609793         3978 
 4470000   0.53156073    -9.504122    459.96129 0.0085749682 0.0066071332         3972 
 4471000   0.54615096   -9.5133956    459.77864 0.0085696459 0.0066044772         3967 
 4472000   0.54591345   -9.4950182    459.79453 0.0085680256 0.0066018228         3973 
 4473000    0.5300623   -9.5177678    459.91968 0.0085684417 0.0065991701         3964 
 4474000    0.5403687   -9.5114558    460.29785 0.0085735704 0.0065965184         3959 
 4475000   0.52579669   -9.5179631    459.63946 0.0085593941 0.0065938668         3970 
 4476000   0.52879044   -9.5363881    460.37768 0.0085712257 0.0065912159         3966 
 4477000   0.52973905   -9.5320427    459.67005 0.0085561398 0.0065885662         3966 
 4478000   0.54150278   -9.5123816    459.08739  0.008543386 0.0065859191         3966 
 4479000   0.53585414   -9.5197607    460.77808 0.0085729345 0.0065832727         3966 
 4480000   0.53385928   -9.5201777    459.61159 0.0085493228 0.0065806285         3964 
 4481000     0.538046   -9.5027514    459.68133 0.0085487118 0.0065779873         3968 
 4482000   0.53817507   -9.5241902    459.65623 0.0085463378 0.0065753455         3969 
 4483000   0.54385864   -9.5062482    459.63692 0.0085440724 0.0065727058         3972 
 4484000   0.53408016   -9.5407105    459.72825 0.0085438644 0.0065700666         3972 
 4485000    0.5361717   -9.5165553    460.13775 0.0085495681 0.0065674293         3965 
 4486000   0.53883101   -9.5298416    459.42263 0.0085343778 0.0065647937         3966 
 4487000   0.52372299   -9.5322466    459.57713 0.0085353453 0.0065621603         3965 
 4488000    0.5321976   -9.5073837    460.03148 0.0085418798 0.0065595262         3967 
 4489000   0.51981151   -9.5076641    459.78438 0.0085353898 0.0065568949         3967 
 4490000   0.54119236   -9.4995225    458.75742 0.0085144287 0.0065542649         3973 
 4491000   0.53742888   -9.5205372    460.58963 0.0085465307  0.006551639         3969 
 4492000   0.53517575   -9.5223393    460.45477 0.0085421262 0.0065490109         3968 
 4493000   0.53354804   -9.5133321    459.63922 0.0085250986 0.0065463857         3972 
 4494000   0.53015604   -9.5156992    459.54707 0.0085214929   0.00654376         3972 
 4495000   0.53872851   -9.5200011    459.22035 0.0085135401 0.0065411373         3972 
 4496000   0.52531909   -9.5212328    459.46105 0.0085161078 0.0065385156         3970 
 4497000   0.53124921    -9.519182    460.17516 0.0085274472  0.006535895         3971 
 4498000    0.5277709   -9.5128246    459.62875 0.0085154282  0.006533275         3963 
 4499000   0.53258231   -9.5256083     460.6163 0.0085318275 0.0065306588         3968 
 4500000   0.54012842   -9.5166258    460.24154 0.0085229915  0.006528043         3970 
 4501000   0.52574812    -9.501732     460.3805 0.0085236707 0.0065254291         3968 
 4502000   0.53978469   -9.5272054    459.51634 0.0085057815 0.0065228172         3967 
 4503000   0.53051597   -9.5266044    459.93229 0.0085115902 0.0065202059         3951 
 4504000   0.53220271   -9.5156161    459.47282 0.0085011992 0.0065175976         3968 
 4505000   0.52926836   -9.5175244    460.06373 0.0085102429   0.00651499         3976 
 4506000    0.5379283    -9.523737    460.50773 0.0085165656 0.0065123838         3971 
 4507000   0.54343412   -9.4943319    459.76838 0.0085010054 0.0065097797         3966 
 4508000   0.53493238   -9.5348152    459.12311 0.0084871915 0.0065071766         3973 
 4509000   0.52729594   -9.5269373    459.72133 0.0084963652 0.0065045748         3963 
 4510000   0.52409184   -9.5255823    459.84899 0.0084968403 0.0065019732         3966 
 4511000   0.53179247    -9.524424    460.34397 0.0085041006 0.0064993753         3969 
 4512000   0.52879538   -9.5253163    459.74602  0.008491172 0.0064967757         3971 
 4513000   0.52712027   -9.5214649    459.77126 0.0084897566 0.0064941805         3961 
 4514000   0.54178203   -9.5317074    459.32589 0.0084796539 0.0064915855         3965 
 4515000   0.53337234    -9.532826    459.63379 0.0084834587 0.0064889917         3972 
 4516000   0.51676262   -9.5348747    459.25237 0.0084745418 0.0064863992         3961 
 4517000   0.53850647   -9.5141456    460.09297 0.0084881737 0.0064838078         3969 
 4518000   0.52007025   -9.5233736       459.44 0.0084742511 0.0064812191         3973 
 4519000   0.52482324   -9.5177318    459.16656 0.0084673334 0.0064786312         3961 
 4520000   0.51969481   -9.5171013    459.57435 0.0084729785 0.0064760442         3960 
 4521000   0.53222859   -9.5175573    459.74366 0.0084742251 0.0064734582         3974 
 4522000   0.51594956   -9.5341684    459.53787 0.0084685587 0.0064708744         3965 
 4523000   0.53515528    -9.523113    460.20105  0.008478905 0.0064682911         3959 
 4524000   0.54381221   -9.5431236    459.83512 0.0084702902 0.0064657101         3960 
 4525000   0.52559384   -9.5305142    459.86846 0.0084690324 0.0064631282         3963 
 4526000   0.51871934   -9.5241352    459.89216 0.0084675976 0.0064605482         3970 
 4527000   0.52283793   -9.5316079    459.33894 0.0084555434   0.00645797         3971 
 4528000   0.52858583   -9.5177174    460.15218 0.0084686429 0.0064553948         3965 
 4529000   0.51947885   -9.5151132    458.93915 0.0084444533 0.0064528193         3965 
 4530000     0.529845   -9.5226774    459.83812 0.0084591265  0.006450246         3968 
 4531000   0.53484449   -9.5203038    459.60758 0.0084530195 0.0064476735         3967 
 4532000    0.5250521   -9.5144595    459.77911 0.0084543085  0.006445104         3963 
 4533000   0.52797256   -9.5223395    459.51485 0.0084475853 0.0064425342         3970 
 4534000   0.52946818   -9.5272846    459.74338 0.0084499225 0.0064399669         3970 
 4535000   0.51780527   -9.5187397     459.7184 0.0084476002 0.0064374016         3976 
 4536000   0.52845628   -9.5332576     459.4544 0.0084408877 0.0064348346         3968 
 4537000   0.51080802    -9.528916    458.56739  0.008422735 0.0064322697         3966 
 4538000   0.51848294   -9.5318097    460.23655 0.0084515306 0.0064297079         3969 
 4539000   0.53014914   -9.5454308    459.81684 0.0084419631 0.0064271485         3966 
 4540000   0.52432411   -9.5467875    459.26978 0.0084300621 0.0064245893         3969 
 4541000   0.52335442   -9.5349375    459.51517 0.0084327089 0.0064220309         3965 
 4542000   0.51584554   -9.5467086    459.73606  0.008434905 0.0064194719         3969 
 4543000   0.52319882   -9.5189634    459.06915 0.0084208149 0.0064169172         3969 
 4544000    0.5219133    -9.535862    459.04608 0.0084185388 0.0064143636         3970 
 4545000   0.51127402   -9.5414318    459.35589 0.0084223669  0.006411811         3970 
 4546000   0.52246622   -9.5258075    459.57981 0.0084246189 0.0064092595         3965 
 4547000   0.51953718   -9.5275121    459.04462 0.0084129577 0.0064067085         3966 
 4548000   0.52474998   -9.5541367    459.04911 0.0084111901 0.0064041605         3975 
 4549000   0.52359816    -9.535023    459.07466 0.0084098092 0.0064016132         3972 
 4550000    0.5206195   -9.5415332     459.2533 0.0084112326 0.0063990671         3959 
 4551000   0.52140514   -9.5317334    459.32381 0.0084106755 0.0063965225         3969 
 4552000   0.52297838   -9.5306364    458.91246 0.0084012972 0.0063939792         3964 
 4553000   0.51259779   -9.5121704    459.48244 0.0084098844 0.0063914383         3959 
 4554000   0.51811693   -9.5253548    459.70939 0.0084121905 0.0063888972         3972 
 4555000   0.52651054   -9.5141727    459.59655 0.0084082794 0.0063863589         3970 
 4556000   0.52532479   -9.5401873    459.37016  0.008402293  0.006383821         3978 
 4557000   0.51177238   -9.5303717    459.41054 0.0084011876 0.0063812837         3972 
 4558000   0.51681111   -9.5323272    460.22398 0.0084142164 0.0063787486         3962 
 4559000   0.52744879   -9.5364158    459.28191 0.0083951509 0.0063762155         3972 
 4560000   0.51443328    -9.518382    459.68479 0.0084006723 0.0063736844         3979 
 4561000   0.51533582   -9.5291267    459.77394 0.0084004594  0.006371153         3972 
 4562000   0.52283822    -9.541789    458.87576  0.008382211 0.0063686225         3971 
 4563000   0.52990493   -9.5372137    458.86577 0.0083801915  0.006366094         3972 
 4564000   0.52601302   -9.5281793    459.66194 0.0083928926 0.0063635688         3969 
 4565000   0.53004804    -9.522297    459.39222 0.0083861304 0.0063610444         3977 
 4566000   0.52323321   -9.5393175    459.17403 0.0083803115 0.0063585213         3963 
 4567000   0.52042156   -9.5339572    459.30477 0.0083808622 0.0063559984         3971 
 4568000   0.52519553   -9.5385029      459.575 0.0083839573 0.0063534768         3974 
 4569000   0.52351172   -9.5298598    459.68579 0.0083841429 0.0063509572         3975 
 4570000   0.51781336     -9.53095    459.13581 0.0083722796 0.0063484395         3975 
 4571000   0.51495191   -9.5324842    459.81632 0.0083828543  0.006345923         3957 
 4572000   0.52775365   -9.5368312    459.22509 0.0083702445  0.006343408         3972 
 4573000   0.51598765    -9.543595    458.95047 0.0083634096 0.0063408942         3966 
 4574000   0.52017919   -9.5471519    458.72473 0.0083574685 0.0063383801         3969 
 4575000   0.51390229   -9.5401478    459.57742 0.0083711734 0.0063358677         3963 
 4576000   0.52185488   -9.5299995    459.06568 0.0083600248 0.0063333558         3971 
 4577000   0.52880776   -9.5396846    460.26611 0.0083800544 0.0063308475         3975 
 4578000   0.51379525   -9.5405257    459.36035 0.0083617364 0.0063283382         3967 
 4579000   0.51576234   -9.5529352    459.77159 0.0083673945 0.0063258327         3971 
 4580000   0.51436942   -9.5523485    459.91752 0.0083682228 0.0063233278         3968 
 4581000   0.52771338   -9.5485861    458.93425 0.0083485092 0.0063208244         3968 
 4582000   0.51205039   -9.5301275    459.70815 0.0083607622 0.0063183226         3972 
 4583000   0.52765783   -9.5268061    459.17162 0.0083491822 0.0063158225         3975 
 4584000   0.50401858   -9.5472705    459.34308 0.0083504777 0.0063133229         3973 
 4585000    0.5233926    -9.542652     458.4779 0.0083329317 0.0063108242         3965 
 4586000   0.51946571   -9.5334717    459.09763 0.0083423759 0.0063083288         3965 
 4587000   0.51708852   -9.5277779    459.17903  0.008342036  0.006305833         3970 
 4588000   0.52387198   -9.5362934    459.69719 0.0083496293  0.006303339         3966 
 4589000   0.50881149   -9.5448387    458.87977  0.008332966 0.0063008458         3965 
 4590000   0.51328921    -9.547406    458.92606  0.008331991 0.0062983537         3967 
 4591000    0.5147731   -9.5453957    458.58947 0.0083240664 0.0062958635         3965 
 4592000   0.50927696   -9.5340193    458.86212 0.0083272017 0.0062933735         3974 
 4593000   0.51815647   -9.5306555    459.67749 0.0083401824 0.0062908849         3969 
 4594000   0.51240332   -9.5354098    459.22735 0.0083302014 0.0062883997         3973 
 4595000   0.51667913   -9.5442952    459.10352  0.008326143 0.0062859148         3972 
 4596000   0.52016648   -9.5514971    458.79427 0.0083187241 0.0062834312         3964 
 4597000   0.51369168   -9.5364651    458.91346 0.0083190751 0.0062809497         3970 
 4598000   0.51408337   -9.5266756    458.94375 0.0083178148 0.0062784688         3958 
 4599000   0.51425952   -9.5452417    459.26126 0.0083217595 0.0062759899         3974 
 4600000   0.51521663   -9.5463438    459.24457  0.008319648 0.0062735132         3969 
 4601000   0.52141171   -9.5535535    459.15483 0.0083162144 0.0062710361         3981 
 4602000   0.51027584   -9.5476866     458.9631 0.0083109355 0.0062685601         3976 
 4603000   0.51169078   -9.5229283    460.18194  0.008331196 0.0062660858         3976 
 4604000   0.52765824   -9.5441814    459.35259 0.0083143749 0.0062636142         3974 
 4605000   0.52510345   -9.5392345    459.08992 0.0083078161 0.0062611412         3967 
 4606000   0.50347943   -9.5291796    459.14485 0.0083070062  0.006258671         3973 
 4607000   0.51891506   -9.5325024    459.39118 0.0083096588 0.0062562017         3971 
 4608000   0.51599511   -9.5395051    460.38272 0.0083257871 0.0062537352         3970 
 4609000   0.52266586   -9.5538628    459.32074 0.0083047794 0.0062512695         3969 
 4610000   0.51909158   -9.5276814    459.36876  0.008303846 0.0062488061         3963 
 4611000    0.5226964   -9.5318088    458.57734 0.0082877419 0.0062463426         3969 
 4612000   0.51109092   -9.5514534    459.16157 0.0082965014 0.0062438804         3971 
 4613000   0.51143197    -9.546626    458.88511 0.0082897085 0.0062414211         3974 
 4614000     0.525424   -9.5544027    459.42205 0.0082976097 0.0062389621         3965 
 4615000   0.51429793   -9.5578484    458.63232 0.0082815515 0.0062365044         3968 
 4616000     0.515757   -9.5373292    459.60747 0.0082973618 0.0062340476         3964 
 4617000   0.50823513   -9.5498952    458.96328 0.0082839376 0.0062315938         3974 
 4618000   0.50737014   -9.5507984     459.3752  0.008289577 0.0062291409         3969 
 4619000   0.51745318   -9.5416152    458.66795 0.0082750225 0.0062266889         3976 
 4620000   0.51169181   -9.5406839    459.57796 0.0082896457 0.0062242374         3974 
 4621000   0.51474499   -9.5371687    459.42875  0.008285161  0.006221787         3970 
 4622000   0.51136756    -9.553092    458.68295  0.008269922  0.006219336         3971 
 4623000   0.50225391   -9.5436368    459.49155 0.0082827088 0.0062168885         3967 
 4624000   0.51529163   -9.5351014    459.50075 0.0082810833 0.0062144426         3967 
 4625000   0.51098448   -9.5260158    459.09939 0.0082720611  0.006211998         3967 
 4626000   0.48687455   -9.5418112    458.73827 0.0082637676 0.0062095549         3972 
 4627000   0.51441133   -9.5224061    458.93665 0.0082655545 0.0062071123         3965 
 4628000   0.51608641   -9.5406474      458.993 0.0082647833  0.006204672         3976 
 4629000   0.51525441    -9.540502    458.84222 0.0082602833 0.0062022332         3969 
 4630000   0.51172857   -9.5505182    459.43713 0.0082692069 0.0061997948         3968 
 4631000   0.51616217   -9.5668613    459.24505 0.0082639648 0.0061973584         3962 
 4632000   0.52114222    -9.566737     459.5895 0.0082683775 0.0061949232         3963 
 4633000   0.50966627   -9.5357602    459.55363 0.0082659478 0.0061924875         3969 
 4634000   0.51534389   -9.5561381    459.18794 0.0082575878 0.0061900555         3970 
 4635000   0.51414519   -9.5331525    459.15478 0.0082552099 0.0061876228         3965 
 4636000   0.51305638   -9.5382846    459.36486 0.0082572056 0.0061851928         3968 
 4637000   0.50338251    -9.556347    459.24564 0.0082532822 0.0061827628         3973 
 4638000   0.50218488   -9.5431819     459.2758 0.0082520447  0.006180336         3968 
 4639000   0.50970951   -9.5523907    459.54616 0.0082551224 0.0061779062         3973 
 4640000   0.50919326   -9.5400057     459.6111 0.0082545098 0.0061754798         3963 
 4641000   0.50876378   -9.5502636    459.03572 0.0082423996 0.0061730547         3972 
 4642000   0.50172704   -9.5609642    458.75033 0.0082355007  0.006170631         3962 
 4643000   0.50919046   -9.5616947    458.08585 0.0082218008 0.0061682096         3968 
 4644000   0.50997155   -9.5549099    458.90215 0.0082346782 0.0061657885         3964 
 4645000    0.5243387   -9.5663421    458.84347 0.0082318527 0.0061633678         3968 
 4646000   0.50658157   -9.5644221    459.20137 0.0082365005 0.0061609481         3958 
 4647000   0.51342389   -9.5523817     459.3599 0.0082375709 0.0061585315         3968 
 4648000   0.51040784   -9.5284172    459.76249 0.0082430165 0.0061561157         3966 
 4649000   0.49657877   -9.5672669    459.10082  0.008229383 0.0061537007         3972 
 4650000   0.51471429   -9.5530476    458.58327 0.0082183382  0.006151287         3967 
 4651000   0.50730329   -9.5525624    459.97452 0.0082414986 0.0061488756         3970 
 4652000   0.50905375    -9.545724    459.16363 0.0082252011 0.0061464639         3964 
 4653000   0.51429226   -9.5467446    458.34798 0.0082088255  0.006144056         3964 
 4654000   0.50363214    -9.565171    459.07373 0.0082200568 0.0061416457         3963 
 4655000   0.49612359   -9.5373358    459.33549 0.0082229769 0.0061392389         3976 
 4656000   0.51030076   -9.5555369    458.91082   0.00821361 0.0061368343         3973 
 4657000   0.50248356   -9.5455716    459.36258 0.0082199303   0.00613443         3962 
 4658000   0.50499076   -9.5589938    459.53272 0.0082212094 0.0061320291         3976 
 4659000   0.50268999   -9.5814268    458.58022  0.008202408 0.0061296267         3963 
 4660000   0.50908013   -9.5483484     458.9036 0.0082064307 0.0061272273         3971 
 4661000   0.49915459   -9.5389321    459.40658 0.0082136627 0.0061248288         3971 
 4662000   0.50424636   -9.5519768    458.97259 0.0082041432 0.0061224313         3976 
 4663000   0.50271068    -9.546647    459.36428 0.0082093839 0.0061200357         3971 
 4664000   0.51197719   -9.5569961    458.90169 0.0081993584 0.0061176418         3975 
 4665000   0.50429388   -9.5534686    459.23794 0.0082036073 0.0061152478         3972 
 4666000   0.50002163   -9.5670365    458.09801 0.0081814903  0.006112854         3961 
 4667000   0.49855276   -9.5678445    459.86968  0.008211372 0.0061104626         3970 
 4668000   0.50497699   -9.5467192    459.48481 0.0082027422 0.0061080725         3960 
 4669000   0.51740655   -9.5707406    458.56448 0.0081845591 0.0061056844         3967 
 4670000   0.49684896   -9.5490755    459.41786 0.0081980346 0.0061032967         3968 
 4671000   0.50091531   -9.5629253    458.26776 0.0081757611 0.0061009098         3976 
 4672000   0.49530492     -9.56952    459.20942 0.0081908074 0.0060985262         3957 
 4673000   0.50674639   -9.5578859    459.29837 0.0081906408 0.0060961421         3962 
 4674000   0.50738911   -9.5814653    459.02509  0.008184016 0.0060937604         3975 
 4675000   0.50255475   -9.5515887    459.15227 0.0081845324  0.006091382         3971 
 4676000   0.50513394   -9.5566812    459.21613 0.0081839201 0.0060890019         3976 
 4677000   0.51556368   -9.5698757    459.03872 0.0081790093 0.0060866222         3973 
 4678000   0.48813268   -9.5619446    458.63045  0.008169988 0.0060842461         3966 
 4679000   0.50111257   -9.5580021    458.19784 0.0081605371 0.0060818689         3969 
 4680000   0.50955514   -9.5592235    459.03553 0.0081737095 0.0060794956         3969 
 4681000    0.4952808   -9.5467648    458.82914 0.0081682892 0.0060771205         3964 
 4682000   0.50405502   -9.5650738    459.79114 0.0081836669 0.0060747466         3974 
 4683000   0.50053335   -9.5735353    458.62085 0.0081610943 0.0060723755         3970 
 4684000   0.50330172    -9.563777    458.77333 0.0081620647 0.0060700044         3977 
 4685000   0.51346951   -9.5727496    459.47895 0.0081728735 0.0060676357         3977 
 4686000   0.49935979   -9.5446701    459.25938 0.0081672247 0.0060652688         3971 
 4687000   0.48402275   -9.5729019     458.7836 0.0081570229 0.0060629011         3966 
 4688000     0.507507   -9.5617799     458.1189 0.0081434674  0.006060537         3971 
 4689000   0.50963691   -9.5657008    458.84066 0.0081545578 0.0060581726         3980 
 4690000   0.51139692   -9.5584788     458.7464 0.0081511443 0.0060558092         3973 
 4691000   0.50519666    -9.576048    458.92421 0.0081525654 0.0060534494         3971 
 4692000    0.5036496   -9.5649276    458.89963 0.0081503913 0.0060510895         3962 
 4693000   0.50022358   -9.5574157    458.48012 0.0081412054 0.0060487291         3973 
 4694000   0.50536429   -9.5653192    458.64187 0.0081423425 0.0060463717         3970 
 4695000   0.50179064   -9.5764352    459.18009 0.0081501614 0.0060440151         3975 
 4696000   0.50104837   -9.5562384    458.32972 0.0081333354 0.0060416607         3968 
 4697000   0.49970258   -9.5556476    459.27867   0.00814844 0.0060393078         3972 
 4698000   0.49923226   -9.5646664    458.62339 0.0081350822 0.0060369553         3973 
 4699000   0.51038927   -9.5634423    459.07512  0.008141362 0.0060346054         3968 
 4700000   0.50220438   -9.5784627    458.17145 0.0081236073 0.0060322561         3971 
 4701000   0.51165185   -9.5593254     459.1284 0.0081388429 0.0060299079         3975 
 4702000   0.50450218   -9.5675464    458.58947 0.0081275605 0.0060275619         3969 
 4703000    0.4864258   -9.5738948    459.10453 0.0081349587 0.0060252154         3968 
 4704000   0.49425475   -9.5706257    458.70274 0.0081261115  0.006022871         3975 
 4705000   0.50159411   -9.5870425    458.69883 0.0081243151  0.006020529         3971 
 4706000   0.49796571   -9.5747627    459.07393  0.008129231 0.0060181855         3974 
 4707000   0.49275782   -9.5692781     458.9158 0.0081247043 0.0060158439         3978 
 4708000   0.50065088   -9.5751991     458.7504  0.008120051 0.0060135049         3959 
 4709000   0.50434117   -9.5808597    459.08196 0.0081241941 0.0060111649         3964 
 4710000   0.49844212   -9.5674555    458.36864 0.0081098486  0.006008827         3967 
 4711000   0.49327963   -9.5688741    458.63252 0.0081127949 0.0060064897         3967 
 4712000   0.50150488   -9.5898254    459.37039 0.0081241226 0.0060041537         3964 
 4713000    0.4993285   -9.5777388    458.67533 0.0081101092   0.00600182         3965 
 4714000   0.49053018   -9.5611659    458.33575 0.0081023856 0.0059994873         3970 
 4715000   0.50029523   -9.5723045    458.11258 0.0080967228  0.005997156         3979 
 4716000   0.49182233   -9.5755267    458.85213 0.0081080741  0.005994826         3973 
 4717000   0.49873502   -9.5691416     458.4361 0.0080990054 0.0059924981         3972 
 4718000   0.49362544   -9.5690708    458.71474 0.0081022104 0.0059901703         3969 
 4719000   0.50128995   -9.5678338    458.29563 0.0080930923 0.0059878438         3968 
 4720000   0.48948793   -9.5671359    458.89573 0.0081019727 0.0059855185         3963 
 4721000   0.50148369   -9.5765795     458.4184 0.0080918308  0.005983194         3976 
 4722000   0.50862175   -9.5684194     458.4144 0.0080900465 0.0059808725         3966 
 4723000   0.49291675   -9.5732876    458.73862 0.0080940542  0.005978551         3962 
 4724000   0.48870641   -9.5770323    458.44379 0.0080871399 0.0059762316         3971 
 4725000   0.48931986   -9.5794114    458.59794  0.008088147 0.0059739123         3969 
 4726000   0.49675326   -9.5703301    458.20656 0.0080795345 0.0059715947         3967 
 4727000   0.48539619   -9.5843368    458.06568 0.0080753417 0.0059692783         3967 
 4728000   0.49600888   -9.5798484    459.13047 0.0080924012 0.0059669631         3964 
 4729000   0.49405941   -9.5779884    458.25823 0.0080753195 0.0059646496         3971 
 4730000   0.48654937   -9.5817551    458.55874 0.0080789066 0.0059623364         3972 
 4731000   0.48709011   -9.5629075    458.94537 0.0080840092 0.0059600244         3973 
 4732000   0.49905325   -9.5675875    458.09666 0.0080673546 0.0059577135         3974 
 4733000   0.50813638   -9.5663257    458.52614 0.0080732118 0.0059554029         3970 
 4734000   0.49775521   -9.5700051    458.62574 0.0080732597 0.0059530956         3967 
 4735000   0.48541875   -9.5601257    458.28775 0.0080656064  0.005950788         3973 
 4736000    0.4985541   -9.5731727    459.09719 0.0080781459 0.0059484815         3971 
 4737000   0.49212863   -9.5826297    458.28204 0.0080621005 0.0059461765         3968 
 4738000   0.49345955   -9.5719057    457.85583 0.0080529026 0.0059438722         3967 
 4739000   0.49893944   -9.5501411    459.11496 0.0080733446 0.0059415716         3972 
 4740000   0.48298434   -9.5674948    458.79467 0.0080660103 0.0059392716         3968 
 4741000   0.49625903   -9.5766973    458.70534 0.0080627389 0.0059369716         3973 
 4742000   0.50096003   -9.5766379    459.00496 0.0080663039 0.0059346734         3974 
 4743000   0.49255088   -9.5679099    457.99189 0.0080468039 0.0059323751         3972 
 4744000   0.49942232   -9.5741968    458.62825  0.008056286 0.0059300786         3968 
 4745000   0.48404467   -9.5610634    458.85623  0.008058592 0.0059277837         3970 
 4746000   0.49139608   -9.5732912    458.12418 0.0080440403 0.0059254894         3967 
 4747000   0.49612444   -9.5780319    458.56759 0.0080501298 0.0059231969         3973 
 4748000   0.50316872   -9.5847584    458.93668 0.0080549123 0.0059209062         3971 
 4749000   0.49343644   -9.5855555    458.19935 0.0080402778 0.0059186162         3969 
 4750000   0.48422022   -9.5743086    457.57056 0.0080275537 0.0059163278         3971 
 4751000   0.49715783    -9.584547    458.51619 0.0080424505  0.005914042         3964 
 4752000   0.48893127   -9.5621192    458.24273 0.0080359626 0.0059117559         3962 
 4753000   0.49566845   -9.5742721    458.31237 0.0080354929 0.0059094716         3969 
 4754000   0.50129316   -9.5672124    458.60401 0.0080389147  0.005907188         3970 
 4755000   0.49950886   -9.5732292    458.70284 0.0080389563 0.0059049072         3957 
 4756000   0.48514675   -9.5991552     457.8863 0.0080229587 0.0059026254         3972 
 4757000   0.49463043   -9.5854975    458.38472 0.0080300036 0.0059003438         3971 
 4758000   0.49919902   -9.5931619      458.385 0.0080283207 0.0058980669         3973 
 4759000   0.48974987   -9.5781297    458.27362 0.0080246834 0.0058957897         3970 
 4760000   0.49353667   -9.5826994    458.55847 0.0080279844 0.0058935118         3967 
 4761000   0.49691273    -9.582623    458.38848 0.0080233228 0.0058912364         3970 
 4762000   0.48818691   -9.5686864    458.54697 0.0080244115 0.0058889615         3967 
 4763000    0.4843578   -9.5711501     458.6789  0.008025035 0.0058866894         3965 
 4764000   0.48704179   -9.5745617    457.94575 0.0080105261 0.0058844161         3975 
 4765000   0.49523954   -9.5956703    458.69413  0.008021933 0.0058821471         3968 
 4766000   0.48753916   -9.5675766    457.91238 0.0080065811 0.0058798778         3961 
 4767000   0.49280909   -9.5819702     458.4538  0.008014366 0.0058776085         3966 
 4768000   0.50056583   -9.5820836     458.9904 0.0080220637 0.0058753416         3978 
 4769000   0.48387894    -9.581249    458.82853 0.0080175532 0.0058730762         3970 
 4770000   0.48494563   -9.5883502    458.08077 0.0080028087 0.0058708122         3971 
 4771000   0.49207464   -9.5769596    458.32373  0.008005375 0.0058685481         3976 
 4772000   0.48239944   -9.5725605    458.89347 0.0080136469 0.0058662868         3972 
 4773000    0.4825259   -9.5974752    458.07845 0.0079977381 0.0058640245         3972 
 4774000   0.48718105   -9.5784885    457.66814 0.0079889006 0.0058617629         3976 
 4775000   0.48396488   -9.5731805    458.65475 0.0080044458 0.0058595059         3977 
 4776000   0.48502531   -9.5969443    458.06041 0.0079923997 0.0058572485         3979 
 4777000   0.48761133   -9.5781817    458.62071 0.0080005008 0.0058549924         3969 
 4778000   0.49606638   -9.5740637    457.69712 0.0079827181 0.0058527371         3958 
 4779000   0.46876351   -9.5809707    458.55361 0.0079959826 0.0058504838         3970 
 4780000    0.4796133    -9.595837    458.41914 0.0079919656 0.0058482314         3976 
 4781000   0.48937469   -9.5798973     457.6986 0.0079777348 0.0058459778         3966 
 4782000   0.49975816   -9.5862389    458.96026 0.0079980528 0.0058437275         3970 
 4783000   0.48202734   -9.5902407    457.84095  0.007976879 0.0058414792         3971 
 4784000   0.49341585   -9.5815804    458.18101 0.0079811351 0.0058392313         3973 
 4785000   0.49337664   -9.5855841    458.58138   0.00798644 0.0058369843         3968 
 4786000    0.4853147   -9.5929083    458.03609 0.0079752767 0.0058347391         3971 
 4787000   0.48450888   -9.5837872    458.40643 0.0079800576 0.0058324942         3972 
 4788000   0.48446831   -9.5906291    458.97174 0.0079882299 0.0058302491         3972 
 4789000   0.47842445   -9.5845871    458.12778 0.0079718763 0.0058280067         3972 
 4790000   0.48512807   -9.5960407    458.15788 0.0079707356 0.0058257641         3975 
 4791000   0.48652856   -9.5824741    458.16991  0.007969281 0.0058235217         3965 
 4792000   0.49449215   -9.5897226    458.31976  0.007970224  0.005821282         3977 
 4793000   0.49320365   -9.5795213     458.9793 0.0079800282 0.0058190444         3966 
 4794000   0.48732967   -9.5836511    458.46268 0.0079693833 0.0058168076         3971 
 4795000   0.48689628   -9.5796865    458.32062 0.0079652523 0.0058145716         3961 
 4796000    0.4840823   -9.5888562    458.56559 0.0079678481 0.0058123369         3961 
 4797000   0.48919471   -9.5865204    457.76659 0.0079523069 0.0058101038         3968 
 4798000   0.48654379   -9.5825526     458.1111 0.0079566329 0.0058078718         3963 
 4799000   0.47689348   -9.5879466    457.80471 0.0079496546 0.0058056406         3970 
 4800000   0.48766747   -9.5844155    458.10234 0.0079531657 0.0058034096         3973 
 4801000   0.47064554   -9.6038712    458.43404 0.0079572665 0.0058011803         3974 
 4802000    0.4860246   -9.5919004    457.94498 0.0079471224 0.0057989542         3972 
 4803000   0.48937247   -9.5859547    458.02697 0.0079468903 0.0057967285         3970 
 4804000    0.4817199   -9.5966522    457.79057 0.0079411353 0.0057945039         3966 
 4805000   0.47914583   -9.5896109    458.27199 0.0079478319 0.0057922802         3978 
 4806000   0.48524788   -9.5880993    457.70973  0.007936429 0.0057900579         3969 
 4807000   0.49094017   -9.5889989    458.83643 0.0079543102 0.0057878366         3969 
 4808000   0.48164003   -9.5970284    457.81595 0.0079349687 0.0057856155         3974 
 4809000   0.47779428   -9.5883746    458.46011 0.0079444809 0.0057833955         3970 
 4810000   0.46630626   -9.5903302     458.0752 0.0079361607 0.0057811769         3973 
 4811000   0.48502592   -9.5923646    458.07061 0.0079344317 0.0057789594         3963 
 4812000   0.48115142   -9.5931005    458.51489 0.0079404767 0.0057767422         3974 
 4813000   0.48560731   -9.5914935    457.29657 0.0079177327 0.0057745278         3970 
 4814000   0.47851946   -9.5842901    458.19465 0.0079316342 0.0057723143         3968 
 4815000   0.48117509   -9.5883938    458.11879 0.0079286741 0.0057701037         3977 
 4816000   0.48480183   -9.5760375     458.8721 0.0079400626 0.0057678939         3964 
 4817000   0.47228425   -9.6089653    457.76564 0.0079192727 0.0057656841         3970 
 4818000   0.48262822   -9.5957374    458.61403 0.0079323031 0.0057634745         3962 
 4819000   0.48475198   -9.5863903    458.40201 0.0079269906 0.0057612658         3975 
 4820000   0.47220624   -9.5923928    458.43164 0.0079258583 0.0057590597         3971 
 4821000    0.4710998   -9.5957858    457.91957 0.0079153627 0.0057568536         3978 
 4822000   0.47467326   -9.5855733    458.64449 0.0079262494 0.0057546498         3974 
 4823000   0.48159887   -9.5936466    458.03193 0.0079140219 0.0057524458         3976 
 4824000   0.47735486    -9.596551    457.87347  0.007909644 0.0057502444         3968 
 4825000   0.47225677   -9.5846132    458.81264 0.0079242252 0.0057480437         3979 
 4826000   0.47182533    -9.591913    458.25076  0.007912881 0.0057458441         3969 
 4827000   0.48581416   -9.6073957    457.67708 0.0079013376 0.0057436457         3974 
 4828000   0.47502763   -9.6059196    457.64053 0.0078990701 0.0057414486         3973 
 4829000    0.4735843   -9.5966511    457.43875 0.0078939524 0.0057392531         3975 
 4830000   0.47337053   -9.5977962    457.88659 0.0079000446 0.0057370578         3962 
 4831000   0.47691727   -9.6076567     458.4649 0.0079083851 0.0057348639         3960 
 4832000   0.48200901   -9.6040063    457.79122 0.0078951301 0.0057326718         3974 
 4833000   0.46620996   -9.6011504    457.62857  0.007890692 0.0057304797         3979 
 4834000   0.48529463   -9.6034344    457.23394 0.0078822566 0.0057282902         3972 
 4835000   0.47469146   -9.6025276    457.60605 0.0078870397 0.0057261015         3971 
 4836000   0.47054233   -9.5918039     457.7041 0.0078870984 0.0057239131         3970 
 4837000    0.4787839   -9.6003585    457.68203 0.0078850877 0.0057217252         3973 
 4838000   0.46577967   -9.5805637    458.12072 0.0078910142 0.0057195396         3970 
 4839000   0.46391098   -9.5880061     458.0879 0.0078888183 0.0057173556         3972 
 4840000   0.47290126   -9.6114929    457.48846 0.0078768675 0.0057151713         3973 
 4841000   0.48261891   -9.6123526    458.07218 0.0078852884 0.0057129883         3967 
 4842000   0.47996946   -9.6139069    457.27605 0.0078699582 0.0057108059         3968 
 4843000   0.48421148   -9.5968002    457.62808 0.0078743905 0.0057086252         3974 
 4844000   0.47230768    -9.610748    458.09472 0.0078807928 0.0057064476         3974 
 4845000   0.47567846   -9.6161667    457.04391 0.0078610924 0.0057042688         3973 
 4846000   0.47607494   -9.6042888    457.42628 0.0078660455 0.0057020915         3970 
 4847000   0.46924779   -9.6065017    457.87806   0.00787219 0.0056999145         3972 
 4848000   0.47715409   -9.6022304    457.70647 0.0078676168 0.0056977382         3979 
 4849000   0.48935357   -9.6178674    457.95401 0.0078702484 0.0056955641         3964 
 4850000   0.45903989   -9.6152272    458.28676  0.007874343 0.0056933913         3969 
 4851000   0.47446675    -9.609987    457.93966  0.007866757  0.005691219         3972 
 4852000   0.47230768   -9.6027336    457.59796 0.0078592669 0.0056890481         3972 
 4853000   0.46823603   -9.6115113     458.1724 0.0078675114 0.0056868784         3965 
 4854000   0.48153669   -9.6072285    457.98131 0.0078626101 0.0056847108         3967 
 4855000   0.48018968   -9.6021302    457.57597 0.0078540332 0.0056825444         3969 
 4856000   0.48451771   -9.6063664    457.80822 0.0078564014 0.0056803769         3974 
 4857000   0.47578054   -9.6113006    457.82925 0.0078551446 0.0056782124         3970 
 4858000    0.4624545   -9.6109398    457.62387 0.0078500045 0.0056760487         3977 
 4859000   0.47732885   -9.6103765    457.51233 0.0078464762 0.0056738863         3970 
 4860000    0.4759796   -9.6000123    457.81355 0.0078500266 0.0056717245         3962 
 4861000   0.46758543   -9.6007232    458.51759 0.0078604812 0.0056695648         3972 
 4862000   0.47114602    -9.608887    457.63111 0.0078436704 0.0056674051         3968 
 4863000   0.47444123   -9.6137149    457.43622 0.0078387178 0.0056652473         3961 
 4864000   0.47730249   -9.6106936    458.00139 0.0078467892 0.0056630909         3978 
 4865000   0.48162511   -9.5986074    458.05185 0.0078460406 0.0056609366         3969 
 4866000   0.47541072   -9.5887649    457.70299 0.0078384538 0.0056587834         3968 
 4867000   0.46493087   -9.6029265    458.03558 0.0078425379   0.00565663         3979 
 4868000   0.46719399   -9.6234852    457.74554 0.0078359617 0.0056544771         3971 
 4869000   0.45907705   -9.6092279    457.92868 0.0078374868 0.0056523247         3967 
 4870000   0.48815143   -9.6122828    458.22423 0.0078409347 0.0056501767         3974 
 4871000   0.47520207   -9.6022154    458.12642 0.0078376517 0.0056480289         3969 
 4872000   0.47223501   -9.5972071    458.15772 0.0078365784 0.0056458813         3973 
 4873000   0.47611876   -9.6171037    457.87054 0.0078300591 0.0056437357         3971 
 4874000   0.47308237   -9.6092102    457.58339 0.0078235431 0.0056415899         3972 
 4875000   0.45797501   -9.6021564    457.95769 0.0078283366 0.0056394453         3972 
 4876000   0.46913612   -9.6106091     457.4519 0.0078180869  0.005637301         3974 
 4877000   0.47330583   -9.6195442    457.00363 0.0078088243 0.0056351587         3974 
 4878000   0.47138426   -9.6003654    457.54319 0.0078164411 0.0056330168         3968 
 4879000   0.47156371   -9.6113451    458.09655 0.0078242904  0.005630878         3972 
 4880000   0.47132614   -9.6116943    457.75152 0.0078167951 0.0056287403         3976 
 4881000   0.46834591   -9.6077225    457.12935 0.0078045713 0.0056266005         3960 
 4882000   0.46454575   -9.6066343    458.08742 0.0078193264 0.0056244635         3978 
 4883000   0.47616049   -9.5982679    457.75437 0.0078120412 0.0056223278         3972 
 4884000   0.47016741   -9.5897976    457.61942 0.0078081392 0.0056201931         3967 
 4885000   0.47131089   -9.6204649    457.97226   0.00781256 0.0056180593         3978 
 4886000   0.46889207   -9.6076662     458.2004 0.0078148519 0.0056159263         3973 
 4887000   0.46359809    -9.603634    458.28492  0.007814694 0.0056137952         3966 
 4888000   0.46088601   -9.5996992    458.19672 0.0078115917 0.0056116657         3967 
 4889000   0.47684029   -9.5991294    457.33435 0.0077952946 0.0056095355         3970 
 4890000   0.47202527   -9.6019672    457.49178 0.0077963834 0.0056074071         3972 
 4891000   0.46852947   -9.6008765     458.0601 0.0078044725 0.0056052812         3969 
 4892000   0.47686027   -9.6298798      457.631 0.0077955675 0.0056031562         3969 
 4893000   0.47340836   -9.6034586     457.5121 0.0077919495 0.0056010304         3974 
 4894000   0.46956518   -9.6159958    457.86499 0.0077963661 0.0055989081         3968 
 4895000   0.47014488    -9.622291    457.65998 0.0077912833  0.005596785         3969 
 4896000   0.47408234   -9.5951154    457.95393 0.0077946952 0.0055946635         3974 
 4897000   0.46840071   -9.6000906    457.16464  0.007779672 0.0055925426         3971 
 4898000   0.46948679   -9.6030162    457.59959 0.0077854838 0.0055904227         3972 
 4899000   0.45893593   -9.6253335    457.51908 0.0077825251 0.0055883036         3975 
 4900000   0.47269536   -9.5961945    457.76814 0.0077851725 0.0055861872         3977 
 4901000   0.47702438    -9.609956    458.36591  0.007793748 0.0055840722         3972 
 4902000   0.47049883   -9.6078203    457.78377 0.0077822618 0.0055819571         3972 
 4903000   0.46923479   -9.6208063    457.84563  0.007781726 0.0055798436         3973 
 4904000   0.47507557   -9.6124036    457.51884 0.0077745861 0.0055777311         3972 
 4905000   0.47041206   -9.6181583    457.28742 0.0077690694  0.005575619         3972 
 4906000   0.47832653   -9.6210002    457.85735 0.0077771665 0.0055735082         3976 
 4907000   0.46337158   -9.6209162    457.44923 0.0077686507 0.0055713987         3968 
 4908000   0.45894768   -9.6243503    457.02449 0.0077598563 0.0055692893         3975 
 4909000   0.46672355   -9.6176519      457.916 0.0077734093 0.0055671818         3971 
 4910000   0.46159669   -9.6223619     457.7771 0.0077694688 0.0055650759         3972 
 4911000   0.45990735   -9.6160201    457.09747 0.0077563543 0.0055629694         3972 
 4912000   0.46630689    -9.608445    458.09766 0.0077717436 0.0055608641         3970 
 4913000   0.46578013   -9.6065126    457.86425 0.0077662028 0.0055587613         3964 
 4914000   0.46515713   -9.6215378    458.13872 0.0077692768 0.0055566573         3970 
 4915000   0.46853011   -9.6256179    457.02165 0.0077487564 0.0055545561         3975 
 4916000   0.46912552   -9.6298669    456.17308 0.0077327956 0.0055524553         3969 
 4917000   0.47692993   -9.6200812    457.30933 0.0077504801  0.005550356         3959 
 4918000   0.46394036   -9.6194767    457.81797 0.0077575228 0.0055482577         3970 
 4919000   0.46039502   -9.6190316    457.74729 0.0077547485 0.0055461623         3970 
 4920000   0.46263464   -9.6218831    457.57686 0.0077502855 0.0055440677         3976 
 4921000   0.45476818   -9.6150215    457.67162 0.0077503154  0.005541975         3969 
 4922000   0.47046507   -9.6280198    458.26668 0.0077588156 0.0055398815         3972 
 4923000   0.45533162   -9.6153075     457.7242 0.0077480567 0.0055377899         3970 
 4924000   0.47210832   -9.6175308    457.68965 0.0077458985 0.0055356977         3971 
 4925000   0.46814375   -9.6232141    457.51292 0.0077413353 0.0055336066         3972 
 4926000   0.47317609   -9.6322039    457.48954 0.0077393684  0.005531517         3971 
 4927000   0.46232044   -9.6225072    457.31582 0.0077348593 0.0055294275         3969 
 4928000   0.46555582   -9.6266172    458.22956 0.0077487412 0.0055273391         3975 
 4929000   0.45949645   -9.6254548     457.9301 0.0077421063 0.0055252533         3969 
 4930000   0.46319175   -9.6210151     456.7163 0.0077200186 0.0055231676         3972 
 4931000   0.46126236   -9.6271444    457.96613  0.007739575 0.0055210848         3973 
 4932000   0.46186534   -9.6018897    457.40767 0.0077285698 0.0055190031         3978 
 4933000    0.4642941   -9.6144635    456.36094 0.0077093206 0.0055169224         3965 
 4934000   0.45669447   -9.6209781    457.09348 0.0077201303 0.0055148407         3967 
 4935000    0.4658943   -9.6218823    457.46024 0.0077247593  0.005512761         3970 
 4936000   0.46116485   -9.6314423    457.44507 0.0077229381 0.0055106819         3966 
 4937000   0.45614402   -9.6165631    457.16781 0.0077166939 0.0055086055         3972 
 4938000   0.45486857   -9.6185438     457.6716  0.007723633 0.0055065288         3965 
 4939000   0.46599589   -9.6274038    457.24795 0.0077149213 0.0055044531         3969 
 4940000   0.47373491    -9.638686    457.16417 0.0077119463 0.0055023795         3974 
 4941000   0.46540446   -9.6149197    457.37698 0.0077139745  0.005500307         3974 
 4942000   0.45101229   -9.6214287    457.70536 0.0077179508 0.0054982349         3977 
 4943000   0.44762507   -9.6313238    457.01227 0.0077047048 0.0054961627         3966 
 4944000   0.45299549   -9.6271217    457.66484 0.0077141458 0.0054940921         3968 
 4945000   0.45484657    -9.635058    457.24444 0.0077055012 0.0054920235         3974 
 4946000     0.460432   -9.6228744    457.54935 0.0077090806 0.0054899555         3969 
 4947000   0.45740349   -9.6253309    457.50025 0.0077066951 0.0054878881         3972 
 4948000   0.46414034   -9.6240043    457.79187 0.0077100489 0.0054858232         3973 
 4949000   0.45957773   -9.6277619    457.74333 0.0077076738 0.0054837585         3960 
 4950000   0.45301208   -9.6223652    457.31208 0.0076988565 0.0054816948         3971 
 4951000   0.46849191   -9.6439104    457.18544   0.00769517 0.0054796319         3978 
 4952000   0.45514445   -9.6247624     457.4809 0.0076985881 0.0054775684         3973 
 4953000   0.45824176   -9.6280115    457.48959   0.00769718 0.0054755084         3970 
 4954000   0.45530501   -9.6218252    457.36634 0.0076935531 0.0054734488         3973 
 4955000   0.46684566   -9.6206562    457.48526 0.0076940004 0.0054713899         3969 
 4956000   0.46321854   -9.6281496    457.17866 0.0076872925 0.0054693324         3974 
 4957000   0.45600081   -9.6273651    457.74483 0.0076952598 0.0054672745         3963 
 4958000   0.46202757   -9.6300082    457.41447  0.007688155 0.0054652188         3968 
 4959000   0.46258744   -9.6242595    457.74295 0.0076921246 0.0054631651         3968 
 4960000   0.45764857   -9.6098149    457.13528 0.0076803642 0.0054611119         3971 
 4961000   0.45909185   -9.6241901    457.52341 0.0076853357 0.0054590584         3969 
 4962000   0.46054562   -9.6245872    457.69715 0.0076867048 0.0054570088         3967 
 4963000   0.46187382   -9.6192577    457.64174 0.0076842255  0.005454958         3970 
 4964000   0.46574508    -9.635558    457.09779 0.0076735461 0.0054529099         3966 
 4965000   0.46675461   -9.6188924    456.58125 0.0076633308 0.0054508618         3967 
 4966000   0.45238858   -9.6136876    457.79869 0.0076822172 0.0054488151         3970 
 4967000   0.46553936   -9.6362443    458.34297 0.0076898022 0.0054467688         3972 
 4968000   0.45085258   -9.6169658    457.54678 0.0076748991 0.0054447242         3971 
 4969000   0.45533132   -9.6171032    457.01074 0.0076643648 0.0054426784         3970 
 4970000   0.46218608   -9.6470776    457.26291 0.0076670508 0.0054406336         3969 
 4971000   0.45365743   -9.6373886    456.79305 0.0076576318 0.0054385916         3966 
 4972000   0.46024976    -9.635988    457.66544 0.0076707132 0.0054365493         3975 
 4973000   0.46326904   -9.6162073    456.99631 0.0076579581 0.0054345103         3961 
 4974000   0.45719041   -9.6378494    457.45603 0.0076641206   0.00543247         3970 
 4975000   0.46542679   -9.6175981    457.52512 0.0076637374  0.005430433         3969 
 4976000   0.46075674   -9.6338645    457.83698 0.0076674199 0.0054283972         3971 
 4977000   0.45376694   -9.6399181    456.72893 0.0076473266 0.0054263613         3965 
 4978000   0.45162641   -9.6417903    457.42669 0.0076574711 0.0054243269         3970 
 4979000   0.45745851   -9.6222956     457.0711 0.0076499817 0.0054222926         3969 
 4980000   0.45944089    -9.630066    457.39503  0.007653866 0.0054202611         3963 
 4981000   0.46787877   -9.6355286    457.07658 0.0076470017  0.005418229         3971 
 4982000   0.45443358   -9.6361238    457.41347 0.0076511019 0.0054161974         3975 
 4983000   0.45414302   -9.6302165    457.19237 0.0076458687 0.0054141675         3972 
 4984000   0.46156779   -9.6226852    457.15456 0.0076437025 0.0054121395         3967 
 4985000   0.45095553   -9.6305006    457.52119 0.0076482981 0.0054101137         3975 
 4986000   0.44816669   -9.6191908    457.70046 0.0076497603 0.0054080874         3966 
 4987000   0.45979074   -9.6165571    457.76225  0.007649259 0.0054060625         3973 
 4988000   0.45280404   -9.6441978    456.97232 0.0076345283 0.0054040381         3975 
 4989000   0.44817032   -9.6241517    457.06513 0.0076345482  0.005402016         3966 
 4990000   0.43830475   -9.6196302    456.95616 0.0076311984 0.0053999949         3980 
 4991000   0.44764799   -9.6365837    457.41386 0.0076373114  0.005397975         3975 
 4992000   0.45849577    -9.640884    457.28571 0.0076336424 0.0053959555         3972 
 4993000   0.46468002    -9.613469    456.85543 0.0076249321 0.0053939377         3973 
 4994000   0.46371562   -9.6351925     456.7101 0.0076209802 0.0053919205         3971 
 4995000   0.44821485   -9.6426542    457.21602 0.0076278949 0.0053899025         3968 
 4996000   0.44556396   -9.6269892    457.40601 0.0076295371 0.0053878852         3975 
 4997000   0.45314746   -9.6377018    456.33356 0.0076101254 0.0053858701         3975 
 4998000   0.44988197   -9.6380929    457.12413 0.0076217842 0.0053838558         3971 
 4999000   0.45157906   -9.6376464    457.33936 0.0076238474 0.0053818423         3973 
 5000000   0.44481506   -9.6266904    457.27602 0.0076212671 0.0053798301         3976 
 5001000   0.46262312   -9.6339222    457.08479 0.0076165565 0.0053778182         3967 
 5002000   0.44629173   -9.6327993    457.65319 0.0076245034 0.0053758078         3971 
 5003000   0.45253514   -9.6446311    457.09831 0.0076137369 0.0053738007         3975 
 5004000   0.44367549    -9.645524    457.25583 0.0076148386 0.0053717927         3968 
 5005000   0.45243948   -9.6375633    457.01267 0.0076092686 0.0053697866         3967 
 5006000   0.45445651   -9.6433326    457.34788 0.0076133287 0.0053677809         3972 
 5007000    0.4507747   -9.6374795    456.92163 0.0076047139 0.0053657761         3973 
 5008000   0.44243738   -9.6359036    456.92131   0.00760319 0.0053637725         3974 
 5009000   0.44955897   -9.6319768    456.87104 0.0076008358 0.0053617707         3976 
 5010000   0.46135486   -9.6388714     456.9911 0.0076013157 0.0053597681         3969 
 5011000   0.44658473   -9.6362106     456.9871 0.0075997322 0.0053577675         3970 
 5012000   0.44251182   -9.6254952    457.11014 0.0076002617  0.005355769         3974 
Loop time of 13483.4 on 48 procs for 5000000 steps with 4000 atoms

Performance: 64078.574 tau/day, 370.825 timesteps/s
99.4% CPU use with 48 MPI tasks x no OpenMP threads

MPI task timing breakdown:
Section |  min time  |  avg time  |  max time  |%varavg| %total
---------------------------------------------------------------
Pair    | 993.43     | 1107.9     | 1307.1     | 219.1 |  8.22
Neigh   | 94.244     | 98.613     | 106.68     |  26.9 |  0.73
Comm    | 769.63     | 997.66     | 1115.2     | 248.8 |  7.40
Output  | 18.273     | 18.279     | 18.393     |   0.4 |  0.14
Modify  | 11080      | 11131      | 11198      |  28.6 | 82.56
Other   |            | 129.6      |            |       |  0.96

Nlocal:        83.3333 ave          92 max          74 min
Histogram: 1 4 5 6 5 8 9 4 2 4
Nghost:        2450.56 ave        2467 max        2430 min
Histogram: 1 0 1 7 8 14 9 3 3 2
Neighs:        17007.5 ave       21419 max       14670 min
Histogram: 4 8 14 8 2 6 3 0 1 2
FullNghs:      34015.9 ave       38177 max       30348 min
Histogram: 3 3 6 8 7 9 5 2 2 3

Total # of neighbors = 1632761
Ave neighs/atom = 408.19025
Neighbor list builds = 265943
Dangerous builds = 0

#clear
#
#next RN
#
#jump SELF
Total wall time: 3:44:47
