
units lj                  # Use reduced LJ style units
atom_style atomic         # Uncharged point particles
atom_modify map hash      # Needed for indexing of clusters etc
                          # Used to be able to find where atoms are in relation to each other.

lattice fcc 1.0 spacing 1 1 1
Lattice spacing in x,y,z = 1.5874011 1.5874011 1.5874011
region box block 0 10 0 10 0 10 units lattice
create_box 2 box
Created orthogonal box = (0.0000000 0.0000000 0.0000000) to (15.874011 15.874011 15.874011)
  3 by 4 by 4 MPI processor grid
create_atoms 1 box
Created 4000 atoms
  using lattice units in orthogonal box = (0.0000000 0.0000000 0.0000000) to (15.874011 15.874011 15.874011)
  create_atoms CPU = 0.002 seconds
set type 1 type/fraction 2 0.76 78393
Setting atom values ...
  3028 settings made for type/fraction
mass 1 1.0
mass 2 1.0
pair_style lj/cut  3.5
pair_modify tail  yes
pair_coeff 1  1  1.0  1.0   # Intearaction between 1 and 1 set with epsilon = 1 and sigma = 1
pair_coeff 1  2  1.5  0.8
pair_coeff 2  2  0.5  0.88

write_data data.0
System init for write_data ...
Neighbor list info ...
  update every 1 steps, delay 10 steps, check yes
  max neighbors/atom: 2000, page size: 100000
  master list distance cutoff = 3.8
  ghost atom cutoff = 3.8
  binsize = 1.9, bins = 9 9 9
  1 neighbor lists, perpetual/occasional/extra = 1 0 0
  (1) pair lj/cut, perpetual
      attributes: half, newton on
      pair build: half/bin/atomonly/newton
      stencil: half/bin/3d
      bin: standard
WARNING: Not all mixed pair coeffs generated from mixing. Use write_data with 'pair ij' option to store all pair coeffs. (../write_data.cpp:312)


#############################
#   M E L T   S Y S T E M   #
#############################

velocity all create 2.4 5833274 mom yes dist gaussian # Assign velocities
                                                    # Temperature 2.4, random number seed, zero linear momentum
                                                                                # Gaussian distribution

timestep 0.002   # simulation timestep
thermo 1000       # output thermodynamic data every 1000 steps bf 100

# Define a fix  in this case with index 1 applied to all
# particles in the simulation. This fix is for simulations
# in the anisotropic NPT ensemble. Note that we use the MTK
# correction.
fix 1 all npt temp 2.4 2.4 0.1 iso 5.68 5.68 0.5 mtk yes tchain 5 pchain 5 # Use NPT ensemble
                                                                         # Set temperature and pressure and damping
                                                                         # Numbers of thermostats in chain and in barostat
run 10000          # run for 10000 steps
Per MPI rank memory allocation (min/avg/max) = 3.642 | 3.644 | 3.648 Mbytes
Step Temp E_pair E_mol TotEng Press Volume 
       0          2.4   -3.9031684            0  -0.30406845   -3.4881309         4000 
    1000    2.3691888   -3.3642838            0   0.18861095    5.6627361    3739.9223 
    2000    2.4078208   -3.3535466            0   0.25728162    5.7974618    3725.9826 
    3000    2.4143621   -3.4057252            0   0.21491258    5.8852869    3687.0507 
    4000    2.3869724   -3.4079247            0   0.17163879    5.7710827    3683.9274 
    5000    2.4363963    -3.410985            0   0.24269575    5.8981049    3683.6356 
    6000    2.4036555   -3.4038806            0   0.20070122    5.5378113     3734.958 
    7000    2.3776835   -3.3463307            0   0.21930287    5.6118004    3762.8172 
    8000    2.4001801   -3.3655827            0   0.23378738    5.6495245    3729.4909 
    9000    2.4217901   -3.4060857            0   0.22569133    5.7906561    3703.5173 
   10000    2.4129127   -3.3820561            0   0.23640809    5.5770611    3739.2072 
Loop time of 2.62119 on 48 procs for 10000 steps with 4000 atoms

Performance: 659241.800 tau/day, 3815.057 timesteps/s
99.6% CPU use with 48 MPI tasks x no OpenMP threads

MPI task timing breakdown:
Section |  min time  |  avg time  |  max time  |%varavg| %total
---------------------------------------------------------------
Pair    | 1.1513     | 1.2421     | 1.3283     |   2.9 | 47.39
Neigh   | 0.21555    | 0.22211    | 0.23053    |   0.8 |  8.47
Comm    | 0.75907    | 0.88412    | 0.97899    |   4.2 | 33.73
Output  | 0.00024863 | 0.00025398 | 0.00038893 |   0.0 |  0.01
Modify  | 0.23099    | 0.25713    | 0.29237    |   3.1 |  9.81
Other   |            | 0.01551    |            |       |  0.59

Nlocal:        83.3333 ave          94 max          74 min
Histogram: 1 2 6 6 12 6 10 1 1 3
Nghost:        1715.60 ave        1763 max        1688 min
Histogram: 3 4 13 9 9 6 1 2 0 1
Neighs:        10206.0 ave       11949 max        8664 min
Histogram: 1 3 3 8 16 6 7 0 2 2

Total # of neighbors = 489888
Ave neighs/atom = 122.47200
Neighbor list builds = 906
Dangerous builds = 215

# Equilibrate just above the melting temperature to avoid step fn in T

fix 1 all npt temp 1.25 1.25 0.1 iso 5.68 5.68 0.5 mtk yes tchain 5 pchain 5
run 2000
Per MPI rank memory allocation (min/avg/max) = 3.644 | 3.646 | 3.649 Mbytes
Step Temp E_pair E_mol TotEng Press Volume 
   10000    2.4129127   -3.3820561            0   0.23640809    5.5770611    3739.2072 
   11000    1.2443787   -4.9820321            0   -3.1159307    5.7665324    2848.4801 
   12000    1.2497878   -5.0233865            0   -3.1491735    5.5619162    2847.7214 
Loop time of 0.657755 on 48 procs for 2000 steps with 4000 atoms

Performance: 525423.421 tau/day, 3040.645 timesteps/s
99.6% CPU use with 48 MPI tasks x no OpenMP threads

MPI task timing breakdown:
Section |  min time  |  avg time  |  max time  |%varavg| %total
---------------------------------------------------------------
Pair    | 0.28308    | 0.32012    | 0.35582    |   3.2 | 48.67
Neigh   | 0.040096   | 0.043486   | 0.048448   |   1.0 |  6.61
Comm    | 0.20588    | 0.24539    | 0.28724    |   4.0 | 37.31
Output  | 5.2294e-05 | 5.4067e-05 | 6.9714e-05 |   0.0 |  0.01
Modify  | 0.041123   | 0.043822   | 0.046392   |   0.7 |  6.66
Other   |            | 0.00489    |            |       |  0.74

Nlocal:        83.3333 ave          94 max          75 min
Histogram: 3 2 3 11 14 7 4 3 0 1
Nghost:        2065.60 ave        2081 max        2049 min
Histogram: 1 3 3 8 5 12 7 2 4 3
Neighs:        13397.7 ave       15658 max       11490 min
Histogram: 1 4 3 10 10 11 5 2 1 1

Total # of neighbors = 643090
Ave neighs/atom = 160.77250
Neighbor list builds = 142
Dangerous builds = 11

#############################
# L I N E A R  Q U E N C H  #
#############################

# Define solid atoms. This closely follows ten Wolde  Ruiz-Montero and Frenkel  Faraday Discuss  1996  104  93-110
# Compute components of the per-atom q6 vector
compute q6 all orientorder/atom degrees 1 6 components 6 nnn NULL cutoff 1.3 # compute the Q6 parameter.
                                                                             # Use all neighbours within 1.3 unit cell.

# get number of connections
compute coord_number all coord/atom orientorder q6 0.5

# An atom is solid if it has 8 or more connections (of a possible 14)
variable is_solid atom c_coord_number>=8
group solid dynamic all var is_solid    # Must be dynamic to update
dynamic group solid defined

# do clustering
compute cluster solid cluster/atom 1.3 # Create a cluster where all atoms within are solid and max 1.3 units from another member

# define chunks one chunk per cluster
compute clus_chunks solid chunk/atom c_cluster nchunk every compress yes  # Says which atoms are in which chunk

# count the size of each chunk
compute size_chunks solid property/chunk clus_chunks count


# Find the maximum entry in the vector of chunk sizes
variable max_n equal max(c_size_chunks)


# Thermo style which includes this variable
# thermo_style custom step temp pe vol v_max_n

thermo ${N}  # Print the thermo information every 100 steps
thermo 1000  

# Reset the npt fix at a lower temperature (below freezing)
fix 1  all npt temp  ${temp} ${temp}  0.1  iso  5.68  5.68  0.5  mtk yes tchain  5  pchain  5
fix 1  all npt temp  0.45 ${temp}  0.1  iso  5.68  5.68  0.5  mtk yes tchain  5  pchain  5
fix 1  all npt temp  0.45 0.45  0.1  iso  5.68  5.68  0.5  mtk yes tchain  5  pchain  5

dump dmp2 all dcd ${N} traj.dcd
dump dmp2 all dcd 1000 traj.dcd


compute msd all msd com yes
variable twopoint equal c_msd[4]/6/(step*dt+1.0e-6)
fix 9 all vector 10 c_msd[4]
variable fit equal slope(f_9)/6/(10*dt)
thermo_style custom step temp pe c_msd[4] v_twopoint v_fit v_max_n

fix 1 all npt temp 1.25 ${temp} 0.1 iso 5.68 5.68 0.5 mtk yes tchain 5 pchain 5
fix 1 all npt temp 1.25 0.45 0.1 iso 5.68 5.68 0.5 mtk yes tchain 5 pchain 5
run 2000000 # 5000000  # Run for this many steps
Neighbor list info ...
  update every 1 steps, delay 10 steps, check yes
  max neighbors/atom: 2000, page size: 100000
  master list distance cutoff = 3.8
  ghost atom cutoff = 3.8
  binsize = 1.9, bins = 8 8 8
  4 neighbor lists, perpetual/occasional/extra = 1 3 0
  (1) pair lj/cut, perpetual
      attributes: half, newton on
      pair build: half/bin/atomonly/newton
      stencil: half/bin/3d
      bin: standard
  (2) compute orientorder/atom, occasional
      attributes: full, newton on
      pair build: full/bin/atomonly
      stencil: full/bin/3d
      bin: standard
  (3) compute coord/atom, occasional
      attributes: full, newton on
      pair build: full/bin/atomonly
      stencil: full/bin/3d
      bin: standard
  (4) compute cluster/atom, occasional
      attributes: full, newton on
      pair build: full/bin/atomonly
      stencil: full/bin/3d
      bin: standard
Per MPI rank memory allocation (min/avg/max) = 9.841 | 9.845 | 9.849 Mbytes
Step Temp PotEng c_msd[4] v_twopoint v_fit v_max_n 
   12000    1.2497878   -5.0233865 9.7720145e-31 6.7861209e-33 8.3333333e+20            3 
   13000    1.2648948   -4.9963142   0.74795097 0.0047945573  0.062832827            4 
   14000    1.2380026   -5.0417048    1.5522254 0.0092394366  0.065315072            2 
   15000    1.2568913   -5.0474794    2.3522862  0.013068256  0.066085632            2 
   16000    1.2413683   -5.0068787    3.0403664  0.015835241  0.065180621            3 
   17000    1.2671287   -5.0495155    3.7101897  0.018187204  0.063272213            1 
   18000    1.2265989   -5.0221644    4.4648992  0.020670829  0.062034736            1 
   19000    1.2503565   -5.0434664    5.1199386   0.02245587  0.061331081            1 
   20000    1.2392976   -5.0447805    5.7477999  0.023949166  0.060250078            2 
   21000    1.2391978   -5.0240708    6.4501397  0.025595792  0.059403922            3 
   22000    1.2523708   -4.9871055    7.0997636  0.026893043   0.05889513            5 
   23000    1.2529412   -5.0576361    7.7962307  0.028247212  0.058467455            2 
   24000    1.2445429   -5.0180476    8.5350969  0.029635752  0.058357016            3 
   25000    1.2398861   -5.0555837    9.2697482   0.03089916    0.0583925            3 
   26000    1.2603277   -5.0164661     9.831868  0.031512397  0.058173898            1 
   27000    1.2300585   -5.0369445    10.484232  0.032358739  0.057929827            2 
   28000    1.2528493   -4.9774725    11.160752  0.033216524  0.057661407            2 
   29000    1.2366005   -5.0462722     11.81889  0.033962326  0.057456003            1 
   30000    1.2396742   -5.0256587    12.453137  0.034592047  0.057273677            2 
   31000    1.2699436   -5.0012204    13.177592  0.035423634  0.057095567            2 
   32000    1.2372086   -5.0293345    13.975993  0.036395814  0.057024158            3 
   33000    1.2491515   -5.0257131    14.776607  0.037314662  0.057134526            2 
   34000     1.246198   -5.0426888    15.644545  0.038344473  0.057325334            5 
   35000    1.2533653   -5.0334818    16.380298  0.039000708  0.057582813            5 
   36000    1.2390002   -5.0697281    17.055359  0.039479997  0.057807165            2 
   37000    1.2337568   -5.0158314    17.700517  0.039866028  0.057957563            2 
   38000    1.2357299   -5.0422447    18.435784  0.040429351    0.0580263            4 
   39000    1.2419377   -5.0679431    19.045948  0.040696469  0.058070747            1 
   40000    1.2379302   -5.0454689    19.832743  0.041318215  0.058157592            2 
   41000    1.2641102   -5.0614132    20.515276  0.041697715  0.058259052            1 
   42000    1.2139435   -5.0856115    21.107523  0.041880005  0.058299012            4 
   43000    1.2363702   -5.0305548     22.01407  0.042662927  0.058342902            1 
   44000    1.2102377   -5.0638843    22.542465  0.042694063  0.058389211            2 
   45000    1.2446664   -5.0534743      23.1893  0.042943147  0.058403406            1 
   46000    1.2551163   -5.0688336    24.019287    0.0435132  0.058428213            3 
   47000    1.2525134   -5.1055666    24.600565  0.043618023  0.058461244            2 
   48000    1.2354144   -5.0205939    25.531271  0.044325123  0.058479683            1 
   49000    1.2599182   -5.0675823    26.261103   0.04466174  0.058533182            4 
   50000    1.2297602   -5.0331747    27.047944  0.045079907  0.058607059            2 
   51000    1.2281396    -5.030824    27.656744  0.045190758  0.058645711            1 
   52000    1.2432206   -5.0390111    28.039019  0.044934325  0.058632084            3 
   53000    1.2325555   -5.0729391    28.786853  0.045262347  0.058564417            3 
   54000    1.2656808   -5.0417615    29.474409  0.045485198  0.058515403            5 
   55000    1.2241593   -5.0202564    30.156619  0.045691847  0.058484175            6 
   56000    1.2369276   -5.0470594    30.821621  0.045865507  0.058454933            2 
   57000    1.2576972   -5.0849198    31.548525  0.046123573  0.058422214            2 
   58000    1.2471537   -5.0798502    31.947396   0.04590143  0.058369243            5 
   59000    1.2259257   -5.0238991    32.976734  0.046577307  0.058325038            2 
   60000    1.2252238    -5.077811    33.636999  0.046718054  0.058311535            1 
   61000    1.2196394   -5.0525182    34.297014  0.046853844  0.058301641            2 
   62000     1.240048   -4.9946394    35.029082  0.047082099  0.058270442            1 
   63000    1.2405338   -5.0841275    35.599552  0.047089354  0.058256042            2 
   64000    1.2462533   -5.0680033    36.631962  0.047697867  0.058263151            1 
   65000    1.2164009   -5.0349961    37.639331  0.048255552  0.058297042            2 
   66000    1.2242236   -5.0449349    38.137898  0.048153911  0.058330792            2 
   67000    1.2048475   -5.0841254    38.898908  0.048381725  0.058367529            5 
   68000    1.2034498   -5.0342631    39.646525  0.048586427  0.058404734            2 
   69000    1.2139431    -5.086512    40.461296  0.048866299   0.05845248            2 
   70000    1.2166579   -5.0694919    41.228144  0.049081123  0.058513458            2 
   71000      1.20339   -5.0390468    42.202837  0.049533846   0.05859912            1 
   72000    1.2231151   -5.0568988    43.103644  0.049888477  0.058704259            3 
   73000    1.2053052   -5.0651669    43.796272  0.049995744  0.058810016            4 
   74000    1.1980717   -5.0624866    44.477597  0.050087383  0.058900087            3 
   75000    1.2411785   -5.0216404     45.06913  0.050076811   0.05896211            3 
   76000    1.2064354   -5.0940751    45.325749  0.049699286  0.058996696            2 
   77000    1.2176396   -5.1021287     45.99254  0.049775476   0.05900517            2 
   78000    1.2130154   -5.0442758    46.952793   0.05016324  0.059017455            3 
   79000    1.2082678   -5.0982022    47.373333   0.04997187  0.059025229            4 
   80000    1.2259058   -5.0654258    48.336146  0.050350152  0.059037431            2 
   81000    1.2548105   -5.0771964    48.863602  0.050271196  0.059037775            4 
   82000    1.2122602    -5.098188    49.472722  0.050277156   0.05903552            3 
   83000      1.21454   -5.0826914     50.47007  0.050672761   0.05903732            5 
   84000    1.2439706   -5.0972629    51.055819  0.050650613  0.059056826            2 
   85000    1.2421942    -5.039607     52.22997  0.051205852   0.05908794            4 
   86000    1.2039234   -5.0893142    52.770975  0.051134665  0.059124055            2 
   87000    1.1844633   -5.0729665    53.941325  0.051667936  0.059167074            3 
   88000    1.2131632   -5.0794951    54.347515  0.051465449  0.059214255            3 
   89000    1.2257894   -5.0586886     55.29117  0.051770758  0.059267676            1 
   90000    1.2038555   -5.0788102    55.887607  0.051747784  0.059302005            2 
   91000    1.2211397   -5.0877118    56.249686  0.051510701  0.059313673            2 
   92000    1.2352795   -5.0926383    57.091416  0.051713238  0.059334647            1 
   93000    1.2217789   -5.0905185    57.587641  0.051601828  0.059346885            2 
   94000    1.2564883   -5.0927151    58.516292  0.051876145  0.059360419            2 
   95000    1.2461542   -5.0887411    59.615849  0.052294604  0.059386185            2 
   96000     1.261963    -5.094066    60.056909  0.052132734  0.059427433            2 
   97000    1.1898678   -5.0734565    61.078408  0.052472859   0.05945844            3 
   98000    1.1946837   -5.0834637    61.379127  0.052193135  0.059478465            2 
   99000    1.2138761   -5.0833316    62.132961  0.052300472   0.05948354            2 
  100000     1.219208   -5.1170964     62.61834  0.052181949  0.059485558            2 
  101000    1.2302684   -5.1141857    63.598908  0.052474346  0.059492103            2 
  102000    1.2288247    -5.045575    64.203368  0.052453732  0.059487722            3 
  103000    1.2389543   -5.0746874    64.885214  0.052496128  0.059497058            1 
  104000    1.2082252   -5.0734523    65.485245  0.052472151  0.059503252            4 
  105000    1.2141965   -5.0927327    66.386633  0.052687804  0.059513228            2 
  106000    1.2216112   -5.1088857    67.010665   0.05268134  0.059520969            8 
  107000    1.2176218   -5.0937709    68.179075  0.053098968  0.059535559            3 
  108000    1.2227277   -5.0661418    68.733605  0.053035189  0.059552679            2 
  109000    1.2070065   -5.0748989    69.674632  0.053268067  0.059561609            2 
  110000    1.1865395   -5.1053744    70.015547  0.053042081  0.059569971            5 
  111000    1.2106853   -5.0684474    70.700945  0.053078787  0.059577432            1 
  112000    1.2380434   -5.1195363      71.4026  0.053126934  0.059581346            2 
  113000    1.2034626   -5.0955172    72.125717  0.053190057  0.059582926            4 
  114000    1.2126153   -5.0955662    72.527272  0.053017011  0.059577413            3 
  115000    1.2286415    -5.073272    73.272344  0.053095901  0.059578263            4 
  116000    1.2069098   -5.0894983    73.757423  0.052986654  0.059573349            3 
  117000    1.1890494   -5.0967172    74.752676  0.053242647  0.059569655            1 
  118000    1.2183417   -5.1039715    75.253846  0.053145372  0.059560694            4 
  119000    1.2016627   -5.1698822    75.457846  0.052841628  0.059538586            2 
  120000     1.203376    -5.115405    75.944222  0.052739043  0.059501942            2 
  121000    1.2093325   -5.1164513    77.049735  0.053064555  0.059472051            4 
  122000    1.2334209   -5.1060436     78.03114  0.053299959  0.059448612            3 
  123000     1.182137   -5.0677649    78.153263  0.052949365  0.059423292            3 
  124000    1.2257442   -5.0608865    79.265663  0.053269934  0.059402866            2 
  125000     1.191767   -5.1007278    80.028522  0.053352348  0.059384893            2 
  126000    1.1811747   -5.0996809    80.399646  0.053174369  0.059359882            3 
  127000    1.1760071   -5.1140271    81.245994   0.05331102  0.059335176            3 
  128000    1.1957457   -5.0906505    81.818462  0.053267227  0.059312947            4 
  129000    1.2191969   -5.1171888    82.425485  0.053246437  0.059287566            2 
  130000    1.1708107   -5.1036497    83.296281  0.053395051  0.059264416            3 
  131000    1.1906595   -5.1040105    84.138562  0.053523258  0.059244618            2 
  132000    1.1997222   -5.1097525    84.476473  0.053331107  0.059217963            4 
  133000    1.1936367   -5.1093135    85.103506  0.053322999  0.059187671            2 
  134000    1.2259334   -5.1046255     85.97364  0.053466194  0.059163565            2 
  135000    1.2046724   -5.0982185     86.30917  0.053277265  0.059129334            3 
  136000    1.1995304    -5.077742    86.577276  0.053049802  0.059088456            2 
  137000    1.2137616   -5.1238801    86.884056  0.052849182  0.059040274            1 
  138000    1.2032546   -5.1071292    87.796444  0.053017176  0.058986212            2 
  139000    1.2004807   -5.1128003    88.358941  0.052972986   0.05893779            2 
  140000    1.1847545   -5.1400213    88.822382  0.052870465  0.058878641            3 
  141000    1.1959671   -5.1014855    89.270081  0.052760095  0.058819949            4 
  142000    1.1800269   -5.1415635    90.000839  0.052817394    0.0587675            1 
  143000    1.2150635   -5.1404844    90.476556  0.052725265  0.058714012            2 
  144000    1.1963246    -5.128256     91.17063  0.052760781  0.058663231            1 
  145000    1.2264969   -5.0853535    92.139924  0.052953979  0.058618859            3 
  146000    1.1862123   -5.1056987    93.221836   0.05320881  0.058574161            7 
  147000    1.1880307   -5.2064067    93.083292  0.052768306  0.058532587            4 
  148000    1.1825977    -5.116874    94.308597  0.053101688  0.058491268            4 
  149000    1.2022525   -5.1480322    95.205993  0.053247199  0.058456696            3 
  150000    1.2107674   -5.1511744    95.241362  0.052911868   0.05842051            2 
  151000    1.1781606   -5.0956691    96.560717  0.053289579  0.058385545            7 
  152000     1.214366   -5.0803633    97.579611  0.053497593  0.058350902            3 
  153000    1.1868018   -5.1142477    97.772203  0.053252833  0.058320072            3 
  154000    1.1900006   -5.1182437    98.478548  0.053289257  0.058290098            2 
  155000    1.1898428   -5.1518124    98.801547  0.053119111  0.058255717            5 
  156000    1.1932442   -5.1494363    100.34229  0.053601653  0.058221214            3 
  157000    1.2062737   -5.1294512    99.936768  0.053044993  0.058191251            4 
  158000    1.1828887   -5.1208022     101.1916  0.053371098  0.058157495            3 
  159000    1.1625092    -5.140122    101.65695  0.053279323  0.058122853            1 
  160000    1.1814458   -5.1945616    101.34232  0.052782459  0.058078825            4 
  161000    1.2126095   -5.1346186    102.66892   0.05314126    0.0580327            3 
  162000    1.1753112   -5.1454007    102.85232  0.052907571  0.057987857            2 
  163000    1.1938909   -5.1168791    104.07037   0.05320571  0.057947093            6 
  164000    1.1623362   -5.1564216    104.27568   0.05298561  0.057907371            3 
  165000    1.2083633   -5.1195704    105.27073  0.053167035  0.057868711            3 
  166000    1.1998116   -5.1514895    105.99808  0.053211887   0.05783752            3 
  167000    1.1899521   -5.1449732    106.68325  0.053235157  0.057808271            3 
  168000    1.1820923   -5.1296675    107.36251  0.053255212  0.057778133            1 
  169000    1.1916859   -5.1635525    108.21318  0.053359558  0.057746599            4 
  170000    1.1994973   -5.1559418    108.32229   0.05309916  0.057712918            2 
  171000    1.2052293   -5.1099143    110.00222  0.053607318  0.057689141            3 
  172000    1.1811737   -5.1300603    110.18193  0.053382717  0.057669094            4 
  173000     1.179452   -5.1401829    111.30136  0.053613372  0.057641778            3 
  174000     1.186044   -5.1447946    111.91414  0.053598725  0.057623159            1 
  175000     1.170889   -5.1554484    112.59882  0.053618484  0.057603009            4 
  176000    1.1744238   -5.0899043    113.01043  0.053508728  0.057579018            4 
  177000    1.1853522   -5.1689221    113.12756  0.053261564  0.057546996            3 
  178000    1.1929623   -5.1741788    113.41972  0.053099121  0.057510443            2 
  179000     1.203687   -5.1340239    114.06988   0.05310516  0.057475256            3 
  180000    1.1689227   -5.1379688    114.88145  0.053185854  0.057437871            3 
  181000    1.1838886   -5.1718361    114.71937  0.052817389  0.057396905            4 
  182000    1.1957265   -5.1277458    115.97021  0.053099914  0.057357536            4 
  183000    1.2104533   -5.1134469    116.87669  0.053222536  0.057326476            2 
  184000    1.1891911   -5.1681534    117.35638  0.053150534  0.057295259            2 
  185000    1.1692088   -5.1523889    118.38366  0.053325971  0.057265705            2 
  186000    1.1764713   -5.1681815    119.30007  0.053449854  0.057238591            3 
  187000    1.2057012   -5.1499245    119.76742  0.053372289  0.057216558            2 
  188000     1.153311   -5.1524153    119.95009  0.053169366   0.05718952            2 
  189000    1.1975184   -5.1903822    120.86153  0.053289918  0.057160975            2 
  190000    1.2012384    -5.179942    121.24427  0.053177311  0.057133508            2 
  191000    1.2185883   -5.1210305    122.51425  0.053452989  0.057105568            5 
  192000    1.1829959   -5.1475817    122.85066  0.053320598  0.057081548            2 
  193000    1.1615336    -5.169844    123.64482  0.053387229  0.057057423            1 
  194000    1.2086186   -5.1491294    124.04625   0.05328447  0.057030361            2 
  195000    1.1668978   -5.1584417    124.58852  0.053242957  0.057002046            5 
  196000    1.1753527   -5.1524458    125.25032  0.053252688  0.056974331            1 
  197000    1.1777896   -5.1783287    125.56059  0.053113617  0.056949208            3 
  198000    1.1558007   -5.1450989     126.7894  0.053362542  0.056925785            4 
  199000    1.1682856   -5.1834065     127.0996   0.05322429  0.056901133            2 
  200000    1.1779138   -5.1669804    127.91846  0.053299356  0.056875479            2 
  201000     1.151563   -5.1412176    128.29393  0.053189854  0.056848793            2 
  202000    1.1859614    -5.134061    128.90694   0.05317943  0.056817933            2 
  203000    1.1856197   -5.1406185    129.45684  0.053143202  0.056786944            3 
  204000    1.1839481   -5.1961004    129.61933  0.052949074  0.056754454            3 
  205000    1.1655234   -5.2076238    129.51639  0.052648939  0.056716892            2 
  206000    1.1536909   -5.1600805    130.48113  0.052783628  0.056679262            1 
  207000    1.1563024   -5.1551356    131.27688  0.052848987  0.056640312            8 
  208000    1.1801005   -5.1615285    131.63636  0.052738928    0.0565991            4 
  209000     1.170955   -5.2310824    131.34944  0.052372185  0.056556838            7 
  210000    1.1824279   -5.1442048    132.90054  0.052738309  0.056514654            4 
  211000    1.1673806   -5.1889971    133.42517  0.052695566  0.056474445            1 
  212000    1.1341858   -5.1691456    134.39106  0.052826673  0.056435091            1 
  213000    1.1622252   -5.1382966      135.249  0.052914318  0.056399416            3 
  214000    1.1656454   -5.1722348    135.24586  0.052665832   0.05636375            2 
  215000    1.1524238   -5.1598438    135.68546  0.052591263  0.056328201            2 
  216000    1.2004203   -5.1767971    136.85783  0.052800088  0.056291557            1 
  217000       1.1687   -5.1528474    137.26791  0.052714249  0.056252792            4 
  218000    1.1570886   -5.1791345    137.40162  0.052523556   0.05621518            4 
  219000    1.1665276   -5.1541419    138.98751   0.05288718  0.056176494            4 
  220000    1.1765163   -5.1673155    139.36546  0.052789946  0.056141752            3 
  221000     1.160248   -5.1870269     139.7297  0.052688422  0.056106807            3 
  222000    1.1494169    -5.176558    140.05726  0.052574045  0.056069571            2 
  223000    1.1796632   -5.2129103    140.50364  0.052505097   0.05603388            5 
  224000    1.1576182   -5.2123653    140.75099  0.052362718  0.055991736            1 
  225000    1.1741355   -5.1622606    141.52126   0.05241528   0.05595227            4 
  226000    1.1728586   -5.2460368    141.84121  0.052301331  0.055913485            2 
  227000    1.1525469   -5.1838817    142.58262  0.052343104  0.055873424            2 
  228000    1.1696487   -5.1730322    143.04305  0.052281817  0.055837708            2 
  229000    1.1541939   -5.1844271    144.28881  0.052506844   0.05579856            2 
  230000    1.1555484   -5.1983055    144.99316  0.052533753  0.055760608            4 
  231000    1.1493616   -5.1653182    145.27123   0.05240665  0.055725015            1 
  232000     1.187301   -5.1695606      145.895  0.052404813  0.055689391            5 
  233000    1.1418949   -5.1712242    146.90864  0.052542432  0.055656088            3 
  234000    1.1390587   -5.1880319    146.51728  0.052178518  0.055620734            5 
  235000    1.1525993   -5.1716917    147.29378  0.052231838  0.055581575            3 
  236000    1.1205542   -5.2101057    147.60932  0.052121934  0.055542301            2 
  237000    1.1593859   -5.1875711    147.81973  0.051975993  0.055502456            3 
  238000    1.1243881   -5.1947178     148.6592  0.052051541   0.05546043            1 
  239000    1.1702827   -5.1989837    149.84077  0.052245736   0.05541961            5 
  240000    1.1451597   -5.2274508    149.95975  0.052069356  0.055380144            3 
  241000    1.1550027     -5.17001    151.02321  0.052221026  0.055345768            3 
  242000     1.167944   -5.1577133    151.20024  0.052066197  0.055307991            2 
  243000    1.1526997   -5.1924705    151.55708  0.051974307  0.055270238            2 
  244000    1.1805912   -5.1955974    152.57401  0.052108609   0.05523286            2 
  245000    1.1508065   -5.1668512    153.03822  0.052053817  0.055196264            4 
  246000    1.1657747   -5.1935391    153.10096  0.051863468  0.055156583            3 
  247000    1.1658426   -5.1831898    153.40368  0.051755629  0.055114745            5 
  248000    1.1429119   -5.1864281    154.47748  0.051907755  0.055073787            4 
  249000    1.1791156   -5.2223151    154.66187     0.051761  0.055031577            2 
  250000    1.1376247   -5.1818483     155.8949  0.051964967  0.054991342            7 
  251000    1.1531156   -5.2426668    155.68588  0.051688538  0.054952382            2 
  252000    1.1266181   -5.1783697    156.23605  0.051665361  0.054910643            2 
  253000    1.1490015   -5.2331206    156.77065  0.051637237  0.054868421            6 
  254000    1.1751873   -5.1885682    158.18454  0.051897814  0.054828914            3 
  255000    1.1397227   -5.2346589    158.65361  0.051847583  0.054791507            2 
  256000    1.1296458    -5.179949    158.73997  0.051673168  0.054755363            3 
  257000    1.1521395   -5.1876034    160.64226  0.052088928  0.054721553            4 
  258000    1.1434994   -5.2019307    160.88705  0.051966102   0.05469048            2 
  259000    1.1478271   -5.1877484    161.52943  0.051972147  0.054659954            1 
  260000     1.156719   -5.2219906    162.36347  0.052039574  0.054630581            3 
  261000    1.1497037   -5.1419841    162.86359  0.051999871  0.054601178            1 
  262000    1.1476497   -5.2427574    163.20522  0.051910057  0.054573313            2 
  263000    1.1646179    -5.237297    164.24516  0.052042192  0.054544451            2 
  264000    1.1504395   -5.2335685    163.42372  0.051585769  0.054516245            2 
  265000    1.1675949    -5.207762    165.41762  0.052018119  0.054486566            2 
  266000    1.1392435   -5.2368834    165.31188  0.051789436  0.054455589            3 
  267000    1.1452099   -5.2161978    166.03159  0.051820098  0.054425701            3 
  268000    1.1330527   -5.2018062    167.06246  0.051947283   0.05439496            2 
  269000    1.1461786   -5.1713809    167.37575  0.051851222   0.05436788            2 
  270000    1.1467361   -5.1967475    168.76164  0.052086927  0.054339382            2 
  271000    1.1646812   -5.2507031    168.42968  0.051792644  0.054308675            1 
  272000     1.152587   -5.1883932    169.37832  0.051892868  0.054281121            5 
  273000    1.1642069   -5.2037055    169.92069  0.051868341  0.054254011            1 
  274000    1.1533696    -5.229145    169.71911  0.051617735  0.054225854            3 
  275000    1.1329594   -5.2205788    170.40263  0.051637161  0.054196005            4 
  276000    1.1460489   -5.2576612    171.06264  0.051649348  0.054166123            2 
  277000    1.1313245   -5.2247948    172.32472  0.051842574  0.054134705            3 
  278000    1.1693133   -5.2109473    172.63251  0.051748356  0.054104704            2 
  279000    1.1302354   -5.2300453    173.38096  0.051786427  0.054075942            2 
  280000    1.1648976   -5.1895763    173.98627  0.051781628  0.054047928            3 
  281000    1.1573742    -5.241617    173.71558  0.051517076  0.054020013            2 
  282000    1.1716115   -5.2424505    174.22978  0.051486342  0.053987999            2 
  283000     1.153465   -5.2000498    174.74437  0.051455939  0.053957241            2 
  284000    1.1349412   -5.2575577    175.48736   0.05149277  0.053926222            1 
  285000    1.1482767   -5.2460218    175.62673  0.051352844  0.053893345            4 
  286000     1.144899   -5.2254859    176.57306  0.051449026  0.053862163            1 
  287000    1.1440714   -5.2620384    176.91868  0.051370116  0.053832436            4 
  288000    1.1347284   -5.2382802    177.89211  0.051473413  0.053800816            2 
  289000    1.1269759   -5.2576943    178.79259  0.051554957  0.053772164            6 
  290000     1.116601   -5.2581226    178.65201  0.051336784  0.053744222            8 
  291000    1.1434737   -5.2233481    179.82091  0.051495105  0.053717076            2 
  292000    1.1570253   -5.2337974    180.71641  0.051574317  0.053691315            2 
  293000    1.1812223   -5.2325065    182.03866  0.051774363  0.053667973            2 
  294000     1.126307    -5.260451    181.70464  0.051503581  0.053644617           10 
  295000    1.1275228   -5.2227282    182.60145  0.051582329  0.053619473            1 
  296000     1.156268   -5.2342479    183.09221  0.051546231  0.053592714            1 
  297000    1.1247774   -5.2604157    183.38298  0.051454258  0.053566927            3 
  298000     1.126826   -5.2370395    184.33414  0.051547579  0.053540919            4 
  299000    1.1549645   -5.2511739    183.87194   0.05124636  0.053512882            2 
  300000    1.1396236   -5.2340415     185.2868  0.051468554  0.053485616            2 
  301000    1.1208784    -5.241379    185.87014  0.051459064  0.053459574            2 
  302000    1.1472513   -5.2386203     186.4483  0.051448207  0.053433529            2 
  303000    1.1319291   -5.2593483    187.14394   0.05146973  0.053406893            2 
  304000    1.1357046   -5.2456253     186.9107  0.051236485  0.053381472            7 
  305000    1.1181705    -5.248053    187.92973  0.051346919  0.053356547            3 
  306000    1.1461781   -5.2822974    188.01005  0.051200994  0.053331444            2 
  307000    1.1219355   -5.2659125    188.09763  0.051057988  0.053303797            1 
  308000    1.1396158   -5.2561739    189.12302  0.051169648  0.053276792            2 
  309000    1.1099676   -5.2141995    190.72326  0.051435616  0.053250395            4 
  310000    1.1485524   -5.2767703    189.80626  0.051023187  0.053223839            4 
  311000    1.1371257   -5.2658343    192.12386  0.051480134  0.053200058            1 
  312000     1.111142   -5.2451161    191.39965  0.051121701  0.053175189            2 
  313000    1.1246975   -5.2727142    192.31428  0.051201885   0.05314984            2 
  314000    1.1583883    -5.267214    193.41145  0.051330003  0.053124527            2 
  315000    1.1453302   -5.2720991    193.46412  0.051180985  0.053098216            4 
  316000    1.1350887   -5.2398005    193.76861  0.051099318  0.053071743            2 
  317000    1.1435225   -5.2292348     194.7148  0.051186857  0.053046842            3 
  318000    1.1120898   -5.2618992    194.75321  0.051035957   0.05302061            3 
  319000    1.1291654   -5.2283416    196.55578  0.051346861  0.052995604            2 
  320000    1.1116397   -5.2752739    196.05266   0.05105538  0.052972173            5 
  321000    1.1233362    -5.258053    197.10626  0.051169849  0.052947884            4 
  322000    1.0869101    -5.266327    197.59763  0.051138102  0.052924452            3 
  323000    1.1270771   -5.2795908    198.67708  0.051258277  0.052901357            3 
  324000    1.1323502   -5.2648998    199.08131  0.051204042  0.052878402            3 
  325000     1.126908   -5.2681174    199.33918   0.05111261   0.05285586            2 
  326000    1.1542889   -5.2689922    199.54243  0.051007779  0.052831346            4 
  327000    1.1417055    -5.266057     200.1573  0.051008486  0.052808032            6 
  328000    1.1401376   -5.2509512    201.92854  0.051302981  0.052784854            1 
  329000    1.1232671   -5.2088494    202.05232    0.0511784  0.052763963            2 
  330000     1.130436   -5.2602957    202.13164  0.051043342  0.052741955            3 
  331000    1.1355792   -5.2782754    201.96942  0.050848294  0.052719407            2 
  332000    1.1418018   -5.2894276    202.87967  0.050923612  0.052696499            2 
  333000    1.1275137   -5.2747215    203.20343   0.05085171  0.052672616            4 
  334000    1.1075422   -5.2366389    204.32115  0.050978331  0.052647319            3 
  335000    1.1102231   -5.2659199    204.06902  0.050763438  0.052621563            3 
  336000    1.1259135   -5.2142327    205.07933   0.05086293  0.052596478            4 
  337000    1.1206146   -5.2654234    205.45098  0.050803901  0.052569878            3 
  338000    1.1215561   -5.2422327    206.26403   0.05085405  0.052542681            2 
  339000    1.1018104   -5.2681519    205.58103  0.050536142   0.05251552            2 
  340000       1.1128   -5.2405391    207.18006  0.050779427  0.052487459            5 
  341000    1.1136923   -5.2689753    207.09863  0.050610613  0.052461683            3 
  342000    1.1047046   -5.2917696    207.63087  0.050592317  0.052437298            6 
  343000    1.1131771   -5.2865045    208.13303   0.05056682  0.052410409            5 
  344000    1.1233798   -5.3009144    208.94761  0.050617153  0.052381936            2 
  345000    1.0994493   -5.2942144    208.51554  0.050366073  0.052353442            1 
  346000     1.129526   -5.2853651     209.1671  0.050377434  0.052324537            2 
  347000    1.1079714   -5.2766309    209.93747   0.05041726  0.052298279            2 
  348000    1.1157934   -5.2817642    210.67956  0.050450085  0.052272783            2 
  349000    1.1189942   -5.2802905     211.1933  0.050428199  0.052245731            2 
  350000    1.1146315   -5.2659273    211.69258  0.050402995   0.05221963            3 
  351000    1.1172592   -5.2822325    211.71586  0.050264924  0.052191841            2 
  352000    1.1142183   -5.2623987    212.50412  0.050308741  0.052164365            3 
  353000    1.1078372   -5.2683919    213.90922  0.050497927  0.052137141            3 
  354000     1.091754   -5.2650498    214.42149   0.05047587  0.052113159            2 
  355000    1.1294174     -5.24984    216.32547  0.050780626  0.052090349            4 
  356000    1.0938589   -5.2749715    216.61733  0.050706303  0.052070011            5 
  357000     1.115475   -5.2607099    216.93167  0.050637645  0.052048592            2 
  358000    1.0994443   -5.3068545    217.19405  0.050557274  0.052027121            4 
  359000    1.1314301   -5.3285537    217.90493   0.05058146  0.052006461            4 
  360000    1.1076051   -5.3199451    217.94414  0.050450032  0.051985007            3 
  361000     1.077491   -5.3071343    218.81696  0.050511764  0.051963557            3 
  362000    1.0741642    -5.276732    219.24081  0.050469801  0.051941957            1 
  363000     1.101991   -5.3026435    219.12563  0.050304322   0.05191998            3 
  364000    1.0920308   -5.2741079     219.5473  0.050262661  0.051897429            3 
  365000    1.1077197   -5.3053909    219.85121   0.05019434  0.051873616            7 
  366000     1.120601   -5.3047351    221.06382  0.050333292  0.051849997            3 
  367000    1.1039224   -5.2587454    222.10157  0.050431782  0.051825548            1 
  368000    1.1179382   -5.3083714    221.12205  0.050072927  0.051801585            3 
  369000    1.1009132   -5.3518184    221.53009  0.050029378  0.051776291            3 
  370000     1.106116   -5.2794524    223.22821  0.050276623   0.05175043            2 
  371000    1.0726709   -5.2993993    222.56773  0.049992752  0.051725586            3 
  372000    1.1010446   -5.3264646    223.05351  0.049967185  0.051698204            3 
  373000     1.124176   -5.3060393    224.31792   0.05011571  0.051671683            4 
  374000    1.1151071   -5.3403288    223.73677  0.049852221  0.051644909            3 
  375000    1.0961163    -5.301974    224.86928  0.049970951  0.051618889            3 
  376000    1.1119311    -5.305648    226.02096  0.050093297  0.051593233            4 
  377000    1.1197975   -5.2762974    226.83109  0.050139497  0.051570207            1 
  378000    1.0817739   -5.3226925    227.56864  0.050169452   0.05154574            3 
  379000     1.106925   -5.2760922    228.27207  0.050191749  0.051522325            2 
  380000    1.0812968   -5.3259071    227.45638  0.049880785  0.051499123            4 
  381000    1.1170457   -5.3341112     227.9615  0.049860345  0.051474668            3 
  382000    1.1106349   -5.3060847    229.41744  0.050047434  0.051451645            4 
  383000    1.1125669   -5.3246509    230.14751  0.050075611  0.051428666            3 
  384000    1.0960722   -5.2993527    230.05682  0.049925526  0.051403325            3 
  385000    1.1249257   -5.2801567    230.40123  0.049870397  0.051380556            2 
  386000    1.1095827     -5.32627    230.68788  0.049803084  0.051354658            4 
  387000    1.1084597   -5.3322984    231.16654  0.049777463  0.051329164            5 
  388000    1.1087447   -5.3524842    231.38558  0.049696216  0.051303105            2 
  389000    1.0920439   -5.3365703    231.72448  0.049641063  0.051277507            2 
  390000    1.0934783    -5.285887    232.67407  0.049716681  0.051251695            4 
  391000    1.0739942   -5.3652902    232.58091  0.049569674  0.051226236            7 
  392000    1.0795702    -5.336618    233.26943   0.04958959  0.051200124            3 
  393000    1.0864327   -5.3664495     233.5239  0.049517366  0.051173158            4 
  394000    1.0978377   -5.3668368    233.55284  0.049397809  0.051147066            5 
  395000    1.0877194   -5.3175516     234.5466  0.049482405  0.051120511            2 
  396000    1.0835727   -5.3391008    235.21991  0.049499139   0.05109533            2 
  397000    1.0541715    -5.312019    236.97415  0.049742685  0.051071086            3 
  398000    1.1118376   -5.3143678    237.19712  0.049664388  0.051046365            2 
  399000    1.1089036   -5.3041308    237.34044   0.04956985  0.051019074            3 
  400000    1.0880648   -5.3452845    236.95471  0.049365564  0.050993888            5 
  401000    1.1205232   -5.3236643    237.89679  0.049438235  0.050967785            2 
  402000    1.1068695   -5.2834178    239.22621   0.04959084  0.050942064            4 
  403000    1.0995561   -5.3210941     239.4568  0.049515468  0.050916129            1 
  404000    1.0967383   -5.3291371    239.23976  0.049348135  0.050888691            3 
  405000    1.0833932   -5.3574641    240.11553  0.049406488  0.050862932            3 
  406000    1.0832727   -5.3310133    240.20416  0.049302988  0.050837664            3 
  407000    1.0998654   -5.3354845    240.57466   0.04925771  0.050811845            3 
  408000    1.0574487   -5.3321702    240.82459   0.04918803  0.050786401            3 
  409000     1.107934   -5.3064982    242.00686   0.04930865  0.050760717            2 
  410000    1.0740954   -5.3497822    242.21717  0.049231132  0.050734851            2 
  411000    1.1076498   -5.3251187    242.47263  0.049163145  0.050707493            2 
  412000    1.0761426   -5.3765337    243.08352  0.049167378  0.050679747            3 
  413000    1.0802137   -5.3237041    243.41966  0.049116154  0.050652874            2 
  414000    1.0941367   -5.3147684     243.7027  0.049054489  0.050625826            2 
  415000    1.0813412   -5.3771878    244.54007  0.049104432  0.050598369            4 
  416000    1.0937513   -5.3508229    244.94777  0.049068063  0.050571673            3 
  417000    1.1061321   -5.3263246    245.66843  0.049094411  0.050543697            2 
  418000     1.069039   -5.3243556    246.01597  0.049046246  0.050516845            2 
  419000    1.0664519   -5.3793004    246.78311  0.049081764  0.050490641            3 
  420000    1.0930508   -5.3223841    247.78525   0.04916374  0.050464821            2 
  421000     1.082402   -5.3079277    247.84706  0.049059196  0.050439534            3 
  422000    1.0805333    -5.361771    248.05712  0.048984423  0.050415998            3 
  423000    1.1024479   -5.3556873    249.07037  0.049068237  0.050390144            2 
  424000    1.0984813   -5.3756205     248.5612  0.048852437  0.050364312            3 
  425000    1.0989665   -5.3835046    249.23497  0.048869601  0.050338122            3 
  426000    1.0671543   -5.3371876    250.39206  0.048981233  0.050312361            4 
  427000     1.113456   -5.3530949    250.68354  0.048923407  0.050287268            3 
  428000    1.0908083   -5.3409985    251.46704  0.048961651  0.050260317            3 
  429000     1.072013   -5.3457372    252.18849  0.048987664  0.050234865            3 
  430000    1.0799792   -5.3293968    252.89995  0.049011618   0.05020935            2 
  431000    1.0662319   -5.3691253    252.19634  0.048761861  0.050183641            2 
  432000    1.0722799   -5.3677106    251.79707  0.048571966  0.050157514            1 
  433000     1.089537   -5.3562137    253.48596  0.048784827  0.050129999            2 
  434000    1.0740814   -5.3279046    254.36929   0.04884203  0.050104057            3 
  435000    1.0775358   -5.3625174    254.55954  0.048766196  0.050078466            8 
  436000     1.084257   -5.3660542    253.64058  0.048478704  0.050052094            2 
  437000    1.0893311   -5.3626103     254.2642  0.048486689  0.050023404            2 
  438000    1.0763533   -5.3443723     255.9587  0.048698382  0.049996337            5 
  439000    1.0686649   -5.3178824    255.25008  0.048452938  0.049969805            5 
  440000    1.0800401   -5.3481722    255.94797  0.048474994  0.049943476            2 
  441000    1.0660442   -5.3609752    256.33872  0.048438912  0.049917809            4 
  442000    1.0670669    -5.344301     257.7381  0.048593156  0.049891156            4 
  443000    1.0621995     -5.32159    258.57641  0.048641161  0.049866227            3 
  444000    1.0720912   -5.3490968    258.61213  0.048538312  0.049840713            5 
  445000    1.0602102   -5.3494727    259.22579  0.048544155  0.049815312            2 
  446000    1.0897415   -5.3445221    260.71585  0.048713723  0.049790243            2 
  447000    1.0542811   -5.3531365    260.49093  0.048562813  0.049765339            1 
  448000    1.0974592   -5.3591666    260.77613  0.048507465  0.049741072            2 
  449000    1.0852023   -5.3634517    261.42569  0.048519987  0.049717704            3 
  450000    1.0642219   -5.3610156    262.59408  0.048628534  0.049694051            3 
  451000    1.0757854    -5.378518    262.96546  0.048589331  0.049671327           10 
  452000    1.0555505   -5.3705518    264.36323  0.048739533  0.049649198            2 
  453000    1.0850248   -5.3431442    264.50542  0.048658098  0.049627383            2 
  454000    1.0681424   -5.3374473    264.50311  0.048550497  0.049605608            2 
  455000    1.0561696   -5.4081948    263.80214  0.048315411  0.049582126            3 
  456000    1.0721098   -5.3721338    265.14175  0.048454268   0.04955829           10 
  457000    1.0867103   -5.3659033    265.34776  0.048385805  0.049534055            2 
  458000    1.0677779   -5.3713027    265.13835  0.048242058  0.049508718            3 
  459000    1.0744567   -5.3302164    266.61934  0.048405835  0.049483399            5 
  460000    1.0606012   -5.3549975    265.35423  0.048071418  0.049457126            2 
  461000    1.1014791   -5.3402026    265.62663  0.048016382  0.049429273            3 
  462000    1.0794416   -5.3557738    265.69883  0.047925475  0.049402339            1 
  463000    1.0933735   -5.3848954    267.17348  0.048087379  0.049374478            4 
  464000    1.0640234   -5.3761695    267.25736  0.047998807  0.049346497            3 
  465000     1.055927    -5.391018    266.95691  0.047841741  0.049318344            4 
  466000    1.0763461   -5.3952847    266.31382  0.047624074  0.049289757            4 
  467000    1.0624658   -5.3562904    268.30488  0.047877387  0.049260667            2 
  468000    1.0803186   -5.3341814    268.10089  0.047738763  0.049232257            3 
  469000    1.0717661   -5.3896156    268.16958   0.04764918  0.049202393            3 
  470000    1.0664103   -5.3805554    268.66011  0.047634771  0.049171248            2 
  471000    1.0735833   -5.4145347    268.74757   0.04754911  0.049140571            3 
  472000    1.0725709   -5.3842844    270.07585  0.047682883  0.049110615            5 
  473000    1.0769406   -5.3866769     269.5656  0.047492178  0.049080512            2 
  474000    1.0634221   -5.3727983    270.12185  0.047489776  0.049050393            2 
  475000    1.0579849    -5.372437    271.44461  0.047621861  0.049019729            5 
  476000      1.06704   -5.3810409    271.04822   0.04745242  0.048988433            3 
  477000    1.0528128   -5.3710619    271.03068  0.047349874  0.048957368            2 
  478000    1.0656135   -5.3531401    272.29861  0.047471864  0.048926067            3 
  479000    1.0547994   -5.3709572    271.59249  0.047249912  0.048895859            2 
  480000    1.0596735   -5.4109999    272.39784  0.047291291   0.04886459            3 
  481000    1.0451209   -5.3936311    273.39257  0.047365311  0.048833205            9 
  482000    1.0627887   -5.4213761    273.25258  0.047242838  0.048802271            3 
  483000    1.0839748   -5.4274762    273.65442  0.047214358  0.048770831            2 
  484000    1.0858653   -5.4103796    273.45302  0.047082131  0.048739257            4 
  485000    1.0645883   -5.3871667    274.92802  0.047238492  0.048707996            4 
  486000     1.048142   -5.3986927    274.34717  0.047041696   0.04867637            3 
  487000    1.0672771   -5.4037228    275.18988  0.047089302  0.048644659            2 
  488000    1.0581558   -5.4075088    275.35801  0.047021517  0.048614809            3 
  489000    1.0780097   -5.3996836    276.46955  0.047114783  0.048584467            6 
  490000    1.0622183    -5.397691    277.73506  0.047233853  0.048554552            5 
  491000    1.0571033   -5.4205752    277.58562  0.047112292  0.048525154            2 
  492000    1.0631772   -5.3855696    278.82678  0.047226758   0.04849612            2 
  493000    1.0724998   -5.4356939    277.59557  0.046922848  0.048467324            8 
  494000    1.0418754   -5.4211042    277.45412  0.046804001   0.04843707            6 
  495000    1.0675934   -5.4007472    279.23977  0.047010063  0.048407712            4 
  496000    1.0575805    -5.400486    280.00938  0.047044586  0.048378418            3 
  497000    1.0679101   -5.4178149    279.92049  0.046935026  0.048348558            2 
  498000    1.0533728   -5.3916495     280.4071  0.046922206  0.048318695            7 
  499000    1.0626101   -5.3895318    282.00446  0.047094934  0.048289457            3 
  500000    1.0406452   -5.4169889    282.08975  0.047014958  0.048261321            6 
  501000    1.0639425   -5.3941887    282.22022  0.046942818  0.048233658            2 
  502000    1.0265018   -5.4144586    283.23095   0.04701709  0.048205228            5 
  503000    1.0474451   -5.4507612    282.24346  0.046760017  0.048176402            2 
  504000    1.0791724   -5.4237564    282.82747  0.046763801   0.04814761            4 
  505000    1.0567809      -5.3957    284.37853   0.04692715  0.048119232            2 
  506000    1.0489527   -5.3632111    285.48541  0.047016701  0.048090909            7 
  507000    1.0528977   -5.4164287    284.43614  0.046751502  0.048063236            9 
  508000    1.0602023   -5.3859041    284.36542  0.046647871  0.048034437            4 
  509000    1.0343453   -5.3971395    286.23229  0.046861868  0.048005825            3 
  510000    1.0575924    -5.442205    285.23071  0.046606326  0.047977187            5 
  511000    1.0400754    -5.385208     286.8345  0.046776663  0.047948614            2 
  512000     1.061254   -5.3833102    287.13921  0.046734898  0.047920716            6 
  513000    1.0588283   -5.4353738    287.07501  0.046633367  0.047892149            3 
  514000    1.0673046   -5.4127962    287.54396  0.046618671  0.047864257            2 
  515000     1.050016    -5.432901    288.19676   0.04663378  0.047836029            3 
  516000    1.0344911   -5.4348793    287.91047   0.04649717  0.047807431            4 
  517000    1.0403845   -5.3844893    288.94558  0.046574077  0.047778325            3 
  518000    1.0384285   -5.4307148    288.41423  0.046398686  0.047749671            3 
  519000     1.059823   -5.4049042    288.87702  0.046383594    0.0477205            5 
  520000    1.0444865   -5.4418334    289.32049  0.046365463  0.047690878            6 
  521000    1.0480814   -5.4456045    288.48871  0.046143427  0.047661173            3 
  522000      1.03056   -5.4518585    289.15411  0.046161256  0.047630676            2 
  523000    1.0373556   -5.4258395    290.29916  0.046255442  0.047600901            1 
  524000    1.0511202   -5.3826598    291.14887  0.046302302   0.04757122            3 
  525000    1.0484255   -5.4112326    290.42955  0.046099928  0.047541805            3 
  526000    1.0521349   -5.4699705    290.67292  0.046050843   0.04751112            5 
  527000    1.0450979   -5.4792192    290.54303   0.04594292  0.047480123            5 
  528000    1.0603491   -5.4485342    292.28712  0.046131174  0.047448888            5 
  529000    1.0346051   -5.4293636    292.57023  0.046088568  0.047417877            6 
  530000    1.0483765   -5.3768629    293.37181  0.046127643  0.047387214            2 
  531000    1.0367514   -5.4670487    291.91668   0.04581241  0.047357424            4 
  532000    1.0407853   -5.4221565    292.55757  0.045826686  0.047327026            3 
  533000    1.0164138   -5.4060673    293.74953  0.045927069  0.047295852            4 
  534000    1.0439648   -5.4461275    293.37655  0.045782857  0.047264967            4 
  535000     1.035886   -5.4767861    293.98282  0.045791716  0.047234351            3 
  536000    1.0203165   -5.4845125    294.57063  0.045797672  0.047203388            4 
  537000    1.0453908   -5.4448166    294.68505  0.045730145  0.047172629            3 
  538000     1.032048   -5.4333711    294.74976  0.045655167  0.047141068            7 
  539000    1.0348266   -5.4725021    295.11326  0.045626663  0.047108705            4 
  540000    1.0433641   -5.4441829    295.00755  0.045525857  0.047076767            3 
  541000    1.0331974    -5.419129    297.08415  0.045761575  0.047044552            5 
  542000    1.0498401   -5.4118784    296.46122  0.045581369  0.047012172            3 
  543000    1.0320309     -5.46983    296.46602  0.045498161  0.046980877            2 
  544000    1.0043986   -5.3959168    297.53952  0.045578971  0.046949219            4 
  545000    1.0410377   -5.4431202    297.75121  0.045527709  0.046917961            3 
  546000    1.0492092   -5.4482395    297.94377  0.045473713  0.046886298            4 
  547000    1.0439815   -5.4315215    298.37725  0.045456619  0.046854882            3 
  548000     1.047717   -5.4316545     297.6086  0.045256782  0.046823039            4 
  549000     1.022329   -5.4704254    298.14079  0.045255129  0.046790915            2 
  550000    1.0336846   -5.4763119    299.35617  0.045356995  0.046758889            2 
  551000    1.0386652   -5.4546326    300.40641  0.045433516  0.046725762            3 
  552000     1.041182   -5.4285741     300.8099  0.045412123  0.046694217            3 
  553000    1.0359568   -5.4304728    300.82255  0.045331909  0.046663382            4 
  554000    1.0247428   -5.4223598    301.82383  0.045400696  0.046632239            7 
  555000    1.0291159   -5.4640874    301.94091  0.045336473  0.046601503            5 
  556000    1.0286031   -5.4488991    302.47198   0.04533453  0.046571996            1 
  557000     1.019074    -5.454087    302.23512  0.045217702  0.046542579            2 
  558000    1.0169825   -5.4808657    302.47014  0.045171766  0.046512324            4 
  559000    1.0523699   -5.4654824    303.07602  0.045181279  0.046482768            4 
  560000    1.0286149   -5.4692923    304.39829  0.045297364  0.046453455            5 
  561000    1.0316409    -5.423292    304.72569  0.045265254  0.046424221            6 
  562000    1.0215378   -5.4747854     304.1906  0.045105368  0.046394241            4 
  563000    1.0388348   -5.4578831    304.56503  0.045080673  0.046364431            3 
  564000    1.0192444   -5.4650185    306.01396  0.045214829  0.046334531            4 
  565000     1.025369   -5.4570896    305.26979  0.045025043  0.046305205            5 
  566000   0.99599568    -5.465504    305.18658  0.044933242  0.046274767            7 
  567000    1.0472222   -5.4658628    305.93588  0.044964121  0.046243983            4 
  568000    1.0119016   -5.5144805    305.54396  0.044827459  0.046213191            4 
  569000    1.0253263   -5.4752323    305.55038  0.044749616  0.046182468            3 
  570000    1.0434657   -5.4799129    307.07579  0.044894122   0.04615205            3 
  571000    1.0351978   -5.4745618    307.30784  0.044849363  0.046120942            5 
  572000    1.0117297   -5.4761526    308.52367  0.044948088  0.046090205            5 
  573000    1.0455782   -5.4819929    308.33625  0.044842387  0.046059925            3 
  574000     1.021116   -5.4749704    308.67455  0.044813379  0.046029129            3 
  575000    1.0379308   -5.4786925    308.82059  0.044756607    0.0459988            3 
  576000    1.0373836   -5.4896392    308.66345   0.04465617  0.045968875            5 
  577000    1.0164987   -5.4796071    309.28962  0.044669212  0.045938843            3 
  578000    1.0233126   -5.4749039     310.7514  0.044802682   0.04590892            5 
  579000   0.99175068   -5.4707579    310.44351  0.044680989  0.045878269            4 
  580000    1.0249465   -5.4684268    311.02333  0.044687261  0.045847547            5 
  581000    1.0304625   -5.4925127    310.88768   0.04459089  0.045817236            3 
  582000     1.031269   -5.5126397     309.6349  0.044334894  0.045786466            3 
  583000    1.0328521   -5.4553798    312.32907  0.044643949  0.045755936            3 
  584000    1.0201029   -5.4307022    314.03494  0.044810921  0.045725976            4 
  585000    1.0127489   -5.4726591    312.89115  0.044571389  0.045696421            2 
  586000    1.0059357   -5.4948089    312.93285  0.044501258  0.045666376            2 
  587000    1.0339458   -5.5015725    312.44183  0.044355739  0.045635638            4 
  588000    1.0172711   -5.5137685    312.36478  0.044269385  0.045604706            5 
  589000    1.0123276   -5.5189717    313.29731  0.044326162  0.045574085            4 
  590000    1.0247653   -5.4906943    313.14384  0.044229357  0.045542043            4 
  591000    1.0223979   -5.4894349    313.43501  0.044195574   0.04551014            4 
  592000    1.0272476    -5.465248    314.30811  0.044243822   0.04547852            4 
  593000    1.0200707   -5.4882934    314.52794  0.044200104  0.045446555            6 
  594000    1.0061998   -5.4819666    315.93551  0.044323163  0.045414708            3 
  595000    1.0266593   -5.4741154    315.34927  0.044166565  0.045383855            3 
  596000   0.99849882   -5.4429968    316.65657  0.044275248  0.045353024            3 
  597000    1.0095138   -5.4625168    315.39674  0.044025229  0.045321782            6 
  598000    1.0380453   -5.5045987    317.09654   0.04418848  0.045290687            5 
  599000    1.0056119   -5.5244261    316.28913  0.044002383  0.045259543            3 
  600000    1.0014402    -5.450471    317.74824  0.044131701  0.045228555            4 
  601000    1.0276793   -5.4891472    317.32393  0.043999436  0.045197952            3 
  602000     1.001517   -5.5099481    317.71427   0.04398038  0.045167187            8 
  603000    1.0088362   -5.5187501     319.2482   0.04411943  0.045136976            3 
  604000     1.028183   -5.4881561    318.32283  0.043918713  0.045106715            2 
  605000    1.0020165   -5.5172163    317.42449  0.043722382  0.045075779            3 
  606000    1.0040795   -5.4698774    319.12024  0.043883421  0.045044989            5 
  607000    1.0171171   -5.4600559    320.08719  0.043943875  0.045013962            4 
  608000    1.0187852   -5.4750291    320.13974  0.043878802  0.044982856           12 
  609000    1.0076727    -5.498222    318.98258   0.04364841  0.044950826            4 
  610000   0.98947846   -5.5458962    319.36346  0.043628888  0.044919794            4 
  611000    1.0166593   -5.5015826    320.56902  0.043721907  0.044888427            2 
  612000    1.0044442   -5.5084909    320.85984  0.043690066  0.044857792            2 
  613000    1.0164025   -5.4920636    320.56886  0.043579236  0.044827383            3 
  614000   0.99966381   -5.5268102    320.43971  0.043490731  0.044797272            3 
  615000    1.0070504   -5.4750503    321.53192   0.04356801  0.044766488            3 
  616000    0.9833801   -5.5065748    323.10039  0.043709468  0.044736415            5 
  617000   0.99693809   -5.4645923    323.87018  0.043742596  0.044706717            2 
  618000    1.0150964   -5.5190259    324.10508   0.04370349  0.044677133            6 
  619000   0.99646772   -5.5249954    323.82735  0.043595497  0.044647137            3 
  620000    1.0164092   -5.5183653    323.37114  0.043463863  0.044616286            3 
  621000    1.0111929   -5.5065411    324.67645  0.043569035  0.044585983            3 
  622000   0.99382162   -5.5081279    324.87444  0.043525514  0.044556405            4 
  623000   0.98456811   -5.5219694    326.53188  0.043677352  0.044527474            2 
  624000    1.0152436   -5.5142979     325.4476  0.043462553  0.044498055            2 
  625000    1.0060206   -5.5190065    325.81814  0.043442419  0.044468508            2 
  626000    1.0190113   -5.5175777    325.41451  0.043319291  0.044439774            2 
  627000    1.0012345   -5.4942149    328.27255  0.043630057  0.044411072            5 
  628000   0.99509229   -5.5068178    327.46237  0.043453074  0.044382175            5 
  629000    1.0000245   -5.5007502    326.78707  0.043294524  0.044353475            5 
  630000    1.0005199   -5.4903227    329.27878  0.043555395  0.044325261            1 
  631000    1.0073455   -5.5114906     329.7402  0.043547306  0.044297251            2 
  632000   0.98746224   -5.4858831    329.45148  0.043440332  0.044269491            2 
  633000    1.0022842   -5.5327295    329.12901  0.043329253  0.044240732            3 
  634000    1.0019531   -5.5375872    329.71506  0.043337941  0.044212554            2 
  635000   0.99103192   -5.5300692    331.28905  0.043476253  0.044185217            4 
  636000   0.99581783   -5.5281243     331.4698  0.043431577  0.044158144            8 
  637000   0.99852432   -5.5279342     331.6302  0.043384379  0.044130341            3 
  638000   0.99913898   -5.5507127     331.4121  0.043287892  0.044102685            5 
  639000   0.99861907   -5.5211528    332.26464  0.043331331  0.044075301            3 
  640000   0.98819077   -5.5252817    331.88005  0.043213548  0.044048306            3 
  641000   0.99589403   -5.5178591     333.9973  0.043421386  0.044021668           10 
  642000    1.0106595    -5.530101    333.23503  0.043254806   0.04399496            3 
  643000    1.0081727   -5.5423726    334.48454  0.043349473  0.043968162            4 
  644000    1.0214775   -5.5585876    333.89283  0.043205593  0.043941481            4 
  645000    0.9611172   -5.5493694     334.6568  0.043237313  0.043915478            4 
  646000   0.99755375   -5.5149456    336.02764  0.043347218  0.043889137            4 
  647000   0.99132453   -5.5045482     334.6303  0.043100244  0.043862889            3 
  648000   0.99674338   -5.5304412    335.43367  0.043137046  0.043836062            5 
  649000    0.9849815     -5.52886    334.85003  0.042995638  0.043808473            6 
  650000   0.97928866   -5.5662394    333.68926  0.042780674  0.043781325            8 
  651000   0.99469868   -5.5557316    336.71232  0.043101936  0.043754048            8 
  652000   0.98330943   -5.5345745    337.31292  0.043112592  0.043727235            6 
  653000   0.97912372   -5.4996597    337.86346  0.043116827  0.043700172            6 
  654000    1.0145419    -5.547989    336.87861  0.042925409  0.043673146            2 
  655000   0.99400941   -5.5856077    336.49362  0.042810893  0.043645953            5 
  656000   0.99058692   -5.5441541    337.13131   0.04282664   0.04361926            3 
  657000     0.986824   -5.5161915    337.75543  0.042840618  0.043592627            4 
  658000     1.014309   -5.5390645    337.92854  0.042797434  0.043566154            4 
  659000   0.98434035   -5.5327464    339.36362  0.042913963  0.043539662            4 
  660000    1.0028741   -5.5016999     341.1754  0.043077702    0.0435133            2 
  661000    0.9922008   -5.4883411    339.93405  0.042856032  0.043486879            2 
  662000   0.99470363   -5.5292416    340.85028  0.042906632  0.043460041            7 
  663000   0.98007814   -5.5411676    340.45615  0.042792377  0.043433195            4 
  664000   0.99710949    -5.563291    339.68597  0.042631271  0.043406382            5 
  665000   0.97230159   -5.5753606    340.09378  0.042618269  0.043379355            5 
  666000   0.96815834   -5.5285095    341.08758  0.042678626  0.043351955            6 
  667000   0.98586268   -5.5553351    340.61202  0.042555225  0.043324935            3 
  668000   0.98360938   -5.5176391    342.39568  0.042714032  0.043297618           16 
  669000   0.96452734   -5.5596262    340.99488  0.042475695  0.043270873            4 
  670000   0.98929399   -5.5217831     342.9226  0.042652065  0.043243845            6 
  671000   0.99353747    -5.530781    342.46098   0.04253117  0.043216757            2 
  672000   0.99451342    -5.533249     342.8156  0.042511855   0.04318916            3 
  673000   0.97426973   -5.5430478     342.2461   0.04237817  0.043161395            5 
  674000    0.9865571   -5.6021162    342.42047  0.042336853  0.043132983            6 
  675000    1.0002425   -5.5642434    342.28992  0.042258014  0.043104557            4 
  676000   0.99840179    -5.569393    343.50329   0.04234508    0.0430767            8 
  677000   0.99453964   -5.5811036    343.53614  0.042286576   0.04304861            3 
  678000   0.99209016   -5.5434118    344.16983  0.042302093   0.04302111            5 
  679000   0.97600562   -5.5591244    343.44031  0.042150259   0.04299344            6 
  680000   0.97960932   -5.6153412    343.96507  0.042152582  0.042965292            3 
  681000   0.96595117   -5.5643306    344.67653  0.042177744  0.042936511            2 
  682000   0.97282546   -5.5910017     344.0392  0.042038025  0.042908441            4 
  683000   0.95970192   -5.5428447    345.82044  0.042193807  0.042880642            5 
  684000   0.97880919   -5.5673556    345.58379  0.042103288  0.042852477            3 
  685000     0.973103   -5.5202312    345.67573  0.042053008  0.042824104            3 
  686000   0.98815191   -5.5990767    345.28917  0.041944749  0.042795143            5 
  687000   0.97430252   -5.6082224    345.57254  0.041918066  0.042765843            3 
  688000   0.99957683   -5.5635865    344.64627  0.041744945   0.04273656            2 
  689000   0.98709565    -5.569272    346.03244  0.041852012  0.042707771            4 
  690000   0.98015015   -5.5640908    346.28407  0.041821748  0.042678896            5 
  691000   0.96825794    -5.566123    346.88478  0.041833669  0.042649626            6 
  692000   0.99573338   -5.5639493    346.84489  0.041768412  0.042620624            4 
  693000    0.9981291   -5.5745836    348.44837  0.041900958  0.042591655            6 
  694000    0.9805961   -5.5604178    347.41253  0.041716202  0.042562322            7 
  695000   0.96685409   -5.5768037    348.37413  0.041771479  0.042533328            3 
  696000   0.97013826   -5.5639106     348.3061  0.041703316  0.042503761            5 
  697000   0.96528631   -5.6189211    348.70726  0.041691447  0.042474682            3 
  698000   0.96629768   -5.5586316    349.75471   0.04175677  0.042446047            4 
  699000   0.95511684    -5.585763     348.2792  0.041521126  0.042417104            3 
  700000   0.97146709   -5.5928538    350.68362   0.04174805  0.042388532            3 
  701000   0.99005645   -5.5902086    349.82331  0.041586224  0.042360639            4 
  702000   0.97290278    -5.618218     349.9988  0.041547816  0.042333015            8 
  703000   0.97670689   -5.5744161    352.23071  0.041753285  0.042305254            5 
  704000   0.96197966   -5.5818173     350.4389  0.041481878   0.04227762            5 
  705000   0.96184337   -5.5780356    351.85147  0.041590009  0.042250348            7 
  706000   0.95590345   -5.5482203    352.01362  0.041550239  0.042223059            4 
  707000   0.96836243   -5.5655912    353.75002  0.041696137  0.042196137            3 
  708000   0.96380377   -5.5538465     353.8855   0.04165319  0.042169119            2 
  709000   0.97782806    -5.583274     351.3943  0.041301633  0.042141067            4 
  710000    0.9963067   -5.5471804    353.76883  0.041522163  0.042112894            2 
  711000   0.98242135   -5.5858921    353.60159  0.041444162   0.04208529            6 
  712000   0.97869855   -5.5521144    354.08667  0.041442728  0.042057514            2 
  713000   0.97150064   -5.6332194    352.44349  0.041192554  0.042029218            2 
  714000   0.97295817    -5.587339    354.20371  0.041340303  0.042001452            6 
  715000   0.95278434   -5.6203258    353.38394  0.041186939  0.041973748            3 
  716000    0.9942134   -5.5837876    355.71043   0.04140019  0.041946348            3 
  717000   0.96705667   -5.6024277     355.2299  0.041286599  0.041919135            4 
  718000    0.9736066   -5.5857369    355.93203  0.041310589  0.041892192            9 
  719000   0.94754909   -5.6151758    355.77016  0.041234371  0.041865236            3 
  720000   0.97589155   -5.6225774    355.87693   0.04118946  0.041837715            3 
  721000   0.99036101   -5.6063134    356.63735   0.04122022  0.041810563            6 
  722000   0.96005754   -5.5643624    357.87673  0.041306178  0.041783805            3 
  723000    0.9703033   -5.6241232    356.50726  0.041091201  0.041756328            4 
  724000   0.97257955   -5.6043491    355.97378   0.04097304  0.041728769            2 
  725000   0.95519972   -5.5940958    358.51219  0.041208298  0.041701197            9 
  726000   0.95318956   -5.5977602    357.51895  0.041037529  0.041673495            3 
  727000   0.98212142   -5.5674069     359.3058  0.041185901   0.04164613            2 
  728000   0.94245224   -5.6178107    357.75811  0.040952164  0.041619328            7 
  729000    0.9702597    -5.554876    359.16489    0.0410568  0.041592056            2 
  730000   0.95129804   -5.5742736    358.71907  0.040949666  0.041565033            4 
  731000   0.94751927   -5.5530965     359.5298   0.04098607  0.041538382            4 
  732000   0.97367415   -5.6182746    360.09119  0.040993988  0.041511851            4 
  733000   0.94216116   -5.6119723    360.61167  0.040997234  0.041485502            3 
  734000   0.95495375   -5.6121764    360.60048  0.040940109  0.041458779            3 
  735000   0.96584438   -5.6328188    361.77204  0.041017238  0.041432038            4 
  736000   0.96931235   -5.5879332    361.27978  0.040905773  0.041405336            3 
  737000   0.98511948   -5.6043962     361.5063  0.040875882  0.041378901            3 
  738000    0.9728783   -5.6077812     362.2707  0.040906809  0.041351713            6 
  739000   0.97191904   -5.6178477    362.03659  0.040825055  0.041325007            7 
  740000   0.94280081   -5.6043384    361.59886  0.040720592  0.041298211            6 
  741000    0.9445749   -5.6026901    361.67287  0.040673962   0.04127157            6 
  742000   0.96300053   -5.5907925    362.67325  0.040731497  0.041245062            6 
  743000   0.94495355    -5.628058    363.84079  0.040807625  0.041218341            2 
  744000   0.97623516   -5.6253071    363.34883  0.040697673  0.041191939            3 
  745000   0.95288517   -5.5878667    364.35804  0.040755933  0.041165458            3 
  746000   0.97327925   -5.6519946     363.7891  0.040637746  0.041139299            5 
  747000   0.94587488   -5.5988116    363.88203  0.040593711  0.041112998            4 
  748000   0.94298986   -5.5869539    365.46306  0.040715582  0.041087068            5 
  749000   0.94364495   -5.6013788    365.80405   0.04069916  0.041060882            6 
  750000   0.95721342   -5.6275707    364.33926   0.04048214  0.041034346            3 
  751000   0.95407949   -5.6067463    366.42995  0.040660225  0.041007636            3 
  752000    0.9423303   -5.6277314    364.77124  0.040422345  0.040981072            4 
  753000   0.95306267   -5.6221335    366.74808  0.040587436  0.040954431            3 
  754000   0.94950922    -5.618582    366.23181  0.040476549  0.040927655           10 
  755000   0.95563457   -5.6371058    364.69759  0.040253597  0.040901234            3 
  756000   0.96861342   -5.5893947    366.58582   0.04040849  0.040875229            2 
  757000    0.9628279    -5.617706    367.88186  0.040497783  0.040849052            4 
  758000   0.93417987   -5.6545783    367.95087  0.040451942  0.040823215            3 
  759000   0.93327785   -5.6347082    367.40072  0.040338243  0.040796862            8 
  760000   0.94453629   -5.6138608    367.72674  0.040320915  0.040770715            2 
  761000   0.93699098   -5.6452318    367.24191   0.04021484  0.040744699            3 
  762000    0.9524833   -5.5966912    368.69278  0.040320732  0.040718156            5 
  763000   0.96571476   -5.6473412    368.08259  0.040201245  0.040691669            8 
  764000   0.95569169   -5.6306643    367.28511   0.04006164  0.040664991            4 
  765000   0.94821835   -5.6180305    368.30933  0.040120842  0.040638514            3 
  766000   0.94813989   -5.6530015    368.88378   0.04013096  0.040612131            9 
  767000   0.96980451   -5.6099203    370.06779  0.040207279  0.040586174            4 
  768000   0.93420504   -5.6447901    370.19598  0.040168835  0.040560039            3 
  769000   0.96978329   -5.6395997    368.30005  0.039911145  0.040533259            3 
  770000   0.95738236   -5.5912285    371.16628  0.040169511  0.040506307            2 
  771000   0.94623933    -5.677095    369.53549  0.039941147   0.04047979            4 
  772000    0.9360443   -5.6308258    370.30201  0.039972151  0.040453192            5 
  773000   0.96304987   -5.6332106    370.93569  0.039988755  0.040426822            3 
  774000   0.95298599   -5.6315197    371.53404  0.040001512  0.040400625            6 
  775000   0.95422979   -5.6248574    371.09559  0.039902752  0.040374507            5 
  776000   0.95010987   -5.6154552    372.58817  0.040011616    0.0403485            7 
  777000   0.93306933   -5.6417123    372.07251  0.039904817  0.040322008            3 
  778000   0.94771486    -5.644556    372.07268  0.039853544  0.040295558            8 
  779000   0.94359248   -5.6410383    371.65439  0.039757637  0.040269417            6 
  780000   0.96011999    -5.694818    372.14505  0.039759087   0.04024309            3 
  781000   0.95254752   -5.6514764    373.45682  0.039848146  0.040216765            5 
  782000   0.94431239   -5.6886339    372.68623  0.039715071  0.040190716            8 
  783000   0.93927459   -5.6363321    374.55904  0.039863669  0.040165077            4 
  784000   0.93142938   -5.6590766    372.82213  0.039628203  0.040139409            6 
  785000    0.9398261     -5.64769    373.77106  0.039678456  0.040113664            2 
  786000   0.93146707   -5.6732964    373.87319  0.039638803  0.040087904           12 
  787000    0.9390583   -5.6296005    376.18696  0.039833435  0.040061988            6 
  788000    0.9488742   -5.6730127    374.95281   0.03965237  0.040036185            4 
  789000   0.94208857   -5.6821811    375.87167  0.039699162  0.040010435            3 
  790000   0.93343575   -5.6938998    375.10196  0.039567717  0.039984713            5 
  791000   0.94426511   -5.6828378    373.69733  0.039369714  0.039958785            4 
  792000   0.94845813   -5.6542378     376.5721  0.039622485  0.039932743            4 
  793000   0.94458937   -5.6268772     376.7947  0.039595913  0.039906831           11 
  794000   0.92139672   -5.6704186    376.59756  0.039525353  0.039881229           10 
  795000   0.94575036   -5.6645407    376.52236  0.039467753  0.039855237            3 
  796000   0.94447749   -5.6405649    377.05793  0.039474239  0.039829325            3 
  797000   0.93502902   -5.6607732     377.4298  0.039463593   0.03980352            6 
  798000   0.93835864   -5.6765585    378.64753  0.039541304  0.039777389            8 
  799000   0.93444764   -5.6301583    377.92344  0.039416295  0.039751125            4 
  800000    0.9366948   -5.6999894    377.45236  0.039317954  0.039724817            4 
  801000   0.92300993   -5.6343086    377.96309  0.039322003  0.039698656            4 
  802000   0.90326289   -5.6648283    377.96624    0.0392733  0.039672546            4 
  803000   0.92830435   -5.6890581     377.6682  0.039193462  0.039646771            4 
  804000    0.9408957   -5.6778217    377.28872  0.039105381  0.039620401            4 
  805000   0.92635317   -5.6746016    378.37231  0.039168976  0.039594077            7 
  806000    0.9292379   -5.6497961    379.53756  0.039240856  0.039568273            6 
  807000   0.93652457   -5.6622192    380.28804  0.039269727  0.039542397            4 
  808000   0.93899339   -5.6664738    379.35083  0.039124466  0.039516878            3 
  809000    0.9174782   -5.6498471    378.90926   0.03903062  0.039490843            2 
  810000   0.93755265   -5.6701104    380.93607  0.039190954   0.03946499           13 
  811000   0.92781863   -5.6763611    380.73729  0.039122204   0.03943909            2 
  812000   0.93567536   -5.6824354    379.93351  0.038991534  0.039413155            6 
  813000   0.91840913   -5.6376562    381.60138  0.039114533  0.039387302            4 
  814000   0.92004492   -5.6620764    380.66915  0.038971043  0.039361696            5 
  815000   0.92824925   -5.6848999    381.93829  0.039052995  0.039335392           10 
  816000   0.93543529   -5.6574242    382.90352  0.039103709   0.03930971            4 
  817000   0.91756848   -5.6665627    380.82428  0.038843765  0.039283968            4 
  818000   0.93039064   -5.7038492    381.20127  0.038834686  0.039257754            4 
  819000   0.93726638   -5.6845936    381.20914  0.038788069  0.039231767            4 
  820000    0.9049928   -5.6838114     382.5437  0.038876392   0.03920597           20 
  821000   0.90873758   -5.6864177    383.79815   0.03895637  0.039180079            5 
  822000    0.9284774    -5.692514    382.42348  0.038769615  0.039154004            2 
  823000   0.94100008   -5.6854404    382.85927  0.038766633  0.039127917           13 
  824000   0.91796001   -5.7010431     383.5071  0.038785103  0.039101946            6 
  825000   0.92795983   -5.7068939    383.00269   0.03868714  0.039075902            5 
  826000   0.93072653   -5.6953853    382.80444  0.038620303  0.039050087            5 
  827000   0.92245068   -5.7044812    383.67795  0.038661623  0.039024248            4 
  828000   0.90966489   -5.6944785    384.89606  0.038737527  0.038998207            5 
  829000   0.92883102   -5.6642775    385.38111  0.038739557  0.038972497            4 
  830000   0.94072568    -5.723184    384.77779  0.038632308   0.03894669            4 
  831000      0.90995     -5.67658     385.5376  0.038662014  0.038920845            5 
  832000   0.94924938   -5.6922026    384.18398  0.038479966  0.038895046            5 
  833000   0.92390984   -5.6938004    385.59963  0.038575393  0.038869495            4 
  834000   0.92249461   -5.7137946    384.36968  0.038406243  0.038843992            3 
  835000   0.92197582   -5.7095115    385.84259  0.038507245  0.038818144            5 
  836000   0.88563478   -5.7056004    386.37973  0.038514726  0.038792556            7 
  837000   0.92223596   -5.6549096     387.0063  0.038531093  0.038767252            3 
  838000   0.92812109   -5.7012313    386.57506  0.038442229  0.038741991            4 
  839000   0.94407127   -5.6927319    387.17442  0.038455942  0.038716795            6 
  840000   0.92748306   -5.6975766    386.96228  0.038389115  0.038691497            4 
  841000   0.93146389   -5.7091917    388.53311  0.038499119  0.038666216            5 
  842000   0.92663688   -5.7140135    386.76882  0.038278783  0.038641177            7 
  843000   0.93118436   -5.7157352    388.41498  0.038396103  0.038616031            3 
  844000   0.90119053   -5.7044852    387.69649   0.03827967  0.038590823            3 
  845000   0.91299464   -5.7233333    388.92663  0.038355683   0.03856556            8 
  846000   0.93614205   -5.7258078    388.50265  0.038268583  0.038540154            3 
  847000   0.91001001   -5.6926536    389.59814  0.038331183  0.038515049            3 
  848000   0.90045883   -5.7248826    387.75056  0.038104418  0.038489631            4 
  849000   0.90131206   -5.7147391    389.38353   0.03821982  0.038463968            7 
  850000   0.91733122   -5.7068474    390.59474  0.038293602  0.038438482            3 
  851000   0.90632132    -5.708287    390.22322  0.038212223   0.03841334            5 
  852000    0.9339161   -5.7036494    389.70183  0.038116376  0.038388366            4 
  853000   0.93804433   -5.7178062      390.495  0.038149179  0.038362939            5 
  854000   0.89181332   -5.7250149    389.81595  0.038038247  0.038337807            5 
  855000   0.91814066   -5.6953674    393.65759  0.038368187  0.038312905            4 
  856000   0.90248916   -5.7144629    391.76308  0.038138929  0.038288501            5 
  857000   0.91705252   -5.7358151    391.26897   0.03804638  0.038263795            5 
  858000   0.89992977   -5.7048845    392.13884  0.038086523  0.038239103            7 
  859000   0.93276211   -5.7456552    391.31721  0.037962477  0.038214403            3 
  860000   0.91789546   -5.7264567    392.03804  0.037988182  0.038189772            4 
  861000   0.91886556   -5.7271951     393.8114  0.038115698  0.038165082            5 
  862000   0.90688623   -5.7046445    394.08669  0.038098095  0.038140559            4 
  863000   0.92432424   -5.6790181    395.04445  0.038146432  0.038116419            4 
  864000   0.90695839    -5.738324    392.73221  0.037879265  0.038092372           13 
  865000   0.92651263   -5.7041207    395.22438  0.038075566   0.03806821            5 
  866000    0.9103526   -5.7078115    394.73006  0.037984032  0.038043759            4 
  867000   0.93251981   -5.7286584    393.15203  0.037788546  0.038019515            6 
  868000   0.90344348   -5.7303435    395.33052  0.037954159  0.037994988            4 
  869000   0.89281524   -5.7365346    394.83976  0.037863422  0.037970769            3 
  870000   0.90896529   -5.7042779    396.60016  0.037988521  0.037946679            3 
  871000   0.91929408   -5.7472807    395.11763  0.037803065  0.037922766            3 
  872000   0.91484813   -5.7669338    395.18034  0.037765705  0.037898306            4 
  873000   0.92454406    -5.733609    395.73058   0.03777497  0.037873884            5 
  874000   0.91639237   -5.7275953    395.76416  0.037734951  0.037849484            4 
  875000   0.91554588   -5.7421747    396.46438  0.037758512  0.037825416            5 
  876000   0.90635669   -5.7210502    396.71067  0.037738839  0.037800793            3 
  877000   0.91301459   -5.7280448    396.29498  0.037656307  0.037776222            6 
  878000   0.91602074   -5.7639903    395.80687  0.037567091  0.037751299            9 
  879000   0.90723776   -5.7543179    397.31691  0.037667511  0.037726801            4 
  880000   0.92510242   -5.7338605    397.09167  0.037603378  0.037702465            5 
  881000   0.90324006   -5.7176291    397.36091  0.037586163  0.037678486            7 
  882000   0.89316396   -5.7283093    397.85344  0.037590083  0.037654808            5 
  883000   0.89554249   -5.7207888    397.42772  0.037507335  0.037630724            3 
  884000   0.88919086   -5.7361385     399.1829  0.037630364  0.037606636            8 
  885000    0.9057484   -5.7626556    397.64508  0.037443039   0.03758245            4 
  886000   0.92668743   -5.7423428    398.05609  0.037439437  0.037558109            5 
  887000   0.90432937   -5.7491101    398.28519  0.037418751  0.037533975            9 
  888000   0.90866474   -5.7616164    400.22507  0.037558659  0.037509977            8 
  889000   0.90099617   -5.7508457    399.67985  0.037465303  0.037485886            5 
  890000    0.8656564   -5.7364372    399.09061  0.037368035   0.03746188            4 
  891000    0.9042742   -5.7416679    401.21002  0.037524319  0.037437978            4 
  892000   0.89336226   -5.7629065    398.77671  0.037254924  0.037413957            4 
  893000   0.88837103    -5.769215    400.53873  0.037377634  0.037389695            5 
  894000   0.91634785   -5.7666646    399.77861  0.037264971  0.037365438           11 
  895000   0.89064333   -5.7510926    400.64036  0.037303572  0.037341497            3 
  896000   0.90723617   -5.7287079    402.13737  0.037401169  0.037317376            7 
  897000   0.91739712   -5.7225718    401.21327  0.037273622  0.037293431            9 
  898000   0.89806964   -5.7300214      400.836  0.037197104  0.037269321            6 
  899000   0.89144425   -5.7371214    401.66094  0.037232196  0.037245439           16 
  900000   0.89313222    -5.762518    400.56714   0.03708955  0.037221364            5 
  901000   0.89839739   -5.7760025    400.55127  0.037046917  0.037197254            8 
  902000   0.87392513   -5.7845557     401.3402  0.037078733  0.037173172            3 
  903000   0.90666553   -5.7481321    402.29254  0.037125557  0.037149233           10 
  904000   0.91060025   -5.7464782    402.80761   0.03713197  0.037125255            4 
  905000    0.9037832   -5.7767897    401.43289  0.036964355   0.03710105            9 
  906000   0.89803656   -5.7693462    402.52128  0.037023664  0.037076691            3 
  907000   0.87718772   -5.7478097    403.32609  0.037056789  0.037052345            6 
  908000   0.91659202   -5.7377827    403.47479  0.037029625  0.037028224            4 
  909000   0.89372341   -5.7415377    403.70225  0.037009741  0.037004558            6 
  910000   0.88428588   -5.7534271    404.01718   0.03699791  0.036980779            6 
  911000   0.87933069   -5.7663599    403.62647  0.036921558  0.036956766            9 
  912000   0.90151231   -5.7668573    405.20542  0.037025349  0.036933128            2 
  913000   0.87407776   -5.7520064    404.56612  0.036926444  0.036909281            6 
  914000   0.89909769   -5.7724104    405.05859  0.036930944  0.036885315            5 
  915000    0.8923407   -5.7567787    403.71864  0.036768547  0.036861464            4 
  916000   0.87278598   -5.7769809    404.40751  0.036791076  0.036837495            6 
  917000   0.88963649   -5.7590957    405.41071  0.036842122  0.036813854            9 
  918000   0.87758217   -5.7629721     405.1004   0.03677382   0.03679001            7 
  919000   0.89410475   -5.7538694    405.53327  0.036773057  0.036766181            7 
  920000   0.88665208   -5.7753699    406.32925  0.036805185  0.036742352            7 
  921000   0.88673921   -5.7795684    405.66084  0.036704745  0.036718235            3 
  922000   0.89472435   -5.7604939    405.95983  0.036691958  0.036694563            4 
  923000   0.87926106   -5.7669287     406.9239  0.036739247  0.036670922            3 
  924000   0.88844022    -5.772743     407.3776  0.036740404  0.036647717            7 
  925000   0.88546258   -5.7769758    406.80383  0.036648993  0.036624683            8 
  926000    0.8953517   -5.7826666    407.16201  0.036641649  0.036601668            6 
  927000   0.88162178   -5.7600211    408.52117  0.036724305   0.03657863           12 
  928000   0.87158682   -5.7880682    408.68861  0.036699768  0.036555446            8 
  929000    0.8766881   -5.7664695    408.48393  0.036641903  0.036532299            5 
  930000   0.87923129   -5.7948556     409.4868  0.036692366  0.036509526           16 
  931000   0.88410801   -5.7653307    409.01614  0.036610825  0.036486888            4 
  932000    0.8835398   -5.7663546    408.98272  0.036568555  0.036464165            5 
  933000    0.9011486     -5.81181    407.89265  0.036431998   0.03644108            5 
  934000    0.8663605   -5.8179163    409.12989  0.036503381  0.036418014            8 
  935000    0.8920021    -5.786444    408.57108  0.036414535  0.036394526            5 
  936000    0.8878152   -5.8039381    408.36714  0.036357474  0.036371794            4 
  937000    0.8823178   -5.7820943    410.75963   0.03653145  0.036348749            7 
  938000   0.86519234   -5.8153113    409.69111  0.036397575  0.036325761            5 
  939000   0.88887259   -5.7980914    410.26141  0.036409425  0.036302729            4 
  940000   0.89118889   -5.7843232    411.49637  0.036480174  0.036280076            4 
  941000   0.86481826   -5.8118782    410.32004  0.036337234  0.036257226            9 
  942000   0.87731747   -5.7937844    411.63886  0.036415327   0.03623481            5 
  943000   0.86609272   -5.7768345    411.87136  0.036397257  0.036212502            3 
  944000   0.88199156   -5.7898824    411.42321  0.036319139  0.036189897            4 
  945000   0.87936857    -5.790017    413.14303  0.036432366  0.036167359            5 
  946000   0.88843454   -5.7801066     411.9702  0.036290539  0.036144801            5 
  947000   0.87474224   -5.7781019    413.36081  0.036374587  0.036122543            7 
  948000   0.87998247   -5.8231592     411.9523  0.036212403  0.036099782            8 
  949000    0.8816846   -5.8139118    412.41296  0.036214696  0.036077102            3 
  950000    0.8815418   -5.8069344    413.29343  0.036253809  0.036054489            5 
  951000    0.8624796   -5.7958373    414.57914  0.036328351  0.036032156            5 
  952000   0.85766157   -5.8121325    413.39896  0.036186884  0.036010068            4 
  953000   0.86312247   -5.7834799      413.625  0.036168678  0.035987894            7 
  954000   0.88277784   -5.8074266    415.01342  0.036252046  0.035965911            9 
  955000   0.88307851   -5.8447266    413.53756  0.036085301  0.035943358            6 
  956000   0.87740588   -5.8159854    414.15108  0.036101035  0.035920954            7 
  957000   0.84959881   -5.8052284    414.32351  0.036078327  0.035898409            7 
  958000   0.87807877   -5.8266863    412.56302  0.035887528   0.03587592            4 
  959000   0.88748265   -5.8386978    413.92562   0.03596851  0.035853424            4 
  960000   0.89344853   -5.8115677    414.75007   0.03600261  0.035830904            5 
  961000   0.88596542   -5.8179035    414.26008  0.035922657  0.035808311            8 
  962000   0.88782378   -5.8213125    415.39172  0.035983344  0.035785662            9 
  963000   0.89469821   -5.8335351     415.1694  0.035926739  0.035762743           10 
  964000   0.85231301   -5.8098146    416.45299  0.036000431  0.035740074            6 
  965000   0.86374462   -5.7850715     415.9866   0.03592285  0.035717248            5 
  966000   0.85618052   -5.8208841    415.48526  0.035842414  0.035694559           10 
  967000   0.86523111    -5.856414     415.7683   0.03582974   0.03567191            7 
  968000   0.86016328   -5.8044884    416.57357   0.03586205  0.035649385            4 
  969000   0.87478946   -5.8355801    415.94135   0.03577067  0.035626892            9 
  970000   0.87772931   -5.8265466    416.36037  0.035769791  0.035604254            6 
  971000   0.85314778   -5.8327368    415.86043  0.035690047  0.035581396            4 
  972000   0.85855147   -5.8238495    416.05947  0.035670393  0.035558839            4 
  973000   0.87415033   -5.8594884    416.81988  0.035698859  0.035535994            8 
  974000   0.86515607   -5.8311207    417.18395  0.035693356  0.035513385            4 
  975000   0.84570399   -5.8291421    416.57851  0.035605001  0.035490724            5 
  976000   0.85543744   -5.8265458    417.40392  0.035638996  0.035468257            8 
  977000   0.85923383   -5.8604446    417.74168  0.035631327  0.035445712            5 
  978000   0.85283364    -5.840908    417.60938  0.035583621  0.035423288            5 
  979000   0.84751402   -5.8334222    418.35822  0.035611017  0.035400449            4 
  980000    0.8504413   -5.7946806     418.4937  0.035586199  0.035377795            6 
  981000   0.86572903   -5.8300889    417.31776  0.035450031  0.035355228            7 
  982000    0.8609199   -5.8196094    418.67274  0.035528916  0.035332789            8 
  983000   0.85024689    -5.837403    419.27945  0.035544206  0.035310441            4 
  984000   0.85894309   -5.7941338    418.65761   0.03545542  0.035287959            3 
  985000   0.85427275   -5.8585945    419.31813  0.035475307  0.035265809            5 
  986000   0.87070896   -5.8361076    420.52138  0.035541022  0.035243497            4 
  987000   0.86138815   -5.8614369    418.54633  0.035338258  0.035220805           12 
  988000   0.87136459   -5.8732273    419.97242  0.035422775  0.035198147            7 
  989000   0.85738412    -5.810911    421.06889  0.035479347  0.035175622            7 
  990000   0.85165834   -5.8323536    420.42253  0.035389101  0.035153352            6 
  991000   0.86241161   -5.8527012    420.16642  0.035331855  0.035130802            4 
  992000   0.85128038   -5.8481861    420.42643  0.035318081  0.035108236            7 
  993000    0.8546732   -5.8289101    421.39966  0.035364188  0.035085734           11 
  994000   0.84740813   -5.8390722    422.17626  0.035393717  0.035063451            5 
  995000   0.84481852   -5.8040539    421.76391   0.03532361  0.035040929            8 
  996000   0.84305169   -5.8471849    421.36944  0.035255141  0.035018621            8 
  997000    0.8649272   -5.8332423    422.06273  0.035277728  0.034996273            7 
  998000   0.85450061   -5.8545636    422.89429  0.035311815  0.034973982            5 
  999000   0.87046469   -5.8726058    421.84509  0.035188946  0.034951873            6 
 1000000    0.8545295    -5.833777    421.67488  0.035139573  0.034929837            3 
 1001000   0.82989166   -5.8140641    422.00687  0.035132107  0.034907702            6 
 1002000   0.84622805   -5.8867815    421.76254  0.035076725  0.034885462           10 
 1003000   0.85891512   -5.8611688    422.75591  0.035124287  0.034863344            7 
 1004000   0.84417298   -5.8537622    424.01529  0.035193832  0.034841312            4 
 1005000   0.84863095   -5.8439129    423.81599  0.035142288  0.034819295            5 
 1006000   0.87351666   -5.8622801    422.91382  0.035032623  0.034797284            5 
 1007000   0.86776329   -5.8460541    423.77195  0.035068847  0.034775451            5 
 1008000   0.84586919   -5.8677183    423.30089  0.034995113  0.034753468            4 
 1009000   0.85520848   -5.8200908    424.94008  0.035095811  0.034731558            7 
 1010000   0.85295971   -5.8436045    424.04835  0.034987488  0.034709872            6 
 1011000   0.83560441   -5.8547879    424.28205  0.034972144  0.034687802            8 
 1012000   0.83637104    -5.846236    425.00251  0.034996913  0.034665952            7 
 1013000   0.83896619   -5.8424621    424.55622  0.034925652  0.034644088            4 
 1014000   0.85485584   -5.8639132    425.88001  0.035000001  0.034621935            7 
 1015000   0.86074185   -5.8627254    424.13493  0.034822244  0.034599734            6 
 1016000   0.83800815   -5.8982815    423.63417  0.034746897  0.034577497           16 
 1017000   0.85400589   -5.8693785    423.82894  0.034728691  0.034555073            4 
 1018000   0.82170901    -5.854221    425.40983  0.034823987  0.034532989            5 
 1019000   0.85030416    -5.865537    424.78648  0.034738836   0.03451075            7 
 1020000   0.84569619   -5.8482567    426.45346  0.034840969  0.034488414            7 
 1021000   0.83207199   -5.8629747    425.12935  0.034698772  0.034466227           11 
 1022000   0.84860051   -5.8852995    425.18269  0.034669169  0.034443943            4 
 1023000   0.83892808   -5.8951443    424.70706  0.034596535  0.034421613            3 
 1024000   0.82409217   -5.8762244    425.59491  0.034635002  0.034399217            8 
 1025000   0.85683303   -5.8937213    425.34523  0.034580913  0.034376693            6 
 1026000   0.83049575   -5.8522272    426.22463  0.034618635   0.03435428           15 
 1027000   0.83149139   -5.8625311    425.44139  0.034521372  0.034332054            4 
 1028000   0.83517087   -5.8609139    425.67149  0.034506444  0.034309826            3 
 1029000   0.85760053   -5.8787464    426.26143  0.034520686   0.03428726           11 
 1030000   0.84772416   -5.8751038    425.61443  0.034434824  0.034264882            6 
 1031000   0.82472458   -5.9225169    426.26523  0.034454028  0.034242399            4 
 1032000   0.84178013   -5.8886745    426.44559  0.034435206  0.034220018            4 
 1033000    0.8439078   -5.8932969    425.93098  0.034360357  0.034197569            8 
 1034000   0.82635231   -5.8610864    426.50499  0.034373387  0.034175408            6 
 1035000   0.84506862   -5.8990369    427.22686  0.034398298  0.034153139            3 
 1036000   0.85220856   -5.8830831    426.45261  0.034302816  0.034130807            8 
 1037000   0.82319445   -5.9261076    426.44758  0.034269333  0.034108369            6 
 1038000    0.8412728   -5.8948555    427.47432  0.034318747  0.034086234            3 
 1039000   0.82331776   -5.8737244    429.40871  0.034440865  0.034064161            5 
 1040000   0.83653976   -5.8844458    427.84331  0.034282316  0.034042235            8 
 1041000   0.82885391   -5.8738172    428.37522  0.034291964  0.034020041           10 
 1042000   0.82683233   -5.8872334    427.97027  0.034226669  0.033997997            4 
 1043000   0.83786802   -5.8699945    430.03447  0.034358778  0.033975974            4 
 1044000   0.85016515   -5.8875747    429.42052  0.034276861  0.033953863            6 
 1045000   0.82705797   -5.9006043      428.698  0.034186443  0.033932116            4 
 1046000   0.85102129   -5.8826098    428.74205   0.03415727  0.033910162            4 
 1047000   0.84563225   -5.8941216    428.38344  0.034096104  0.033888122            4 
 1048000   0.82110861   -5.8982652    429.46267  0.034149385  0.033865996            4 
 1049000   0.82452116   -5.8909767    431.01991   0.03424054   0.03384429            5 
 1050000   0.82967754   -5.9064003    429.70738   0.03410376    0.0338226            5 
 1051000   0.83369063   -5.9305208    429.16976  0.034028684   0.03380061           12 
 1052000    0.8264942   -5.9109802    430.10621  0.034070517  0.033778641            7 
 1053000   0.83641454   -5.9135032    428.78277  0.033933426  0.033756653            5 
 1054000   0.85237192    -5.935764    429.60037  0.033965873  0.033734264           10 
 1055000   0.81185767   -5.9023406    430.22381  0.033982924  0.033712166            4 
 1056000   0.83186027   -5.9084609    429.79858  0.033917186  0.033690105            6 
 1057000    0.8359328   -5.8927621     432.5524  0.034102208  0.033668247            9 
 1058000   0.83137316   -5.9141046    430.33597  0.033895398  0.033646376           12 
 1059000   0.83246266    -5.931224    431.11737  0.033924879   0.03362465            6 
 1060000   0.82076527   -5.9136049    432.02403  0.033964154  0.033602969            8 
 1061000   0.83754264   -5.9016768    430.61602  0.033821553  0.033581157           11 
 1062000   0.85059587   -5.8791387     432.6615  0.033950211  0.033559421           10 
 1063000   0.82335625   -5.8955823    432.00854  0.033867085  0.033537847            4 
 1064000   0.83469259   -5.9119149    432.36182  0.033862925  0.033516119            7 
 1065000   0.83643876   -5.8996639    432.43282  0.033836684   0.03349478           10 
 1066000   0.82255208   -5.9175731    433.20471  0.033865283  0.033473491            9 
 1067000    0.8259599   -5.9314874    432.85091  0.033805913  0.033451937            4 
 1068000   0.84615847   -5.9118676    432.61689  0.033755999  0.033430391            7 
 1069000   0.82122744   -5.9088001    432.43188      0.03371   0.03340887            5 
 1070000    0.8272411   -5.9014089     433.6274  0.033771604  0.033387248            5 
 1071000   0.83275152    -5.909638    434.23622  0.033787443  0.033365668            8 
 1072000   0.81184083   -5.9209241    434.13786  0.033748279  0.033344026            4 
 1073000   0.82190106   -5.9226327     434.0642  0.033711106  0.033322569           12 
 1074000   0.82437235   -5.9373634    433.87354  0.033664924     0.033301            5 
 1075000   0.84671465    -5.903375    434.57115  0.033687686  0.033279339            6 
 1076000   0.81855906   -5.9028671    434.75228  0.033670406  0.033257782           10 
 1077000   0.83371865   -5.9222963    434.23235  0.033598913  0.033236303            6 
 1078000   0.84485993    -5.895147    435.36603  0.033655383   0.03321503            5 
 1079000   0.80064746   -5.8923505    435.04464   0.03359937  0.033193911            7 
 1080000   0.82014687   -5.8878516    434.51179  0.033527144  0.033172709            9 
 1081000   0.81150231   -5.9090323    436.02482  0.033612768  0.033151553           14 
 1082000   0.83951463   -5.9613844    434.72221  0.033481378  0.033130111            4 
 1083000   0.82113215   -5.9365443    435.00602    0.0334723  0.033108542           12 
 1084000   0.80660717   -5.9541918     434.1515  0.033375731  0.033086633            6 
 1085000   0.81708993   -5.9136273    435.08534  0.033416693  0.033064747            7 
 1086000   0.82723994   -5.9158177    435.10141  0.033387155  0.033043259            7 
 1087000    0.8138537   -5.9237023    436.14041  0.033436094  0.033021546            3 
 1088000   0.81070544   -5.9073242    435.64595   0.03336749   0.03300016           12 
 1089000   0.80150993   -5.8882329    436.10992  0.033372354  0.032978841           14 
 1090000   0.80422391   -5.9308074    436.29457  0.033355854  0.032957418           23 
 1091000   0.82783205   -5.9206566     436.4134  0.033334357  0.032935763            5 
 1092000   0.82107658   -5.9417698    434.90518  0.033188734  0.032914063            8 
 1093000   0.81118773   -5.9574463      434.514  0.033128545  0.032892218            6 
 1094000   0.81632901   -5.9346975    436.67109  0.033262576  0.032870466            7 
 1095000   0.81404611   -5.9183609    437.19963  0.033272423  0.032849144            8 
 1096000   0.81035792   -5.9321649    437.64229  0.033275722  0.032827785            5 
 1097000   0.80148675   -5.9640593    436.13793   0.03313111  0.032806362           11 
 1098000   0.80214592   -5.9591003    435.75366  0.033071772  0.032784776            8 
 1099000   0.81386334    -5.962609    436.67006  0.033111166  0.032763008           10 
 1100000   0.82102604   -5.9437344     437.3483  0.033132447  0.032741442            7 
 1101000   0.82783437   -5.9831632    437.32312  0.033100448  0.032720044           12 
 1102000   0.80538929   -5.9567303    437.54264  0.033087011  0.032698618            5 
 1103000   0.80594608   -5.9522705    436.47282  0.032976188  0.032677354            4 
 1104000   0.81800926   -5.9526098    437.49066  0.033023147  0.032656021            4 
 1105000   0.80094272   -5.9268739    437.63122  0.033003863  0.032634601            6 
 1106000   0.80310815   -5.9619885    438.18471  0.033015726  0.032613495           10 
 1107000   0.81052507    -5.934733    437.59602  0.032941585  0.032592451            7 
 1108000   0.80265746   -5.9623405    439.04035  0.033020484  0.032571318           10 
 1109000   0.80069797   -5.9546637    438.04702  0.032916067  0.032550206           12 
 1110000   0.82220825    -5.929132    440.39094  0.033062383  0.032529126            6 
 1111000   0.79167568   -5.9307975    439.84118  0.032991387  0.032508084            7 
 1112000   0.80330195   -5.9736597    439.75579   0.03295532  0.032486962           13 
 1113000   0.81902975   -5.9685379    437.57719  0.032762593  0.032465527            5 
 1114000   0.81382836   -5.9751007    439.69631  0.032891705  0.032444262            4 
 1115000   0.80963035   -6.0005541    438.53148  0.032775148  0.032422987            8 
 1116000   0.82549246   -5.9444826    440.22655  0.032872353  0.032401721            6 
 1117000   0.80801493   -5.9605155    439.86148  0.032815688  0.032380497            4 
 1118000   0.79083893   -5.9768837    439.84784  0.032785319  0.032359512            5 
 1119000    0.8203056   -5.9568125    440.32119  0.032791271  0.032338305            6 
 1120000   0.80553638   -5.9379705    440.54665  0.032778769  0.032317291            9 
 1121000   0.79942189   -5.9824897    439.37702   0.03266258  0.032296296            9 
 1122000   0.81417468   -5.9767245    440.32154   0.03270362  0.032275214            6 
 1123000   0.79225017    -5.943611     441.2559  0.032743834  0.032254091            6 
 1124000    0.8025639   -5.9841992    439.49887  0.032584435  0.032233049            6 
 1125000   0.79664021   -5.9365117    442.26142  0.032760105  0.032211982            8 
 1126000   0.79211052    -5.988933    441.23461  0.032655019  0.032191107            7 
 1127000   0.78920421   -5.9405999    442.05104  0.032686413  0.032170165           17 
 1128000   0.81414758   -5.9578849    442.11921  0.032662471  0.032149106            6 
 1129000   0.79460534   -5.9805643    441.19442   0.03256528  0.032127935            3 
 1130000   0.81369854    -5.983776    439.88748   0.03244008  0.032106738            7 
 1131000   0.81195775   -5.9686993      440.591  0.032463233  0.032085562           10 
 1132000   0.79292319   -5.9644746    441.66133  0.032513349  0.032064292            4 
 1133000   0.81277577   -5.9612791      441.214   0.03245175  0.032043056            5 
 1134000   0.79454197   -5.9728889    441.97107  0.032478768  0.032021977            4 
 1135000   0.79303732   -5.9807072    441.37268  0.032406218  0.032000979            4 
 1136000   0.79620532   -5.9845123    441.85169   0.03241283  0.031979861            3 
 1137000   0.81215805   -5.9847471    442.18641  0.032408854  0.031958988            7 
 1138000   0.78505303    -5.976656    440.75236  0.032275363  0.031938221            5 
 1139000   0.80080457   -5.9748801    441.62612  0.032310954  0.031916975            8 
 1140000   0.80726047    -5.998162    442.15284  0.032321114  0.031895752            4 
 1141000   0.80615155   -6.0045421    442.39879   0.03231075  0.031874816           11 
 1142000   0.79973112   -5.9888977    442.68381  0.032303255  0.031853718           10 
 1143000   0.79731119   -5.9831711    441.96365  0.032222488  0.031832724            5 
 1144000    0.8098571   -6.0205788    441.77069  0.032180266  0.031811416            4 
 1145000   0.79243663   -6.0114081     443.1217  0.032250488  0.031790124           12 
 1146000   0.79602171   -5.9970944    442.47772  0.032175518  0.031768635           12 
 1147000   0.82360644   -6.0051907    441.71748  0.032092232  0.031747149            8 
 1148000   0.77705604   -5.9977612    443.25295  0.032175737  0.031725716            4 
 1149000   0.79453036   -5.9792156    443.55649  0.032169748  0.031704374            5 
 1150000   0.79518818   -6.0329981    441.32801  0.031980291  0.031683071            5 
 1151000   0.77986445   -6.0093914    443.01131  0.032074378  0.031661876            4 
 1152000   0.78915993   -6.0086404    443.08841  0.032052113  0.031640711            5 
 1153000   0.78893181   -6.0339833    442.10144  0.031952981   0.03161963           15 
 1154000   0.79891263   -5.9796131    443.78609  0.032046945  0.031598493            5 
 1155000   0.78257445   -6.0194696    443.10937  0.031970373  0.031577426            9 
 1156000   0.79753684   -5.9866439    443.24267  0.031952326  0.031556413            7 
 1157000   0.78272454   -5.9872659    444.01275  0.031980175  0.031535652            8 
 1158000   0.78771468   -5.9838042    446.69595   0.03214565  0.031515186            5 
 1159000   0.79299885   -5.9972164    445.30715  0.032018058  0.031494682            6 
 1160000   0.79342562   -6.0090338    445.62839  0.032013534  0.031473983            7 
 1161000   0.80751532   -6.0055789    445.97629  0.032010931  0.031453325           11 
 1162000   0.78449185   -6.0019509    445.48671  0.031948272  0.031432637            5 
 1163000   0.78115716   -6.0287956     445.0044  0.031886242  0.031411868           26 
 1164000   0.79202824   -6.0171006    444.29745  0.031808237  0.031391046            9 
 1165000   0.78836067   -6.0219941    445.46267  0.031864283  0.031370307            9 
 1166000   0.77525542   -5.9969437     446.2745  0.031894975  0.031349547            4 
 1167000    0.7859813   -6.0278286     444.9606  0.031773822  0.031328922            5 
 1168000   0.78785507   -5.9728269     446.4714  0.031854409  0.031308284            8 
 1169000   0.78241011   -6.0327211    445.30654  0.031744121  0.031287576           11 
 1170000   0.79037648   -6.0242413    445.06296  0.031699641   0.03126663            5 
 1171000   0.76265492     -6.02482    444.40601  0.031625819  0.031245738            3 
 1172000   0.78550537   -6.0327072    444.57638  0.031610949  0.031224804            8 
 1173000   0.79796769   -6.0433524    444.92539  0.031608794  0.031203884            7 
 1174000   0.78399612   -6.0132328    446.20196  0.031672484  0.031183064           10 
 1175000   0.77644373   -6.0244416    445.91562  0.031625221  0.031162135           11 
 1176000   0.78703471   -6.0224569    445.60588   0.03157638  0.031141143            4 
 1177000   0.77259629   -6.0325809    444.30195  0.031457232  0.031120088            7 
 1178000   0.78694786   -6.0248654    446.13137  0.031559944  0.031099121            5 
 1179000   0.77626252   -6.0014522    447.53721  0.031632543  0.031078437            7 
 1180000   0.78730024    -6.013658    446.76602  0.031551272  0.031057623           11 
 1181000   0.78322432   -6.0204435    447.07998   0.03154671  0.031036911            5 
 1182000    0.7880319    -6.037333    447.58069  0.031555322  0.031016199            4 
 1183000    0.7950758   -6.0615848    446.49048  0.031451851  0.030995147            6 
 1184000   0.79399859   -6.0267935    446.21072  0.031405597   0.03097418            7 
 1185000   0.77109572   -6.0098877    446.59726  0.031406277  0.030953119           10 
 1186000   0.75913888   -6.0220416    444.93916  0.031263291  0.030932226           14 
 1187000   0.78584114   -6.0272874    446.47556  0.031344816  0.030911116           17 
 1188000   0.76691848   -6.0214256    447.30507  0.031376618  0.030890203            4 
 1189000   0.75631229   -6.0433143    446.25532  0.031276655  0.030869263            7 
 1190000   0.77976772   -6.0368027     447.0313  0.031304713  0.030848289           12 
 1191000    0.7829416    -6.052464    447.58973  0.031317502  0.030827252            5 
 1192000   0.75910264    -6.054694    447.46352  0.031282405  0.030806183            9 
 1193000   0.77292382   -6.0540439    447.33214  0.031247006  0.030785199           11 
 1194000   0.77307711   -6.0179425    448.11684  0.031275603  0.030764084            5 
 1195000   0.75948274   -6.0281161    446.67608   0.03114896  0.030743139            9 
 1196000   0.78593353   -6.0357028    447.33946  0.031169138  0.030722209            7 
 1197000   0.77678439   -6.0380343    446.46726  0.031082377  0.030701044            4 
 1198000   0.78441417   -6.0565136    446.45459   0.03105555  0.030679924            6 
 1199000   0.78262292   -6.0385423    448.45636  0.031168776  0.030658892            7 
 1200000   0.77585245   -6.0251634     447.3873  0.031068562  0.030637907            9 
 1201000   0.77906565   -6.0506787    447.04299  0.031018803  0.030616967           12 
 1202000   0.78276439   -6.0554228    447.99758  0.031059178   0.03059588            5 
 1203000   0.77574438   -6.0370149    447.93774  0.031029214  0.030574881           10 
 1204000   0.75897837   -6.0586755    448.19624  0.031021335   0.03055409            8 
 1205000   0.78295562   -6.0528173    449.35745  0.031075896  0.030533475            6 
 1206000   0.77245536   -6.0207716    449.74631  0.031076997  0.030512745            5 
 1207000   0.76371536   -6.0511829    449.57589  0.031039484  0.030492113           12 
 1208000   0.78407364     -6.06259    449.78332  0.031028099  0.030471538            9 
 1209000   0.77185499   -6.0470286    449.79756  0.031003416  0.030450978           12 
 1210000   0.77662965   -6.0552817    448.76152  0.030906441  0.030430416            9 
 1211000   0.75870506   -6.0479073    450.03895  0.030968824  0.030409761            6 
 1212000   0.76051223   -6.0667467    449.06157   0.03087607  0.030389119           19 
 1213000   0.76557957   -6.0177613    450.24908  0.030932198  0.030368441            7 
 1214000   0.76658078   -6.0509115    449.29485  0.030841217  0.030347936            6 
 1215000   0.76340497   -6.0781207    449.09467  0.030802103  0.030327197            7 
 1216000   0.74615974   -6.0667583    449.05131  0.030773802  0.030306437            7 
 1217000   0.76446964    -6.068175     449.3759  0.030770741  0.030285676            8 
 1218000   0.76652234   -6.0675562    450.45515  0.030819318  0.030264991            5 
 1219000   0.78804794   -6.0521242    449.17661  0.030706631  0.030244375            7 
 1220000   0.76214117   -6.0694548    448.98618  0.030668455  0.030223756            5 
 1221000   0.75866734   -6.0776269    449.05471  0.030648015  0.030203142           17 
 1222000   0.75486388    -6.041124    450.59283  0.030727826  0.030182618            9 
 1223000   0.78321703   -6.0514041    449.26668  0.030612338  0.030162154            7 
 1224000   0.76509865   -6.0445617    450.29193   0.03065713  0.030141409           13 
 1225000   0.77346827   -6.0670271    449.17949  0.030556428   0.03012065            8 
 1226000   0.76701442   -6.0754157    450.22962  0.030602883  0.030099909           10 
 1227000   0.74909839   -6.0809169    449.97802  0.030560854  0.030079193           10 
 1228000   0.76489966   -6.0815644    450.18377   0.03054993  0.030058631           10 
 1229000   0.75769854   -6.0751474    450.92654  0.030575437  0.030037789           10 
 1230000   0.76351176   -6.0901166    449.66901   0.03046538  0.030016965           16 
 1231000   0.75421178    -6.102281    449.35507  0.030419379  0.029996033           12 
 1232000   0.76590381   -6.0739725    451.59329  0.030546083  0.029975177            5 
 1233000   0.75967516   -6.0865246    450.65028  0.030457575  0.029954301           15 
 1234000   0.76583484   -6.1088952    449.86365  0.030379771  0.029933468            5 
 1235000   0.77046166   -6.0966727      449.662  0.030341565  0.029912645            7 
 1236000   0.76248008   -6.0737822    450.32132   0.03036147  0.029891808            6 
 1237000   0.75384219    -6.106111    449.22442   0.03026303  0.029871054           13 
 1238000   0.75104143   -6.0947388    450.82552  0.030346359  0.029850366            9 
 1239000   0.77053683   -6.0667461     451.3308  0.030355851  0.029829719            4 
 1240000   0.76263431   -6.0575322    451.55025  0.030346119  0.029809026           16 
 1241000   0.77741059   -6.0613467    450.26502  0.030235363  0.029788574            9 
 1242000   0.75606232   -6.0873252    451.17766  0.030272253   0.02976818            8 
 1243000   0.77088682   -6.0891647    451.17072  0.030247434  0.029747772           13 
 1244000   0.76612101   -6.0770806     451.5071  0.030245653  0.029727161            9 
 1245000   0.75595535    -6.085424    452.75241  0.030304713  0.029706684            9 
 1246000   0.75354742   -6.0892886    451.60091  0.030203378  0.029686234            6 
 1247000   0.75171116   -6.0877324    451.87065  0.030197183  0.029665849           11 
 1248000   0.75154837   -6.0916616    452.52335   0.03021657  0.029645417            9 
 1249000   0.75081016   -6.0774676    453.02177  0.030225632  0.029625132            8 
 1250000   0.73215578   -6.0831943    452.55184  0.030170122  0.029604865            5 
 1251000   0.74312037   -6.0909143    452.20711  0.030123042  0.029584544            6 
 1252000   0.74076104   -6.1123992     451.5915  0.030058007  0.029564212            9 
 1253000   0.73238842   -6.1081165    452.97969  0.030126343  0.029543806            4 
 1254000   0.75648402   -6.0864139    452.25904  0.030054429  0.029523482            9 
 1255000   0.75736327    -6.122087    451.70438  0.029993651  0.029503059           13 
 1256000   0.77803672   -6.1226782    451.84827  0.029979318  0.029482646            6 
 1257000    0.7544892   -6.0728057    452.01071  0.029966236  0.029462164            9 
 1258000   0.75529637   -6.0868867    452.75692  0.029991847  0.029441696            8 
 1259000   0.75229291   -6.1011329    453.07165  0.029988857  0.029421255            9 
 1260000   0.77291061   -6.1163095     453.2181  0.029974742  0.029400977           10 
 1261000    0.7538122   -6.0913661    454.18835  0.030015091  0.029380675            6 
 1262000   0.73587066   -6.1093801     453.4154  0.029940267   0.02936049           10 
 1263000   0.75582192   -6.1034811    453.17746  0.029900861  0.029340232            5 
 1264000    0.7290996   -6.1266946    451.95808  0.029796814  0.029319699           10 
 1265000   0.75349848    -6.099166    452.65537  0.029819194  0.029299452            6 
 1266000   0.74531346   -6.1089914     454.5468  0.029920142  0.029279186            6 
 1267000   0.74120846   -6.0874148    454.79138  0.029912614  0.029258988           10 
 1268000   0.74807617   -6.0989969    453.31837  0.029792217  0.029238877           15 
 1269000   0.75606929   -6.0827844    455.18943  0.029891609   0.02921877           21 
 1270000   0.75965593     -6.11349    454.35353  0.029813224  0.029198668           19 
 1271000   0.74822859   -6.0914556      453.916  0.029761081  0.029178567           10 
 1272000   0.74294424   -6.1006436    453.94416  0.029739529  0.029158395           11 
 1273000    0.7332042   -6.0707392    454.96819  0.029783202  0.029138279            6 
 1274000   0.73750473   -6.1105344    453.82924  0.029685325  0.029118132            7 
 1275000    0.7461624   -6.1327241    454.55059  0.029709189  0.029097951            5 
 1276000   0.74209779   -6.0893462    454.51779  0.029683764  0.029077896           13 
 1277000   0.75212411   -6.1441047    454.01483  0.029627697  0.029057785            6 
 1278000    0.7464889   -6.1349832    453.91306  0.029597878  0.029037691            8 
 1279000    0.7391672   -6.1144602    454.39455  0.029606108  0.029017584           11 
 1280000   0.73716066   -6.1095193     455.0332  0.029624557  0.028997453           14 
 1281000   0.72854868   -6.1046093    455.25042  0.029615562  0.028977354            7 
 1282000   0.73262824   -6.1085823    454.67095  0.029554794  0.028957295            9 
 1283000   0.74185242   -6.1287939    454.15965  0.029498549  0.028937284           27 
 1284000   0.73315021   -6.1322423    453.80858  0.029452789  0.028917167           15 
 1285000    0.7329271   -6.1165156     456.9154  0.029631349  0.028897039            7 
 1286000   0.72445299   -6.1376321    453.78997  0.029405778  0.028876927            7 
 1287000   0.73262351   -6.1447046    454.62484  0.029436988  0.028856781           11 
 1288000   0.73615826   -6.1112879    455.40395  0.029464541  0.028836687            8 
 1289000   0.74061298   -6.1390208    455.84765  0.029470368  0.028816626            9 
 1290000   0.75528719   -6.1564627    454.35504  0.029351101  0.028796541           12 
 1291000   0.74324555   -6.1460231    454.82509  0.029358707  0.028776387           10 
 1292000   0.72642836   -6.1221965    456.61427  0.029451385  0.028756476            5 
 1293000    0.7513788   -6.1651738    454.79093  0.029311094  0.028736446           10 
 1294000   0.73546574   -6.1338075    455.87012  0.029357942  0.028716393           10 
 1295000   0.73997458    -6.132152    454.95001  0.029276062  0.028696519            9 
 1296000   0.72510445   -6.1454862    455.89878  0.029314479  0.028676557           11 
 1297000   0.73564766   -6.1291273    455.93074  0.029293931  0.028656576            5 
 1298000   0.73309387   -6.1470941    455.98878  0.029275088  0.028636591           16 
 1299000   0.73658775   -6.1679487    454.52043  0.029158354  0.028616646           15 
 1300000   0.74475797   -6.1457611    455.28067  0.029184658  0.028596532           10 
 1301000   0.72182872   -6.1469664    455.80371  0.029195728  0.028576566           10 
 1302000   0.73413157   -6.1596424      455.535  0.029156106  0.028556479            9 
 1303000   0.74346753   -6.1261351    454.86424  0.029090831  0.028536446            6 
 1304000   0.71709447   -6.1537943    456.44637   0.02916963  0.028516301           31 
 1305000   0.72579873   -6.1573948    454.95345  0.029051945  0.028496187           18 
 1306000   0.73659061   -6.1803869    454.29572  0.028987731  0.028476087           13 
 1307000   0.72056209   -6.1553368    455.82963  0.029063353  0.028455988            8 
 1308000    0.7127406   -6.1519973    455.40583  0.029014133   0.02843572           10 
 1309000   0.72234017   -6.1546853    455.26991  0.028983315  0.028415595            4 
 1310000   0.73496913   -6.1484121     455.3426  0.028965814  0.028395473           10 
 1311000   0.73574582   -6.1529121    455.24807  0.028937711  0.028375428           13 
 1312000   0.72388158   -6.1322795    456.55476  0.028998651  0.028355371           16 
 1313000   0.71747423   -6.1242401    456.81069  0.028992809  0.028335456           10 
 1314000   0.72603808   -6.1542223    455.75699  0.028903918   0.02831558            9 
 1315000   0.72451649   -6.1675538    457.61353   0.02899959  0.028295664           14 
 1316000   0.73251151   -6.1639931    455.53399  0.028845871  0.028275531           14 
 1317000   0.71884368   -6.1631882    456.34692  0.028875406  0.028255407           16 
 1318000   0.74090484   -6.1566081    456.36376  0.028854562  0.028235236           12 
 1319000    0.7236212   -6.1480521    456.31987  0.028829913  0.028215176            9 
 1320000   0.73946282   -6.1396338    455.86602   0.02877942  0.028195148            7 
 1321000   0.71634467   -6.1558658    455.91055  0.028760444  0.028174979            7 
 1322000   0.72956601   -6.1474324     457.2997  0.028826254  0.028154806            8 
 1323000   0.71815634   -6.1832009    455.63535  0.028699632   0.02813459           14 
 1324000   0.71518514   -6.1719705    453.69539  0.028555853  0.028114279           15 
 1325000   0.71920031    -6.191662    453.81097   0.02854157  0.028093843           15 
 1326000   0.72101222   -6.1830156    455.72198  0.028640145   0.02807349           13 
 1327000   0.72038646   -6.1558139    455.67765  0.028615778  0.028053315           17 
 1328000   0.73042378   -6.1490175    455.65763  0.028592974  0.028033235           29 
 1329000   0.73580183   -6.1857632    455.29205  0.028548536  0.028013014           33 
 1330000   0.73283767   -6.1823517    455.01231  0.028509543  0.027992667            9 
 1331000   0.72727272   -6.1577534    455.08644  0.028492765  0.027972396           27 
 1332000   0.73339078   -6.1775034    455.75941  0.028513477   0.02795222            6 
 1333000   0.72767453   -6.1877516    454.75153  0.028429078  0.027931872            8 
 1334000   0.72824581   -6.1479147    456.22808  0.028500005  0.027911581           16 
 1335000   0.72560666   -6.1717709    455.37447  0.028425373  0.027891405           11 
 1336000   0.73313499   -6.1468758    455.88634  0.028436024  0.027871228            9 
 1337000   0.70825375   -6.2128833    454.93943  0.028355736  0.027850919            8 
 1338000   0.72359427   -6.1934606    455.43407   0.02836535  0.027830618            4 
 1339000   0.72242961    -6.186109    454.49413  0.028285669  0.027810338           10 
 1340000   0.72747008   -6.2014737    455.05424  0.028299393  0.027789978           12 
 1341000   0.71936492   -6.1793039     456.2916  0.028355183  0.027769784           12 
 1342000   0.71745424   -6.1732705    455.65744  0.028294675  0.027749603           10 
 1343000   0.71869762   -6.1805214    456.93014  0.028352578  0.027729529            5 
 1344000   0.70200947   -6.1627559    455.47358   0.02824117   0.02770935            7 
 1345000   0.71620948   -6.1915605    456.18246  0.028264093  0.027689164           20 
 1346000    0.7143057   -6.1395632    456.63248  0.028270956  0.027669116            8 
 1347000   0.71053218   -6.1743805     455.6397  0.028188549  0.027649095           27 
 1348000   0.69484754   -6.1744758    456.15469  0.028199474  0.027629073           10 
 1349000   0.71227542   -6.1671956    455.68463  0.028149532  0.027608988            6 
 1350000   0.72053566   -6.1995856     457.3333   0.02823045   0.02758896           17 
 1351000   0.71398457   -6.1944235    456.18376  0.028138648  0.027568822           11 
 1352000   0.70835068   -6.2173688    455.85641  0.028097658  0.027548728           13 
 1353000   0.70191464   -6.1890724    457.31296  0.028166603  0.027528596           15 
 1354000   0.69774635   -6.2011117    455.75233   0.02804975  0.027508593           15 
 1355000   0.70084354   -6.1865125    456.74008  0.028089796  0.027488581            7 
 1356000   0.70679541   -6.1837217    458.82088  0.028196956   0.02746872            6 
 1357000   0.70491158   -6.2046926    456.97805   0.02806301   0.02744884            8 
 1358000   0.70312966   -6.2023921    456.41103   0.02800755  0.027428819            8 
 1359000   0.70723569   -6.1810354    457.01763  0.028024137  0.027408797           17 
 1360000   0.72013643   -6.1883941    457.33582  0.028023028  0.027388817           15 
 1361000   0.72011959   -6.2007651    457.59128   0.02801808  0.027368918            9 
 1362000   0.71808567   -6.2369126    456.42401   0.02792609  0.027348988            6 
 1363000   0.69704347   -6.2296813    455.69612  0.027861098   0.02732904            9 
 1364000   0.71289081   -6.2332276    457.88091  0.027974151  0.027309082           10 
 1365000   0.71066154   -6.1955228    456.87706  0.027892373  0.027289253            7 
 1366000    0.7070112   -6.1991206    457.64244  0.027918645  0.027269567           10 
 1367000   0.70786508   -6.1772619     457.8848  0.027912997  0.027249848            9 
 1368000   0.70634592   -6.1569664    460.08767  0.028026783  0.027230312            9 
 1369000   0.69452115   -6.1824542    458.14676  0.027888164  0.027210763           11 
 1370000    0.7070602   -6.2396221    458.16125  0.027868689  0.027191006           32 
 1371000    0.7019427   -6.2322462    457.45305  0.027805316  0.027171274           19 
 1372000   0.70991137   -6.2247411    459.02857  0.027880744  0.027151582           34 
 1373000   0.70283104   -6.2175687    458.87448  0.027851085   0.02713189           21 
 1374000    0.7100368   -6.2091251    458.15087  0.027786928  0.027112332           14 
 1375000   0.70519227    -6.211304    459.67689  0.027859206  0.027092781           14 
 1376000   0.70910766   -6.2291539    458.12303  0.027744854  0.027073153           17 
 1377000   0.68364203   -6.2243558    458.60316  0.027753762  0.027053573           19 
 1378000   0.70357014   -6.2243634    459.11436  0.027764535  0.027033938            9 
 1379000   0.70546098   -6.2363906    458.39933  0.027701192  0.027014386           12 
 1380000   0.70907304   -6.2368737    459.17142  0.027727743  0.026994867           18 
 1381000   0.70710875   -6.2467951    458.52767  0.027668819  0.026975222            8 
 1382000   0.71296132   -6.2287204    458.51905  0.027648278  0.026955624            7 
 1383000   0.69878016   -6.2308726     458.6865  0.027638376  0.026935963           16 
 1384000    0.6874283   -6.2318329    457.69843  0.027558913  0.026916338           17 
 1385000   0.70073239   -6.2147446    458.36048   0.02757885  0.026896924           15 
 1386000   0.69660593   -6.2101757    458.90604  0.027591753  0.026877581           12 
 1387000   0.70721869   -6.2282634    459.70001  0.027619563  0.026858217           41 
 1388000   0.72402638   -6.2402681    459.39909  0.027581598  0.026838791           23 
 1389000   0.70089093   -6.2583242    458.48872  0.027507123  0.026819325           30 
 1390000    0.6947821    -6.226745    459.87237  0.027570286  0.026799965            9 
 1391000   0.71534888   -6.2381407    459.48297  0.027527137   0.02678051           10 
 1392000   0.69431934   -6.2257099    458.00625  0.027418956  0.026761084            9 
 1393000   0.69052646   -6.2424215    458.35828  0.027420333  0.026741598            9 
 1394000   0.68201962   -6.2407626    460.15224  0.027507905  0.026722193            9 
 1395000   0.70396085   -6.2215886    460.02656  0.027480679  0.026702917            9 
 1396000   0.71381929   -6.2175804    459.92749   0.02745508  0.026683671           24 
 1397000   0.69048166   -6.2226198    459.35403  0.027401218    0.0266644           13 
 1398000   0.68807238   -6.2566194    459.60956   0.02739685  0.026645161           13 
 1399000    0.6802813    -6.265966    458.47437  0.027309648  0.026625901           10 
 1400000   0.69063325   -6.2625899    459.49437  0.027350855  0.026606573           15 
 1401000   0.69630327   -6.2630048    458.97536  0.027300462  0.026587275           23 
 1402000   0.69055843   -6.2394311    460.41482  0.027366549  0.026567952           11 
 1403000   0.68220283   -6.2311234    460.01547  0.027323323  0.026548646           12 
 1404000   0.68952994   -6.2374009    459.39549  0.027267064  0.026529377           14 
 1405000   0.69396082   -6.2505723    459.81966  0.027272815  0.026509998           11 
 1406000   0.68563602   -6.2645127    458.19554  0.027157156  0.026490742            6 
 1407000   0.68737755   -6.2334983    458.97277  0.027183888  0.026471457           11 
 1408000   0.68513769   -6.2475141    459.93524  0.027221546  0.026452183            8 
 1409000   0.67471741   -6.2753125    459.65994  0.027185944  0.026432874           23 
 1410000   0.69370397   -6.2447466    460.48849  0.027215632  0.026413655           11 
 1411000    0.6956354   -6.2592245    458.52281  0.027080251  0.026394435           22 
 1412000   0.69322354   -6.2432693    459.47378  0.027117196  0.026375199           12 
 1413000   0.70745085   -6.2588741    460.00164  0.027129137  0.026355984           13 
 1414000   0.69017875   -6.2728907    460.27231  0.027125902  0.026336717           27 
 1415000   0.69907557    -6.276005     460.4541  0.027117438  0.026317512           17 
 1416000   0.69248297   -6.3005723    459.17775  0.027023173  0.026298343           32 
 1417000   0.66856374   -6.2665853    459.76525  0.027038653  0.026279145           34 
 1418000   0.68651853   -6.2457375     460.5713  0.027066955  0.026260066           11 
 1419000   0.69274364   -6.2742709    459.07665  0.026960104  0.026240975           11 
 1420000   0.68765057   -6.2668773    460.85752  0.027045629  0.026221826           14 
 1421000   0.68840591   -6.2776332    459.86946  0.026968652  0.026202703           31 
 1422000   0.67729088   -6.2386118     460.4572   0.02698413   0.02618363           19 
 1423000   0.69493647   -6.2361976    460.45055  0.026964778  0.026164588           13 
 1424000   0.67331126   -6.2763015    459.69942  0.026901885  0.026145505           13 
 1425000    0.6860576   -6.2581495    461.23704  0.026972926  0.026126394           13 
 1426000    0.7016578   -6.2584495    460.49641   0.02691073  0.026107308           18 
 1427000   0.67607773   -6.2680359    460.41898   0.02688735  0.026088327           15 
 1428000   0.69107851   -6.2653517    459.82611  0.026833923  0.026069409           18 
 1429000   0.68400556   -6.2444954    461.09303  0.026889026  0.026050539           11 
 1430000   0.67859239   -6.2482033    460.96958  0.026863029  0.026031706           11 
 1431000   0.67560086   -6.2572351    460.89812  0.026840096  0.026012936           16 
 1432000   0.69120135   -6.2324708    461.41255  0.026851289  0.025994151           14 
 1433000   0.67509897   -6.2515524    461.05656  0.026811849  0.025975278           10 
 1434000   0.70305197   -6.2660209    460.10923    0.0267381   0.02595635           10 
 1435000   0.68401122   -6.2487635    461.82518  0.026819116   0.02593759           13 
 1436000   0.69360222   -6.2960712     461.4862  0.026780769  0.025918804           14 
 1437000   0.68153173   -6.2670386    461.57203  0.026767109  0.025899919           13 
 1438000   0.65991278   -6.2839018    460.95399  0.026712679  0.025881072            5 
 1439000   0.68352863   -6.2880978    460.30976  0.026656808  0.025862253           11 
 1440000   0.67169076   -6.2525627     461.6348  0.026714977  0.025843443           10 
 1441000   0.67641425   -6.2996259    460.28302  0.026618264  0.025824687           13 
 1442000   0.67084502   -6.3230158    459.75368  0.026569214   0.02580579           14 
 1443000   0.68406927   -6.3031346    460.34621   0.02658502  0.025786919           14 
 1444000   0.66519448   -6.2812662    461.05179  0.026607328  0.025768058           10 
 1445000   0.67932263   -6.2852502    461.40119  0.026609065  0.025749284           11 
 1446000    0.6743364   -6.2854364    462.54436  0.026656545  0.025730633            8 
 1447000   0.68012022   -6.2765489    462.04533  0.026609383  0.025711947            9 
 1448000   0.69116987   -6.3062495    461.62249  0.026566672  0.025693274            6 
 1449000   0.66358608   -6.2812916    461.48029  0.026540159  0.025674676            8 
 1450000   0.66805184   -6.2541023    461.86159  0.026543769  0.025656044           10 
 1451000   0.65996764   -6.2671406    461.80473   0.02652221  0.025637435           16 
 1452000   0.67382562   -6.2576814    461.30669  0.026475361  0.025618806            5 
 1453000   0.67028495   -6.3026576    462.25313   0.02651142  0.025600222           17 
 1454000   0.67510388   -6.2908805    461.82234  0.026468497  0.025581639            9 
 1455000   0.68332491   -6.3010429    462.93853  0.026514234  0.025563141           18 
 1456000   0.67296244   -6.2796878    461.93116  0.026438368  0.025544661            8 
 1457000   0.67549179   -6.2908671     462.4327  0.026448908  0.025526162           13 
 1458000   0.68423868   -6.3245543    461.53086  0.026379222  0.025507575           23 
 1459000   0.67160038   -6.3227445    461.20755  0.026342675  0.025489032           13 
 1460000   0.67275691   -6.3174562    462.98954  0.026426344  0.025470405           18 
 1461000   0.65923594   -6.2975202    461.66844  0.026332902  0.025451984           15 
 1462000   0.67469062   -6.2973478    461.95038  0.026330961  0.025433526           12 
 1463000    0.6753813   -6.2951174    462.05632  0.026318997   0.02541513           13 
 1464000   0.66959759   -6.3072012    462.05597     0.026301   0.02539671           15 
 1465000   0.67194314    -6.315359    462.98357  0.026335812  0.025378233           16 
 1466000      0.66249   -6.3011211    462.13022   0.02626934  0.025359827           25 
 1467000   0.66118346   -6.3399675     462.0123  0.026244734  0.025341394           15 
 1468000   0.65222326   -6.3158818    461.38014  0.026190971  0.025322991           31 
 1469000   0.66830972   -6.3014118     462.8863  0.026258583  0.025304581           15 
 1470000   0.67051391   -6.3201798     463.2008  0.026258549   0.02528617           21 
 1471000   0.66013318   -6.3173083    462.93922  0.026225879  0.025267811            9 
 1472000   0.66122695   -6.3003545    461.86499  0.026147248  0.025249431           38 
 1473000   0.66796629   -6.3183427    462.54661  0.026168059  0.025230966           32 
 1474000   0.67617904   -6.2963595    461.86332  0.026111675  0.025212617           15 
 1475000   0.65508298   -6.3106561    462.41672  0.026125238  0.025194281           21 
 1476000   0.66412524   -6.3071574     463.3277  0.026158971  0.025176007           12 
 1477000   0.66195609   -6.3177835    461.60769  0.026044216  0.025157697           18 
 1478000   0.67130936   -6.3211861     461.8571  0.026040658  0.025139377           23 
 1479000   0.65761974   -6.3263826    461.43862  0.025999471  0.025120928           25 
 1480000   0.66392443   -6.3611765    461.71358  0.025997386  0.025102495           28 
 1481000    0.6583344   -6.3418079    463.39582  0.026074489  0.025084072           12 
 1482000    0.6507704   -6.3088929    462.42603  0.026002363  0.025065784           24 
 1483000   0.65912156   -6.3270086    462.31847  0.025978785  0.025047519           24 
 1484000    0.6666864   -6.3227472    462.94587  0.025996511  0.025029256           20 
 1485000   0.65047301   -6.3035629    462.32521  0.025944176  0.025011025           24 
 1486000    0.6636759   -6.3440464    462.13658  0.025916138  0.024992769           20 
 1487000   0.67152744   -6.3537708    462.01023  0.025891629  0.024974411           15 
 1488000   0.67504534   -6.3312863    461.95935  0.025871379  0.024956059           22 
 1489000   0.67106645   -6.3078852    463.20592   0.02592377  0.024937735           16 
 1490000   0.64941476   -6.3422776    463.25755  0.025909259  0.024919455           23 
 1491000   0.66590703   -6.3146783    463.06403  0.025881066  0.024901104            8 
 1492000   0.67354724   -6.3155492    463.15615  0.025868864  0.024882848           18 
 1493000   0.64919135   -6.3249307    463.18522   0.02585316  0.024864614           30 
 1494000   0.66419827   -6.3373015    462.53687  0.025799692  0.024846366           18 
 1495000   0.66230885   -6.3213186    462.75489  0.025794587  0.024828058           13 
 1496000   0.65166136    -6.349465     462.4327  0.025759398  0.024809794           14 
 1497000   0.65876009   -6.3470964    461.22521  0.025674973  0.024791538           13 
 1498000   0.64367132   -6.3418286    461.51708   0.02567407  0.024773319           14 
 1499000   0.66534832   -6.3589211    462.63376  0.025719022  0.024755159           24 
 1500000   0.65228845   -6.3244984    463.39162  0.025743979  0.024736966           17 
 1501000   0.66932158   -6.3532964    463.24166  0.025718502  0.024718839           37 
 1502000   0.66963008   -6.3526121    461.87982  0.025625822  0.024700659           46 
 1503000   0.66053133   -6.3358357    462.23591  0.025628515  0.024682456           32 
 1504000   0.64876145   -6.3553073    462.36151  0.025618435  0.024664284           27 
 1505000   0.64843336    -6.345643    461.65444  0.025562261  0.024646075           25 
 1506000   0.65192583   -6.3301389    461.80988  0.025553889  0.024627818           15 
 1507000   0.65124233   -6.3643399    462.65669  0.025583759  0.024609581           32 
 1508000   0.65358328   -6.3529718    462.22905  0.025543162  0.024591442           14 
 1509000   0.64144004   -6.3668405    461.55562  0.025489045  0.024573273           14 
 1510000   0.64268142   -6.3614978    461.73789  0.025482224  0.024555174           32 
 1511000   0.64807706   -6.3635041    461.39675  0.025446545  0.024537015           21 
 1512000   0.65322275   -6.3582799    462.92512   0.02551395  0.024518882           28 
 1513000   0.64967586   -6.3677903    461.71229  0.025430287  0.024500774           10 
 1514000    0.6588065    -6.376924    460.78788  0.025362609  0.024482582           20 
 1515000   0.66006773   -6.3743061    462.56412  0.025443571  0.024464433           15 
 1516000   0.64383682   -6.3764985    462.04988   0.02539852  0.024446319           21 
 1517000   0.65151937   -6.3712342    463.29808  0.025450345  0.024428201           22 
 1518000   0.64659103    -6.360961    463.28374  0.025432792  0.024410125            9 
 1519000   0.63713046       -6.346    462.21232   0.02535727  0.024392185           16 
 1520000   0.64300006   -6.3799614    461.80672  0.025318351   0.02437414           14 
 1521000   0.63709221    -6.358705    462.85624  0.025359207  0.024356086           14 
 1522000   0.65202267   -6.3603047    462.17816  0.025305418  0.024338008           33 
 1523000   0.64909274   -6.3612314    461.26313  0.025238735  0.024319949           18 
 1524000   0.64763792   -6.3607286     463.0261  0.025318575  0.024301907           17 
 1525000   0.64358673   -6.3794729    462.47258  0.025271726  0.024283902           32 
 1526000   0.65340475   -6.3766026    463.34708  0.025302921  0.024265844           42 
 1527000   0.65546624   -6.3728713    461.40243  0.025180224  0.024247802           18 
 1528000   0.63456483   -6.3750215    462.30887   0.02521318  0.024229777           61 
 1529000   0.63066943   -6.3578656    463.01361    0.0252351   0.02421175           19 
 1530000    0.6360064   -6.3777268    462.77933  0.025205846  0.024193634           30 
 1531000   0.65157534   -6.3847019    462.37961  0.025167625   0.02417556            7 
 1532000   0.64145929    -6.385659    462.44843  0.025154941  0.024157567           17 
 1533000     0.661051   -6.3854368    462.51587  0.025142198  0.024139619           10 
 1534000   0.63666271   -6.3866732    462.86057  0.025144533  0.024121563           15 
 1535000   0.64103736   -6.3812873    461.45345  0.025051761  0.024103474           39 
 1536000   0.63892648   -6.3640102    463.22475  0.025131551  0.024085427           14 
 1537000   0.63505684   -6.3704439    462.06392  0.025052262   0.02406741           11 
 1538000   0.63136744   -6.3984336    461.52211  0.025006616  0.024049333           21 
 1539000   0.63739678   -6.3958549    461.52844   0.02499071  0.024031266           12 
 1540000   0.64490353   -6.3734104    462.59787  0.025032352  0.024013283           17 
 1541000   0.62251663   -6.4065381    461.61312  0.024962855  0.023995229           13 
 1542000    0.6469274   -6.4300564    462.66425  0.025003472  0.023977138           15 
 1543000   0.63354518   -6.4127568    461.57835  0.024928621  0.023959133           18 
 1544000   0.64052107   -6.4105961    461.65199   0.02491645  0.023941077           28 
 1545000   0.63259843   -6.3859814    462.40527  0.024940953  0.023923086           30 
 1546000   0.63200512   -6.4209502    462.78611  0.024945349  0.023905175           34 
 1547000   0.64072527    -6.416651    462.13883  0.024894356  0.023887247           23 
 1548000   0.62622854   -6.3861354    461.30781  0.024833539   0.02386937           12 
 1549000   0.63580778   -6.3959849    462.76242  0.024895762  0.023851466           12 
 1550000   0.61808842   -6.3555022    463.13064  0.024899497  0.023833638           29 
 1551000   0.62864967   -6.3684023    462.45402  0.024847089  0.023815819           24 
 1552000   0.64388325   -6.3939003    462.75393  0.024847183  0.023798014           18 
 1553000   0.64337899   -6.3935631    462.00655  0.024791079  0.023780212           12 
 1554000   0.63064808   -6.3782136    462.54395  0.024803944  0.023762413           28 
 1555000   0.63410669   -6.3886138    462.48325   0.02478474  0.023744647           44 
 1556000   0.62601345   -6.4252887    462.94833   0.02479372  0.023726931           47 
 1557000   0.64033701   -6.4415448    462.56796  0.024757437  0.023709128           16 
 1558000   0.62911565   -6.4223291    463.23247   0.02477709  0.023691356           69 
 1559000   0.62125516   -6.4025705    462.56865  0.024725714  0.023673649           27 
 1560000   0.62074664    -6.387754    462.64784  0.024714094  0.023655936           26 
 1561000   0.62311834   -6.4112277    461.52058  0.024638083  0.023638153           17 
 1562000   0.62645573   -6.4032328      462.745  0.024687634  0.023620424           12 
 1563000   0.62570953   -6.4017722    462.38947  0.024652883  0.023602828           15 
 1564000   0.64097629   -6.3941714    463.29914  0.024685589  0.023585253           10 
 1565000   0.64381853   -6.3999496    462.69869  0.024637843  0.023567634           14 
 1566000   0.62199966   -6.4036597    462.73583  0.024624087  0.023550015           22 
 1567000   0.63124695   -6.4218111    463.36275  0.024641712  0.023532433           30 
 1568000   0.61166266   -6.4412997    462.69013  0.024590249  0.023514857           11 
 1569000   0.63921079   -6.3965967    463.42033  0.024613359  0.023497305           11 
 1570000   0.62146155   -6.4065339    464.02748  0.024629909  0.023479794           24 
 1571000   0.61987341    -6.415218    462.88256  0.024553499  0.023462311           13 
 1572000   0.62185595   -6.4016795    463.89435  0.024591515  0.023444817           24 
 1573000   0.63091328   -6.4170974    463.28639  0.024543674  0.023427376           24 
 1574000   0.63688296   -6.4017239    463.04499    0.0245153  0.023409907            9 
 1575000   0.61698832   -6.4243127    463.07424  0.024501283   0.02339251           22 
 1576000   0.62989623   -6.3928429    463.79108   0.02452364  0.023375063           11 
 1577000   0.60715394    -6.397782    462.54202  0.024442085  0.023357621           11 
 1578000   0.61626075   -6.4099377    463.09173  0.024455626  0.023340126           34 
 1579000   0.62420514   -6.4305088    462.50076  0.024408949  0.023322632           21 
 1580000   0.62216233    -6.424759    462.21354  0.024378351  0.023305175           58 
 1581000    0.6296728   -6.4250317    463.02482  0.024405694   0.02328767           24 
 1582000   0.61208444   -6.4199213    463.59327   0.02442021  0.023270189           13 
 1583000   0.62318788   -6.3975513    464.28806  0.024441359   0.02325278           17 
 1584000   0.63202424   -6.4316531    462.91823  0.024353863  0.023235381           15 
 1585000   0.61658324   -6.4338838    462.18668  0.024300036  0.023218012           32 
 1586000   0.61417385   -6.4467042     461.9762  0.024273655   0.02320055           24 
 1587000    0.6121237   -6.4254596    462.80207  0.024301726  0.023183075           20 
 1588000   0.61501467   -6.4327573    461.37167   0.02421136   0.02316569           16 
 1589000   0.61879571    -6.425557    463.52435  0.024309018  0.023148284           43 
 1590000   0.60488302   -6.4464581    462.09346  0.024218735  0.023130867           22 
 1591000   0.61802919   -6.4565405    461.96261  0.024196659  0.023113353           28 
 1592000   0.61920378   -6.4311776    462.79472  0.024225017  0.023095854           21 
 1593000    0.6266074   -6.4287602    462.22324  0.024179914  0.023078397           22 
 1594000   0.61084953   -6.4301014    461.92005  0.024148894  0.023060996           19 
 1595000   0.61850521   -6.4308518    462.10532  0.024143434  0.023043582           23 
 1596000   0.61360746   -6.4217291    463.03032  0.024176604  0.023026231           19 
 1597000   0.61449343   -6.4473312     462.6645  0.024142376  0.023008783           52 
 1598000   0.62112086   -6.4314535    462.13894  0.024099861  0.022991374           20 
 1599000   0.61750707   -6.4610489    462.34561   0.02409556  0.022973944           25 
 1600000   0.60873872   -6.4614441    462.10059  0.024067739  0.022956517           18 
 1601000   0.59689013   -6.4656719    461.61172   0.02402726  0.022939076           34 
 1602000   0.60633998   -6.4433504    463.14354  0.024091944  0.022921659           28 
 1603000   0.60900538    -6.441534    462.82054  0.024060124  0.022904342           28 
 1604000   0.60438616   -6.4492561    462.67668  0.024037649  0.022886955           25 
 1605000   0.61249314   -6.4653634     462.9719  0.024038001  0.022869685           21 
 1606000   0.61313848   -6.4373313     462.7817  0.024013164  0.022852353           36 
 1607000   0.61093059   -6.4467536    462.43416  0.023980199  0.022835025           41 
 1608000   0.60513041   -6.4325737    462.29712  0.023958184  0.022817746           15 
 1609000   0.60906691    -6.477126    461.27997  0.023890614  0.022800438           36 
 1610000   0.61843554   -6.4735849    461.64434  0.023894634  0.022783106           58 
 1611000   0.58835654   -6.4617028    462.09618  0.023903175  0.022765851           59 
 1612000   0.59983617   -6.4481995    462.62981  0.023915933  0.022748584           20 
 1613000   0.60066892   -6.4487324    462.24228  0.023881085  0.022731306           52 
 1614000   0.59818935   -6.4755778    461.29782  0.023817525  0.022714019           14 
 1615000   0.59463071   -6.4712452    461.95225  0.023836545  0.022696729           28 
 1616000   0.59748748   -6.4436845    461.13602  0.023779704  0.022679458           17 
 1617000   0.61743386   -6.4648581    461.60299  0.023789063  0.022662228           20 
 1618000    0.5971841   -6.4653811     463.6972  0.023882221  0.022645014           21 
 1619000    0.6045845   -6.4495786    462.09292  0.023784894  0.022627843           18 
 1620000   0.61544037   -6.4544434    461.73015  0.023751551  0.022610657           17 
 1621000   0.61402059   -6.4747881    462.28371  0.023765356  0.022593483           53 
 1622000   0.61454144   -6.4879095    461.90733  0.023731367  0.022576294           36 
 1623000    0.6114182   -6.4673893    461.67711  0.023704925   0.02255914           34 
 1624000   0.59686871   -6.4385291       462.68   0.02374179  0.022542032           36 
 1625000   0.59400698   -6.4780488    461.70062  0.023676955  0.022524969           38 
 1626000   0.59097753   -6.4700516    462.48437  0.023702561  0.022507889           49 
 1627000   0.60727089   -6.4623562    462.59044  0.023693425   0.02249083           45 
 1628000   0.61307925   -6.4698128    463.25086  0.023712677  0.022473781           29 
 1629000   0.61282691   -6.4921209     462.6582  0.023667802  0.022456695           53 
 1630000   0.60442594   -6.4696051    462.55817  0.023648168  0.022439604           24 
 1631000   0.58461246   -6.5076632    461.66483  0.023588025   0.02242247           40 
 1632000   0.60111439   -6.5078753    461.51046  0.023565689  0.022405335           38 
 1633000   0.59872771   -6.4933496    461.81596  0.023566848  0.022388241           57 
 1634000   0.59722414   -6.5065297    461.68612  0.023545804  0.022371136           33 
 1635000   0.59043231   -6.4922562      461.548  0.023524363   0.02235402           33 
 1636000   0.60586528   -6.4895004     461.7401  0.023519768  0.022336925           47 
 1637000   0.59046784   -6.5090082    462.33872  0.023535874  0.022319865           42 
 1638000   0.60355708   -6.5096719    461.64292  0.023486107  0.022302815           27 
 1639000    0.5985967   -6.4888979    461.60959  0.023470083  0.022285731           43 
 1640000   0.60026216   -6.4876735    461.80221  0.023465559  0.022268717           38 
 1641000   0.59391187   -6.4816757    462.32528  0.023477823  0.022251768           45 
 1642000    0.5869251   -6.4764899    461.99294  0.023446657  0.022234788           60 
 1643000   0.60275779    -6.483619    462.10827  0.023438236  0.022217809           22 
 1644000   0.58669983   -6.4913898    462.12741   0.02342495  0.022200869           50 
 1645000   0.59910232   -6.4959911    462.22421  0.023415613  0.022183929           30 
 1646000    0.5996272   -6.4985736    460.92954  0.023335841   0.02216697           44 
 1647000   0.59718957   -6.4997746    461.27385  0.023339094  0.022150014           69 
 1648000   0.60075759   -6.5229081    461.24783  0.023323616  0.022133118           42 
 1649000   0.59751092   -6.5111489    461.16161  0.023305115  0.022116213           31 
 1650000   0.58822972   -6.4816752    461.80065  0.023323265  0.022099374           54 
 1651000   0.60481693   -6.4796872    461.98368  0.023318377  0.022082551           36 
 1652000   0.58627573   -6.4873144    461.70599  0.023290254  0.022065677           37 
 1653000   0.59832046   -6.4999062    461.95213  0.023288573  0.022048821           46 
 1654000   0.59258936   -6.4999386    463.27997  0.023341393  0.022032003           18 
 1655000   0.58577542   -6.5139555    461.68258  0.023246857  0.022015165           28 
 1656000    0.6003915   -6.5107049    461.74888  0.023236155   0.02199831           24 
 1657000   0.58341722   -6.5186055    461.80446  0.023224928  0.021981469           41 
 1658000   0.59281475   -6.5029429    461.46301  0.023193758  0.021964687           27 
 1659000   0.59239274   -6.4879952    462.03384  0.023208451  0.021947873           36 
 1660000   0.57913827   -6.5064131    461.15552  0.023150377  0.021931018           87 
 1661000   0.59289914     -6.51282    461.46195  0.023151813  0.021914196           79 
 1662000   0.58466001   -6.5256279    460.79966  0.023104676  0.021897338           74 
 1663000   0.59316153   -6.5309677    461.28434   0.02311507  0.021880509           41 
 1664000   0.59741533   -6.5143102    461.38302  0.023106121  0.021863689           77 
 1665000   0.57995318    -6.518612    461.24819  0.023085495  0.021846959           35 
 1666000   0.57111556   -6.5256623    461.63955  0.023091214    0.0218302           66 
 1667000   0.59477721   -6.5245583    461.54873  0.023072822  0.021813512           84 
 1668000   0.59336383   -6.5027226    462.07144  0.023085104  0.021796803           53 
 1669000   0.58007187   -6.4922642     461.1548  0.023025504  0.021780124           73 
 1670000   0.58441816    -6.528118    460.41546  0.022974823  0.021763491           38 
 1671000   0.58415363    -6.518252    460.91116  0.022985795  0.021746793           25 
 1672000   0.58392001   -6.5332938    460.73117  0.022963077  0.021730139           29 
 1673000   0.60124273   -6.5426263    460.50794  0.022938232  0.021713432           43 
 1674000   0.58376301   -6.5318192    459.98352  0.022898423  0.021696714           46 
 1675000   0.58867788   -6.5510611    460.57681  0.022914269  0.021680073           22 
 1676000   0.58328163   -6.5427459    460.42819  0.022893208  0.021663403           16 
 1677000   0.57865695   -6.5233677     462.0376  0.022959531  0.021646758           54 
 1678000   0.57702716   -6.5212368    461.43502  0.022915923  0.021630162           38 
 1679000   0.58622525   -6.5441926    461.30614  0.022895878  0.021613587           44 
 1680000   0.58630707   -6.5244516    461.63855  0.022898738  0.021597012           63 
 1681000    0.5743024   -6.5271729    460.80532  0.022843809  0.021580474           50 
 1682000   0.57637011   -6.5308915    462.08041  0.022893401  0.021563928           82 
 1683000   0.56805824   -6.5335978    461.50166  0.022851142  0.021547409          137 
 1684000   0.58547792   -6.5324955    462.05742  0.022865074   0.02153087           41 
 1685000   0.59450756   -6.5401269    462.08205  0.022852722  0.021514335           88 
 1686000   0.58071842   -6.5572573    460.47232  0.022759604  0.021497843           58 
 1687000   0.58471614   -6.5489037    461.10549   0.02277739  0.021481319           50 
 1688000   0.58416981    -6.565293    461.43677  0.022780251  0.021464823           27 
 1689000   0.59593868   -6.5499003    461.94508  0.022791843  0.021448321           27 
 1690000   0.57347636   -6.5560986    461.34036  0.022748539  0.021431878           25 
 1691000   0.58936712   -6.5591173    460.55015  0.022696144  0.021415447           41 
 1692000   0.58368774   -6.5536266    462.10365  0.022759242  0.021399024           34 
 1693000   0.57499575   -6.5632001    461.96075  0.022738765  0.021382617           42 
 1694000   0.57338952   -6.5345483    461.25185  0.022690469  0.021366205           17 
 1695000   0.58949415   -6.5475438    461.75869  0.022702001  0.021349806           19 
 1696000   0.57499566   -6.5467913    461.20603   0.02266146  0.021333418           11 
 1697000   0.59837621   -6.5744005    461.30824  0.022653125   0.02131702           30 
 1698000   0.57158926   -6.5599857    460.92573  0.022621011  0.021300637          100 
 1699000   0.56562333   -6.5557124    461.64007  0.022642735  0.021284277           43 
 1700000   0.58042889   -6.5766021    461.87917  0.022641136  0.021267904           37 
 1701000   0.55586099   -6.5619019    460.87064  0.022578417  0.021251536           25 
 1702000   0.58554784    -6.565758    461.12532   0.02257762  0.021235199           38 
 1703000   0.58544472   -6.5742156      461.368  0.022576238  0.021218884           35 
 1704000   0.56033761   -6.5689606     461.0222  0.022546078  0.021202549           23 
 1705000   0.56648597   -6.5799224    460.69131  0.022516682  0.021186234           41 
 1706000     0.566291   -6.5553174     461.3086  0.022533636  0.021169922           22 
 1707000   0.56928475   -6.5682479    460.63199  0.022487404   0.02115366           32 
 1708000   0.56801935   -6.5728913    460.53944  0.022469723  0.021137405           59 
 1709000   0.56964241   -6.5558788    460.01114  0.022430814  0.021121129           34 
 1710000   0.55945631   -6.5796679    461.64783  0.022497458  0.021104861           51 
 1711000   0.56359398   -6.5655592    461.43885  0.022474131  0.021088679           38 
 1712000   0.57415255     -6.56962    461.87515   0.02248224  0.021072502           51 
 1713000   0.56946122    -6.577174    461.77288  0.022464141  0.021056372           58 
 1714000   0.57279013   -6.5858215    460.78664  0.022403085  0.021040285           33 
 1715000   0.56597981   -6.5904173    461.02773  0.022401736  0.021024136           95 
 1716000   0.56981704   -6.5710782    460.85537  0.022380311  0.021008001           50 
 1717000   0.56436437   -6.5870334    461.80302   0.02241327  0.020991884           54 
 1718000   0.57294235    -6.597717    461.27624  0.022374672  0.020975758           46 
 1719000   0.55652025   -6.5929089    460.59046  0.022328411  0.020959644           52 
 1720000   0.56778226   -6.5898943    460.91808  0.022331302  0.020943541           52 
 1721000   0.56202298   -6.5903201    460.35532  0.022291077  0.020927473           44 
 1722000   0.57618164   -6.5904636    460.92312   0.02230561  0.020911396           26 
 1723000   0.55845269   -6.5991584    461.14187  0.022303244  0.020895353           67 
 1724000   0.56961141   -6.5866984    461.40818  0.022303179  0.020879333           36 
 1725000   0.55744127   -6.5773111    461.92279  0.022315111  0.020863409           52 
 1726000   0.56450382   -6.5568626    461.28603  0.022271438   0.02084748           34 
 1727000   0.57174985   -6.5867345     461.6527  0.022276235  0.020831536           34 
 1728000   0.55548874   -6.5792248    460.94272  0.022229105   0.02081561           23 
 1729000   0.55715697   -6.5821622    461.61341  0.022248574  0.020799712           65 
 1730000   0.56715718    -6.595472    461.14216  0.022213013  0.020783819          114 
 1731000   0.55512401   -6.5864601    461.91905  0.022237582  0.020767921           63 
 1732000    0.5582301   -6.5824373    461.60291  0.022209532  0.020752054           43 
 1733000    0.5624941   -6.5675822    461.00273  0.022167856  0.020736199          144 
 1734000   0.55821892   -6.5700739    461.07061  0.022158334  0.020720356          117 
 1735000   0.55532827   -6.5894915    461.24497  0.022153937  0.020704492           78 
 1736000   0.56234891   -6.5896168     460.6827  0.022114185  0.020688646          164 
 1737000   0.55870743   -6.5798251    460.84527  0.022109253  0.020672776           82 
 1738000   0.55941062   -6.5917333    460.22105  0.022066602   0.02065692          107 
 1739000   0.55590022   -6.6056062    460.22407  0.022054057  0.020641057          179 
 1740000   0.55752631     -6.59203    460.31615  0.022045793  0.020625198           50 
 1741000   0.54588456   -6.5974958    460.74068   0.02205345  0.020609334           82 
 1742000   0.56339953   -6.5844668    461.24462  0.022064898  0.020593538           87 
 1743000   0.55326724   -6.6023559    461.25149  0.022052567  0.020577706          106 
 1744000   0.56294004   -6.5998262    461.59233  0.022056208  0.020561879          121 
 1745000   0.56326015   -6.6102294     459.7872  0.021957364  0.020546052          107 
 1746000   0.56421465   -6.6138523    460.86721  0.021996335  0.020530248           94 
 1747000   0.55635973   -6.5936995    461.43399   0.02201078  0.020514489           66 
 1748000   0.54459752   -6.5958242    460.35425  0.021946713  0.020498733           45 
 1749000   0.55760278   -6.5914523    461.04617  0.021967132  0.020483001           91 
 1750000   0.55297562   -6.6141731    461.40213   0.02197153  0.020467264           72 
 1751000   0.54518758   -6.5990162    461.39844  0.021958807  0.020451541           66 
 1752000   0.55534671   -6.6101082    461.56994   0.02195443  0.020435839          129 
 1753000   0.55859542   -6.6200553    461.01898  0.021915715  0.020420139          147 
 1754000   0.55508445   -6.6208131    460.68754  0.021887473  0.020404472           55 
 1755000   0.56137359   -6.5875683    460.17426  0.021850629  0.020388788          197 
 1756000   0.55228806   -6.6280626    460.46757  0.021852106  0.020373119          131 
 1757000   0.56059928   -6.6014853    461.15999  0.021872509  0.020357501           80 
 1758000    0.5642206   -6.6081644    461.65168  0.021883375   0.02034189           46 
 1759000   0.55926826    -6.595899    461.78149  0.021877084   0.02032634           73 
 1760000   0.54097608   -6.6362605    461.10655  0.021832697  0.020310762           42 
 1761000   0.54048793   -6.6058437    461.54042   0.02184083  0.020295144           65 
 1762000   0.54196566   -6.6103388    460.69519   0.02178846  0.020279575           58 
 1763000   0.53706759   -6.6196116    461.21056  0.021800461  0.020263974           64 
 1764000   0.55901995   -6.6198893    461.72367  0.021812342  0.020248418           58 
 1765000   0.55653934   -6.6098045    460.93223  0.021762617  0.020232823          102 
 1766000    0.5467746   -6.6150905    459.58078  0.021686522  0.020217288           53 
 1767000   0.55223603    -6.612576    461.15856  0.021748659  0.020201764           95 
 1768000   0.55428556   -6.6276719    460.22748  0.021692472  0.020186243           67 
 1769000   0.55139825   -6.6248075    460.47273  0.021691762  0.020170717           78 
 1770000   0.55134278   -6.6246665    460.18142  0.021665792  0.020155176          124 
 1771000   0.52875734   -6.6286566    460.55126  0.021670961  0.020139642           49 
 1772000   0.53645213   -6.6399021    461.76966   0.02171603  0.020124139           61 
 1773000   0.54465238   -6.6173327     460.2158  0.021630748   0.02010863           94 
 1774000   0.54617312   -6.6147267     461.1712  0.021663435  0.020093162          102 
 1775000   0.53828358   -6.6327161    461.07624  0.021646772  0.020077748           79 
 1776000   0.55014967   -6.6416274    460.97857      0.02163  0.020062301          114 
 1777000   0.54643674   -6.6323041    460.86861  0.021612672  0.020046914          152 
 1778000   0.54847219   -6.6142447    459.83849  0.021552235  0.020031479           87 
 1779000   0.53843928   -6.6162262    459.87789  0.021541966    0.0200161           85 
 1780000   0.54104958   -6.6389648    460.47411  0.021557777   0.02000072           53 
 1781000   0.53576577   -6.6186792    460.45433  0.021544747  0.019985368          111 
 1782000   0.54213848   -6.6323032    460.15843  0.021518819  0.019970029          144 
 1783000   0.52620342   -6.6123642    460.88932   0.02154091  0.019954752           68 
 1784000   0.52946947   -6.6257977    460.33551  0.021502967  0.019939509          100 
 1785000   0.53517216   -6.6304049     460.5195   0.02149951  0.019924241          121 
 1786000   0.53733542   -6.6256203    460.24402  0.021474618   0.01990895          116 
 1787000   0.53581135   -6.6368598    460.93949  0.021495033  0.019893704          163 
 1788000   0.54160706   -6.6590028    459.97616  0.021438113  0.019878406          175 
 1789000   0.54478568   -6.6521244    459.73213  0.021414763  0.019863131          167 
 1790000   0.53392458   -6.6461585     460.0263  0.021416494   0.01984788          240 
 1791000   0.53728824   -6.6327518    459.53636   0.02138174  0.019832642          113 
 1792000   0.54236176   -6.6455584    460.03216  0.021392865  0.019817427          127 
 1793000    0.5439122   -6.6451059    460.78691  0.021416012  0.019802212           95 
 1794000   0.53090656   -6.6409027    459.91112  0.021363393  0.019787028          106 
 1795000    0.5351018   -6.6530733    459.40462  0.021327977  0.019771776          121 
 1796000   0.52594574   -6.6726638    459.05068  0.021299679   0.01975651          174 
 1797000   0.53401391   -6.6532233    460.56869  0.021358222  0.019741293          185 
 1798000   0.53260533   -6.6365935    459.73279    0.0213076  0.019726077          152 
 1799000   0.52504101   -6.6623928    459.98091   0.02130725  0.019710888          132 
 1800000   0.54046571   -6.6268029    460.45206  0.021317225   0.01969571          107 
 1801000   0.53885584   -6.6437482    459.65164  0.021268353   0.01968056          192 
 1802000    0.5410355   -6.6449117     460.1882  0.021281363  0.019665394          232 
 1803000   0.53562882   -6.6535127    460.02258  0.021261905  0.019650231          161 
 1804000   0.53205598   -6.6551754    459.05485  0.021205416  0.019635059          343 
 1805000   0.54039904   -6.6696254    459.32695   0.02120623  0.019619904          184 
 1806000   0.53066713   -6.6532867    459.34683  0.021195406   0.01960474          169 
 1807000   0.53489306   -6.6569172    459.42157  0.021187123  0.019589569          251 
 1808000   0.53256174   -6.6715443    459.35549  0.021172359  0.019574413          537 
 1809000   0.53118685   -6.6677103    459.07363   0.02114767  0.019559252          449 
 1810000   0.53951428   -6.6729012    459.34902  0.021148666  0.019544171          275 
 1811000   0.53424564   -6.6620256    460.41994  0.021186266  0.019529106          139 
 1812000   0.52325911   -6.6687665     459.4022  0.021127768  0.019514054          201 
 1813000   0.53615191   -6.6751937    458.91479  0.021093712  0.019498993          290 
 1814000   0.51905981   -6.6540235     459.7806  0.021121858   0.01948393          174 
 1815000   0.52624876   -6.6782164    459.36322  0.021091057  0.019468887          341 
 1816000   0.53763214   -6.6626828    459.53888  0.021087503  0.019453867          276 
 1817000   0.53289842   -6.6724647    460.07864  0.021100653   0.01943884          251 
 1818000   0.52591308   -6.6595837    459.52126  0.021063497  0.019423844          450 
 1819000   0.52051037    -6.665583    459.19559  0.021036998  0.019408887          311 
 1820000   0.52173957   -6.6628579    459.15891   0.02102376  0.019393902          478 
 1821000   0.51852475   -6.6571714    460.24751  0.021062031  0.019378961          432 
 1822000   0.51981265   -6.6566609    459.77264  0.021028752  0.019364016          333 
 1823000   0.53165828    -6.674121    459.28547  0.020994948  0.019349087          156 
 1824000   0.52414791   -6.6706805    459.78286  0.021006161  0.019334148          163 
 1825000   0.51948904   -6.6950575    459.53811  0.020983475  0.019319208          317 
 1826000   0.52211486   -6.6957244    458.88427  0.020942144  0.019304276          261 
 1827000   0.51447243   -6.6710588    459.26759  0.020948166  0.019289388          159 
 1828000   0.51318673   -6.6847513    459.26444  0.020936563  0.019274497          142 
 1829000   0.52409248   -6.6818709    459.31863  0.020927585  0.019259652          236 
 1830000   0.51204574   -6.6876046    459.79869  0.020938009  0.019244803          325 
 1831000   0.52639278   -6.6811277     459.6301  0.020918901  0.019229989          374 
 1832000   0.52755982   -6.6760763    459.02051  0.020879754  0.019215182          384 
 1833000   0.52084919   -6.6750333    459.76404  0.020902166  0.019200381          397 
 1834000   0.52886483   -6.6698532    459.52827  0.020880056  0.019185596          472 
 1835000   0.52410772    -6.681558    459.94466  0.020887587   0.01917082          267 
 1836000   0.51821212   -6.6802445    459.51926  0.020856902  0.019156039          494 
 1837000   0.51957616   -6.6836787    459.10115  0.020826581  0.019141254          483 
 1838000   0.51603385   -6.6783475    459.74042  0.020844234  0.019126461          479 
 1839000   0.51323031   -6.6953331    458.72721  0.020786986  0.019111693          499 
 1840000   0.51984487   -6.6844349     459.3093  0.020802052  0.019096941          329 
 1841000   0.51057015   -6.6833856    458.50861  0.020754509  0.019082183          357 
 1842000   0.51882605   -6.6954855    459.38206  0.020782757  0.019067448          493 
 1843000   0.51935198   -6.7093302    458.74793  0.020742808  0.019052744          420 
 1844000   0.52840588   -6.6873204    459.51887  0.020766399  0.019038068          388 
 1845000   0.52353025   -6.6818126    458.17515  0.020694451  0.019023368          460 
 1846000   0.51564576   -6.6902748     459.4048   0.02073875  0.019008665          417 
 1847000   0.50725444   -6.6998101    459.01659  0.020710007  0.018993977          499 
 1848000   0.51472459   -6.6968254    458.07937  0.020656537  0.018979301          494 
 1849000   0.50926884   -6.7107897    459.77611  0.020721837  0.018964652          452 
 1850000   0.50556803   -6.7064782    459.15572   0.02068269   0.01895003          541 
 1851000   0.51144235   -6.7033356    458.88501  0.020659329    0.0189354          398 
 1852000   0.51554173   -6.6942902    459.82418  0.020690433    0.0189208          468 
 1853000   0.51498761   -6.7103965    459.04806  0.020644363  0.018906208          449 
 1854000   0.51814981   -6.7108182    459.07472  0.020634426  0.018891601          511 
 1855000   0.50741424   -6.7218104    458.96087  0.020618188   0.01887702          431 
 1856000   0.51611237   -6.7226805    458.43244  0.020583353   0.01886244          437 
 1857000   0.50663728   -6.7223079    458.47487  0.020574173  0.018847837          478 
 1858000    0.5058478   -6.7141736    459.06144  0.020589408  0.018833261          558 
 1859000   0.51018008    -6.734911    457.52453  0.020509438  0.018818699          608 
 1860000   0.50973475   -6.7259097    458.96206  0.020562816  0.018804128          649 
 1861000   0.51063766   -6.7186963     458.4298  0.020527933  0.018789563          611 
 1862000   0.50460666   -6.7130068    458.55547  0.020522533  0.018775022          518 
 1863000   0.50539282   -6.7142357    458.79952  0.020522433  0.018760506          481 
 1864000    0.5008119   -6.7084194    457.99659  0.020475527  0.018746002          613 
 1865000   0.51725236   -6.7186699    458.80452  0.020500649  0.018731491          559 
 1866000   0.50712178   -6.7124542    459.24321  0.020509254  0.018717009          449 
 1867000   0.50066679   -6.7310252    458.11014  0.020447694  0.018702517          502 
 1868000   0.51002034   -6.7175323    458.15513  0.020438755   0.01868806          555 
 1869000   0.50421012   -6.7187788    457.86385  0.020414832  0.018673623          586 
 1870000   0.51315841   -6.7482534    458.53179   0.02043368  0.018659172          576 
 1871000   0.50597471   -6.7199984    458.75016  0.020432485  0.018644759          562 
 1872000   0.49165584   -6.7155825    458.46375  0.020408821  0.018630334          545 
 1873000   0.50325225   -6.7300651    458.83989   0.02041466  0.018615919          676 
 1874000    0.4940913   -6.7362767    457.74794  0.020355209  0.018601513          723 
 1875000   0.51623659   -6.7196706    458.72455  0.020387758  0.018587108          597 
 1876000   0.49617143   -6.7519433    457.42216  0.020319037  0.018572707          583 
 1877000   0.49985909   -6.7354271    458.63779  0.020362182  0.018558325          539 
 1878000   0.50136465   -6.7272788    457.99497  0.020322816  0.018543927          471 
 1879000   0.51458846   -6.7644974    457.78956   0.02030289  0.018529555          556 
 1880000   0.49760326   -6.7495614    457.60802  0.020284044  0.018515207          433 
 1881000   0.50449363   -6.7417212    457.87476  0.020285077  0.018500853          533 
 1882000   0.50183963   -6.7443407    456.72394  0.020223341  0.018486514          495 
 1883000   0.50380674   -6.7419977    457.93735  0.020266301  0.018472194          644 
 1884000   0.48833164   -6.7470133    458.77623   0.02029265  0.018457875          622 
 1885000   0.50339219   -6.7600087    457.46123   0.02022375  0.018443565          480 
 1886000   0.50227507   -6.7475339    457.30801  0.020206257  0.018429276          642 
 1887000   0.50114558   -6.7482535    458.24373  0.020236872  0.018415002          597 
 1888000   0.49871856   -6.7553048    456.90848  0.020167218   0.01840073          670 
 1889000   0.48939561   -6.7575774    457.62622  0.020188204  0.018386478          691 
 1890000   0.50450093   -6.7632348    457.95199  0.020191887  0.018372216          769 
 1891000   0.49687503   -6.7671521    457.83084   0.02017587  0.018357988          626 
 1892000   0.50325702   -6.7650492    457.76196  0.020162172  0.018343748          763 
 1893000   0.49686102   -6.7660436     457.8881  0.020157074  0.018329505          791 
 1894000   0.50052406   -6.7548819    457.67237   0.02013694  0.018315304          770 
 1895000   0.48912452   -6.7555486    457.56836   0.02012174  0.018301098          559 
 1896000   0.49501447   -6.7655217    456.89395  0.020081485  0.018286921          792 
 1897000   0.49571158   -6.7600214    457.41156  0.020093638  0.018272744          732 
 1898000   0.49129738   -6.7652809    457.15939  0.020071979  0.018258555          811 
 1899000    0.4912054   -6.7462205    456.32941  0.020024987  0.018244377          673 
 1900000   0.50659721   -6.7762462    456.55356  0.020024279   0.01823023          722 
 1901000    0.4855913   -6.7528945    457.16224  0.020040428  0.018216095          746 
 1902000   0.48235144    -6.753649    456.88468   0.02001773  0.018201957          780 
 1903000   0.48676906   -6.7624973    457.74192   0.02004475  0.018187842          718 
 1904000   0.49045843   -6.7615199    457.55847  0.020026194  0.018173755          773 
 1905000   0.48874518    -6.778883    457.27213  0.020003155  0.018159667          713 
 1906000   0.50282335   -6.7614042      456.624  0.019964323   0.01814561          750 
 1907000   0.48505457   -6.7625135    458.31394  0.020027702   0.01813157          739 
 1908000   0.49343858   -6.7731131    457.39852  0.019977224  0.018117547          758 
 1909000   0.49398529   -6.7524597    456.80274  0.019940752  0.018103534          800 
 1910000   0.48626068   -6.7607128    457.30749  0.019952334   0.01808954          753 
 1911000   0.48636633   -6.7475953    458.38937  0.019989071  0.018075582          726 
 1912000   0.47839013   -6.7423527    457.63866  0.019945897  0.018061635          802 
 1913000   0.48930564    -6.770177    457.33499  0.019922242  0.018047686          807 
 1914000   0.48776615   -6.7601616    456.76559  0.019887042  0.018033713          801 
 1915000   0.48224442   -6.7514697     457.4871  0.019908055  0.018019755          802 
 1916000   0.50311282   -6.7745802    457.85033  0.019913462  0.018005804          679 
 1917000   0.48807456   -6.7852983    457.46825  0.019886465   0.01799187          724 
 1918000   0.48280935   -6.7736221    457.07344  0.019858943  0.017977939          782 
 1919000   0.48442058   -6.7773186    456.64014  0.019829779  0.017964005          772 
 1920000   0.49176934   -6.7833539    457.26746  0.019846678  0.017950092          811 
 1921000   0.48383994   -6.7743016    457.48437  0.019845756  0.017936185          789 
 1922000   0.49154225   -6.7787571    457.09703  0.019818636  0.017922277          751 
 1923000   0.48008088   -6.7717879    457.44852  0.019823562  0.017908409          781 
 1924000   0.49605664   -6.7751115    457.66604   0.01982268  0.017894535          776 
 1925000   0.49400379   -6.7847193    456.72419   0.01977161  0.017880681          818 
 1926000   0.48191281    -6.782689    456.84414  0.019766534  0.017866838          800 
 1927000   0.47643677   -6.7930495    456.47054   0.01974012  0.017853016          874 
 1928000   0.48582358   -6.7911114    456.53241  0.019732556  0.017839204          817 
 1929000    0.4820138   -6.7713857    457.33873  0.019757159  0.017825411          929 
 1930000   0.47880966   -6.7814339     457.3827  0.019748821  0.017811614          886 
 1931000   0.47172411   -6.7647659    456.81307  0.019714011  0.017797812          791 
 1932000   0.48068979   -6.7992863     456.8115   0.01970374  0.017784033          750 
 1933000   0.47988222   -6.7774659     457.2554  0.019712683  0.017770242          796 
 1934000   0.48369031   -6.8010831    457.68599  0.019721044  0.017756466          890 
 1935000   0.47708291   -6.7880898    456.68959  0.019667941  0.017742699          821 
 1936000   0.47356858   -6.7841743    456.91895  0.019667654  0.017728972          788 
 1937000     0.478282   -6.7872217     457.3116  0.019674394  0.017715233          817 
 1938000   0.47375092   -6.7854559    457.09524  0.019654938  0.017701518          748 
 1939000   0.48297833   -6.7966553    456.01415  0.019598339  0.017687844          733 
 1940000   0.47573523   -6.7928413    456.64732  0.019615435  0.017674151          779 
 1941000   0.48476166   -6.7936069    456.71774  0.019608352  0.017660473          783 
 1942000   0.48304157    -6.789459    456.35108  0.019582522  0.017646826          797 
 1943000   0.47346034   -6.7826551     457.0932  0.019604272  0.017633182          867 
 1944000   0.46075539   -6.7872398     455.7988    0.0195387  0.017619537          775 
 1945000   0.47235448   -6.7792392    456.87181  0.019574628  0.017605914          832 
 1946000   0.48447666   -6.7941498     456.1579  0.019533997  0.017592313          872 
 1947000   0.48292753   -6.7906358    457.04783  0.019562054  0.017578716          788 
 1948000   0.47307046    -6.795666    457.33436  0.019564269  0.017565131          854 
 1949000    0.4786334   -6.7996219    456.64409  0.019524717  0.017551562          800 
 1950000   0.48203583   -6.7920211    456.60875  0.019513194  0.017538001          897 
 1951000   0.46488132   -6.7978694    456.97864  0.019518992  0.017524456          866 
 1952000   0.47291523   -6.7891699    456.47341  0.019487423  0.017510926          863 
 1953000   0.46104945   -6.7977572    455.94808   0.01945503    0.0174974          827 
 1954000   0.47730691   -6.7980613    456.81797  0.019482172  0.017483893          842 
 1955000   0.48064969   -6.8014434    456.19324  0.019445577  0.017470393          866 
 1956000   0.47301295   -6.8005613    456.01469  0.019428029  0.017456913          904 
 1957000   0.46849312   -6.7882478    456.31523  0.019430899  0.017443455          795 
 1958000   0.46534218   -6.8084018    456.63083  0.019434407  0.017429989          820 
 1959000   0.47146576   -6.7948518    456.65857  0.019425667  0.017416522          820 
 1960000   0.46172582   -6.8006807    455.78561   0.01937864  0.017403064          904 
 1961000   0.46794032   -6.8043442    455.89957    0.0193736   0.01738962          841 
 1962000   0.46461711   -6.7993742    455.98176  0.019367217  0.017376181          848 
 1963000   0.47422409   -6.8254534    455.99129  0.019357755  0.017362756          889 
 1964000   0.47607039   -6.8076589    455.85788  0.019342238  0.017349358          947 
 1965000     0.482477   -6.8164784    456.76628  0.019370919  0.017335963          879 
 1966000   0.47403477   -6.8098079    456.37055  0.019344292  0.017322583          917 
 1967000   0.45389668   -6.7941925    455.82384  0.019311296  0.017309206          876 
 1968000   0.47093334   -6.8190345    455.76935  0.019299176  0.017295812          847 
 1969000   0.47076652   -6.8193969     456.5211  0.019321191  0.017282436          905 
 1970000   0.46782466   -6.8252469    455.75763  0.019279087  0.017269081          905 
 1971000   0.46471598   -6.8213765    456.27923  0.019291359  0.017255747          843 
 1972000   0.47029847    -6.812195    455.32228  0.019241137   0.01724243          815 
 1973000   0.46663213   -6.8184875    455.53137  0.019240216  0.017229135          830 
 1974000   0.45892522   -6.7998072    455.18527  0.019215859  0.017215817          885 
 1975000   0.46476916    -6.820694    455.39512  0.019214984  0.017202529          851 
 1976000   0.45290806   -6.8188779    455.56545  0.019212443   0.01718925          876 
 1977000   0.46594119   -6.8155633    456.56918  0.019245034   0.01717598          841 
 1978000   0.46521312   -6.8305632    455.81848  0.019203677  0.017162705          873 
 1979000   0.45351133   -6.8134168    456.09344  0.019205552  0.017149464          768 
 1980000   0.46346956   -6.8162547    456.75608  0.019223741  0.017136209          938 
 1981000    0.4498128    -6.808746    455.83317  0.019175213  0.017122976          904 
 1982000   0.46588192    -6.822681    456.29267  0.019184858  0.017109743          868 
 1983000   0.45929188   -6.8131053    455.76593  0.019153048  0.017096524          806 
 1984000   0.47031953    -6.829568    455.45369  0.019130279  0.017083309          874 
 1985000    0.4535275   -6.8263966    456.09908  0.019147736  0.017070095          860 
 1986000    0.4620569   -6.8239411    455.74861  0.019123389  0.017056914          894 
 1987000   0.45686569   -6.8302804    455.92821  0.019121297  0.017043747          953 
 1988000   0.46088729   -6.8148999    455.03345  0.019074172  0.017030578          851 
 1989000   0.45273334   -6.8259112    455.46665  0.019082732   0.01701744          898 
 1990000   0.45762013   -6.8347175    455.72516  0.019083968  0.017004298          862 
 1991000   0.45462076    -6.821701    455.93779  0.019083283  0.016991174          847 
 1992000   0.45341033   -6.8197635    455.98159  0.019075535  0.016978064          884 
 1993000   0.45901271   -6.8179022    454.83121  0.019017863  0.016964964          920 
 1994000   0.46218008   -6.8448355    454.56849  0.018997346  0.016951855          957 
 1995000   0.45884009   -6.8248936    455.97991   0.01904678  0.016938763          871 
 1996000   0.45829177   -6.8216757    455.62575  0.019022451  0.016925695          889 
 1997000   0.45083313   -6.8220049    455.45366  0.019005745  0.016912625          960 
 1998000   0.45663073   -6.8362723    455.25674  0.018988019  0.016899562          894 
 1999000   0.44870757   -6.8202401    455.78504  0.019000544  0.016886525          966 
 2000000   0.45897682   -6.8225519    454.67306  0.018944711  0.016873492         1010 
 2001000   0.45079448   -6.8276104    455.56351  0.018972327  0.016860457          929 
 2002000   0.45896344   -6.8266586    454.97697  0.018938435  0.016847469          891 
 2003000   0.45146197   -6.8493229    454.89101  0.018925404   0.01683447          898 
 2004000   0.44886808   -6.8356338    455.40718  0.018937424   0.01682147          878 
 2005000   0.44842237   -6.8331732    454.68865  0.018898115  0.016808497          926 
 2006000   0.45203346   -6.8388089    455.47824  0.018921495  0.016795541          922 
 2007000   0.45301489   -6.8457849    454.89648  0.018887912  0.016782603          962 
 2008000    0.4440378   -6.8332388    455.76042   0.01891436  0.016769653          919 
 2009000    0.4363348    -6.834102     455.3991  0.018889958  0.016756722          991 
 2010000   0.45469128   -6.8294186     454.4059  0.018839382  0.016743802          909 
 2011000   0.44587678   -6.8341199    454.98271  0.018853916  0.016730905          878 
 2012000    0.4449416   -6.8431561    455.36897  0.018860544  0.016718034          873 
Loop time of 5139.74 on 48 procs for 2000000 steps with 4000 atoms

Performance: 67240.752 tau/day, 389.125 timesteps/s
99.4% CPU use with 48 MPI tasks x no OpenMP threads

MPI task timing breakdown:
Section |  min time  |  avg time  |  max time  |%varavg| %total
---------------------------------------------------------------
Pair    | 369.75     | 403.59     | 435.61     |  81.8 |  7.85
Neigh   | 35.35      | 36.817     | 38.164     |  11.3 |  0.72
Comm    | 324.56     | 360.3      | 392.48     |  84.7 |  7.01
Output  | 4.6469     | 4.6489     | 4.7035     |   0.4 |  0.09
Modify  | 4276.5     | 4287.6     | 4300.1     |   8.4 | 83.42
Other   |            | 46.75      |            |       |  0.91

Nlocal:        83.3333 ave          91 max          76 min
Histogram: 2 0 4 6 12 9 8 4 2 1
Nghost:        2390.21 ave        2417 max        2361 min
Histogram: 1 2 3 4 10 11 9 4 3 1
Neighs:        16496.5 ave       19268 max       14696 min
Histogram: 3 9 9 6 3 7 5 5 0 1
FullNghs:      32993.0 ave       35829 max       29964 min
Histogram: 2 1 3 6 12 9 6 4 3 2

Total # of neighbors = 1583662
Ave neighs/atom = 395.91550
Neighbor list builds = 107196
Dangerous builds = 0

#clear
#
#next RN
#
#jump SELF
Total wall time: 1:25:43
