
units lj                  # Use reduced LJ style units
atom_style atomic         # Uncharged point particles
atom_modify map hash      # Needed for indexing of clusters etc
                          # Used to be able to find where atoms are in relation to each other.

lattice fcc 1.0 spacing 1 1 1
Lattice spacing in x,y,z = 1.5874011 1.5874011 1.5874011
region box block 0 10 0 10 0 10 units lattice
create_box 2 box
Created orthogonal box = (0.0000000 0.0000000 0.0000000) to (15.874011 15.874011 15.874011)
  3 by 4 by 4 MPI processor grid
create_atoms 1 box
Created 4000 atoms
  using lattice units in orthogonal box = (0.0000000 0.0000000 0.0000000) to (15.874011 15.874011 15.874011)
  create_atoms CPU = 0.006 seconds
set type 1 type/fraction 2 0.6 78393
Setting atom values ...
  2421 settings made for type/fraction
mass 1 1.0
mass 2 1.0
pair_style lj/cut  3.5
pair_modify tail  yes
pair_coeff 1  1  1.0  1.0   # Intearaction between 1 and 1 set with epsilon = 1 and sigma = 1
pair_coeff 1  2  1.5  0.8
pair_coeff 2  2  0.5  0.88

write_data data.0
System init for write_data ...
Neighbor list info ...
  update every 1 steps, delay 10 steps, check yes
  max neighbors/atom: 2000, page size: 100000
  master list distance cutoff = 3.8
  ghost atom cutoff = 3.8
  binsize = 1.9, bins = 9 9 9
  1 neighbor lists, perpetual/occasional/extra = 1 0 0
  (1) pair lj/cut, perpetual
      attributes: half, newton on
      pair build: half/bin/atomonly/newton
      stencil: half/bin/3d
      bin: standard
WARNING: Not all mixed pair coeffs generated from mixing. Use write_data with 'pair ij' option to store all pair coeffs. (../write_data.cpp:312)


#############################
#   M E L T   S Y S T E M   #
#############################

velocity all create 2.4 6229865 mom yes dist gaussian # Assign velocities
                                                    # Temperature 2.4, random number seed, zero linear momentum
                                                                                # Gaussian distribution

timestep 0.002   # simulation timestep
thermo 1000       # output thermodynamic data every 1000 steps bf 100

# Define a fix  in this case with index 1 applied to all
# particles in the simulation. This fix is for simulations
# in the anisotropic NPT ensemble. Note that we use the MTK
# correction.
fix 1 all npt temp 2.4 2.4 0.1 iso 5.68 5.68 0.5 mtk yes tchain 5 pchain 5 # Use NPT ensemble
                                                                         # Set temperature and pressure and damping
                                                                         # Numbers of thermostats in chain and in barostat
run 10000          # run for 10000 steps
Per MPI rank memory allocation (min/avg/max) = 3.642 | 3.644 | 3.648 Mbytes
Step Temp E_pair E_mol TotEng Press Volume 
       0          2.4   -4.7127585            0   -1.1136585   -4.0555291         4000 
    1000    2.4486872   -4.4665393            0  -0.79442674    5.8954157    3587.3619 
    2000    2.4338932   -4.3624866            0   -0.7125595    5.8709821    3654.2373 
    3000    2.4175554   -4.5092837            0  -0.88385723    5.2145601    3630.6176 
    4000    2.3652749   -4.5146306            0  -0.96760522    5.7175813    3574.0862 
    5000    2.4055454   -4.4588957            0  -0.85147974    5.7308445    3616.4847 
    6000    2.3691443    -4.428647            0    -0.875819    5.6276873    3628.5601 
    7000    2.4037204    -4.481874            0  -0.87719483    5.3297762    3638.0625 
    8000    2.3993687   -4.4560027            0   -0.8578494    5.5933496    3618.3852 
    9000     2.440032   -4.4452868            0  -0.78615389    5.6386668    3618.6583 
   10000    2.3950986   -4.4598038            0  -0.86805405    5.8401983    3601.3313 
Loop time of 2.65868 on 48 procs for 10000 steps with 4000 atoms

Performance: 649945.561 tau/day, 3761.259 timesteps/s
99.6% CPU use with 48 MPI tasks x no OpenMP threads

MPI task timing breakdown:
Section |  min time  |  avg time  |  max time  |%varavg| %total
---------------------------------------------------------------
Pair    | 1.2217     | 1.2868     | 1.3622     |   2.8 | 48.40
Neigh   | 0.21633    | 0.224      | 0.22944    |   0.7 |  8.43
Comm    | 0.81123    | 0.89013    | 0.97028    |   3.6 | 33.48
Output  | 0.00025535 | 0.00026022 | 0.00033348 |   0.0 |  0.01
Modify  | 0.21152    | 0.24143    | 0.26618    |   3.1 |  9.08
Other   |            | 0.01606    |            |       |  0.60

Nlocal:        83.3333 ave          91 max          75 min
Histogram: 4 4 2 6 2 7 11 4 5 3
Nghost:        1762.48 ave        1798 max        1728 min
Histogram: 1 2 4 7 9 13 6 2 3 1
Neighs:        10595.8 ave       11763 max        9255 min
Histogram: 2 4 5 5 3 6 10 5 6 2

Total # of neighbors = 508598
Ave neighs/atom = 127.14950
Neighbor list builds = 898
Dangerous builds = 167

# Equilibrate just above the melting temperature to avoid step fn in T

fix 1 all npt temp 1.25 1.25 0.1 iso 5.68 5.68 0.5 mtk yes tchain 5 pchain 5
run 2000
Per MPI rank memory allocation (min/avg/max) = 3.644 | 3.646 | 3.650 Mbytes
Step Temp E_pair E_mol TotEng Press Volume 
   10000    2.3950986   -4.4598038            0  -0.86805405    5.8401983    3601.3313 
   11000     1.240842   -6.5071159            0   -4.6463182    5.6086179     2775.957 
   12000    1.2346186   -6.5897463            0   -4.7382814    5.4529119    2761.5378 
Loop time of 0.675107 on 48 procs for 2000 steps with 4000 atoms

Performance: 511919.133 tau/day, 2962.495 timesteps/s
99.6% CPU use with 48 MPI tasks x no OpenMP threads

MPI task timing breakdown:
Section |  min time  |  avg time  |  max time  |%varavg| %total
---------------------------------------------------------------
Pair    | 0.30985    | 0.33179    | 0.36961    |   2.1 | 49.15
Neigh   | 0.04228    | 0.044456   | 0.050443   |   0.7 |  6.58
Comm    | 0.20794    | 0.24698    | 0.27737    |   2.9 | 36.58
Output  | 5.2689e-05 | 5.3871e-05 | 7.0214e-05 |   0.0 |  0.01
Modify  | 0.040532   | 0.046756   | 0.051943   |   1.5 |  6.93
Other   |            | 0.005075   |            |       |  0.75

Nlocal:        83.3333 ave          89 max          76 min
Histogram: 3 1 1 5 10 4 12 4 4 4
Nghost:        2114.88 ave        2141 max        2093 min
Histogram: 5 2 3 9 7 10 6 4 1 1
Neighs:        13856.7 ave       15429 max       12075 min
Histogram: 2 0 3 4 13 9 7 5 4 1

Total # of neighbors = 665122
Ave neighs/atom = 166.28050
Neighbor list builds = 142
Dangerous builds = 11

#############################
# L I N E A R  Q U E N C H  #
#############################

# Define solid atoms. This closely follows ten Wolde  Ruiz-Montero and Frenkel  Faraday Discuss  1996  104  93-110
# Compute components of the per-atom q6 vector
compute q6 all orientorder/atom degrees 1 6 components 6 nnn NULL cutoff 1.3 # compute the Q6 parameter.
                                                                             # Use all neighbours within 1.3 unit cell.

# get number of connections
compute coord_number all coord/atom orientorder q6 0.5

# An atom is solid if it has 8 or more connections (of a possible 14)
variable is_solid atom c_coord_number>=8
group solid dynamic all var is_solid    # Must be dynamic to update
dynamic group solid defined

# do clustering
compute cluster solid cluster/atom 1.3 # Create a cluster where all atoms within are solid and max 1.3 units from another member

# define chunks one chunk per cluster
compute clus_chunks solid chunk/atom c_cluster nchunk every compress yes  # Says which atoms are in which chunk

# count the size of each chunk
compute size_chunks solid property/chunk clus_chunks count


# Find the maximum entry in the vector of chunk sizes
variable max_n equal max(c_size_chunks)


# Thermo style which includes this variable
# thermo_style custom step temp pe vol v_max_n

thermo ${N}  # Print the thermo information every 100 steps
thermo 1000  

# Reset the npt fix at a lower temperature (below freezing)
fix 1  all npt temp  ${temp} ${temp}  0.1  iso  5.68  5.68  0.5  mtk yes tchain  5  pchain  5
fix 1  all npt temp  0.45 ${temp}  0.1  iso  5.68  5.68  0.5  mtk yes tchain  5  pchain  5
fix 1  all npt temp  0.45 0.45  0.1  iso  5.68  5.68  0.5  mtk yes tchain  5  pchain  5

dump dmp2 all dcd ${N} traj.dcd
dump dmp2 all dcd 1000 traj.dcd


compute msd all msd com yes
variable twopoint equal c_msd[4]/6/(step*dt+1.0e-6)
fix 9 all vector 10 c_msd[4]
variable fit equal slope(f_9)/6/(10*dt)
thermo_style custom step temp pe c_msd[4] v_twopoint v_fit v_max_n

fix 1 all npt temp 1.25 ${temp} 0.1 iso 5.68 5.68 0.5 mtk yes tchain 5 pchain 5
fix 1 all npt temp 1.25 0.45 0.1 iso 5.68 5.68 0.5 mtk yes tchain 5 pchain 5
run 5000000 # 5000000  # Run for this many steps
Neighbor list info ...
  update every 1 steps, delay 10 steps, check yes
  max neighbors/atom: 2000, page size: 100000
  master list distance cutoff = 3.8
  ghost atom cutoff = 3.8
  binsize = 1.9, bins = 8 8 8
  4 neighbor lists, perpetual/occasional/extra = 1 3 0
  (1) pair lj/cut, perpetual
      attributes: half, newton on
      pair build: half/bin/atomonly/newton
      stencil: half/bin/3d
      bin: standard
  (2) compute orientorder/atom, occasional
      attributes: full, newton on
      pair build: full/bin/atomonly
      stencil: full/bin/3d
      bin: standard
  (3) compute coord/atom, occasional
      attributes: full, newton on
      pair build: full/bin/atomonly
      stencil: full/bin/3d
      bin: standard
  (4) compute cluster/atom, occasional
      attributes: full, newton on
      pair build: full/bin/atomonly
      stencil: full/bin/3d
      bin: standard
Per MPI rank memory allocation (min/avg/max) = 9.843 | 9.851 | 9.855 Mbytes
Step Temp PotEng c_msd[4] v_twopoint v_fit v_max_n 
   12000    1.2346186   -6.5897463 4.1006962e-30 2.8477056e-32 8.3333333e+20            2 
   13000    1.2400484   -6.5922864   0.50462017 0.0032347445  0.041892288            3 
   14000    1.2323694   -6.6086921   0.95550824 0.0056875489  0.038664096            3 
   15000    1.2690739    -6.614061    1.3937827 0.0077432371  0.037577853            3 
   16000    1.2036492   -6.6211402    1.8578692 0.0096764016  0.037674788            2 
   17000    1.2289082    -6.621824    2.3113337  0.011330067  0.037701249            3 
   18000    1.2527129   -6.6010348    2.7512861  0.012737435    0.0379019            2 
   19000    1.2770951   -6.5849621    3.1986977  0.014029376  0.037734059            2 
   20000    1.2503853   -6.5991217    3.7131624   0.01547151  0.037775309            4 
   21000    1.2328699   -6.6409355    4.1684179   0.01654134  0.038100835            3 
   22000    1.2327206   -6.6308216    4.5695213  0.017308792  0.038098996            3 
   23000    1.2385269   -6.6665211    5.0482926  0.018290915  0.038129897            1 
   24000    1.2248509   -6.5827475    5.5189742  0.019163105  0.038086987            1 
   25000    1.2713733   -6.6664178    6.0064021   0.02002134  0.038228445            2 
   26000    1.2370434   -6.5817471     6.473886  0.020749634  0.038301342            3 
   27000    1.2548609   -6.6448533     6.937005  0.021410509  0.038277446            1 
   28000    1.2994225   -6.6759048    7.4040096  0.022035742   0.03833747            3 
   29000     1.203584   -6.6542013     7.779794   0.02235573  0.038291901            3 
   30000      1.24051   -6.6317059    8.2668878  0.022963577  0.038216147            2 
   31000    1.2545385   -6.6314604    8.7238296  0.023451154  0.038166961            2 
   32000    1.2475956   -6.6123805    9.2413325   0.02406597  0.038185153            2 
   33000    1.2276112   -6.6016235    9.6907065  0.024471481  0.038226257            2 
   34000    1.2439834    -6.619992    10.087843  0.024725104  0.038244264            3 
   35000    1.2597324     -6.64059    10.424654  0.024820605   0.03817425            2 
   36000    1.2250265   -6.6440588    10.882435  0.025190822  0.038052502            2 
   37000    1.2492899   -6.6318007    11.290112  0.025428179  0.037951696            2 
   38000    1.2439216   -6.6732594    11.681578  0.025617495  0.037821938            5 
   39000    1.2527597   -6.5881294    12.122823  0.025903467  0.037705779            3 
   40000    1.2339679   -6.6479184    12.566677  0.026180578  0.037591844            2 
   41000    1.2585816   -6.6166424    13.065928  0.026556764  0.037532206            2 
   42000    1.2658059   -6.6153367    13.323781  0.026436074  0.037407434            2 
   43000    1.2596315   -6.6114267     13.77043  0.026686879  0.037266184            1 
   44000    1.2279145   -6.5784947    14.143893  0.026787675  0.037119772            7 
   45000    1.2191566   -6.6044629    14.647207  0.027124458  0.037024981            4 
   46000    1.2458932   -6.5947629    15.107155  0.027368034  0.036951263            2 
   47000    1.2674644   -6.6301791    15.646264  0.027741602    0.0368996            5 
   48000    1.2362344   -6.6076417    16.198115  0.028121727  0.036901351            2 
   49000    1.2179791   -6.6219186    16.642092  0.028302878  0.036908183            1 
   50000    1.2517985   -6.5933559    17.150456  0.028584092  0.036931179            1 
   51000    1.2526449   -6.5908453    17.616907  0.028785796  0.036960693            3 
   52000    1.2365415   -6.6186917     18.00842  0.028859648  0.036980749            1 
   53000    1.2695491   -6.6397297    18.434813  0.028985555  0.037008953            2 
   54000    1.2492235   -6.5887215    18.903897   0.02917268  0.037016455            2 
   55000    1.2435555   -6.6570395    19.186165  0.029069946  0.037018804            2 
   56000    1.2534239   -6.6688076    19.625646  0.029204829  0.037014075            2 
   57000    1.2414926   -6.6203469    19.995161  0.029232691  0.037000645            2 
   58000    1.2515243   -6.6253618    20.431444  0.029355523  0.036967734            2 
   59000    1.2249096   -6.6086396    20.679279  0.029208021  0.036912517            2 
   60000     1.262317   -6.6331987    21.121224  0.029335033  0.036839731            2 
   61000    1.2416144   -6.6358226     21.48948  0.029357213  0.036779561            2 
   62000    1.2412106   -6.6216084     21.99144  0.029558387  0.036731009            4 
   63000    1.2397051   -6.6590433    22.387829   0.02961353  0.036673582            2 
   64000    1.2402278   -6.6113742    22.858347  0.029763472  0.036627487            1 
   65000    1.2690936   -6.6121604    23.315508  0.029891676  0.036595233            2 
   66000    1.2324177   -6.6209089    23.674504  0.029892051  0.036558229            2 
   67000    1.2478417   -6.6125164    24.218506  0.030122519  0.036532588            3 
   68000    1.2436508   -6.6801628    24.536534  0.030069282  0.036496477            3 
   69000    1.2337383   -6.6416242     25.16873  0.030397017  0.036465658            3 
   70000    1.2188962   -6.6190976    25.472972  0.030324966  0.036447805            2 
   71000    1.2474422   -6.6265103    25.965087  0.030475454  0.036432615            2 
   72000    1.2378768   -6.6310848    26.492602  0.030662734  0.036415965            2 
   73000    1.2297304   -6.6549168     26.96223  0.030778801  0.036414206            1 
   74000    1.2352233   -6.5934691    27.195718  0.030625808  0.036406898            2 
   75000    1.2059112   -6.6294085    27.612603   0.03068067  0.036386799            3 
   76000    1.2250657   -6.5993468    28.049724  0.030756276   0.03636712            4 
   77000    1.2572586   -6.6385311     28.60081  0.030953257  0.036354333            1 
   78000    1.2504353   -6.6182752    29.023612  0.031008133  0.036350164            4 
   79000     1.234972   -6.6687362    29.387375  0.030999341  0.036337637            1 
   80000    1.2484219   -6.6430246    30.102604  0.031356879  0.036334426            2 
   81000    1.2094536   -6.6973844    30.624962  0.031507163  0.036350359            2 
   82000    1.2721363   -6.6789541    30.828374  0.031329648  0.036362775            4 
   83000    1.2134387   -6.6267445    31.361341   0.03148729  0.036364656            2 
   84000    1.2265334   -6.6218411    31.474661  0.031224862   0.03635196            3 
   85000    1.2116929   -6.7157375    31.897804  0.031272357  0.036338337            1 
   86000     1.249757   -6.6793102    32.463969  0.031457334  0.036329566            4 
   87000    1.2345912   -6.6324894    33.041014  0.031648481  0.036322272            4 
   88000    1.2774776     -6.65123    33.249424  0.031486197  0.036311748            1 
   89000    1.2364766   -6.6442559    33.745134  0.031596567  0.036304982            1 
   90000    1.2346858   -6.6209194       34.191  0.031658333  0.036294455            2 
   91000      1.26207   -6.6734039    34.739969  0.031813158  0.036289389            5 
   92000    1.2324881   -6.6520514    35.227562  0.031909023  0.036298787            2 
   93000    1.2511224   -6.6200031    35.637075  0.031932863  0.036302005            3 
   94000    1.2412829   -6.6577594    35.863169  0.031793589  0.036295196            2 
   95000    1.2404559    -6.657279    36.422736  0.031949769   0.03628553            1 
   96000    1.2266267   -6.6541378    36.631171  0.031797891  0.036272782            2 
   97000    1.2218333   -6.6138355     37.24711  0.031999235  0.036263529            2 
   98000    1.2236403   -6.6571304    37.556058  0.031935424  0.036255912            3 
   99000    1.1885674   -6.6380872    37.950483  0.031944851  0.036243849            3 
  100000    1.2295982   -6.6603459    38.410637  0.032008864  0.036234624            4 
  101000    1.2337385   -6.6896728    38.870514  0.032071381  0.036225478            5 
  102000    1.2679827   -6.6494494    39.233489  0.032053504  0.036215734            3 
  103000    1.2268496   -6.6258076     39.75207  0.032161869  0.036205219            2 
  104000    1.2564432   -6.6269354    40.196425  0.032208674  0.036199237            2 
  105000    1.2084582   -6.6715987    40.669074  0.032277043  0.036191086            2 
  106000    1.2407898   -6.6863575    41.383265  0.032534013  0.036199281            2 
  107000    1.2447016   -6.6804254    41.867271  0.032606909  0.036213985            2 
  108000    1.2146637   -6.6599431    42.377016  0.032698315  0.036238393            2 
  109000    1.2248616   -6.6293841    42.786798  0.032711619  0.036261727            5 
  110000    1.2135045   -6.6281782    43.305507  0.032807202  0.036277956            3 
  111000    1.2367956    -6.665585    43.784261  0.032871067  0.036293723            6 
  112000    1.2320202   -6.6389847    44.141634  0.032843478  0.036305359            1 
  113000    1.2197166   -6.6637044    44.392773  0.032738033  0.036315806            6 
  114000    1.2065147   -6.6789041    44.736625  0.032702211  0.036322662            2 
  115000    1.2240503   -6.6837663    45.321552  0.032841704  0.036327273            4 
  116000    1.2423403   -6.6754938    45.785859   0.03289214   0.03633596            3 
  117000    1.2457874    -6.673043     46.10934   0.03284141  0.036335602            1 
  118000    1.2245846   -6.6840234    46.452904  0.032805723  0.036333321            3 
  119000    1.2116212   -6.6820157    46.994398  0.032909242  0.036334163            2 
  120000    1.2337445   -6.6849041    47.552892  0.033022841   0.03634227            2 
  121000    1.2288362    -6.646123    48.076707  0.033110679  0.036356261            1 
  122000    1.2388933   -6.6833244    48.327763  0.033010767  0.036359763            2 
  123000    1.2033629   -6.6486257    48.850534  0.033096568  0.036362971            2 
  124000    1.2302064   -6.7052111     49.26183  0.033106068  0.036366541            2 
  125000    1.2331025   -6.6647146    49.732638  0.033155092  0.036365646            1 
  126000    1.2176729   -6.6063539     50.12949  0.033154424  0.036363547            2 
  127000    1.2402195   -6.6517686    50.130686  0.032894151  0.036358172            1 
  128000    1.2439068   -6.6471383    50.584219  0.032932434  0.036345012            2 
  129000    1.2391446   -6.6854274    50.840047  0.032842407  0.036331308            2 
  130000    1.2045738   -6.6641059    50.914569  0.032637544  0.036307091            3 
  131000    1.2448779   -6.6797555    51.462344   0.03273686  0.036282829            1 
  132000    1.2233349   -6.7046947    51.590425  0.032569712   0.03625584            3 
  133000    1.2399547   -6.6377465    52.017665  0.032592522  0.036223519            2 
  134000    1.2325194   -6.6795489    52.357543  0.032560661  0.036192617            1 
  135000    1.2536525   -6.7309714    52.664163  0.032508742  0.036162161            2 
  136000    1.2524996   -6.6612997    53.185682  0.032589266  0.036132704            2 
  137000     1.236226   -6.6309053    53.644907  0.032630722  0.036101866            2 
  138000    1.2285206   -6.7288699    53.914387  0.032556997  0.036068113            2 
  139000     1.223605    -6.619404    54.359907  0.032589872   0.03603666            3 
  140000    1.2582583   -6.6804396    54.510244  0.032446573  0.036005261            5 
  141000    1.2109039   -6.6966342    54.980483  0.032494375  0.035973422            2 
  142000     1.231646   -6.6926762    55.539642  0.032593687  0.035942208            3 
  143000    1.2162333    -6.674684    55.922452  0.032588841   0.03591125            4 
  144000    1.2023197    -6.663182    55.926535  0.032364893  0.035874321            2 
  145000    1.2414579   -6.6800343    56.169249  0.032281178  0.035833215            2 
  146000    1.2355648     -6.67892    56.747295  0.032390008  0.035794828            5 
  147000    1.2339102   -6.6679774    57.463111   0.03257546  0.035757714            2 
  148000    1.1866136   -6.6330351    57.908787  0.032606299  0.035729179            3 
  149000    1.2504441     -6.68051    58.174534  0.032536093  0.035701184            4 
  150000    1.2291261   -6.6995271    58.466631  0.032481461  0.035670403            2 
  151000    1.2468622   -6.6656361    58.883864  0.032496613  0.035637188            3 
  152000    1.2409669   -6.7123411    59.262594  0.032490457  0.035607522            5 
  153000    1.2122054   -6.6946683    59.820631  0.032582043  0.035580268            2 
  154000     1.189235   -6.6760952    60.112948  0.032528651  0.035551272            6 
  155000    1.2317399   -6.6275325    60.570967  0.032565036  0.035521325            4 
  156000    1.2409608   -6.6426142    60.938852  0.032552805  0.035490132            3 
  157000    1.2346258   -6.6724089    61.199473  0.032483797  0.035459394            2 
  158000    1.2043504   -6.7102146    61.395377  0.032381528   0.03542911            3 
  159000    1.2253582   -6.6756557    61.836052  0.032408832  0.035395108            3 
  160000    1.2174146   -6.6765321     62.33424   0.03246575  0.035363854            3 
  161000    1.2223395   -6.6754838    62.555534   0.03237864  0.035332867            1 
  162000    1.2339583   -6.6833866     62.90625  0.032359182   0.03530034            1 
  163000    1.2392634   -6.6597305    63.886459  0.032661789   0.03527279            1 
  164000    1.2167536   -6.6789951    63.907968  0.032473561  0.035245884            2 
  165000    1.2093992   -6.6848934     64.20911  0.032428843  0.035216457            2 
  166000    1.2190328   -6.7125626    64.320482  0.032289398    0.0351835            1 
  167000    1.1987768   -6.6695484    64.857454  0.032363999  0.035148976            1 
  168000    1.2005375   -6.6974148    65.193731   0.03233816  0.035116334            2 
  169000    1.1974178   -6.6972016     65.67182  0.032382554  0.035086435            3 
  170000     1.237571   -6.6697173    66.216949  0.032459289  0.035060563            2 
  171000    1.2325304   -6.7243445    66.559307  0.032436309   0.03503725            1 
  172000    1.2492301   -6.6619601    67.546141  0.032725843  0.035016844            2 
  173000    1.2283924   -6.6958649    67.646164  0.032584857  0.034999532            1 
  174000    1.2010929   -6.6752635    68.243713  0.032683771  0.034983571            3 
  175000    1.2146728   -6.6846206    68.462897  0.032601379  0.034965342            4 
  176000    1.2271603    -6.650198    69.391806  0.032855969  0.034950046            2 
  177000    1.2273536     -6.68301    69.515898  0.032728765  0.034935298            3 
  178000    1.2389361   -6.6806816    69.912902  0.032730759  0.034920113            2 
  179000    1.1959179   -6.6652466    70.541783  0.032840681  0.034907978            1 
  180000    1.2350351   -6.6529728    71.315535  0.033016451  0.034899856            1 
  181000    1.2314305   -6.7385865    71.200001  0.032780847  0.034892245            2 
  182000    1.2288077   -6.6719145    71.456765  0.032718299  0.034880993            2 
  183000     1.226477   -6.6829075    72.284746  0.032916551  0.034874058            3 
  184000    1.2043115   -6.7011418    72.789758  0.032966376  0.034867494            4 
  185000    1.2236663   -6.6849208    73.082542  0.032920064  0.034859225            3 
  186000    1.2117426   -6.6760832    73.225235  0.032807005   0.03484819            3 
  187000    1.2653282   -6.7040328     73.81978  0.032896515  0.034839359            1 
  188000    1.2650864    -6.744905    74.463349  0.033006804  0.034835108            2 
  189000    1.2153152   -6.6926213    75.353591  0.033224687  0.034833923            2 
  190000    1.2390056   -6.6876414    75.694059  0.033199149  0.034836062            6 
  191000    1.2183126   -6.6746993    76.227849  0.033258224  0.034836281            3 
  192000    1.2250096   -6.7112326    76.361075  0.033142828  0.034838049            3 
  193000    1.2220266   -6.6815156    76.561898  0.033057814  0.034840487            3 
  194000     1.214523   -6.6836834    77.298917  0.033204002  0.034839555            3 
  195000    1.2225341   -6.6614747    78.081774   0.03336828  0.034841881            1 
  196000    1.1960356   -6.6826033    78.289611  0.033286399  0.034846967            2 
  197000    1.2236477   -6.6924376    78.600276  0.033248847  0.034848234            4 
  198000    1.1989812   -6.6648116    78.608979  0.033084587  0.034846241            2 
  199000    1.2375422    -6.654422    79.198804  0.033165328  0.034842745            2 
  200000    1.2317736   -6.6940292     79.15839  0.032982662    0.0348389            3 
  201000    1.2015894   -6.6464957    80.153871   0.03323129  0.034834812            3 
  202000    1.2204969   -6.6996214    80.024802  0.033013532  0.034831503            3 
  203000    1.2143675    -6.701424    80.332901  0.032977381  0.034825315            2 
  204000    1.2582882   -6.6904959    80.855663  0.033029274  0.034816828            3 
  205000    1.2448735   -6.7473538    80.931436  0.032898958  0.034808998            2 
  206000    1.2217508   -6.7048844    81.787796  0.033085678   0.03480337            1 
  207000     1.220081   -6.6761995     82.20618  0.033094275  0.034799277            1 
  208000    1.2221542   -6.6438639    83.104247  0.033294971  0.034796209            1 
  209000    1.2042247   -6.6609034     83.30234  0.033214649  0.034794015            2 
  210000    1.2129137    -6.708708     83.67326  0.033203675  0.034788515            3 
  211000    1.2288192   -6.6760362    84.015992  0.033181671  0.034786587            4 
  212000    1.2168189   -6.7310966    84.480467  0.033207731  0.034783061            5 
  213000    1.2188118   -6.6507992    84.965962  0.033241769   0.03477924            5 
  214000    1.2174725   -6.6470903    85.506781  0.033297033  0.034778176            2 
  215000    1.1984206     -6.72578    85.864293  0.033280733   0.03477761            3 
  216000    1.2030714   -6.6751806    86.107636  0.033220539  0.034776074            4 
  217000     1.207388   -6.6733029    86.266558  0.033128478  0.034773148            2 
  218000    1.2318687   -6.7127962    86.720621  0.033150084  0.034770726            4 
  219000    1.1879523   -6.6836025    86.876865  0.033058168  0.034767262            3 
  220000    1.2266504   -6.7189977    87.317966  0.033074987  0.034762962            2 
  221000    1.2218497   -6.6604622    88.210695  0.033261951  0.034758637            2 
  222000    1.2332546   -6.6847779    88.841458  0.033348896  0.034755598            2 
  223000    1.2372062   -6.6816687     88.94802   0.03323917  0.034754159            3 
  224000    1.2045426   -6.6850667    89.641175  0.033348651  0.034752609            3 
  225000    1.2254314    -6.739244      89.9049  0.033298111  0.034750312            2 
  226000    1.2173999   -6.7338878    90.350933  0.033315241  0.034748298            2 
  227000    1.2147183   -6.6974554    90.807795  0.033336195   0.03474583            7 
  228000    1.2116734   -6.7286959    91.113231   0.03330162  0.034745016            2 
  229000    1.2389838   -6.7512013    91.404255  0.033262101  0.034744644            4 
  230000    1.2053623   -6.6962728    92.046613  0.033350222  0.034743206            2 
  231000    1.2080723    -6.715078    92.568823  0.033394236  0.034743961            4 
  232000    1.2109842   -6.7307402    93.164012  0.033464085  0.034745154           10 
  233000    1.2199785   -6.6907558    93.939089  0.033597671  0.034747721            3 
  234000    1.2071069   -6.6630034    94.115035   0.03351675   0.03475099            2 
  235000    1.2156229   -6.7248724    94.433737  0.033487141  0.034753235            5 
  236000    1.2173656   -6.6635366      94.7578  0.033459675  0.034754807            2 
  237000    1.2291152   -6.6436531    95.260835  0.033495371  0.034755709            2 
  238000    1.2047562   -6.6968214    95.160802  0.033319608  0.034754559            2 
  239000       1.2252   -6.7201481    95.669251  0.033357479  0.034753759            1 
  240000    1.2222195   -6.6811524    96.475974  0.033498602   0.03475263            3 
  241000    1.2129316   -6.7497657    96.491606  0.033365009  0.034752344            3 
  242000    1.2219957   -6.7249501    97.307885  0.033508225  0.034753591            4 
  243000    1.2057684   -6.7650788    97.300027  0.033367636  0.034754421            9 
  244000    1.2215885   -6.7133625    97.685609  0.033362571  0.034753798            9 
  245000    1.2038285   -6.7408464    98.066213  0.033355855  0.034753087            5 
  246000    1.2247759   -6.6904348     98.74123  0.033448926  0.034751634            4 
  247000    1.1901978   -6.7043216    98.742182  0.033313826  0.034749187            5 
  248000     1.216931    -6.688634    99.279484  0.033360042  0.034747525            2 
  249000    1.1940002     -6.65475    99.927932  0.033443083   0.03474642            4 
  250000    1.2455472   -6.6632912    100.67631   0.03355877  0.034744717            1 
  251000    1.2249104   -6.6287011    100.63056  0.033409881  0.034743623            3 
  252000    1.1873536   -6.7284644    100.42402  0.033209002  0.034739773            2 
  253000    1.2181921   -6.7061431    101.32894  0.033375804  0.034735992            3 
  254000     1.209099   -6.7078474     101.2314  0.033212402  0.034731306            1 
  255000    1.1957387   -6.7182709     101.8735  0.033291993  0.034724909            2 
  256000     1.216938   -6.7178059    101.89468  0.033168842  0.034718835            3 
  257000    1.2203543   -6.7181661     102.3479  0.033186738  0.034713529            3 
  258000     1.186109   -6.7008527     102.9784  0.033261758  0.034707072            4 
  259000    1.2104238    -6.750924    103.34218  0.033250378  0.034702692            1 
  260000    1.2086438   -6.6321733    104.19836  0.033396911  0.034697672            2 
  261000    1.2362314   -6.6911752    104.48366  0.033360045  0.034693547            1 
  262000     1.201116   -6.7067906    104.84785  0.033348552  0.034689204            4 
  263000    1.2134708   -6.7243158    105.41947  0.033402873  0.034686932            3 
  264000    1.2201201   -6.7128369    105.63383  0.033344013  0.034683495            1 
  265000    1.1827166   -6.7298994    106.30325  0.033428693   0.03468029            1 
  266000    1.2065069   -6.7196139    106.71638   0.03343245  0.034676715            2 
  267000    1.1913891   -6.7553395    106.51587  0.033244655  0.034672052            2 
  268000    1.1992921   -6.7579106    107.10949   0.03330519  0.034666574            5 
  269000    1.2423359   -6.7150054    107.66768  0.033354301  0.034661911            2 
  270000    1.2420186   -6.7401678    107.38531  0.033143615  0.034655714            5 
  271000    1.1991912   -6.7269894    107.95333   0.03319598  0.034649207            4 
  272000    1.2117891   -6.7377668    108.47458  0.033233633  0.034642877            1 
  273000    1.1999276   -6.7201655    108.73436  0.033191197  0.034637054            4 
  274000    1.2102525   -6.6976852    109.65412  0.033349792  0.034631048            2 
  275000    1.2536259   -6.7286076    109.98183  0.033327828  0.034626223            6 
  276000    1.1872909   -6.7207093    110.70046  0.033424051  0.034621867            1 
  277000    1.2301702   -6.6966283    110.99311  0.033391429  0.034617252            3 
  278000     1.203623   -6.7286548     111.0728  0.033295205  0.034612617            5 
  279000     1.224231   -6.7463556    111.25875  0.033231406  0.034605912            1 
  280000    1.2188497   -6.7634961    111.44946  0.033169481  0.034599881            3 
  281000    1.1743735   -6.6608246    112.68016  0.033416416  0.034594422            3 
  282000     1.190938   -6.6953562    112.80441  0.033334638  0.034588335            4 
  283000    1.2252812   -6.7416441    112.48107  0.033121636  0.034581422            5 
  284000    1.2029353   -6.6899822    113.37049  0.033265989  0.034574828            2 
  285000    1.2033086   -6.7160114    113.79969  0.033274762  0.034569201            2 
  286000    1.2157652   -6.7512052    114.06678  0.033236241   0.03456349            2 
  287000    1.2009427   -6.7425099    115.04407    0.0334042  0.034558814            3 
  288000    1.1792509   -6.7316291    115.13779  0.033315334  0.034555276            2 
  289000    1.2084077   -6.7831365     115.3485  0.033260813  0.034551049            1 
  290000    1.2033011   -6.7519727    115.34893  0.033146244  0.034545867            2 
  291000     1.229787    -6.725497    116.27465  0.033297436  0.034541513            3 
  292000    1.2034082   -6.7056186    117.05418  0.033405875  0.034537008            2 
  293000    1.1880586   -6.7704273    117.09795  0.033304309  0.034533451            5 
  294000    1.1961972   -6.7311879    117.75824  0.033378187  0.034529449            1 
  295000    1.1950566   -6.7447271    117.67349  0.033241099  0.034525383            4 
  296000    1.2018298   -6.7314385    118.31035  0.033308095  0.034521751            4 
  297000    1.1988249   -6.7729861     118.2174  0.033169864  0.034517549            3 
  298000    1.1962022   -6.7455949    118.96205  0.033266792  0.034512684            2 
  299000    1.1885032   -6.6987728    119.57927  0.033327556  0.034509253            4 
  300000    1.1895807   -6.7375915    119.91423  0.033309509  0.034505199            2 
  301000    1.2371249   -6.6922396    120.93487  0.033481414  0.034501697            3 
  302000    1.1832007   -6.7312465    121.08852  0.033412947  0.034498511            2 
  303000    1.2030555    -6.727617    122.03752  0.033563676  0.034495412            1 
  304000    1.2113503    -6.725634    122.30256  0.033525922  0.034494874            3 
  305000    1.2019757   -6.7063371    122.26849  0.033406692  0.034494201            2 
  306000    1.2075145   -6.7213048    123.22697  0.033558543  0.034493447            2 
  307000    1.2149667   -6.7420397    123.72131  0.033583417   0.03449336            2 
  308000    1.2145739   -6.7034293     124.2937  0.033629247  0.034493508            3 
  309000    1.2051614   -6.7064616    124.56017  0.033592279  0.034493599            2 
  310000    1.1663781   -6.7310653    125.07133  0.033621325  0.034494291            4 
  311000    1.2189966   -6.6901485     125.2663   0.03356546  0.034493274            2 
  312000     1.209092   -6.7404167     125.1396  0.033424038   0.03449144            3 
  313000    1.2004461   -6.7287233     125.7042  0.033467572  0.034489734            3 
  314000    1.1897072   -6.7078315    126.33291  0.033527842  0.034487993            2 
  315000    1.2029116   -6.6733705    127.03659  0.033607562  0.034484584            3 
  316000    1.2208658   -6.8053723    126.16159  0.033270462  0.034481546            1 
  317000    1.1814988   -6.7535588    126.87071   0.03335192  0.034477165            2 
  318000    1.2152688   -6.7601217    127.48869  0.033408986  0.034472756            3 
  319000    1.2072227   -6.7773288    127.45569  0.033295635  0.034469689            3 
  320000    1.1817961   -6.7387341    128.20919   0.03338781  0.034466066            5 
  321000    1.2175378   -6.7582168    128.11144  0.033258421  0.034460965            1 
  322000    1.2079829   -6.7646823    128.42663  0.033236705  0.034455798            3 
  323000    1.1943806   -6.7326978    128.79177  0.033228012  0.034450572            3 
  324000    1.2008718    -6.766905    129.66959  0.033351231   0.03444502            5 
  325000    1.1857949   -6.7169955    129.95319   0.03332133  0.034439899            2 
  326000    1.2010323   -6.7362465    130.43361  0.033341925  0.034434806            2 
  327000    1.2356269   -6.7433667     130.5788  0.033276963  0.034429172            2 
  328000    1.1922419   -6.7955403     130.6561  0.033195147  0.034424706            4 
  329000    1.1958094   -6.7720519    131.21003  0.033234556  0.034418334            3 
  330000    1.2069815   -6.7256966    131.43517  0.033190698  0.034411791            1 
  331000    1.2407205   -6.7830258    131.68673  0.033153758  0.034405652            3 
  332000    1.2289637   -6.7718693    132.25294  0.033196018  0.034398671            5 
  333000    1.2266805   -6.7845209    132.40226  0.033133698  0.034391102            2 
  334000    1.2025771   -6.7670213    132.53438  0.033067459  0.034382435            2 
  335000    1.2042459   -6.7398456    133.20356  0.033135213  0.034374199            3 
  336000    1.2004294   -6.7062692    133.74528  0.033170952  0.034366008            2 
  337000    1.2019329   -6.7554784    133.46179   0.03300242  0.034357236            1 
  338000    1.2007201   -6.7080194    134.43601  0.033144974  0.034348181            1 
  339000      1.19147   -6.8281546    134.11727  0.032968847  0.034338539            3 
  340000    1.2083839   -6.7365254    134.50137  0.032966021  0.034328684            2 
  341000    1.2463017   -6.7224307    135.30841  0.033066571  0.034319698            3 
  342000    1.2305593   -6.7217099    135.89492  0.033112798   0.03431041            5 
  343000    1.1970627   -6.7427572    135.21702  0.032851561  0.034299286            2 
  344000     1.229202   -6.7703363    135.52049  0.032829576  0.034286095            4 
  345000    1.2151854   -6.7442545    136.05286  0.032863009   0.03427289            3 
  346000    1.1964019   -6.7622597    135.49024  0.032632523  0.034258331            3 
  347000    1.1949699   -6.8020957    135.93262  0.032644721  0.034241707            3 
  348000    1.1906267   -6.7095549    136.53586  0.032695368  0.034226223           12 
  349000    1.2000945   -6.7479089    136.71143  0.032643608  0.034210941            3 
  350000     1.184514   -6.7613363    136.95325  0.032607916   0.03419617            2 
  351000    1.1907402    -6.732965    137.63622  0.032677166  0.034181157            3 
  352000    1.2039528   -6.7507985    137.67577  0.032593696  0.034165643            2 
  353000     1.202266   -6.7950139    137.94584  0.032565119  0.034150962            3 
  354000    1.2058171   -6.7547984    138.76855  0.032666797  0.034137387            2 
  355000    1.2170615    -6.701042    139.93752  0.032849183  0.034124157            3 
  356000    1.1900195    -6.751802    139.72311  0.032706721  0.034111434            3 
  357000    1.2093591   -6.7610964    139.90329  0.032657163  0.034098824            3 
  358000    1.2067742   -6.7507433    140.81729  0.032778699  0.034085953            2 
  359000    1.1990416   -6.7520157    140.70621  0.032661609  0.034072942            6 
  360000    1.1811876   -6.7592607    141.58732  0.032774843  0.034060026            2 
  361000    1.1845686   -6.7520735     141.3579  0.032631095  0.034048885            6 
  362000     1.214162   -6.8211673    141.71447  0.032623037  0.034035619            2 
  363000    1.2050696   -6.7566244    142.34194  0.032677214  0.034022668            2 
  364000    1.2140047   -6.7725326    142.87952  0.032710514  0.034011592            3 
  365000    1.1892018   -6.7572706    143.45365  0.032751976  0.034000546            3 
  366000    1.2131189   -6.7496944    143.56283  0.032687347  0.033989069            2 
  367000    1.1700603   -6.7814552    144.22777  0.032749266  0.033976883            5 
  368000    1.1929698   -6.8237663    143.69251  0.032539065  0.033964748            3 
  369000    1.2241912    -6.764293    144.44625  0.032621104  0.033953234            3 
  370000    1.1963769   -6.7565607    145.27311  0.032719168  0.033942374            3 
  371000    1.2068052   -6.7437905    145.74661  0.032737334  0.033932444            2 
  372000    1.1673487    -6.827204     145.5118   0.03259673  0.033920859            2 
  373000    1.1940075   -6.7430729    146.31666  0.032689155  0.033908624            2 
  374000    1.2201556   -6.7549059    146.73719  0.032695452  0.033897771            2 
  375000    1.2001739   -6.7441263    146.98395  0.032663101  0.033887553            4 
  376000    1.1915807   -6.8063768    147.60147  0.032713092  0.033877612            2 
  377000    1.1955806   -6.7592619    147.58845  0.032623441  0.033868024            6 
  378000    1.1840237   -6.7725677    148.50815  0.032739893  0.033857239            6 
  379000     1.215615   -6.7827459    148.35632  0.032620122  0.033846315            1 
  380000    1.1726192   -6.7628572    149.24142  0.032728381  0.033835898            2 
  381000    1.2180446   -6.7882673    148.71768  0.032527926  0.033825106            4 
  382000    1.2010272   -6.7919814    149.25277  0.032559505  0.033813937            2 
  383000    1.1896843   -6.7709571    149.69672  0.032571087  0.033802629            2 
  384000    1.1902333   -6.7469674    150.39179  0.032637107  0.033791452            4 
  385000    1.2047733   -6.7812717    150.34016  0.032541161  0.033778919            3 
  386000    1.1899337   -6.7902295    150.60436  0.032513894  0.033766945            1 
  387000    1.2078803    -6.810935    150.86267  0.032485502  0.033754702            3 
  388000    1.1994882   -6.8130079    151.38711  0.032514414  0.033742905            4 
  389000    1.1926527   -6.7508291    152.54842  0.032679609  0.033732331            3 
  390000    1.1771513   -6.7350591    152.77878  0.032645038  0.033722484            9 
  391000    1.1889921   -6.7467176    153.18747  0.032648652  0.033713187            3 
  392000    1.1805106   -6.7317146    153.54905  0.032642231  0.033703244            3 
  393000    1.1690776   -6.7424768    153.72048  0.032595522  0.033693175            1 
  394000    1.1944329   -6.7206243    154.50541   0.03267881  0.033684321            3 
  395000    1.1968265   -6.7843606    154.49934  0.032594798  0.033675009            3 
  396000    1.1882679   -6.8038493    154.54239  0.032521546  0.033664568            2 
  397000    1.2052128   -6.7895413    155.02503  0.032540939  0.033653307            4 
  398000     1.189971   -6.7417597    155.66295  0.032592745  0.033642751            5 
  399000    1.1808601    -6.776401    156.00834  0.032583195  0.033632382            4 
  400000    1.1869806    -6.788354    155.78592    0.0324554  0.033621045            2 
  401000    1.2044291    -6.806009    156.07091  0.032433688  0.033609137            3 
  402000    1.1797594   -6.8021632    156.59707  0.032462079   0.03359781            3 
  403000    1.2093479   -6.7526549    156.74612  0.032412349  0.033586582            3 
  404000    1.1727525   -6.7640535    157.26056  0.032438234  0.033575426            4 
  405000    1.1964861   -6.7902071    157.20332  0.032346362  0.033564523            3 
  406000    1.1944202   -6.7558838    157.80542  0.032390274  0.033553844            6 
  407000     1.150724    -6.740347     158.8954  0.032533866  0.033543241            2 
  408000    1.1952149   -6.7705853    158.54496  0.032382548  0.033532142            2 
  409000    1.1749287   -6.7468178    158.87079  0.032369762   0.03352097            3 
  410000     1.204504    -6.744534    159.87953   0.03249584  0.033510834            3 
  411000    1.1924306   -6.7895552    159.54556  0.032349059  0.033499384            4 
  412000    1.1899059   -6.7935701    159.25847  0.032212473  0.033488201            2 
  413000    1.1988427   -6.7882593    160.62558  0.032410327   0.03347743            5 
  414000    1.1770618   -6.7882326    161.07443  0.032422389  0.033466733            3 
  415000    1.2220598   -6.7778057    161.35465  0.032400531  0.033457895            2 
  416000    1.1645223   -6.7959863    161.80169  0.032412198  0.033448514            4 
  417000     1.221988   -6.8040253     162.3296  0.032439969  0.033438529            4 
  418000    1.1792567   -6.7638652    162.76212  0.032448589  0.033428298           11 
  419000    1.1762908   -6.7979913    163.08773  0.032435904  0.033418325            3 
  420000    1.1947365   -6.7659853    163.48927  0.032438346  0.033408625            3 
  421000    1.1954868   -6.7786557    164.19371  0.032500735   0.03339984            3 
  422000    1.1780168   -6.7685221    165.16076  0.032614684  0.033391645            2 
  423000    1.1916065   -6.7471113    164.91429  0.032489024  0.033383077            3 
  424000    1.1781016   -6.7829882    165.06582  0.032442182  0.033374071            2 
  425000    1.2014895   -6.7812501    165.51404  0.032453734  0.033364722            2 
  426000    1.1800977   -6.7542195    165.35774  0.032346977  0.033355546            2 
  427000    1.1831618   -6.8472116     165.4091  0.032281245  0.033345965            5 
  428000    1.1873682   -6.7534682    166.88499  0.032493184  0.033336152            1 
  429000    1.1864171   -6.7598303    167.34501  0.032506801  0.033327839            3 
  430000    1.1855858   -6.7883745    167.78367  0.032516214  0.033320143            4 
  431000    1.1926919   -6.7831373    168.11475  0.032504785  0.033312613            2 
  432000    1.2191837   -6.8000915    168.12756  0.032432014  0.033305146            1 
  433000    1.1927628   -6.7670336    168.62916  0.032453649  0.033297773            5 
  434000    1.1763327   -6.7786861     169.2741  0.032502707  0.033289982            2 
  435000    1.1622986    -6.806725    169.24292  0.032422016  0.033282177            3 
  436000    1.1630646   -6.7813235    170.09235  0.032510006  0.033274539            2 
  437000    1.1919813   -6.7815263    169.92968  0.032404591  0.033266995            2 
  438000    1.1756417   -6.7863434    171.04167  0.032542174  0.033260383            4 
  439000    1.1945059   -6.8010565    170.77137  0.032416736  0.033253208            4 
  440000    1.1931284   -6.7635949    171.67141  0.032513524    0.0332465            4 
  441000    1.1994731   -6.7487582     171.6269  0.032431387  0.033238933            2 
  442000    1.1816119   -6.7838762    172.35657  0.032495582  0.033231074            3 
  443000    1.1867266   -6.8526194    171.36806  0.032236279  0.033222549            5 
  444000     1.178789   -6.8030258    172.22276  0.032324091  0.033213794            4 
  445000    1.1621276    -6.765009     172.6044   0.03232292  0.033205112            2 
  446000    1.1730358   -6.8419971    172.91607  0.032308683  0.033196934            2 
  447000    1.1735239   -6.8523757    173.48665  0.032342775  0.033188579            4 
  448000     1.174105   -6.8028582    173.66091  0.032302996  0.033180111            3 
  449000    1.1916476   -6.7888946    174.27524  0.032345071  0.033171072            2 
  450000    1.1736745    -6.763738    175.07306  0.032420936  0.033163443            2 
  451000     1.170335   -6.7890274    174.79542   0.03229775  0.033155741            4 
  452000    1.1950986   -6.8056391    175.11964  0.032286069  0.033147222            1 
  453000    1.1757785   -6.8353944    174.61858  0.032122624  0.033137921            6 
  454000    1.1788001   -6.7966105    176.04379  0.032313472  0.033128588            3 
  455000    1.1859698   -6.8370215    176.12619  0.032257545    0.0331197            2 
  456000    1.1758926   -6.8290141    176.21516  0.032203064  0.033110335            1 
  457000    1.1893065   -6.8286844    176.81083  0.032241216  0.033101925            3 
  458000    1.1794994   -6.7695026    177.44858  0.032286859  0.033093488            2 
  459000    1.1971863   -6.7755218    177.85322  0.032289981  0.033085308            3 
  460000    1.1786657   -6.7691307    177.27176  0.032114449  0.033076643            3 
  461000    1.1692851   -6.8244409    178.36457   0.03224233  0.033067388            3 
  462000    1.1695604   -6.7990607    178.26506  0.032154593  0.033058911            3 
  463000    1.1708706   -6.8046068    178.35085  0.032100585  0.033049462            1 
  464000     1.161567   -6.7695553    179.48465  0.032235031  0.033039612            4 
  465000    1.1549262   -6.7840174    179.46443  0.032162085  0.033029643            1 
  466000    1.1900367   -6.7987485    179.05395  0.032019662  0.033018886            3 
  467000    1.1740006   -6.8765319    178.99451   0.03194049  0.033008107            2 
  468000    1.1585776   -6.7960333    179.85268   0.03202505   0.03299721            2 
  469000    1.1779131   -6.8222283    179.62004  0.031915429  0.032986812            3 
  470000    1.2000991   -6.7872391    181.03519  0.032098437  0.032976445            2 
  471000    1.1757785   -6.7938087     181.3055  0.032078113  0.032966164            1 
  472000    1.1594866   -6.8543315    181.17545  0.031987192  0.032955644            3 
  473000     1.174524   -6.8173912    182.01581  0.032067619  0.032945681            2 
  474000    1.1835905   -6.7982983    181.69468  0.031943508  0.032935744            3 
  475000    1.1789349   -6.8083245    183.06439   0.03211656  0.032926155            4 
  476000    1.1919964   -6.8457957    182.35827  0.031925468  0.032916696            2 
  477000    1.1764733   -6.7814119    184.19963  0.032180229  0.032907298            4 
  478000    1.1947917   -6.8219136    183.59321  0.032007185  0.032898706            2 
  479000    1.1890616   -6.7807017    184.57221  0.032110683  0.032889412            6 
  480000    1.2000246   -6.8339347    183.79534  0.031908913   0.03287988            5 
  481000    1.1801807   -6.8177519    184.87532  0.032029681  0.032870479            4 
  482000    1.1958747   -6.8390094    185.23577  0.032025549  0.032860996            1 
  483000    1.2018016   -6.8407756    185.18729  0.031950878   0.03285152            4 
  484000    1.1591058   -6.8450426    185.43448  0.031927425  0.032842016            3 
  485000    1.1726967   -6.8356305    184.85913  0.031762736  0.032831883            3 
  486000    1.1816747   -6.8157532     186.4744  0.031974349  0.032821607            3 
  487000    1.1762026   -6.8175222    186.25223  0.031870676   0.03281202            4 
  488000    1.1389457   -6.8263799    187.07946  0.031946629  0.032802568            4 
  489000    1.1577548   -6.8386539    187.31539  0.031921505  0.032793314            4 
  490000    1.1790324   -6.7907794    188.06989  0.031984676   0.03278448            2 
  491000    1.1844203   -6.7968165    188.55482  0.032001836  0.032776001            1 
  492000    1.1865728   -6.8136587    189.00166  0.032012476  0.032766686            3 
  493000    1.1788025    -6.819547    188.81601  0.031916161  0.032756597            3 
  494000     1.181041   -6.8331668    189.54454   0.03197445  0.032746088            1 
  495000     1.184636   -6.7899972    189.43734  0.031891809  0.032735614            4 
  496000    1.1726437   -6.8189559    189.64304  0.031862069   0.03272555            3 
  497000    1.1627323   -6.8563917    189.72098   0.03181103  0.032715332            3 
  498000    1.1581266   -6.7863168    190.80269  0.031928161  0.032705429            2 
  499000    1.1574385   -6.7866916    191.41801  0.031966936  0.032695914            2 
  500000    1.1650807   -6.7813846    191.50631  0.031917719  0.032686032            2 
  501000    1.1782308   -6.7750654    192.03701  0.031942283  0.032676435            2 
  502000     1.198646   -6.8051783    191.59555   0.03180537  0.032666746            2 
  503000    1.1858463   -6.7629864    192.79525  0.031940896  0.032657035            3 
  504000    1.1615832   -6.8076406    192.23867  0.031785495  0.032647217            2 
  505000    1.1465684   -6.8241546    192.28329  0.031729916  0.032636272            1 
  506000    1.1785421    -6.811893    193.16598  0.031812579  0.032625765            4 
  507000    1.1692445   -6.7916715    193.04333  0.031729673  0.032615482            5 
  508000    1.1751776    -6.803495    194.03851  0.031830464  0.032605498            3 
  509000    1.1564658   -6.8160645    194.16525  0.031788679  0.032595172            2 
  510000     1.158804   -6.8244891    194.65528  0.031806418  0.032585773            5 
  511000    1.1791178   -6.8030477    195.63831  0.031904486  0.032576432            4 
  512000    1.1545572   -6.8558684    194.74743  0.031697173  0.032566733            2 
  513000     1.142685   -6.8606977    195.33873  0.031731437  0.032556484            2 
  514000    1.1766305   -6.8184356    195.91363   0.03176291  0.032546563            3 
  515000     1.163089   -6.7614318     197.0914  0.031891812  0.032536999            3 
  516000    1.1594251   -6.8276065    196.31058  0.031703905  0.032527518            2 
  517000    1.1844306    -6.800157     197.2825  0.031799243  0.032518262            2 
  518000    1.1809168   -6.7931875    197.86121  0.031830954  0.032509758            5 
  519000    1.1602568    -6.803663    197.51347  0.031713788  0.032501157            3 
  520000    1.1724003   -6.7662759    198.09066  0.031745298  0.032491824            2 
  521000    1.1733268   -6.7911288    198.90894  0.031815249   0.03248289            3 
  522000    1.1561242   -6.8088868    198.59405  0.031704031   0.03247331            2 
  523000     1.173534   -6.8542296    197.96585  0.031543315  0.032463386            3 
  524000    1.1740185   -6.8194589    199.40335  0.031711729  0.032454167            3 
  525000    1.1629773    -6.869164    199.73392  0.031703796   0.03244537            4 
  526000    1.1730777   -6.8250777    199.56894  0.031617386  0.032435532            4 
  527000     1.167629   -6.8498821    200.00957  0.031627067  0.032426416            3 
  528000    1.1682693   -6.7964411    201.31384  0.031773018  0.032417891            4 
  529000    1.2061756   -6.8267816    201.25131  0.031703104  0.032409032            3 
  530000    1.1594375   -6.8685428    200.49666  0.031524631  0.032399283            1 
  531000    1.1744738    -6.810305     202.0842  0.031714407  0.032389727            2 
  532000    1.1403483   -6.8053619    201.56894  0.031574082  0.032380378            2 
  533000    1.1896811   -6.8528981    202.06316  0.031592114  0.032371306            3 
  534000    1.1476233    -6.859846    201.63409  0.031465995  0.032361812            7 
  535000    1.1772755   -6.8323155    202.66146  0.031567205  0.032351611            4 
  536000    1.1741133   -6.8346266    203.00267   0.03156136  0.032342026            2 
  537000    1.1824963   -6.7705635    203.45193  0.031572305  0.032332429            4 
  538000    1.1799597   -6.8209367    203.65099  0.031544454  0.032322999            5 
  539000    1.1660217   -6.8310113    203.53031  0.031467272  0.032312523            2 
  540000    1.1650618   -6.8107246    204.05142  0.031489417  0.032302629            3 
  541000    1.1579601   -6.8268824    204.87258  0.031557698  0.032293043            4 
  542000    1.1540258   -6.8742511    203.89613  0.031349343   0.03228292            1 
  543000    1.1593346   -6.8303466    204.53713  0.031389984  0.032272294            2 
  544000     1.165866   -6.8559226    204.84293  0.031379126  0.032261061            4 
  545000    1.1510846   -6.8109981    205.73724  0.031458293  0.032250036            2 
  546000    1.1378762   -6.8700093    205.46107  0.031358528   0.03224014            3 
  547000    1.1782352   -6.8263948    206.51117  0.031461178  0.032229376            4 
  548000    1.1707477   -6.8320066    207.22037  0.031511613  0.032218919            3 
  549000    1.1723118   -6.8150945     207.6571  0.031520507  0.032209064            2 
  550000    1.1437838   -6.8354499    207.17003  0.031389398  0.032199041            3 
  551000    1.1501702   -6.8370012    207.35674  0.031360669  0.032188969            2 
  552000    1.1629241   -6.8513722     207.9933  0.031399954    0.0321793            4 
  553000    1.1665298   -6.8403906    208.99735  0.031494477  0.032169899            4 
  554000     1.159249   -6.8271446    208.89847  0.031422754  0.032160054            4 
  555000    1.1634127   -6.8320495    209.88785  0.031514692  0.032150642            2 
  556000    1.1673484   -6.8845584     209.4777  0.031396538  0.032141274            3 
  557000    1.1509017   -6.8356866    209.53732  0.031349091  0.032131878            5 
  558000    1.1487092   -6.7978042    210.56776  0.031446799  0.032122694            3 
  559000    1.1620781   -6.8396819    210.78677  0.031423192  0.032113367            4 
  560000    1.1695457   -6.7847589     211.5419   0.03147945  0.032103828            5 
  561000    1.1739227   -6.8374838    210.39966  0.031253663  0.032094249            3 
  562000    1.1600812   -6.8772283    210.34536  0.031189999  0.032084165            2 
  563000    1.1339927   -6.9015654    211.31072   0.03127749  0.032073902            5 
  564000    1.1611614   -6.8313431    212.05666  0.031332249   0.03206362            2 
  565000    1.1408383   -6.8636604    212.20428  0.031298566  0.032053642            3 
  566000    1.1784165   -6.8279656    212.98349  0.031357994  0.032044389            2 
  567000    1.1691722   -6.7914138    214.00665  0.031453064   0.03203531            2 
  568000     1.155192   -6.7899314    214.52272  0.031473403  0.032026729            2 
  569000    1.1740739   -6.8542183    213.56223  0.031277421  0.032017434            3 
  570000    1.1500996   -6.8748843    213.70254  0.031243062  0.032008041            4 
  571000    1.1630106   -6.8337739      214.694  0.031333042  0.031998734            2 
  572000    1.1630359   -6.8375833    215.34562  0.031373196   0.03198971            6 
  573000    1.1580576   -6.8859536    215.09777  0.031282398  0.031980859            4 
  574000    1.2008082   -6.8449238    215.94985  0.031351605  0.031971836            3 
  575000    1.1521502    -6.871383    215.34142  0.031208902  0.031962297            3 
  576000    1.1654701   -6.8323482    216.51516  0.031324531  0.031952782            4 
  577000    1.1760644   -6.8656867    216.22297  0.031228043   0.03194368            7 
  578000    1.1598693   -6.8387635    217.09039  0.031299075  0.031934799            9 
  579000      1.14747   -6.8043057    217.01154  0.031233671  0.031925705            2 
  580000    1.1517685   -6.7915339    217.29574  0.031220652  0.031916126            2 
  581000    1.1644802   -6.8334015     217.9554  0.031261532  0.031906815            5 
  582000    1.1777905    -6.816467    218.93184  0.031347628  0.031897686            4 
  583000    1.1438252    -6.852368    218.41921  0.031220585   0.03188841            3 
  584000    1.1761963   -6.8706722    218.09947  0.031121499  0.031879297            2 
  585000    1.1673947   -6.8541864    218.47882   0.03112234  0.031869582            2 
  586000    1.1351856   -6.9285725    217.92786  0.030990879  0.031860371            4 
  587000    1.1515097   -6.8606664    219.58727  0.031173661  0.031850921            2 
  588000    1.1673147   -6.8589737    220.57435  0.031260538  0.031841744            3 
  589000    1.1451978   -6.8317075    220.68216  0.031222717  0.031832689            5 
  590000    1.1417734    -6.885193    220.95196  0.031207904  0.031824234            4 
  591000    1.1516127   -6.8245102    221.66314  0.031255379  0.031815679            3 
  592000    1.1762512   -6.8346538    221.50253  0.031179974  0.031807456            1 
  593000    1.1461583   -6.8582474      222.403  0.031253934  0.031799286            3 
  594000    1.1741675   -6.8407732    222.64168  0.031234804  0.031791133            3 
  595000    1.1693101   -6.8764451    222.48599  0.031160502  0.031782253            2 
  596000    1.1795221    -6.862001    222.97371  0.031176413  0.031773756            1 
  597000    1.1442262    -6.833534     223.7703  0.031235386  0.031765981            3 
  598000    1.1361645   -6.8464151    223.61856  0.031162007  0.031757903            2 
  599000    1.1770768    -6.825634    224.14017   0.03118255   0.03174972            4 
  600000    1.1572871   -6.8760211    224.27273   0.03114899  0.031741491            5 
  601000    1.1626536   -6.8539805    224.16396   0.03108208  0.031733532            3 
  602000    1.1514968   -6.8495816    225.00407  0.031146743  0.031724465            4 
  603000    1.1448225   -6.8574386    224.96475  0.031089656  0.031715242            2 
  604000    1.1705941   -6.9194205    225.20362  0.031071139  0.031706246            1 
  605000     1.159307    -6.847053    226.22421  0.031160359  0.031697632            3 
  606000    1.1485614   -6.8204939    226.60547  0.031161368  0.031689392            2 
  607000    1.1401455   -6.8464808    226.36145   0.03107653  0.031681242            2 
  608000    1.1480527   -6.8573618     226.5583  0.031052398  0.031672697            2 
  609000    1.1653744   -6.8768636    226.93633  0.031053138  0.031664351            3 
  610000    1.1936669   -6.8704157    227.35665  0.031059652  0.031655621            3 
  611000    1.1280367   -6.9032527    227.08124  0.030971254  0.031647229            4 
  612000    1.1706114   -6.8764115    227.69596  0.031004352  0.031638229            2 
  613000    1.1644109   -6.8212928    228.62801  0.031080479  0.031629263            3 
  614000    1.1523903   -6.8807306    227.75649  0.030911576  0.031620365            2 
  615000    1.1459344    -6.910667    228.40092  0.030948634  0.031611369            2 
  616000    1.1406515   -6.8386273    229.18761  0.031004818  0.031601914            5 
  617000    1.1492012   -6.8958176    228.99332  0.030928325  0.031592721            2 
  618000    1.1619772   -6.8286936    230.22711  0.031044648  0.031583396            2 
  619000    1.1617597   -6.8353184    230.39503  0.031017101   0.03157476            3 
  620000    1.1469115    -6.842235    230.42167  0.030970655   0.03156568            2 
  621000    1.1435493   -6.8421414    230.55837  0.030939127  0.031556515            2 
  622000    1.1696638   -6.8855464    230.82933  0.030925688  0.031546917            1 
  623000      1.17133   -6.9180357     230.3199  0.030807905  0.031537169            2 
  624000    1.1587454   -6.8583028    230.98534  0.030847402  0.031527404            2 
  625000    1.1488205   -6.8873162    230.59798  0.030746397  0.031517623            3 
  626000    1.1676833   -6.8856233    231.97143  0.030880116  0.031508117            2 
  627000    1.1644482   -6.9178862    231.40421  0.030755477   0.03149847            1 
  628000    1.1525103   -6.8781904    232.38496  0.030836646  0.031488317            3 
  629000    1.1539082   -6.8379653    233.82408  0.030978283  0.031478826            2 
  630000     1.129176   -6.8741525    232.80149  0.030793847  0.031468839            3 
  631000    1.1644969   -6.8568153    233.01888  0.030773756  0.031458851            4 
  632000    1.1595531   -6.8695029    233.07493  0.030732454  0.031448417            2 
  633000     1.121638   -6.8440414     234.5274  0.030875118  0.031438471            2 
  634000     1.149526   -6.8526973    234.25241  0.030790274  0.031429034            3 
  635000    1.1513289   -6.8535739    234.93376  0.030831202  0.031419645            3 
  636000    1.1405651   -6.9030941    233.43308  0.030586095  0.031409366            4 
  637000    1.1695344   -6.8425671    235.14954   0.03076263  0.031399386            3 
  638000    1.1492596   -6.8219714    234.77445  0.030665419  0.031389236            3 
  639000    1.1360901   -6.8316353    236.12813  0.030793966  0.031379514            7 
  640000    1.1437304   -6.8733324    235.91828  0.030718526    0.0313696            4 
  641000     1.153635   -6.8781384    236.66267  0.030767377  0.031359412            3 
  642000    1.1257511   -6.8803613    236.29936  0.030672295  0.031349695            2 
  643000    1.1653346   -6.8765292    236.29108   0.03062352  0.031339814            4 
  644000    1.1579783   -6.8298814    236.88498  0.030652818  0.031329787            4 
  645000    1.1517772   -6.8685461     236.7807  0.030591821  0.031319142            2 
  646000    1.1266737   -6.9202594    236.43669  0.030500088  0.031308362            2 
  647000     1.180388    -6.820427    237.69482  0.030614995  0.031297932            3 
  648000    1.1544609   -6.8191097    238.58101  0.030681714  0.031287764            4 
  649000    1.1456601   -6.8805047    237.63118  0.030512479  0.031277679            7 
  650000    1.1333539   -6.8641383    238.43633   0.03056876  0.031267549            2 
  651000    1.1280832   -6.8888025    238.80482  0.030568973  0.031256954            8 
  652000    1.1433733   -6.8783663    239.21251  0.030574196  0.031246209            2 
  653000    1.1423643   -6.8629287    239.77827  0.030599576  0.031235761            3 
  654000    1.1664545   -6.8801551    239.80167  0.030555768  0.031225335            3 
  655000    1.1571373    -6.918741    239.64826    0.0304896  0.031214757            1 
  656000    1.1429052   -6.8612427     240.3598  0.030533512  0.031204404            5 
  657000    1.1477581   -6.8778933    240.29628   0.03047898  0.031193656            2 
  658000    1.1274461   -6.9238147     240.6926  0.030482852   0.03118303            2 
  659000    1.1638433   -6.8751685    240.94798   0.03046889   0.03117247            1 
  660000     1.149235     -6.83017    241.42136  0.030482495  0.031161675            5 
  661000    1.1361973   -6.8342571    242.30824  0.030548189  0.031151134            3 
  662000    1.1486129   -6.8453549    241.43932  0.030392663  0.031140841            3 
  663000     1.132499    -6.893474    240.94457  0.030284636  0.031130266            6 
  664000    1.1465553   -6.8581076    242.83885  0.030476763  0.031120196            3 
  665000    1.1340057   -6.8602419    242.77329  0.030422719  0.031109326            5 
  666000    1.1250375   -6.9284711    241.99938  0.030280203  0.031098636            2 
  667000    1.1512864   -6.8741366    243.04244  0.030365122  0.031087808            5 
  668000    1.1275675   -6.8899628    243.13103  0.030330718  0.031077335            7 
  669000    1.1491996   -6.8619249    244.42264  0.030446268  0.031066695            3 
  670000    1.1652649   -6.8656044    245.21952   0.03049994  0.031056316            3 
  671000    1.1433708    -6.844002    245.03908  0.030432077  0.031046142            4 
  672000    1.1462788   -6.8813733    245.48296  0.030441836  0.031036219            4 
  673000    1.1403151   -6.8401375    245.50704  0.030399584  0.031026405            2 
  674000     1.137804   -6.9026888    245.16063   0.03031165  0.031016015            2 
  675000    1.1270286   -6.9107949    245.49454  0.030307968  0.031005517            3 
  676000    1.1335157   -6.9202899    245.44586  0.030257133  0.030995002            2 
  677000     1.135188   -6.9112455    246.49471  0.030341544  0.030984383            6 
  678000    1.1153766   -6.8759884    246.94286  0.030351876  0.030974574            2 
  679000     1.123651   -6.9215369    246.61501  0.030266937  0.030964797            2 
  680000    1.1384026   -6.8791805    247.42968  0.030322265  0.030954424            4 
  681000     1.142817    -6.884197    247.49334  0.030285528  0.030944403            4 
  682000    1.1379011   -6.8695686     248.6464  0.030382013  0.030934394            1 
  683000     1.142694   -6.8458344    249.88688  0.030488883  0.030924682            2 
  684000    1.1295021    -6.855623    249.59502   0.03040875   0.03091543            5 
  685000    1.1249718   -6.8907833    249.25695   0.03032323  0.030905513            2 
  686000    1.1531388   -6.9112325    249.80993  0.030346201  0.030895795            3 
  687000    1.1624531   -6.8715397    250.09885  0.030337075  0.030886555            2 
  688000    1.1244902   -6.8562781    251.12871  0.030417722   0.03087751            2 
  689000    1.1450666   -6.9235875    250.38684  0.030283846  0.030868333            3 
  690000    1.1373166   -6.8775085    251.82406  0.030413534  0.030859496            2 
  691000    1.1661888   -6.8636894    251.87241  0.030375351  0.030851078            4 
  692000    1.1490544    -6.889408    251.86076  0.030330054  0.030842016            1 
  693000      1.14232   -6.8768688     251.7692  0.030275277   0.03083276            4 
  694000        1.167    -6.882459    251.43291  0.030191272  0.030823548            3 
  695000    1.1014793   -6.9359481    252.27447  0.030248738  0.030814024            2 
  696000    1.1364102   -6.9326294     252.4408  0.030225192  0.030804235            5 
  697000    1.1466812   -6.9016151    252.32341  0.030167792  0.030794831            2 
  698000    1.1405196   -6.8987065    252.61887  0.030159845  0.030784852            3 
  699000    1.1450584   -6.8458482    254.37566   0.03032614  0.030775084            4 
  700000    1.1339326   -6.8886078    253.35296  0.030161067   0.03076537            5 
  701000     1.135388    -6.919614    253.64334   0.03015256  0.030755706            2 
  702000    1.1360495   -6.8694167    254.19488  0.030175081  0.030746463            2 
  703000    1.1100944   -6.9272192    254.10183  0.030121127  0.030736695            3 
  704000    1.1167361   -6.9195162    254.92173  0.030175394  0.030727015            1 
  705000     1.156741   -6.9034041    255.54461  0.030206218  0.030717659            3 
  706000    1.1299125   -6.9025862    255.39475  0.030145745  0.030708197            6 
  707000    1.1393913    -6.922757    255.71748  0.030141145  0.030699144            3 
  708000    1.1274876   -6.9042402    256.69396  0.030213508  0.030689937            3 
  709000    1.1428244    -6.886262    257.76918  0.030297271   0.03068118           11 
  710000    1.1447863   -6.8895908    258.02739  0.030284905  0.030672354            2 
  711000    1.1483282   -6.8600852    259.32245  0.030394099  0.030663896            1 
  712000    1.1397606   -6.9116748    258.06783  0.030204568  0.030655759            1 
  713000    1.1408202   -6.8431584    259.53852  0.030334095   0.03064766            2 
  714000    1.1599883   -6.8938914    259.87318   0.03033067  0.030639244            4 
  715000    1.1360989   -6.9449629    258.32736  0.030108084  0.030630924            2 
  716000    1.1622167   -6.9128272    258.82934  0.030124457  0.030621832            5 
  717000    1.1175267   -6.9463915    258.95166  0.030096659  0.030613028            5 
  718000    1.1356407   -6.9404303     259.0484   0.03006597  0.030603986            2 
  719000    1.1197654   -6.9468822     260.0478  0.030139986  0.030595525            2 
  720000    1.1321835   -6.9626288    259.53661  0.030038959  0.030586424            1 
  721000    1.1254146   -6.9803983    260.34562  0.030090803  0.030577614            3 
  722000    1.1217672   -6.9427638    261.54228  0.030187244  0.030569094            4 
  723000    1.1341871   -6.8976947    262.52501  0.030258761  0.030560844            9 
  724000    1.1262866   -6.9511336    262.17691  0.030176901  0.030552461            2 
  725000    1.1132584   -6.9221852    262.37515  0.030158064  0.030544169            3 
  726000     1.124284   -6.9472352    262.98311  0.030186307  0.030535591            2 
  727000    1.1324515    -6.907968    263.11316  0.030159693  0.030527129            2 
  728000    1.1246207    -6.917549    263.25277  0.030134246  0.030518488            6 
  729000     1.126543   -6.9416753    262.88245  0.030050578  0.030509772            4 
  730000    1.1207649   -6.8967769    263.42365  0.030071193   0.03050082            2 
  731000    1.1468405   -6.9245227    263.56406  0.030046063  0.030491973            3 
  732000    1.1361977   -6.8958561    264.11832  0.030068115  0.030482854            4 
  733000    1.1384276    -6.893962    265.15828  0.030145325  0.030474481            6 
  734000    1.1281065   -6.8980961    264.57948  0.030038542  0.030465876            2 
  735000    1.1124632   -6.8903596    265.60195    0.0301136  0.030457242            4 
  736000    1.1120069    -6.900558    265.30735  0.030039329  0.030448521            5 
  737000    1.1199457   -6.9484986     264.7751  0.029938388  0.030439702            4 
  738000    1.1277922   -6.9429538    265.70692   0.03000304  0.030430952            5 
  739000    1.1344906   -6.9136969    266.19161  0.030017096   0.03042268            2 
  740000    1.1592353   -6.9833054    266.00621  0.029955655  0.030414322            2 
  741000    1.1469944    -6.928118    267.27017  0.030057374  0.030405823            3 
  742000    1.1136924   -6.8533486    267.70753  0.030065985  0.030397895            1 
  743000    1.1341278   -6.9187639    267.31872  0.029981911  0.030389811            7 
  744000    1.1339696    -6.879744    268.65248  0.030091004  0.030382054            3 
  745000      1.13692   -6.9134557    268.44415   0.03002731  0.030374043            5 
  746000    1.1359397   -6.8825478    269.26496  0.030078749  0.030365791            3 
  747000    1.1267531   -6.8991153    268.72872  0.029978661  0.030357115            3 
  748000     1.155402   -6.9476518     268.3759  0.029899276  0.030348604            4 
  749000    1.1010207   -6.9091325    269.14044   0.02994442  0.030340125            1 
  750000    1.1192895   -6.9246466    269.03033  0.029892259  0.030331993            4 
  751000    1.1383449   -6.9448154    268.81825  0.029828923  0.030323696            2 
  752000     1.120008   -6.8969413    269.81211  0.029899391  0.030315396            2 
  753000    1.1199837   -6.9423142    269.52905  0.029828359  0.030307081            2 
  754000    1.1194315   -6.9288105    269.89373  0.029829103  0.030298864            2 
  755000    1.1365292   -6.9306304    270.12568  0.029815197  0.030290831            4 
  756000    1.1220763   -6.8776936    272.09281  0.029992593  0.030282823            5 
  757000    1.1280829   -6.9473665    271.21157  0.029855964  0.030275082            2 
  758000    1.1472378   -6.9324487     272.1026  0.029914534  0.030267153            7 
  759000    1.1475987   -6.9230386    272.77365  0.029948797  0.030259316            4 
  760000    1.1218569   -6.9439691    273.62506  0.030002748  0.030251361            2 
  761000    1.1439882   -6.9128045     273.9858  0.030002825  0.030243411            3 
  762000     1.133801   -6.8821536    274.23039    0.0299902  0.030236037            6 
  763000    1.1455868   -6.9436115    273.59711  0.029881729  0.030228365            4 
  764000    1.1169522   -6.9185636    274.19187   0.02990749  0.030220457            3 
  765000    1.0999128   -6.9069266    274.83569  0.029938529  0.030212423            2 
  766000    1.1162734   -6.8972025    274.89867  0.029906295  0.030204724            5 
  767000    1.1005933   -6.9415634    276.49203  0.030040421  0.030197491            4 
  768000    1.1169016   -6.9347365    276.47347  0.029999292  0.030190225            3 
  769000    1.1344634    -6.905846    276.08453  0.029918133  0.030182544            5 
  770000    1.1410042   -6.9805744    274.91031  0.029752198  0.030174934            2 
  771000    1.1331971   -6.9261908    277.06006  0.029945964  0.030167267            2 
  772000     1.110253   -6.9200523    276.86247  0.029885846  0.030159537            2 
  773000    1.1113455   -6.9347132    276.43975  0.029801611  0.030152018            1 
  774000    1.1428401   -6.9174432    278.01301  0.029932495  0.030144528            3 
  775000    1.1426901   -6.9097244    277.75473    0.0298661  0.030137203            2 
  776000    1.1313974   -6.8928806    279.28903  0.029992379  0.030129599            3 
  777000    1.1363571   -6.9201862    278.15082  0.029831705  0.030122067            5 
  778000    1.1506958   -6.9391865     278.9354    0.0298774  0.030114353            3 
  779000    1.1382557   -6.9416748    278.15114   0.02975515  0.030106933            6 
  780000    1.1017761   -6.9280357    279.11263  0.029819726  0.030099258            2 
  781000    1.1284025   -6.9519688    278.20527  0.029684728   0.03009145            2 
  782000    1.1049037   -7.0018596    277.82587  0.029606337  0.030083094            3 
  783000    1.1363711   -6.8977905    280.65568  0.029869698  0.030074682            3 
  784000    1.1274097   -6.9718362    279.11028  0.029667334  0.030066577            5 
  785000    1.1177509   -6.9486261     280.2733  0.029753004   0.03005849            2 
  786000    1.1043708   -6.9418047    279.93683  0.029679477  0.030050472            2 
  787000    1.1352943   -6.9051034    281.15484  0.029770737   0.03004247            6 
  788000    1.1230417   -6.9064065    281.28986  0.029747235  0.030034369            4 
  789000    1.1389091   -6.9178121    281.24682  0.029704988  0.030026259            3 
  790000    1.1214485   -6.9494802    280.46359  0.029584767  0.030017627            8 
  791000    1.1415808   -6.9963578    279.99882    0.0294984  0.030008825            3 
  792000    1.1418007   -6.9453497    280.62474  0.029527014  0.029999888            1 
  793000    1.1219016    -6.934575    281.93752  0.029627734  0.029991498            2 
  794000    1.1387479   -6.8894348    282.30158  0.029628629  0.029983174            4 
  795000    1.1518672   -6.9415707    282.77074  0.029640539  0.029974884            3 
  796000    1.1036741   -6.9629233    282.39281  0.029563736  0.029966524            5 
  797000    1.1408254   -6.9262741     283.6786  0.029661084  0.029957998            3 
  798000    1.1081392   -6.8959648    283.86458  0.029643336  0.029949727            4 
  799000    1.1191273   -6.9259823    283.50351  0.029568576  0.029940969            5 
  800000    1.1298469   -6.9567629    284.19623  0.029603773   0.02993247            2 
  801000     1.144868    -6.961351    284.28674  0.029576231  0.029924222            1 
  802000    1.1202197   -6.9289012    285.16155  0.029630252  0.029915855            5 
  803000    1.1279738    -6.962862    285.14076  0.029591196  0.029907472            2 
  804000    1.1135242   -6.8992985    285.57353  0.029599247  0.029899232            2 
  805000      1.14053   -6.9649401     285.7566  0.029581429  0.029890937            2 
  806000    1.1272668   -6.9556778    286.23419  0.029594105  0.029882946            3 
  807000    1.1316612   -6.9611836    286.05771   0.02953921  0.029874694            4 
  808000     1.135474   -6.9337602    286.64952  0.029563688  0.029866549            3 
  809000     1.138655   -6.9306821    287.15118  0.029578819  0.029858377            3 
  810000    1.1059113   -6.9528808    285.66199  0.029389094  0.029849844            3 
  811000    1.0896357   -6.9460062    286.96018  0.029486249  0.029841269            3 
  812000    1.1088394   -6.9515654    287.17753  0.029472243  0.029832866            3 
  813000    1.1312533   -6.9441599    287.42186  0.029461035  0.029824396            3 
  814000     1.113331   -6.9315895    288.50072  0.029535291  0.029816294            2 
  815000    1.1469661   -6.9549696    289.20444  0.029571006  0.029808239            3 
  816000    1.1254991   -7.0021808    287.23288  0.029333423  0.029800038            3 
  817000    1.1156249   -6.9770784    289.16752  0.029494851  0.029791766            4 
  818000    1.1122641   -6.9484844    289.31373  0.029473689  0.029783817            3 
  819000    1.1242469    -6.959504    290.24087  0.029532038  0.029775648            5 
  820000    1.1123898   -6.9704473    290.28051  0.029500052  0.029767292            3 
  821000     1.106921    -6.959125    290.10647  0.029446454  0.029759259            2 
  822000    1.1050532   -7.0104474    289.08139   0.02930671  0.029751114            1 
  823000    1.1288778    -6.949408    291.32005  0.029497777  0.029742955            6 
  824000    1.1034339   -6.9810667    290.24932  0.029353694  0.029734574            1 
  825000    1.1173196   -6.9377561    291.18266   0.02941239  0.029726261            3 
  826000    1.1159636   -6.9341489    291.17338  0.029375846  0.029718038            4 
  827000    1.1259426   -6.9516705    291.72068  0.029395474  0.029709529            3 
  828000    1.1223378   -6.9464403    291.39755  0.029327451  0.029701373            4 
  829000    1.1146439   -6.9526349    292.07463  0.029360136  0.029693204            2 
  830000    1.1177478   -6.9559452     291.8396  0.029301165  0.029684693            4 
  831000    1.1117034   -6.9772734    291.69293  0.029251196  0.029676024            2 
  832000    1.1101751   -6.9067064    292.89826  0.029336765  0.029667228            5 
  833000    1.1026807   -6.9295857    293.52304   0.02936405  0.029658778            4 
  834000    1.1267611    -6.948388     293.7016  0.029346683  0.029650593            3 
  835000    1.1230489   -6.9352106     293.5208  0.029293493   0.02964259            6 
  836000    1.1293244   -6.9558864     294.3581  0.029341916  0.029634428            4 
  837000    1.1266205   -6.9424545    294.60835  0.029331775  0.029626076            5 
  838000    1.1029401   -6.9563212    294.72332  0.029308206  0.029617912            4 
  839000    1.1311185   -6.9453189    295.64182  0.029364504  0.029609696            1 
  840000    1.1474827   -6.9993458    295.25825  0.029291493    0.0296016            2 
  841000    1.1301216   -6.9352048    295.56389  0.029286949  0.029593625            3 
  842000    1.1157539   -6.9582957    297.29847  0.029423839  0.029585166            9 
  843000    1.1082845   -6.9938239    295.67634  0.029228582  0.029577072            8 
  844000    1.0887135   -6.8595091    297.13613  0.029338085  0.029569336            3 
  845000    1.1089965   -6.9560478    296.49788  0.029240422  0.029561481            6 
  846000    1.0972001    -6.971247    297.05055  0.029260299   0.02955361            6 
  847000    1.1466514   -6.9463006    297.81098  0.029300569  0.029545281            3 
  848000    1.1146735   -6.9882878    296.45275  0.029132542  0.029537049            3 
  849000    1.1388253   -6.9225868    297.39922  0.029191129  0.029528579            2 
  850000    1.0943703   -6.9464455    297.99316  0.029215015  0.029520504            1 
  851000    1.1182813    -6.937621     298.6433   0.02924435   0.02951207            4 
  852000    1.1229811   -6.9856136    296.85409  0.029035025  0.029503452            7 
  853000    1.0945887   -7.0270993    297.75916  0.029089406  0.029494709            5 
  854000    1.1323096   -6.9498688    298.20845  0.029099186  0.029486134            4 
  855000    1.1019769   -6.9785026    298.89733  0.029132293  0.029477826            5 
  856000    1.1395618   -6.9952543    298.76632  0.029085506  0.029469547            2 
  857000    1.0958971   -6.9706922    300.59109  0.029229005    0.0294615            3 
  858000    1.1129849   -6.9665718    301.45599  0.029278942  0.029453371            4 
  859000    1.0856382   -6.9982149    299.79487  0.029083709  0.029445174            4 
  860000     1.119233   -6.9248793    302.18269  0.029281269  0.029437259            4 
  861000    1.1117106   -6.9811479    300.47724  0.029082195  0.029429376            4 
  862000    1.0953915   -6.9727965    302.15441  0.029210597  0.029421124            2 
  863000    1.1113592   -6.9469561    303.08589  0.029266694  0.029412967            5 
  864000    1.1248073   -6.9542671    303.28801  0.029252315  0.029404895            5 
  865000    1.0989263   -6.9290086    302.97326  0.029188176  0.029396736            3 
  866000    1.1141239   -6.9665866    302.81663  0.029139398  0.029388798            2 
  867000    1.1001218   -6.9550709    303.58535  0.029179676   0.02938091            2 
  868000      1.10327   -6.9922979    302.55555  0.029047192   0.02937309            3 
  869000    1.1142543   -6.9827945    303.95756  0.029148212  0.029365477            3 
  870000    1.1046571   -6.9661394    304.43423  0.029160367  0.029357659            3 
  871000    1.1129177   -7.0154626    303.70538  0.029057154  0.029349799            3 
  872000    1.0783951   -7.0153183    303.24617  0.028979947  0.029341862            6 
  873000    1.1420873    -6.958906     305.4752  0.029159526   0.02933411            2 
  874000    1.1198066   -6.9958269    304.67591  0.029049954  0.029326615            2 
  875000    1.1187221   -6.9767314    306.12018  0.029154303  0.029318892            3 
  876000    1.1161062   -7.0341909    305.62591  0.029074002  0.029310988            5 
  877000    1.1199258   -6.9976749    305.32864  0.029012603  0.029302971            3 
  878000    1.1037088   -6.9706194    306.30636  0.029072357   0.02929509            4 
  879000    1.1136843   -6.9430873    306.33145  0.029041662  0.029287117            3 
  880000    1.1099678   -6.9799039     306.4347  0.029018438  0.029279052            3 
  881000    1.1020933   -6.9591508    306.85541  0.029025294  0.029270978            4 
  882000     1.123366   -7.0153039    306.60868  0.028969074  0.029262716            3 
  883000    1.1224094    -6.999346    306.00645  0.028879431  0.029254591            9 
  884000    1.1218653   -6.9788106    306.01832  0.028847881   0.02924666            2 
  885000    1.1299776   -6.9843088    308.50729  0.029049651  0.029238658            3 
  886000    1.1185346   -6.9533918    307.42939   0.02891548  0.029230592            3 
  887000    1.1064878   -6.9876976    308.43943  0.028977775  0.029222738            2 
  888000    1.1383723   -6.9930125    308.43506  0.028944732   0.02921447            5 
  889000    1.1060989   -6.9748487    308.58627  0.028926347  0.029206453            2 
  890000    1.1039793   -6.9800732    309.22702  0.028953841  0.029198354            4 
  891000    1.0850482   -6.9912233    309.68228  0.028963924  0.029190466            1 
  892000     1.114262   -6.9955965    309.27022  0.028892957  0.029182298           15 
  893000    1.1163885   -7.0169239    309.13573  0.028848053  0.029173838            3 
  894000    1.1042782   -6.9357003     310.6294  0.028955015  0.029165847            5 
  895000    1.1152418    -6.986253    309.79618  0.028845082  0.029157667            3 
  896000    1.1173643   -6.9851061    310.12387  0.028843365  0.029149504            6 
  897000    1.0988637   -6.9839476    311.08817  0.028900796  0.029141329            4 
  898000    1.1123175   -6.9755317     311.3289  0.028890952  0.029133109            4 
  899000    1.0984536    -6.992843    312.06544  0.028927089  0.029124917            5 
  900000    1.1437381   -6.9774808    311.51098  0.028843609  0.029116909            3 
  901000     1.110952   -7.0026969    311.02232    0.0287664  0.029109126            1 
  902000    1.1196212    -6.967103    312.16766  0.028840323  0.029101314            3 
  903000    1.1371829   -6.9998639    312.68727  0.028856337  0.029093803            4 
  904000    1.1156839   -6.9441698    313.35484  0.028885955  0.029085765            3 
  905000    1.1018433   -7.0158748    312.02466  0.028731552  0.029077413            3 
  906000    1.1045464   -7.0394625    311.46323    0.0286482  0.029068946            3 
  907000     1.103629   -6.9574724    312.98116  0.028756079   0.02906073            5 
  908000    1.1175927   -7.0262035    312.65567  0.028694536  0.029052661            4 
  909000    1.1204505   -7.0452574    313.25708  0.028718104  0.029044461            2 
  910000    1.0985515     -7.04011    313.43293  0.028702649  0.029036212            3 
  911000    1.0783853   -7.0035297    314.00302  0.028723291  0.029027958            3 
  912000    1.1031276   -7.0052796    314.90238  0.028773975  0.029019656            4 
  913000    1.1074841   -6.9921351    315.14917  0.028764984  0.029011311            9 
  914000    1.1220343   -6.9860842    314.30315  0.028656378  0.029003058            6 
  915000    1.1078809   -6.9802881    315.59001   0.02874226  0.028994973            3 
  916000    1.0852357   -6.9790112    315.38591  0.028692313   0.02898681            3 
  917000    1.0900956   -6.9866305    316.19057  0.028734148  0.028978689            2 
  918000    1.1005853   -7.0149239    314.70775  0.028568242  0.028970607            2 
  919000    1.1243582   -7.0076865    317.00616  0.028745572  0.028962524            1 
  920000    1.0965243   -6.9750226    316.88458  0.028703314  0.028954611            3 
  921000    1.0898791   -6.9816864    317.01889    0.0286843  0.028946661            5 
  922000    1.1022992    -7.023437    316.93843  0.028645917  0.028938947            2 
  923000    1.1012228   -6.9592815    317.94214  0.028705502  0.028931263            4 
  924000    1.0937693   -6.9848713     317.7416  0.028656349  0.028923343            2 
  925000    1.0891014   -7.0204161    317.74332  0.028625524  0.028915424            2 
  926000    1.0954377   -7.0344741      318.497  0.028662437  0.028907434            3 
  927000    1.0894982   -6.9504697    319.92477  0.028759867  0.028899624            5 
  928000      1.11535   -6.9831577    318.69947  0.028618846  0.028891947            1 
  929000    1.1090994   -6.9786287    320.23811  0.028726059  0.028884102            6 
  930000    1.1289582   -6.9894622    319.58297  0.028636467  0.028876522            5 
  931000     1.075554   -6.9829588    320.28982  0.028668978  0.028868676            4 
  932000    1.1020008   -7.0119834    319.86113  0.028599886  0.028860842            4 
  933000    1.1027831    -6.986059    321.44913  0.028711069  0.028853243            2 
  934000    1.0874909   -6.9632773    321.88293  0.028719033  0.028846082            2 
  935000    1.1021696     -6.99846    321.64439  0.028667058  0.028838411            2 
  936000     1.110626   -6.9903975    322.06896   0.02867423  0.028830559            6 
  937000    1.0966714   -7.0129447    321.68834  0.028609778   0.02882278            4 
  938000    1.0685819   -7.0329756    321.72869  0.028582862  0.028814655            2 
  939000    1.1078543   -6.9849871    320.92014  0.028480666  0.028806767            3 
  940000    1.1046067   -7.0112227    321.15095  0.028470829  0.028798762            4 
  941000    1.0994558   -7.0126452    321.10785  0.028436756  0.028790517            2 
  942000    1.1105975   -7.0112078    321.32653  0.028425914  0.028782435            4 
  943000    1.0670505   -6.9942724    322.18853  0.028471945  0.028774139            2 
  944000    1.0898008   -6.9985826     322.6434  0.028481939  0.028765968           11 
  945000     1.069037   -6.9890997    322.66741  0.028453916  0.028757521            2 
  946000     1.110211    -6.971786    323.37449  0.028486125  0.028749081            2 
  947000    1.1095147   -6.9842269    323.77239  0.028491059  0.028740896            3 
  948000    1.1076255   -7.0097848    323.66277  0.028451369  0.028732743            3 
  949000    1.0904439   -6.9912323    323.83369  0.028436397  0.028724516            5 
  950000     1.108484   -7.0376499    323.42372  0.028370502  0.028716212            6 
  951000    1.1127979    -6.998409    325.20303  0.028496585  0.028708021            2 
  952000    1.1143634   -7.0363908    324.72812   0.02842508  0.028699799            5 
  953000    1.1210505    -6.975613    325.81929  0.028490669  0.028691604            4 
  954000     1.094634   -6.9762722    325.59149  0.028440906   0.02868369            5 
  955000    1.1111421   -6.9762662    326.84835  0.028520799  0.028675777            4 
  956000    1.0958795   -7.0260831    325.09828  0.028338413  0.028667612            4 
  957000    1.1128704   -7.0709445    324.36333  0.028244804  0.028659451            6 
  958000    1.0974469   -7.0379908    325.03989  0.028274173  0.028651115            5 
  959000    1.0845448   -6.9825462    327.44125  0.028453359  0.028643204            2 
  960000    1.1010677   -7.0451364    327.15138  0.028398557  0.028635203            7 
  961000    1.1094236   -7.0428744    327.90742  0.028434567  0.028627092            3 
  962000    1.0891008    -7.029586     328.3517  0.028443494  0.028618764            2 
  963000    1.0991562   -7.0220143    328.59208   0.02843476  0.028610701            6 
  964000    1.1307615   -6.9786576    329.70104  0.028501127  0.028603225            3 
  965000      1.09226   -6.9949475    330.47605  0.028538519  0.028595955            3 
  966000    1.1069693   -7.0403211    329.06662   0.02838739  0.028588653            3 
  967000    1.1255956   -7.0125068    330.22582   0.02845793   0.02858118            4 
  968000    1.0689664   -6.9820914    330.13521  0.028420731  0.028573694            8 
  969000    1.0846597    -6.976315    330.05526  0.028384526  0.028566084            9 
  970000    1.1007145    -6.995446    329.98395  0.028349137  0.028558321           11 
  971000    1.0703417   -7.0209181    330.12151  0.028331746  0.028550609            3 
  972000    1.0973547   -7.0155094      330.147  0.028304784  0.028542764            5 
  973000    1.1157504   -7.0321842    329.54502  0.028224136  0.028534603            5 
  974000    1.0981916   -7.0282043    329.65688   0.02820473  0.028526421            3 
  975000    1.1118295   -6.9989383    332.10811  0.028385309  0.028518278            2 
  976000    1.1083559   -7.0198862    331.51367   0.02830547  0.028510295            2 
  977000    1.0853115   -7.0162717    331.71397  0.028293583  0.028502479            5 
  978000    1.1115497   -7.0072818    332.41713  0.028324568   0.02849459            3 
  979000     1.096623   -7.0030268    331.41312  0.028210174  0.028486725            2 
  980000    1.0823069   -7.0358515    331.69235  0.028205132  0.028478588            4 
  981000     1.091808   -7.0614836    330.99875   0.02811746  0.028470345            4 
  982000    1.0809659   -7.0390674    331.85516  0.028161504  0.028461956            5 
  983000    1.1072023   -7.0157172    333.03131  0.028232562  0.028453906            3 
  984000    1.0784667   -7.0004672    333.40263  0.028235318  0.028445694            3 
  985000     1.092884   -7.0263085    332.43989  0.028125202  0.028437395            2 
  986000    1.1382874   -7.0017783     332.9543  0.028140154   0.02842911            1 
  987000    1.1074052   -7.0311075    332.66987  0.028087629  0.028420865            3 
  988000    1.0726584   -7.0254607    334.68581  0.028229235  0.028412699            4 
  989000    1.1139424   -7.0326035    334.02824  0.028145284  0.028404724            3 
  990000    1.0741811   -7.0827251    334.17881   0.02812953   0.02839637            5 
  991000    1.1074064   -7.0410033    334.69465  0.028144522  0.028388114            8 
  992000    1.0926253   -7.0009372    335.66469  0.028197639  0.028379964            3 
  993000    1.0980552   -7.0331311    335.34682  0.028142566  0.028371759            3 
  994000     1.075556   -7.0077358    334.49412  0.028042766  0.028363702            5 
  995000    1.0879089   -7.0645369    335.32377  0.028084067  0.028355576            1 
  996000     1.063862   -7.0046932    338.80596  0.028347219  0.028347524            2 
  997000    1.0903686   -6.9991955     337.5018   0.02820978  0.028339725            3 
  998000     1.072141   -7.0357013    337.08262  0.028146511  0.028331913            3 
  999000    1.1082214    -7.011887    336.81522  0.028096031  0.028324048            2 
 1000000    1.1055225   -7.0097849    337.45017  0.028120848  0.028316093            2 
 1001000    1.0858111   -7.0190123    337.04483   0.02805901  0.028308123            2 
 1002000    1.1012893   -6.9893313    338.82408  0.028178982  0.028299966            2 
 1003000    1.0740628   -7.0232707    337.96788  0.028079751  0.028291976            4 
 1004000    1.0853332   -6.9648834     338.9174  0.028130594  0.028284009            3 
 1005000    1.0938422   -7.0340417    339.23373  0.028128833  0.028276182            5 
 1006000    1.1135107   -7.0516615    338.62618  0.028050545  0.028268344            3 
 1007000    1.0945517   -7.0370071    338.71676  0.028030185  0.028260303            2 
 1008000     1.086641   -7.0300709    339.62824  0.028077731  0.028252501            2 
 1009000    1.0999464   -7.0391136    338.31467  0.027941417  0.028244491            8 
 1010000    1.0768656    -7.008839     339.3353  0.027997962  0.028236623            1 
 1011000    1.1026985   -7.0608892    339.50112  0.027983937  0.028228481            3 
 1012000    1.0852952    -6.985353    340.74389  0.028058621  0.028220559            2 
 1013000    1.0735727   -7.0480116    340.16593  0.027983377  0.028212761            2 
 1014000    1.0718087   -7.0183444    340.08669  0.027949268  0.028204747            2 
 1015000    1.0571797   -7.0214932    341.38929  0.028028678  0.028196503            4 
 1016000    1.0831166   -7.0889901    339.35108  0.027833914  0.028188355            5 
 1017000    1.0998608      -7.0135    340.83203  0.027927895  0.028180044            9 
 1018000    1.0956248   -7.0230853    340.68814  0.027888682  0.028171945            3 
 1019000    1.0878653   -7.0322881    341.50119  0.027927804  0.028163454            2 
 1020000    1.1009556   -7.0576794    340.92422  0.027853286  0.028154896            4 
 1021000    1.0889878   -7.0128904     341.9328  0.027908325  0.028146464            3 
 1022000      1.05753   -7.0200284    343.09224  0.027975558  0.028138051            3 
 1023000    1.1046796   -7.0466499     341.1875  0.027793051  0.028129829            4 
 1024000    1.0948357   -7.0005573    342.36603  0.027861819  0.028121442            4 
 1025000     1.082911   -7.0419886    342.63727  0.027856689  0.028113003            2 
 1026000    1.0876385     -7.03278    342.42012  0.027811901  0.028104731            3 
 1027000    1.1018051   -7.0674655    342.21514  0.027768187  0.028096358            2 
 1028000    1.1119459   -7.0510206    342.71459  0.027781662  0.028088065            6 
 1029000    1.0953628   -7.0655998    343.52347  0.027820171   0.02807956            2 
 1030000    1.0840233   -7.0359638    343.46536  0.027788459  0.028071027            3 
 1031000    1.0876022   -7.0408054    344.15172  0.027816983  0.028062537            4 
 1032000    1.1050459   -7.0052978    343.88501  0.027768493  0.028053991            4 
 1033000    1.0985572   -7.0602371    344.86344  0.027820542  0.028045392            4 
 1034000    1.0987559   -7.0282218    343.65034  0.027695869   0.02803681            2 
 1035000    1.1049295   -7.0603097    343.56915  0.027662572  0.028028068            2 
 1036000    1.0869297   -7.0209904    344.76567  0.027732116  0.028019425            3 
 1037000    1.0754542   -7.0602506    344.27992  0.027666339  0.028010701            2 
 1038000    1.0714717   -7.0412156    345.20576  0.027714014   0.02800208            3 
 1039000    1.1033895   -7.0549365    346.25087  0.027771164  0.027993672            3 
 1040000    1.0639955   -7.0517112    345.44629  0.027679992  0.027985286            2 
 1041000    1.0911476   -7.0964656    345.95749  0.027694323  0.027976736            2 
 1042000    1.0798743   -7.0341723    347.04527   0.02775474   0.02796826            2 
 1043000    1.0731246   -7.0261433    347.74419  0.027783972  0.027960024            2 
 1044000    1.0820557   -7.0803127     346.4385  0.027653137   0.02795165            4 
 1045000     1.083518     -7.08217    346.58891  0.027638669  0.027943155            3 
 1046000    1.0928575   -7.0179771    348.23885  0.027743694  0.027934791            2 
 1047000    1.0809565   -7.0120401     348.0817  0.027704688  0.027926806            4 
 1048000    1.0792762   -7.0211386    349.56089  0.027795873  0.027919052            3 
 1049000    1.0597788   -6.9884321    350.43742  0.027839007  0.027911172            2 
 1050000    1.0698426   -7.0370047    348.97025  0.027696051  0.027903128            4 
 1051000    1.0879701   -7.0179838    349.27837   0.02769413  0.027894942            3 
 1052000    1.0901948   -7.0300513    348.46005  0.027602982  0.027886871            3 
 1053000    1.0805629   -7.0353608    348.81517  0.027604873  0.027878562            2 
 1054000    1.0899372   -7.0215989    348.35289  0.027542133  0.027870367            2 
 1055000    1.0813961   -7.0316007    348.92387  0.027561127  0.027862054            2 
 1056000    1.0836212   -7.0646158    348.51962  0.027503127  0.027853615            3 
 1057000    1.0752321   -7.0500957    348.97292  0.027512845    0.0278451            6 
 1058000    1.0805607   -7.0436697    349.16828  0.027502227  0.027836602            2 
 1059000    1.0693358   -7.0449167    350.11298  0.027550597  0.027827876            4 
 1060000    1.0831391   -7.0246281    351.19242  0.027609467  0.027819419            2 
 1061000    1.0744502   -7.0353239     350.5546  0.027533349  0.027811039            1 
 1062000    1.0727976    -7.090192    349.60908   0.02743323  0.027802279            4 
 1063000    1.0768285    -7.073146    350.56416  0.027482295  0.027793855            5 
 1064000    1.0721716   -7.0509881    350.15726  0.027424598  0.027785335            2 
 1065000    1.0860406   -7.0693147    350.69374  0.027440825  0.027776853            4 
 1066000    1.0838049   -7.0282657     351.4463  0.027473913  0.027768347            6 
 1067000    1.0924436   -7.0660261    351.26067  0.027433666  0.027759841            3 
 1068000    1.0959797   -7.0810535    352.16838  0.027478806  0.027751228            3 
 1069000    1.0827329   -7.0517018    352.34674  0.027467005  0.027742717            3 
 1070000    1.0867266   -7.0404647    352.49934   0.02745322  0.027734371            6 
 1071000    1.0810044   -7.0168565    353.49317  0.027504915   0.02772614            6 
 1072000     1.088268    -7.027226    353.49247  0.027479203  0.027717935            3 
 1073000    1.0934787   -7.0127543    353.80897  0.027478174  0.027709774            3 
 1074000    1.1020069   -7.0589847    354.16225  0.027480001  0.027701454            2 
 1075000     1.066871   -7.0511601    354.29849  0.027464999  0.027692804            3 
 1076000    1.0772444   -7.0654595    352.96244  0.027336001  0.027684154            3 
 1077000    1.0667293   -7.0476788    353.78631  0.027374367  0.027675439            4 
 1078000     1.064995   -7.0690383    353.73412  0.027344938  0.027666855            3 
 1079000    1.0847718   -7.0795968    355.26687  0.027437972  0.027658271            2 
 1080000    1.0700956   -7.0827158     354.6593  0.027365687  0.027649877            4 
 1081000    1.0777563    -7.031264    356.52831  0.027484452  0.027641617            3 
 1082000    1.0633709   -7.0553306    356.62825  0.027466748  0.027633453            5 
 1083000     1.081687   -7.0453151    356.85696  0.027458984   0.02762532            6 
 1084000    1.0897714   -7.0782112    356.57844  0.027412242  0.027617091            2 
 1085000    1.0805839   -7.1021168    356.03975  0.027345603  0.027608827            2 
 1086000    1.0706351   -7.1222278    355.52582  0.027280987  0.027600611            6 
 1087000    1.1232532   -7.0964699    356.29714  0.027315021  0.027592237            3 
 1088000    1.0851522   -7.0802775    357.32857  0.027368916  0.027583921            2 
 1089000    1.0728224     -7.09861    356.88551   0.02730988  0.027575481            4 
 1090000    1.0801033   -7.0409228    357.89533  0.027362029  0.027567164            3 
 1091000    1.0588278   -7.1171106    356.62001  0.027239536  0.027558882            6 
 1092000    1.0651384   -7.0660932    357.74956  0.027300791  0.027550631            3 
 1093000    1.0806039    -7.084343    358.79979  0.027355885  0.027542358            2 
 1094000    1.0979325   -7.0531943    358.59309  0.027315135  0.027533956            2 
 1095000     1.063597   -7.0622034    358.27528  0.027266003  0.027525789            2 
 1096000     1.066077   -7.0451802    359.25164  0.027315362   0.02751746            3 
 1097000    1.0728755   -7.0651427    359.75647  0.027328811  0.027509563            4 
 1098000    1.0681252   -7.1270521    359.06103  0.027251141  0.027501413            8 
 1099000    1.0698187   -7.0798811    359.99684  0.027297303  0.027493314            6 
 1100000    1.0815843   -7.0707655    360.64705  0.027321746  0.027485132            4 
 1101000    1.0665764   -7.0404029    360.73661  0.027303709  0.027477074            3 
 1102000    1.0756658    -7.054011    359.95936  0.027220157  0.027469101            3 
 1103000    1.0846494   -7.0715594    360.24098  0.027216756  0.027460998            3 
 1104000    1.0908829   -7.0124587    362.98221  0.027399019  0.027452801            4 
 1105000    1.0754412   -7.0787442    360.51146  0.027187893  0.027444564            4 
 1106000    1.0867413   -7.0587684    360.42617  0.027156884  0.027436335            1 
 1107000    1.0597926    -7.049738    362.34258  0.027276617  0.027428115            3 
 1108000    1.0700839   -7.0701114     362.0449   0.02722961  0.027419951            3 
 1109000    1.0667118   -7.1064889    361.23015  0.027143835  0.027411682            2 
 1110000    1.0784709   -7.0705017    361.15669  0.027113865  0.027403137            4 
 1111000    1.0603161   -7.0896812     360.1182  0.027011566  0.027394585            6 
 1112000    1.0850785   -7.0639679    361.66343  0.027103075  0.027386082            6 
 1113000    1.0860168   -7.0543826    361.31143  0.027052369  0.027377476            3 
 1114000    1.0757508   -7.0770845    361.65392  0.027053704  0.027368916            6 
 1115000    1.0655657   -7.1077285    362.12843  0.027064905  0.027360245            4 
 1116000    1.0743714   -7.1259565    363.41522   0.02713674  0.027351938            3 
 1117000    1.0772163   -7.0549748    364.40022  0.027185931  0.027343632            5 
 1118000    1.0776548   -7.1120163    363.32072  0.027081151  0.027335298            3 
 1119000    1.0523399   -7.1105129    363.52355  0.027072055  0.027326809            5 
 1120000     1.052819   -7.0970356    363.01381  0.027009956  0.027318266            4 
 1121000    1.0692623   -7.0605103    364.48134  0.027094956  0.027310029            6 
 1122000    1.0755172   -7.0670817    364.07411  0.027040561  0.027301622            3 
 1123000    1.0696907   -7.0990802    364.79124  0.027069697  0.027293327            2 
 1124000    1.0806153   -7.1124691    364.14356  0.026997595  0.027285092            4 
 1125000    1.0658868   -7.0752372    365.83212  0.027098675  0.027276797            2 
 1126000    1.0568563   -7.0798113    364.71216  0.026991723  0.027268555            3 
 1127000    1.0578236   -7.1403981    363.84231  0.026903454  0.027260014            7 
 1128000    1.0651123    -7.148132    365.18128  0.026978522  0.027251485            3 
 1129000    1.0888826   -7.1300706    364.53356  0.026906817  0.027243092            2 
 1130000    1.0815735    -7.112281    366.43665  0.027023352  0.027234855            6 
 1131000    1.0513616    -7.088369    366.64817  0.027015043  0.027226687            2 
 1132000    1.0867308   -7.0965999    366.94913  0.027013334  0.027218536            6 
 1133000    1.0591058   -7.0956181     368.4338  0.027098691  0.027210623            8 
 1134000    1.0673651   -7.1010316    366.69604  0.026947093   0.02720263            4 
 1135000    1.0666347   -7.0875589    367.98364  0.027017888  0.027194571            3 
 1136000    1.0757867   -7.1215265    368.07392  0.027000728  0.027186444            2 
 1137000    1.0483289   -7.0984956     368.8959  0.027037225  0.027178422            3 
 1138000    1.0773913   -7.1250359    368.14541   0.02695851  0.027170512            1 
 1139000     1.078572   -7.0873217    370.21127  0.027085987  0.027162641            3 
 1140000    1.0925787   -7.0942395    369.74883  0.027028423  0.027154901            6 
 1141000    1.0592973   -7.1260218    369.75457  0.027005154  0.027147014            4 
 1142000    1.0793981   -7.0834629    370.09992  0.027006708  0.027139171            5 
 1143000     1.068887   -7.1066513    368.96621  0.026900424  0.027131123            4 
 1144000    1.0552738   -7.0976229    369.27846  0.026899655   0.02712312            2 
 1145000    1.0751442    -7.108913    370.40809  0.026958377  0.027115216            2 
 1146000    1.0765024   -7.0855969    370.71696  0.026957312  0.027107198            2 
 1147000    1.0423326    -7.075579    370.89916  0.026947048  0.027099215            3 
 1148000    1.0818046   -7.0709686    371.49002  0.026966465  0.027091372            2 
 1149000    1.0810349   -7.0554083    372.29762  0.027001568  0.027083604            2 
 1150000    1.0559205    -7.118815    370.90127  0.026876903  0.027075675            7 
 1151000    1.0444407    -7.090356    370.74525  0.026842257  0.027067592            3 
 1152000    1.0673235   -7.0947591    371.54184   0.02687658  0.027059511            3 
 1153000    1.0536539   -7.1136633    371.42773  0.026845022  0.027051534            5 
 1154000    1.0510358   -7.0630167    372.26587  0.026882284  0.027043411            4 
 1155000    1.0746947   -7.0675697    373.00668  0.026912459  0.027035465            3 
 1156000    1.0617253   -7.0628414    372.43446  0.026847928  0.027027499            3 
 1157000    1.0717159   -7.1199724    372.88394  0.026857097  0.027019504            4 
 1158000    1.0713077   -7.0799741    373.92339  0.026908707  0.027011624            3 
 1159000    1.0931466   -7.1303376    373.37903   0.02684635  0.027003641            5 
 1160000    1.0753009   -7.1029928    373.94458  0.026863835  0.026995776            4 
 1161000      1.03546   -7.0655578    375.36368  0.026942555  0.026987976            4 
 1162000    1.0524833   -7.1266619    373.72391  0.026801772  0.026980214            4 
 1163000    1.0681109   -7.1112153    375.55294  0.026909783  0.026972486            3 
 1164000    1.0662162   -7.0932867    375.21091  0.026862179  0.026964642            3 
 1165000    1.0387787   -7.1234286    375.25283  0.026842119  0.026956985            5 
 1166000    1.0854012   -7.0710814    375.76112  0.026855426   0.02694928            2 
 1167000    1.0880008   -7.0776078    376.66585  0.026897019  0.026941636            2 
 1168000    1.0637736   -7.1041825     376.7755  0.026881813  0.026934255            6 
 1169000     1.066752   -7.1408216    375.81859  0.026790604   0.02692671            5 
 1170000     1.056617    -7.105319    376.60912  0.026824011  0.026919227            5 
 1171000    1.0559539   -7.0910536     376.3235  0.026780778  0.026911748            4 
 1172000    1.0542067   -7.1110645     378.5305  0.026914853  0.026904532            3 
 1173000    1.0630598   -7.0513738    378.40805  0.026883209  0.026897284            3 
 1174000    1.0855348    -7.078241    378.16605  0.026843132  0.026889993            5 
 1175000    1.0621409    -7.145311    377.02761  0.026739547  0.026882467            3 
 1176000    1.0828653   -7.0915866    377.75216  0.026768152  0.026874813            3 
 1177000     1.063529   -7.1071445    377.01395  0.026693143  0.026867225            5 
 1178000    1.0569794   -7.1296971    378.65427  0.026786521   0.02685958            9 
 1179000    1.0561496   -7.1073882    378.27263  0.026736827  0.026851981            2 
 1180000    1.0483592   -7.1024636    378.87966  0.026757038  0.026844329            3 
 1181000    1.0439165   -7.1188122    378.55636  0.026711569  0.026836506            5 
 1182000     1.068261   -7.0758731    379.25092  0.026737938  0.026828813            5 
 1183000    1.0658259   -7.0944385    379.38596  0.026724849  0.026821274            3 
 1184000    1.0606775   -7.0874448    379.84018  0.026734247  0.026813587            4 
 1185000    1.0565872   -7.0991214    378.88849   0.02664476  0.026805877            6 
 1186000    1.0681068   -7.1069329    379.50008  0.026665267  0.026798236            4 
 1187000    1.0618506   -7.1121748    379.74231  0.026659808  0.026790458            6 
 1188000    1.0630376   -7.0998623    379.85107  0.026644996  0.026782568            3 
 1189000    1.0743718   -7.0755465    380.34908  0.026657491  0.026774712            5 
 1190000    1.0576358    -7.123249    380.76438  0.026664172  0.026767276            9 
 1191000    1.0549728   -7.1650114    380.22733  0.026604207   0.02675942            1 
 1192000    1.0925581   -7.1041704    380.70127  0.026615022  0.026751574            2 
 1193000    1.0730962   -7.1218014    381.98388  0.026682305  0.026743824            4 
 1194000    1.0643821   -7.0895012    381.44478  0.026622332   0.02673592            4 
 1195000    1.0484657   -7.1380761    381.80176  0.026624948  0.026727967           10 
 1196000    1.0842676   -7.1430794    381.15178  0.026557398  0.026720052            3 
 1197000    1.0321089    -7.086326    382.37093  0.026620087  0.026712252            4 
 1198000     1.066587    -7.113623    382.56178  0.026611142  0.026704334            4 
 1199000    1.0603999   -7.1158552    381.84312  0.026538999  0.026696516            3 
 1200000    1.0506609   -7.1153803    382.52363  0.026564141  0.026688796            2 
 1201000    1.0755456   -7.0597876    384.92418  0.026708589  0.026681073            5 
 1202000    1.0704197   -7.1267467    382.78486  0.026538052    0.0266734            5 
 1203000    1.0553954   -7.1175262    383.00431  0.026531194  0.026665776            5 
 1204000    1.0630206   -7.1039516    384.19466  0.026591546  0.026658108            3 
 1205000    1.0562672   -7.0782798    384.06647  0.026560614   0.02665049            8 
 1206000    1.0560171    -7.101288    384.79077  0.026588638  0.026642791            4 
 1207000    1.0360591    -7.094648    385.36585  0.026606314  0.026635041            1 
 1208000    1.0655917   -7.1431641    383.18422   0.02643379  0.026627357            4 
 1209000    1.0706334   -7.1146411    384.40823  0.026496294  0.026619633            5 
 1210000    1.0615629   -7.1008757    386.02025  0.026585417  0.026612136            3 
 1211000    1.0566967   -7.1602568    384.60922  0.026466365  0.026604505            5 
 1212000    1.0394755   -7.1383267    385.14278  0.026481214  0.026596758            4 
 1213000    1.0619967   -7.1723409    384.84092  0.026438645  0.026588696            3 
 1214000    1.0494855   -7.1448691    384.82706  0.026415916  0.026580759            8 
 1215000    1.0306566    -7.168027    385.33752  0.026429185  0.026572953            5 
 1216000      1.05229   -7.1244098    386.29298  0.026472929  0.026565064            4 
 1217000    1.0413266   -7.1519993    386.74941   0.02648243  0.026557088            3 
 1218000    1.0655404   -7.1218303    386.55179  0.026447167  0.026549348            4 
 1219000    1.0624423    -7.090565    387.47908  0.026488862   0.02654173            7 
 1220000     1.058276   -7.1342241    386.06976  0.026370885   0.02653406            5 
 1221000    1.0601423   -7.1006745    386.44914   0.02637518  0.026526357            3 
 1222000    1.0403072   -7.1338354    387.21538   0.02640585  0.026518524            2 
 1223000    1.0725337   -7.0505817     389.0771  0.026511114   0.02651076            3 
 1224000    1.0314273   -7.0694676    388.70217  0.026463928  0.026503226            7 
 1225000     1.060489   -7.1564182    386.18371  0.026271001  0.026495406            4 
 1226000    1.0548595   -7.1453252    388.29264   0.02639292  0.026487503            3 
 1227000    1.0570544   -7.1058516    389.29362  0.026439393  0.026479781            4 
 1228000    1.0459334   -7.1476081    388.85463  0.026388072  0.026472116            3 
 1229000    1.0279641   -7.0776444    389.38206  0.026402364  0.026464538            4 
 1230000    1.0469827   -7.1114817    389.51159  0.026389674  0.026457204            2 
 1231000    1.0557505   -7.0997256    390.96243  0.026466452  0.026449821            4 
 1232000    1.0795042   -7.1090305     390.6637  0.026424763  0.026442422            4 
 1233000    1.0596374   -7.1470029    390.55358  0.026395889  0.026434987            2 
 1234000    1.0499344   -7.1379317    390.73842  0.026386981  0.026427386            6 
 1235000     1.032269   -7.1354653    389.30386  0.026268816  0.026419719            2 
 1236000     1.064162   -7.1411009    389.65813  0.026271449  0.026412012            7 
 1237000    1.0472389   -7.1106721    391.28944  0.026360108  0.026404308            4 
 1238000    1.0290428   -7.1194073    391.27099  0.026337573  0.026396552            4 
 1239000    1.0686213   -7.1186523    391.57543  0.026336792  0.026388902            4 
 1240000    1.0529856   -7.1480389    390.62512  0.026251688  0.026381155            5 
 1241000    1.0542624   -7.1864636    390.56498  0.026226496  0.026373357            2 
 1242000    1.0544874   -7.1820273    391.54219  0.026270947  0.026365586            5 
 1243000    1.0686331   -7.1530178    390.83784  0.026202591   0.02635794            5 
 1244000    1.0677775   -7.1389368    391.96358  0.026256939  0.026350292            3 
 1245000    1.0411558   -7.1356159     392.4939  0.026271346  0.026342736            4 
 1246000     1.045783    -7.089443     393.7581  0.026334811  0.026335324            4 
 1247000    1.0457645    -7.138585    393.10316  0.026269925  0.026327803            3 
 1248000    1.0389374   -7.1330311    392.96398  0.026239582  0.026320264            4 
 1249000    1.0470247   -7.1887574    392.64892  0.026197553  0.026312718            4 
 1250000    1.0502309   -7.0906494    394.00785   0.02626719  0.026305005            3 
 1251000    1.0684845   -7.1614142     393.3108   0.02619976  0.026297426            7 
 1252000    1.0453384   -7.1445557    394.10459  0.026231669  0.026289854            3 
 1253000    1.0374919   -7.1722688    393.81707  0.026191612  0.026282266            4 
 1254000    1.0401229   -7.1256256    394.08647  0.026188628  0.026274684            5 
 1255000    1.0632916   -7.1519978    393.69126  0.026141518  0.026267232            7 
 1256000      1.06044   -7.1659079     394.1881  0.026153669  0.026259697            3 
 1257000    1.0371412   -7.1768759    394.99092  0.026186086  0.026252303            3 
 1258000    1.0458542   -7.1571809    394.95052  0.026162594  0.026244949            4 
 1259000     1.049565   -7.1464025    396.04424  0.026214207  0.026237777            4 
 1260000    1.0783844   -7.1315223    397.04467  0.026259568  0.026230602            4 
 1261000     1.029639   -7.1644484    396.86835  0.026227092  0.026223431            2 
 1262000    1.0253792   -7.1633244    397.63572  0.026256981  0.026216052            2 
 1263000    1.0553468   -7.1570748    396.38132  0.026153426  0.026208827            3 
 1264000     1.047821   -7.1005911    397.92987  0.026234828  0.026201591            3 
 1265000    1.0580776    -7.164701    397.67886  0.026197553  0.026194424            3 
 1266000    1.0424479   -7.1443906    397.80451  0.026185131  0.026187123            8 
 1267000    1.0581375   -7.1348514    397.87247  0.026168934  0.026179934            5 
 1268000    1.0358176   -7.1697005    398.38263  0.026181824  0.026172779            2 
 1269000    1.0474232   -7.1239638    400.18343  0.026279448  0.026165681            3 
 1270000    1.0628449   -7.1359061    399.22626  0.026195949  0.026158565            4 
 1271000    1.0546237   -7.1763355    398.66862  0.026138776  0.026151434            3 
 1272000    1.0646569   -7.1316337    400.48448  0.026237191  0.026144241            3 
 1273000    1.0677182   -7.1654539     400.1759   0.02619638  0.026137102            4 
 1274000    1.0808912    -7.127724    400.46014   0.02619441  0.026130157            4 
 1275000    1.0461723   -7.1855673     400.2831  0.026162294  0.026123384            5 
 1276000    1.0684038   -7.1646336    400.66708  0.026166868   0.02611633            6 
 1277000      1.04547   -7.1598723    399.06276  0.026041683  0.026109314            3 
 1278000    1.0379859    -7.152569     400.9494  0.026144327  0.026102281            4 
 1279000    1.0281649   -7.1515658    400.58813  0.026100347  0.026095242            8 
 1280000    1.0519502   -7.1446642    401.24251  0.026122559  0.026088178            2 
 1281000    1.0561024    -7.172891    399.98964  0.026020664  0.026081091            7 
 1282000    1.0387379   -7.1489707    400.75199  0.026049921  0.026073851            2 
 1283000    1.0518714   -7.1650454      401.237   0.02606112  0.026066467            4 
 1284000    1.0617856   -7.1190394    401.69443  0.026070511  0.026059113            3 
 1285000    1.0492472   -7.1701581    400.04654  0.025943355  0.026051796            4 
 1286000    1.0475998   -7.1697052    401.04089  0.025987616  0.026044326            3 
 1287000    1.0464792    -7.088033    402.71762  0.026075992  0.026036984            4 
 1288000    1.0445099   -7.1070542    404.31249  0.026158934   0.02602979            6 
 1289000    1.0379239   -7.1271622    402.71312  0.026035242   0.02602284            5 
 1290000    1.0561182   -7.1730829    402.32944  0.025990274  0.026015665            4 
 1291000    1.0455082   -7.1204577    403.69605  0.026058356  0.026008625            3 
 1292000    1.0453984   -7.1696443    402.77692  0.025978904  0.026001436            5 
 1293000    1.0667823   -7.0892308     404.9847  0.026101102  0.025994291            2 
 1294000    1.0467803   -7.1137903    404.31798  0.026037995  0.025987334            5 
 1295000    1.0466873   -7.1702539    404.68501  0.026041507  0.025980293            6 
 1296000    1.0468986   -7.1705688    404.26336    0.0259943  0.025973377            2 
 1297000    1.0442274   -7.1699693    403.87029  0.025949004  0.025966352            2 
 1298000    1.0273095   -7.1772296    405.17931  0.026013053  0.025959334            3 
 1299000    1.0454371   -7.1493858    404.91854  0.025976299  0.025952279            2 
 1300000    1.0165728   -7.1915596     404.2312  0.025912256  0.025945125            5 
 1301000     1.037332   -7.1498258    406.01603  0.026006663  0.025937799            2 
 1302000    1.0539211   -7.1090359    406.98097  0.026048449  0.025930688            3 
 1303000    1.0284489    -7.149005    406.72997  0.026012405  0.025923677            3 
 1304000    1.0476554   -7.1624314    405.70181  0.025926752  0.025916538            3 
 1305000    1.0491883   -7.1868399    405.19837  0.025874736  0.025909399            5 
 1306000    1.0347993   -7.1591163    406.25447  0.025922312  0.025902398            3 
 1307000    1.0548989   -7.1542903    407.76434  0.025998747  0.025895287            5 
 1308000      1.03774   -7.1853707    406.17688  0.025877732  0.025888124            7 
 1309000    1.0323971   -7.1385788    407.97432  0.025972391  0.025880909            3 
 1310000    1.0546877   -7.1735928    407.46834  0.025920378  0.025873871            6 
 1311000     1.039355    -7.149206     408.0842  0.025939753   0.02586674            1 
 1312000     1.058737   -7.1795606    406.29481  0.025806327  0.025859436            4 
 1313000     1.061846   -7.1346848    409.06855  0.025962716  0.025852309            3 
 1314000    1.0321597   -7.1373524    409.74971  0.025986156  0.025845184            5 
 1315000    1.0476468   -7.2272121    406.38256  0.025753014  0.025837889            3 
 1316000    1.0314956   -7.1511333    406.73102  0.025755511  0.025830658            3 
 1317000    1.0390984   -7.1532859    408.74976   0.02586369  0.025823477            4 
 1318000    1.0325606   -7.1828635    408.03507  0.025798879  0.025816255           11 
 1319000    1.0399199   -7.1771967     409.1013  0.025846683  0.025809054            6 
 1320000     1.030357   -7.2166558    408.53278  0.025791211  0.025801813            7 
 1321000     1.039067   -7.1580364    409.14692  0.025810429  0.025794426            4 
 1322000    1.0497419   -7.1671724    409.74762  0.025828771  0.025787176            3 
 1323000    1.0317133   -7.1313216    409.46622  0.025791523  0.025780085            5 
 1324000    1.0299424   -7.1772131    409.07773  0.025747591   0.02577292            4 
 1325000    1.0474469   -7.1500128    410.06267  0.025790105  0.025765783            3 
 1326000    1.0377629   -7.2304299    409.49126  0.025734745   0.02575837            2 
 1327000    1.0242745   -7.2426608    409.06639   0.02568867  0.025751067            2 
 1328000    1.0671263   -7.2019214    410.98122  0.025789484  0.025743874            3 
 1329000    1.0508484   -7.1473386    410.28726  0.025726565  0.025736828            7 
 1330000    1.0403847   -7.1787457    410.44689  0.025717224  0.025729808            3 
 1331000    1.0346426   -7.1956434    410.86371  0.025723999  0.025722686            4 
 1332000    1.0379824   -7.1606975    412.07367  0.025780385  0.025715585            4 
 1333000    1.0438814   -7.2080758    411.61888  0.025732613    0.0257084            2 
 1334000     1.056319   -7.1631833    410.81969  0.025663399  0.025701023            4 
 1335000    1.0528635   -7.1833002    412.66762  0.025759527  0.025693707            4 
 1336000    1.0361113   -7.1346841    412.23658  0.025713359  0.025686577            3 
 1337000    1.0305062   -7.1526651    412.71777  0.025724119  0.025679511            3 
 1338000    1.0457723   -7.1720632       412.89  0.025715621  0.025672429            5 
 1339000    1.0274287   -7.1589283    412.58806  0.025677624  0.025665397            6 
 1340000    1.0188728    -7.181033    413.44495  0.025711751  0.025658292            4 
 1341000    1.0285399   -7.1559523    413.02007  0.025666174  0.025651174            7 
 1342000    1.0431047   -7.2203469     412.4797  0.025613493   0.02564426            9 
 1343000    1.0371039   -7.1863478    413.66517   0.02566798  0.025637357            5 
 1344000    1.0357706   -7.1772256    414.58382  0.025705842  0.025630479            4 
 1345000    1.0513374   -7.2154036    413.69259  0.025631511  0.025623463            4 
 1346000    1.0506574    -7.169321    414.18198  0.025642767  0.025616556            2 
 1347000    1.0233743    -7.143441    415.86304  0.025727731  0.025609625            3 
 1348000    1.0438298   -7.1544987    416.07566  0.025721789  0.025602527           13 
 1349000    1.0437545   -7.1692204    415.70274  0.025679685  0.025595497            3 
 1350000    1.0386508   -7.1984774    415.58896  0.025653639  0.025588488            6 
 1351000    1.0282418   -7.1444464    417.36201  0.025744018  0.025581557            3 
 1352000     1.069484   -7.2141393     413.6725  0.025497565  0.025574354            4 
 1353000    1.0243007   -7.2110647    416.92595  0.025679105  0.025567214            3 
 1354000    1.0458315   -7.1940703    414.85056  0.025532408  0.025560161            3 
 1355000    1.0401845   -7.1771732    416.80521  0.025633777  0.025553174            7 
 1356000    1.0413276   -7.1637003     418.1164  0.025695452  0.025546291            4 
 1357000    1.0679093   -7.1201452    419.26869  0.025747279  0.025539463            2 
 1358000    1.0312979   -7.2218486    416.16412  0.025537808  0.025532604            5 
 1359000    1.0216925   -7.2007332    417.24005  0.025584992  0.025525643            4 
 1360000    1.0340573   -7.1421366    418.07251  0.025617188  0.025518794            3 
 1361000    1.0544667   -7.1951482    417.65133  0.025572577  0.025511958            5 
 1362000    1.0277632   -7.1770089    418.20184  0.025587484  0.025505057            4 
 1363000    1.0511725   -7.2118993    417.65986  0.025535575  0.025498036            2 
 1364000    1.0511483   -7.1780707    417.82935  0.025527209  0.025491077            6 
 1365000    1.0315759   -7.2078154    418.96232  0.025577675  0.025483886            3 
 1366000    1.0452464   -7.1893547    418.11712  0.025507389  0.025476856            4 
 1367000    1.0288974   -7.1723199    419.06204  0.025546332  0.025469874            5 
 1368000    1.0235747   -7.1565821    417.58979  0.025437975   0.02546312            5 
 1369000    1.0358131    -7.168115     419.2658  0.025521415  0.025456085            3 
 1370000    1.0399321   -7.1750784    419.44399  0.025513625  0.025448967            3 
 1371000    1.0265107   -7.1817241      419.864  0.025520544   0.02544188            3 
 1372000    1.0023881     -7.19043    420.59882  0.025546575  0.025434847            4 
 1373000    1.0346537   -7.1904722    419.54083  0.025463755  0.025427777            4 
 1374000    1.0404969   -7.1685787    420.37271  0.025495676  0.025420688            5 
 1375000    1.0226131   -7.1878715    420.68594  0.025496117  0.025413687            6 
 1376000    1.0384934   -7.2038401     419.8935  0.025429597  0.025406604            3 
 1377000     1.043364   -7.2181404    420.64198  0.025456426  0.025399664            6 
 1378000     1.013941   -7.2064613    420.14723  0.025408033  0.025392499            4 
 1379000    1.0348043   -7.2317593    419.82184  0.025369944  0.025385211            3 
 1380000    1.0127129   -7.1694153    421.81141  0.025471703  0.025378057            6 
 1381000    1.0177446    -7.214418    420.57677  0.025378758  0.025370869            2 
 1382000    1.0276281   -7.2067681    422.10035  0.025452264  0.025363759            2 
 1383000    1.0305613   -7.2362929    421.07563  0.025372115  0.025356473           13 
 1384000    1.0196862   -7.1930674    420.90749  0.025343659  0.025349254            6 
 1385000    1.0279974   -7.2329048    420.87996  0.025323704  0.025341985            3 
 1386000    1.0289971   -7.1927015    421.55482  0.025346009  0.025334705            3 
 1387000    1.0154766   -7.1901132    422.43647  0.025380706   0.02532736            5 
 1388000    1.0407187    -7.171438    421.68502  0.025317304   0.02532017            2 
 1389000    1.0421614    -7.193573    421.62827  0.025295673  0.025312908            4 
 1390000    1.0444646   -7.2084197     421.6123  0.025276517  0.025305604            4 
 1391000    1.0216086   -7.1732385    422.47774  0.025310193   0.02529829            3 
 1392000     1.036462   -7.1385052     423.3809  0.025346079  0.025291075            2 
 1393000    1.0293172    -7.184058    422.26598  0.025261186  0.025283874            4 
 1394000    1.0232383   -7.2246516    420.17859   0.02511828  0.025276362            2 
 1395000    1.0378792   -7.1741342     423.3749  0.025291213  0.025268916            5 
 1396000    1.0407124   -7.1693106    424.30925  0.025328871  0.025261701            5 
 1397000    1.0484944    -7.190212    422.23531  0.025187026  0.025254391            2 
 1398000    1.0144663   -7.2292072    423.15886  0.025224062  0.025246996            2 
 1399000    1.0309114   -7.2393713    424.60517  0.025292183  0.025239671            5 
 1400000    1.0243191   -7.2015075    423.93129  0.025234005  0.025232475            2 
 1401000    1.0209619   -7.2292979    425.06671   0.02528353  0.025225303            5 
 1402000    1.0341367   -7.2271627    424.25259  0.025217106  0.025218223            5 
 1403000    1.0342973   -7.2005921    424.88836  0.025236895  0.025211159            7 
 1404000    1.0325785   -7.2193651    425.42856  0.025250983  0.025204163            3 
 1405000    1.0280061   -7.2101588    425.02484  0.025209065  0.025197091            6 
 1406000     1.025934   -7.1983392    425.58384  0.025224267  0.025189998            6 
 1407000    1.0580302   -7.1637647     427.3124  0.025308718  0.025182996            3 
 1408000    1.0063616   -7.2396651    425.37145  0.025175867  0.025176111            2 
 1409000    1.0289416   -7.2201152    425.41086   0.02516033  0.025168989            6 
 1410000    1.0155647   -7.2204574    426.60947  0.025213326  0.025161909            9 
 1411000    1.0337695   -7.2137072     427.7087  0.025260377  0.025154913            2 
 1412000    1.0316981   -7.1850681    427.00687  0.025201066  0.025148132            6 
 1413000    1.0172542   -7.1736654    427.73003   0.02522588  0.025141203            3 
 1414000    1.0267481   -7.2015365    427.47032  0.025192734  0.025134225            4 
 1415000    1.0128519   -7.1811298    428.09561  0.025211755   0.02512717            2 
 1416000    1.0046852   -7.2498127     427.9625  0.025186117  0.025120129            4 
 1417000    1.0430675   -7.1826533    428.89607  0.025223245  0.025113207            5 
 1418000    1.0511613   -7.2052814    428.32377  0.025171825  0.025106148            4 
 1419000    1.0289964   -7.2294746    428.70458  0.025176449  0.025099065            6 
 1420000    1.0180121   -7.1795513    429.63348  0.025213233  0.025092003            4 
 1421000    1.0331885   -7.2296997    429.02104  0.025159573  0.025085088            2 
 1422000    1.0257136   -7.2129719     429.9226  0.025194714  0.025078315            3 
 1423000    1.0198084   -7.2263458    429.78489  0.025168944  0.025071369            2 
 1424000    1.0256472    -7.242827    428.79034  0.025093068  0.025064424            8 
 1425000     1.028499   -7.2687272    428.93945  0.025084178  0.025057283            5 
 1426000    1.0221351   -7.2309852    428.83161  0.025060286  0.025050223            3 
 1427000    1.0311783   -7.2705064    428.93101  0.025048529  0.025043235            5 
 1428000    1.0238426   -7.2337609    430.08053   0.02509807  0.025036266            5 
 1429000     1.030698   -7.2628606    429.63461  0.025054502  0.025029282            7 
 1430000    1.0137892   -7.1717892    432.08275  0.025179647  0.025022409            4 
 1431000   0.99178532   -7.2203924    431.78813  0.025144895  0.025015589            2 
 1432000    1.0442241   -7.1777739    432.12392  0.025146876  0.025008785            6 
 1433000    1.0361999   -7.2103484    432.44643  0.025148083  0.025002056            4 
 1434000     1.014987   -7.2006517    432.40648  0.025128224  0.024995327            3 
 1435000    1.0128566   -7.2535902    431.90378   0.02508152  0.024988493            3 
 1436000    1.0204313   -7.2144687    431.98833   0.02506896  0.024981689            6 
 1437000    1.0108553   -7.1941867     432.7519  0.025095796  0.024975012            5 
 1438000    1.0270819   -7.1646969    434.48484  0.025178769  0.024968503            2 
 1439000    1.0251681   -7.2506254    431.68579  0.024999177  0.024961819            7 
 1440000    1.0072135   -7.2345941    433.74562   0.02510102  0.024955146           14 
 1441000    1.0250971   -7.2273781     433.0804  0.025045131  0.024948396            6 
 1442000    1.0252539   -7.2139456    435.02058  0.025139886  0.024941827            6 
 1443000    1.0294722   -7.2060931    434.33207  0.025082702  0.024935279            6 
 1444000    1.0302107   -7.1715636    436.74253   0.02520444  0.024928691            3 
 1445000    1.0075619   -7.2358339    433.00383  0.024971386  0.024922062            4 
 1446000    1.0125726   -7.2312735    434.98746  0.025068434  0.024915303           10 
 1447000    1.0358498   -7.2370414    434.16347  0.025003655  0.024908598            6 
 1448000    1.0158239   -7.2617223    434.16396  0.024986416  0.024901889            3 
 1449000    1.0190026   -7.2679594    434.20047  0.024971272  0.024894989            7 
 1450000    1.0090841   -7.2164603     436.2815  0.025073649  0.024888092            4 
 1451000    1.0276054   -7.2312426    435.69696  0.025022798  0.024881286            5 
 1452000    1.0123464   -7.2607992    434.37609  0.024929757  0.024874508            4 
 1453000    1.0061574   -7.2422014    435.14603  0.024956758  0.024867765            4 
 1454000    1.0053077   -7.2430102    435.56001   0.02496332  0.024860997            8 
 1455000     1.023281   -7.2671657     436.3541  0.024991644   0.02485437            4 
 1456000    1.0190872   -7.2319063    436.52874  0.024984475  0.024847685            2 
 1457000    1.0252629   -7.2281007    436.24249  0.024950955   0.02484109            5 
 1458000    1.0086717   -7.2446832    435.77657  0.024907212  0.024834398            4 
 1459000    1.0357564   -7.2834923    436.09793  0.024908495  0.024827594            7 
 1460000    1.0366581   -7.2560916    435.99286  0.024885437  0.024820731           10 
 1461000    1.0251741    -7.224835    436.79451  0.024914129  0.024813905            4 
 1462000    1.0147176   -7.2660917    437.26158  0.024923711  0.024807203            3 
 1463000    1.0246573   -7.2381418    438.02071  0.024949915  0.024800441            4 
 1464000    1.0066283   -7.2470565    438.19771  0.024942948  0.024793786            2 
 1465000    1.0319501   -7.2750162    437.82746  0.024904861  0.024787026            4 
 1466000    1.0112938   -7.2386725    438.14168  0.024905734  0.024780227            7 
 1467000    1.0130429   -7.2227641    437.63629  0.024860048  0.024773553            4 
 1468000    1.0401654   -7.1657359    439.43568  0.024945259   0.02476709            4 
 1469000    1.0121257   -7.1950203     439.0506  0.024906433  0.024760594            5 
 1470000    1.0130014   -7.2477146    440.06865  0.024947203  0.024753984            3 
 1471000    1.0130492   -7.2427847    437.80732  0.024802137  0.024747247            6 
 1472000    1.0171656   -7.2205208    440.19988  0.024920736  0.024740559            4 
 1473000    1.0031816   -7.1910919     439.9341  0.024888782  0.024733892            3 
 1474000    1.0266239   -7.1957748    441.55597   0.02496359  0.024727313            5 
 1475000    1.0090722     -7.20407    441.41896  0.024938925  0.024720769            6 
 1476000    1.0044554   -7.2313105    440.33236   0.02486068   0.02471414           10 
 1477000     1.004215   -7.2378945    439.33188    0.0247874  0.024707362            7 
 1478000    1.0250153   -7.2560737    440.92712  0.024860573  0.024700682            5 
 1479000     1.015672   -7.2452963    441.05037  0.024850708  0.024693983            6 
 1480000    1.0150324   -7.2614538    440.22024  0.024787175  0.024687313            3 
 1481000    1.0161871   -7.2850086    439.32407  0.024720013  0.024680575            8 
 1482000   0.99766354   -7.2188688    440.47474  0.024768035  0.024673688            5 
 1483000    1.0034459    -7.287221    440.16795  0.024734095  0.024666739            5 
 1484000    1.0056022   -7.2570351    440.52094   0.02473725  0.024659799            4 
 1485000    1.0231135   -7.2323809    441.65188  0.024784056  0.024652818            9 
 1486000    1.0103991   -7.2599519    438.90605  0.024613395  0.024645821            6 
 1487000    1.0071434   -7.2306794    440.03995  0.024660387  0.024638919           11 
 1488000    1.0062618   -7.2179762     441.7297  0.024738446  0.024632014            3 
 1489000     1.007694   -7.2473476    441.25674  0.024695363  0.024625117            3 
 1490000   0.99933461   -7.2731687    441.45908  0.024690105  0.024618189            4 
 1491000    1.0322149   -7.2209283    441.61259  0.024682125  0.024611207            4 
 1492000    1.0125477   -7.2499486    441.52069   0.02466045  0.024604287            3 
 1493000   0.99618627   -7.2179213     442.6441  0.024706636  0.024597154            4 
 1494000    1.0114909   -7.2357542    443.13976  0.024717746  0.024590102            5 
 1495000    1.0178056   -7.2261866    442.01931  0.024638757  0.024583183            7 
 1496000    1.0247759   -7.2021803    443.69331  0.024715536  0.024576401            2 
 1497000    1.0086671   -7.2289579    444.15043  0.024724473  0.024569552            6 
 1498000    1.0206429   -7.2417453    443.41424  0.024667014   0.02456272            5 
 1499000    1.0075394   -7.2577242    443.10179  0.024633188  0.024555823            5 
 1500000    1.0014069   -7.2529948    444.03605   0.02466867  0.024549008            7 
 1501000    1.0312604   -7.2940499    442.86702  0.024587332  0.024542101            6 
 1502000    1.0098835   -7.2678134    444.04832  0.024636502  0.024535228            7 
 1503000    0.9939882   -7.2344246    443.79445  0.024606035  0.024528325            7 
 1504000    1.0018155   -7.2241898    443.91826  0.024596535  0.024521519            5 
 1505000   0.99983771   -7.2576704    444.40626  0.024607212  0.024514624            3 
 1506000    1.0184949   -7.2379798    444.71967  0.024608216  0.024507746            6 
 1507000    1.0305321   -7.2889101    444.06935  0.024555925  0.024500874            6 
 1508000    1.0195307   -7.2521949    445.01373  0.024591828   0.02449396            2 
 1509000    1.0068485    -7.290709     443.8357  0.024510476  0.024487015            4 
 1510000    1.0212322   -7.2609815    445.07142   0.02456244   0.02448006            7 
 1511000    1.0128524   -7.2233011    445.77691  0.024585093  0.024473249            4 
 1512000    1.0032148   -7.2333263    445.12366  0.024532829  0.024466376            4 
 1513000    1.0158013    -7.239489    446.29972   0.02458139  0.024459512            4 
 1514000    1.0152012   -7.2475372    446.54307  0.024578548  0.024452612            3 
 1515000    1.0139894    -7.247941    445.99439  0.024532145  0.024445757           13 
 1516000    1.0271051   -7.2442339    446.86524  0.024563832  0.024438926            3 
 1517000    1.0099407   -7.2723247    446.35152   0.02451942  0.024431978            3 
 1518000    1.0139229   -7.2273173    447.47029  0.024564684  0.024425153            3 
 1519000    1.0230514   -7.2325056    447.02918  0.024524313  0.024418349            3 
 1520000    1.0217904   -7.2087488    448.44175  0.024585622  0.024411558            5 
 1521000    1.0063616   -7.2476009    447.82718  0.024535787  0.024404643            4 
 1522000    1.0123773    -7.261237    447.27409  0.024489383   0.02439778            4 
 1523000    1.0067628   -7.2495819    447.10169   0.02446387  0.024390968            6 
 1524000    1.0143338   -7.2801027    447.32767  0.024460174  0.024384017            3 
 1525000    1.0075776   -7.2196105    448.45556  0.024505769  0.024377094            3 
 1526000   0.99595879   -7.2547526     447.7535  0.024451371  0.024370161           12 
 1527000   0.98560635   -7.2582817    448.48085  0.024475052  0.024363259            3 
 1528000    1.0276498   -7.2527396    449.07664  0.024491527  0.024356426            4 
 1529000     1.007248   -7.2565121    449.18703  0.024481526  0.024349618            3 
 1530000   0.99935703   -7.2405302     449.3124  0.024472353  0.024342791            8 
 1531000   0.98578395   -7.2486124    450.16693  0.024502881  0.024336025            3 
 1532000    1.0035876     -7.27592    448.10198  0.024374564  0.024329312            4 
 1533000    1.0299069   -7.2524952    449.75864  0.024448719  0.024322556            5 
 1534000   0.99204106   -7.2439458    449.69018  0.024429062  0.024315842            5 
 1535000    1.0114556   -7.2486579    449.18357  0.024385644  0.024309113            4 
 1536000   0.98725479   -7.2487601    449.43465   0.02438339  0.024302393            5 
 1537000   0.99128169   -7.2741037    449.84514  0.024389782  0.024295665            4 
 1538000    1.0079346   -7.3011654    449.38636  0.024349066  0.024288793            3 
 1539000   0.99147658   -7.2448709    450.80982  0.024410322  0.024282006            3 
 1540000    1.0150891   -7.2566608    450.95922  0.024402555  0.024275289            3 
 1541000   0.99344957   -7.2657842     450.5033  0.024362064  0.024268522            7 
 1542000    1.0040926   -7.3156329    451.53103  0.024401807  0.024261753            2 
 1543000    1.0146161   -7.2573433    452.64956  0.024446401   0.02425498            4 
 1544000    1.0214405   -7.2877245    451.79314  0.024384345  0.024248195            2 
 1545000    1.0025886   -7.2248397    451.85739  0.024372027  0.024241523            8 
 1546000    1.0278694   -7.2806449    452.08655  0.024368615  0.024234677            1 
 1547000     1.000262    -7.291295    451.30414  0.024310717  0.024227915            7 
 1548000    1.0167208    -7.260534    451.90255  0.024327226  0.024221031            3 
 1549000   0.99295927   -7.2298983    452.49265  0.024343267  0.024214306            4 
 1550000    1.0029081   -7.2892065    451.66383  0.024283002  0.024207438            5 
 1551000    1.0005402   -7.2654941    452.11598  0.024291639  0.024200511            2 
 1552000    1.0015563   -7.2980809    451.26328  0.024230202  0.024193609            3 
 1553000    1.0132307   -7.2284073    452.46176   0.02427891   0.02418666           10 
 1554000     1.000317   -7.2323422    453.13585  0.024299434   0.02417975            4 
 1555000    1.0364296   -7.2732634    451.88403  0.024216722  0.024172774            3 
 1556000     1.005859   -7.2627147    452.10986  0.024213253  0.024165744            4 
 1557000    1.0192525   -7.2922795    452.26729  0.024206128   0.02415874            2 
 1558000    1.0052111   -7.3247885     451.0163  0.024123679  0.024151719            4 
 1559000    1.0021156   -7.2608335    453.10629  0.024219921  0.024144683            3 
 1560000    1.0146633   -7.2524861    453.69069  0.024235614  0.024137618            3 
 1561000   0.98408625   -7.2765293    451.75653  0.024116834  0.024130672            4 
 1562000    1.0079059   -7.2593024     452.6576  0.024149466  0.024123645            6 
 1563000    1.0017024   -7.2675144    452.76519  0.024139752  0.024116801            7 
 1564000   0.98630168   -7.2771414    454.02222  0.024191295  0.024109824            5 
 1565000   0.99467926   -7.3054873    453.61458  0.024154131  0.024102751            8 
 1566000    1.0123352   -7.2935462    453.92752   0.02415536  0.024095723            5 
 1567000   0.98583788   -7.2865238    453.84305  0.024135453   0.02408871            5 
 1568000   0.99636697   -7.2939742    453.06837  0.024078889  0.024081773            3 
 1569000   0.99916583   -7.2551106     454.3394  0.024131049   0.02407484            4 
 1570000    1.0273011   -7.2475369    455.00082  0.024150787  0.024067961            4 
 1571000    1.0031653   -7.2520643    454.99204  0.024134948  0.024061098            2 
 1572000   0.98407434   -7.2513965    456.01602  0.024173877  0.024054224            3 
 1573000   0.99806031   -7.2374458    456.63273  0.024191181  0.024047437            4 
 1574000    0.9973597   -7.2768121    455.10402  0.024094876  0.024040757            8 
 1575000   0.99036703   -7.2656434    456.20489  0.024137825  0.024034131            4 
 1576000   0.99823917   -7.2283524    457.58181  0.024195316  0.024027511            2 
 1577000      1.00614   -7.2961785    457.88392  0.024195937  0.024020896            3 
 1578000    1.0102863   -7.2361757    457.85378  0.024179013   0.02401424            4 
 1579000    1.0040573   -7.2390254    458.83389  0.024215426  0.024007664            5 
 1580000   0.99844895   -7.2990592    456.64117   0.02408445  0.024001044            4 
 1581000    1.0057804   -7.2919995    458.17536  0.024150082  0.023994311            4 
 1582000    0.9942167    -7.348932    455.67179  0.024002939  0.023987562           15 
 1583000   0.98747475   -7.3089887    456.87695  0.024051219  0.023980685            6 
 1584000   0.98933742   -7.3321649    457.37524  0.024062249  0.023973767            5 
 1585000    1.0021051   -7.2888285    456.90454  0.024022321  0.023966801            3 
 1586000   0.99044895   -7.2661259    459.38708  0.024137615  0.023960065            8 
 1587000   0.98818938    -7.268505    458.67316  0.024084917  0.023953423            3 
 1588000   0.99526264   -7.2981057    459.11513  0.024092944  0.023946716            8 
 1589000   0.99687472   -7.3210266    458.45981  0.024043414  0.023939949            5 
 1590000   0.99462795   -7.3142028    458.12089  0.024010529  0.023933179            2 
 1591000   0.97216651   -7.3048956     459.1441  0.024049031   0.02392641            3 
 1592000   0.96636868   -7.2899028    460.86835  0.024124181   0.02391969            6 
 1593000    0.9951245   -7.3196359    459.20685   0.02402212   0.02391298            6 
 1594000   0.97688936   -7.2783356    459.22654  0.024008079  0.023906311            2 
 1595000   0.99075047   -7.2802754    460.92085  0.024081549  0.023899581            4 
 1596000    1.0187585   -7.2744578    459.04209  0.023968363  0.023892813            5 
 1597000   0.99919536   -7.3114831    458.26377  0.023912741  0.023885968            3 
 1598000   0.99292771   -7.3143387    459.05696  0.023939141  0.023879059            4 
 1599000     1.000071   -7.3201799    459.66671  0.023955947  0.023872059            4 
 1600000   0.99211006   -7.3076835    458.95006  0.023903649  0.023865163            6 
 1601000    1.0007275   -7.2970761    458.68539  0.023874942  0.023858236            6 
 1602000   0.99620691   -7.2863948    460.53681  0.023956347  0.023851283            6 
 1603000   0.99447552   -7.2997205    459.00476  0.023861757  0.023844186            8 
 1604000   0.99969957   -7.2948409    458.45013  0.023818066  0.023837197            3 
 1605000   0.99760494   -7.3154716    459.97298  0.023882294  0.023830149            6 
 1606000   0.99895077   -7.2730068    459.56121  0.023846057  0.023823174            5 
 1607000    1.0378377   -7.3079057    459.80616  0.023843921  0.023816122            3 
 1608000   0.97712262   -7.2839442    461.68898  0.023926668  0.023809107           11 
 1609000    1.0128585   -7.2941283     460.9085  0.023871374  0.023802147            4 
 1610000   0.99987448   -7.2978477     461.4471  0.023884425   0.02379512            3 
 1611000   0.99129087   -7.2839894    459.43417  0.023765475  0.023788019            2 
 1612000   0.98460974   -7.3234987    459.13033  0.023735025  0.023780984            5 
 1613000   0.99485838   -7.3276538    460.53401  0.023792829  0.023773839            8 
 1614000   0.97052226   -7.3134197    462.09548  0.023858709  0.023766756            3 
 1615000   0.98668014   -7.3203676    460.69608  0.023771728   0.02375967            5 
 1616000    1.0044291   -7.3057264     461.9933  0.023823912  0.023752551            4 
 1617000   0.99148736   -7.3069916    461.42169   0.02377972   0.02374537            6 
 1618000    1.0025629   -7.3304789    461.47605  0.023767823  0.023738202            9 
 1619000   0.99850216   -7.3413703    461.77725  0.023768646  0.023731104            6 
 1620000     1.024891   -7.3091518    462.58017  0.023795276  0.023724072            5 
 1621000    1.0022168   -7.3054008    462.70894  0.023787217  0.023717123            6 
 1622000    0.9908047   -7.2724216     462.1298  0.023742797  0.023710226            4 
 1623000   0.98541773   -7.3443312    460.69095   0.02365429  0.023703037            9 
 1624000   0.99327991   -7.3157817     462.0678  0.023710376  0.023695895            6 
 1625000     1.005359   -7.3532806    461.58393  0.023670971  0.023688647            3 
 1626000   0.98794016   -7.3492494    461.06157  0.023629642  0.023681403            4 
 1627000   0.96894015   -7.3486948    462.46611  0.023687058  0.023674194            3 
 1628000    1.0065539   -7.2873249    463.37841  0.023719206  0.023667064            8 
 1629000   0.98800132   -7.3556399    462.23183  0.023645991  0.023659847            4 
 1630000    1.0084362   -7.3498366    459.98495  0.023516613  0.023652519            3 
 1631000    0.9929608   -7.2897328    462.26889  0.023618889  0.023645251            7 
 1632000    1.0083344   -7.3142291    462.53997  0.023618258  0.023638031            4 
 1633000   0.97323353   -7.3198479    463.23899  0.023639467  0.023630763            3 
 1634000   0.98853455   -7.3380362    460.94334  0.023507922  0.023623378            3 
 1635000   0.99751567   -7.3350128    461.82028  0.023538241  0.023615964            5 
 1636000   0.99865436   -7.3285261    462.42423  0.023554617  0.023608586            4 
 1637000   0.98610278   -7.3304089    462.89307  0.023564094  0.023601252           10 
 1638000   0.99335549   -7.3238657    462.29828  0.023519449  0.023593775            5 
 1639000   0.99870089   -7.2868031    462.31397  0.023505896  0.023586395            5 
 1640000   0.97388935   -7.3258731    462.11632   0.02348152   0.02357898            5 
 1641000    1.0043521   -7.2962251     463.6583  0.023545516  0.023571555            6 
 1642000   0.98731597   -7.3008391     463.1065  0.023503172  0.023564237            2 
 1643000    0.9864392   -7.2873944    464.04128  0.023536279  0.023556811            7 
 1644000   0.99295294   -7.3862236    463.65535    0.0235024  0.023549416            3 
 1645000   0.95697126   -7.3376174    463.58116  0.023484355   0.02354195            5 
 1646000   0.99561542   -7.3448912    463.90368  0.023486415  0.023534512            4 
 1647000   0.99114714   -7.3203084    463.92533  0.023473251   0.02352718            4 
 1648000   0.97072265   -7.3288286    464.45956  0.023486021  0.023519832            6 
 1649000   0.98921109   -7.3037937    465.09221   0.02350375  0.023512484            3 
 1650000    1.0042023   -7.3312114    465.56472   0.02351337  0.023505234            3 
 1651000    1.0070381   -7.3626979    465.33592  0.023487579  0.023497988            7 
 1652000   0.98096626   -7.3210709    464.54386  0.023433407  0.023490711            4 
 1653000   0.98747848    -7.309139    466.74749  0.023530323  0.023483463            2 
 1654000   0.97556093   -7.3155372    465.81966   0.02346935  0.023476163            4 
 1655000      1.00057   -7.3321221    464.85858  0.023406777  0.023468781            4 
 1656000   0.97452753   -7.3412727     464.6335  0.023381316  0.023461405            8 
 1657000     1.001938   -7.3157674     465.5571  0.023413654  0.023454033            4 
 1658000   0.98880887   -7.3328573    464.95287  0.023369163  0.023446622            4 
 1659000   0.98303327   -7.3419551    465.98281  0.023406812   0.02343905            4 
 1660000   0.98547284   -7.3301237    465.41404  0.023364159  0.023431547            7 
 1661000   0.99101614   -7.2838884    466.56131  0.023407652  0.023424059            3 
 1662000   0.99739343   -7.3446952    464.75719  0.023303108  0.023416635            5 
 1663000   0.97166317   -7.3000905    465.18641  0.023310604  0.023409134            2 
 1664000   0.97700202   -7.3217989    467.78107  0.023426536  0.023401762            5 
 1665000   0.99282582   -7.3343348    464.49622  0.023248059  0.023394233            7 
 1666000   0.98865086   -7.3573557    464.90458  0.023254531  0.023386563           11 
 1667000   0.98663993    -7.331065    465.11377  0.023251038  0.023378956            7 
 1668000   0.97224958   -7.3490312    465.90791  0.023276774  0.023371395           11 
 1669000   0.98095193   -7.3264253    466.41548  0.023288171  0.023363825            2 
 1670000   0.97916688   -7.3413758    464.94706  0.023200951  0.023356296            6 
 1671000   0.98843355   -7.2775572    468.97187  0.023387785  0.023348828            1 
 1672000   0.96309747   -7.3283773     467.6646  0.023308642  0.023341308            4 
 1673000   0.98634871   -7.3385414    465.36701  0.023180265  0.023333649            7 
 1674000   0.99302603    -7.380833    465.62926  0.023179473  0.023325921            6 
 1675000   0.97632596   -7.3223438    468.03386  0.023285267  0.023318258            8 
 1676000   0.97803187   -7.3489517    465.89168  0.023164861  0.023310669            4 
 1677000   0.97864925   -7.3200303    467.52947  0.023232433  0.023303139            5 
 1678000    1.0043526   -7.3344123    466.84826  0.023184757  0.023295591            5 
 1679000   0.95774683   -7.3854921    465.52554  0.023105298  0.023288003            3 
 1680000   0.99094986   -7.3384659    467.64718  0.023196785  0.023280395            7 
 1681000   0.97468533   -7.3348598    467.75507  0.023188334  0.023272849            4 
 1682000   0.97888739   -7.3351533     468.0024  0.023186802  0.023265265            6 
 1683000   0.96901485     -7.34294    467.36129   0.02314128  0.023257742            3 
 1684000   0.96296412   -7.3130237    469.04906  0.023211058  0.023250232            7 
 1685000   0.97199905   -7.3504422    468.15285   0.02315296  0.023242653            7 
 1686000    0.9967329   -7.3635133    467.77101  0.023120354  0.023235083            5 
 1687000   0.96287051   -7.3405703    468.92497  0.023163652  0.023227553            4 
 1688000   0.97689361   -7.3289758    469.07654  0.023157412  0.023220005            8 
 1689000   0.97774248   -7.3447733    469.53612  0.023166376  0.023212593            3 
 1690000   0.95974981   -7.3306482    469.27569  0.023139827  0.023205166            2 
 1691000   0.98841381   -7.3161209    471.22969  0.023222437  0.023197864            3 
 1692000   0.98646742    -7.260907    471.33069  0.023213687  0.023190428            3 
 1693000   0.98415555   -7.3483341    469.65097  0.023117295  0.023182964            7 
 1694000   0.97181311   -7.3546354    469.60247  0.023101263  0.023175426            6 
 1695000   0.97268642   -7.3280461    471.24478  0.023168376  0.023168033            4 
 1696000   0.97896187   -7.3220381    470.16296   0.02310156  0.023160491            4 
 1697000   0.99023909   -7.2950536    471.72691  0.023164747  0.023153053            4 
 1698000   0.97401427   -7.3271836    470.08352  0.023070451  0.023145637           13 
 1699000   0.96403892   -7.3590719    469.79626  0.023042783  0.023138223            4 
 1700000     0.981492   -7.3717171    470.72931  0.023074966  0.023130742            5 
 1701000   0.99764801    -7.360056    470.00147  0.023025743  0.023123244            3 
 1702000   0.98837685   -7.3773887    471.01069  0.023061628  0.023115805            4 
 1703000   0.98575445   -7.3593551    470.67208  0.023031517   0.02310843           11 
 1704000   0.98552997   -7.3726572    470.51114   0.02301013  0.023100999            8 
 1705000   0.99929188   -7.3390405    471.71506  0.023055477  0.023093654            4 
 1706000   0.97747193   -7.3858848    471.27496  0.023020465  0.023086195            7 
 1707000   0.98034495   -7.3579646    470.96073  0.022991639  0.023078754            4 
 1708000   0.99786957   -7.3680735    470.89546  0.022974993  0.023071228            4 
 1709000   0.97953259   -7.3833536    471.41559  0.022986912  0.023063784            9 
 1710000   0.98315463   -7.3754486    470.13722  0.022911171  0.023056269            4 
 1711000   0.95752794   -7.3222578    472.94699  0.023034628  0.023048751            5 
 1712000   0.97762341   -7.3572674    472.57224  0.023002932   0.02304128            3 
 1713000   0.97417184   -7.3330559     473.0008  0.023010352   0.02303389            5 
 1714000   0.96835321   -7.3841612    472.41383  0.022968389  0.023026393            3 
 1715000   0.96014162   -7.3581343    472.78446  0.022973006  0.023018924           10 
 1716000   0.97304624   -7.3493061    472.36726  0.022939358  0.023011497            7 
 1717000   0.96912778   -7.3447925    474.03026   0.02300671  0.023004078            2 
 1718000   0.99027041   -7.3421432    472.44578  0.022916462   0.02299669            4 
 1719000   0.98903389   -7.3643906    472.70744  0.022915815  0.022989168            5 
 1720000   0.96889471   -7.3718266    473.33792  0.022933039  0.022981721            9 
 1721000    1.0007355    -7.359498    473.93036    0.0229484   0.02297415            9 
 1722000   0.95778666     -7.36579    472.49462  0.022865593  0.022966676            5 
 1723000   0.97899219   -7.3396463    474.68753  0.022958383  0.022959236            3 
 1724000   0.99468915   -7.3772162    473.00694  0.022863831  0.022951799            4 
 1725000   0.96920915    -7.413176    472.81518  0.022841313  0.022944298            6 
 1726000    0.9761338   -7.3296494    473.94619  0.022882686  0.022936912            4 
 1727000   0.97727657   -7.3653165    475.10859  0.022925526  0.022929478            8 
 1728000   0.96311761   -7.3430567    474.71968  0.022893503  0.022922023           11 
 1729000   0.96128973   -7.3515015    474.25017  0.022857633  0.022914634            3 
 1730000   0.95810315   -7.3910314    473.21062  0.022794346   0.02290721            9 
 1731000   0.96846573   -7.3533586    475.20848  0.022877358  0.022899815            3 
 1732000   0.96950448   -7.3907367    473.54325  0.022784029  0.022892291            5 
 1733000   0.97517106   -7.3928369    473.99749  0.022792724  0.022884899            4 
 1734000   0.97715065   -7.3538183    475.88025  0.022870062  0.022877607            6 
 1735000   0.97918926   -7.3220878    475.75875  0.022851045  0.022870478            3 
 1736000   0.97112333   -7.3620324     476.4646  0.022871764  0.022863247            7 
 1737000   0.96598325   -7.3486113    477.52332   0.02290939  0.022856016            7 
 1738000   0.96957176   -7.3674806     476.7284  0.022858094  0.022848746            5 
 1739000   0.97446376   -7.3974814    476.30126  0.022824481  0.022841418            6 
 1740000   0.97009906   -7.3881736    476.32497  0.022812498  0.022834082            8 
 1741000   0.96305477   -7.3908319    475.45847   0.02275792  0.022826743            6 
 1742000   0.97595727   -7.3715963    476.52163  0.022795715  0.022819409            4 
 1743000    0.9827501     -7.38603    476.96309  0.022803743  0.022812039            2 
 1744000   0.94573886   -7.3689905    477.20238  0.022802101  0.022804733            5 
 1745000   0.96025955   -7.3342379    477.72521  0.022814002  0.022797476            7 
 1746000   0.98054625   -7.3206825    479.70953  0.022895644  0.022790319            4 
 1747000   0.98617598   -7.3510151    478.44779  0.022822352  0.022783226            7 
 1748000   0.98790878   -7.3549162    478.73177  0.022822834  0.022776059            3 
 1749000   0.98664936   -7.3369673    479.36527  0.022839969  0.022768913            2 
 1750000   0.97717055   -7.3638426     478.0995  0.022766643  0.022761827            5 
 1751000   0.96491408   -7.3484485     478.0699  0.022752232  0.022754768            2 
 1752000   0.98332608    -7.361823     478.7636  0.022772241  0.022747661            4 
 1753000   0.99399226   -7.3421854    479.17715   0.02277891  0.022740526            8 
 1754000   0.97653388   -7.3445139    480.80355  0.022843194    0.0227334            3 
 1755000   0.96985357   -7.3972997    477.88909  0.022691789  0.022726221            3 
 1756000   0.94979995   -7.3385967    480.62582  0.022808742  0.022719208            2 
 1757000   0.96487663   -7.3503826    479.86162  0.022759515   0.02271211            4 
 1758000   0.96304798   -7.3876292    479.73972   0.02274079  0.022705082            5 
 1759000   0.98011421   -7.3660308    480.63213  0.022770141  0.022697954            8 
 1760000   0.97956877   -7.3441746    481.21396  0.022784752  0.022690937            5 
 1761000   0.96318446   -7.3570053     481.3499  0.022778246  0.022683889            4 
 1762000   0.98092925   -7.3761152    479.32742  0.022669666  0.022676776            5 
 1763000   0.97258293   -7.3456311    480.69344  0.022721377  0.022669664            8 
 1764000    1.0074823   -7.4147875    479.96773  0.022674213  0.022662532            4 
 1765000   0.95410627   -7.4070948    479.26898  0.022628375   0.02265522           12 
 1766000   0.97949658   -7.3823366    479.66021  0.022634023  0.022647989            7 
 1767000   0.95782968   -7.3835792    480.27066  0.022650003  0.022640702            3 
 1768000   0.97458231   -7.4088476    478.56035  0.022556578  0.022633392            5 
 1769000   0.97679575   -7.3708934    480.85118  0.022651742  0.022626201            3 
 1770000   0.96285986   -7.3621751    483.25301  0.022752025  0.022619044            8 
 1771000   0.95631609   -7.3476175    482.08273  0.022684111  0.022611937            3 
 1772000   0.95411288   -7.3808727    481.13435  0.022626709  0.022604884            5 
 1773000   0.98814904   -7.4124371    480.71282  0.022594135  0.022597693            4 
 1774000   0.97924166   -7.4217521    480.78467  0.022584774  0.022590572            6 
 1775000   0.98134554   -7.3575886    482.17368  0.022637262  0.022583427           12 
 1776000   0.97126921   -7.3768281     482.5908  0.022644088  0.022576271            4 
 1777000   0.98505111   -7.4039257    480.86513  0.022550419  0.022569147            3 
 1778000   0.98017501   -7.3746681    481.54304  0.022569509  0.022562029            3 
 1779000   0.97220503   -7.3649582    482.81531  0.022616419  0.022554932            5 
 1780000   0.99982694   -7.4127095    483.18336  0.022620944  0.022547781            4 
 1781000   0.94903936    -7.362638    482.22749  0.022563517   0.02254061            4 
 1782000   0.97017315   -7.4100167    481.79441  0.022530603  0.022533427            7 
 1783000   0.96966926   -7.4020252    483.56778   0.02260085  0.022526308            6 
 1784000   0.98378364   -7.4255041    481.90548  0.022510532  0.022519201            4 
 1785000   0.97940599   -7.3903091    483.11902  0.022554576  0.022512109            6 
 1786000   0.96720581   -7.3764594    482.27118  0.022502388   0.02250507            7 
 1787000   0.97658481   -7.3697601    484.38102  0.022588184  0.022498019            8 
 1788000   0.96472225   -7.3635606     484.7833    0.0225943  0.022490982            2 
 1789000   0.97603488   -7.3196341    483.03171   0.02250008     0.022484            7 
 1790000   0.95497313    -7.378426    483.46546  0.022507703  0.022476946            4 
 1791000   0.96796038   -7.3673084    484.79288  0.022556899  0.022469919            5 
 1792000   0.96044142   -7.3692305    483.97077  0.022506081  0.022462798            6 
 1793000   0.97190873   -7.3700898    484.28079  0.022507938  0.022455689            3 
 1794000    1.0037886   -7.4224989    483.76769  0.022471558  0.022448541            5 
 1795000   0.95683724    -7.436792    482.29429  0.022390635  0.022441378            3 
 1796000   0.96742941   -7.4204964    484.06081  0.022460134  0.022434136            3 
 1797000   0.95684626    -7.415945    484.02831  0.022446128  0.022426954            5 
 1798000   0.94854244   -7.3934202    484.77035  0.022468036  0.022419716            7 
 1799000   0.97707361   -7.4069823    483.80878  0.022411005  0.022412473            4 
 1800000   0.97340258    -7.371064    484.89927   0.02244904  0.022405287            3 
 1801000   0.96143581   -7.4215619    484.77015  0.022430601  0.022398099            3 
 1802000   0.97924775   -7.4132308    484.74192  0.022416848  0.022390919           14 
 1803000   0.97749571    -7.407878    483.58918  0.022351136    0.0223838           12 
 1804000   0.95397424   -7.3894361    485.49832  0.022426936  0.022376736            7 
 1805000   0.95709369   -7.3939498    484.65126  0.022375404  0.022369703            3 
 1806000    0.9457221    -7.393034    485.02756  0.022380378  0.022362552            4 
 1807000   0.96331872   -7.4131364    486.20125   0.02242212  0.022355415            4 
 1808000   0.96039281   -7.3774671     485.3058  0.022368446   0.02234828            4 
 1809000   0.95653955   -7.3821104    485.52725  0.022366282  0.022341125            5 
 1810000   0.95770448   -7.4221311    485.97426  0.022374506  0.022333976            3 
 1811000   0.95784473   -7.4078795    485.25477  0.022329043  0.022326806            8 
 1812000   0.95817831   -7.4277375    485.21549  0.022314914  0.022319661            9 
 1813000   0.94803648   -7.3959743    486.18267  0.022347062  0.022312443            6 
 1814000   0.96489901   -7.4240656    485.56257  0.022306255  0.022305271           10 
 1815000   0.95466361    -7.412901     485.8988  0.022309403  0.022298058            4 
 1816000   0.94086452   -7.4239554    486.25138  0.022313297  0.022290834            3 
 1817000   0.96372424   -7.4508184    485.02672   0.02224485  0.022283634           10 
 1818000   0.95228435   -7.4547256    485.69637   0.02226331  0.022276373            4 
 1819000   0.96593566   -7.4232488    485.98974   0.02226451  0.022269099            4 
 1820000   0.97728945   -7.4114043    486.53286  0.022277145  0.022261803           16 
 1821000   0.96158812    -7.447125    487.00103  0.022286337  0.022254551           13 
 1822000   0.97142921   -7.4628868    485.44508   0.02220294  0.022247203           19 
 1823000   0.97901149   -7.4294232    487.25605  0.022273544  0.022239824            4 
 1824000   0.97464605   -7.3982863    487.18816  0.022258231  0.022232624            6 
 1825000   0.95968821   -7.4023774    486.22383  0.022202001  0.022225393            8 
 1826000   0.98652535   -7.4135424    487.03358  0.022226797  0.022218193            4 
 1827000   0.94923517   -7.4069108    486.72564  0.022200586   0.02221099            3 
 1828000   0.94647868   -7.3903612    488.07599      0.02225  0.022203829            3 
 1829000   0.93374786   -7.4041542    487.01844   0.02218965  0.022196643            5 
 1830000   0.96819479   -7.4158215    488.31178   0.02223642  0.022189415           14 
 1831000   0.96963221   -7.3907068    489.36803  0.022272348   0.02218227            3 
 1832000   0.95651558   -7.4356866    487.10749  0.022157364  0.022175111            6 
 1833000   0.96404018   -7.4406862    488.40588  0.022204305   0.02216796            4 
 1834000   0.96625371   -7.4217174    489.89007  0.022259636  0.022160736            6 
 1835000    0.9582582    -7.419304    488.63572  0.022190541  0.022153703            3 
 1836000   0.95510496   -7.3913684    489.91605  0.022236567  0.022146582            3 
 1837000     0.934147   -7.4281959    488.78435  0.022173124   0.02213934            5 
 1838000   0.94973066    -7.361158     491.1964  0.022270421  0.022132131            6 
 1839000   0.97381997    -7.459809    488.42811  0.022132867  0.022124953            5 
 1840000    0.9619226   -7.4096477     488.7601  0.022135874  0.022117643            6 
 1841000   0.96644986   -7.4400176    488.81478  0.022126325   0.02211037            7 
 1842000   0.96705418   -7.4142142    488.71514  0.022109805  0.022103156            9 
 1843000   0.95852118   -7.4047938    488.97374  0.022109502  0.022095913           10 
 1844000   0.96140318   -7.4225953    489.15655  0.022105773  0.022088676            5 
 1845000   0.97898742   -7.4465314    488.84443  0.022079694  0.022081386            4 
 1846000   0.94020944   -7.4516734    488.72113  0.022062167  0.022074109            8 
 1847000   0.94417679   -7.4288703    490.52695  0.022131698  0.022066882           11 
 1848000    0.9533496   -7.4026621    490.09115   0.02210007  0.022059737            6 
 1849000   0.96570409   -7.3777403    489.88634  0.022078887  0.022052611            3 
 1850000   0.96657071   -7.4141818    490.26512  0.022084014  0.022045558            3 
 1851000   0.91213065    -7.383399    489.98034  0.022059263  0.022038435            3 
 1852000   0.97054852   -7.3847673    491.26966  0.022105366  0.022031405           11 
 1853000   0.96088048   -7.3940586    492.10587  0.022131043   0.02202429            6 
 1854000   0.94616098   -7.4188793    490.72724  0.022057139  0.022017147            3 
 1855000   0.96720915    -7.421054    490.78622  0.022047899  0.022010016            3 
 1856000   0.96298975   -7.4257714    489.21733  0.021965577  0.022002834            7 
 1857000   0.95809202   -7.4588374    490.08463  0.021992669  0.021995597            8 
 1858000    0.9456281   -7.4515565    491.07859  0.022025412  0.021988391            5 
 1859000   0.94570046   -7.4116745    491.31932  0.022024355  0.021981292            8 
 1860000   0.94686821   -7.4463296    491.68836  0.022029048  0.021974084            2 
 1861000   0.93730585   -7.4618653    491.08855  0.021990352  0.021966855            3 
 1862000   0.93665168   -7.3948009    491.53556  0.021998548  0.021959667            4 
 1863000   0.94868009   -7.4323281    491.82376  0.021999631  0.021952534            2 
 1864000   0.95481572   -7.4206823    492.58096  0.022021681  0.021945479           14 
 1865000   0.94390302   -7.4471529    490.26937  0.021906585  0.021938369            2 
 1866000    0.9436239   -7.4370918    492.40157  0.021990066  0.021931088            7 
 1867000   0.94976127   -7.4700779    491.62891    0.0219438  0.021923853           15 
 1868000   0.96070602    -7.434507    492.13789   0.02195476  0.021916784            5 
 1869000   0.95851594   -7.4486733    491.61874  0.021919866  0.021909669            7 
 1870000   0.93545276   -7.4334625    492.17563   0.02193296  0.021902555            6 
 1871000   0.94000166   -7.4511437    491.20666   0.02187808  0.021895505            8 
 1872000   0.93855568   -7.4540125    493.34231  0.021961463  0.021888356            4 
 1873000   0.95134784   -7.4351378    493.01254  0.021935066  0.021881221            3 
 1874000   0.93682701   -7.4682523    492.10567  0.021883034  0.021874145            5 
 1875000   0.95341163   -7.4166161    493.61005  0.021938225  0.021867104            4 
 1876000   0.94223262   -7.4147361    492.85326  0.021892913  0.021860046           11 
 1877000   0.97314085   -7.4309157    494.49202  0.021954005  0.021853031            6 
 1878000   0.94927251   -7.4422358    493.13985  0.021882315  0.021845999            4 
 1879000   0.95881281   -7.4380422     494.4516  0.021928845  0.021838973            5 
 1880000   0.97332594    -7.440924    494.40698  0.021915203  0.021831879            5 
 1881000   0.95148682   -7.4673588     493.0609  0.021843917   0.02182482            7 
 1882000   0.94988708   -7.4142384    495.24837   0.02192917  0.021817827            8 
 1883000   0.95315608    -7.450856    494.63426  0.021890346  0.021810815            4 
 1884000   0.95971445   -7.4010837    495.30708  0.021908487  0.021803763           12 
 1885000   0.96506612   -7.3950903     495.2483  0.021894266  0.021796707            5 
 1886000   0.93392494   -7.4312569    494.32346  0.021841793  0.021789668            5 
 1887000   0.94064808   -7.4375839    495.34129  0.021875167  0.021782639            6 
 1888000    0.9516214   -7.4128629    495.51705  0.021871339  0.021775549            6 
 1889000   0.94946752   -7.4374045    495.27336   0.02184901  0.021768542            5 
 1890000   0.95401529   -7.4556102     493.8857  0.021776265  0.021761493            6 
 1891000   0.94520757   -7.4355952    495.12701  0.021819452  0.021754425            3 
 1892000   0.94763181   -7.4335316    493.11928  0.021719489  0.021747289            7 
 1893000   0.94531148   -7.4600392    493.80796  0.021738332  0.021740164            4 
 1894000   0.93466551   -7.4432393    495.11529  0.021784376  0.021733046            7 
 1895000   0.95809361   -7.4463194    495.07373  0.021771052  0.021725954            4 
 1896000   0.96487721   -7.4240005    495.46561  0.021776794   0.02171894            3 
 1897000   0.94370157   -7.4338664    496.05444  0.021791181  0.021711867            2 
 1898000   0.93975419   -7.4317192    496.90802  0.021817177  0.021704805            7 
 1899000   0.95183815   -7.4501558    496.68892  0.021796073  0.021697765            5 
 1900000   0.92735764   -7.4650963    495.72626   0.02174238  0.021690669            5 
 1901000   0.94149037   -7.4459077    496.72982  0.021774935   0.02168363            3 
 1902000   0.94170882   -7.4385869     496.6773  0.021761186   0.02167663            4 
 1903000    0.9496037    -7.439476    498.35345   0.02182315  0.021669635            3 
 1904000   0.94766192   -7.4166734    497.29241  0.021765249  0.021662607            4 
 1905000   0.93604681     -7.45826    494.47609  0.021630625  0.021655592            3 
 1906000   0.95097227    -7.464557    496.81972  0.021721744  0.021648555           10 
 1907000   0.95462201    -7.457471    496.11143  0.021679402   0.02164148            5 
 1908000   0.94142084   -7.4553657    496.81701  0.021698856  0.021634354            8 
 1909000   0.94363619   -7.4706333    496.36467  0.021667744  0.021627332            8 
 1910000   0.93996452   -7.4588322     498.0777  0.021731139  0.021620268           17 
 1911000   0.95488739    -7.498503    495.49069  0.021606955  0.021613127            9 
 1912000   0.93269313   -7.4855245    495.78268   0.02160838  0.021605926            4 
 1913000   0.93560799    -7.461795     496.9995  0.021650091  0.021598777            3 
 1914000   0.95431157   -7.4844544    496.89465  0.021634215  0.021591643            6 
 1915000   0.94591397   -7.4561179    498.18966  0.021679272  0.021584536            5 
 1916000   0.94865472   -7.4635659    496.56232  0.021597178  0.021577401            5 
 1917000   0.94383943   -7.4723458    495.85028  0.021554959  0.021570302            6 
 1918000   0.93728845   -7.4667885    498.70217   0.02166763  0.021563213           17 
 1919000   0.91611816   -7.4509201    498.74603  0.021658243  0.021556205            7 
 1920000   0.93926683   -7.4416426        499.1  0.021662326  0.021549248            6 
 1921000   0.93772873   -7.4556158    498.88396  0.021641678  0.021542273            6 
 1922000   0.96372307    -7.436817    498.64292  0.021619967  0.021535269            9 
 1923000    0.9540278   -7.4589984    498.80042   0.02161555   0.02152825           12 
 1924000   0.93384629   -7.4880697    497.12022  0.021531541  0.021521153            5 
 1925000   0.93037824    -7.458261    498.23192  0.021568481  0.021514046            4 
 1926000   0.93565469   -7.4746144    497.48217  0.021524843  0.021506935            6 
 1927000   0.94361397   -7.4639227    498.63811  0.021563661  0.021499828            3 
 1928000   0.95076713   -7.4270424    499.12451  0.021573501  0.021492813            6 
 1929000   0.94662653   -7.4456472    498.24147  0.021524169  0.021485778            6 
 1930000   0.94246647   -7.4635063    497.75737  0.021492115  0.021478697            5 
 1931000   0.94254543   -7.4835064    498.24357  0.021501967   0.02147151            5 
 1932000   0.92959725    -7.471023    498.85124  0.021517048  0.021464262            9 
 1933000   0.95288732    -7.448906    499.18518  0.021520313  0.021457157            5 
 1934000   0.95641066   -7.4593364     499.7978  0.021535583  0.021450075            3 
 1935000   0.93983088   -7.4320304    498.45098   0.02146645  0.021443013            4 
 1936000    0.9243481   -7.4305916    499.50546  0.021500751  0.021435907            3 
 1937000   0.95489355   -7.4462205    498.92794  0.021464805  0.021428863            5 
 1938000   0.95863066   -7.4617779     498.1785  0.021421504   0.02142175            8 
 1939000   0.96604877    -7.471944    499.59294  0.021471245  0.021414593            5 
 1940000   0.95478118   -7.4584625    500.65429  0.021505768  0.021407561            3 
 1941000    0.9503261   -7.4631456    500.23398  0.021476643  0.021400513            5 
 1942000   0.94209992   -7.4612003    499.78331  0.021446246  0.021393459            5 
 1943000   0.93371452   -7.4645084    499.93767  0.021441829  0.021386398            3 
 1944000   0.93580349   -7.4720489    501.54986  0.021499908  0.021379343            9 
 1945000   0.93802816   -7.4611514    501.83443  0.021501047  0.021372267            4 
 1946000   0.93568387   -7.4841764    500.09961  0.021415708  0.021365223            3 
 1947000   0.95868376   -7.4675259    500.15199   0.02140695  0.021358163            5 
 1948000   0.94787887   -7.4323094    500.57759  0.021414168  0.021351137            3 
 1949000   0.92365939   -7.4880344    499.63533  0.021362893  0.021344155            5 
 1950000   0.93782763   -7.4471824    501.38762  0.021426821  0.021337175            4 
 1951000   0.94181549   -7.4960159    501.34527   0.02141403   0.02133014            7 
 1952000   0.93485083   -7.4752225    499.71158  0.021333316  0.021323049            2 
 1953000   0.96240384   -7.4627844    500.55069  0.021358196  0.021315932            6 
 1954000   0.93420122   -7.4598271     502.5776  0.021433709  0.021308836            7 
 1955000   0.93321957   -7.5062472    500.30686  0.021325953  0.021301776            5 
 1956000   0.93103453   -7.4593826    501.68522  0.021373774  0.021294729            3 
 1957000   0.91743803   -7.5390796    500.84417  0.021327038   0.02128761            4 
 1958000   0.93616325   -7.4562036    502.29072  0.021377712  0.021280578            9 
 1959000   0.92260045   -7.4716794    502.11446  0.021359302  0.021273566           11 
 1960000   0.94342161   -7.4846851     500.7949    0.0212923  0.021266525            9 
 1961000   0.93618567   -7.4876213    500.98495  0.021289519   0.02125947            6 
 1962000   0.94148151   -7.4872523    500.62329  0.021263307   0.02125248            2 
 1963000   0.93557511   -7.4700968    502.45744  0.021330338  0.021245545            6 
 1964000   0.95002688   -7.4947605    503.07581  0.021345715   0.02123859            5 
 1965000   0.92825575   -7.4400521    504.03849  0.021375678  0.021231576            5 
 1966000   0.95415957    -7.460967     503.6919  0.021350114  0.021224659            5 
 1967000   0.92891836   -7.4980155    502.89067  0.021305316  0.021217681            5 
 1968000   0.96946644   -7.4699375    502.43874  0.021275353  0.021210653            4 
 1969000    0.9290111   -7.4794689    502.16456  0.021252944  0.021203569            5 
 1970000   0.94151865   -7.4723833    501.96214  0.021233593  0.021196519            4 
 1971000   0.94911773   -7.5026374    501.93541   0.02122169  0.021189493            5 
 1972000   0.93173604   -7.4876268    503.17008  0.021263103  0.021182491            5 
 1973000   0.93427813    -7.441229    503.05909  0.021247638  0.021175525            6 
 1974000   0.90850164   -7.4455502      502.086  0.021195795  0.021168567            9 
 1975000   0.92876592   -7.4352494    503.69055  0.021252766  0.021161573            5 
 1976000   0.93308872   -7.4668919    503.90234  0.021250942    0.0211546            8 
 1977000   0.95305704   -7.4594644    503.54639  0.021225189  0.021147594            8 
 1978000   0.96026938   -7.4826776    502.85735  0.021185429  0.021140534            5 
 1979000   0.95608159   -7.4847314    503.14981  0.021187039  0.021133387            3 
 1980000   0.92758898    -7.538723    503.06247  0.021172663  0.021126252            6 
 1981000   0.93370039   -7.4667171    502.42231  0.021135046  0.021119125            4 
 1982000   0.93476791   -7.4878409    503.66177  0.021176496  0.021111999           12 
 1983000   0.93980779   -7.4949347    503.66737  0.021166052  0.021104824            5 
 1984000   0.90959896    -7.497597    501.94602  0.021083082  0.021097683            9 
 1985000   0.92556022   -7.5009063    503.74552  0.021148007  0.021090569            3 
 1986000   0.95278277   -7.5288735    501.71688  0.021052236  0.021083406            6 
 1987000   0.93227454   -7.5162647    503.59249  0.021120302  0.021076208            4 
 1988000   0.91333232   -7.4804694    504.64193  0.021153669   0.02106905            5 
 1989000   0.92594037   -7.4768292    502.80693  0.021066153   0.02106196           12 
 1990000   0.94208041     -7.50381    504.27042  0.021116852   0.02105484            4 
 1991000   0.93820036   -7.4649748    506.01899  0.021179432  0.021047745            5 
 1992000   0.94274394   -7.5185825    503.99557  0.021084152  0.021040733            6 
 1993000   0.93999204   -7.4671098    505.90483  0.021153405  0.021033761           10 
 1994000   0.92602732   -7.4858068    505.79939   0.02113839  0.021026874            8 
 1995000   0.94442404   -7.4278158    506.85728  0.021171983  0.021019984            5 
 1996000   0.93249966   -7.4725107    506.54033  0.021148143  0.021013091            8 
 1997000   0.95862124    -7.451925    507.30096  0.021169294  0.021006211            6 
 1998000   0.93234154   -7.4449701    507.14381  0.021152144  0.020999381            3 
 1999000   0.94472043   -7.5061638    505.49542  0.021072846   0.02099246            4 
 2000000   0.94059747   -7.5034538    506.51798  0.021104916   0.02098553            3 
 2001000   0.91649691   -7.5350561     504.7733   0.02102171  0.020978599            6 
 2002000   0.93745316   -7.4455656    505.62426  0.021046631  0.020971679            4 
 2003000   0.94189911   -7.5091674    505.81265  0.021043961  0.020964825            6 
 2004000   0.93628743    -7.515907    505.49804  0.021020378  0.020957808            6 
 2005000   0.91828096   -7.4557255    507.43997  0.021090606  0.020950898            7 
 2006000   0.93167661   -7.4964309    507.36314    0.0210769  0.020943983            4 
 2007000   0.91896749   -7.4723749    508.34813  0.021107296   0.02093709           12 
 2008000   0.93804284   -7.4847876    506.07647   0.02100251  0.020930168           10 
 2009000    0.9346185   -7.4859109    507.85163  0.021065689  0.020923282            9 
 2010000   0.94449187   -7.5321419    506.50201  0.020999254  0.020916386            5 
 2011000    0.9150394   -7.5278994    506.92073  0.021006163  0.020909517            8 
 2012000   0.92805667   -7.4696066    507.24109  0.021008991  0.020902593            5 
 2013000    0.9110186   -7.4836556    508.15317  0.021036313  0.020895785            6 
 2014000   0.92043729    -7.515866    505.83036  0.020929757  0.020888914            4 
 2015000   0.93152604   -7.5228432    507.45935  0.020986739  0.020881906            6 
 2016000   0.92943271   -7.5249073    505.55256   0.02089751   0.02087489            7 
 2017000   0.90462559   -7.5131342    506.83435  0.020940107  0.020867957            6 
 2018000   0.92288202    -7.528886    506.67025  0.020922954  0.020860977            4 
 2019000   0.92957752   -7.4963939    508.36657  0.020982605  0.020854018            4 
 2020000   0.93460337   -7.5332224    508.69559  0.020985792  0.020847092           11 
 2021000   0.93054942   -7.5030882    508.19015  0.020954567  0.020840171            8 
 2022000   0.91705604   -7.5024822    509.54387  0.020999995  0.020833324           13 
 2023000   0.94117937   -7.4790695     509.9279  0.021005433  0.020826462            9 
 2024000   0.94401239    -7.474632    508.31886  0.020928807  0.020819592            4 
 2025000   0.92367112   -7.5333564     508.8022  0.020938362  0.020812694            3 
 2026000    0.9401973   -7.4909213    509.61967  0.020961651  0.020805754            4 
 2027000   0.93385357    -7.469489    508.54241  0.020907022   0.02079883           10 
 2028000   0.92327272   -7.5075634    508.85615  0.020909605  0.020791942            5 
 2029000   0.92854338   -7.4967999    510.02226  0.020947193  0.020785103           21 
 2030000   0.92549771   -7.5347013     509.0217    0.0208958  0.020778203            6 
 2031000   0.92038695   -7.5386058    508.82314  0.020877365  0.020771249            6 
 2032000   0.92702919   -7.5239092    507.81485   0.02082574  0.020764313            6 
 2033000   0.91995846   -7.5058127    509.47649  0.020883607   0.02075745            4 
 2034000   0.92876945   -7.5102903    508.96486  0.020852379  0.020750577            4 
 2035000   0.91477995    -7.504659    509.99137  0.020884167  0.020743719            5 
 2036000   0.95085125   -7.5242375    509.12587  0.020838485  0.020736852            7 
 2037000   0.92301926   -7.4837763    510.75245  0.020894798  0.020730049            6 
 2038000   0.92124786   -7.4843297    511.35402  0.020909144  0.020723187           11 
 2039000   0.89843434   -7.5263731    510.36835  0.020858605  0.020716297            9 
 2040000   0.91551616   -7.5503452    508.92265  0.020789324  0.020709347            6 
 2041000   0.91654035   -7.5561438    509.32649  0.020795627  0.020702428            9 
 2042000   0.92735251   -7.5265935    511.24711  0.020863823   0.02069552            9 
 2043000   0.91207413   -7.5255442    510.20405  0.020811064  0.020688643            5 
 2044000   0.91962212   -7.5411836    509.48687  0.020771644  0.020681745            8 
 2045000   0.93438185   -7.5614173    509.32197  0.020754767  0.020674808            7 
 2046000   0.92873965   -7.5481146     510.0999  0.020776307  0.020667834           10 
 2047000   0.91764988   -7.5258346    510.40323  0.020778507  0.020660897            7 
 2048000   0.93633071   -7.5349845    510.14458  0.020757836  0.020653968            4 
 2049000   0.93477258    -7.514224    511.96321  0.020821669  0.020647054            4 
 2050000   0.90169353   -7.5520796    509.57392  0.020714387  0.020640107           10 
 2051000   0.91962494   -7.5644954    510.97841  0.020761353  0.020633149            7 
 2052000   0.93190428     -7.51313    510.90584  0.020748288  0.020626285            5 
 2053000   0.93698795   -7.5390496    511.94572  0.020780391  0.020619428            9 
 2054000   0.93843055   -7.5264159    511.93656  0.020769903  0.020612543            4 
 2055000   0.92513045   -7.5395733    510.58618  0.020705036  0.020605661           13 
 2056000   0.93484372   -7.5193746    512.74783  0.020782581  0.020598775            6 
 2057000   0.92068672   -7.4987347    511.64097  0.020727636  0.020591942            5 
 2058000   0.89590015   -7.4821674    512.07062  0.020734962  0.020585145            5 
 2059000    0.9324536   -7.5132828    510.54833   0.02066328  0.020578255            6 
 2060000   0.92208904   -7.5323566     511.6986  0.020699782  0.020571423           10 
 2061000   0.91307355   -7.5383418    510.61847  0.020646065  0.020564438            6 
 2062000    0.9285266   -7.5017614    513.02768  0.020733417  0.020557496            7 
 2063000   0.93527757   -7.5166155    511.71422  0.020670311  0.020550579            9 
 2064000   0.92773018   -7.4988675    513.44317  0.020730102  0.020543676            6 
 2065000   0.92857824   -7.5203085    512.05176  0.020663913  0.020536804            9 
 2066000   0.92212183   -7.5135079    513.57974  0.020715543  0.020529996            7 
 2067000   0.94428682   -7.5291386    512.09013  0.020645466  0.020523056           12 
 2068000   0.89956214   -7.5106335    512.31587  0.020644579  0.020516115            6 
 2069000   0.94748859   -7.5317234    511.32713  0.020594777  0.020509133            6 
 2070000   0.91684278   -7.5203959    511.92205  0.020608778  0.020502178           11 
 2071000   0.92840066   -7.5525201    510.18482  0.020528924  0.020495097            6 
 2072000   0.91250278   -7.4999672    512.38029  0.020607315  0.020488126            4 
 2073000   0.92648367   -7.4874989    512.41878  0.020598922  0.020481224            5 
 2074000   0.91705217   -7.4854232    511.78364   0.02056347  0.020474235            8 
 2075000   0.91397636   -7.5227306    510.62788  0.020507144  0.020467255            8 
 2076000   0.95368269   -7.5155282    511.59518  0.020536094  0.020460291            5 
 2077000   0.92756579   -7.4691188    513.23725   0.02059209  0.020453366            6 
 2078000   0.92674724   -7.5208754    512.37087  0.020547436  0.020446513            7 
 2079000   0.93262509   -7.5571323    512.56427  0.020545305  0.020439616            5 
 2080000   0.93135525   -7.5418017    512.43996  0.020530447  0.020432658           10 
 2081000   0.90864272   -7.5325386     512.4267   0.02052005  0.020425718            5 
 2082000   0.89255523   -7.5004722    513.41089  0.020549587  0.020418794           11 
 2083000   0.92352733   -7.5492318     512.5146  0.020503865  0.020411846            3 
 2084000   0.91432948   -7.5355344     514.1718  0.020560293  0.020404917           10 
 2085000   0.91157372   -7.5061011    514.35036  0.020557568  0.020398027            6 
 2086000   0.91566157   -7.4954316    513.42853  0.020510887  0.020391108            4 
 2087000   0.91350086   -7.5084714     514.6306  0.020549058  0.020384203            9 
 2088000   0.91727848   -7.5305069    512.76892  0.020464915  0.020377307            4 
 2089000   0.90341851   -7.4953698    512.45109   0.02044244  0.020370406            6 
 2090000   0.90126392   -7.4912501    513.86841  0.020489171  0.020363518            6 
 2091000   0.91359178    -7.514761    514.26024  0.020494988  0.020356705            8 
 2092000   0.92443558   -7.5297384     515.0925  0.020518344  0.020349868            8 
 2093000   0.90128049   -7.5125177    514.83966  0.020498473  0.020342927            7 
 2094000   0.94352492   -7.4768724    515.62104   0.02051978  0.020335986            6 
 2095000   0.93633043   -7.5472631    513.35448  0.020419828  0.020329024            6 
 2096000   0.91778476    -7.509038    514.30191  0.020447754  0.020322059            8 
 2097000   0.92018766   -7.4996735    513.86055  0.020420464  0.020315106            5 
 2098000   0.92275162    -7.507064    514.13882  0.020421784  0.020308203            4 
 2099000     0.920998   -7.5439175    514.05909  0.020408889  0.020301273            6 
 2100000   0.89833259   -7.5449357    513.56085  0.020379399   0.02029432            6 
 2101000   0.91048573   -7.5543733    515.57154   0.02044945  0.020287389            7 
 2102000   0.92302131   -7.5820008    512.93578  0.020335228  0.020280433            3 
 2103000   0.91441414    -7.562287    512.72424  0.020317175  0.020273452            5 
 2104000    0.9005749   -7.5423824    514.02544  0.020359056  0.020266426            5 
 2105000   0.92737571   -7.5595046    514.97595  0.020387013  0.020259455            7 
 2106000   0.92255783   -7.4892794    515.89023   0.02041351  0.020252528            3 
 2107000   0.91840591   -7.5113626    515.32142  0.020381325  0.020245687            3 
 2108000   0.91584607   -7.5480188    515.52056  0.020379529  0.020238858            5 
 2109000   0.92871603   -7.5246069    515.13615  0.020354676  0.020231965            5 
 2110000   0.91355518    -7.525427    515.56295  0.020361886  0.020225068            6 
 2111000   0.92512523    -7.569678    514.03658  0.020291986  0.020218185           11 
 2112000   0.90408957   -7.5247722    515.95864  0.020358217  0.020211348           11 
 2113000   0.90799547   -7.5984699    513.08575   0.02023528  0.020204359            9 
 2114000   0.91536918   -7.5622368    514.86023  0.020295657  0.020197355            7 
 2115000   0.89613099    -7.568775    515.74018  0.020320732  0.020190409           10 
 2116000   0.89559725   -7.5468443    516.03483  0.020322733  0.020183496            8 
 2117000   0.90922247   -7.5722779    514.22417  0.020241858  0.020176604           12 
 2118000   0.90165415   -7.5172926    514.28541  0.020234711   0.02016969            5 
 2119000   0.90662335   -7.5372111    515.86023  0.020287094  0.020162754            6 
 2120000   0.90381234   -7.5738988    514.17625  0.020211331  0.020155801            7 
 2121000   0.92614773   -7.5516815    515.82856   0.02026672   0.02014882            2 
 2122000   0.90270973   -7.5645887    513.64558  0.020171441  0.020141893            6 
 2123000   0.93151521   -7.5136887    516.23567  0.020263608  0.020134915            7 
 2124000   0.91587388   -7.5188991    515.74769  0.020234922   0.02012796           12 
 2125000   0.92329432   -7.5352363    516.56657  0.020257512  0.020121075           11 
 2126000   0.92521525   -7.5567434    516.08001  0.020228912  0.020114139            9 
 2127000   0.91339053   -7.5873332     515.5915  0.020200262   0.02010718            4 
 2128000   0.91108653   -7.5829693    514.52029  0.020148821  0.020100123            7 
 2129000   0.92479798   -7.5810165    516.42227  0.020213804  0.020093085            5 
 2130000    0.9085227    -7.601788    514.80085  0.020140878  0.020086032            8 
 2131000   0.90569818   -7.5858387    515.51093  0.020159195  0.020079046           11 
 2132000   0.92590827   -7.5977776    515.59916  0.020153188  0.020072065            8 
 2133000   0.92460638     -7.56178    516.72038  0.020187544  0.020065082            5 
 2134000   0.88934241   -7.6331962    515.78574  0.020141586  0.020058061            5 
 2135000    0.9281691   -7.5925034    515.84922   0.02013463   0.02005103            8 
 2136000   0.90532429   -7.5965597     515.2123  0.020100355   0.02004402           10 
 2137000   0.91069258   -7.5432224     516.8282  0.020153962  0.020037058           11 
 2138000    0.9048843   -7.5802445    515.68257  0.020099882  0.020030069            4 
 2139000    0.9072493   -7.5433015    516.94893  0.020139821  0.020023084            5 
 2140000    0.9176957   -7.6026741    516.62144  0.020117657  0.020016087            5 
 2141000   0.91241142   -7.5889757     515.4339  0.020062039  0.020009037            3 
 2142000   0.89440583   -7.5747563    516.74844  0.020103814   0.02000203            5 
 2143000   0.91074836   -7.5878372    515.95683   0.02006365  0.019994987            9 
 2144000   0.91373448   -7.5389972    517.70817  0.020122364  0.019987996            7 
 2145000   0.89824065   -7.5815449    517.03029  0.020086647  0.019981008           11 
 2146000    0.9147431   -7.5425918    516.51178  0.020057152  0.019973997            3 
 2147000   0.91893238   -7.5723374     517.4798  0.020085383   0.01996713            9 
 2148000   0.90250843   -7.5917484    517.78072  0.020087706  0.019960179            9 
 2149000   0.91138498   -7.5754648    517.16142  0.020054344  0.019953204            9 
 2150000   0.91775243   -7.5909732    516.26529  0.020010283  0.019946272            3 
 2151000   0.89579351   -7.5637408     516.6586  0.020016217  0.019939317            4 
 2152000    0.9040164   -7.5790417    515.22271  0.019951313  0.019932373            8 
 2153000   0.89006212    -7.588997    515.90579  0.019968485  0.019925415            3 
 2154000   0.93002598    -7.571764    516.83835  0.019995294  0.019918437            5 
 2155000   0.90376478   -7.5845103    516.80465  0.019984712   0.01991146            6 
 2156000   0.91485445   -7.5733958    518.03229  0.020022893  0.019904465            7 
 2157000   0.93476604   -7.5832358    518.37622  0.020026898  0.019897565           11 
 2158000   0.91951836   -7.5709872    519.70639  0.020068983  0.019890643           11 
 2159000   0.88571285   -7.5890894    519.01893  0.020033153  0.019883758            9 
 2160000   0.91106627    -7.598077    517.85698   0.01997905  0.019876853            6 
 2161000   0.91726673   -7.6039872     517.9382  0.019972937  0.019869899            6 
 2162000   0.91483728   -7.6060794    516.48969  0.019907867  0.019862933            8 
 2163000   0.89976069   -7.6163687    518.73434  0.019985142  0.019856025            7 
 2164000   0.89901309   -7.6026013    518.34779  0.019961021  0.019849184            5 
 2165000    0.8866851   -7.5700438    519.88372  0.020010921  0.019842303            8 
 2166000   0.89324753   -7.5745517    518.67753  0.019955276  0.019835475            8 
 2167000   0.90518466   -7.6168329    519.33549   0.01997137  0.019828663            6 
 2168000   0.90555268    -7.579554    519.75094  0.019978126  0.019821883            7 
 2169000   0.90548643    -7.599784    520.21944  0.019986916  0.019815086            5 
 2170000   0.90433328   -7.5616755    519.93244  0.019966684  0.019808273            6 
 2171000   0.90623033   -7.6096979    520.01656  0.019960715  0.019801509            5 
 2172000   0.89757434   -7.5688123    520.72869  0.019978848  0.019794706            8 
 2173000   0.91702297   -7.5404525    520.49664  0.019960755  0.019787956           16 
 2174000    0.9294024   -7.5411305    520.60363  0.019955674  0.019781251           11 
 2175000   0.91101485   -7.5550248    520.89672  0.019957729  0.019774536           12 
 2176000   0.90735961   -7.5746355    520.03038  0.019915379  0.019767853            4 
 2177000   0.89044662     -7.56355    521.11723  0.019947835  0.019761067           15 
 2178000   0.91944729   -7.5662225    519.94523  0.019893833  0.019754336           21 
 2179000   0.90745045   -7.6221425    517.78666  0.019802152   0.01974752           30 
 2180000   0.89464749   -7.6183481    521.55397  0.019937078  0.019740714           15 
 2181000   0.89338644   -7.5862244    520.88553  0.019902397  0.019733919            5 
 2182000   0.92194195   -7.6068137    519.17579  0.019827978  0.019727101            7 
 2183000   0.91085939   -7.6305465    518.83808  0.019806004  0.019720268           10 
 2184000   0.87783609   -7.5812294    522.24728  0.019927018  0.019713429           10 
 2185000   0.89687528   -7.5908708    521.18106  0.019877233  0.019706583            7 
 2186000    0.9032343   -7.5797227    521.39338  0.019876234  0.019699853           15 
 2187000   0.89981146   -7.5989992    521.10198  0.019856043  0.019693066           10 
 2188000   0.92794551   -7.5992239    521.68382  0.019869128  0.019686327           12 
 2189000   0.92791751   -7.5722332    521.75288   0.01986268  0.019679586            4 
 2190000   0.91161585   -7.6034225    520.89349  0.019820909  0.019672819            7 
 2191000   0.91318716   -7.6052224    519.74295  0.019768102  0.019665973            4 
 2192000   0.89902164   -7.5994358    520.79884  0.019799226  0.019659109            9 
 2193000   0.88855934   -7.6304485    519.71533  0.019749025  0.019652226            7 
 2194000   0.89572852   -7.6429564     520.5472   0.01977162  0.019645339            6 
 2195000   0.89609904   -7.6045068    520.30482   0.01975341  0.019638448            4 
 2196000   0.89627427   -7.6429868    519.37605   0.01970917  0.019631573            9 
 2197000   0.89641971   -7.5911888    522.78879  0.019829646  0.019624681           29 
 2198000   0.88762583   -7.6144198    519.98214  0.019714215  0.019617832           12 
 2199000   0.91179779   -7.5811274    522.08919  0.019785099  0.019611011           13 
 2200000    0.8958056   -7.5961859    521.33082   0.01974738  0.019604245           11 
 2201000   0.90810988   -7.6059607    521.40797  0.019741328  0.019597453           12 
 2202000   0.88674606   -7.5971914     520.4633  0.019696613  0.019590618           27 
 2203000   0.87752992   -7.5889383     522.4637  0.019763342  0.019583733           26 
 2204000   0.90726605   -7.6413794    521.31185  0.019710823  0.019576898           22 
 2205000   0.92106185   -7.6124098    520.34685  0.019665414  0.019570041           20 
 2206000   0.90220765    -7.574314    520.98112  0.019680459  0.019563215           32 
 2207000   0.92618074   -7.5854812    521.17365  0.019678812  0.019556376           21 
 2208000   0.91291868   -7.6540782    520.64948  0.019650116  0.019549492           20 
 2209000   0.88518274   -7.6469833    521.62023  0.019677842  0.019542586           11 
 2210000   0.89833299   -7.6536785    519.11989  0.019574657  0.019535623            6 
 2211000   0.88555979   -7.6569853    521.00894  0.019637002  0.019528688            7 
 2212000   0.89634848   -7.6494745    519.40232  0.019567598  0.019521755            7 
 2213000    0.8908019   -7.6542004     519.7703  0.019572612  0.019514812            8 
 2214000   0.89134601   -7.6320571    521.98527  0.019647142  0.019507916            5 
 2215000   0.88493727   -7.5895571    522.78373  0.019668312  0.019501061            4 
 2216000   0.88337631   -7.5783728    523.10314  0.019671448  0.019494196            5 
 2217000   0.89135111   -7.5703727    521.68625  0.019609316  0.019487348            5 
 2218000   0.90804564   -7.5892662    520.44373  0.019553792  0.019480476            8 
 2219000   0.88345415   -7.6343329    521.07528  0.019568698  0.019473569            4 
 2220000   0.92410448   -7.5865963    521.06067  0.019559335  0.019466649            8 
 2221000   0.90477248    -7.609281    520.57159  0.019532177    0.0194598           14 
 2222000   0.91784641   -7.5613053    522.07069  0.019579609  0.019452936            6 
 2223000   0.90116775   -7.5570081    522.71677  0.019595021  0.019446137            5 
 2224000    0.9280567   -7.6244556    521.11123   0.01952605  0.019439258            2 
 2225000   0.90960984   -7.5929984    521.61446  0.019536122  0.019432386            6 
 2226000   0.88545826   -7.5759646    521.54332  0.019524682  0.019425499           10 
 2227000   0.88867535     -7.58836    521.89928  0.019529235  0.019418647            5 
 2228000   0.88214989   -7.6021317    523.62704  0.019585093  0.019411787            3 
 2229000   0.90902059   -7.5991219    521.41953  0.019493776    0.0194049            5 
 2230000   0.89532719   -7.6080981     520.5619  0.019452986  0.019398039            6 
 2231000   0.92302028   -7.6035304    522.53646  0.019518021  0.019391132            8 
 2232000   0.89761441   -7.5944186    522.45244  0.019506139  0.019384244           10 
 2233000   0.90094297   -7.5770263     522.2519   0.01948992  0.019377365            4 
 2234000   0.88591203   -7.5866337    522.83508   0.01950295  0.019370456            3 
 2235000   0.90108735   -7.6176991    520.93819  0.019423497  0.019363589           10 
 2236000   0.89852158   -7.5731326     523.9832  0.019528294  0.019356777            5 
 2237000   0.90917117   -7.6020071    522.56382   0.01946669  0.019349984            6 
 2238000   0.88923208   -7.5979555    522.33223  0.019449368  0.019343143           15 
 2239000   0.90975151    -7.636914    522.72443  0.019455279   0.01933631            6 
 2240000   0.87084618   -7.5856832    524.53222  0.019513847  0.019329527           10 
 2241000   0.88840949   -7.6032108    522.33059   0.01942327  0.019322746            6 
 2242000    0.9041325   -7.6032131    524.94011  0.019511601  0.019315877            8 
 2243000   0.89171334   -7.6172041    523.76729  0.019459328  0.019309001           12 
 2244000   0.86348303   -7.6159192    523.38651  0.019436516   0.01930209            8 
 2245000   0.89864612   -7.6078354    523.10275  0.019417325  0.019295238            8 
 2246000   0.88099919   -7.6110386    524.43732  0.019458197  0.019288345            4 
 2247000    0.9050201   -7.6025361    524.54613  0.019453573  0.019281545            5 
 2248000   0.88334803   -7.6065405    523.07254  0.019390293  0.019274716           16 
 2249000   0.88918418   -7.6063723    523.67208  0.019403886  0.019267832           11 
 2250000   0.91141549   -7.6157152    522.66218  0.019357859   0.01926096            7 
 2251000   0.87695401   -7.6386856    522.87546  0.019357155  0.019254088           11 
 2252000   0.88925606   -7.6286346    523.64567   0.01937706   0.01924719            5 
 2253000   0.89421241   -7.6171519    524.15002  0.019387114   0.01924027            4 
 2254000   0.89706923   -7.6515339    524.32697  0.019385055   0.01923341            7 
 2255000   0.91635294     -7.59661    525.32138  0.019413207  0.019226558           13 
 2256000   0.90236143   -7.6416899    523.70769  0.019344995  0.019219695            4 
 2257000   0.88166382   -7.6443912    524.13154  0.019352073  0.019212826           10 
 2258000   0.87402456   -7.5937833    523.85074  0.019333139  0.019205979           12 
 2259000   0.89029362   -7.6163984    522.65023  0.019280295  0.019199165            4 
 2260000   0.87863676   -7.6188347    524.16831   0.01932774  0.019192333            5 
 2261000   0.88727991   -7.5877443    525.79546  0.019379163   0.01918551            4 
 2262000   0.90991201   -7.6354078    524.58833  0.019326125   0.01917867            6 
 2263000   0.90607644   -7.6330718     524.1391  0.019301042  0.019171829            5 
 2264000   0.89305197   -7.6094438    523.94044  0.019285204  0.019164946           12 
 2265000   0.89236363   -7.6264161    525.23435  0.019324296  0.019158122           11 
 2266000   0.89417071   -7.6147432    523.95093  0.019268569  0.019151289            6 
 2267000   0.87972304   -7.6210787    524.97847  0.019297841  0.019144488            4 
 2268000   0.89070519    -7.628127    523.79977  0.019246023  0.019137688           10 
 2269000   0.88084991   -7.6066362    524.79433  0.019274068  0.019130855           16 
 2270000   0.88224454   -7.6065738    524.13111   0.01924123  0.019124021            6 
 2271000   0.89061003   -7.6176198    524.01652  0.019228553  0.019117198            5 
 2272000   0.90086548   -7.6355713    524.37084  0.019233085   0.01911032            5 
 2273000   0.87672024   -7.6215887     525.0289   0.01924875  0.019103481            4 
 2274000   0.86262585   -7.6408463    525.32228  0.019251036  0.019096648            6 
 2275000   0.89735594   -7.6231672    523.37799  0.019171355  0.019089742            9 
 2276000   0.89580223   -7.6392371    523.90814  0.019182342  0.019082883            6 
 2277000   0.87687123   -7.5942759    524.82686  0.019207541  0.019076046            6 
 2278000   0.88372653   -7.6124917    524.78943   0.01919774  0.019069208            3 
 2279000   0.88096337   -7.6172325    525.46777  0.019214121  0.019062369            6 
 2280000   0.86941019   -7.6005773    525.81268    0.0192183  0.019055519            6 
 2281000     0.890885    -7.621551    525.45242  0.019196713  0.019048682            5 
 2282000   0.89050333   -7.6139322    524.67569  0.019159936  0.019041796            6 
 2283000   0.89143593   -7.6256225    524.09689  0.019130417  0.019034921           11 
 2284000    0.8705425   -7.6037787    525.53612  0.019174552  0.019028038            6 
 2285000   0.87565946   -7.6653402      523.752  0.019101094  0.019021183           10 
 2286000   0.88916912    -7.629026    525.79227  0.019167114  0.019014346            7 
 2287000    0.8760965   -7.6562479    524.65419  0.019117264  0.019007473            7 
 2288000   0.89156475   -7.6453787    524.93854  0.019119265  0.019000551            5 
 2289000   0.89307889   -7.6462394    524.72606  0.019103177  0.018993653            7 
 2290000   0.88581484   -7.6478305    525.51193  0.019123433   0.01898678            6 
 2291000    0.8687774   -7.6253366    524.81341  0.019089677  0.018979939            8 
 2292000   0.88189467   -7.5973922    525.69636  0.019113451  0.018973109            7 
 2293000   0.89103832   -7.6712938    526.21125  0.019123828  0.018966285           10 
 2294000   0.89021565   -7.6647363    523.49505  0.019016821  0.018959378            7 
 2295000   0.89034244   -7.6646511    525.15467  0.019068797  0.018952535           16 
 2296000   0.87590261   -7.6893672    525.42725  0.019070385  0.018945656           10 
 2297000   0.86694415   -7.6437401    524.91251  0.019043409  0.018938816           27 
 2298000   0.89017786   -7.6479033    525.15183    0.0190438  0.018931957            6 
 2299000   0.86292479   -7.6149286    525.55366  0.019050082  0.018925112            9 
 2300000   0.88334286   -7.6143506    527.35949  0.019107228  0.018918313            7 
 2301000   0.89920276   -7.6292046    525.42029  0.019028694   0.01891149            5 
 2302000    0.8762149   -7.6420051    525.94908   0.01903957  0.018904679           10 
 2303000   0.89998717   -7.6701292    525.23868  0.019005597  0.018897859           12 
 2304000   0.87678779   -7.6509174    526.50932  0.019043306  0.018891001            6 
 2305000   0.86892339    -7.642064    526.37822  0.019030304  0.018884138           27 
 2306000   0.86471833   -7.6731377    525.31992  0.018983807  0.018877299            5 
 2307000   0.89552206   -7.6305288    526.63397  0.019023045  0.018870441            6 
 2308000   0.87421976   -7.6568332    524.55406  0.018939705  0.018863592           15 
 2309000   0.88396919    -7.605279    527.77292  0.019047673  0.018856773            7 
 2310000   0.88594549   -7.6552029    526.86822   0.01900679  0.018849971            6 
 2311000   0.88120872   -7.6006636    527.27033  0.019013065   0.01884323           10 
 2312000   0.89023596   -7.6412052    526.93185  0.018992642  0.018836503            5 
 2313000   0.89791998   -7.6096582    526.73604  0.018977376  0.018829737           14 
 2314000   0.88452619   -7.6171174    527.63091  0.019001401  0.018822997           15 
 2315000   0.88026947    -7.644873    526.84762  0.018964997  0.018816224            5 
 2316000   0.85267397    -7.650818     528.3255  0.019009985  0.018809487            6 
 2317000   0.86767785   -7.6400703    526.48057  0.018935425  0.018802777           16 
 2318000   0.88243505   -7.6213262    528.84232  0.019012163  0.018796092            9 
 2319000   0.88096727   -7.6478269    528.17122  0.018979848  0.018789387            4 
 2320000   0.89567286   -7.6644377    527.63422  0.018952379  0.018782679           11 
 2321000   0.87190951   -7.6447605    528.24252  0.018966054  0.018775985           33 
 2322000   0.90468047   -7.6487555    527.88106  0.018944913  0.018769299           28 
 2323000   0.90746273   -7.6069943    530.01315  0.019013243   0.01876264            7 
 2324000   0.89502055   -7.6524948    527.94401  0.018930867  0.018755974           10 
 2325000   0.87104897   -7.6732972    528.61883  0.018946912  0.018749298            9 
 2326000   0.87565751   -7.6528828    529.30375  0.018963304  0.018742644            6 
 2327000   0.87390094   -7.6262006     530.1847  0.018986703  0.018735972            6 
 2328000   0.89302227    -7.670761    528.92019  0.018933283  0.018729323            9 
 2329000   0.87405282   -7.6395202    528.20187  0.018899452  0.018722686           15 
 2330000   0.89445942   -7.6444854    529.22885  0.018928071  0.018716064            7 
 2331000   0.86163247   -7.6736184     527.4934  0.018857908  0.018709419           13 
 2332000   0.85746205   -7.6732506    528.71988  0.018893649  0.018702706           12 
 2333000    0.9049434   -7.6699824    529.13408  0.018900346  0.018696039            5 
 2334000   0.89333091   -7.6410045     529.1787  0.018893841  0.018689333           21 
 2335000   0.87409008   -7.6458499    528.74876  0.018870405  0.018682647           35 
 2336000   0.88065089   -7.6805584    527.87152  0.018831033  0.018675971           10 
 2337000    0.8662511    -7.635944    530.43537  0.018914398  0.018669311            6 
 2338000    0.8794993   -7.6496968    528.17655  0.018825797   0.01866269            8 
 2339000   0.87517954    -7.702424    529.67403    0.0188711  0.018656001            6 
 2340000   0.88612978   -7.6374246    530.55134  0.018894278  0.018649332            9 
 2341000   0.85478361    -7.707313    528.15749  0.018800993  0.018642653            8 
 2342000   0.84499724   -7.6796727    529.00824  0.018823236  0.018635958           12 
 2343000   0.88734832    -7.687737    529.22083  0.018822764  0.018629285           20 
 2344000   0.88157396   -7.6739709     528.8808  0.018802645  0.018622599            4 
 2345000   0.88438475   -7.6552871    529.71596  0.018824306  0.018615916            5 
 2346000   0.86502804   -7.6706003    530.04893  0.018828109  0.018609273            7 
 2347000   0.86264325   -7.6725655    529.34781  0.018795193  0.018602626            6 
 2348000    0.8659765   -7.6713851    528.21359  0.018746933  0.018595957            5 
 2349000   0.88946369   -7.6306564    530.67139  0.018826145  0.018589329            8 
 2350000     0.877657   -7.6745438     530.1955  0.018801259  0.018582697           18 
 2351000   0.89830959   -7.6689424    530.36132  0.018799139  0.018576027           15 
 2352000   0.88606091   -7.6572844    530.16988  0.018784364   0.01856937           13 
 2353000   0.88605592   -7.6557191    529.47674  0.018751832  0.018562718            5 
 2354000   0.86684135    -7.635806    529.28078  0.018736929  0.018556067            6 
 2355000   0.86885385   -7.6811752     529.1708  0.018725081  0.018549431            7 
 2356000   0.86159162   -7.6583881    528.66168  0.018699126  0.018542774            8 
 2357000   0.87540947   -7.6712112    529.86915  0.018733883  0.018536107            8 
 2358000   0.87094075   -7.6490417    529.25571  0.018704259  0.018529429            8 
 2359000   0.87752105   -7.6355307    529.63512  0.018709733  0.018522731            7 
 2360000   0.88475758   -7.6500655    529.43245  0.018694649  0.018516086            4 
 2361000   0.87948474   -7.6962253    528.78463  0.018663865  0.018509401            9 
 2362000   0.85795528    -7.668244    529.63788  0.018686067  0.018502709            9 
 2363000   0.85347053   -7.6700006    529.60492  0.018676997  0.018496015           10 
 2364000   0.86829875   -7.6626684    530.35732  0.018695619  0.018489355            7 
 2365000   0.88324816   -7.6837388    530.43727  0.018690531  0.018482667            6 
 2366000   0.86459368   -7.6733949    530.95287  0.018700792  0.018476003           12 
 2367000   0.89677124   -7.7042949     530.2677  0.018668768  0.018469331            7 
 2368000   0.85437678   -7.6409444     531.7256   0.01871219  0.018462712            6 
 2369000    0.8927738   -7.6881067    530.29882  0.018654102  0.018456044            7 
 2370000   0.87483034    -7.675002    529.55078  0.018619929  0.018449304            8 
 2371000   0.87855562   -7.6944437    530.56744  0.018647808  0.018442537           20 
 2372000   0.88682604   -7.7239748    528.97709  0.018584074  0.018435795            9 
 2373000    0.8649196   -7.6864193     529.8132  0.018605605  0.018429008            4 
 2374000   0.89781818   -7.6775402    529.91324  0.018601279  0.018422239           10 
 2375000   0.86565583   -7.6940985    529.36922  0.018574358  0.018415498            4 
 2376000   0.90119267   -7.7243045    527.91492  0.018515535  0.018408727            7 
 2377000   0.87337143   -7.7037921     530.5181  0.018599008  0.018401956            8 
 2378000   0.87784504   -7.6744033    531.75081  0.018634385   0.01839523            9 
 2379000   0.88923701   -7.7096703    529.67509  0.018553842  0.018388551           12 
 2380000   0.87121874   -7.6624852    531.37891  0.018605704  0.018381861            5 
 2381000   0.86889966   -7.7058264     530.8446  0.018579189  0.018375156           14 
 2382000    0.8448744   -7.6877763    529.95797  0.018540371  0.018368426            7 
 2383000   0.86987867   -7.7003945    529.69938  0.018523548  0.018361706           10 
 2384000   0.87603367   -7.7296991    528.45756   0.01847237  0.018354951            5 
 2385000   0.86498317   -7.6695315    529.88002  0.018514326  0.018348221            6 
 2386000   0.88285277   -7.6957722    530.27284  0.018520287  0.018341475            5 
 2387000   0.86349387   -7.6873323    529.94923   0.01850123  0.018334731           12 
 2388000   0.86396747   -7.7598043    529.72687  0.018485723  0.018327985           11 
 2389000   0.87049316   -7.7233891     530.5201  0.018505654  0.018321281            5 
 2390000   0.86435467   -7.6889833    531.26668  0.018523943  0.018314636            5 
 2391000   0.87240218   -7.6975698    530.81309  0.018500386  0.018307992           13 
 2392000   0.84206364   -7.6982104     529.6737  0.018452958  0.018301311            9 
 2393000    0.8642897   -7.6843206    530.06264  0.018458791  0.018294608           10 
 2394000   0.86894644   -7.6976621    530.40523  0.018463006  0.018287943           14 
 2395000   0.86925647   -7.6984217    530.72574  0.018466449  0.018281267           10 
 2396000   0.86469924   -7.6970143    531.38694  0.018481738  0.018274563           17 
 2397000   0.87514096    -7.701883    532.13468  0.018500024  0.018267887            5 
 2398000   0.87008233   -7.7131331    530.72846  0.018443441  0.018261241            8 
 2399000   0.85993467   -7.6821861    531.56854  0.018464935  0.018254627           17 
 2400000   0.87194276    -7.682926    531.05715  0.018439484  0.018247972           18 
 2401000   0.83811472   -7.6884019    532.58705  0.018484904  0.018241343            3 
 2402000   0.85695882   -7.6877478    531.53754  0.018440797  0.018234742           15 
 2403000   0.86409053   -7.7227188    531.62809  0.018436264  0.018228118            5 
 2404000   0.86424816     -7.72173    532.13494  0.018446164  0.018221464           18 
 2405000   0.86339852   -7.7177238    531.87736  0.018429569  0.018214774           14 
 2406000   0.87793959   -7.6596779    532.47818  0.018442719  0.018208189            7 
 2407000    0.8687029   -7.6644804    533.02703  0.018454058   0.01820158           11 
 2408000   0.87024053   -7.7356744    530.84248  0.018370795  0.018194973           20 
 2409000   0.84770746   -7.6848709    531.36546   0.01838126  0.018188312            9 
 2410000   0.86651706   -7.6854753     532.3529  0.018407777  0.018181696            8 
 2411000   0.84928248   -7.6926641    531.90393  0.018384624   0.01817508            8 
 2412000   0.84593955   -7.7168249    531.85976  0.018375475  0.018168443           13 
 2413000   0.87014797   -7.7192625    532.80948  0.018400659  0.018161819            4 
 2414000   0.87108844   -7.7439195    531.52038  0.018348536   0.01815519           15 
 2415000    0.8666178   -7.7198202    531.86706  0.018352901  0.018148584           12 
 2416000   0.87215481   -7.7126687    531.47002  0.018331609   0.01814199           10 
 2417000   0.86619018   -7.7006233    533.05036  0.018378512  0.018135401            9 
 2418000   0.86031538   -7.6829297    532.87981  0.018365033  0.018128833           30 
 2419000   0.86544884   -7.7067183    532.44346  0.018342409   0.01812223           12 
 2420000    0.8562603   -7.7099563    531.29605  0.018295318  0.018115633           10 
 2421000   0.85656536   -7.7068771    531.81117  0.018305493  0.018109018           20 
 2422000   0.86255158   -7.7408082    530.56479  0.018255051  0.018102385           15 
 2423000   0.85337755   -7.7140982     532.7945  0.018324202  0.018095732           27 
 2424000   0.85746824   -7.7282173    531.05132  0.018256715  0.018089126            9 
 2425000   0.86596564   -7.7506156    531.80308   0.01827502  0.018082517           31 
 2426000   0.87047741   -7.6855628    532.84759  0.018303366  0.018075958           12 
 2427000   0.87292854   -7.6833052    533.95761  0.018333938  0.018069378            5 
 2428000    0.8669523   -7.7138068    533.57777   0.01831335  0.018062836           10 
 2429000    0.8618777    -7.701381    532.81525   0.01827965  0.018056263           17 
 2430000   0.85428619   -7.7378152    532.94338  0.018276522  0.018049704            8 
 2431000   0.85811268   -7.7356868    532.60539  0.018257418  0.018043104           15 
 2432000   0.86933909   -7.7478497    532.17874  0.018235291   0.01803654           11 
 2433000   0.85762448   -7.7316672    533.77916  0.018282613  0.018029958            8 
 2434000   0.85885902   -7.7501663    532.74582  0.018239723  0.018023385            6 
 2435000   0.85702953   -7.7025348    532.65017  0.018228959  0.018016793           16 
 2436000   0.85628728   -7.7064947     533.6964  0.018257266  0.018010235            9 
 2437000   0.87032912   -7.6733067    534.03442  0.018261333  0.018003673            8 
 2438000   0.85979964   -7.6859808     534.1455  0.018257639  0.017997198           10 
 2439000    0.8547629    -7.735053    533.33829  0.018222574  0.017990656            8 
 2440000    0.8537998   -7.7278351    533.56799  0.018222951   0.01798408            8 
 2441000   0.86408722    -7.705694    533.43495  0.018210943  0.017977515           11 
 2442000   0.85449098   -7.7248397    533.75939  0.018214558  0.017970946            4 
 2443000   0.87140758   -7.7530199    533.65103  0.018203405  0.017964363           13 
 2444000   0.86622024   -7.7212341    533.22259  0.018181348  0.017957769            9 
 2445000   0.86772561   -7.7717023    532.59921  0.018152666  0.017951125            9 
 2446000   0.85531873   -7.7502212     533.3693  0.018171481  0.017944499           20 
 2447000   0.84403694   -7.7305993     533.6976  0.018175235  0.017937872           28 
 2448000    0.8408276   -7.7554877    532.61296  0.018130888  0.017931253           32 
 2449000   0.84248341   -7.7131959    534.51014  0.018188041  0.017924663            8 
 2450000   0.87549562   -7.7352309    533.74893  0.018154725  0.017918109            4 
 2451000   0.83822229   -7.7301307    533.78216  0.018148448  0.017911537           17 
 2452000    0.8713774   -7.7352865    533.73856  0.018139565  0.017904997            4 
 2453000   0.86088354   -7.7648973    533.25169   0.01811563   0.01789844           16 
 2454000   0.85006938    -7.741943    532.57984  0.018085433  0.017891861           13 
 2455000   0.84777638   -7.7667172    533.79177  0.018119205  0.017885253           10 
 2456000   0.84119614    -7.747219    533.04067  0.018086342  0.017878642            6 
 2457000   0.86306522   -7.7186931    533.95254  0.018109909  0.017872031            7 
 2458000   0.84974194   -7.7371484    533.30776  0.018080681  0.017865399           12 
 2459000   0.85044126   -7.7247024    534.42415  0.018111162  0.017858789            4 
 2460000   0.85301979   -7.7656089     532.0108  0.018022046  0.017852172            6 
 2461000   0.83653903   -7.7618164    534.04989   0.01808377  0.017845618            6 
 2462000   0.85073642   -7.7623029    532.33897  0.018018514  0.017839057           11 
 2463000   0.85878108   -7.7453482    533.43177  0.018048172  0.017832482            9 
 2464000   0.87919624   -7.7365509    534.60594  0.018080558  0.017825911           10 
 2465000   0.86621372   -7.7057365    533.68442  0.018042069  0.017819352            4 
 2466000   0.86634476    -7.727237    535.04263  0.018080651  0.017812804           20 
 2467000   0.85916223   -7.7589249      533.409  0.018018139  0.017806295            4 
 2468000   0.85484738   -7.7455445    533.85526  0.018025907  0.017799721           11 
 2469000    0.8680122   -7.7419687    534.95309   0.01805566  0.017793173            8 
 2470000   0.86370891   -7.7730912    533.74765   0.01800768   0.01778663           21 
 2471000   0.86664314   -7.7164455    536.33456  0.018087635  0.017780095           12 
 2472000   0.83537436   -7.7176945    535.59413  0.018055358  0.017773606           10 
 2473000   0.84927508   -7.7072004    535.12588  0.018032278  0.017767126            9 
 2474000   0.84692648   -7.6960163    535.89054  0.018050746  0.017760672           15 
 2475000   0.85041825   -7.7320608    535.56972   0.01803265  0.017754196            9 
 2476000   0.86091006   -7.7471218    536.43827    0.0180546  0.017747732            7 
 2477000   0.87628263   -7.7325488    534.58058  0.017984813  0.017741225           11 
 2478000   0.85337301   -7.7613088    535.55124  0.018010198  0.017734719           13 
 2479000   0.85129471   -7.7455517    534.63769  0.017972223  0.017728162           18 
 2480000   0.87565952   -7.7541597     534.5918  0.017963434  0.017721611           14 
 2481000   0.83914993   -7.7651777    533.86682  0.017931843  0.017715084           11 
 2482000   0.87231748   -7.7806018    534.67128  0.017951628  0.017708521           12 
 2483000   0.85620997   -7.7629679    533.59457  0.017908262  0.017701991           14 
 2484000   0.85062463   -7.7429723    534.97978  0.017947523  0.017695478           31 
 2485000   0.85067765   -7.7773119    534.80089  0.017934302   0.01768901            7 
 2486000   0.85049975   -7.7448419    535.58096  0.017953237  0.017682535           12 
 2487000   0.84820398   -7.7437643    533.99679  0.017892936  0.017676084           13 
 2488000   0.85983273   -7.7356064    534.62396  0.017906751  0.017669629            7 
 2489000   0.84945432   -7.7466633    536.21741  0.017952906  0.017663177            6 
 2490000   0.86135363   -7.7342487    536.19461  0.017944934   0.01765671            6 
 2491000   0.86063927   -7.7456288    534.79895  0.017891039   0.01765021           13 
 2492000   0.86508877   -7.7528703    535.19517   0.01789711  0.017643731           12 
 2493000   0.83932472   -7.7658447    535.58473  0.017902953  0.017637231           11 
 2494000   0.84350505   -7.7599258    535.36729  0.017888509  0.017630766           10 
 2495000   0.84283633   -7.7569112    535.89372  0.017898922  0.017624269            5 
 2496000   0.84167091   -7.7121715    537.08315  0.017931462  0.017617782            9 
 2497000   0.84765808   -7.7607441    535.97885  0.017887427  0.017611345            7 
 2498000   0.84609852   -7.7779819    535.56716  0.017866532  0.017604906            8 
 2499000   0.84322805   -7.7507728     536.1933  0.017880262  0.017598453           17 
 2500000   0.85854374    -7.733285    536.81908  0.017893969  0.017592033           17 
 2501000   0.85264617   -7.7857494    535.79318  0.017852632  0.017585598            6 
 2502000   0.84460449   -7.7643546    535.61679  0.017839621  0.017579136            4 
 2503000   0.85812983    -7.747862    536.18593  0.017851443  0.017572745           26 
 2504000    0.8595671   -7.7324199    538.07865  0.017907303  0.017566362           21 
 2505000   0.84791177   -7.7331722     536.6649  0.017853124   0.01755999           22 
 2506000   0.85320536   -7.7133731    537.14732  0.017862042  0.017553617           10 
 2507000   0.84036086   -7.7500433    535.97389  0.017815912  0.017547265           15 
 2508000   0.84180121   -7.7592333    537.31177  0.017853262  0.017540896           18 
 2509000   0.85294205   -7.7793686    535.96591  0.017801445  0.017534487           19 
 2510000   0.85591608   -7.7748836    536.70632  0.017818935  0.017528057            6 
 2511000   0.84991809   -7.7601582    536.25463  0.017796848  0.017521651            8 
 2512000   0.85595307   -7.7700341    536.75716  0.017806434  0.017515244           11 
 2513000   0.85559144   -7.7675153    537.03364  0.017808517   0.01750882           16 
 2514000   0.84435623   -7.7561076    537.13632  0.017804837  0.017502399           15 
 2515000   0.83714204   -7.7344095    536.80238  0.017786692  0.017495975           17 
 2516000   0.84891696   -7.7882975    536.42462  0.017767111  0.017489548           35 
 2517000   0.84223396   -7.7635282     536.0501  0.017747652  0.017483129           41 
 2518000   0.85376131    -7.759405    536.68326  0.017761559  0.017476731           22 
 2519000   0.83291892   -7.7515623    536.10629   0.01773542  0.017470336           26 
 2520000   0.84315192   -7.7253684    537.75521  0.017782911  0.017463935           24 
 2521000   0.87022736   -7.7970351     535.6195  0.017705259  0.017457505           16 
 2522000   0.85561026   -7.7946649     536.2774  0.017719977  0.017451074           29 
 2523000   0.83104739   -7.7771834    537.38187  0.017749434  0.017444595           40 
 2524000   0.85357254   -7.7773138    536.68268  0.017719317   0.01743814           18 
 2525000   0.85727849   -7.8208234    536.65554  0.017711404  0.017431694           51 
 2526000   0.84358253   -7.8113848    535.76498  0.017675013  0.017425236           29 
 2527000   0.84720106    -7.815514    535.84563  0.017670678  0.017418776           34 
 2528000   0.83334902   -7.8338682       535.76  0.017660865  0.017412291            9 
 2529000   0.85587265   -7.7987517       535.11  0.017632463  0.017405816            8 
 2530000   0.83665253   -7.8008813    535.51918  0.017638972  0.017399354            7 
 2531000   0.84909644   -7.7859491    537.03539  0.017681924  0.017392931           10 
 2532000   0.85057138   -7.7745578    535.92401  0.017638362  0.017386557            9 
 2533000   0.85181324   -7.8070147    535.39372  0.017613953  0.017380171            9 
 2534000    0.8369882   -7.8137081    536.13467  0.017631369  0.017373725            8 
 2535000   0.85264161    -7.824764     536.2421  0.017627945  0.017367265            9 
 2536000   0.84428176   -7.8388894    536.23721  0.017620834  0.017360839           10 
 2537000    0.8568011   -7.7810822    537.82394  0.017666008  0.017354402           10 
 2538000   0.84110008   -7.7701374    537.30282  0.017641937  0.017348015            5 
 2539000    0.8360075   -7.8108243    537.31052  0.017635241  0.017341624           18 
 2540000   0.85640915   -7.8354286    534.10928   0.01752327  0.017335182           18 
 2541000   0.84580445   -7.8242282    536.75979  0.017603299  0.017328762           14 
 2542000   0.84938755   -7.7863718     537.8213  0.017631173  0.017322354           20 
 2543000   0.84761456   -7.8154563    535.78879  0.017557635  0.017315934           19 
 2544000    0.8335296   -7.8004828      537.162  0.017595715  0.017309515           11 
 2545000   0.84924457   -7.7560922    537.80689  0.017609918  0.017303098           14 
 2546000   0.85219209   -7.7802367    538.19193  0.017615604  0.017296708           12 
 2547000    0.8351546   -7.7908371    537.50755  0.017586296  0.017290324           31 
 2548000    0.8309468   -7.7869309    537.14094  0.017567404  0.017283948           20 
 2549000   0.83545118   -7.7907131    537.33564  0.017566877  0.017277593           14 
 2550000   0.85236899   -7.8191815    536.88176  0.017545156  0.017271194           16 
 2551000   0.84022695   -7.7836185    536.87337  0.017538004  0.017264807           11 
 2552000   0.84882272   -7.8513217    537.57288  0.017553973  0.017258423           12 
 2553000   0.83934665   -7.8249598    536.24472  0.017503744     0.017252            9 
 2554000   0.83965516   -7.8120202    538.88358  0.017582993  0.017245588           10 
 2555000   0.83769433   -7.7833763    537.41557  0.017528231  0.017239173           30 
 2556000   0.83963955   -7.7950089    537.86823  0.017536132  0.017232761           10 
 2557000   0.82728591   -7.7882355    538.35511  0.017545141  0.017226362           25 
 2558000   0.83522762   -7.8057543    538.16891  0.017532216  0.017219974           34 
 2559000   0.85220403   -7.8191402    537.97511  0.017519054  0.017213578            7 
 2560000   0.83980199   -7.8142277    537.79082  0.017506212  0.017207202           17 
 2561000   0.84771505   -7.7873715    538.00777  0.017506435  0.017200812           39 
 2562000   0.85760521   -7.8099792    536.70593  0.017457258  0.017194421           34 
 2563000   0.85415091   -7.8026417    538.34534   0.01750375  0.017188047           27 
 2564000   0.85706314   -7.7655932    538.25859  0.017494104  0.017181665           38 
 2565000    0.8466259   -7.7745885    537.46155  0.017461389  0.017175296           21 
 2566000   0.83703112   -7.7660429    538.24902  0.017480158  0.017168904           34 
 2567000   0.83512237   -7.8001584    538.36858  0.017477229  0.017162452           15 
 2568000     0.858986   -7.8087702    537.51223  0.017442635  0.017156055            8 
 2569000   0.85447755   -7.7931892    537.66461  0.017440788  0.017149656           23 
 2570000   0.83289664   -7.7696366    537.74334  0.017436555    0.0171433           10 
 2571000    0.8306402   -7.7914642    538.37394  0.017450212  0.017136934           15 
 2572000   0.85241025   -7.7695659    538.94106  0.017461802   0.01713058           28 
 2573000   0.83373802   -7.7882172    538.40799  0.017437751  0.017124234           12 
 2574000   0.83687351   -7.7924838    537.76048  0.017410013  0.017117802           42 
 2575000   0.82802703   -7.8202632     537.9305  0.017408754  0.017111367           13 
 2576000   0.84008188   -7.7977021    537.61614  0.017391826  0.017104963           31 
 2577000   0.83956282   -7.7885183    538.18696  0.017403537  0.017098568           28 
 2578000   0.83219574   -7.7805324    538.58167  0.017409544  0.017092181           19 
 2579000   0.84622867   -7.8238744     537.2949  0.017361215  0.017085756           18 
 2580000   0.82602347   -7.8182766    537.58843  0.017363967   0.01707935           22 
 2581000    0.8388197   -7.8254431     538.0786  0.017373066  0.017072939           29 
 2582000   0.85039231   -7.7882518    537.14135  0.017336088  0.017066536           30 
 2583000   0.82028118   -7.8151939    537.41981   0.01733836  0.017060153           15 
 2584000   0.82321814   -7.8346617    538.10429  0.017353725  0.017053773           18 
 2585000   0.86439653   -7.7802395     538.6178  0.017363565   0.01704743            7 
 2586000   0.84040305   -7.7987953    537.69976  0.017327267  0.017041085           11 
 2587000   0.84091789   -7.7830246    540.25159   0.01740277  0.017034753            7 
 2588000   0.83939239   -7.7975764    538.41437  0.017336887  0.017028439            8 
 2589000   0.85354492   -7.7990493    539.44972  0.017363516  0.017022121           11 
 2590000   0.85282623   -7.8257888    538.20975  0.017316916  0.017015779            9 
 2591000   0.84665097   -7.8321922    538.31743  0.017313696  0.017009433            6 
 2592000   0.84044705   -7.8387204    538.39467  0.017309499  0.017003074           11 
 2593000   0.85360296   -7.8324024    537.92511  0.017287733  0.016996699           15 
 2594000   0.83511764   -7.8514262    537.99715  0.017283383  0.016990331           13 
 2595000   0.83781673   -7.7987559    538.51084  0.017293219  0.016983954           12 
 2596000   0.83511414   -7.7770589    539.44345  0.017316495  0.016977615           11 
 2597000   0.82710588   -7.7726066    539.90818  0.017324739  0.016971288            6 
 2598000   0.82839991   -7.8048694    538.47367  0.017272058  0.016965012            8 
 2599000   0.83599351   -7.7994325    540.44498  0.017328619  0.016958737            6 
 2600000   0.83305179   -7.7713219    539.75057  0.017299698  0.016952458            7 
 2601000   0.84335593   -7.8321541    538.52462  0.017253768  0.016946133           11 
 2602000   0.84960051   -7.8074682     538.9244  0.017259941  0.016939796            9 
 2603000   0.81375504   -7.7832928    539.43558  0.017269675  0.016933477           28 
 2604000   0.83540309   -7.8066361    538.73023  0.017240471  0.016927162           11 
 2605000   0.84495248   -7.7805176    539.63117  0.017262673  0.016920808           11 
 2606000   0.82576088   -7.8063892    538.60221  0.017223146  0.016914465            6 
 2607000   0.83077046   -7.8493324    538.21801  0.017204258  0.016908098           10 
 2608000   0.86031034   -7.8053929    538.14309  0.017195267  0.016901722           12 
 2609000   0.86197829    -7.790091    539.13927  0.017220496  0.016895374           11 
 2610000    0.8196788    -7.805583    538.71714   0.01720042  0.016889039            7 
 2611000   0.82919467   -7.7972981    538.98979  0.017202534  0.016882706            5 
 2612000   0.82662327    -7.820731    538.67399  0.017185873  0.016876334           12 
 2613000    0.8300266   -7.8015478    537.24913  0.017133854  0.016869997           11 
 2614000   0.82923771   -7.8024854    539.38108  0.017195265  0.016863653           10 
 2615000   0.83028405   -7.8008851    538.36841  0.017156419  0.016857296           30 
 2616000   0.83009939   -7.8043345    538.82099  0.017164277  0.016850926           13 
 2617000   0.84343012   -7.8171311    538.16646  0.017136876  0.016844583           10 
 2618000   0.82641433   -7.8064325    538.50047  0.017140962  0.016838248           23 
 2619000   0.83514486   -7.8198767    538.50264  0.017134487  0.016831946            6 
 2620000   0.85014154   -7.8010097    539.17648  0.017149379  0.016825625            6 
 2621000   0.84630538   -7.7852524     539.2731  0.017145908  0.016819264            5 
 2622000   0.83600361    -7.766866    539.89663  0.017159186  0.016812959            8 
 2623000   0.82149199   -7.7850089    538.04163   0.01709371  0.016806624            5 
 2624000   0.82731726    -7.786536    539.88522  0.017145745  0.016800301           16 
 2625000   0.82148158   -7.8123698    538.80018  0.017104768  0.016793967           21 
 2626000    0.8277821   -7.7771257    539.11388  0.017108209  0.016787629           14 
 2627000   0.84103887   -7.7904751    539.25695  0.017106235  0.016781295            8 
 2628000   0.84006409    -7.818592     537.8558  0.017055296  0.016774942           13 
 2629000   0.84423287   -7.8398499    538.05744    0.0170552  0.016768559           13 
 2630000   0.83221821   -7.8520702     537.3278  0.017025596  0.016762163            5 
 2631000    0.8201771   -7.8404104    538.45125  0.017054708  0.016755763           14 
 2632000   0.84189689   -7.8190743    538.18603  0.017039831  0.016749395           13 
 2633000   0.82831749   -7.7841486    539.21164   0.01706582  0.016743031           14 
 2634000   0.84557113   -7.8392013     538.3061  0.017030692  0.016736662           15 
 2635000   0.83446653   -7.8121171    539.24087  0.017053791   0.01673025           11 
 2636000   0.83718698   -7.8034101    539.14824  0.017044393  0.016723893           10 
 2637000   0.82282819   -7.8470868    538.69546  0.017023621    0.0167175           15 
 2638000   0.82568911   -7.8546978    538.58109  0.017013555  0.016711101            6 
 2639000   0.83018012   -7.8161252    538.66016  0.017009605  0.016704733            8 
 2640000   0.82669682   -7.8576513    537.96638  0.016981262  0.016698357           11 
 2641000   0.81373279   -7.8717204    537.17264  0.016949787  0.016691907           10 
 2642000   0.81969678   -7.8720784    536.76989  0.016930668  0.016685439            8 
 2643000   0.83065896   -7.8486047     536.2866  0.016909024  0.016678997            8 
 2644000   0.82061271   -7.8542243     536.9202  0.016922598  0.016672541           17 
 2645000   0.82725844   -7.8377534    536.13026  0.016891313  0.016666111            7 
 2646000   0.82119513   -7.8647537    537.76156  0.016936305  0.016659704            7 
 2647000   0.83028367   -7.8348374    537.74944  0.016929525  0.016653277           11 
 2648000   0.84033255   -7.8542522     538.1479  0.016935672   0.01664684           14 
 2649000   0.83766761   -7.8637983    537.14352  0.016897682  0.016640411           12 
 2650000    0.8215421   -7.8576275    539.51584  0.016965907  0.016633991           14 
 2651000   0.82395565   -7.8740495    536.05961  0.016850862  0.016627559           11 
 2652000   0.84581828   -7.8680942    537.19964  0.016880331  0.016621148           19 
 2653000     0.831952   -7.8547313    537.27204  0.016876242  0.016614729           13 
 2654000   0.82295698   -7.8430015    537.63848  0.016881389  0.016608295           13 
 2655000   0.82771546   -7.8155894    539.69524  0.016939587  0.016601874           13 
 2656000   0.81799704   -7.8578266    536.88756  0.016845117  0.016595448           55 
 2657000   0.81217593   -7.8206967    538.37736  0.016885503  0.016589062           29 
 2658000   0.83408055   -7.8626613    537.45638  0.016850275  0.016582683           47 
 2659000   0.84305513   -7.8658006    537.81486  0.016855173  0.016576268           47 
 2660000    0.8433951   -7.8636561    538.20718  0.016861127   0.01656982           52 
 2661000   0.83810211   -7.8753189    537.19167  0.016822989  0.016563386           60 
 2662000   0.82097648   -7.8646699     538.5584  0.016859454  0.016556935           90 
 2663000   0.82633589   -7.8454497    538.70175  0.016857609  0.016550486           70 
 2664000   0.83475335   -7.8897888    537.53837  0.016814889  0.016544051           34 
 2665000   0.80980414   -7.8558029    537.97642  0.016822277  0.016537625           37 
 2666000   0.83104681   -7.8574148    538.20166  0.016823008  0.016531195           66 
 2667000   0.84764746   -7.8634439    536.81679  0.016773428  0.016524796           47 
 2668000   0.84089209   -7.8713983    536.67492   0.01676271  0.016518367           86 
 2669000   0.80997383   -7.8683225    538.42827  0.016811174  0.016511937           76 
 2670000   0.83972073   -7.8645025    536.97354  0.016759474  0.016505559           61 
 2671000   0.81925969   -7.8484487    537.02775   0.01675489  0.016499153           34 
 2672000   0.80508375   -7.8734868     537.8703  0.016774897  0.016492756           54 
 2673000    0.8089758   -7.8615554    538.20603  0.016779088  0.016486378           41 
 2674000   0.82854681   -7.9002904    537.27726  0.016743869  0.016479996           61 
 2675000   0.83150956   -7.8536302    538.35015  0.016771033  0.016473604           74 
 2676000   0.82345331   -7.8498849    538.41133  0.016766671  0.016467229           63 
 2677000   0.84081049   -7.8458826    538.09763  0.016750642  0.016460881           64 
 2678000   0.82515508   -7.8618756    537.40192  0.016722738  0.016454521           48 
 2679000   0.81883489   -7.8398369    539.41545  0.016779129   0.01644818           76 
 2680000   0.82580882   -7.8433212    538.11856  0.016732542  0.016441839           71 
 2681000   0.82352463   -7.8913275    538.16322  0.016727689  0.016435458           57 
 2682000   0.82521641   -7.8774212    537.68227  0.016706509  0.016429069           35 
 2683000   0.82512895   -7.8825822    537.19213  0.016685058    0.0164227           14 
 2684000   0.83229174   -7.8504194    538.55774  0.016721241  0.016416325           19 
 2685000   0.81657774   -7.8690198     538.3592  0.016708852  0.016409934           38 
 2686000   0.80569703     -7.88245    537.75425  0.016683862  0.016403555           28 
 2687000   0.80685092   -7.8584787    538.17381  0.016690665  0.016397158           21 
 2688000   0.82758751   -7.8544744    537.57312  0.016665833   0.01639074           29 
 2689000   0.83821519    -7.847241    538.56222  0.016690288   0.01638434           26 
 2690000     0.838215   -7.8453069    538.95942  0.016696388  0.016377986           15 
 2691000   0.80584134   -7.8634249    537.53495  0.016646072  0.016371609           50 
 2692000   0.83023716   -7.8362347    540.26885  0.016724519  0.016365253           47 
 2693000   0.82413235    -7.822972    538.66151   0.01666857  0.016358903           36 
 2694000   0.82648492   -7.8535102    538.93752   0.01667092  0.016352517           35 
 2695000    0.8174111   -7.8549058    536.96641  0.016603785  0.016346139           50 
 2696000   0.82776703   -7.9004353    536.96995  0.016597736  0.016339723           60 
 2697000   0.82745296   -7.8667318    537.95262  0.016621945  0.016333373           26 
 2698000   0.81987932   -7.8954196    537.98585   0.01661681  0.016326939           45 
 2699000   0.81484939   -7.8802918    538.50135   0.01662657  0.016320547           64 
 2700000   0.82613895   -7.8871312    537.90011  0.016601855  0.016314167           43 
 2701000   0.85269325   -7.8664374    539.12954   0.01663364  0.016307787           34 
 2702000   0.82648154   -7.8759794    538.69321  0.016614027  0.016301422           34 
 2703000   0.82842473   -7.9039157    537.69252  0.016577029   0.01629506           49 
 2704000   0.82062757   -7.8937702    538.36045  0.016591483  0.016288701           66 
 2705000   0.81846498    -7.857221    539.47188   0.01661959  0.016282353           57 
 2706000   0.81028418   -7.8813112    538.87944  0.016595203  0.016276027           84 
 2707000   0.81084482   -7.8733708    537.96192  0.016560828   0.01626973           57 
 2708000   0.81214852   -7.8933121    539.58358  0.016604615  0.016263422           46 
 2709000   0.81259189   -7.8958247    537.89463  0.016546531  0.016257113           26 
 2710000   0.79685209   -7.8911377    538.69677  0.016565091  0.016250812           26 
 2711000    0.8133126   -7.8447598    539.70767  0.016590055  0.016244517           39 
 2712000    0.8254719    -7.877377    539.86836  0.016588875  0.016238225           25 
 2713000   0.82248983   -7.8549495    540.06358  0.016588757  0.016231943           39 
 2714000   0.80995814   -7.8575764    538.39781  0.016531498  0.016225664           37 
 2715000    0.7974534   -7.8766366     539.2037  0.016550144   0.01621937           23 
 2716000   0.81327915   -7.8596702    537.96775  0.016506129  0.016213067           26 
 2717000   0.81707606   -7.8962519    538.09872  0.016504071  0.016206757           12 
 2718000   0.81189903   -7.8898772    539.04294  0.016526948  0.016200462           17 
 2719000   0.80698255   -7.9037271    539.19287  0.016525465  0.016194159           27 
 2720000   0.81802926   -7.8719662    540.11568  0.016547662  0.016187874           22 
 2721000   0.82181429   -7.9143309    538.45312  0.016490663  0.016181583           16 
 2722000   0.84349343   -7.8940758    537.94211   0.01646896  0.016175246           12 
 2723000   0.82408962   -7.8893353    538.63758  0.016484196  0.016168928            9 
 2724000   0.81468814   -7.8978474    538.52802  0.016474793   0.01616263           10 
 2725000   0.82817154   -7.8815537    538.72004  0.016474619  0.016156323           14 
 2726000   0.80450926    -7.905658    538.78736  0.016470633   0.01615002           19 
 2727000   0.81034435   -7.8815384    538.77953  0.016464354  0.016143717           13 
 2728000       0.8324   -7.9066005     539.0899    0.0164678  0.016137433            7 
 2729000   0.81318656   -7.9016201    539.19714   0.01646504  0.016131173           15 
 2730000    0.8089143   -7.8737801    540.39176  0.016495475  0.016124935           12 
 2731000   0.81561998   -7.8644457    539.75348  0.016469958  0.016118716           16 
 2732000   0.81390052   -7.8613721    539.94357  0.016469728  0.016112506            5 
 2733000   0.82115847   -7.8511549    539.80917  0.016459604   0.01610629           20 
 2734000   0.81934966   -7.8731045    540.52331  0.016475351  0.016100065            4 
 2735000   0.81638344   -7.8571516    539.97513  0.016452624  0.016093848            7 
 2736000    0.8165933   -7.8584281    539.70655   0.01643843  0.016087658            9 
 2737000   0.82322569   -7.8484604    539.49487  0.016425979  0.016081465           11 
 2738000   0.80078361   -7.8934024    539.59702  0.016423089  0.016075243            5 
 2739000   0.82064103   -7.8537262    539.70291  0.016420315  0.016069015           12 
 2740000   0.81988765    -7.887571     540.2645  0.016431402  0.016062793           11 
 2741000   0.80618773   -7.8907813     538.6602  0.016376633  0.016056578           10 
 2742000   0.80539161   -7.9154926    538.43407  0.016363788  0.016050347           23 
 2743000   0.81866285   -7.9007983    538.40316  0.016356883  0.016044121           12 
 2744000   0.80011177    -7.923054    539.28343  0.016377655  0.016037887           12 
 2745000    0.8033668   -7.8775511    540.71393  0.016415116  0.016031663           10 
 2746000   0.81954423   -7.9207542    539.90037  0.016384449   0.01602543           27 
 2747000    0.8121611   -7.9514138     537.7248  0.016312486  0.016019203           27 
 2748000   0.81865618   -7.9483201    539.70237   0.01636652  0.016012926           29 
 2749000   0.81919114   -7.9251998    539.03524  0.016340343  0.016006644           31 
 2750000   0.79887543   -7.9081155    539.79114  0.016357307  0.016000376           23 
 2751000   0.78741061   -7.8984259    538.63234  0.016316259  0.015994131           24 
 2752000    0.8192036    -7.887477    539.24948  0.016329018  0.015987901           19 
 2753000   0.79682946   -7.9327783    539.24667  0.016323001  0.015981652           33 
 2754000   0.81382083   -7.8724628    539.47941  0.016324117  0.015975407           35 
 2755000   0.79342534   -7.9159936    539.05889  0.016305472  0.015969179           18 
 2756000   0.80322334   -7.8994162    539.81583  0.016322443  0.015962937           16 
 2757000   0.81239598   -7.9132697    540.09769  0.016325042  0.015956708           12 
 2758000   0.81729299   -7.9064243     539.3046   0.01629516  0.015950468           11 
 2759000   0.83411212   -7.8962114    540.27787   0.01631865   0.01594424            7 
 2760000   0.80821315   -7.9108595    540.67969   0.01632487  0.015938019            8 
 2761000     0.798102   -7.8793608    538.91841  0.016265798  0.015931802           17 
 2762000   0.81071434   -7.8686548    541.15089  0.016327266  0.015925614           24 
 2763000   0.80093565   -7.9051784    539.55904  0.016273345  0.015919419           27 
 2764000   0.79981579    -7.884312    540.05403  0.016282382  0.015913209           11 
 2765000    0.8001164   -7.8963568     540.0526   0.01627645  0.015907008           15 
 2766000   0.81184539   -7.9241364    537.49299   0.01619345  0.015900811           14 
 2767000   0.81802543   -7.9015664    540.95451  0.016291848   0.01589463           13 
 2768000   0.82581751   -7.9277166    540.47642  0.016271569  0.015888441           12 
 2769000   0.79971359   -7.9034752    540.16306  0.016256262  0.015882253           14 
 2770000    0.7927291   -7.9125564    539.89175  0.016242231  0.015876072           14 
 2771000   0.80190681    -7.928125      539.116   0.01621304  0.015869894           18 
 2772000   0.80337407   -7.8813808    540.78438  0.016257347  0.015863718           36 
 2773000   0.81407757   -7.9293283    538.56478  0.016184781  0.015857502           13 
 2774000   0.81489952   -7.9134232    540.53649  0.016238179  0.015851303           11 
 2775000   0.80686216   -7.9244866     539.9598  0.016215009  0.015845151           11 
 2776000   0.81210959   -7.9284602    539.35816  0.016191107  0.015839004           14 
 2777000   0.78696407   -7.8728499    540.96097  0.016233375  0.015832846           13 
 2778000   0.80890899   -7.8941114     539.7039  0.016189822  0.015826684           25 
 2779000    0.7957159   -7.9167274    539.58069  0.016180301   0.01582052           23 
 2780000   0.78110171   -7.8831429    541.94125  0.016245241  0.015814387           32 
 2781000   0.82307073   -7.8690461    540.79726   0.01620512  0.015808267           24 
 2782000    0.8200016   -7.8706709    541.49789  0.016220282  0.015802169           24 
 2783000   0.81243356   -7.9033388    541.51836  0.016215067  0.015796079           18 
 2784000   0.81192746   -7.9282487    540.18714  0.016169395  0.015789977           28 
 2785000   0.78576181   -7.9303858    539.77014  0.016151111   0.01578385           10 
 2786000   0.79781124   -7.9294986     540.4014  0.016164196  0.015777691           25 
 2787000   0.81584689   -7.9292572    541.01446  0.016176727  0.015771548           28 
 2788000   0.80307133   -7.9075458    540.37207  0.016151724  0.015765393           19 
 2789000   0.79773379   -7.9376909    541.05295  0.016166277  0.015759226           15 
 2790000    0.7977134   -7.9206319    540.19661  0.016134905   0.01575309            9 
 2791000     0.813328   -7.9351504    539.88618  0.016119855  0.015746944           17 
 2792000   0.81590302   -7.9322309    539.02243  0.016088301  0.015740793           11 
 2793000   0.79658604   -7.9022852     540.5101  0.016126927  0.015734706           25 
 2794000    0.8140289   -7.9106777    540.92328  0.016133479  0.015728595           15 
 2795000   0.79556572   -7.9327806    540.58285  0.016117556  0.015722483           20 
 2796000   0.80983141   -7.9153314    540.78383  0.016117782  0.015716378           19 
 2797000   0.80350543   -7.9241716    541.59277  0.016136121  0.015710264           12 
 2798000   0.79073818   -7.9462308    539.26466  0.016061016  0.015704128           23 
 2799000   0.80621836   -7.9429057    539.47231   0.01606146  0.015697995           14 
 2800000   0.79285474    -7.929935    540.59182  0.016089042  0.015691823            6 
 2801000   0.80204776   -7.9308003    538.34887  0.016016567  0.015685653           18 
 2802000   0.79869819   -7.9444973    541.28564  0.016098193  0.015679517           39 
 2803000   0.78451202   -7.9337319    540.26792  0.016062193  0.015673357           15 
 2804000   0.80885978    -7.952072     538.9283  0.016016652  0.015667195           21 
 2805000   0.81479613   -7.9554464    539.78293  0.016036332  0.015661031           18 
 2806000   0.78877256   -7.9535351    539.09053  0.016010054  0.015654866           11 
 2807000   0.80422446   -7.9611104    539.71261  0.016022818  0.015648726           12 
 2808000   0.78718978   -7.9245137    540.08752  0.016028238  0.015642593            9 
 2809000   0.81823419   -7.9630026    539.34841  0.016000605  0.015636459           15 
 2810000   0.79748228   -7.9127748    541.07715  0.016046179  0.015630352           14 
 2811000   0.80543933   -7.9600315    540.12628  0.016012282   0.01562421           14 
 2812000   0.81187696   -7.9681586    539.69529  0.015993815  0.015618057           14 
 2813000   0.81029908   -7.9808224    539.75087  0.015989776  0.015611899           13 
 2814000   0.78991385   -7.9586917    539.89292    0.0159883  0.015605748           16 
 2815000   0.80586882   -7.9521486     540.0374  0.015986898  0.015599583           12 
 2816000   0.80880721   -7.9689211    540.50179  0.015994963   0.01559343           13 
 2817000   0.79267635   -7.9635433    540.18359  0.015979872  0.015587283           15 
 2818000   0.79950605   -7.9598575    539.24462  0.015946434   0.01558114           17 
 2819000   0.81020504   -7.9505293    540.33754  0.015973086  0.015574986           23 
 2820000   0.80821655   -7.9504855    540.12533   0.01596115  0.015568868           29 
 2821000   0.80919968   -7.9454077    540.58633  0.015969111  0.015562772           12 
 2822000   0.79743191   -7.9699668    539.54041  0.015932566  0.015556641           11 
 2823000   0.78536002   -7.9620474    540.52137  0.015955879  0.015550528           17 
 2824000   0.80892714   -7.9418565    540.28274  0.015943187  0.015544425           15 
 2825000   0.80307224   -7.9501506    540.63888   0.01594805  0.015538331           25 
 2826000   0.79869541   -7.9679781    540.12539  0.015927264  0.015532238           19 
 2827000   0.80518697   -7.9351182    539.59886  0.015906109  0.015526149           15 
 2828000   0.80478583   -7.9537165    540.22449  0.015918921  0.015520045           15 
 2829000   0.79705178   -7.9709669    541.26647  0.015943987   0.01551394           18 
 2830000   0.80027383   -7.9252683    540.19437  0.015906784  0.015507868           21 
 2831000   0.80250782   -7.9499521    541.37915   0.01593604  0.015501801           18 
 2832000   0.79895193     -7.92498    540.70426  0.015910554  0.015495726           21 
 2833000   0.81777203    -7.936793    540.62267  0.015902538  0.015489672           17 
 2834000   0.78819936   -7.9571228    540.28676  0.015887049  0.015483619            9 
 2835000   0.78762628   -7.9338567    540.63816  0.015891774  0.015477558           17 
 2836000   0.77965476    -7.964579    541.01029  0.015897105  0.015471506           26 
 2837000   0.81978238    -7.945753    540.52972  0.015877386   0.01546546           12 
 2838000   0.78436711   -7.9422436    541.32306  0.015895086  0.015459433           28 
 2839000   0.78373277   -7.9160296     541.5817  0.015897079  0.015453393           14 
 2840000   0.80407895   -7.9524855     541.7609   0.01589674  0.015447347           29 
 2841000   0.79099738   -7.9114943    542.50943  0.015913101  0.015441304           16 
 2842000    0.8067442     -7.95986    541.95906  0.015891363  0.015435284           21 
 2843000   0.78253942   -7.9323051    540.71239  0.015849232  0.015429271           12 
 2844000   0.80212714   -7.9346182     541.8234  0.015876213  0.015423249           10 
 2845000   0.79117459   -7.9049975    541.74478   0.01586833  0.015417226            7 
 2846000    0.8064951   -7.9540595    541.92178  0.015867937  0.015411204            9 
 2847000   0.80357292   -7.9421813    541.79822  0.015858747  0.015405198           31 
 2848000   0.79401253   -7.9520384    540.79111   0.01582371  0.015399174           29 
 2849000   0.80185335   -7.9433211    541.74403  0.015846029  0.015393156           35 
 2850000   0.79041318   -7.9497678    540.32117  0.015798865  0.015387148           25 
 2851000   0.77268745   -7.9751098    540.24095  0.015790978  0.015381127           11 
 2852000   0.80364907   -7.9268678    542.23504  0.015843707  0.015375094           13 
 2853000   0.78966465   -7.9746069    541.38133  0.015813218  0.015369084            8 
 2854000   0.78753922   -7.9771258    541.16924  0.015801484  0.015363041           17 
 2855000   0.79297133   -7.9682169    541.14504  0.015795244   0.01535703           21 
 2856000   0.78915349   -7.9732049    539.39728  0.015738716  0.015350998           21 
 2857000   0.78617498   -7.9446921    541.25976  0.015787533  0.015344947           14 
 2858000   0.78870216   -7.9804356     541.1649  0.015779243  0.015338925           15 
 2859000   0.78088942   -7.9250011    542.17536  0.015803176   0.01533291            9 
 2860000   0.79420374   -7.9726377    540.55718  0.015750501   0.01532689           12 
 2861000    0.7921016   -7.9306472    540.83026  0.015752949   0.01532085           15 
 2862000   0.78832981   -7.9309502    542.02946  0.015782363   0.01531483           16 
 2863000   0.81086702   -7.9507635    540.67325  0.015737375  0.015308802           19 
 2864000   0.79906651   -7.9498818    541.73191  0.015762683   0.01530279           10 
 2865000   0.80217782     -7.95481    541.18346  0.015741229  0.015296787           27 
 2866000   0.80594331   -7.9517091    542.55314  0.015775562  0.015290784           13 
 2867000    0.7998592   -7.9695051    541.36778  0.015735606  0.015284806           15 
 2868000   0.80286742   -7.9488884    542.29451  0.015757046  0.015278826           19 
 2869000   0.81299784   -7.9198869     542.1872  0.015748437  0.015272839            7 
 2870000   0.79416657   -7.9350286    541.45748  0.015721762   0.01526686           14 
 2871000   0.80349431   -7.9427372    542.00875  0.015732287  0.015260878           11 
 2872000   0.79397254   -7.9499353    541.81234   0.01572111  0.015254915           24 
 2873000   0.78008817    -7.947384    540.81585  0.015686734  0.015248954           20 
 2874000   0.81282306   -7.9410652    542.16247  0.015720322  0.015243018           35 
 2875000   0.80574091   -7.9900012    541.43715  0.015693831  0.015237057           20 
 2876000   0.79145191   -7.9905337    541.95723  0.015703443  0.015231068           23 
 2877000   0.78989444   -7.9652838    542.49787  0.015713645  0.015225071           19 
 2878000   0.79524139   -7.9805759    541.54303  0.015680537  0.015219079           26 
 2879000   0.81129089   -7.9863587    540.33241  0.015640049  0.015213106           23 
 2880000   0.80625533   -7.9599086    541.19028  0.015659441  0.015207133           22 
 2881000   0.78343751   -7.9586562    542.71033  0.015697973  0.015201203           26 
 2882000   0.79309977   -7.9459795    542.51569  0.015686898  0.015195279           23 
 2883000   0.79328464   -7.9885618    541.76254  0.015659687  0.015189355           33 
 2884000   0.79050215   -7.9794512    541.11072  0.015635423  0.015183405           18 
 2885000   0.78997323   -7.9585785    541.15223  0.015631203  0.015177473           22 
 2886000   0.80216912   -7.9785896    541.83864  0.015645606  0.015171579           32 
 2887000   0.80453321   -7.9529081    541.03953  0.015617121  0.015165654           24 
 2888000    0.8060924   -7.9918896    541.92781  0.015637344  0.015159745           23 
 2889000    0.8007236   -7.9590297    542.37255   0.01564476  0.015153835           24 
 2890000    0.7946651   -7.9662767    542.53759  0.015644106  0.015147933           22 
 2891000    0.8079233   -7.9665905     541.8604  0.015619175  0.015142036           11 
 2892000   0.80155902   -7.9831385    541.09691  0.015591774  0.015136119           39 
 2893000   0.78845167   -7.9762836    542.86951  0.015637444  0.015130189           19 
 2894000   0.80553188   -7.9916104    542.56034  0.015623138  0.015124252           31 
 2895000   0.79056906   -7.9716656    542.03529  0.015602628  0.015118317           54 
 2896000   0.79191886   -7.9745514    542.05157  0.015597709  0.015112427           58 
 2897000    0.7846782   -7.9822307    541.59328  0.015579142  0.015106515           46 
 2898000    0.7863827   -7.9871462    541.92389  0.015583273   0.01510061           37 
 2899000   0.79564372   -7.9794707     541.8998  0.015577205  0.015094714           39 
 2900000   0.79442784   -7.9867586    540.46478  0.015530597  0.015088822           29 
 2901000   0.77660666   -8.0167388    541.49582  0.015554861  0.015082907           44 
 2902000    0.7871112   -7.9716518    540.90447   0.01553252  0.015076991           49 
 2903000   0.78979086   -8.0041559    540.64563  0.015519739  0.015071109           41 
 2904000   0.78080589   -7.9746169    542.68277  0.015572853  0.015065216           39 
 2905000   0.77766706   -7.9904362    540.97767  0.015518579  0.015059341           35 
 2906000   0.77889587   -7.9867361    542.27118  0.015550332  0.015053446           41 
 2907000    0.7814653   -7.9661344    543.69419  0.015585775  0.015047593           40 
 2908000   0.78134153   -7.9565303    543.27224  0.015568324  0.015041709           54 
 2909000   0.78075653   -7.9617658    542.78074  0.015548893  0.015035854           52 
 2910000   0.77696268   -8.0005418    541.54274  0.015508097  0.015029972           41 
 2911000    0.7972534   -7.9593292     541.9409  0.015514168  0.015024084           42 
 2912000   0.79006271   -7.9263259    543.70193  0.015559236   0.01501823           32 
 2913000   0.78242753   -8.0103455    540.44259  0.015460653  0.015012363           40 
 2914000   0.78744325   -8.0072654     541.9922  0.015499662  0.015006477           26 
 2915000   0.79270316   -7.9899211    543.68784   0.01554282  0.015000595           28 
 2916000    0.7859069   -7.9858688    542.13661  0.015493159  0.014994742           48 
 2917000    0.7911322   -7.9920613    542.32839  0.015493326  0.014988876           61 
 2918000   0.77418396   -8.0196464    542.39211  0.015489836  0.014982996           70 
 2919000   0.78074909   -7.9903806    541.93218  0.015471399  0.014977125           67 
 2920000   0.77221545   -8.0175982    542.39128  0.015479203   0.01497125           58 
 2921000   0.78655245   -8.0160782     541.4375  0.015446693  0.014965364           82 
 2922000   0.78752184   -8.0405428    540.90978  0.015426357  0.014959486           73 
 2923000   0.77412163   -7.9851934    542.21495  0.015458289  0.014953587          111 
 2924000   0.78170377   -8.0039537    542.48669  0.015460747  0.014947688           54 
 2925000   0.79286155   -8.0350247    541.52954  0.015428192  0.014941771           48 
 2926000   0.77196154   -8.0026319    541.77561  0.015429927  0.014935886           43 
 2927000   0.77514002   -8.0352197    541.07931  0.015404832  0.014929989           65 
 2928000   0.77847151   -8.0084395    541.58496  0.015413962  0.014924098           66 
 2929000   0.78264509   -8.0305585    540.38031  0.015374426    0.0149182           50 
 2930000   0.77333772   -8.0199048    541.02168   0.01538742  0.014912301           38 
 2931000   0.78367766    -8.021549     541.3222  0.015390714  0.014906426           44 
 2932000   0.78462801   -8.0090381    542.35412  0.015414794  0.014900566           55 
 2933000     0.775803     -7.99537    541.49767  0.015385205  0.014894698           54 
 2934000    0.7900837     -8.01228    541.72576  0.015386439  0.014888852           38 
 2935000   0.76992393   -7.9889302    542.58083  0.015405475   0.01488299           36 
 2936000   0.76831452   -8.0143958    542.42972  0.015395939  0.014877146           61 
 2937000   0.77707236   -7.9745396    542.41329  0.015390231  0.014871295           57 
 2938000    0.7984187   -7.9820801    541.50172  0.015359137  0.014865457           26 
 2939000   0.78108972   -7.9901515    542.78271  0.015390232  0.014859608           51 
 2940000   0.78983508   -8.0023399    542.13873  0.015366744  0.014853768           21 
 2941000   0.78643736    -7.999498    541.41641  0.015341052   0.01484792           54 
 2942000      0.79862   -8.0206098    540.88547  0.015320798  0.014842075           23 
 2943000   0.77661168   -8.0153734    542.13557   0.01535099  0.014836213           61 
 2944000   0.76947369   -8.0071776    541.99906  0.015341912  0.014830341           62 
 2945000   0.78699464   -8.0134155    542.31907  0.015345757  0.014824475           61 
 2946000   0.77265711   -8.0286718    542.17535  0.015336483  0.014818615           52 
 2947000   0.78995682   -8.0079355    541.51382  0.015312573  0.014812758           74 
 2948000   0.76825459   -8.0292663    541.32183  0.015301951  0.014806889           53 
 2949000   0.78059684   -8.0159651    541.74504  0.015308721  0.014801035          115 
 2950000   0.79911758   -8.0380938    541.15622  0.015286899  0.014795197          107 
 2951000   0.78214593   -8.0258942    541.91601  0.015303174  0.014789351           61 
 2952000   0.78073095   -8.0024914    541.85482  0.015296263  0.014783544           80 
 2953000   0.78129314   -8.0281135    542.37451  0.015305749   0.01477772           74 
 2954000   0.78377271   -8.0239208    541.76912  0.015283489  0.014771904           42 
 2955000   0.76873856   -8.0034383    541.23532  0.015263263  0.014766077           73 
 2956000   0.79875718   -8.0453489    541.26304  0.015258882  0.014760236           32 
 2957000   0.77284351   -8.0349847    542.21036  0.015280418  0.014754388           32 
 2958000      0.76429   -8.0547269    540.38652  0.015223871   0.01474853           43 
 2959000   0.78788586   -8.0537447    542.27088  0.015271794  0.014742668           92 
 2960000   0.78389642   -8.0710714    540.93302   0.01522897  0.014736823           95 
 2961000   0.76773007   -8.0549091    541.52955  0.015240616  0.014730951           84 
 2962000   0.76453608    -8.051912     541.8803  0.015245338  0.014725064           83 
 2963000   0.78609104   -8.0566168    541.01555  0.015215872  0.014719196           85 
 2964000   0.77435509   -8.0448889    540.18967  0.015187519  0.014713326          109 
 2965000   0.76716984   -8.0529114    541.32912  0.015214422  0.014707446           76 
 2966000   0.77158471   -8.0405165     541.2285  0.015206465  0.014701582           71 
 2967000   0.76931926   -8.0283503    541.59726  0.015211697  0.014695734          100 
 2968000   0.78013734    -8.085494    540.18154  0.015166822  0.014689873           76 
 2969000   0.76461527   -8.0356073    541.96288  0.015211712  0.014684006           71 
 2970000   0.77838504   -8.0820552    541.00941  0.015179838  0.014678141          138 
 2971000   0.77909385   -8.0849624    540.16154  0.015150946  0.014672273          111 
 2972000   0.77541493   -8.0431238    540.65707  0.015159743  0.014666413           94 
 2973000   0.78669373   -8.0679235    539.85692  0.015132216  0.014660554           94 
 2974000   0.79934687   -8.0452562     541.7375  0.015179822  0.014654707          118 
 2975000   0.75919496   -8.0371556    540.31419  0.015134851  0.014648862          108 
 2976000    0.7776995   -8.0338053    541.56654  0.015164834  0.014643031          123 
 2977000   0.77930585   -8.0703682    541.24973  0.015150871  0.014637186          103 
 2978000   0.76312276   -8.0473018    541.51591  0.015153232  0.014631366          126 
 2979000   0.78388037   -8.0417514    541.06092  0.015135418  0.014625555          120 
 2980000   0.77475176   -8.0428856    541.74569  0.015149488   0.01461973           78 
 2981000   0.77315699   -8.0634165    540.76064  0.015116869  0.014613915          124 
 2982000   0.77767543   -8.0577724    541.99977  0.015146428  0.014608093           92 
 2983000   0.79468769   -8.0567691    541.22784  0.015119785  0.014602274          124 
 2984000   0.76360675   -8.0357329    541.18902  0.015113634  0.014596471          180 
 2985000   0.77298757   -8.0368029    541.82953  0.015126453  0.014590673          130 
 2986000   0.76274669   -8.0630727    541.48415  0.015111748  0.014584863          128 
 2987000   0.77377874   -8.0394602    541.59422  0.015109759   0.01457905          157 
 2988000   0.78101855   -8.0803502    540.80579  0.015082714  0.014573235          187 
 2989000   0.76138318   -8.0769958    541.55741  0.015098623  0.014567444          211 
 2990000   0.78921716   -8.0456823    541.63519  0.015095741  0.014561657          170 
 2991000   0.76878505   -8.0491841    541.84086  0.015096424  0.014555845          229 
 2992000   0.77484964   -8.0639298    541.48852  0.015081565  0.014550019          148 
 2993000   0.77892163   -8.1035476    540.09329  0.015037679  0.014544193          149 
 2994000   0.77851683   -8.1306739     539.2547  0.015009316  0.014538374          166 
 2995000   0.77670712   -8.0812159    540.92944  0.015050903  0.014532542          161 
 2996000   0.78070479   -8.0959473    539.97224  0.015019255    0.0145267          188 
 2997000   0.76800852   -8.0748613    540.76558  0.015036302  0.014520877          307 
 2998000    0.7817416   -8.1206245    539.63729  0.014999925  0.014515047          193 
 2999000   0.79362537   -8.0919634    540.78912  0.015026929  0.014509218          314 
 3000000   0.78454122   -8.0873769    540.16662  0.015004628  0.014503397          288 
 3001000   0.77060241   -8.1305933     539.3631  0.014977316  0.014497573          348 
 3002000   0.75631322   -8.0804676    541.04244  0.015018944  0.014491741          354 
 3003000   0.76719868   -8.1032303    539.73395  0.014977632  0.014485913          368 
 3004000   0.76304331   -8.0936549    541.29229  0.015015876    0.0144801          334 
 3005000   0.77935986   -8.1073032    539.68218  0.014966228  0.014474293          465 
 3006000   0.77553712   -8.0735262    540.79827   0.01499219  0.014468491          364 
 3007000   0.75973255    -8.105394     540.6427  0.014982893  0.014462679          228 
 3008000   0.76205385   -8.0800989    540.42241  0.014971809  0.014456872          179 
 3009000   0.77054713   -8.0567181    541.78887  0.015004677  0.014451084          202 
 3010000   0.78329455   -8.1273797    539.78158  0.014944119  0.014445287          208 
 3011000   0.77055329   -8.1201387    541.69876  0.014992216  0.014439495          355 
 3012000   0.80735669   -8.1010236    539.85663  0.014936272  0.014433706          235 
 3013000   0.75353861   -8.1114392    541.65833  0.014981147  0.014427902          380 
 3014000   0.77896827   -8.0654191    542.40369  0.014996784   0.01442212          402 
 3015000   0.77328837   -8.1013149    540.84911  0.014948842  0.014416345          520 
 3016000   0.75813744   -8.1126961    540.57698  0.014936367  0.014410563          224 
 3017000   0.76427213   -8.1096039    540.40044  0.014926539   0.01440479          228 
 3018000    0.7677919   -8.0735191    541.04642  0.014939431  0.014399027          350 
 3019000   0.77609001   -8.1031996    541.20464   0.01493885  0.014393268          361 
 3020000   0.78153362   -8.1015922     540.8102  0.014923019  0.014387493          311 
 3021000   0.76395926   -8.0861043    540.63082  0.014913131  0.014381719          306 
 3022000   0.76228173    -8.104138    541.16099  0.014922816  0.014375936          254 
 3023000   0.76010672   -8.1233794    541.15611  0.014917745  0.014370169          400 
 3024000   0.74909024   -8.1104897    540.85192  0.014904429  0.014364407          432 
 3025000    0.7639865   -8.1057905    540.12836  0.014879569  0.014358648          361 
 3026000   0.78608287   -8.1132067    540.54461  0.014886115  0.014352888          401 
 3027000   0.75479074   -8.1232519    540.64699  0.014884016  0.014347129          401 
 3028000   0.78005869     -8.09645    539.11669  0.014836985  0.014341375          482 
 3029000   0.75735812   -8.1360325    539.41664  0.014840339  0.014335592          278 
 3030000   0.75638061   -8.1337993    540.49293  0.014865042  0.014329824          467 
 3031000   0.76463135   -8.0985081    541.14438  0.014878049  0.014324062          304 
 3032000   0.76812472   -8.1269703    541.02191  0.014869775  0.014318308          281 
 3033000   0.78070109   -8.1294896    539.73165  0.014829422  0.014312547          338 
 3034000   0.75699825   -8.1278632    540.14792  0.014835968  0.014306789          317 
 3035000   0.76549112   -8.0841105    541.56697  0.014870043  0.014301032          462 
 3036000   0.74906204   -8.1452036    540.12383  0.014825533  0.014295265          568 
 3037000    0.7591401     -8.11154    540.45031   0.01482961  0.014289492          276 
 3038000   0.76676201   -8.0844147    540.59636  0.014828735  0.014283747          606 
 3039000   0.77373705   -8.0837853    540.93909  0.014833254   0.01427801          270 
 3040000   0.75892549    -8.099377      540.978  0.014829441  0.014272273          619 
 3041000   0.75609943   -8.1009227    540.21933  0.014803774  0.014266541          648 
 3042000   0.74231111   -8.1306793    541.06669   0.01482212  0.014260808          286 
 3043000   0.76460416   -8.1035908    540.80292  0.014810026  0.014255058          448 
 3044000   0.75855023   -8.1281574    540.84442  0.014806297  0.014249319          659 
 3045000   0.75768415   -8.1059581    541.53035  0.014820207  0.014243567          309 
 3046000   0.77609109   -8.1410738    540.17759  0.014778332  0.014237858          324 
 3047000   0.76774306   -8.1148233    539.49594  0.014754839   0.01423214          485 
 3048000   0.75570963   -8.1137323    540.50895  0.014777694  0.014226404          409 
 3049000   0.76787169    -8.111419    539.98987  0.014758661  0.014220686          324 
 3050000   0.76140566   -8.1169918    540.63264  0.014771384  0.014214965          511 
 3051000   0.75764801   -8.1205907    540.12864  0.014752776  0.014209212          826 
 3052000   0.76255808   -8.1398194    541.10392  0.014774572  0.014203466          700 
 3053000   0.74848078   -8.1499281    541.44134  0.014778942  0.014197704          534 
 3054000   0.75857818   -8.1864579    539.45599   0.01471993  0.014191955          810 
 3055000   0.77051261   -8.1575353    540.09486  0.014732538  0.014186206          799 
 3056000   0.75828349    -8.156732    538.37978   0.01468095  0.014180451          797 
 3057000   0.75023708     -8.15492    539.05801  0.014694635  0.014174692          819 
 3058000   0.76846035   -8.1441561    539.14598  0.014692227   0.01416892          776 
 3059000   0.74883372   -8.1740242    538.50034  0.014669836  0.014163158          535 
 3060000   0.76442311     -8.18865    538.96098  0.014677587  0.014157382          896 
 3061000   0.76207639   -8.1867547    538.75146  0.014667088  0.014151625          353 
 3062000   0.75214514   -8.1590404    539.19721  0.014674429  0.014145864          815 
 3063000   0.75984598   -8.1583285    539.22415  0.014670371  0.014140118          856 
 3064000    0.7534563   -8.1137823     539.7802  0.014680706  0.014134386          393 
 3065000    0.7658346   -8.1672535    539.68046  0.014673204   0.01412864          925 
 3066000   0.76057571   -8.1789536    538.99489  0.014649785  0.014122879          952 
 3067000   0.75968771   -8.1744986    538.96909  0.014644307  0.014117116          960 
 3068000   0.78538248   -8.1636725    539.32407  0.014649176  0.014111344          965 
 3069000   0.75360003   -8.1740558    539.30109  0.014643779  0.014105587          894 
 3070000    0.7572093   -8.1937404    538.66608  0.014621772  0.014099839         1016 
 3071000   0.75443954   -8.1984809    539.62918  0.014643145  0.014094073          982 
 3072000   0.76059051   -8.1746452     539.4635  0.014633884  0.014088327          937 
 3073000   0.75101563    -8.213478    537.36227  0.014572141  0.014082566          984 
 3074000   0.76931203   -8.1894891    538.54961  0.014599588   0.01407681         1015 
 3075000    0.7640574   -8.1935364    538.18782  0.014585036  0.014071072         1005 
 3076000   0.76111775   -8.1694458    538.76255  0.014595864  0.014065311         1024 
 3077000    0.7556582   -8.2098418    538.24196  0.014577022   0.01405956         1012 
 3078000   0.75430668   -8.2093241     538.2664  0.014572948  0.014053807          958 
 3079000   0.74495827   -8.1791032    539.02177  0.014588659  0.014048052          952 
 3080000   0.76969534   -8.2343356    537.26855  0.014536487  0.014042305          902 
 3081000   0.76624741   -8.1756047    539.18151  0.014583509  0.014036572          588 
 3082000    0.7522999   -8.2231613     536.9517  0.014518486  0.014030841          634 
 3083000   0.73821199   -8.2242426    538.19143  0.014547287  0.014025096          943 
 3084000   0.76205414   -8.2013778    537.31735  0.014518951  0.014019344          926 
 3085000   0.73912512   -8.1584318    539.60209  0.014575961  0.014013619          932 
 3086000   0.75153822   -8.2087213    538.88481  0.014551869  0.014007903          905 
 3087000   0.75357018   -8.1828443    539.33312  0.014559257  0.014002177          941 
 3088000   0.75013453    -8.178858     538.6234   0.01453539  0.013996445         1019 
 3089000   0.76321083    -8.204881    538.66004  0.014531672  0.013990714         1064 
 3090000   0.76348794   -8.1752484    539.11943  0.014539359  0.013984982         1063 
 3091000    0.7585046   -8.2024165     539.0877    0.0145338  0.013979259         1063 
 3092000   0.74025491    -8.176915    538.20756  0.014505378  0.013973518         1004 
 3093000    0.7655348    -8.196035    538.84283  0.014517804  0.013967792         1077 
 3094000   0.76005324    -8.222695    538.18252  0.014495327  0.013962064         1010 
 3095000   0.75184159   -8.2024454    539.76372  0.014533218  0.013956313         1005 
 3096000   0.75084944    -8.225563    537.90823  0.014478581   0.01395059         1074 
 3097000   0.72352347   -8.2146687    538.05413  0.014477832  0.013944853         1094 
 3098000   0.75678395   -8.2200906    538.53422  0.014486072  0.013939123         1049 
 3099000   0.75026408   -8.2194556    538.03246  0.014467905  0.013933405         1045 
 3100000   0.75173594    -8.252782    537.79969  0.014456981  0.013927686         1070 
 3101000   0.75879921   -8.2207081    539.37292  0.014494596  0.013921961          669 
 3102000   0.75633883   -8.2427879    537.86966   0.01444954  0.013916226         1110 
 3103000     0.748792   -8.2033714     537.7742  0.014442319  0.013910501         1185 
 3104000   0.77180543   -8.2487424    538.35092   0.01445315  0.013904771         1168 
 3105000   0.77708634   -8.2607681     536.7047  0.014404313  0.013899054         1194 
 3106000   0.74269265   -8.2280659    538.37869  0.014444588  0.013893343         1163 
 3107000   0.75561957   -8.2521604    538.06989  0.014431657  0.013887629         1216 
 3108000   0.74107709   -8.2430695     537.2046  0.014403813  0.013881908         1282 
 3109000   0.74791613   -8.2276334    537.31928  0.014402254  0.013876188         1274 
 3110000   0.74776657   -8.2076677    537.36185  0.014398763  0.013870472         1233 
 3111000   0.75899163   -8.2515522    537.96972  0.014410418  0.013864755         1202 
 3112000   0.74370922   -8.2511004     537.3577  0.014389399   0.01385903         1314 
 3113000   0.74545398    -8.235482    538.01951  0.014402492  0.013853294         1353 
 3114000   0.75456283   -8.2534019    537.00559  0.014370734  0.013847566         1394 
 3115000   0.74940122   -8.2425859    538.12687  0.014396118  0.013841819         1326 
 3116000    0.7331822   -8.2719786    536.39731  0.014345243  0.013836081         1339 
 3117000   0.74315916   -8.2262214    537.55964  0.014371715  0.013830342         1359 
 3118000   0.75920392    -8.254455    537.28764  0.014359837  0.013824601         1397 
 3119000   0.76412115   -8.2362232    537.53739  0.014361905  0.013818885         1387 
 3120000    0.7680817   -8.2904526    535.58199  0.014305075  0.013813158         1366 
 3121000   0.75042154   -8.2476935      538.268   0.01437221   0.01380742         1413 
 3122000   0.73867077   -8.2634561    536.89541  0.014330969  0.013801695         1316 
 3123000   0.74559889    -8.267741    537.73266  0.014348721  0.013795972         1423 
 3124000    0.7461068   -8.2537577    538.59184  0.014367046  0.013790248         1411 
 3125000   0.73430179   -8.2860846     536.2977  0.014301272  0.013784522         1467 
 3126000   0.75912185   -8.2614918    536.77931  0.014309536  0.013778805         1371 
 3127000   0.75525335   -8.2461429    537.66265    0.0143285  0.013773084         1475 
 3128000   0.74688912   -8.2813092    537.41837  0.014317412  0.013767359         1486 
 3129000    0.7587193   -8.2645889     537.3626  0.014311351  0.013761631         1496 
 3130000   0.74712307   -8.2501697      537.828  0.014319169  0.013755914         1371 
 3131000   0.74953669   -8.2543813    538.11306  0.014322183  0.013750215         1448 
 3132000   0.76762088   -8.2444688    538.13913  0.014318304    0.0137445         1403 
 3133000   0.76594271   -8.2783541    536.73859  0.014276481  0.013738792         1523 
 3134000   0.75401007    -8.262943    537.03968  0.014279932  0.013733066         1476 
 3135000   0.74275997   -8.2837644    536.71116  0.014266644  0.013727351         1497 
 3136000   0.74376981   -8.2737022    537.56215  0.014284708   0.01372165         1514 
 3137000   0.76137398   -8.2660322    536.30516  0.014246763  0.013715955         1450 
 3138000   0.75882629   -8.2729867    536.94343  0.014259173  0.013710258         1404 
 3139000   0.74786883   -8.2698059    536.83202  0.014251673  0.013704547         1475 
 3140000   0.75847681   -8.2911387    536.56294  0.014239993  0.013698848         1458 
 3141000     0.755325   -8.2767015    536.63111  0.014237268  0.013693143         1534 
 3142000   0.74914764   -8.2954605    537.28416  0.014250057   0.01368744         1485 
 3143000   0.74969845   -8.2987988    536.84051  0.014233761  0.013681752         1463 
 3144000    0.7406212   -8.2663141    537.33969  0.014242464  0.013676057         1467 
 3145000   0.75776642   -8.2802454    537.09301  0.014231399  0.013670378         1547 
 3146000   0.75108537   -8.2706631     536.9799   0.01422388  0.013664692         1390 
 3147000   0.76122054    -8.275503    536.62793  0.014210039  0.013659011         1461 
 3148000    0.7404103   -8.2919909    536.87736  0.014212128  0.013653324         1401 
 3149000   0.74260478   -8.2606291    537.37312  0.014220735  0.013647639         1483 
 3150000   0.76007992   -8.2905949    536.58883  0.014195472  0.013641967         1479 
 3151000   0.74369291   -8.2724701     537.0388  0.014202867  0.013636288         1445 
 3152000    0.7485138   -8.2709551    537.75537  0.014217306  0.013630625         1478 
 3153000   0.74864468   -8.3006019    536.97642  0.014192209  0.013624961         1568 
 3154000    0.7517272   -8.2847791    536.07912  0.014164001  0.013619286         1540 
 3155000    0.7469844   -8.2781608    536.79929  0.014178534  0.013613615         1477 
 3156000   0.75455584   -8.2869537    537.00152  0.014179381  0.013607944         1525 
 3157000     0.747986   -8.3033438    536.68537  0.014166545  0.013602277         1502 
 3158000   0.75844372   -8.3026158    536.57814  0.014159229  0.013596613         1536 
 3159000   0.74798436   -8.2854033    537.64197   0.01418281  0.013590954         1479 
 3160000   0.73513413   -8.2811646    536.87546  0.014158108  0.013585304         1552 
 3161000   0.73476449   -8.2785448     536.3844  0.014140683  0.013579645         1534 
 3162000   0.76035273   -8.2981719    535.63254  0.014116396  0.013573976         1533 
 3163000   0.73344305   -8.2913948    537.17484  0.014152567  0.013568316         1494 
 3164000   0.75826773   -8.2979803    536.40251  0.014127753  0.013562659         1517 
 3165000   0.74718014   -8.3134474    536.17016  0.014117171  0.013557007         1567 
 3166000   0.75237748   -8.3031974    537.27258  0.014141729  0.013551348         1587 
 3167000   0.75342669    -8.275236    536.89051   0.01412721  0.013545697         1459 
 3168000   0.74212994   -8.3045755    535.96373  0.014098372   0.01354006         1671 
 3169000   0.74326178   -8.3059793    536.78282  0.014115463   0.01353442         1545 
 3170000    0.7194066    -8.318383    536.23396  0.014096582  0.013528756         1581 
 3171000   0.74384627   -8.3020922    535.89067  0.014083114  0.013523118         1557 
 3172000   0.77334574    -8.275955    537.28743   0.01411537  0.013517482         1524 
 3173000   0.76294549    -8.299203    536.38784  0.014087295  0.013511832         1558 
 3174000   0.75089194   -8.2878706    537.09086  0.014101314  0.013506185         1659 
 3175000    0.7437464   -8.3090233    535.84805  0.014064253  0.013500535         1612 
 3176000    0.7643003   -8.2952221    535.84873  0.014059843  0.013494893         1580 
 3177000   0.73799719   -8.2889813    536.63497  0.014076041  0.013489265         1585 
 3178000   0.74847668   -8.3154004    535.74756  0.014048342  0.013483623         1577 
 3179000    0.7493093   -8.3091386    536.76866   0.01407069  0.013477969         1596 
 3180000   0.74736072   -8.2980877    536.76587  0.014066192  0.013472325         1610 
 3181000   0.74400741   -8.3012369    535.78663  0.014036116  0.013466685         1591 
 3182000   0.76114599    -8.286939    537.28841  0.014071035  0.013461053         1556 
 3183000   0.72264103   -8.2899796    536.52035  0.014046506  0.013455434         1647 
 3184000   0.74613657   -8.3387561    534.71581  0.013994865  0.013449807         1668 
 3185000   0.73304221   -8.3086375    536.10912  0.014026926  0.013444173         1625 
 3186000   0.74945008    -8.300168    535.45251  0.014005349  0.013438542         1615 
 3187000   0.74606693   -8.3012297    537.31425  0.014049635  0.013432907         1546 
 3188000    0.7555954   -8.3228015    536.27385  0.014018033  0.013427272         1718 
 3189000   0.74328321   -8.3169251    534.03276  0.013955074  0.013421634         1711 
 3190000   0.72990979   -8.3154223    536.09252  0.014004507  0.013415996         1612 
 3191000   0.74300552   -8.3177606    535.39103  0.013981799  0.013410373         1613 
 3192000    0.7608079   -8.3196373    535.26063  0.013974014  0.013404749         1722 
 3193000   0.73190526   -8.3272206    535.76328  0.013982756  0.013399116         1668 
 3194000   0.73771698   -8.3355056    535.92504  0.013982599  0.013393476         1720 
 3195000   0.75377705   -8.3499584    535.81663  0.013975395  0.013387835         1708 
 3196000   0.75097799   -8.3220444    535.44947  0.013961448  0.013382199         1683 
 3197000    0.7456935    -8.322182    534.96098  0.013944348  0.013376563         1700 
 3198000   0.72317698    -8.344196    534.88253  0.013937944  0.013370943         1752 
 3199000   0.74521399    -8.313015    536.20512   0.01396804  0.013365308         1796 
 3200000   0.74108358   -8.3422009    534.31567   0.01391447  0.013359685         1737 
 3201000   0.73380945   -8.3137916    535.74423  0.013947314  0.013354058         1672 
 3202000   0.76163013   -8.3086851    534.37942  0.013907439  0.013348438         1775 
 3203000   0.73781739    -8.322397    535.72173   0.01393802  0.013342829         1737 
 3204000   0.73619457   -8.3334134    535.22314  0.013920702  0.013337214         1743 
 3205000   0.72740277   -8.3470713    535.16697  0.013914898  0.013331591         1716 
 3206000   0.74179617   -8.3088945    535.90688   0.01392979  0.013325978         1678 
 3207000   0.74140197   -8.3192375    535.04546  0.013903063   0.01332038         1791 
 3208000   0.73315626   -8.3317231    535.76782  0.013917493  0.013314762         1741 
 3209000   0.74373814   -8.3247071    535.56236  0.013907821  0.013309147         1814 
 3210000   0.74710711   -8.3392121    535.83341  0.013910525  0.013303535         1710 
 3211000   0.74306468   -8.3540246    534.59966  0.013874174  0.013297922         1767 
 3212000   0.73652188    -8.328958     535.9156  0.013903995  0.013292301         1817 
 3213000   0.74753749   -8.3307444     535.2344     0.013882  0.013286692         1807 
 3214000   0.73222188   -8.3302456    535.23269  0.013877637  0.013281086         1759 
 3215000     0.735422   -8.3587051    535.22474  0.013873114  0.013275486         1788 
 3216000   0.74244256   -8.3543557    535.68757  0.013880793  0.013269881         1755 
 3217000   0.73598705   -8.3430708    535.90363  0.013882075  0.013264287         1759 
 3218000   0.73818875   -8.3648707    534.65754  0.013845493  0.013258679         1792 
 3219000   0.71019189   -8.3640306    534.94677  0.013848679  0.013253078         1850 
 3220000   0.73172171   -8.3402735    535.08955  0.013848073  0.013247495         1777 
 3221000   0.72778739   -8.3544663    534.48758    0.0138282  0.013241916         1804 
 3222000   0.73166853   -8.3396419    535.17253  0.013841624  0.013236335         1843 
 3223000    0.7485676   -8.3515318    534.71371  0.013825466  0.013230753         1729 
 3224000   0.74497371   -8.3314345    535.72157  0.013847228  0.013225178         1832 
 3225000   0.72877836   -8.3674313     534.9668  0.013823431  0.013219597         1921 
 3226000   0.74133564   -8.3240026    535.26295  0.013826797  0.013214026         1713 
 3227000   0.74815635   -8.3325609    535.21833   0.01382136  0.013208461         1824 
 3228000   0.75873626   -8.3601641    534.88004  0.013808345  0.013202896         1843 
 3229000    0.7306217   -8.3458107    535.51769  0.013820525  0.013197335         1866 
 3230000   0.72351269   -8.3674768    533.74227   0.01377044  0.013191764         1769 
 3231000   0.73494858   -8.3298593    535.44516  0.013810099  0.013186208         1683 
 3232000   0.74362779   -8.3508425     535.1866  0.013799159  0.013180644         1846 
 3233000    0.7319173   -8.3551298    535.54259  0.013804067  0.013175091         1785 
 3234000   0.73242704   -8.3438908    535.00407  0.013785922  0.013169529         1770 
 3235000   0.74735626   -8.3558836    534.01425  0.013756163  0.013163977         1835 
 3236000   0.74424607   -8.3366075    534.87747  0.013774142  0.013158422         1823 
 3237000    0.7368317   -8.3529836    533.68787  0.013739261  0.013152869         1832 
 3238000   0.73328527   -8.3673454     534.4938   0.01375576  0.013147312         1878 
 3239000     0.749416   -8.3511831    534.33801  0.013747505  0.013141757         1927 
 3240000   0.74360002   -8.3272729    535.45589  0.013772014  0.013136209         1797 
 3241000   0.74785365   -8.3581079    534.79503  0.013750772  0.013130668         1804 
 3242000   0.74170077   -8.3489826    533.61989  0.013716325   0.01312513         1840 
 3243000   0.72308141   -8.3464738    535.54017  0.013761439    0.0131196         1815 
 3244000   0.72363402   -8.3813626    534.39147  0.013727689  0.013114059         1830 
 3245000   0.76209393   -8.3495353    535.32294  0.013747379  0.013108528         1789 
 3246000    0.7487321   -8.3558003    534.44955  0.013720722  0.013103011         1804 
 3247000   0.74200428   -8.3464463    535.46152  0.013742468  0.013097476         1864 
 3248000   0.73502718    -8.348217    533.59756  0.013690414  0.013091952         1814 
 3249000   0.72592048   -8.3635171    534.07561  0.013698461  0.013086435         1858 
 3250000   0.72186551   -8.3436056    535.70658  0.013736066  0.013080921         1834 
 3251000   0.73484228   -8.3709732     534.3668  0.013697498  0.013075413         1926 
 3252000   0.73878502   -8.3487734    533.46463  0.013670168  0.013069891         1804 
 3253000   0.72140057   -8.3721931    534.25635  0.013686247  0.013064379         1950 
 3254000   0.73142283   -8.3546726    534.77389  0.013695295   0.01305888         1863 
 3255000   0.70955224   -8.3572993    534.66121  0.013688203  0.013053369         1881 
 3256000   0.73336413   -8.3592279    534.79985  0.013687547  0.013047861         1900 
 3257000   0.73497661   -8.3718908    534.68486  0.013680403  0.013042351         1875 
 3258000   0.73224209   -8.3669772    534.26081  0.013665357  0.013036835         1835 
 3259000    0.7384243   -8.3628346    534.77603  0.013674338  0.013031319         1850 
 3260000   0.72533573   -8.3899669    533.23822  0.013630834  0.013025811         1807 
 3261000   0.71716241   -8.3665489    534.28768  0.013653472  0.013020307         1836 
 3262000    0.7259645   -8.3978924    534.55576  0.013656135  0.013014805         1860 
 3263000   0.72929115   -8.3674811    534.36512  0.013647082  0.013009297         1890 
 3264000   0.72287253   -8.3672094    534.30597   0.01364139  0.013003799         1813 
 3265000   0.73772333   -8.3240918    534.91358   0.01365272   0.01299831         1821 
 3266000   0.71659632   -8.3735999    534.92165  0.013648746  0.012992814         1902 
 3267000   0.74057458   -8.3813094    533.41982   0.01360626  0.012987319         1876 
 3268000   0.72337186   -8.3812615    533.31833  0.013599509  0.012981826         1852 
 3269000   0.71787316    -8.364685    534.49643  0.013625381  0.012976342         1808 
 3270000   0.73028522   -8.3815841    534.23948  0.013614666  0.012970862         1917 
 3271000   0.72286461   -8.3665333    534.97408  0.013629218  0.012965376         1867 
 3272000   0.72113429   -8.3844812    534.81241  0.013620935  0.012959887         1853 
 3273000   0.71584958   -8.3934811    534.37691  0.013605686  0.012954401         1966 
 3274000   0.72601614   -8.3623975    534.04851  0.013593171  0.012948917         1848 
 3275000   0.72619383   -8.3675179    534.65587  0.013604475  0.012943442         2035 
 3276000   0.73623769   -8.3642315    534.54453   0.01359749  0.012937967         1838 
 3277000    0.7348155   -8.3744471     533.1285  0.013557331  0.012932494         1931 
 3278000    0.7311704   -8.3975335    533.26532  0.013556674   0.01292701         1892 
 3279000   0.71801766    -8.398687    533.95749   0.01357013  0.012921534         1861 
 3280000   0.72913176   -8.3912253    533.18632    0.0135464  0.012916056         1920 
 3281000   0.72502915   -8.3690979    534.15386  0.013566846   0.01291058         1834 
 3282000   0.73139474   -8.3874751    534.28201  0.013565966  0.012905108         1843 
 3283000   0.71788803   -8.3991016    534.17038     0.013559  0.012899646         1873 
 3284000   0.73460336   -8.4127031    535.28611  0.013583184  0.012894191         1839 
 3285000   0.73479684    -8.393561    533.30887  0.013528891  0.012888733         1928 
 3286000   0.73331919   -8.3864594    535.07133   0.01356947  0.012883278         1880 
 3287000   0.73279759   -8.3721792    534.97446  0.013562886  0.012877822         1842 
 3288000    0.7222256   -8.3849935    533.41827   0.01351932  0.012872371         1914 
 3289000    0.7507282   -8.3947985    535.48543  0.013567585  0.012866923         1863 
 3290000    0.7131891   -8.3903996    533.67714  0.013517658   0.01286147         1812 
 3291000   0.72410749   -8.3762447     534.3871  0.013531528  0.012856023         1938 
 3292000   0.72950323   -8.3728987    533.57776   0.01350693  0.012850585         1917 
 3293000   0.70882644   -8.3549824    533.85395  0.013509817  0.012845141         1845 
 3294000    0.7314759   -8.3840659    533.70731  0.013502006  0.012839709         1874 
 3295000   0.71150191   -8.4121634    533.89024  0.013502535  0.012834272         1852 
 3296000    0.7146923   -8.3895968    533.60753  0.013491291  0.012828835         1979 
 3297000   0.71215593   -8.3807592     534.4604  0.013508755  0.012823399         1942 
 3298000   0.72136553   -8.3819683    534.08068  0.013495065  0.012817963         1923 
 3299000   0.73167276   -8.3980486    533.87056  0.013485666   0.01281252         1924 
 3300000   0.73766742   -8.3994862    533.72528  0.013477911  0.012807088         1929 
 3301000   0.73147352   -8.3652416    534.90178  0.013503529   0.01280166         1860 
 3302000   0.71574844   -8.3913831    532.68038  0.013443377  0.012796232         1946 
 3303000   0.71996325   -8.4066365    533.23972  0.013453419  0.012790801         1922 
 3304000     0.727329   -8.3832281    532.70381  0.013435831  0.012785376         1971 
 3305000   0.70960681   -8.4031618    534.50911  0.013477285  0.012779958         1874 
 3306000   0.70317654   -8.4169828    533.74857  0.013454037  0.012774542         1993 
 3307000    0.7121603    -8.417352    532.84617  0.013427229  0.012769122         1882 
 3308000   0.72773358   -8.4008364    534.09041  0.013454515  0.012763712         1879 
 3309000   0.72804692   -8.3928545     532.8648  0.013419583  0.012758307         1877 
 3310000   0.72017712   -8.3998754    533.23179  0.013424768  0.012752907         1968 
 3311000   0.73464369   -8.4096499     533.4345  0.013425815    0.0127475         1863 
 3312000   0.71770883   -8.3716888    534.17595  0.013440417  0.012742106         1899 
 3313000   0.70783631   -8.3997107    533.41987  0.013417342  0.012736712         1934 
 3314000   0.73357412   -8.4089219    533.17233  0.013407069  0.012731314         1913 
 3315000   0.71215063   -8.3905201     533.9341  0.013422175  0.012725914         1951 
 3316000   0.70816473   -8.4182862    533.29994   0.01340219  0.012720509         1966 
 3317000   0.71585008   -8.4018859    533.09658   0.01339304  0.012715111         1933 
 3318000   0.71787205   -8.4095468     532.4078  0.013371705  0.012709711         2008 
 3319000   0.71157222   -8.4076811    533.39404  0.013392438   0.01270432         2026 
 3320000   0.71570726   -8.4232381      531.943  0.013351983  0.012698926         1947 
 3321000   0.72693992   -8.4022884    533.72543  0.013392689  0.012693541         1959 
 3322000   0.71802454   -8.3883984    532.20332  0.013350475   0.01268816         1998 
 3323000   0.72280321   -8.3865624     534.1919  0.013396326  0.012682772         1903 
 3324000   0.72338263     -8.40092    532.92224  0.013360465  0.012677394         2017 
 3325000   0.72419237   -8.4128929    533.38569  0.013368062  0.012672024         2049 
 3326000   0.71416213   -8.4018808     533.8866  0.013376594  0.012666642         2039 
 3327000   0.72101438   -8.4224913    533.51553  0.013363279   0.01266127         2039 
 3328000   0.71406753   -8.4036113    533.35413  0.013355222  0.012655906         2008 
 3329000   0.73420324   -8.4154932    534.41853  0.013377854  0.012650541         1968 
 3330000   0.72162389    -8.395067    534.40775  0.013373567  0.012645175         2015 
 3331000   0.73322658    -8.418479    533.16718  0.013338517  0.012639811         2009 
 3332000   0.73682081   -8.4155048    532.92259  0.013328396  0.012634449         2113 
 3333000   0.72155533   -8.4293128    532.10413  0.013303934  0.012629091         2009 
 3334000   0.73197429   -8.3976865    533.02611  0.013322988  0.012623728         1935 
 3335000    0.7288248    -8.440234    533.29666  0.013325754  0.012618379         2061 
 3336000   0.72521081   -8.4039754    533.13869  0.013317813  0.012613025         1951 
 3337000   0.72837869   -8.4367557    533.19839  0.013315313  0.012607666         2058 
 3338000   0.72143876   -8.4111456    533.17473  0.013310733  0.012602311         2027 
 3339000     0.726624   -8.4221858    532.97526  0.013301769   0.01259696         2119 
 3340000   0.72043415   -8.4013568    533.28307  0.013305466  0.012591609         2044 
 3341000   0.71487987   -8.4433992    532.71795  0.013287388  0.012586257         2098 
 3342000   0.70467969   -8.4316213    531.66465  0.013257148  0.012580914         2107 
 3343000     0.724088   -8.3864422    533.59461  0.013301291  0.012575579         2041 
 3344000   0.72607872   -8.4050082    532.92591   0.01328065  0.012570246         2010 
 3345000   0.72106724   -8.3987306    533.09223  0.013280823  0.012564915         2067 
 3346000   0.71794598   -8.4151358    533.32611  0.013282679  0.012559579         2086 
 3347000   0.70337961    -8.421668    533.39446  0.013280412  0.012554251         2044 
 3348000   0.70898868   -8.3942631    533.56017   0.01328057  0.012548923         2031 
 3349000   0.72203134   -8.4080987    531.90841  0.013235503  0.012543606         2103 
 3350000   0.69851887   -8.4160024    532.31658  0.013241706  0.012538287         2069 
 3351000    0.7095924   -8.4081257    533.62806  0.013270369  0.012532971         2087 
 3352000   0.71053712   -8.4099099    533.73405  0.013269045  0.012527654         2120 
 3353000   0.71311777   -8.4089438    534.05696  0.013273113  0.012522338         2031 
 3354000   0.72854559   -8.4313598    532.20504  0.013223143  0.012517023         2068 
 3355000   0.73467151   -8.4057363    532.88733  0.013236148  0.012511717         2056 
 3356000   0.70700023   -8.4252597    533.65924  0.013251372  0.012506407         2092 
 3357000   0.71526432   -8.4251041    531.91064  0.013204018  0.012501098         2040 
 3358000   0.70141275   -8.4312027    532.67372  0.013219022  0.012495798         2033 
 3359000   0.73656028   -8.4046559    533.42619  0.013233755  0.012490493         2057 
 3360000   0.73302303   -8.4264318    532.10465   0.01319704  0.012485189         2052 
 3361000   0.70961696   -8.4393164    532.36578  0.013199588  0.012479893         2025 
 3362000    0.7197102   -8.4397426    532.61439  0.013201824  0.012474589         2058 
 3363000   0.71041329   -8.4102611    534.05847  0.013233682  0.012469302         2115 
 3364000   0.71594611   -8.4113671    532.97462  0.013202899  0.012464018         2081 
 3365000   0.72422786    -8.422387    532.95899  0.013198588  0.012458729         2058 
 3366000   0.70245039   -8.4215066    532.85649  0.013192129  0.012453444         2102 
 3367000   0.71164893   -8.4339782    533.23503   0.01319758  0.012448158         2092 
 3368000   0.69167559    -8.410249    532.69199  0.013180225  0.012442875         2055 
 3369000   0.72650411   -8.4010572    532.27448  0.013165986  0.012437604         2103 
 3370000   0.71344767   -8.4266908    533.47825  0.013191846  0.012432326         2128 
 3371000   0.70409523   -8.4271312    532.91245  0.013173946  0.012427049         2086 
 3372000   0.71118584   -8.4486952    532.30104  0.013154929  0.012421772         2019 
 3373000   0.71668607    -8.418534    532.29896  0.013150977  0.012416496         2005 
 3374000    0.7168018   -8.4344286    533.36512  0.013173412  0.012411229         2092 
 3375000    0.7246997   -8.4314435    533.31069  0.013168165  0.012405965         2040 
 3376000   0.73327874   -8.4413117    532.58014  0.013146232  0.012400712         2003 
 3377000   0.69950529   -8.4492372    531.87303   0.01312489  0.012395448         2084 
 3378000   0.70693732   -8.4275615    533.00168  0.013148847  0.012390183         1956 
 3379000   0.72431054    -8.404451    532.29114  0.013127433  0.012384929         2022 
 3380000   0.71031116   -8.4398227    531.81372  0.013111778  0.012379673         2129 
 3381000   0.70002806   -8.4033227    533.28946  0.013144273  0.012374423         2093 
 3382000   0.70654781   -8.4275325    532.84847  0.013129521  0.012369177         2091 
 3383000   0.71457976   -8.3981629    533.20316  0.013134377  0.012363927         2039 
 3384000    0.7005294   -8.4453459    532.79106  0.013120347  0.012358682         2217 
 3385000   0.72176361   -8.4294633    532.56352   0.01311087  0.012353442         2065 
 3386000   0.69741695   -8.4290581    533.34529  0.013126238  0.012348208         1999 
 3387000   0.71590818   -8.4586114    531.78015  0.013083854  0.012342969         2146 
 3388000   0.71661901   -8.4194509    533.30926  0.013117603  0.012337743         2070 
 3389000   0.70722074   -8.4151692    532.47103  0.013093121  0.012332522         2131 
 3390000   0.70743939   -8.4304195    532.67796  0.013094345  0.012327296         2085 
 3391000   0.70593614   -8.4245831    532.27078  0.013080477  0.012322085         2030 
 3392000    0.6867658   -8.4381576    532.64343  0.013085776  0.012316862         2135 
 3393000   0.69677946   -8.4299705      533.256  0.013096964  0.012311649         2101 
 3394000   0.70872761   -8.4276754    532.07711   0.01306416  0.012306443         2083 
 3395000   0.70578429   -8.4341406    533.19789  0.013087823  0.012301233         2096 
 3396000   0.70945842   -8.4349012    532.70511  0.013071877  0.012296022         2040 
 3397000   0.70685805   -8.4474835    532.23777  0.013056564  0.012290818         2115 
 3398000   0.73272622   -8.3973319    533.19658  0.013076236  0.012285618         2122 
 3399000   0.70976259   -8.4427799    531.34589  0.013027015  0.012280411         2143 
 3400000   0.70942348   -8.4444766     532.2778  0.013046024  0.012275209         2155 
 3401000   0.71914024   -8.4354917    532.28976  0.013042482  0.012270013         2122 
 3402000   0.71010484   -8.4313881    533.04626  0.013057179  0.012264823         2007 
 3403000   0.70942087    -8.436054    533.11325  0.013054982   0.01225963         2093 
 3404000   0.69785327    -8.393609      533.082  0.013050382  0.012254444         2057 
 3405000   0.69736303   -8.4385702    531.82559    0.0130158  0.012249254         2195 
 3406000   0.69256522   -8.4590784    532.24904  0.013022339  0.012244069         2127 
 3407000   0.69926758   -8.4302094    532.41778  0.013022644  0.012238879         2167 
 3408000   0.70022047   -8.4336344    531.58544   0.01299847  0.012233689         2097 
 3409000   0.70390506   -8.4496853    531.34669  0.012988821  0.012228506         2130 
 3410000   0.69722188   -8.4222785    533.75281  0.013043813  0.012223334         2106 
 3411000   0.69866174   -8.4148993    532.58679  0.013011502  0.012218158         2103 
 3412000   0.69967942   -8.4390264    532.98093  0.013017315  0.012212995         2207 
 3413000   0.71229568   -8.4238992    531.96911  0.012988796  0.012207829         2077 
 3414000   0.71874056   -8.4247247    533.56037  0.013023832  0.012202669         2092 
 3415000    0.6992349   -8.4397504    532.07424  0.012983754  0.012197509         2143 
 3416000   0.70882391   -8.4497646    531.80898  0.012973482  0.012192345         2123 
 3417000   0.70800517   -8.4543413    532.34669  0.012982799  0.012187188         2179 
 3418000   0.69804765   -8.4283524    532.71282  0.012987927   0.01218203         2108 
 3419000   0.69872676   -8.4164961    532.49325  0.012978777  0.012176874         2156 
 3420000   0.71472068   -8.4480746    531.95172  0.012961787  0.012171724         2104 
 3421000   0.69887305   -8.4474423    531.71637  0.012952265  0.012166583         2171 
 3422000   0.69669693   -8.4535311    532.33904  0.012963643  0.012161438         2146 
 3423000   0.71519349   -8.4295952    532.51657  0.012964178    0.0121563         2072 
 3424000   0.71566794   -8.4371471    532.85552  0.012968641  0.012151166         2134 
 3425000   0.71872504   -8.4407307    533.96344  0.012991811  0.012146032         2092 
 3426000   0.70209353   -8.4460457    532.54327  0.012953475  0.012140905         2107 
 3427000   0.70533926    -8.429199    532.81877  0.012956394  0.012135774         2126 
 3428000   0.70682946   -8.4351995    532.66853  0.012948963  0.012130651         2172 
 3429000   0.70525963   -8.4426882    531.71962  0.012922126  0.012125534         2162 
 3430000   0.70079835   -8.4441938    532.40131   0.01293492   0.01212041         2228 
 3431000   0.68765337   -8.4574467    532.20695  0.012926429  0.012115282         2283 
 3432000   0.69303127   -8.4103908    531.89017  0.012914971  0.012110163         2107 
 3433000   0.70732072   -8.4313222    532.07619  0.012915725  0.012105043         2183 
 3434000   0.71278922    -8.445743    532.15986  0.012913994  0.012099936         2096 
 3435000    0.6913042    -8.439798    532.99015  0.012930377  0.012094819         2176 
 3436000   0.70466074   -8.4369898    531.44115  0.012889046  0.012089707         2184 
 3437000   0.69125794   -8.4455627    531.45568  0.012885648  0.012084594         2226 
 3438000   0.69646912   -8.4381424    532.37266  0.012904127  0.012079477         2208 
 3439000   0.70922345   -8.4548828    531.88144  0.012888471  0.012074359         2173 
 3440000   0.70447845   -8.4413461    532.97482  0.012911212  0.012069246         2064 
 3441000   0.70772246   -8.4463971    532.62726  0.012899042  0.012064134         2163 
 3442000   0.69752535   -8.4410655    532.75336  0.012898348   0.01205903         2175 
 3443000   0.69477813   -8.4599279     531.9431   0.01287499  0.012053929         2267 
 3444000   0.68939905   -8.4568096    532.51978  0.012885206  0.012048823         2173 
 3445000   0.71089523   -8.4269003    532.01643   0.01286929  0.012043728         2201 
 3446000   0.68959703   -8.4582904    531.61309  0.012855801  0.012038625         2176 
 3447000   0.68744083   -8.4531396    532.15497  0.012865172  0.012033523         2236 
 3448000   0.70294444    -8.461504    531.71288  0.012850756  0.012028423         2114 
 3449000   0.69674169   -8.4709506    532.39368  0.012863479  0.012023322         2178 
 3450000   0.70354722   -8.4639945    531.65407  0.012841886   0.01201823         2227 
 3451000   0.70058134   -8.4627189    531.07353  0.012824146  0.012013138         2180 
 3452000   0.69784042   -8.4700543    531.56418  0.012832275  0.012008057         2236 
 3453000   0.71365441   -8.4748209    532.23544  0.012844759  0.012002976         2156 
 3454000   0.70172026   -8.4720439    531.30774  0.012818658  0.011997891         2148 
 3455000   0.69084422   -8.4560033    531.28959   0.01281451  0.011992809         2222 
 3456000   0.69549039   -8.4458469    531.65341  0.012819575  0.011987728         2151 
 3457000   0.69328568   -8.4557827    532.45003   0.01283507  0.011982644         2255 
 3458000   0.71157864   -8.4780865    531.09092  0.012798605   0.01197756         2282 
 3459000    0.6921739   -8.4500277    531.81453  0.012812338  0.011972482         2152 
 3460000    0.7090324   -8.4796254    532.13119  0.012816262  0.011967406         2299 
 3461000   0.68246388   -8.4695514    531.61196  0.012800057   0.01196234         2174 
 3462000   0.69689819   -8.4495752     531.6106  0.012796327  0.011957265         2231 
 3463000   0.71017646   -8.4506551    531.15094   0.01278157  0.011952194         2172 
 3464000   0.70708972    -8.477616    531.55612  0.012787628  0.011947132         2250 
 3465000   0.69692837   -8.4442925    531.15984  0.012774407  0.011942067         2220 
 3466000   0.70008859    -8.464518    531.21949  0.012772155  0.011937014         2289 
 3467000   0.69575522   -8.4604804    530.92792  0.012761463  0.011931971         2245 
 3468000   0.69486926   -8.4842537    530.02468  0.012736079  0.011926911         2220 
 3469000   0.68856077   -8.4822837    531.60653  0.012770408  0.011921856         2148 
 3470000   0.70748698    -8.457122    531.25056  0.012758179  0.011916804         2236 
 3471000     0.714793   -8.4478227    532.13571  0.012775754  0.011911764         2280 
 3472000   0.69780204   -8.4566311    531.09513  0.012747099  0.011906729         2212 
 3473000    0.7099096   -8.4442283    532.02535  0.012765749  0.011901688         2179 
 3474000   0.68926684   -8.4651939    531.78446  0.012756296  0.011896663         2298 
 3475000   0.69391654   -8.4647775    531.57563  0.012747617  0.011891626         2254 
 3476000   0.70989566   -8.4724895    531.89875  0.012751696  0.011886586         2174 
 3477000   0.68938621   -8.4512732    532.73031  0.012767959  0.011881562         2212 
 3478000   0.69080548   -8.4824572    530.77527  0.012717445  0.011876542         2195 
 3479000    0.7005886   -8.4728234    530.15849  0.012699015  0.011871516         2185 
 3480000   0.69712183   -8.4643307    531.86707   0.01273628  0.011866487         2244 
 3481000   0.70244421   -8.4687553    531.65814   0.01272762  0.011861463         2282 
 3482000   0.68197173   -8.4770799    530.47316  0.012695605  0.011856435         2166 
 3483000   0.70079462   -8.4500121    531.39274  0.012713962  0.011851412         2167 
 3484000   0.69971737   -8.4730655    531.96558  0.012724014  0.011846398         2203 
 3485000   0.70165225   -8.4526481    531.50481  0.012709345  0.011841387         2270 
 3486000   0.68812355   -8.4468337    532.61739  0.012732296  0.011836379         2228 
 3487000   0.69201032   -8.4752141    531.52921  0.012702639  0.011831385         2262 
 3488000   0.68551654   -8.4730937    532.01234  0.012710539  0.011826391         2315 
 3489000   0.69624063   -8.4722717    532.56863  0.012720183  0.011821396         2257 
 3490000   0.69361026   -8.4986266    530.91983  0.012677169  0.011816399         2296 
 3491000     0.701964   -8.4644862    531.80886  0.012694759    0.0118114         2306 
 3492000   0.69444937   -8.4379586     532.5039  0.012707711  0.011806409         2260 
 3493000    0.6974383   -8.4719311    531.60459  0.012682617  0.011801423         2235 
 3494000   0.67236785   -8.4453103    531.64276  0.012679898  0.011796437         2205 
 3495000   0.68362868   -8.4706842    530.82647  0.012656807  0.011791459         2282 
 3496000   0.68320205   -8.4423599    531.77729  0.012675851  0.011786476         2232 
 3497000   0.68844546   -8.4841679    531.16252  0.012657576  0.011781494         2266 
 3498000   0.70536446   -8.4819807    530.56697   0.01263977  0.011776517         2211 
 3499000   0.68830503   -8.4789136     530.8609  0.012643158  0.011771541         2246 
 3500000   0.67452326    -8.482497    530.92949  0.012641178  0.011766564         2305 
 3501000   0.70946221   -8.4551006    532.42679  0.012673208  0.011761596         2218 
 3502000   0.68866524   -8.4847214    530.49546  0.012623631  0.011756631         2248 
 3503000   0.67850814   -8.4798401    531.30702  0.012639333  0.011751664         2264 
 3504000   0.69716119   -8.4882429    531.32972  0.012636266  0.011746695         2285 
 3505000   0.68738543   -8.4853866    531.11383  0.012627528  0.011741732         2284 
 3506000   0.69668304   -8.4864137    531.90222  0.012642665  0.011736775         2179 
 3507000   0.69121022    -8.490938    530.68322  0.012610095  0.011731812         2188 
 3508000   0.70684937   -8.4719261    531.47319  0.012625266  0.011726853         2246 
 3509000   0.68951499    -8.482118     531.7042  0.012627154  0.011721898         2231 
 3510000   0.68971082   -8.4790679    531.83029   0.01262655  0.011716947         2302 
 3511000   0.69415552   -8.4933521    530.95338   0.01260214  0.011712009         2225 
 3512000   0.67721268   -8.4355833    531.66179  0.012615361  0.011707069         2234 
 3513000   0.69508982   -8.4924376    531.89343  0.012617265  0.011702123         2272 
 3514000   0.69793073   -8.4565169     531.7953  0.012611348  0.011697183         2260 
 3515000   0.70283961   -8.4678363    531.58828  0.012602852  0.011692247         2338 
 3516000   0.69307132   -8.4750641    530.81091  0.012580843  0.011687316         2318 
 3517000   0.71202791   -8.4674126    531.93994  0.012604017  0.011682385         2288 
 3518000   0.68572818   -8.4995353    530.01743  0.012554894  0.011677462         2347 
 3519000   0.68760154   -8.4743023    532.23342  0.012603804  0.011672539         2174 
 3520000   0.69495514   -8.4856198    531.92922  0.012593021   0.01166762         2194 
 3521000   0.70241564   -8.4894692    530.09785  0.012546101  0.011662695         2267 
 3522000   0.69788816    -8.493159     530.1366  0.012543456  0.011657769         2276 
 3523000     0.701808   -8.5032979    530.33471  0.012544581  0.011652848         2302 
 3524000   0.67483607    -8.474366     531.5633  0.012570074  0.011647925         2264 
 3525000   0.68596327    -8.512014     530.6405  0.012544693  0.011643009         2331 
 3526000   0.68972455   -8.4939255    530.33914  0.012534013  0.011638094         2302 
 3527000   0.68378265   -8.4706769    531.85821   0.01256635   0.01163318         2287 
 3528000   0.68650594   -8.4724806    530.43266  0.012529116  0.011628273         2248 
 3529000   0.70488248   -8.4779619    531.31428  0.012546384  0.011623371         2284 
 3530000   0.68854235   -8.4636818    531.26638  0.012541699  0.011618467         2289 
 3531000   0.67987773   -8.4885509    531.06771  0.012533459  0.011613569         2315 
 3532000   0.67787107   -8.4931955    530.78248  0.012523181  0.011608665         2271 
 3533000   0.68422029   -8.4977824    530.24433  0.012506942  0.011603762         2250 
 3534000   0.68797994   -8.4879065    531.89568  0.012542343  0.011598864         2218 
 3535000   0.67453909   -8.5012609    530.77543  0.012512386  0.011593962         2312 
 3536000   0.68805235   -8.5127264    531.83652  0.012533855  0.011589067         2314 
 3537000   0.68118991   -8.5130101    530.26711  0.012493335  0.011584172         2262 
 3538000   0.69887979   -8.4874944    529.75399  0.012477718  0.011579277         2309 
 3539000   0.68517895   -8.4978373    530.55713  0.012493104  0.011574394         2330 
 3540000   0.70515732   -8.5024836    531.13215  0.012503111  0.011569505         2265 
 3541000     0.693596   -8.5223403    529.99583  0.012472838  0.011564611         2372 
 3542000   0.68994473   -8.4910303    531.06339  0.012494433  0.011559729         2319 
 3543000   0.68930867   -8.5067224    531.60584  0.012503665  0.011554848         2353 
 3544000   0.67765008   -8.4710881    530.54646  0.012475227  0.011549969         2307 
 3545000   0.68942807   -8.5085792    531.36269  0.012490895  0.011545099         2328 
 3546000   0.69110644   -8.5149622    530.42483  0.012465332  0.011540225         2311 
 3547000   0.67796105    -8.478477    531.07539  0.012477102  0.011535356         2246 
 3548000   0.68534003   -8.4861543    530.96604  0.012471018  0.011530489         2212 
 3549000   0.67531239   -8.4782744    530.27025  0.012451166  0.011525628         2267 
 3550000   0.67971651   -8.4996606    530.55407  0.012454321  0.011520771         2222 
 3551000   0.68956413    -8.490002    532.03909  0.012485663  0.011515915         2259 
 3552000   0.66560107   -8.4843108    530.42238  0.012444219  0.011511065         2292 
 3553000    0.6900864   -8.4987437    530.71521  0.012447584  0.011506218         2264 
 3554000    0.6856341   -8.4738237    531.15581  0.012454413  0.011501367         2320 
 3555000    0.6717145   -8.4898586    530.59172  0.012437687  0.011496527         2311 
 3556000   0.69033284   -8.5130297    530.58733  0.012434086  0.011491689         2344 
 3557000   0.68759822   -8.5085808    530.78738  0.012435277  0.011486854         2282 
 3558000   0.68317967   -8.5154845    531.07523  0.012438524  0.011482016         2375 
 3559000   0.68518647   -8.5115873    531.72094  0.012450149  0.011477186         2384 
 3560000   0.68888709   -8.5397382    530.64359  0.012421432   0.01147235         2383 
 3561000     0.677352   -8.4925206     530.8274  0.012422246  0.011467521         2291 
 3562000   0.68543625   -8.5222602     529.7232  0.012392925   0.01146269         2387 
 3563000   0.67942057   -8.5092732    530.69462  0.012412167   0.01145786         2346 
 3564000   0.68721772   -8.5003923    529.43636  0.012379264  0.011453047         2243 
 3565000   0.66997309   -8.5062805    531.47152  0.012423364  0.011448226         2308 
 3566000   0.68356008   -8.4935896    530.46966  0.012396468  0.011443403         2247 
 3567000   0.67825533   -8.5016878    529.73561  0.012375844  0.011438586         2297 
 3568000   0.69488953   -8.4856436    530.63633  0.012393412  0.011433773         2303 
 3569000   0.68305042   -8.5270666    530.14973  0.012378578  0.011428963         2355 
 3570000   0.69078636   -8.5329548    529.71848  0.012365044  0.011424144         2370 
 3571000   0.69939073   -8.5087745    530.42664  0.012378107  0.011419324         2336 
 3572000   0.68084863   -8.5115301    530.03031  0.012365395  0.011414516         2321 
 3573000   0.67879376   -8.5272109    529.95838  0.012360257  0.011409708         2375 
 3574000   0.68218624   -8.4965877    530.87056  0.012378068  0.011404904         2299 
 3575000    0.6845747   -8.5322933    530.95583  0.012376593  0.011400105         2377 
 3576000   0.68385276   -8.5146043     529.9167  0.012348916  0.011395304         2306 
 3577000   0.70024088    -8.512503    531.05491  0.012371981   0.01139051         2290 
 3578000   0.67831281    -8.492698    531.15459  0.012370845  0.011385717         2342 
 3579000   0.67609809   -8.5077301    530.91471  0.012361803  0.011380931         2428 
 3580000   0.68394224   -8.5247617    529.93428  0.012335528  0.011376136         2302 
 3581000   0.68829383   -8.5305138    530.62129  0.012348071   0.01137135         2367 
 3582000   0.69195991   -8.5205188    531.24097   0.01235904  0.011366564         2268 
 3583000   0.67878424   -8.5360796     530.0876  0.012328766  0.011361782         2472 
 3584000   0.67477266   -8.5175458    531.90654  0.012367618  0.011357002         2324 
 3585000   0.67697711   -8.5249123    530.36618  0.012328363  0.011352223         2359 
 3586000   0.67982867   -8.5291167    530.72812  0.012333336  0.011347443         2361 
 3587000   0.66950255   -8.5125316    530.02827  0.012313639  0.011342667         2284 
 3588000   0.67629811   -8.5198748    530.78556  0.012327795  0.011337896         2401 
 3589000   0.67960418   -8.5223475    530.54673  0.012318815  0.011333121         2328 
 3590000   0.66940675   -8.5110352    530.00594  0.012302831  0.011328353         2373 
 3591000   0.66916461   -8.5213645    530.41425   0.01230888  0.011323584         2391 
 3592000   0.69217636   -8.5380054    529.13217  0.012275709  0.011318813         2364 
 3593000   0.67821069   -8.5191812    529.95255   0.01229132   0.01131405         2365 
 3594000   0.68563488    -8.521018    530.45989  0.012299663  0.011309287         2412 
 3595000   0.68645465   -8.5194385    529.61956  0.012276763  0.011304529         2359 
 3596000   0.67575834   -8.5190342    530.71252  0.012298677  0.011299773         2275 
 3597000   0.67843628   -8.5276084    530.64394  0.012293669  0.011295022         2308 
 3598000    0.6696036   -8.5152478     531.1588  0.012302177  0.011290272         2464 
 3599000   0.69488936   -8.5268088    529.59375  0.012262521  0.011285526         2368 
 3600000   0.68085729   -8.5060826    531.40597  0.012301064  0.011280779         2336 
 3601000    0.6755986   -8.5155521    531.01016  0.012288488  0.011276036         2380 
 3602000   0.66899937   -8.5385745    529.78821  0.012256807  0.011271293         2335 
 3603000   0.66808023    -8.490559    530.71013  0.012274728   0.01126656         2324 
 3604000    0.6742572   -8.5412975    529.38448   0.01224067  0.011261825         2355 
 3605000   0.68033539   -8.5153539    530.76917  0.012269283  0.011257086         2423 
 3606000   0.68407175   -8.5012224     531.7699  0.012289007   0.01125236         2368 
 3607000   0.67130093   -8.5205084    529.99394  0.012244569  0.011247634         2329 
 3608000   0.67314483   -8.5255569    529.72494  0.012234963  0.011242911         2344 
 3609000   0.68196657   -8.5433049    530.82808  0.012257044  0.011238181         2384 
 3610000   0.66511938    -8.539813    529.99226  0.012234355  0.011233466         2409 
 3611000   0.65716198   -8.5098651    529.92852  0.012229496   0.01122874         2338 
 3612000   0.66268643   -8.4991869     530.9813  0.012250399  0.011224022         2305 
 3613000    0.6689491   -8.5361304    530.96412  0.012246612  0.011219307         2356 
 3614000   0.67093198     -8.52565    530.70854   0.01223733  0.011214598         2302 
 3615000   0.67605525   -8.5502305    530.29348  0.012224377  0.011209887         2355 
 3616000   0.68788704   -8.5290645    530.79954  0.012232659  0.011205174         2344 
 3617000   0.65535545   -8.5269638    530.15342  0.012214391  0.011200466         2381 
 3618000   0.67249309   -8.5381754    529.65867  0.012199619  0.011195762         2403 
 3619000   0.68731292   -8.5205172    529.31666  0.012188373  0.011191048         2393 
 3620000   0.66638526   -8.5266627     530.6997  0.012216844  0.011186343         2414 
 3621000   0.65523627   -8.5294521     529.9572  0.012196382  0.011181644         2348 
 3622000    0.6731219   -8.5337078    529.66756  0.012186351  0.011176948         2349 
 3623000   0.68540641   -8.5475265    528.84234  0.012164006  0.011172254         2404 
 3624000   0.66609071   -8.5343632    529.57132  0.012177413  0.011167562         2320 
 3625000   0.68315909   -8.5277079    529.31221  0.012168097  0.011162864         2389 
 3626000   0.67575182   -8.5089319    529.33442  0.012165252  0.011158173         2362 
 3627000   0.67201194   -8.5323226    529.24363  0.012159811  0.011153486         2370 
 3628000   0.65718084   -8.5379013      529.512  0.012162624  0.011148798         2265 
 3629000   0.66800823   -8.5301912    529.50718  0.012159162  0.011144115         2356 
 3630000   0.67633562   -8.5443487    530.28278  0.012173618  0.011139429         2421 
 3631000   0.66403554   -8.5212099     530.7024  0.012179895  0.011134745         2395 
 3632000   0.66807999   -8.5373578    529.59248  0.012151076  0.011130071         2460 
 3633000   0.65777173   -8.5477354     529.9165  0.012155163  0.011125403         2347 
 3634000   0.67076797   -8.5564009    529.74641  0.012147918  0.011120733         2377 
 3635000   0.66464084   -8.5661638    529.19691  0.012131979  0.011116067         2385 
 3636000   0.67092021   -8.5170265    530.21772  0.012152038  0.011111404         2360 
 3637000   0.66306116   -8.5131888    529.77218  0.012138488  0.011106755         2425 
 3638000    0.6684804   -8.5354537    529.22498  0.012122617    0.0111021         2379 
 3639000   0.67033574   -8.5419931    531.04013  0.012160853  0.011097446         2373 
 3640000   0.69008119   -8.5335197    529.73488   0.01212763  0.011092789         2319 
 3641000   0.66899225   -8.5301838    529.45043  0.012117789  0.011088136         2338 
 3642000   0.65863654   -8.5627374    529.13013  0.012107133  0.011083489         2256 
 3643000   0.66988119   -8.5392882    529.40503  0.012110098  0.011078837         2279 
 3644000   0.66658433   -8.5268633    530.98338  0.012142869  0.011074196         2255 
 3645000   0.67264343   -8.5613472    529.11835  0.012096899  0.011069544         2391 
 3646000   0.65885167   -8.5428895    528.86801  0.012087859  0.011064899         2426 
 3647000   0.66326406   -8.5446802     529.8997  0.012108119  0.011060257         2279 
 3648000   0.65387243    -8.543242      529.308  0.012091283   0.01105562         2335 
 3649000   0.68063893   -8.5147999    529.86016  0.012100579   0.01105098         2300 
 3650000   0.67118586   -8.5328438    530.30981   0.01210753  0.011046344         2288 
 3651000   0.67586958   -8.5178699    531.00901  0.012120173  0.011041711         2324 
 3652000   0.66981022   -8.5471753      529.524  0.012082968  0.011037082         2356 
 3653000   0.67037739   -8.5403809    530.44004  0.012100557  0.011032457         2316 
 3654000   0.65682228    -8.567124    529.45942  0.012074882  0.011027842         2298 
 3655000   0.67777312   -8.5431751    529.58128  0.012074357  0.011023223         2314 
 3656000   0.67652695   -8.5410558    529.05575  0.012059075  0.011018602         2329 
 3657000   0.67230661   -8.5320243    529.55647  0.012067188  0.011013985         2368 
 3658000   0.68091625   -8.5459149    530.47286  0.012084765  0.011009368         2308 
 3659000   0.66072583   -8.5508779    530.16961  0.012074556  0.011004755         2334 
 3660000   0.66585589   -8.5607697    529.65517  0.012059544  0.011000153         2330 
 3661000   0.67533989   -8.5416685    529.92683  0.012062434  0.010995548         2225 
 3662000   0.68516025   -8.5411766    528.97356  0.012037447  0.010990946         2401 
 3663000   0.66165341   -8.5450166     529.1778  0.012038807  0.010986344         2350 
 3664000   0.67322196   -8.5213192     530.2665  0.012060282  0.010981743         2338 
 3665000   0.65619997   -8.5443212     528.8513  0.012024814  0.010977141         2363 
 3666000   0.67454557   -8.5226143    530.62784  0.012061917  0.010972543         2284 
 3667000    0.6571054   -8.5288125    528.75205     0.012016  0.010967946         2403 
 3668000   0.66419456   -8.5673854     529.6973  0.012034199  0.010963355         2384 
 3669000   0.65686572   -8.5429207    529.19333  0.012019472  0.010958761         2407 
 3670000   0.67466704   -8.5296373    529.01596   0.01201217  0.010954174         2320 
 3671000   0.66278072   -8.5543167     528.9563  0.012007543  0.010949587         2392 
 3672000    0.6553324   -8.5719474    529.58912  0.012018635  0.010945006         2374 
 3673000   0.67383122   -8.5389933    529.59968  0.012015602   0.01094043         2339 
 3674000   0.67446031   -8.5512525     529.1332  0.012001751  0.010935849         2290 
 3675000    0.6510528   -8.5543671    529.54871  0.012007907  0.010931271         2411 
 3676000    0.6554759   -8.5352145    528.87957  0.011989471  0.010926697         2342 
 3677000   0.66906227   -8.5527825    529.40478  0.011998114  0.010922129         2379 
 3678000   0.66127662   -8.5442631    529.22705  0.011990825  0.010917559         2296 
 3679000   0.66376556   -8.5435351    529.74157   0.01199922  0.010912996         2301 
 3680000   0.67690874   -8.5669781    529.06916  0.011980733  0.010908429         2278 
 3681000     0.657545   -8.5533607    529.03042  0.011976601  0.010903864         2393 
 3682000   0.66671726   -8.5595194    529.26654  0.011978692  0.010899305         2370 
 3683000   0.66747031   -8.5357684    529.13399  0.011972441  0.010894748         2315 
 3684000    0.6461865   -8.5489975    529.03148  0.011966872  0.010890198         2349 
 3685000   0.65981816   -8.5285751    529.75509  0.011979989  0.010885646         2214 
 3686000   0.65376421   -8.5342283    529.50968   0.01197119    0.0108811         2287 
 3687000   0.65655934    -8.536946    529.16941  0.011960252  0.010876554         2320 
 3688000   0.67047025   -8.5488202    529.17182  0.011957064  0.010872011         2294 
 3689000   0.67652586   -8.5562861     528.5207  0.011939114  0.010867476         2288 
 3690000   0.67216202   -8.5518526    529.49627   0.01195791  0.010862937         2388 
 3691000   0.67281147   -8.5514617    528.01556   0.01192124  0.010858408         2354 
 3692000   0.65075887   -8.5657068    529.37118  0.011948609   0.01085387         2318 
 3693000   0.64171525   -8.5726114    529.16186   0.01194065  0.010849338         2325 
 3694000   0.67139025    -8.548408    528.78346  0.011928881  0.010844807         2282 
 3695000   0.66053664   -8.5389937    529.55889  0.011943141  0.010840286         2280 
 3696000   0.64663714   -8.5385008    529.53903  0.011939462  0.010835762         2321 
 3697000    0.6531485   -8.5171294    529.73023  0.011940543  0.010831245         2272 
 3698000   0.67104125    -8.559662    529.64756  0.011935451  0.010826726         2287 
 3699000   0.65327269   -8.5270605    530.19163  0.011944481   0.01082222         2334 
 3700000   0.66355594   -8.5484497    530.02779  0.011937563  0.010817709         2325 
 3701000   0.63644715    -8.539335     529.1636  0.011914879  0.010813203         2315 
 3702000    0.6523162   -8.5574358    528.99286  0.011907817  0.010808692         2342 
 3703000   0.64625057    -8.575417     528.8521  0.011901434  0.010804187         2429 
 3704000   0.65377991   -8.5493199    529.51126   0.01191305  0.010799677         2393 
 3705000   0.65789368   -8.5610825    529.52289  0.011910097  0.010795182         2344 
 3706000   0.66066966   -8.5574036    529.44446  0.011905119  0.010790688         2358 
 3707000   0.63684064   -8.5799601    528.48905   0.01188043  0.010786186         2353 
 3708000   0.67173663   -8.5657404    529.44379  0.011898683  0.010781686         2373 
 3709000   0.64791362   -8.5491287    530.22532  0.011913034   0.01077719         2352 
 3710000   0.67499408   -8.5520189    529.96742   0.01190403  0.010772698         2311 
 3711000   0.64941465   -8.5666235    529.66592  0.011894052  0.010768211         2336 
 3712000    0.6620483   -8.5378245    529.49133  0.011886928  0.010763728         2297 
 3713000   0.65893019     -8.55774    529.12169  0.011875431  0.010759239         2349 
 3714000   0.66642429    -8.577679    528.94644  0.011868301   0.01075476         2363 
 3715000   0.65867782   -8.5646806    530.16317    0.0118924  0.010750275         2399 
 3716000   0.65719645   -8.5601585    529.30653  0.011869989  0.010745792         2372 
 3717000   0.65080455   -8.5353743    529.04092   0.01186084  0.010741316         2387 
 3718000   0.67347206   -8.5581016    529.75805  0.011873723  0.010736841         2371 
 3719000   0.66517345   -8.5399971    529.38819  0.011862243  0.010732368         2301 
 3720000   0.64798737   -8.5702208    528.41004  0.011837142  0.010727892         2340 
 3721000   0.65160007   -8.5727308    528.29565  0.011831399  0.010723421         2448 
 3722000   0.65613445   -8.5693865    528.12686  0.011824442   0.01071895         2358 
 3723000   0.64553009   -8.5711254    530.02379  0.011863725  0.010714479         2374 
 3724000    0.6588848   -8.5726698    529.04386  0.011838611  0.010710014         2352 
 3725000   0.65610627   -8.5456193    528.49212   0.01182309  0.010705552         2420 
 3726000   0.64265584   -8.5687643    528.29525  0.011815514  0.010701088         2379 
 3727000    0.6821558   -8.5642954    528.58472  0.011818816   0.01069663         2386 
 3728000   0.64667676   -8.5475615    528.79205   0.01182028  0.010692174         2349 
 3729000   0.65563512   -8.5819401    528.07316  0.011801045  0.010687721         2378 
 3730000   0.66548244   -8.5752443    529.14072  0.011821732  0.010683268         2369 
 3731000   0.65442107   -8.5612717    529.12314  0.011818171  0.010678819         2393 
 3732000   0.66090286   -8.5593469    528.67967  0.011805102  0.010674373         2477 
 3733000   0.65433788   -8.5571296    530.72478  0.011847593  0.010669927         2435 
 3734000   0.66345432    -8.573472    528.78093  0.011801038  0.010665487         2455 
 3735000   0.64869883   -8.5724518    528.51038  0.011791842   0.01066105         2428 
 3736000   0.63744927   -8.5800005    529.43218  0.011809247  0.010656613         2379 
 3737000   0.65646281   -8.5691342    528.82162  0.011792472  0.010652178         2446 
 3738000   0.64949207   -8.5750394    529.55578  0.011805684  0.010647744         2418 
 3739000   0.65766916   -8.5813062    529.20087  0.011794617  0.010643308         2443 
 3740000   0.66866505   -8.5997928    528.46912  0.011775159  0.010638875         2437 
 3741000   0.67215448   -8.5759501    528.22215   0.01176651  0.010634443         2493 
 3742000    0.6519209   -8.5621316    529.26833  0.011786663  0.010630017         2387 
 3743000   0.66601203   -8.5887176    528.55401  0.011767611  0.010625586         2439 
 3744000   0.66240005   -8.5839739    528.43345  0.011761784  0.010621157         2391 
 3745000   0.65176751   -8.5646854    529.03334  0.011771992  0.010616737         2479 
 3746000   0.65119828   -8.6061462    527.50925  0.011734945  0.010612314         2473 
 3747000   0.64710182   -8.5647274    528.85933  0.011761839  0.010607894         2435 
 3748000   0.64139453   -8.5825804    528.42418  0.011749026  0.010603478         2422 
 3749000   0.65183546   -8.5783769     528.6587  0.011751105  0.010599063         2557 
 3750000   0.64240426   -8.5773982    530.18531  0.011781896  0.010594654         2445 
 3751000   0.64413032   -8.5900006    528.54128  0.011742231  0.010590247         2464 
 3752000   0.66126574   -8.5703789    529.38404  0.011757819  0.010585846         2448 
 3753000   0.65376288   -8.5873445     529.1724  0.011749987  0.010581439         2428 
 3754000   0.66908427   -8.5971182    528.28941  0.011727256  0.010577027         2370 
 3755000   0.65074898   -8.5796962    527.99194  0.011717531  0.010572624         2472 
 3756000   0.64162623   -8.6163746    528.32064  0.011721704  0.010568217         2434 
 3757000   0.64068992   -8.5675801    529.12451  0.011736414  0.010563816         2435 
 3758000   0.65390562   -8.5882091    528.91867  0.011728727   0.01055942         2461 
 3759000   0.65463682   -8.5763384    529.16844  0.011731144  0.010555027         2395 
 3760000   0.66829986   -8.6025871     528.1838  0.011706201  0.010550637         2486 
 3761000   0.65095913   -8.5750577    528.58646   0.01171201  0.010546249         2393 
 3762000   0.65436995    -8.573052    528.90347   0.01171592  0.010541866         2428 
 3763000   0.65886091   -8.5998393    527.50575  0.011681853  0.010537482         2466 
 3764000   0.64355784   -8.5977962    529.04391  0.011712804  0.010533095         2432 
 3765000   0.65875148   -8.5644043    527.76443  0.011681373  0.010528718         2377 
 3766000   0.63344176   -8.5801661    528.61317  0.011697052  0.010524342         2495 
 3767000   0.64290796   -8.5967588    527.08738  0.011660193  0.010519965         2440 
 3768000   0.64806291    -8.597699    528.15344  0.011680676  0.010515589         2379 
 3769000   0.66414177   -8.5829826    527.04427  0.011653053   0.01051122         2466 
 3770000   0.62250535   -8.5689448    528.73908  0.011687424  0.010506848         2458 
 3771000   0.65161775   -8.5873622    527.58464  0.011658814  0.010502485         2475 
 3772000   0.65475124   -8.6018094    528.80351  0.011682651  0.010498122         2468 
 3773000    0.6431748   -8.5713041    528.13258  0.011664736   0.01049376         2426 
 3774000   0.64831078   -8.5966068    527.99889  0.011658693  0.010489401         2437 
 3775000   0.65045615   -8.5983887     527.5435  0.011645552   0.01048504         2447 
 3776000   0.64164801   -8.5677619    529.80107  0.011692291  0.010480689         2386 
 3777000   0.64863802   -8.6031564    528.14612  0.011652681  0.010476332         2415 
 3778000   0.64685579   -8.5927181     528.6167  0.011659977  0.010471979         2498 
 3779000   0.64377773   -8.6034852    529.32748  0.011672565  0.010467628         2419 
 3780000   0.64651425   -8.5875965    528.26509  0.011646056  0.010463277         2412 
 3781000   0.65101623   -8.6022948    527.66706  0.011629795  0.010458931         2472 
 3782000   0.65448002     -8.58944    527.70291   0.01162751  0.010454589         2469 
 3783000   0.65647413   -8.5915058    528.14572  0.011634191  0.010450246         2491 
 3784000   0.64063596   -8.6055093    527.51626  0.011617254  0.010445904         2456 
 3785000   0.64342284   -8.6001698    528.93058  0.011645323  0.010441566         2430 
 3786000   0.63891301   -8.5853773    528.19953  0.011626156  0.010437229         2484 
 3787000   0.63387195   -8.6041118    528.82065  0.011636754  0.010432896         2414 
 3788000   0.62729603   -8.5817334    528.30242  0.011622281   0.01042857         2427 
 3789000   0.66290205   -8.5808702    528.10257  0.011614818  0.010424244         2431 
 3790000   0.64432291   -8.5782483    528.27855  0.011615623  0.010419919         2475 
 3791000   0.64009961   -8.5569143    529.68727  0.011643526  0.010415603         2512 
 3792000    0.6384289    -8.617018    528.84337  0.011621909  0.010411291         2505 
 3793000   0.65443107    -8.596891     528.3399  0.011607784  0.010406972         2414 
 3794000   0.64420601   -8.5960061    528.22739  0.011602253  0.010402659         2432 
 3795000   0.64209801   -8.5886256    528.23193  0.011599296  0.010398351         2518 
 3796000    0.6454135   -8.5947718    528.50763  0.011602292  0.010394045         2403 
 3797000   0.64577299    -8.589512    528.61692  0.011601635  0.010389737         2526 
 3798000   0.65863802   -8.5962022    528.69983    0.0116004  0.010385431         2399 
 3799000   0.63169713    -8.587144    528.85786  0.011600813  0.010381123         2365 
 3800000   0.64461591   -8.6052697    527.96841  0.011578255  0.010376821         2459 
 3801000   0.64899612   -8.6186184    528.90446   0.01159573  0.010372513         2476 
 3802000   0.65776235   -8.5947852    528.92333  0.011593094  0.010368221         2466 
 3803000   0.65227495    -8.600559    528.06162  0.011571163  0.010363927         2509 
 3804000   0.64803235   -8.6075686    527.98933  0.011566538  0.010359637         2435 
 3805000   0.64839904   -8.6164691    528.49224  0.011574513  0.010355347         2410 
 3806000   0.65676778   -8.5936168    528.83059   0.01157888  0.010351058         2422 
 3807000   0.62881251    -8.592808    528.75682  0.011574223  0.010346773         2456 
 3808000   0.62906051   -8.6128161    528.40175  0.011563414  0.010342489         2501 
 3809000   0.63718478   -8.6062574    528.00382  0.011551672  0.010338205         2523 
 3810000   0.63242956   -8.5855669    529.12812  0.011573231  0.010333927         2472 
 3811000   0.63904481   -8.6078904    528.14211  0.011548633  0.010329651         2467 
 3812000   0.63037528   -8.6092313    527.89563  0.011540216  0.010325379         2500 
 3813000   0.63255426    -8.601285    527.89252  0.011537121  0.010321108         2499 
 3814000   0.63878731   -8.6013569    527.95184  0.011535392   0.01031684         2476 
 3815000   0.63606769   -8.6092485    528.20703  0.011537943  0.010312572         2430 
 3816000   0.64303762   -8.5897525    527.62733   0.01152226  0.010308307         2551 
 3817000   0.64380783   -8.6150158     527.2709   0.01151146  0.010304042         2492 
 3818000   0.62625073   -8.5994179    527.46516  0.011512685  0.010299781         2533 
 3819000   0.62786823   -8.6074389    527.29093  0.011505868  0.010295517         2504 
 3820000   0.64214702   -8.6125512    528.36158  0.011526213  0.010291257         2481 
 3821000   0.63055375   -8.5797478     527.9737  0.011514737  0.010287004         2490 
 3822000   0.65685017   -8.5884792    528.18708  0.011516376  0.010282751         2501 
 3823000   0.64476402   -8.5993467     528.4866  0.011519893  0.010278503         2497 
 3824000   0.64426731   -8.5839203    528.83775  0.011524533  0.010274253         2504 
 3825000   0.62995213   -8.5872663    528.26831  0.011509114  0.010270011         2527 
 3826000   0.64411891   -8.6073884    528.92128  0.011520328  0.010265765         2556 
 3827000   0.63875093   -8.5860814    527.81042  0.011493128  0.010261518         2506 
 3828000   0.65068626   -8.5964306    528.34918  0.011501854  0.010257277         2516 
 3829000   0.63460966   -8.5861307    529.67452  0.011527695  0.010253039         2488 
 3830000   0.64102599   -8.6213845    528.01603  0.011488599  0.010248805         2554 
 3831000   0.64060285   -8.5958429    528.22713  0.011490192  0.010244571         2465 
 3832000    0.6348271    -8.626087    527.45559  0.011470415  0.010240339         2544 
 3833000   0.65852004   -8.6076138    527.99338  0.011479115  0.010236111         2553 
 3834000   0.63134935   -8.6238903    528.54312   0.01148807  0.010231885         2464 
 3835000   0.64391924   -8.5942944    527.51238  0.011462677   0.01022766         2447 
 3836000   0.62734675   -8.6115826    528.01351  0.011470575  0.010223439         2489 
 3837000   0.63818132   -8.6110819    527.60932  0.011458807  0.010219219         2520 
 3838000   0.64273634   -8.6019188    529.34386  0.011493483  0.010215005         2461 
 3839000    0.6487578   -8.5997306    527.89776  0.011459099  0.010210787         2527 
 3840000   0.62731284   -8.5839318     528.5439  0.011470137  0.010206574         2474 
 3841000   0.63126199   -8.6071205    527.76307   0.01145021  0.010202364         2485 
 3842000   0.62744857   -8.6059003    527.86597  0.011449462  0.010198161         2477 
 3843000   0.64420206   -8.5893235    528.89256  0.011468743  0.010193952         2444 
 3844000   0.62767097   -8.6016193    528.03316  0.011447129  0.010189751         2530 
 3845000   0.65149311   -8.5897713    528.33379  0.011450667  0.010185552         2520 
 3846000   0.65762384   -8.6111425    527.49588  0.011429535  0.010181358         2554 
 3847000   0.63903091   -8.6252261    527.49061  0.011426449  0.010177162         2504 
 3848000   0.64250416   -8.6104929    527.93998  0.011433212  0.010172969         2479 
 3849000   0.62790018   -8.6135029    527.54713  0.011421736  0.010168778         2501 
 3850000   0.63509837   -8.6079442    528.99895  0.011450194   0.01016459         2482 
 3851000   0.64608642    -8.601396    528.91875  0.011445485  0.010160405         2465 
 3852000   0.63012872   -8.6054239    528.40476  0.011431394  0.010156217         2475 
 3853000   0.63833552   -8.5988847    528.35368  0.011427322  0.010152031         2502 
 3854000    0.6268369   -8.6269373    527.63089  0.011408729  0.010147849         2433 
 3855000   0.64135378   -8.6044235     527.5886  0.011404855  0.010143664         2533 
 3856000   0.63476509   -8.6101278    527.09905  0.011391318  0.010139487         2553 
 3857000   0.62043018   -8.6116706    529.18843  0.011433507   0.01013531         2508 
 3858000   0.63266552   -8.6010502    527.41596  0.011392258  0.010131137         2552 
 3859000   0.62156052   -8.6269946    527.38841  0.011388711  0.010126962         2512 
 3860000   0.63018091   -8.6010252    527.76283  0.011393844  0.010122793         2494 
 3861000   0.63301793   -8.6070904     528.3347  0.011403235  0.010118624         2428 
 3862000   0.63125249    -8.602157     527.4879  0.011382011  0.010114455         2455 
 3863000   0.64163572   -8.5857814    527.90185  0.011387994  0.010110291         2503 
 3864000   0.63243091   -8.6103128    527.17661  0.011369406  0.010106131         2550 
 3865000   0.62246006   -8.6283924    527.08102  0.011364403  0.010101969         2505 
 3866000    0.6464869   -8.6176575    527.39423  0.011368215  0.010097808         2482 
 3867000   0.63426913    -8.598452    527.48339  0.011367197  0.010093653         2487 
 3868000   0.64178132   -8.6281442    528.00476   0.01137549  0.010089499         2548 
 3869000   0.62006803   -8.6183137    528.52849  0.011383831   0.01008535         2458 
 3870000   0.63679769   -8.6112716    528.32111  0.011376424  0.010081202         2519 
 3871000   0.62288647   -8.6067595    527.59782  0.011357914   0.01007705         2554 
 3872000   0.63473481   -8.6289229    528.31665  0.011370451  0.010072903         2460 
 3873000   0.62579225   -8.6086367    528.52817  0.011372067  0.010068758         2474 
 3874000    0.6281022   -8.6135142    527.97858  0.011357309  0.010064614         2500 
 3875000   0.62946267   -8.6212313    528.80429  0.011372135  0.010060475         2503 
 3876000   0.64231457   -8.5959838    528.13657  0.011354845  0.010056344         2474 
 3877000   0.64078365   -8.6064017     527.8401  0.011345544  0.010052212         2517 
 3878000   0.62918651   -8.6121527    528.38273  0.011354279  0.010048081         2434 
 3879000   0.62696089   -8.6334967    526.47764  0.011310425  0.010043946         2520 
 3880000   0.61069638   -8.6144417    528.33521  0.011347406  0.010039815         2489 
 3881000   0.63088413   -8.6080464    528.16392  0.011340804  0.010035684         2548 
 3882000    0.6452784   -8.6030687    527.46268  0.011322829  0.010031558         2516 
 3883000   0.63282205   -8.5951342    528.52594  0.011342732  0.010027436         2522 
 3884000   0.63434998   -8.6261818    527.60347   0.01132002  0.010023317         2534 
 3885000   0.62394309   -8.6112072    527.74271  0.011320092  0.010019201         2492 
 3886000   0.62603353   -8.6345383    527.90909  0.011320747  0.010015089         2551 
 3887000   0.65245594   -8.6076211    528.05916  0.011321052   0.01001098         2492 
 3888000   0.61982609    -8.605177    528.01567  0.011317208  0.010006871         2502 
 3889000   0.62396648   -8.6146299    527.69413  0.011307408  0.010002761         2496 
 3890000   0.64319149    -8.622081    527.88429  0.011308575 0.0099986534         2508 
 3891000   0.63216583   -8.6250959    528.14924  0.011311343 0.0099945449         2495 
 3892000    0.6390493    -8.646619    527.26877  0.011289585 0.0099904373         2536 
 3893000   0.62939868   -8.6370584    527.21069  0.011285442 0.0099863318         2463 
 3894000   0.61025283   -8.6105398    527.96154  0.011298612 0.0099822357         2534 
 3895000     0.633963   -8.6327784    526.96619  0.011274416 0.0099781372         2507 
 3896000   0.60920763    -8.602579    528.29729  0.011299993 0.0099740441         2500 
 3897000   0.62648822   -8.6223383    527.29381  0.011275635 0.0099699484         2526 
 3898000   0.63105222   -8.6166828    527.73878  0.011282255 0.0099658604         2480 
 3899000   0.61665543   -8.6389108    528.62304  0.011298261 0.0099617739         2553 
 3900000   0.63256721   -8.6130195    527.68066  0.011275228 0.0099576835         2467 
 3901000   0.61781849   -8.6303118    528.17047  0.011282801 0.0099535957         2542 
 3902000   0.62948101    -8.617763    527.17601  0.011258671  0.009949514         2462 
 3903000   0.62762942   -8.6179013    527.53713  0.011263497 0.0099454338         2423 
 3904000   0.63506592   -8.6222289    527.61551  0.011262285 0.0099413518         2480 
 3905000   0.62794987   -8.6076254    527.33188  0.011253348 0.0099372773         2506 
 3906000   0.60996953   -8.6131471    527.08883  0.011245281 0.0099332042         2486 
 3907000   0.62750876   -8.6431498    528.58992   0.01127442 0.0099291357         2503 
 3908000   0.62552899   -8.6292993    527.48218  0.011247914 0.0099250649         2454 
 3909000   0.61638921    -8.606024    527.44934  0.011244337 0.0099209967         2526 
 3910000   0.62220253   -8.6280931    527.59204  0.011244502 0.0099169303         2514 
 3911000   0.62582332   -8.6196873    526.81753  0.011225124 0.0099128699         2455 
 3912000   0.62953201   -8.6208846    528.80853  0.011264667 0.0099088068         2478 
 3913000   0.63549348   -8.6270427    527.61496  0.011236369 0.0099047516         2446 
 3914000   0.62407306   -8.6221813    527.85252  0.011238556 0.0099006942         2532 
 3915000   0.63632996   -8.6468194    527.17562  0.011221277 0.0098966361         2545 
 3916000   0.61945103   -8.6092565    528.63261  0.011249417 0.0098925847         2501 
 3917000   0.64205071   -8.6189122     526.6675  0.011204738 0.0098885346         2480 
 3918000   0.62653826   -8.6304245    527.84241  0.011226868 0.0098844866         2463 
 3919000   0.61288072   -8.6239467    527.63598  0.011219614 0.0098804384         2415 
 3920000   0.62345566   -8.6134244    528.04515   0.01122545 0.0098763935         2471 
 3921000   0.61682188   -8.6254744    528.09314  0.011223607 0.0098723558         2475 
 3922000   0.61012648   -8.6212989    527.50577  0.011208265 0.0098683173         2500 
 3923000   0.61943785   -8.6497024    527.25493  0.011200079 0.0098642778         2471 
 3924000   0.62724098   -8.6380183    527.58724  0.011204282 0.0098602457         2540 
 3925000    0.6272736    -8.616602    527.66443  0.011203067  0.009856215         2495 
 3926000   0.63414956   -8.6163087     527.4821  0.011196343 0.0098521865         2446 
 3927000   0.61947789   -8.6323275      525.938  0.011160725 0.0098481599         2503 
 3928000   0.62714157   -8.6286634     527.1871  0.011184384 0.0098441346         2468 
 3929000   0.61286437   -8.6355143    527.47187  0.011187577 0.0098401078         2547 
 3930000   0.60915462   -8.6337889    525.98068   0.01115311 0.0098360814         2541 
 3931000   0.62221048   -8.6250593    527.88833  0.011190713 0.0098320583         2498 
 3932000   0.63764387   -8.6344891    527.17993  0.011172854 0.0098280405         2472 
 3933000    0.6192868   -8.6246282    526.94314  0.011164996 0.0098240275         2487 
 3934000   0.61341567   -8.6210506    527.10756  0.011165641 0.0098200129         2473 
 3935000   0.61219433   -8.6258563    527.42504  0.011169526  0.009816002         2498 
 3936000   0.62041894   -8.6451809    527.11959  0.011160222 0.0098119939         2517 
 3937000    0.6346389   -8.6368417    527.21433  0.011159392 0.0098079882         2529 
 3938000   0.61903808   -8.6364786    527.25766  0.011157475  0.009803982         2503 
 3939000    0.6297814   -8.6291182     527.3333  0.011156243 0.0097999798         2515 
 3940000    0.6263478   -8.6289551     527.2069  0.011150738 0.0097959817         2479 
 3941000   0.62384317   -8.6363285      527.481  0.011153705 0.0097919793         2463 
 3942000   0.61815241   -8.6321293    525.95406  0.011118596 0.0097879749         2563 
 3943000   0.61020296   -8.6349555    526.60269  0.011129484 0.0097839779         2450 
 3944000   0.62140407   -8.6361176    527.14458  0.011138112  0.009779979         2584 
 3945000   0.63532154    -8.642737     527.0227  0.011132714 0.0097759861         2537 
 3946000   0.63862794   -8.6381575    527.14821  0.011132544 0.0097719921         2506 
 3947000    0.6184941   -8.6467196    526.81008  0.011122584 0.0097680016         2492 
 3948000   0.61949105   -8.6281452    528.23452  0.011149834 0.0097640155         2489 
 3949000    0.6136498   -8.6210676    527.23445  0.011125906  0.009760031         2552 
 3950000   0.60642575   -8.6437462    527.12502  0.011120781 0.0097560471         2445 
 3951000    0.6190255   -8.6473425     526.4597  0.011103934 0.0097520597         2514 
 3952000   0.62616017   -8.6532986    526.46316  0.011101197 0.0097480746         2495 
 3953000    0.6103596   -8.6614524    526.41852  0.011097447 0.0097440953         2600 
 3954000   0.61593574   -8.6352009    527.83829  0.011124563 0.0097401181         2536 
 3955000   0.61587694   -8.6671468    527.68976  0.011118621 0.0097361414         2557 
 3956000   0.61107811   -8.6402302    527.09101  0.011103198 0.0097321645         2510 
 3957000    0.6203515   -8.6589944    527.88561  0.011117126 0.0097281927         2522 
 3958000   0.61401247   -8.6333079    528.20543  0.011121051 0.0097242236         2535 
 3959000   0.61280266   -8.6360318    526.88258  0.011090397 0.0097202607         2585 
 3960000   0.62609451   -8.6264177    526.77223  0.011085274 0.0097162972         2571 
 3961000   0.61150273   -8.6408498    526.69952  0.011080946  0.009712335         2529 
 3962000   0.62233377   -8.6603806    527.06085  0.011085749 0.0097083762         2529 
 3963000   0.61332098   -8.6618908    526.93796  0.011080368 0.0097044195         2569 
 3964000    0.6204763   -8.6369813      526.539  0.011069185 0.0097004606         2501 
 3965000   0.60670576   -8.6367973    526.55685  0.011066769 0.0096965056         2473 
 3966000   0.60564691   -8.6374108    526.60117  0.011064909 0.0096925503         2563 
 3967000    0.6230841   -8.6418209    526.48511  0.011059682 0.0096886002         2500 
 3968000   0.61265252   -8.6236396    527.58648  0.011080025 0.0096846503         2513 
 3969000   0.61313296   -8.6387846    526.91684  0.011063174 0.0096807031         2471 
 3970000   0.62060956   -8.6540562    526.59915  0.011053719  0.009676759         2506 
 3971000    0.6132618   -8.6568107    526.93324  0.011057946 0.0096728126         2617 
 3972000   0.61553442   -8.6635918    526.92246  0.011054936 0.0096688718         2470 
 3973000   0.61745274   -8.6269181    526.57676  0.011044902 0.0096649324         2544 
 3974000    0.6169721   -8.6200192    526.82371  0.011047301 0.0096609943         2522 
 3975000   0.60357825   -8.6379339    526.07276  0.011028779 0.0096570593         2470 
 3976000   0.62175295    -8.634063    526.51337   0.01103524  0.009653127         2562 
 3977000   0.60571325   -8.6328059    527.02963  0.011043283 0.0096491958         2553 
 3978000   0.59907749   -8.6268015    527.59345  0.011052318 0.0096452656         2524 
 3979000   0.60529871   -8.6530487    526.76542  0.011032199 0.0096413345         2526 
 3980000   0.61258125   -8.6386314    527.46695  0.011044115 0.0096374097         2517 
 3981000   0.61553433   -8.6381845    526.73434  0.011026006 0.0096334842         2581 
 3982000   0.61768573   -8.6215459    526.77643  0.011024118 0.0096295587         2550 
 3983000   0.61447017   -8.6423104    526.49147  0.011015388 0.0096256388         2508 
 3984000   0.61389683   -8.6572423    526.21601  0.011006861 0.0096217168         2590 
 3985000   0.61315619   -8.6475909    526.33632  0.011006615 0.0096178014         2560 
 3986000   0.62750171   -8.6531786    526.97463  0.011017198 0.0096138886         2589 
 3987000   0.60261232   -8.6460939    527.11609  0.011017392 0.0096099772         2599 
 3988000   0.59964382   -8.6478601    525.53701  0.010981633  0.009606069         2549 
 3989000   0.61613344   -8.6485814    526.28927  0.010994595 0.0096021618         2509 
 3990000   0.60736548   -8.6495124    526.78402  0.011002172 0.0095982586         2529 
 3991000   0.60449064    -8.664055    526.42832  0.010991989 0.0095943538         2556 
 3992000   0.62931494   -8.6216128    527.47507  0.011011086 0.0095904519         2449 
 3993000    0.6021521   -8.6612443    527.38361   0.01100642 0.0095865515         2551 
 3994000   0.61253557   -8.6586168    526.12917  0.010977491 0.0095826528         2523 
 3995000   0.62267411   -8.6524051    526.80848  0.010988913 0.0095787539         2579 
 3996000   0.61191505   -8.6319188    527.77988  0.011006421 0.0095748607         2580 
 3997000   0.60577922   -8.6483774    525.13439  0.010948511 0.0095709739         2559 
 3998000   0.60619124   -8.6711714    526.38166   0.01097177 0.0095670896         2569 
 3999000   0.59671883   -8.6546877     525.3926  0.010948416  0.009563201         2546 
 4000000   0.60736369    -8.644889    526.86093  0.010976269 0.0095593169         2491 
 4001000   0.61452968   -8.6522432    527.32919  0.010983279 0.0095554308         2486 
 4002000   0.60471139    -8.630678    526.50099  0.010963289 0.0095515476         2534 
 4003000   0.60142992   -8.6471115    526.50632  0.010960661 0.0095476683         2564 
 4004000   0.61359027   -8.6634641    525.77179  0.010942636 0.0095437875         2567 
 4005000   0.60928594   -8.6340419     526.3402  0.010951731  0.009539911         2488 
 4006000   0.60837162    -8.652004    526.98807  0.010962474 0.0095360373         2547 
 4007000   0.61174157   -8.6688545     526.1859  0.010943056 0.0095321679         2492 
 4008000   0.59197355    -8.657045    526.69275  0.010950864 0.0095283005         2579 
 4009000   0.61492062    -8.658738    526.02275  0.010934205 0.0095244317         2602 
 4010000    0.6262238    -8.650707    525.87767  0.010928464 0.0095205674         2556 
 4011000    0.6147235   -8.6592724    526.30603  0.010934639 0.0095167007         2532 
 4012000   0.61654101   -8.6422627     526.8868  0.010943976 0.0095128436         2543 
 4013000    0.6116568   -8.6670332    527.26219  0.010949044 0.0095089821         2578 
 4014000   0.61497758   -8.6705165    526.65655  0.010933743 0.0095051236         2555 
 4015000   0.61127545   -8.6464022    526.54222  0.010928647 0.0095012692         2568 
 4016000   0.62538164   -8.6695716    526.00437  0.010914765  0.009497418         2589 
 4017000   0.60113623   -8.6511625    526.16648  0.010915411 0.0094935656         2545 
 4018000   0.61301639   -8.6690219    525.35945  0.010895957 0.0094897172         2615 
 4019000   0.60423944   -8.6640027    526.65263  0.010920059 0.0094858694         2553 
 4020000    0.6099625   -8.6548444    526.49158  0.010914005 0.0094820267         2617 
 4021000   0.61698287   -8.6499296    526.84107  0.010918533 0.0094781814         2553 
 4022000   0.60854225   -8.6309486    527.26385  0.010924578 0.0094743406         2476 
 4023000    0.6105545   -8.6508743    527.89532  0.010934943  0.009470502         2550 
 4024000    0.6049125   -8.6456505    526.30461  0.010899284 0.0094666666         2503 
 4025000   0.61074755   -8.6397383    525.89297  0.010888053 0.0094628346         2501 
 4026000   0.61037969   -8.6614108    526.85293  0.010905219 0.0094590021         2525 
 4027000   0.60934707   -8.6600943    526.88089  0.010903089 0.0094551678         2528 
 4028000   0.60109667   -8.6608997    526.68126  0.010896253 0.0094513419         2510 
 4029000   0.60161933    -8.676628    526.64756  0.010892851 0.0094475184         2573 
 4030000   0.62288185   -8.6601949    526.72645  0.010891779 0.0094436953         2501 
 4031000   0.60121865   -8.6697884    526.15235  0.010877209  0.009439869         2567 
 4032000   0.59509163   -8.6541297    526.86382  0.010889216 0.0094360453         2539 
 4033000   0.61292744    -8.650557    526.39536  0.010876836 0.0094322257         2519 
 4034000   0.60662712   -8.6540683    526.84123  0.010883351 0.0094284079         2488 
 4035000   0.59951304    -8.648563    526.79391  0.010879676 0.0094245923         2497 
 4036000   0.63105948   -8.6589759    526.46014  0.010870089 0.0094207802         2528 
 4037000   0.60569865   -8.6564663    526.27108  0.010863493 0.0094169698         2568 
 4038000   0.59777576   -8.6916307    525.87014  0.010852529 0.0094131613         2571 
 4039000   0.59994129   -8.6488816    527.88415  0.010891395 0.0094093528         2537 
 4040000   0.60759799   -8.6826656    526.74802  0.010865264 0.0094055519         2542 
 4041000   0.59920786   -8.6427471    527.41266  0.010876282 0.0094017498         2517 
 4042000   0.61463564    -8.670589    525.93663   0.01084316 0.0093979459         2568 
 4043000   0.61754296   -8.6653032    526.64589  0.010855097 0.0093941469         2514 
 4044000   0.59231163   -8.6548962    526.31541  0.010845603 0.0093903484         2546 
 4045000   0.60452169   -8.6708706    525.67003  0.010829626 0.0093865523         2521 
 4046000   0.59872549   -8.6619009    525.50188  0.010823486 0.0093827587         2546 
 4047000   0.61299508   -8.6419794    526.74589  0.010846427 0.0093789643         2472 
 4048000   0.58730378   -8.6530658    526.93307  0.010847601 0.0093751733         2430 
 4049000   0.59735889   -8.6831639    526.77667  0.010841703 0.0093713838         2488 
 4050000   0.62141631   -8.6876942    525.57923  0.010814387 0.0093675994         2596 
 4051000   0.60529328    -8.652587    526.38347  0.010828262 0.0093638154         2593 
 4052000   0.60108186   -8.6700901    525.82563  0.010814117  0.009360032         2527 
 4053000   0.59558183   -8.6594433    526.67667  0.010828947  0.009356254         2561 
 4054000   0.60085277   -8.6815781    525.76053  0.010807444 0.0093524801         2550 
 4055000   0.60063454   -8.6540051    526.62443  0.010822532  0.009348701         2560 
 4056000   0.60671617   -8.6770774    525.27845   0.01079221 0.0093449222         2605 
 4057000   0.59912214   -8.6536651    525.58415  0.010795829 0.0093411505         2573 
 4058000    0.5975564   -8.6610214    526.00607  0.010801833 0.0093373791         2642 
 4059000   0.60763807   -8.6660865    525.75129  0.010793941 0.0093336076         2500 
 4060000   0.60411242   -8.6724879    526.79667   0.01081274 0.0093298382         2570 
 4061000   0.60339071   -8.6825964    526.27676  0.010799408 0.0093260725         2514 
 4062000   0.60480402   -8.6531634    526.83891  0.010808282 0.0093223068         2536 
 4063000   0.60662774   -8.6665681    526.28513  0.010794264 0.0093185426         2534 
 4064000   0.59979509   -8.6533447    526.89465  0.010804106 0.0093147837         2525 
 4065000   0.60093499   -8.6740135    526.12354   0.01078564 0.0093110255         2502 
 4066000    0.5950505   -8.6678935    526.25583  0.010785699 0.0093072718         2473 
 4067000   0.60662818   -8.6819838    525.52537   0.01076808 0.0093035158         2574 
 4068000   0.59578691   -8.6683894    526.16236  0.010778482 0.0092997621         2537 
 4069000   0.60293575   -8.6715497    525.21768  0.010756486 0.0092960109         2537 
 4070000   0.59775338   -8.6696838    525.86989  0.010767197 0.0092922614         2569 
 4071000    0.5954297   -8.6803549    525.82665  0.010763667 0.0092885177         2570 
 4072000   0.59535224   -8.6697933    526.99142  0.010784861 0.0092847722         2517 
 4073000    0.6071759   -8.6714076    526.62659  0.010774748 0.0092810278         2553 
 4074000    0.6050408    -8.675213    525.66549  0.010752444 0.0092772887         2516 
 4075000   0.60343644   -8.6671564    527.09761  0.010779092 0.0092735489         2562 
 4076000   0.60796387   -8.6894033    526.25978  0.010759318 0.0092698125         2568 
 4077000   0.60269826   -8.6697211    525.85352  0.010748375 0.0092660801         2508 
 4078000   0.60846688   -8.6636061    526.29875  0.010754838 0.0092623455         2525 
 4079000   0.61006465   -8.6756291    525.56824  0.010737277 0.0092586159         2543 
 4080000   0.59831402   -8.6668878     526.0903  0.010745308  0.009254889         2549 
 4081000    0.6001506   -8.6746241    524.77666  0.010715851 0.0092511611         2531 
 4082000   0.59806508   -8.6685143    526.12634   0.01074078 0.0092474358         2520 
 4083000   0.59993552   -8.6752665    525.82441  0.010731987 0.0092437171         2616 
 4084000    0.5951186   -8.6815288    525.52574  0.010723264 0.0092399971         2595 
 4085000   0.61565162   -8.6725945    525.76716  0.010725564 0.0092362765         2595 
 4086000    0.6077727   -8.6803479    525.68769  0.010721318 0.0092325604         2569 
 4087000   0.60461551    -8.679992    526.14484  0.010728016 0.0092288495         2586 
 4088000   0.61030428   -8.6617035    525.91139  0.010720633  0.009225138         2546 
 4089000   0.58956018    -8.669256    525.68042  0.010713304 0.0092214316         2566 
 4090000   0.59503184   -8.6811831    525.61522  0.010709356 0.0092177264         2525 
 4091000   0.59564605   -8.6636021    526.65935  0.010728008 0.0092140193         2549 
 4092000   0.59557223   -8.6763795    525.80238  0.010707934 0.0092103134         2554 
 4093000    0.6030463   -8.6687362    525.66877  0.010702597 0.0092066105         2582 
 4094000   0.61480676   -8.6847863    526.48454  0.010716588 0.0092029088         2583 
 4095000   0.58805887   -8.6787614     525.6653  0.010697299 0.0091992105         2537 
 4096000   0.60911725   -8.6667437    526.27308  0.010707053 0.0091955161         2579 
 4097000   0.59896765   -8.7035314    524.92423  0.010677004 0.0091918223         2558 
 4098000   0.59842814   -8.6659765    526.09174   0.01069814 0.0091881251         2477 
 4099000   0.59983453   -8.6643452    525.69737  0.010687513 0.0091844342         2510 
 4100000   0.57793115   -8.6842058    526.17023  0.010694517 0.0091807461         2607 
 4101000   0.59693524    -8.688946    525.99657   0.01068838 0.0091770606         2571 
 4102000   0.59284441   -8.6984954    525.39543  0.010673562 0.0091733767         2554 
 4103000   0.59529863   -8.7081574    525.64446  0.010676019 0.0091696923         2561 
 4104000   0.58568899   -8.6830368    525.86263  0.010677847 0.0091660065         2552 
 4105000   0.59440788   -8.6902928    526.41679  0.010686496 0.0091623276         2566 
 4106000   0.58957309   -8.6854318     526.3296  0.010682124 0.0091586473         2523 
 4107000   0.59651676   -8.6657714    525.18428  0.010656284 0.0091549737         2494 
 4108000    0.6090536   -8.6714186    525.50838  0.010660264 0.0091513034         2506 
 4109000    0.5919055   -8.6836006    526.20794  0.010671857 0.0091476306         2509 
 4110000   0.59228248   -8.6663558    525.72388  0.010659446 0.0091439608         2547 
 4111000   0.58346327   -8.6627046    524.81613  0.010638452 0.0091402934         2637 
 4112000   0.58802487     -8.68347    525.87266  0.010657277 0.0091366312         2510 
 4113000   0.60447604    -8.665262    526.02575  0.010657787 0.0091329702         2531 
 4114000   0.59212062   -8.6743597     526.2464  0.010659666 0.0091293105         2456 
 4115000   0.59386306   -8.6844251     526.1551  0.010655227 0.0091256514         2528 
 4116000   0.58914488   -8.6801762    525.80196  0.010645488 0.0091219966         2521 
 4117000   0.58834078   -8.6817454    526.72554  0.010661597 0.0091183409         2567 
 4118000   0.59447162    -8.676574    525.38271  0.010631834 0.0091146914         2471 
 4119000   0.58158097   -8.6543079    526.00778  0.010641899 0.0091110406         2519 
 4120000   0.60487282   -8.6675622    526.06115  0.010640395 0.0091073942         2545 
 4121000   0.58355692   -8.6814926    525.94029   0.01063537 0.0091037509         2530 
 4122000   0.58839494   -8.7017331     525.2973   0.01061979 0.0091001057         2593 
 4123000   0.57716697    -8.688619    526.87508  0.010649104 0.0090964657         2489 
 4124000   0.59892616   -8.6488961    526.95722  0.010648182 0.0090928309         2524 
 4125000   0.59046825   -8.6935658    525.02149  0.010606495 0.0090891955         2589 
 4126000   0.59348482   -8.7186166    525.53197  0.010614234 0.0090855574         2568 
 4127000   0.59071333   -8.6783457     525.8045  0.010617165 0.0090819193         2574 
 4128000   0.59509438   -8.6859775    525.35072  0.010605433 0.0090782898         2515 
 4129000   0.60120118   -8.6822408    525.91011  0.010614154 0.0090746598         2554 
 4130000   0.59894161   -8.6828581    525.58291  0.010604982 0.0090710279         2509 
 4131000   0.57856795   -8.6674455    526.44999  0.010619906 0.0090673995         2501 
 4132000   0.59212955   -8.6938713    525.01727  0.010588441 0.0090637736         2572 
 4133000   0.58149649   -8.6921413    525.44562  0.010594516  0.009060148         2606 
 4134000    0.5899364   -8.6903737    525.06288  0.010584238 0.0090565266         2591 
 4135000   0.58228343   -8.6711122    525.43368  0.010589151 0.0090529073         2499 
 4136000   0.60259817   -8.6778911    525.80322  0.010594037 0.0090492876         2512 
 4137000   0.60215641   -8.6661623    525.68199  0.010589034 0.0090456684         2562 
 4138000   0.58200154   -8.6780104    525.81305  0.010589114 0.0090420545         2562 
 4139000   0.58402898   -8.6899145    526.15019  0.010593344 0.0090384411         2525 
 4140000   0.58047868   -8.6853797    524.93955  0.010566416 0.0090348292         2568 
 4141000   0.58690363   -8.6735245    525.53316   0.01057581 0.0090312197         2531 
 4142000   0.58410112   -8.7055798    525.16456  0.010565841 0.0090276079         2559 
 4143000   0.59739947   -8.6671285    526.00129  0.010580121 0.0090240062         2601 
 4144000   0.58186852   -8.6894753    525.64069  0.010570316 0.0090204042         2582 
 4145000    0.5924403   -8.6704936    525.35533  0.010562029 0.0090168015         2581 
 4146000   0.58350015   -8.6808624    525.44579    0.0105613 0.0090131994         2544 
 4147000   0.58669034   -8.6854859    526.08856   0.01057167 0.0090095997         2543 
 4148000   0.57989801   -8.6914285    524.69647  0.010541154 0.0090060041         2558 
 4149000   0.58540438   -8.6667989    525.71766  0.010559124  0.009002407         2524 
 4150000   0.60216831   -8.6922534    525.29858  0.010548164 0.0089988129         2555 
 4151000   0.58391547   -8.6992712      525.226  0.010544166 0.0089952207         2527 
 4152000   0.58641003   -8.6922675    525.25223  0.010542153 0.0089916317         2494 
 4153000   0.58978984   -8.6837586    526.04748  0.010555572 0.0089880453         2544 
 4154000   0.58188003   -8.6843002    525.87091  0.010549489  0.008984459         2495 
 4155000   0.58772277   -8.6923854    525.38499  0.010537204 0.0089808727         2523 
 4156000   0.58839236   -8.7071443    525.61071  0.010539195 0.0089772932         2579 
 4157000   0.57660657   -8.6961471    526.23239  0.010549122 0.0089737139         2515 
 4158000   0.57957304   -8.7079014    525.54828  0.010532874 0.0089701319         2555 
 4159000   0.58156608   -8.6690412    526.41306  0.010547669 0.0089665541         2541 
 4160000   0.59961767   -8.6813793    525.42326  0.010525306 0.0089629801         2556 
 4161000   0.57861413   -8.7055046    525.40484  0.010522407 0.0089594072         2513 
 4162000   0.59703681   -8.6999092     525.1922  0.010515621 0.0089558348         2589 
 4163000   0.59516863   -8.6952767    524.90023  0.010507251 0.0089522651         2592 
 4164000    0.5788149   -8.6786785    526.25919  0.010531924 0.0089486957         2558 
 4165000   0.57696976   -8.6901794    525.72688  0.010518745 0.0089451278         2489 
 4166000   0.59075015   -8.6800027    526.43944  0.010530474 0.0089415629         2529 
 4167000   0.59414009   -8.6862515    526.33128  0.010525784 0.0089380008         2588 
 4168000   0.58198942   -8.6970185    525.55807  0.010507799   0.00893444         2562 
 4169000   0.58694499   -8.6864238    525.26156  0.010499352  0.008930884         2547 
 4170000   0.58096703   -8.6827623    525.93757  0.010510343 0.0089273241         2533 
 4171000   0.57646484   -8.7037498    524.35518  0.010476208 0.0089237675         2574 
 4172000   0.57135631   -8.6876972    524.70439  0.010480673 0.0089202157         2548 
 4173000   0.58757334   -8.6674506     525.6833  0.010497709 0.0089166689         2568 
 4174000   0.58447464   -8.7035814    525.95452  0.010500609 0.0089131223         2581 
 4175000   0.57750549   -8.7073474    525.58285  0.010490676  0.008909574         2578 
 4176000   0.57976721    -8.697637    525.61417  0.010488788 0.0089060272         2592 
 4177000   0.58206166   -8.7038763    524.87492  0.010471529 0.0089024841         2558 
 4178000   0.58330207   -8.6807516    525.47046  0.010480901 0.0088989404         2550 
 4179000   0.60063301   -8.6868382     525.0807  0.010470621 0.0088954029         2629 
 4180000   0.57541861    -8.681891    526.04277  0.010487296 0.0088918653         2575 
 4181000   0.58063024   -8.7008437     526.4837  0.010493576 0.0088883293         2560 
 4182000   0.57811757    -8.680883    526.05922  0.010482608 0.0088847916         2512 
 4183000   0.57592967   -8.7057653    525.44557  0.010467877  0.008881261         2583 
 4184000   0.57306895   -8.6901845    525.18843  0.010460254  0.008877732         2513 
 4185000   0.58081428   -8.6810211    526.18965  0.010477691 0.0088742039         2574 
 4186000   0.59379983   -8.7054902    525.77224  0.010466878 0.0088706769         2569 
 4187000   0.57746156   -8.7079202     525.5933  0.010460817 0.0088671533         2555 
 4188000    0.5808549   -8.7109658       525.44  0.010455269 0.0088636303         2566 
 4189000   0.58504986   -8.7138547    525.17347  0.010447471 0.0088601109         2521 
 4190000   0.58573371   -8.6894157    525.60599   0.01045358 0.0088565931         2528 
 4191000   0.58517058   -8.7023232    524.76607  0.010434385 0.0088530739         2532 
 4192000   0.58262869   -8.7194396    525.23901  0.010441297  0.008849558         2557 
 4193000   0.59715027   -8.6947467    525.30195  0.010440058 0.0088460442         2518 
 4194000   0.58558577    -8.691647    526.34583   0.01045831 0.0088425295         2573 
 4195000   0.57056928   -8.6967756     525.7648  0.010444275 0.0088390199         2551 
 4196000   0.59355611   -8.7052832    525.84974  0.010443473 0.0088355097         2570 
 4197000   0.57727951   -8.7135592    525.61598  0.010436343     0.008832         2547 
 4198000   0.56594494   -8.6872135    525.75095  0.010436536  0.008828491         2572 
 4199000   0.57522579   -8.7075545    525.54506  0.010429965 0.0088249878         2533 
 4200000    0.5707264    -8.704178    525.48321  0.010426254 0.0088214858         2477 
 4201000   0.57459994   -8.6931615      525.824  0.010430532 0.0088179868         2553 
 4202000   0.57807784   -8.7028064    525.03102  0.010412324   0.00881449         2562 
 4203000   0.57752914   -8.7068245    525.96183  0.010428302 0.0088109914         2575 
 4204000   0.56640573   -8.7178849    524.71296  0.010401066  0.008807493         2597 
 4205000   0.58107647   -8.7022121     525.2685  0.010409602  0.008804002         2578 
 4206000   0.58559097   -8.7066015    524.22643   0.01038648 0.0088005139         2573 
 4207000   0.57166061   -8.7110903    525.32917  0.010405855 0.0087970232         2640 
 4208000    0.5631012   -8.7181238    525.75839  0.010411882 0.0087935333         2548 
 4209000   0.57027861   -8.7104981    525.34528  0.010401229 0.0087900477         2561 
 4210000    0.5700273   -8.6927616    526.16073    0.0104149 0.0087865653         2591 
 4211000   0.57851787   -8.7199596    525.00522  0.010389559 0.0087830839         2510 
 4212000   0.57075725   -8.6854027    526.38107  0.010414314  0.008779604         2502 
 4213000   0.57677976   -8.7253836    524.98299  0.010384188 0.0087761276         2554 
 4214000   0.56533032   -8.6919234    525.81384  0.010398154 0.0087726504         2573 
 4215000   0.57736085   -8.7241094    525.00209  0.010379638 0.0087691758         2588 
 4216000    0.5787284    -8.708928    525.26809  0.010382434 0.0087657026         2573 
 4217000    0.5803482   -8.7095764    524.68396  0.010368429  0.008762228         2628 
 4218000   0.57368726   -8.6944012    524.94799  0.010371187  0.008758758         2615 
 4219000    0.5769662   -8.7200298    525.41372  0.010377928  0.008755293         2574 
 4220000   0.58443476   -8.6973206    525.23599  0.010371959 0.0087518258         2572 
 4221000    0.5826466   -8.7163086    525.18539  0.010368503 0.0087483594         2585 
 4222000   0.57729761   -8.7341302    524.18467  0.010346295 0.0087448957         2630 
 4223000   0.57010214   -8.6953278    525.77248  0.010375177 0.0087414326         2514 
 4224000   0.56022127    -8.714884    524.32707  0.010344205 0.0087379736         2586 
 4225000   0.58652468   -8.7217633    524.64377  0.010348003 0.0087345135         2550 
 4226000   0.58561754   -8.7114431    524.21392  0.010337078 0.0087310587         2597 
 4227000      0.59354   -8.7071776    524.84386  0.010347052 0.0087276062         2593 
 4228000   0.56904982   -8.7080143    525.04799  0.010348628 0.0087241538         2591 
 4229000   0.56825717   -8.6983577    525.58988  0.010356859  0.008720704         2596 
 4230000   0.57668092     -8.70496    525.35917  0.010349865 0.0087172541         2563 
 4231000   0.57171263   -8.7186089    524.44602  0.010329434 0.0087138103         2584 
 4232000   0.57173562    -8.701543     525.1748  0.010341344 0.0087103648         2608 
 4233000   0.56828611   -8.7219181     524.9509  0.010334493 0.0087069248         2632 
 4234000   0.55671017     -8.69965    524.48014  0.010322787 0.0087034844         2642 
 4235000   0.57553424   -8.7027856    525.29726  0.010336428 0.0087000452         2546 
 4236000   0.56987088   -8.7076431    524.36623  0.010315672 0.0086966078         2570 
 4237000   0.56554815   -8.7031464    525.80062  0.010341449 0.0086931722         2594 
 4238000   0.57568487     -8.71702     524.9234   0.01032176 0.0086897379         2474 
 4239000   0.57643932    -8.734581    525.11582  0.010323107 0.0086863079         2577 
 4240000   0.57692857   -8.7190284    524.47747  0.010308126 0.0086828726         2612 
 4241000   0.56886266    -8.719943    525.38734  0.010323574 0.0086794422         2564 
 4242000   0.57596843    -8.707396    525.34193  0.010320249 0.0086760124         2517 
 4243000   0.56686235   -8.7017794    525.61829  0.010323244 0.0086725878         2540 
 4244000   0.57728406   -8.7175692    524.48847  0.010298627  0.008669162         2619 
 4245000   0.57274409   -8.7342885    524.94221  0.010305108 0.0086657387         2611 
 4246000   0.57940205    -8.718647    525.20308  0.010307801 0.0086623198         2639 
 4247000   0.57055454   -8.7025855    525.25231   0.01030634 0.0086589011         2580 
 4248000   0.57568441    -8.682801     526.7287  0.010332876 0.0086554858         2571 
 4249000    0.5678559   -8.7086217    525.34059   0.01030322 0.0086520729         2556 
 4250000   0.57698771   -8.7061422    524.14237  0.010277301 0.0086486579         2506 
 4251000   0.56683484   -8.7399697    524.70185  0.010285851 0.0086452492         2611 
 4252000   0.57037434   -8.7218576    524.79548  0.010285267 0.0086418362         2531 
 4253000   0.57335568   -8.7133783    525.61877   0.01029898  0.008638429         2588 
 4254000   0.56835591   -8.7296531    524.35608  0.010271824 0.0086350225         2564 
 4255000   0.58210386   -8.7124536    524.71701  0.010276479 0.0086316149         2622 
 4256000   0.57131979   -8.7263812    523.60435  0.010252278 0.0086282113         2603 
 4257000   0.55728942   -8.7281468    524.85582  0.010274368 0.0086248052         2572 
 4258000   0.56254162    -8.732175    524.44158  0.010263848 0.0086214061         2622 
 4259000   0.56932516   -8.7049084    525.27292  0.010277705  0.008618009         2581 
 4260000   0.57877752   -8.7145912    525.80185  0.010285639 0.0086146119         2524 
 4261000   0.56037456   -8.7045848    525.31079  0.010273621 0.0086112205         2630 
 4262000   0.57367736   -8.7159053    524.75825  0.010260407 0.0086078284         2608 
 4263000   0.57488302   -8.7111333    525.03527  0.010263415 0.0086044366         2563 
 4264000   0.57059829   -8.7251791    524.96391  0.010259614 0.0086010463         2636 
 4265000   0.57762326   -8.7111871    525.27236  0.010263235 0.0085976604         2565 
 4266000   0.57919262   -8.7202852    524.80724  0.010251743 0.0085942794         2556 
 4267000   0.57730419   -8.7275433    525.08967  0.010254856 0.0085908966         2601 
 4268000   0.57028569   -8.7090538    525.32599  0.010257068 0.0085875168         2548 
 4269000   0.56175278   -8.7114559    525.10789  0.010250408 0.0085841398         2450 
 4270000   0.57269175   -8.7234031    524.92278  0.010244395 0.0085807573         2576 
 4271000   0.56479503   -8.7288003     523.5161   0.01021455 0.0085773811         2501 
 4272000   0.56174198   -8.7401074    525.18952  0.010244802 0.0085740051         2650 
 4273000   0.57890002    -8.724113    525.28033  0.010244175 0.0085706321         2594 
 4274000   0.56922597   -8.7236589     524.9866  0.010236051 0.0085672573         2580 
 4275000   0.57115913   -8.7246778     524.2368  0.010219041 0.0085638898         2578 
 4276000   0.57214357   -8.7181407    524.55984  0.010222947 0.0085605221         2615 
 4277000   0.56792842   -8.7165117    524.59142  0.010221172 0.0085571552         2581 
 4278000   0.57306658   -8.7233962    524.66064  0.010220131 0.0085537939         2563 
 4279000   0.56471128   -8.7313334    524.39309  0.010212532 0.0085504308         2655 
 4280000   0.55153417   -8.7170636    524.91295  0.010220268 0.0085470702         2521 
 4281000   0.57224993   -8.7295161    525.02457  0.010220053 0.0085437088         2615 
 4282000    0.5670735   -8.7115264    525.59383  0.010228745 0.0085403505         2617 
 4283000   0.56044368   -8.7129035    524.95101  0.010213849 0.0085369966         2579 
 4284000   0.59088564   -8.7221663    524.66615  0.010205924 0.0085336444         2574 
 4285000   0.56550795   -8.7228466    524.44377  0.010199218 0.0085302945         2515 
 4286000   0.53953881   -8.7072062    524.89317  0.010205576 0.0085269458         2574 
 4287000   0.57865617   -8.7253321    524.16736  0.010189086 0.0085235964         2580 
 4288000    0.5720911   -8.7111312    525.39903  0.010210647 0.0085202513         2538 
 4289000   0.56232627   -8.7227593    524.70117  0.010194707  0.008516905         2590 
 4290000   0.56207556   -8.7239605    524.04723  0.010179628 0.0085135613         2626 
 4291000   0.56907484   -8.7376594    524.11069  0.010178488 0.0085102206         2612 
 4292000   0.56014023   -8.7301807     524.3675  0.010181102 0.0085068761         2596 
 4293000   0.55600111   -8.7433606    523.62283  0.010164276  0.008503535         2574 
 4294000   0.55457856   -8.7220888    524.59498  0.010180775 0.0085001921         2559 
 4295000   0.56107925   -8.7182216    524.36992  0.010174038 0.0084968568         2520 
 4296000   0.56773848   -8.7304203    524.34068  0.010171103 0.0084935219         2548 
 4297000   0.55604841   -8.7129099    525.36042  0.010188512 0.0084901896         2626 
 4298000   0.55947524   -8.7239493    524.96771  0.010178527 0.0084868579         2558 
 4299000   0.55193644   -8.7147547    523.99639  0.010157331 0.0084835272         2535 
 4300000   0.56128287   -8.7299535    524.25434  0.010159968  0.008480204         2475 
 4301000   0.57227148    -8.733069    524.15441  0.010155669 0.0084768778         2601 
 4302000   0.57117533   -8.7216823    524.78076  0.010165442 0.0084735533         2607 
 4303000   0.55662036     -8.71598    524.22087  0.010152236  0.008470229         2528 
 4304000   0.56196466   -8.7281019    525.81734  0.010180788 0.0084669069         2569 
 4305000   0.55861467   -8.7047604    525.86584  0.010179362 0.0084635885         2619 
 4306000   0.55405374    -8.733487    524.30242  0.010146741 0.0084602718         2604 
 4307000   0.56770917   -8.7305289     524.6985  0.010152049 0.0084569515         2583 
 4308000   0.56052587   -8.7194804    524.33879  0.010142734 0.0084536408         2601 
 4309000   0.56399686   -8.7188847    523.81288   0.01013021  0.008450328         2623 
 4310000    0.5623152   -8.7512744    524.12699  0.010133933 0.0084470187         2670 
 4311000   0.56017495   -8.7185757    524.33833  0.010135667  0.008443711         2555 
 4312000   0.55455108   -8.7422234    524.22072  0.010131044 0.0084404047         2604 
 4313000     0.567341   -8.7406444    524.11716  0.010126694  0.008437097         2582 
 4314000   0.55877182    -8.726888    524.28431  0.010127575 0.0084337938         2610 
 4315000   0.55167422   -8.7381714    524.73261  0.010133886 0.0084304929         2589 
 4316000   0.56181865   -8.7498036     523.9128  0.010115709 0.0084271931         2575 
 4317000   0.55552168   -8.7157988    524.27849  0.010120425 0.0084238956         2646 
 4318000   0.55978426   -8.7133017    525.22907  0.010136426 0.0084206014         2643 
 4319000   0.55936353   -8.7382165    523.99897  0.010110345 0.0084173049         2565 
 4320000   0.56204122   -8.7378218    524.40301  0.010115799  0.008414012         2621 
 4321000   0.55693126   -8.7484313    524.08033  0.010107235 0.0084107171         2640 
 4322000   0.54883858   -8.7242609    524.80057  0.010118783 0.0084074251         2551 
 4323000   0.55361781   -8.7319713    524.38664  0.010108463 0.0084041369         2582 
 4324000     0.554379   -8.7314412    523.95743  0.010097854 0.0084008459         2653 
 4325000   0.56031443   -8.7302857    524.90723  0.010113819  0.008397559         2592 
 4326000   0.55683417   -8.7414612       524.84  0.010110186 0.0083942745         2575 
 4327000   0.56679671   -8.7710312    522.93003  0.010071066 0.0083909896         2641 
 4328000   0.56311107   -8.7437858    523.81699  0.010085817 0.0083877065         2565 
 4329000   0.55310978   -8.7312945    524.38265  0.010094376 0.0083844262         2580 
 4330000   0.55824751   -8.7403252    524.42999  0.010092956 0.0083811531         2580 
 4331000   0.56371026   -8.7430255    524.41958  0.010090425  0.008377878         2557 
 4332000   0.56250559   -8.7302422    524.16924   0.01008328 0.0083746037         2612 
 4333000    0.5680743   -8.7586207    524.57775   0.01008881 0.0083713333         2567 
 4334000   0.54815373   -8.7381207    523.96431  0.010074687 0.0083680626         2604 
 4335000   0.56605485   -8.7557512    524.08563  0.010074695 0.0083647946         2608 
 4336000   0.54579817   -8.7423933    524.61957  0.010082633  0.008361525         2639 
 4337000   0.56886426    -8.759157    523.74994  0.010063599 0.0083582594         2578 
 4338000   0.55216376   -8.7426186    523.80426  0.010062323 0.0083549944         2629 
 4339000   0.55854451   -8.7686027    523.77189  0.010059382 0.0083517302         2587 
 4340000   0.55435126   -8.7282091    524.76909  0.010076211 0.0083484656         2623 
 4341000   0.56657652    -8.752494    524.26759  0.010064263 0.0083452073         2619 
 4342000   0.56075311   -8.7558897    524.38003  0.010064103 0.0083419497         2555 
 4343000   0.56343948   -8.7391247    524.02831  0.010055037 0.0083386945         2633 
 4344000   0.55040567   -8.7370615    524.12884  0.010054651 0.0083354377         2570 
 4345000   0.55882048   -8.7470174    523.83225  0.010046648 0.0083321846         2607 
 4346000   0.55881483   -8.7434394    523.53376  0.010038613 0.0083289317         2589 
 4347000   0.56250661   -8.7320254    523.50539   0.01003576  0.008325683         2604 
 4348000   0.54317844   -8.7486713    524.01378  0.010043196 0.0083224365         2664 
 4349000   0.54564199   -8.7344786    523.86282  0.010037994 0.0083191905         2579 
 4350000   0.55905188   -8.7377183     523.8472  0.010035387 0.0083159444         2592 
 4351000   0.54883108   -8.7451244    523.90571  0.010034201 0.0083127019         2622 
 4352000   0.56693691   -8.7452069     524.2723  0.010038915 0.0083094621         2619 
 4353000   0.55149765   -8.7292047    523.68943  0.010025451 0.0083062248         2622 
 4354000   0.55872014   -8.7299808    524.40622  0.010036867 0.0083029895         2620 
 4355000   0.55480946   -8.7271702     523.6148  0.010019418 0.0082997571         2534 
 4356000   0.55367471   -8.7461869    524.17956  0.010027922 0.0082965246         2623 
 4357000   0.55447172   -8.7545861    523.94478   0.01002113 0.0082932902         2615 
 4358000   0.55004655   -8.7377828    523.48898  0.010010115 0.0082900602         2619 
 4359000   0.53822442   -8.7602002    524.08307  0.010019176 0.0082868324         2614 
 4360000   0.56219443   -8.7544525    524.61574  0.010027059 0.0082836052         2617 
 4361000   0.55257652   -8.7668022    523.29964  0.009999611 0.0082803828         2648 
 4362000   0.55223351   -8.7518442    523.67289  0.010004449 0.0082771588         2643 
 4363000   0.57448353   -8.7350702    524.90457  0.010025681  0.008273934         2610 
 4364000   0.56216948    -8.747622    524.24622  0.010010812 0.0082707156         2602 
 4365000   0.54827599    -8.763377    523.54586 0.0099951481 0.0082674966         2598 
 4366000   0.55733039   -8.7495441    523.81671 0.0099980285 0.0082642796         2581 
 4367000    0.5568508    -8.720994    524.34388  0.010005799 0.0082610666         2620 
 4368000   0.54787773   -8.7418872    523.97982 0.0099965625 0.0082578557         2603 
 4369000   0.54720726    -8.746301    523.87903  0.009992352 0.0082546412         2612 
 4370000    0.5609722   -8.7438888      524.615    0.0100041 0.0082514321         2568 
 4371000   0.56079285   -8.7488913    524.26544 0.0099951467  0.008248225         2612 
 4372000   0.54686549   -8.7356577       523.59 0.0099799862 0.0082450173         2604 
 4373000   0.53979883   -8.7440102    524.47606 0.0099945892 0.0082418074         2592 
 4374000   0.56891924   -8.7519949    524.44563 0.0099917243 0.0082386033         2650 
 4375000   0.56099431   -8.7455677    523.56434 0.0099726541 0.0082354027         2625 
 4376000   0.55699358   -8.7495267    523.58236 0.0099707184 0.0082322006         2619 
 4377000   0.55832857   -8.7544822    524.45888 0.0099851283 0.0082290004         2652 
 4378000   0.55036313   -8.7526681    523.84838  0.009971227 0.0082258005         2632 
 4379000   0.53880424    -8.744164    522.73473  0.009947757 0.0082226036         2560 
 4380000   0.54405111   -8.7640717    523.63782 0.0099626678  0.008219408         2636 
 4381000   0.54654465   -8.7393616    524.88634 0.0099841425 0.0082162137         2561 
 4382000   0.55263765   -8.7571313    523.91743  0.009963438 0.0082130235         2610 
 4383000   0.56189738   -8.7308031    524.06854  0.009964038 0.0082098354         2573 
 4384000   0.54497202   -8.7561648    524.80188 0.0099757049 0.0082066461         2571 
 4385000   0.54783435   -8.7503523    523.85513 0.0099554377 0.0082034603         2585 
 4386000    0.5493849   -8.7533037    524.37506 0.0099630465  0.008200278         2548 
 4387000   0.55046552   -8.7590117    524.40561 0.0099613558 0.0081970965         2606 
 4388000   0.55867305   -8.7518572    523.37551 0.0099395228  0.008193912         2568 
 4389000   0.55534195   -8.7512379    523.85504  0.009946363 0.0081907313         2620 
 4390000    0.5455785   -8.7614276     524.1457 0.0099496146 0.0081875524         2627 
 4391000   0.55821871   -8.7658859    523.74985 0.0099398362 0.0081843742         2523 
 4392000   0.56009838    -8.757943    524.60952 0.0099538844 0.0081812013         2666 
 4393000   0.55957085   -8.7563647    524.06613 0.0099413106 0.0081780286         2640 
 4394000   0.55182636    -8.775399    522.91372 0.0099171925 0.0081748566         2632 
 4395000   0.54112319   -8.7481824    523.81566 0.0099320375 0.0081716878         2570 
 4396000   0.54713407   -8.7549406    524.27414 0.0099384695 0.0081685191         2624 
 4397000   0.54712909   -8.7413122    524.63767 0.0099430988  0.008165352         2629 
 4398000   0.54734291   -8.7569181    523.05268 0.0099108058 0.0081621855         2657 
 4399000   0.55023156   -8.7558225    524.66439 0.0099390845 0.0081590236         2624 
 4400000   0.55433372   -8.7580201    523.39501 0.0099127843 0.0081558591         2607 
 4401000   0.53774712   -8.7488755    523.96746 0.0099213713 0.0081526976         2670 
 4402000   0.55111811   -8.7547892    523.68386 0.0099137488 0.0081495367         2606 
 4403000   0.55037754   -8.7466673     523.8085  0.009913856 0.0081463792         2579 
 4404000   0.53509773   -8.7658026    523.86353 0.0099126463  0.008143223         2631 
 4405000   0.56060083   -8.7793293    523.76629 0.0099085564 0.0081400673         2645 
 4406000   0.55258257   -8.7641494    523.43309 0.0099000056 0.0081369163         2632 
 4407000   0.54648932   -8.7677924    522.91924 0.0098880425 0.0081337647         2615 
 4408000   0.55217759    -8.756818    523.80179  0.009902484 0.0081306144         2626 
 4409000   0.54426199   -8.7643299    523.61273 0.0098966646 0.0081274661         2663 
 4410000   0.54464139   -8.7455068    524.27857 0.0099070024 0.0081243175         2610 
 4411000   0.53778836    -8.761757     524.4099 0.0099072377 0.0081211715         2670 
 4412000   0.54430801    -8.745471    524.27566 0.0099024566 0.0081180268         2618 
 4413000   0.55201476   -8.7644601    523.84998 0.0098921742 0.0081148847         2515 
 4414000   0.53848805    -8.759361    524.92519 0.0099102323 0.0081117434         2648 
 4415000   0.54475673   -8.7707392    523.51726  0.009881413 0.0081086031         2662 
 4416000   0.54465165   -8.7617018    524.15333 0.0098911785 0.0081054672         2621 
 4417000   0.55659107   -8.7674872    524.13851 0.0098886596 0.0081023315         2652 
 4418000   0.53462919   -8.7556769    523.12295 0.0098672656 0.0080991975         2620 
 4419000   0.55676783   -8.7624723    523.64534 0.0098748839 0.0080960618         2605 
 4420000   0.54952004   -8.7486263    523.35146 0.0098671089 0.0080929286         2668 
 4421000   0.54769708   -8.7559432    523.95288 0.0098762135 0.0080897982         2579 
 4422000   0.53563765   -8.7492803    523.90964 0.0098731652 0.0080866712         2673 
 4423000   0.54794112   -8.7680402    523.24045 0.0098583249 0.0080835395         2652 
 4424000   0.54960162   -8.7642034    523.40759 0.0098592448 0.0080804168         2600 
 4425000   0.54682272   -8.7530574    523.94756 0.0098671856 0.0080772922         2588 
 4426000   0.54388183   -8.7562709    523.75575 0.0098613448 0.0080741682         2626 
 4427000   0.53920247   -8.7657865    523.91688 0.0098621504 0.0080710466         2566 
 4428000   0.54237945   -8.7766181    522.98826 0.0098424469 0.0080679256         2600 
 4429000    0.5400705   -8.7609202    523.54573 0.0098507137 0.0080648089         2603 
 4430000   0.54531375   -8.7739362     523.7195 0.0098517588 0.0080616938         2616 
 4431000   0.54700249   -8.7805268    523.94251 0.0098537295 0.0080585798         2642 
 4432000   0.54264987   -8.7723588    523.08791 0.0098354376 0.0080554666         2628 
 4433000   0.54091571    -8.757913    523.62244 0.0098432672 0.0080523569         2671 
 4434000   0.55233022   -8.7622236    523.11431 0.0098314973 0.0080492449         2651 
 4435000   0.54719733   -8.7738045      524.397 0.0098533823 0.0080461364         2611 
 4436000   0.54443262   -8.7670339    524.50033 0.0098531021 0.0080430292         2664 
 4437000   0.54027145   -8.7647812    523.85328 0.0098387288 0.0080399251         2690 
 4438000   0.54567749   -8.7601385    523.70446 0.0098337176 0.0080368206         2594 
 4439000   0.53570267   -8.7592556    523.23601  0.009822708  0.008033722         2670 
 4440000    0.5284034   -8.7825446    523.57594 0.0098268757  0.008030623         2658 
 4441000   0.54738832   -8.7770218    524.20944 0.0098365504  0.008027525         2633 
 4442000   0.53294194   -8.7699777    523.66598 0.0098241405  0.008024428         2587 
 4443000   0.54142577    -8.774219     524.4053  0.009835796 0.0080213307         2650 
 4444000   0.54399921   -8.7729161    523.56271 0.0098177825 0.0080182394         2596 
 4445000   0.54391163    -8.758692    524.00654 0.0098238945 0.0080151463         2617 
 4446000   0.53654717    -8.767681    524.04394  0.009822386 0.0080120559         2637 
 4447000   0.53582593   -8.7632901    523.95905 0.0098185865 0.0080089667         2689 
 4448000   0.51862241   -8.7681938    524.31577 0.0098230622 0.0080058767         2605 
 4449000   0.55097752   -8.7674915    523.45726 0.0098047738   0.00800279         2615 
 4450000    0.5362397   -8.7831329    523.36181 0.0098007829 0.0079997023         2650 
 4451000   0.53268593   -8.7632661    522.78445 0.0097877715 0.0079966202         2624 
 4452000   0.53618546   -8.7569981    523.32701 0.0097957287 0.0079935383         2609 
 4453000   0.54109235   -8.7703459     524.0171 0.0098064432 0.0079904593         2642 
 4454000   0.53799828    -8.773904    523.65689 0.0097975021 0.0079873801         2645 
 4455000   0.54954099   -8.7845695    523.38795 0.0097902721 0.0079843048         2643 
 4456000   0.53317006   -8.7546807    523.40405 0.0097883761 0.0079812313         2612 
 4457000   0.53573787   -8.7569249    523.32446 0.0097846919 0.0079781603         2616 
 4458000   0.53836385   -8.7766513    523.19421 0.0097800623 0.0079750893         2636 
 4459000   0.53684184   -8.7818427     522.9111 0.0097725779  0.007972019         2619 
 4460000   0.53850137   -8.7807455    522.28755 0.0097587359 0.0079689499         2598 
 4461000   0.54191259   -8.7815813    523.92852 0.0097872024 0.0079658802         2598 
 4462000   0.52798887   -8.7774556    523.73256 0.0097813491 0.0079628153         2566 
 4463000   0.54025596   -8.7726661    523.50354 0.0097748812 0.0079597516         2564 
 4464000   0.53357299   -8.7747789    523.34511  0.009769734 0.0079566887         2595 
 4465000     0.544938   -8.7813322    523.64859   0.00977321 0.0079536272         2616 
 4466000   0.53033663   -8.7702245    523.48682 0.0097680031 0.0079505645         2636 
 4467000   0.53866052     -8.75657    522.54886 0.0097483183 0.0079475046         2609 
 4468000   0.53993702   -8.7767666    523.35213 0.0097611185 0.0079444484         2642 
 4469000   0.53077261   -8.7751933    522.87743 0.0097500825 0.0079413957         2620 
 4470000   0.53390695   -8.7789328    523.96664 0.0097682073 0.0079383438         2644 
 4471000   0.53180876   -8.7823214    522.54372 0.0097395012 0.0079352907         2695 
 4472000   0.52431075   -8.7713203    523.80132  0.009760758 0.0079322409         2583 
 4473000   0.53317411   -8.7743951    523.78119 0.0097582008 0.0079291918         2670 
 4474000   0.53134231   -8.7746754    523.09668   0.00974327 0.0079261434         2676 
 4475000   0.52949395   -8.7679957    523.79101 0.0097540225 0.0079230972         2631 
 4476000   0.52283027   -8.7970171    523.94226 0.0097546592 0.0079200503         2664 
 4477000   0.54147492   -8.7826711    523.98712 0.0097533154  0.007917005         2649 
 4478000    0.5311868   -8.7863234     523.0903 0.0097344481 0.0079139636         2633 
 4479000   0.53806109   -8.7767422    523.59303 0.0097416281 0.0079109265         2657 
 4480000   0.54120417   -8.7781322    523.87087 0.0097446219 0.0079078914         2613 
 4481000   0.53002902   -8.7732177    522.86938 0.0097238225 0.0079048563         2609 
 4482000   0.52599414   -8.7709418    524.62726 0.0097543371 0.0079018206         2623 
 4483000   0.53654073   -8.7742877    523.46313 0.0097305215 0.0078987892         2668 
 4484000   0.54680596   -8.7667698    523.49736 0.0097289876 0.0078957625         2645 
 4485000   0.53551739   -8.7667159    523.49159 0.0097267112 0.0078927334         2669 
 4486000   0.53109879    -8.775377    524.27886 0.0097391674 0.0078897052         2664 
 4487000   0.52037467   -8.7796814    523.56868 0.0097238072 0.0078866809         2646 
 4488000   0.53720045   -8.7692968    523.65207  0.009723189 0.0078836581         2676 
 4489000   0.53437636   -8.7773947    523.26811 0.0097138952 0.0078806317         2661 
 4490000   0.53188604    -8.778063    523.59513 0.0097178012   0.00787761         2623 
 4491000   0.53567486   -8.7827435    522.70883 0.0096991916 0.0078745875         2580 
 4492000   0.52140205   -8.7809465     523.2267 0.0097066396 0.0078715689         2618 
 4493000   0.54004934   -8.7843603    523.00833 0.0097004289 0.0078685501         2642 
 4494000   0.53243497   -8.7877065    522.74688 0.0096934224 0.0078655342         2688 
 4495000   0.52902206   -8.7774587    523.56846 0.0097064972 0.0078625204         2660 
 4496000   0.52892295   -8.7752911    523.53857 0.0097037843 0.0078595087         2702 
 4497000   0.54438776   -8.7791386    523.09656 0.0096934357 0.0078564984         2584 
 4498000   0.51801611   -8.7587383    523.65581 0.0097016416 0.0078534878         2612 
 4499000   0.51824336   -8.7699508    522.65157  0.009680884 0.0078504809         2666 
 4500000   0.52688072   -8.7703157      523.241 0.0096896481 0.0078474741         2582 
 4501000   0.52657211   -8.7624894    523.24873 0.0096876385 0.0078444686         2559 
 4502000   0.52994353   -8.7672579    523.80228  0.009695733 0.0078414651         2608 
 4503000   0.53389651   -8.7799695    522.89019 0.0096767004 0.0078384626         2607 
 4504000   0.52861033   -8.7977848    522.73435 0.0096716686 0.0078354616         2656 
 4505000   0.53670863   -8.7836611    524.51839 0.0097025229 0.0078324635         2666 
 4506000   0.52500733   -8.7845664    522.78508 0.0096683141 0.0078294658         2579 
 4507000   0.52710709   -8.7775118    523.07531 0.0096715353 0.0078264702         2661 
 4508000   0.51869242   -8.7694583    522.75155 0.0096634048 0.0078234745         2593 
 4509000   0.53450822   -8.7899789    522.45136 0.0096557137 0.0078204797         2692 
 4510000    0.5258771   -8.7853198    523.38267 0.0096707811 0.0078174863         2585 
 4511000   0.52898636   -8.7891244    522.92387 0.0096601616 0.0078144968         2588 
 4512000    0.5256659   -8.7934026    522.56013 0.0096513027 0.0078115097         2638 
 4513000   0.51926218   -8.7719698    523.40695 0.0096648008 0.0078085241         2620 
 4514000   0.52287179   -8.7824985    523.42089 0.0096629171 0.0078055392         2590 
 4515000   0.52209921   -8.7889281    523.68244 0.0096656043 0.0078025561         2613 
 4516000   0.52305512   -8.7844708    522.90418 0.0096491029 0.0077995771         2667 
 4517000   0.53750156   -8.7986966    522.28172 0.0096354829 0.0077965961         2682 
 4518000   0.52482642   -8.7772367    523.22924  0.009650827 0.0077936179         2560 
 4519000   0.52451791   -8.7797105     523.1667 0.0096475383 0.0077906393         2586 
 4520000   0.53777424   -8.7770375    523.62277 0.0096538121 0.0077876636         2614 
 4521000   0.53575866   -8.7972555    523.54979 0.0096503316 0.0077846875         2681 
 4522000   0.53400425   -8.7958764    522.51361 0.0096291024 0.0077817139         2624 
 4523000   0.52441881    -8.773477    523.58328 0.0096466813 0.0077787434         2596 
 4524000   0.51914756    -8.776511    523.75828 0.0096477727 0.0077757719         2643 
 4525000   0.52955401   -8.7822762    523.19734 0.0096353102 0.0077728039         2634 
 4526000   0.52453593   -8.7743499    522.75696  0.009625073 0.0077698355         2642 
 4527000   0.52536306   -8.7754266    522.92893 0.0096261124 0.0077668698         2615 
 4528000   0.53896325   -8.7719845    522.97576 0.0096248483 0.0077639039         2669 
 4529000   0.53316478   -8.7627779    522.76398 0.0096188265  0.007760941         2619 
 4530000   0.52776385   -8.7969156    523.32026 0.0096269364 0.0077579808         2612 
 4531000   0.53962708   -8.8038056    522.26811 0.0096054608 0.0077550241         2643 
 4532000   0.52288237   -8.7726499    522.62106 0.0096098313 0.0077520677         2657 
 4533000   0.52535352   -8.7757088    523.00986 0.0096148588 0.0077491095         2648 
 4534000   0.53087935   -8.7928586    522.91199 0.0096109394 0.0077461545         2614 
 4535000   0.52742345   -8.7783308    522.20183 0.0095957705 0.0077431988         2618 
 4536000   0.52401372   -8.7802173    523.54785 0.0096183834 0.0077402473         2604 
 4537000   0.52117094   -8.7938921    522.36474 0.0095945328 0.0077372938         2625 
 4538000   0.52438845   -8.7984665     523.2335 0.0096083719 0.0077343434         2666 
 4539000   0.53773111   -8.7816643    522.46152 0.0095920819 0.0077313937         2579 
 4540000   0.51944877   -8.7734259    522.62139 0.0095929036 0.0077284494         2629 
 4541000   0.53016338   -8.7918896    521.75571 0.0095749047 0.0077255069         2565 
 4542000   0.53210749   -8.7794484    522.82546 0.0095924237 0.0077225633         2614 
 4543000   0.52707769   -8.8141151    522.48714 0.0095841064 0.0077196185         2628 
 4544000     0.523028   -8.7860271    522.70809 0.0095860491 0.0077166763         2609 
 4545000   0.52248652   -8.8015082    522.91863 0.0095878004 0.0077137353         2684 
 4546000   0.52371674   -8.7906775     522.8104 0.0095837073 0.0077107977         2654 
 4547000    0.5231056   -8.7892621    523.59487 0.0095959767  0.007707863         2628 
 4548000   0.53081426   -8.7783819    523.68423 0.0095955041 0.0077049271         2657 
 4549000   0.52899911   -8.7807326     522.8964 0.0095789624 0.0077019958         2691 
 4550000   0.53323608   -8.7833371    523.03033 0.0095793101 0.0076990632         2622 
 4551000   0.51668486   -8.7792742    523.25206 0.0095812652 0.0076961343         2622 
 4552000   0.51832722   -8.7793352    523.33708 0.0095807168 0.0076932035         2597 
 4553000   0.51560993   -8.8008593    522.80905 0.0095689482 0.0076902752         2646 
 4554000   0.52068347   -8.7911565    523.32893 0.0095763602  0.007687347         2582 
 4555000   0.51698711    -8.791101    523.52052  0.009577763 0.0076844213         2649 
 4556000   0.52740795   -8.8084671    522.53501 0.0095576348 0.0076814981         2688 
 4557000   0.53564533   -8.8021838    522.13574 0.0095482361 0.0076785749         2622 
 4558000    0.5252627   -8.7842791    522.85822 0.0095593503 0.0076756542         2636 
 4559000   0.52382205   -8.7861423    523.49992  0.009568983 0.0076727374         2580 
 4560000   0.51557361   -8.7878046    522.65094 0.0095513694 0.0076698211         2626 
 4561000   0.52045657   -8.7957535    523.05501  0.009556658 0.0076669027         2606 
 4562000   0.52984886   -8.8082757    522.77878 0.0095495174 0.0076639892         2635 
 4563000   0.51113042   -8.7960063    523.17022 0.0095545734 0.0076610757         2627 
 4564000   0.52178649   -8.7877161    522.53045 0.0095407984 0.0076581631         2749 
 4565000   0.53533465   -8.8077154    522.95114 0.0095463882 0.0076552538         2574 
 4566000   0.52960688   -8.7864529    523.31771 0.0095509875 0.0076523442         2613 
 4567000   0.52221613   -8.7946769    522.91615  0.009541569 0.0076494381         2601 
 4568000   0.52308031   -8.7996249    522.77153 0.0095368421 0.0076465318         2638 
 4569000   0.52172369   -8.8151604    522.34543 0.0095269831 0.0076436249         2671 
 4570000   0.51763916   -8.7969527    521.84964 0.0095158578  0.007640724         2593 
 4571000   0.52473433   -8.8100789    523.14674 0.0095374232 0.0076378233         2606 
 4572000   0.50500101   -8.7998838    523.30292  0.009538184  0.007634921         2628 
 4573000    0.5147696   -8.8007877    522.93931  0.009529472 0.0076320225         2615 
 4574000   0.53502244   -8.8169613    522.06469  0.009511454 0.0076291229         2641 
 4575000   0.53433847   -8.7826568    522.46086 0.0095165912 0.0076262268         2643 
 4576000   0.52020179   -8.7984665    522.73694 0.0095195392 0.0076233352         2589 
 4577000   0.51141425   -8.8074127    522.88396 0.0095201362 0.0076204415         2648 
 4578000   0.51419877   -8.8025987    523.08511 0.0095217182 0.0076175475         2647 
 4579000   0.51933214   -8.7856316    522.75527 0.0095136361 0.0076146552         2581 
 4580000   0.52096193   -8.7948871    522.11627 0.0094999321 0.0076117661         2649 
 4581000   0.52559043    -8.803114    522.71096 0.0095086765 0.0076088773         2592 
 4582000    0.5310621   -8.8071833    522.03801 0.0094943622 0.0076059908         2589 
 4583000   0.50878899   -8.8019288    521.84296  0.009488744 0.0076031062         2582 
 4584000   0.52668323   -8.8084426    522.54902 0.0094995095 0.0076002251         2638 
 4585000   0.52130965   -8.8167409    522.28576 0.0094926529 0.0075973427         2651 
 4586000   0.51715788   -8.8005864    522.87344 0.0095012618 0.0075944613         2592 
 4587000   0.50726539   -8.8042562    522.42771 0.0094910927 0.0075915835         2650 
 4588000    0.5086015   -8.7941117    521.31127 0.0094687459 0.0075887069         2676 
 4589000   0.53148591   -8.8133496    523.29802 0.0095027606 0.0075858304         2601 
 4590000   0.50974154   -8.7895293    522.97163 0.0094947646 0.0075829573         2631 
 4591000   0.50807914   -8.7934871    522.71354 0.0094880117 0.0075800842         2628 
 4592000   0.52495323   -8.8128186     522.3939 0.0094801449 0.0075772107         2617 
 4593000   0.52577286    -8.799051    521.76472 0.0094666652 0.0075743396         2601 
 4594000    0.5095981   -8.7907558    522.92836 0.0094857125 0.0075714702         2566 
 4595000   0.52069212   -8.8042775    522.51716 0.0094761908 0.0075686021         2639 
 4596000   0.51269355   -8.8073126    522.71705 0.0094777532 0.0075657339         2617 
 4597000   0.52856256   -8.7888687      521.873 0.0094603908 0.0075628677         2622 
 4598000   0.51534996   -8.7993124    522.05909 0.0094617061 0.0075600042         2687 
 4599000   0.50741073   -8.8094701    522.06977 0.0094598422 0.0075571433         2519 
 4600000   0.51832442   -8.8063307    521.73594  0.009451738 0.0075542831         2641 
 4601000   0.50969447   -8.7998503    522.89769 0.0094707254 0.0075514255         2639 
 4602000   0.51643272   -8.7962933    522.99182  0.009470372 0.0075485678         2643 
 4603000   0.52406903   -8.7963648    522.44864 0.0094584808  0.007545713         2638 
 4604000   0.52115392   -8.8166585    521.97053 0.0094477724  0.007542858         2598 
 4605000   0.51037201   -8.8080119    522.55901 0.0094563701 0.0075400053         2610 
 4606000   0.50860082   -8.7998508     522.6009 0.0094550749 0.0075371559         2630 
 4607000   0.50732846   -8.8074887    522.62709 0.0094534963 0.0075343052         2668 
 4608000   0.50703168   -8.8118729    522.41809 0.0094476651 0.0075314559         2598 
 4609000    0.5091813   -8.8102701    522.53133 0.0094476627 0.0075286111         2608 
 4610000    0.5111338   -8.8136645    521.47483 0.0094265154 0.0075257646         2619 
 4611000   0.51740404   -8.8065599    522.34431 0.0094401848 0.0075229177         2635 
 4612000   0.51733478   -8.7823827    522.60275 0.0094428078 0.0075200749         2591 
 4613000   0.52031568   -8.8129327    522.91741  0.009446445 0.0075172307         2657 
 4614000   0.50285717   -8.8116933    522.37283 0.0094345621 0.0075143916         2676 
 4615000   0.52212464   -8.8073578    523.11724 0.0094459596 0.0075115514         2711 
 4616000    0.5074112   -8.8001759    523.04612 0.0094426292 0.0075087159         2625 
 4617000   0.50744813   -8.8091095    522.76567 0.0094355222 0.0075058814         2708 
 4618000   0.50905968   -8.8118754    522.30822 0.0094252241 0.0075030448         2615 
 4619000   0.51854511   -8.8023394    522.10498 0.0094195168 0.0075002117         2637 
 4620000   0.50889697   -8.8147495    522.18823 0.0094189796 0.0074973787         2611 
 4621000   0.52800581   -8.8110736    521.98206 0.0094132233 0.0074945465         2640 
 4622000   0.50715209   -8.7935808    522.37614  0.009418292 0.0074917189         2590 
 4623000   0.50826937   -8.8090571    522.69852 0.0094220658 0.0074888903         2604 
 4624000   0.50532667   -8.8220946    522.29286 0.0094127174 0.0074860628         2568 
 4625000    0.4990162   -8.8126248    522.64193 0.0094169717 0.0074832368         2626 
 4626000   0.50805472   -8.8034971     522.4251 0.0094110301 0.0074804101         2602 
 4627000   0.50074597    -8.803775    522.50046 0.0094103534 0.0074775879         2618 
 4628000   0.52429132   -8.7985841    522.59054 0.0094099421 0.0074747694         2598 
 4629000   0.50945423   -8.7912266    522.18835 0.0094006689 0.0074719523         2662 
 4630000   0.50066983   -8.8113058    522.45855 0.0094035017  0.007469136         2616 
 4631000   0.50113308   -8.8057256    522.99986 0.0094112118 0.0074663209         2646 
 4632000   0.50990115   -8.8050706    522.36699 0.0093977942 0.0074635066         2696 
 4633000    0.4923913   -8.8168858    522.95346 0.0094063144 0.0074606961         2697 
 4634000    0.5086183   -8.8029889    522.90594 0.0094034301 0.0074578839         2635 
 4635000   0.50840296    -8.830084    522.96766 0.0094025109 0.0074550741         2646 
 4636000   0.50276358   -8.8154225    522.55613 0.0093930855 0.0074522664         2627 
 4637000   0.51683534    -8.811495    522.36633 0.0093876488 0.0074494563         2686 
 4638000   0.50579923   -8.8191403    522.87533 0.0093947701  0.007446651         2650 
 4639000    0.5105165   -8.8069143    522.77584 0.0093909579  0.007443845         2662 
 4640000   0.50386642   -8.8208849    522.11495 0.0093770645 0.0074410424         2630 
 4641000   0.50337039   -8.8163922    522.45788 0.0093812016 0.0074382425         2655 
 4642000   0.51208675   -8.8123335    521.27174 0.0093578871 0.0074354417         2605 
 4643000   0.50116349   -8.8064802    521.34011 0.0093570987 0.0074326434         2687 
 4644000   0.50605917   -8.8143321    521.95509 0.0093661191 0.0074298437         2693 
 4645000   0.50640155   -8.8029803    522.25609 0.0093695029 0.0074270457         2595 
 4646000   0.51084266   -8.8206227    522.08981 0.0093645037 0.0074242494         2686 
 4647000   0.52567662   -8.8192424    523.27656 0.0093837701 0.0074214534         2671 
 4648000   0.50448477   -8.8320749    522.28546 0.0093639819 0.0074186605         2685 
 4649000   0.51335723   -8.8104143    523.10584 0.0093766732 0.0074158692         2561 
 4650000   0.51550454   -8.8210623    522.09731 0.0093565826 0.0074130775         2620 
 4651000   0.50225605    -8.807244    522.63331 0.0093641746 0.0074102873         2630 
 4652000    0.5077375    -8.805535    522.86713 0.0093663501 0.0074074993         2622 
 4653000   0.50573727   -8.8053888    521.85636 0.0093462347 0.0074047134         2687 
 4654000   0.50094648   -8.8190215    522.46166 0.0093550648 0.0074019294         2644 
 4655000   0.51317859   -8.8128628     521.8977 0.0093429591 0.0073991473         2722 
 4656000   0.50811327   -8.8046517    522.40444 0.0093500222 0.0073963642         2613 
 4657000   0.50792961   -8.8196086    521.88576 0.0093387332 0.0073935845         2618 
 4658000   0.50361405   -8.8208611    522.45957 0.0093469939 0.0073908051         2684 
 4659000   0.50274681   -8.8139919    522.30618 0.0093422441 0.0073880254         2656 
 4660000   0.49899381   -8.8220648    521.67339 0.0093289232 0.0073852489         2616 
 4661000   0.48940897   -8.8301583    522.06528 0.0093339284 0.0073824733         2683 
 4662000   0.49850958   -8.8053187    521.59677 0.0093235515 0.0073796973         2657 
 4663000   0.50189804   -8.8179564    521.30129 0.0093162716 0.0073769248         2678 
 4664000   0.49220914   -8.8147019     522.2257 0.0093307908 0.0073741544         2669 
 4665000   0.50161922    -8.812973    521.87225 0.0093224768 0.0073713836         2706 
 4666000   0.49768483   -8.8168637    522.05076 0.0093236669 0.0073686173         2650 
 4667000   0.50073396   -8.8063797    522.41989 0.0093282603 0.0073658524         2684 
 4668000   0.51109815   -8.8161509    521.57837 0.0093112391 0.0073630858         2681 
 4669000   0.50253387   -8.8259791    521.54779 0.0093086991 0.0073603226         2629 
 4670000   0.51571419   -8.8318237    521.60848 0.0093077888 0.0073575576         2637 
 4671000   0.52079875   -8.8036153    522.81716 0.0093273596 0.0073547981         2627 
 4672000   0.51488874   -8.8073482     522.5852 0.0093212257 0.0073520411         2631 
 4673000   0.51508987   -8.8240655    521.84963 0.0093061136 0.0073492833         2638 
 4674000    0.5055767   -8.8320711    522.02388 0.0093072294 0.0073465257         2701 
 4675000   0.50393159   -8.8248743    521.39676   0.00929406 0.0073437698         2647 
 4676000   0.49788046   -8.8156684    521.70515 0.0092975683 0.0073410149         2582 
 4677000    0.5002988   -8.8302255    521.59331 0.0092935877 0.0073382604         2697 
 4678000   0.50673833   -8.8288088    522.96479 0.0093160323 0.0073355071         2640 
 4679000   0.49997546   -8.8219259    521.50753 0.0092880874 0.0073327554         2672 
 4680000   0.49702391   -8.8227855    522.07385 0.0092961867 0.0073300071         2641 
 4681000   0.49458389   -8.8192473    522.05097 0.0092937935 0.0073272607         2655 
 4682000   0.50874245   -8.8322099    522.65336 0.0093025303 0.0073245166         2686 
 4683000   0.49669231   -8.8295828    522.56219 0.0092989215 0.0073217716         2721 
 4684000   0.48989612   -8.8335797    521.97556 0.0092864994 0.0073190284         2649 
 4685000   0.51148885   -8.8177743    521.84326 0.0092821641 0.0073162868         2633 
 4686000    0.5043092   -8.8278068     522.1593 0.0092858035 0.0073135455         2603 
 4687000    0.5002824   -8.8179982    521.51062  0.009272289 0.0073108062         2658 
 4688000   0.49641185   -8.8309731     521.8234  0.009275871 0.0073080697         2626 
 4689000   0.50557085   -8.8229306    521.42259 0.0092667696 0.0073053337         2664 
 4690000   0.50294589   -8.8327769    521.98459 0.0092747795 0.0073025965         2604 
 4691000   0.50904388   -8.8446199    521.20801 0.0092590067 0.0072998642         2626 
 4692000   0.50644017   -8.8236479    521.94141 0.0092700592 0.0072971342         2619 
 4693000   0.50018024   -8.8340017    521.46139 0.0092595601 0.0072944038         2699 
 4694000   0.49656317   -8.8320502    522.24311 0.0092714656 0.0072916732         2627 
 4695000   0.50006284   -8.8208342    521.79133 0.0092614719 0.0072889436         2628 
 4696000   0.49982067   -8.8144456    521.00824 0.0092456034 0.0072862181         2651 
 4697000   0.50689009   -8.8317827    521.41132 0.0092507863 0.0072834933         2641 
 4698000   0.50724245   -8.8109357    521.62055 0.0092525285 0.0072807686         2637 
 4699000   0.50835306   -8.8274504    521.29582 0.0092448006  0.007278047         2687 
 4700000   0.49641726   -8.8312294    522.03323 0.0092559083 0.0072753226         2624 
 4701000   0.49668847   -8.8318027    520.82717   0.00923256  0.007272601         2678 
 4702000   0.48583853   -8.8172989    522.10053  0.009253164 0.0072698829         2586 
 4703000   0.49902334    -8.821729    521.08252 0.0092331583 0.0072671636         2657 
 4704000   0.48968177   -8.8132789    522.06007 0.0092485132 0.0072644479         2602 
 4705000   0.49531947   -8.8347593    521.36043 0.0092341556 0.0072617343         2645 
 4706000   0.50097032    -8.819411    521.71408 0.0092384559 0.0072590213         2686 
 4707000    0.5023252   -8.8304407    521.18247 0.0092270814 0.0072563089         2580 
 4708000   0.50791664   -8.8293474    522.40869 0.0092468261 0.0072535985         2653 
 4709000   0.49429981   -8.8277353    522.06631 0.0092388036  0.007250885         2637 
 4710000   0.50624255   -8.8289723    520.90182 0.0092162389 0.0072481755         2665 
 4711000   0.49327932   -8.8266742    521.74722 0.0092292369  0.007245468         2681 
 4712000   0.50220864   -8.8325976    521.91223 0.0092301964 0.0072427596         2643 
 4713000    0.5036732   -8.8481492    521.39438 0.0092190817 0.0072400542         2640 
 4714000   0.50797639   -8.8226005    522.04664 0.0092286565 0.0072373512         2671 
 4715000   0.49703333   -8.8289448    521.30197 0.0092135378 0.0072346474         2576 
 4716000   0.50251884   -8.8256037    521.99116 0.0092237624 0.0072319484         2617 
 4717000   0.49342673   -8.8437879    522.07412 0.0092232726 0.0072292488         2629 
 4718000   0.49314935   -8.8305188     522.0893 0.0092215858  0.007226552         2630 
 4719000    0.4962814   -8.8293856    521.76167  0.009213846 0.0072238554         2683 
 4720000   0.49330794   -8.8414537    521.45355 0.0092064539 0.0072211602         2723 
 4721000   0.50009013    -8.839063    521.49769  0.009205283 0.0072184677         2664 
 4722000    0.5066561   -8.8452248    521.40326 0.0092016671  0.007215777         2679 
 4723000   0.49592242   -8.8317546    521.94614 0.0092092974 0.0072130873         2609 
 4724000   0.49160373   -8.8469766    521.23367 0.0091947796 0.0072103981         2605 
 4725000   0.50255875   -8.8397428    520.78281  0.009184882 0.0072077114         2667 
 4726000   0.49447278   -8.8122739    521.61924 0.0091976873 0.0072050249         2667 
 4727000   0.49021782   -8.8329702    521.27179 0.0091896162 0.0072023408         2640 
 4728000   0.49298375   -8.8202792    521.91226 0.0091989611 0.0071996573         2645 
 4729000   0.49834503   -8.8260264     521.7741 0.0091945813 0.0071969757         2619 
 4730000   0.49071838   -8.8222603     522.3403 0.0092026127 0.0071942966         2591 
 4731000   0.50662002   -8.8280353    521.48371 0.0091855793 0.0071916185         2567 
 4732000    0.5025048    -8.827526    521.86776 0.0091904015 0.0071889407         2586 
 4733000   0.49112747   -8.8351678     521.3418 0.0091791993 0.0071862644         2638 
 4734000   0.49421045   -8.8567982    521.47993 0.0091796917 0.0071835875         2617 
 4735000   0.49293282   -8.8267628    520.62886 0.0091627747 0.0071809126         2632 
 4736000   0.49054444   -8.8359553    521.86203 0.0091825386 0.0071782428         2660 
 4737000   0.49439173   -8.8367735    521.95399 0.0091822178  0.007175572         2677 
 4738000   0.49190224    -8.837392    522.05164 0.0091819974 0.0071729019         2713 
 4739000    0.4960853   -8.8301688    522.10952 0.0091810775 0.0071702324         2603 
 4740000   0.49680335   -8.8243533    521.72123 0.0091723142 0.0071675665         2648 
 4741000   0.49283495    -8.823394    521.54737 0.0091673234 0.0071648994         2683 
 4742000   0.49886582   -8.8499279    521.37194 0.0091623074 0.0071622338         2645 
 4743000    0.4962454   -8.8423843    521.06381 0.0091549618 0.0071595701         2656 
 4744000   0.49055921   -8.8278535    521.55243 0.0091616152 0.0071569064         2617 
 4745000   0.49759944   -8.8332616    521.57039 0.0091599998  0.007154245         2641 
 4746000   0.49164698   -8.8433382     521.5588 0.0091578663 0.0071515855         2612 
 4747000   0.49259005    -8.842225    521.90362 0.0091619904 0.0071489252         2622 
 4748000   0.47784176   -8.8363607    522.30589 0.0091671211 0.0071462675         2602 
 4749000   0.49420478   -8.8289992    521.78339 0.0091560221 0.0071436125         2622 
 4750000    0.5081825   -8.8256282    522.14583 0.0091604532 0.0071409579         2678 
 4751000   0.48573954   -8.8291952    520.69986 0.0091331625 0.0071383046         2660 
 4752000   0.49921478   -8.8430898    521.28012 0.0091414163 0.0071356513         2609 
 4753000   0.48487482   -8.8440133    521.81454 0.0091488629 0.0071329993         2669 
 4754000     0.489938   -8.8488694    521.55154 0.0091423282 0.0071303489         2614 
 4755000   0.49811486   -8.8479253    521.16527 0.0091336361 0.0071277001         2629 
 4756000   0.49605235   -8.8360881    521.88889 0.0091443946 0.0071250519         2617 
 4757000   0.48753627   -8.8608168    521.01095 0.0091270926  0.007122407         2649 
 4758000   0.48610523   -8.8420117    521.56456 0.0091348703 0.0071197623         2590 
 4759000   0.48673301    -8.841919    521.61356 0.0091338089 0.0071171197         2676 
 4760000   0.50240048   -8.8557362      521.455 0.0091291142 0.0071144787         2629 
 4761000   0.48576215   -8.8481408    521.15899 0.0091220155 0.0071118366         2661 
 4762000   0.48845019   -8.8341159    521.08721 0.0091188438 0.0071091998         2606 
 4763000   0.50882746   -8.8331849    522.29215 0.0091380108 0.0071065632         2660 
 4764000   0.48947118     -8.84279    521.18903 0.0091167967 0.0071039281         2694 
 4765000   0.48962816   -8.8434832    521.87226 0.0091268321 0.0071012932         2699 
 4766000   0.50007426   -8.8400295    521.48991 0.0091182318 0.0070986603         2678 
 4767000   0.48821108   -8.8466517    521.84879 0.0091225926 0.0070960284         2660 
 4768000   0.48157698   -8.8386354    521.44218 0.0091135728 0.0070933977         2622 
 4769000   0.48649259   -8.8321807    521.06012 0.0091049856 0.0070907647         2630 
 4770000   0.49188627    -8.857932    521.43743 0.0091096687 0.0070881364         2682 
 4771000   0.49255875   -8.8429655    522.03865 0.0091182606 0.0070855089         2682 
 4772000   0.49121593   -8.8488558    521.36512 0.0091045879 0.0070828823         2679 
 4773000   0.49127466   -8.8397092    521.54245 0.0091057765 0.0070802575         2647 
 4774000   0.48623954   -8.8372225    521.89942 0.0091101001  0.007077631         2656 
 4775000   0.48062964   -8.8403189    521.33084 0.0090982694 0.0070750074         2632 
 4776000   0.48428641   -8.8632411    521.04802 0.0090914297 0.0070723869         2624 
 4777000   0.48015633   -8.8491245    521.50179 0.0090974424 0.0070697675         2697 
 4778000   0.48708428   -8.8449439    521.19574 0.0090902005 0.0070671482         2567 
 4779000    0.4744015   -8.8498202    520.53624 0.0090767985   0.00706453         2646 
 4780000   0.48832467   -8.8444519    521.85573 0.0090979032 0.0070619132         2631 
 4781000   0.49449035   -8.8301937    521.53336 0.0090903814 0.0070592974         2654 
 4782000   0.48841002   -8.8393061    520.57354 0.0090717542 0.0070566843         2689 
 4783000   0.47061921   -8.8504106    521.55678 0.0090869883 0.0070540722         2707 
 4784000   0.48596635   -8.8447286    521.64517 0.0090866286 0.0070514605         2638 
 4785000   0.49192983   -8.8464558    521.90583  0.009089269 0.0070488511         2646 
 4786000   0.49178745   -8.8422758    521.45804  0.009079573 0.0070462434         2613 
 4787000    0.4934368   -8.8351544    521.33714 0.0090755718 0.0070436376         2627 
 4788000   0.48149869   -8.8524838    520.82268 0.0090647222 0.0070410325         2665 
 4789000   0.49670244   -8.8667547    520.67899 0.0090603291 0.0070384267         2601 
 4790000   0.48501914   -8.8401699    521.80922 0.0090781006 0.0070358237         2627 
 4791000   0.48939621    -8.861862    521.40602 0.0090691926 0.0070332204         2689 
 4792000   0.48450278   -8.8637941    520.76254 0.0090561099  0.007030621         2647 
 4793000   0.47973086   -8.8432976    521.55626 0.0090680204 0.0070280217         2611 
 4794000   0.48704622   -8.8441959    520.89911 0.0090547056  0.007025423         2627 
 4795000   0.48596475   -8.8479536    521.14538 0.0090570974 0.0070228259         2618 
 4796000   0.49087211    -8.843405     521.2477 0.0090569867  0.007020229         2637 
 4797000   0.48364779   -8.8463003    521.37074 0.0090572362 0.0070176349         2659 
 4798000   0.49354303   -8.8582891    521.30995 0.0090542927 0.0070150426         2616 
 4799000   0.47803527   -8.8549818    521.38689  0.009053742 0.0070124508         2640 
 4800000   0.47962432   -8.8512083    521.61417 0.0090558015 0.0070098608         2635 
 4801000   0.48300497   -8.8352654    521.69967 0.0090553993 0.0070072735         2603 
 4802000    0.4877655   -8.8530391    520.89697 0.0090395837 0.0070046856         2633 
 4803000    0.4835378   -8.8515305    521.49665 0.0090481063 0.0070020995         2598 
 4804000   0.48009942   -8.8427037    521.12162 0.0090397172 0.0069995126         2686 
 4805000   0.48233915   -8.8511503    521.93079 0.0090518694 0.0069969295         2625 
 4806000   0.49148669   -8.8626315    521.43016 0.0090413053 0.0069943473         2638 
 4807000   0.49056974   -8.8466485    520.05752 0.0090156286  0.006991765         2685 
 4808000   0.48119187   -8.8516824    521.37539 0.0090365951 0.0069891854         2646 
 4809000   0.49409122   -8.8550378    521.22346 0.0090320833 0.0069866063         2637 
 4810000   0.48713091   -8.8695266     521.2844 0.0090312612 0.0069840286         2673 
 4811000   0.48490864   -8.8472052    521.66411 0.0090359611 0.0069814533         2616 
 4812000   0.48529072   -8.8670699    521.24869 0.0090268891 0.0069788798         2662 
 4813000   0.47023534   -8.8640236    520.85366  0.009018174 0.0069763051         2639 
 4814000   0.49012439    -8.861463    521.18341 0.0090220088 0.0069737313         2668 
 4815000   0.49114949   -8.8677956    521.20598 0.0090205258 0.0069711596         2692 
 4816000   0.46726578   -8.8676263    521.10831 0.0090169628 0.0069685894         2672 
 4817000   0.48159241   -8.8609423    521.49595 0.0090217969 0.0069660196         2662 
 4818000   0.47741567   -8.8735731    520.94988 0.0090104794 0.0069634511         2661 
 4819000    0.4817413   -8.8745993    520.96365 0.0090088478 0.0069608851         2656 
 4820000   0.47506642   -8.8841461    521.63295 0.0090185503 0.0069583178         2678 
 4821000   0.47885128    -8.843543    521.10797 0.0090076051 0.0069557526         2586 
 4822000   0.48067534   -8.8537654    521.33924 0.0090097339 0.0069531894         2666 
 4823000   0.47357142     -8.85664    521.23485 0.0090060621  0.006950628         2679 
 4824000   0.48422965    -8.846778    521.68512 0.0090119735 0.0069480695         2654 
 4825000    0.4794497   -8.8558141    520.88954 0.0089963651 0.0069455125         2615 
 4826000   0.49100334   -8.8519962    521.81952 0.0090105594 0.0069429559         2657 
 4827000   0.47185973   -8.8634895    521.17911 0.0089976367 0.0069403995         2645 
 4828000   0.48258069   -8.8513856    520.94714 0.0089917691 0.0069378463         2653 
 4829000   0.48041436   -8.8430588    520.49539 0.0089821114 0.0069352921         2636 
 4830000   0.48633908   -8.8581259    520.78325 0.0089852182 0.0069327413         2682 
 4831000   0.48229722   -8.8560511    521.04414 0.0089878586 0.0069301912         2668 
 4832000   0.48810215   -8.8512487    520.39287 0.0089747666 0.0069276411         2690 
 4833000   0.47414835   -8.8636502    521.01088 0.0089835658 0.0069250947         2670 
 4834000   0.46535643   -8.8618187    521.58441 0.0089915944 0.0069225486         2652 
 4835000   0.47572332   -8.8585428    520.84877 0.0089770557 0.0069200028         2686 
 4836000   0.47256012   -8.8622961     521.1318 0.0089800764 0.0069174578         2616 
 4837000   0.47311958   -8.8603934    520.49022 0.0089671666 0.0069149151         2662 
 4838000   0.48275052   -8.8564844    521.33412 0.0089798492 0.0069123725         2675 
 4839000   0.47840723   -8.8591516    520.62343 0.0089657545 0.0069098306         2678 
 4840000   0.47658037   -8.8792751    521.38776  0.008977062 0.0069072901         2672 
 4841000   0.47831385   -8.8706346    521.94784 0.0089848489 0.0069047515         2630 
 4842000   0.48088346     -8.85777    521.52568 0.0089757277 0.0069022132         2636 
 4843000   0.46501447   -8.8845006    520.51204 0.0089564327  0.006899676         2604 
 4844000   0.47022898   -8.8669299    521.07404  0.008964252 0.0068971399         2641 
 4845000   0.46539268   -8.8680636    521.00224 0.0089611669 0.0068946078         2727 
 4846000   0.47575111   -8.8745732      520.997 0.0089592276 0.0068920769         2675 
 4847000    0.4650593   -8.8652906    520.52159 0.0089492055 0.0068895457         2630 
 4848000   0.46700838    -8.857181    520.65777 0.0089497004 0.0068870136         2623 
 4849000   0.47805147   -8.8671538    520.74069 0.0089492797 0.0068844825         2610 
 4850000   0.48152633   -8.8700299     521.0789 0.0089532457 0.0068819544         2612 
 4851000   0.48296333   -8.8793294    521.30482  0.008955281 0.0068794272         2675 
 4852000   0.47941266   -8.8807609    520.88633 0.0089462477 0.0068769015         2680 
 4853000   0.47332384   -8.8609021    521.39419  0.008953125 0.0068743774         2668 
 4854000    0.4723004   -8.8413749    520.11968 0.0089293998 0.0068718547         2627 
 4855000    0.4833805   -8.8547021    521.32457 0.0089482418 0.0068693341         2619 
 4856000   0.47406198   -8.8613037    520.33632 0.0089294399 0.0068668139         2624 
 4857000   0.47799063   -8.8717244     520.1773  0.008924873 0.0068642976         2704 
 4858000    0.4652876   -8.8612442    520.01389 0.0089202327 0.0068617793         2636 
 4859000   0.47179979    -8.869346    520.47548 0.0089263133 0.0068592622         2677 
 4860000   0.47587989   -8.8726354    521.06713 0.0089346215 0.0068567467         2651 
 4861000   0.46560627   -8.8663443    520.04818 0.0089153155 0.0068542317         2646 
 4862000    0.4723022    -8.861683    521.04549 0.0089305754 0.0068517196         2580 
 4863000   0.47789367   -8.8776876     520.2768 0.0089155666 0.0068492079         2627 
 4864000   0.48006669    -8.861854    520.43376 0.0089164227  0.006846697         2686 
 4865000   0.47698621   -8.8614337    520.68144 0.0089188325  0.006844187         2641 
 4866000   0.46730666   -8.8704944     520.6634 0.0089166907 0.0068416788         2673 
 4867000   0.46965783   -8.8782185    520.20656 0.0089070365   0.00683917         2645 
 4868000   0.46429775    -8.875323    520.83951  0.008916042 0.0068366625         2636 
 4869000   0.46552022   -8.8627011    522.04445 0.0089348336 0.0068341555         2628 
 4870000   0.47656332   -8.8717393    521.13833 0.0089174937 0.0068316517         2629 
 4871000    0.4791722   -8.8727679    521.61954 0.0089238955 0.0068291489         2751 
 4872000   0.46430724   -8.8768441    520.90007 0.0089097577 0.0068266479         2633 
 4873000   0.47269794   -8.8832668    520.97069 0.0089091369 0.0068241483         2685 
 4874000   0.45641197   -8.8804058    520.85303 0.0089052973 0.0068216475         2678 
 4875000   0.47040034   -8.8688748    521.32098 0.0089114697 0.0068191502         2617 
 4876000   0.46784579     -8.87303    520.40418 0.0088939735 0.0068166543         2651 
 4877000   0.47048935   -8.8781721    521.44997 0.0089100194 0.0068141593         2628 
 4878000   0.47202431   -8.8689075    520.76898 0.0088965591 0.0068116656         2692 
 4879000   0.46274794   -8.8534356    520.30503 0.0088868114 0.0068091733         2589 
 4880000   0.46690899   -8.8734993    520.41339 0.0088868407 0.0068066817         2602 
 4881000   0.46954673    -8.884777    521.61163 0.0089054775 0.0068041916         2613 
 4882000     0.472581   -8.8660961    521.29759 0.0088982929  0.006801702         2626 
 4883000   0.47494237   -8.8806688     520.4055 0.0088812462 0.0067992148         2596 
 4884000   0.47021975   -8.8658799     520.0846 0.0088739524 0.0067967277         2708 
 4885000   0.47025287   -8.8749631    520.35094 0.0088766793  0.006794242         2577 
 4886000   0.46826939   -8.8670288    521.17065 0.0088888431 0.0067917575         2673 
 4887000     0.472745   -8.8750658    521.28825 0.0088890295 0.0067892743         2632 
 4888000   0.46706628   -8.8713262    520.42829 0.0088725499 0.0067867925         2608 
 4889000   0.46519237    -8.864671    520.14344 0.0088658798 0.0067843123         2658 
 4890000   0.46059472   -8.8604939    521.01206 0.0088788695 0.0067818322         2629 
 4891000   0.46342754   -8.8575826    520.76028 0.0088727642 0.0067793545         2634 
 4892000   0.47031689   -8.8746545    520.96356 0.0088744133 0.0067768774         2648 
 4893000   0.47130332   -8.8721171    521.10289 0.0088749726 0.0067744009         2670 
 4894000   0.45528557   -8.8777838    520.05424 0.0088553031 0.0067719252         2615 
 4895000   0.47440392   -8.8743498    520.19628 0.0088559122 0.0067694515         2615 
 4896000   0.46746491   -8.8770176     520.3152 0.0088561275 0.0067669821         2670 
 4897000   0.46662846   -8.8781347    520.45451 0.0088566897 0.0067645107         2663 
 4898000   0.46166817   -8.8774644     520.9878 0.0088639547 0.0067620423         2644 
 4899000   0.46983186   -8.8702048    520.94077 0.0088613454 0.0067595739         2651 
 4900000   0.45810747   -8.8918027    521.03821 0.0088611941 0.0067571053         2618 
 4901000   0.46253423   -8.8745245    521.12293 0.0088608266 0.0067546411         2650 
 4902000   0.45336692   -8.8805273     520.8196 0.0088538623 0.0067521749         2646 
 4903000   0.47186548   -8.8676411     520.3824 0.0088446257 0.0067497101         2645 
 4904000   0.46672071   -8.8760621    519.98705  0.008836104 0.0067472489         2685 
 4905000   0.47637466   -8.8799204    520.19068 0.0088377621 0.0067447874         2610 
 4906000   0.45754086   -8.8656496    520.09904 0.0088344041 0.0067423257         2651 
 4907000   0.46702435    -8.882814    520.22108 0.0088346763 0.0067398682         2668 
 4908000   0.46468919   -8.8933223    520.08022 0.0088304846 0.0067374097         2665 
 4909000   0.47445968   -8.8820891    520.49117 0.0088356619 0.0067349516         2680 
 4910000   0.46934801   -8.8840831    520.30442 0.0088306928 0.0067324958         2670 
 4911000   0.46556387   -8.8796233    520.88102 0.0088386787 0.0067300428         2643 
 4912000   0.47276987   -8.8829937    520.11776 0.0088239305 0.0067275917         2657 
 4913000   0.46276657   -8.8859217     520.9865 0.0088368699 0.0067251385         2648 
 4914000   0.46284232   -8.8780403     519.5544 0.0088107856 0.0067226893         2621 
 4915000    0.4612252   -8.8855022    520.32501 0.0088220585 0.0067202385         2653 
 4916000   0.48249754   -8.8832009    520.11068 0.0088166307 0.0067177906         2662 
 4917000    0.4619356   -8.8759124    520.12151 0.0088150211 0.0067153436         2704 
 4918000   0.46149469   -8.8855016    520.87571 0.0088260084 0.0067128983         2724 
 4919000   0.46207567   -8.8940586     520.3001 0.0088144626 0.0067104536         2678 
 4920000   0.45632274   -8.8927934    520.31427 0.0088129111 0.0067080082         2646 
 4921000   0.47080689   -8.8854499    520.29983 0.0088108756  0.006705567         2639 
 4922000   0.46190388   -8.8642624    520.37504 0.0088103589 0.0067031272         2685 
 4923000   0.46627095   -8.8824546    520.14902 0.0088047433 0.0067006854         2700 
 4924000   0.46484972   -8.8895008    520.74233 0.0088129964 0.0066982493         2675 
 4925000   0.46444709   -8.8881347    521.01606 0.0088158386 0.0066958117         2693 
 4926000    0.4666221   -8.8817223    520.49356 0.0088052098 0.0066933741         2688 
 4927000   0.46917373   -8.8877821     520.1552 0.0087976997 0.0066909372         2668 
 4928000   0.46841072   -8.8933959    520.27727 0.0087979787 0.0066885041         2699 
 4929000   0.46218216   -8.8869139    520.05236 0.0087923914 0.0066860711         2638 
 4930000   0.46458185    -8.864488    520.27633 0.0087943936 0.0066836414         2654 
 4931000   0.46359637   -8.8822269    520.55826 0.0087973748 0.0066812118         2700 
 4932000   0.46112825   -8.8795096    520.36139 0.0087922646 0.0066787829         2672 
 4933000   0.46227414   -8.8860174    520.87285 0.0087991225 0.0066763541         2641 
 4934000   0.46047079   -8.9002598    519.91614 0.0087811806 0.0066739261         2662 
 4935000   0.46064909   -8.8907308    520.08789 0.0087823015 0.0066714995         2644 
 4936000   0.45747529   -8.8813899    520.56605 0.0087885948 0.0066690739         2637 
 4937000   0.45971874   -8.8869879    519.89233 0.0087754428 0.0066666504         2612 
 4938000   0.46492746   -8.8861075    520.40576 0.0087823303 0.0066642281         2643 
 4939000   0.46790834   -8.8901187    520.91399 0.0087891271 0.0066618058         2653 
 4940000   0.44278599   -8.8918899    519.78895 0.0087683696  0.006659385         2627 
 4941000   0.45963841   -8.8859804    519.92595 0.0087689056 0.0066569653         2688 
 4942000   0.46985207   -8.8857572    520.26898 0.0087729155 0.0066545486         2669 
 4943000   0.45871983   -8.8830978    520.47188 0.0087745613 0.0066521325         2649 
 4944000   0.45840471   -8.8783825    519.51365 0.0087566351 0.0066497171         2675 
 4945000   0.46092144   -8.8910309    520.52833 0.0087719638 0.0066473049         2628 
 4946000   0.45673615   -8.8833114     521.1247 0.0087802382 0.0066448912         2625 
 4947000   0.46093743   -8.8955453    519.47595 0.0087506898 0.0066424791         2669 
 4948000   0.45808371     -8.89031    520.84575 0.0087719913 0.0066400693         2686 
 4949000   0.47451224   -8.8653568    521.27253 0.0087774051 0.0066376595         2655 
 4950000   0.46372897   -8.8870897    520.37252 0.0087604802 0.0066352527         2620 
 4951000   0.45817696   -8.8981576    520.21278 0.0087560219 0.0066328463         2669 
 4952000   0.44770387   -8.8899723    519.46661 0.0087416971 0.0066304406         2655 
 4953000   0.45640743   -8.8956142    519.79451  0.008745449 0.0066280358         2663 
 4954000   0.45715386   -8.8999443    520.25971  0.008751509 0.0066256314         2704 
 4955000   0.46083298   -8.8791666    520.27864 0.0087500613 0.0066232287         2736 
 4956000   0.45693444    -8.894218    519.84466 0.0087409984 0.0066208273         2643 
 4957000   0.45998145   -8.8905944    519.74609 0.0087375779 0.0066184271         2693 
 4958000   0.46067163   -8.8916604    520.48419 0.0087482216 0.0066160286         2693 
 4959000   0.45006818   -8.8867343    520.33686 0.0087439816 0.0066136319         2671 
 4960000   0.45623758   -8.8885259    520.48118 0.0087446435 0.0066112366         2655 
 4961000   0.45750315   -8.8917464    520.26592  0.008739265 0.0066088406         2662 
 4962000    0.4625025   -8.8938937     520.3689 0.0087392332 0.0066064466         2660 
 4963000   0.44629191    -8.883612     520.4672 0.0087391229 0.0066040528         2682 
 4964000   0.45156578   -8.9008236    520.49666 0.0087378569 0.0066016603         2658 
 4965000   0.45054649   -8.8912681    520.80887 0.0087413372 0.0065992688         2642 
 4966000   0.46048548   -8.8875112    520.38077 0.0087323932   0.00659688         2619 
 4967000   0.45560596   -8.8952157    520.55343 0.0087335317 0.0065944918         2639 
 4968000   0.47025763   -8.8963444    520.10567  0.008724263 0.0065921045         2650 
 4969000   0.45607966   -8.8873186    520.03901 0.0087213894 0.0065897178         2641 
 4970000   0.46060148   -8.9032572    520.13752 0.0087212863 0.0065873329         2681 
 4971000   0.44405271   -8.9025427    519.67058 0.0087117043 0.0065849482         2703 
 4972000   0.45423571   -8.8819934    521.01716 0.0087325215 0.0065825648         2691 
 4973000   0.45101277   -8.8868326    519.69334 0.0087085821 0.0065801853         2659 
 4974000   0.45574627   -8.8816316    519.93331 0.0087108516 0.0065778038         2720 
 4975000   0.45420965   -8.8877677    519.56887 0.0087029961  0.006575426         2690 
 4976000   0.45090596   -8.8836793    519.78147 0.0087048076  0.006573047         2688 
 4977000   0.45411042   -8.8836373    520.00655 0.0087068273 0.0065706696         2637 
 4978000   0.45791692   -8.9014234    519.79352  0.008701512 0.0065682946         2686 
 4979000   0.45704747   -8.8932878    519.92738 0.0087020048 0.0065659208         2653 
 4980000   0.46115188     -8.88749    520.12387 0.0087035454 0.0065635463         2650 
 4981000   0.45803011   -8.9032638    520.40952 0.0087065769 0.0065611763         2644 
 4982000   0.45131281   -8.8942183     519.9894 0.0086978021 0.0065588038         2675 
 4983000   0.46431343   -8.8959094    519.77323 0.0086924414 0.0065564346         2623 
 4984000   0.45689265   -8.8827539    520.41411  0.008701413 0.0065540656         2651 
 4985000   0.45508832   -8.8908121    519.84683 0.0086901843  0.006551698         2667 
 4986000   0.45531296   -8.8789463     520.0355 0.0086915948 0.0065493303         2581 
 4987000   0.46196456   -8.8926402     520.6695 0.0087004462 0.0065469647         2663 
 4988000   0.45723593   -8.9042659    520.06972 0.0086886814 0.0065446004         2638 
 4989000   0.44564927   -8.8913104    519.91497 0.0086843551 0.0065422371         2669 
 4990000   0.44921738   -8.9059814    520.18018 0.0086870438 0.0065398743         2679 
 4991000    0.4537583   -8.8882015    521.47854 0.0087069816 0.0065375132         2694 
 4992000   0.45014019   -8.8988319    520.48056 0.0086885777 0.0065351542         2632 
 4993000   0.44921205   -8.8901628    520.42385 0.0086858911 0.0065327943         2709 
 4994000   0.44616994   -8.9076851    520.13975 0.0086794112 0.0065304362         2644 
 4995000   0.44643385   -8.9057798    519.70223 0.0086703741 0.0065280799         2704 
 4996000   0.45489516   -8.9076678    519.68701 0.0086683848 0.0065257241         2688 
 4997000   0.44448167     -8.90447    519.38921 0.0086616839 0.0065233697         2625 
 4998000   0.44597857   -8.9040679    519.89852 0.0086684427 0.0065210158         2711 
 4999000    0.4539377   -8.8859846     519.2132 0.0086552843 0.0065186627         2652 
 5000000   0.45453706   -8.8922607     520.1699 0.0086694983 0.0065163139         2585 
 5001000   0.44162304   -8.8956297    520.45114 0.0086724513 0.0065139639         2703 
 5002000    0.4367727    -8.899892    520.60116 0.0086732167 0.0065116141         2616 
 5003000   0.45153533   -8.8913367    520.11031 0.0086633071 0.0065092655         2661 
 5004000   0.44684015   -8.9238904    520.33348 0.0086652924  0.006506919         2684 
 5005000   0.44410965    -8.896521     519.4948 0.0086495971 0.0065045745         2628 
 5006000   0.44922801   -8.8898702    520.11526 0.0086581978 0.0065022306         2606 
 5007000   0.45194247   -8.8958245    520.20251 0.0086579208 0.0064998885         2633 
 5008000   0.45510303    -8.898726    520.60566 0.0086629003 0.0064975456         2640 
 5009000   0.44437902   -8.9032092    519.21709 0.0086380697 0.0064952041         2633 
 5010000   0.46782809   -8.8802228     519.7237 0.0086447721  0.006492866         2690 
 5011000   0.44778467   -8.8824677    519.66386 0.0086420518 0.0064905286         2663 
 5012000   0.45758319   -8.8949436    519.45359 0.0086368314 0.0064881909         2671 
Loop time of 13233.4 on 48 procs for 5000000 steps with 4000 atoms

Performance: 65289.237 tau/day, 377.831 timesteps/s
99.4% CPU use with 48 MPI tasks x no OpenMP threads

MPI task timing breakdown:
Section |  min time  |  avg time  |  max time  |%varavg| %total
---------------------------------------------------------------
Pair    | 984.49     | 1094.3     | 1222.5     | 178.3 |  8.27
Neigh   | 90.614     | 96.272     | 102.33     |  26.3 |  0.73
Comm    | 817.94     | 969.45     | 1096.7     | 210.2 |  7.33
Output  | 19.138     | 19.142     | 19.225     |   0.3 |  0.14
Modify  | 10870      | 10925      | 10988      |  22.9 | 82.56
Other   |            | 128.8      |            |       |  0.97

Nlocal:        83.3333 ave          96 max          75 min
Histogram: 4 5 11 8 8 4 1 3 2 2
Nghost:        2433.65 ave        2455 max        2416 min
Histogram: 5 1 7 10 6 7 2 5 1 4
Neighs:        16920.5 ave       20591 max       14380 min
Histogram: 6 8 5 2 12 3 4 3 1 4
FullNghs:      33840.5 ave       39594 max       30096 min
Histogram: 1 7 12 8 7 5 3 1 2 2

Total # of neighbors = 1624342
Ave neighs/atom = 406.08550
Neighbor list builds = 266105
Dangerous builds = 1

#clear
#
#next RN
#
#jump SELF
Total wall time: 3:40:37
