
units lj                  # Use reduced LJ style units
atom_style atomic         # Uncharged point particles
atom_modify map hash      # Needed for indexing of clusters etc
                          # Used to be able to find where atoms are in relation to each other.

lattice fcc 1.0 spacing 1 1 1
Lattice spacing in x,y,z = 1.5874011 1.5874011 1.5874011
region box block 0 10 0 10 0 10 units lattice
create_box 2 box
Created orthogonal box = (0.0000000 0.0000000 0.0000000) to (15.874011 15.874011 15.874011)
  3 by 4 by 4 MPI processor grid
create_atoms 1 box
Created 4000 atoms
  using lattice units in orthogonal box = (0.0000000 0.0000000 0.0000000) to (15.874011 15.874011 15.874011)
  create_atoms CPU = 0.002 seconds
set type 1 type/fraction 2 0.55 78393
Setting atom values ...
  2215 settings made for type/fraction
mass 1 1.0
mass 2 1.0
pair_style lj/cut  3.5
pair_modify tail  yes
pair_coeff 1  1  1.0  1.0   # Intearaction between 1 and 1 set with epsilon = 1 and sigma = 1
pair_coeff 1  2  1.5  0.8
pair_coeff 2  2  0.5  0.88

write_data data.0
System init for write_data ...
Neighbor list info ...
  update every 1 steps, delay 10 steps, check yes
  max neighbors/atom: 2000, page size: 100000
  master list distance cutoff = 3.8
  ghost atom cutoff = 3.8
  binsize = 1.9, bins = 9 9 9
  1 neighbor lists, perpetual/occasional/extra = 1 0 0
  (1) pair lj/cut, perpetual
      attributes: half, newton on
      pair build: half/bin/atomonly/newton
      stencil: half/bin/3d
      bin: standard
WARNING: Not all mixed pair coeffs generated from mixing. Use write_data with 'pair ij' option to store all pair coeffs. (../write_data.cpp:312)


#############################
#   M E L T   S Y S T E M   #
#############################

velocity all create 2.4 6583654 mom yes dist gaussian # Assign velocities
                                                    # Temperature 2.4, random number seed, zero linear momentum
                                                                                # Gaussian distribution

timestep 0.002   # simulation timestep
thermo 1000       # output thermodynamic data every 1000 steps bf 100

# Define a fix  in this case with index 1 applied to all
# particles in the simulation. This fix is for simulations
# in the anisotropic NPT ensemble. Note that we use the MTK
# correction.
fix 1 all npt temp 2.4 2.4 0.1 iso 5.68 5.68 0.5 mtk yes tchain 5 pchain 5 # Use NPT ensemble
                                                                         # Set temperature and pressure and damping
                                                                         # Numbers of thermostats in chain and in barostat
run 10000          # run for 10000 steps
Per MPI rank memory allocation (min/avg/max) = 3.642 | 3.644 | 3.648 Mbytes
Step Temp E_pair E_mol TotEng Press Volume 
       0          2.4   -4.9973821            0   -1.3982821   -4.1559512         4000 
    1000    2.4298709   -4.6971436            0   -1.0532485     5.743711    3647.5639 
    2000    2.4090172   -4.6719486            0   -1.0593262     5.560129    3662.8684 
    3000    2.4383899   -4.6907634            0   -1.0340929    5.5730978    3670.7584 
    4000    2.3942859   -4.8192384            0   -1.2287074    5.8707984    3573.5935 
    5000    2.3990612   -4.7447616            0   -1.1470694    5.8029044     3618.784 
    6000    2.4416822   -4.7233155            0   -1.0617078    5.5204299    3654.0386 
    7000     2.381472   -4.7360243            0   -1.1647093    5.5691304    3626.8663 
    8000    2.4019258   -4.7111448            0   -1.1091567    5.5086871    3650.9644 
    9000    2.3488067    -4.669176            0   -1.1468468    5.5026021    3663.5123 
   10000    2.4033919   -4.6847306            0    -1.080544    6.1202489    3622.9904 
Loop time of 2.70982 on 48 procs for 10000 steps with 4000 atoms

Performance: 637680.302 tau/day, 3690.280 timesteps/s
99.6% CPU use with 48 MPI tasks x no OpenMP threads

MPI task timing breakdown:
Section |  min time  |  avg time  |  max time  |%varavg| %total
---------------------------------------------------------------
Pair    | 1.2085     | 1.2762     | 1.4386     |   4.0 | 47.10
Neigh   | 0.21856    | 0.226      | 0.25668    |   1.5 |  8.34
Comm    | 0.76344    | 0.93147    | 1.0165     |   5.1 | 34.37
Output  | 0.00026799 | 0.00027236 | 0.00033984 |   0.0 |  0.01
Modify  | 0.19113    | 0.2603     | 0.32163    |   7.8 |  9.61
Other   |            | 0.01554    |            |       |  0.57

Nlocal:        83.3333 ave          93 max          73 min
Histogram: 1 1 4 6 5 15 5 6 3 2
Nghost:        1751.56 ave        1777 max        1723 min
Histogram: 3 2 6 2 5 13 5 4 5 3
Neighs:        10545.6 ave       11851 max        9132 min
Histogram: 2 2 4 7 4 14 5 6 1 3

Total # of neighbors = 506187
Ave neighs/atom = 126.54675
Neighbor list builds = 910
Dangerous builds = 242

# Equilibrate just above the melting temperature to avoid step fn in T

fix 1 all npt temp 1.25 1.25 0.1 iso 5.68 5.68 0.5 mtk yes tchain 5 pchain 5
run 2000
Per MPI rank memory allocation (min/avg/max) = 3.644 | 3.646 | 3.649 Mbytes
Step Temp E_pair E_mol TotEng Press Volume 
   10000    2.4033919   -4.6847306            0    -1.080544    6.1202489    3622.9904 
   11000    1.2716736   -6.8511558            0   -4.9441223    5.5171908    2810.0046 
   12000     1.256946   -6.8990088            0   -5.0140612    5.8325915    2785.5537 
Loop time of 0.656118 on 48 procs for 2000 steps with 4000 atoms

Performance: 526734.531 tau/day, 3048.232 timesteps/s
99.7% CPU use with 48 MPI tasks x no OpenMP threads

MPI task timing breakdown:
Section |  min time  |  avg time  |  max time  |%varavg| %total
---------------------------------------------------------------
Pair    | 0.29283    | 0.32364    | 0.35147    |   2.4 | 49.33
Neigh   | 0.040161   | 0.043609   | 0.048574   |   0.7 |  6.65
Comm    | 0.20526    | 0.23911    | 0.27412    |   3.2 | 36.44
Output  | 5.535e-05  | 5.6725e-05 | 7.078e-05  |   0.0 |  0.01
Modify  | 0.041374   | 0.044819   | 0.048951   |   1.0 |  6.83
Other   |            | 0.004886   |            |       |  0.74

Nlocal:        83.3333 ave          91 max          77 min
Histogram: 3 3 5 11 5 10 4 3 2 2
Nghost:        2101.38 ave        2114 max        2085 min
Histogram: 2 1 5 3 9 7 8 6 2 5
Neighs:        13716.2 ave       15267 max       12287 min
Histogram: 3 4 7 4 7 10 4 2 5 2

Total # of neighbors = 658376
Ave neighs/atom = 164.59400
Neighbor list builds = 143
Dangerous builds = 14

#############################
# L I N E A R  Q U E N C H  #
#############################

# Define solid atoms. This closely follows ten Wolde  Ruiz-Montero and Frenkel  Faraday Discuss  1996  104  93-110
# Compute components of the per-atom q6 vector
compute q6 all orientorder/atom degrees 1 6 components 6 nnn NULL cutoff 1.3 # compute the Q6 parameter.
                                                                             # Use all neighbours within 1.3 unit cell.

# get number of connections
compute coord_number all coord/atom orientorder q6 0.5

# An atom is solid if it has 8 or more connections (of a possible 14)
variable is_solid atom c_coord_number>=8
group solid dynamic all var is_solid    # Must be dynamic to update
dynamic group solid defined

# do clustering
compute cluster solid cluster/atom 1.3 # Create a cluster where all atoms within are solid and max 1.3 units from another member

# define chunks one chunk per cluster
compute clus_chunks solid chunk/atom c_cluster nchunk every compress yes  # Says which atoms are in which chunk

# count the size of each chunk
compute size_chunks solid property/chunk clus_chunks count


# Find the maximum entry in the vector of chunk sizes
variable max_n equal max(c_size_chunks)


# Thermo style which includes this variable
# thermo_style custom step temp pe vol v_max_n

thermo ${N}  # Print the thermo information every 100 steps
thermo 1000  

# Reset the npt fix at a lower temperature (below freezing)
fix 1  all npt temp  ${temp} ${temp}  0.1  iso  5.68  5.68  0.5  mtk yes tchain  5  pchain  5
fix 1  all npt temp  0.45 ${temp}  0.1  iso  5.68  5.68  0.5  mtk yes tchain  5  pchain  5
fix 1  all npt temp  0.45 0.45  0.1  iso  5.68  5.68  0.5  mtk yes tchain  5  pchain  5

dump dmp2 all dcd ${N} traj.dcd
dump dmp2 all dcd 1000 traj.dcd


compute msd all msd com yes
variable twopoint equal c_msd[4]/6/(step*dt+1.0e-6)
fix 9 all vector 10 c_msd[4]
variable fit equal slope(f_9)/6/(10*dt)
thermo_style custom step temp pe c_msd[4] v_twopoint v_fit v_max_n

fix 1 all npt temp 1.25 ${temp} 0.1 iso 5.68 5.68 0.5 mtk yes tchain 5 pchain 5
fix 1 all npt temp 1.25 0.45 0.1 iso 5.68 5.68 0.5 mtk yes tchain 5 pchain 5
run 2000000 # 5000000  # Run for this many steps
Neighbor list info ...
  update every 1 steps, delay 10 steps, check yes
  max neighbors/atom: 2000, page size: 100000
  master list distance cutoff = 3.8
  ghost atom cutoff = 3.8
  binsize = 1.9, bins = 8 8 8
  4 neighbor lists, perpetual/occasional/extra = 1 3 0
  (1) pair lj/cut, perpetual
      attributes: half, newton on
      pair build: half/bin/atomonly/newton
      stencil: half/bin/3d
      bin: standard
  (2) compute orientorder/atom, occasional
      attributes: full, newton on
      pair build: full/bin/atomonly
      stencil: full/bin/3d
      bin: standard
  (3) compute coord/atom, occasional
      attributes: full, newton on
      pair build: full/bin/atomonly
      stencil: full/bin/3d
      bin: standard
  (4) compute cluster/atom, occasional
      attributes: full, newton on
      pair build: full/bin/atomonly
      stencil: full/bin/3d
      bin: standard
Per MPI rank memory allocation (min/avg/max) = 9.845 | 9.850 | 9.854 Mbytes
Step Temp PotEng c_msd[4] v_twopoint v_fit v_max_n 
   12000     1.256946   -6.8990088 1.9151571e-30 1.3299701e-32 8.3333333e+20            2 
   13000    1.2613571   -6.9318488   0.43045162 0.0027593051  0.034903393            2 
   14000    1.2361734   -6.9107276   0.88498125 0.0052677453  0.036040377            3 
   15000    1.2454304   -6.9715944    1.2858193 0.0071434403   0.03532299            1 
   16000    1.2508225   -6.9666474    1.6792912 0.0087463082  0.034749821            4 
   17000    1.2243165   -6.9303586    2.0713145  0.010153502  0.034156551            3 
   18000    1.2393788   -6.9617996    2.4721051  0.011444931  0.033909898            2 
   19000    1.2689495   -6.8804069    2.9140788  0.012781047   0.03394892            5 
   20000    1.2168499   -6.9215773    3.2344785  0.013476993  0.033608081            2 
   21000    1.2472155   -6.9587134    3.6560269  0.014508043  0.033422177            2 
   22000     1.252958    -6.913991    4.0589631   0.01537486  0.033311338            3 
   23000    1.2377612   -6.9154397    4.4668569  0.016184264  0.033286878            3 
   24000    1.2191395   -6.9302384    4.8729373  0.016919921  0.033229017            2 
   25000    1.2392393   -6.9435349    5.2400552   0.01746685  0.033221538            2 
   26000    1.2241053   -6.9275115    5.6451107  0.018093303  0.033164693            3 
   27000    1.2428669   -6.8915865    6.1050248  0.018842669  0.033247822            2 
   28000    1.2434696    -6.949882     6.532641  0.019442384  0.033383876            1 
   29000    1.2866061    -6.905275     7.047625  0.020251796  0.033631233            2 
   30000    1.2461198   -6.9239811    7.5049158  0.020846988   0.03390946            1 
   31000     1.236167   -6.9422553    7.8223398  0.021027795  0.034034533            2 
   32000    1.2455771   -6.9352846    8.2041652  0.021365013  0.034073452            2 
   33000    1.2267671   -6.9501601    8.5017707  0.021469118  0.033994828            4 
   34000    1.2731529   -6.9326552    8.9105182  0.021839505  0.033879894            3 
   35000    1.2628749   -6.9646639    9.2381671  0.021995636  0.033800926            2 
   36000    1.2099703    -6.967178    9.7276668  0.022517747  0.033699454            2 
   37000    1.2305744   -6.9480505    10.137049   0.02283119  0.033672246            4 
   38000    1.2304426   -6.9569479    10.490892  0.023006342  0.033650306            4 
   39000    1.2632759   -6.9509551    10.880323  0.023248553  0.033608468            2 
   40000    1.2329358   -6.9175088     11.37856  0.023705332  0.033597145            2 
   41000    1.2441773   -6.9705706    11.875468   0.02413713  0.033640601            3 
   42000    1.2570916   -6.9625666     12.22387   0.02425371  0.033692029            1 
   43000    1.2134614   -6.9756756    12.619358   0.02445612  0.033693136            1 
   44000    1.2282471   -6.9557369    12.971069  0.024566417  0.033708374            1 
   45000    1.2285087     -6.94923    13.314493  0.024656468  0.033695624            2 
   46000     1.247862   -7.0003948    13.731827  0.024876498  0.033663242            2 
   47000    1.2218819   -6.9822063    14.101192  0.025002114  0.033634249            5 
   48000    1.2539407    -6.965279    14.573365  0.025300981   0.03362936            1 
   49000    1.2396529   -6.9267112    15.087032  0.025658218  0.033660606            2 
   50000     1.227202   -6.9958997     15.44475   0.02574125  0.033686595            3 
   51000    1.2739093   -6.9834962    15.878544  0.025945333  0.033709822            1 
   52000    1.2153614   -6.9838688    16.213374  0.025982971  0.033721334            2 
   53000    1.2352091   -6.9698729    16.609279  0.026115218  0.033727007            3 
   54000    1.2394662   -6.9966246     17.10433  0.026395571  0.033737596            1 
   55000    1.2414884   -6.9919471    17.436921  0.026419577  0.033740966            4 
   56000    1.2313343   -6.9678994    17.868877  0.026590591  0.033729113            2 
   57000    1.2241074   -6.9635618    18.160625  0.026550621  0.033710678            3 
   58000    1.2423257   -6.9556129    18.596133  0.026718582  0.033696796            1 
   59000    1.2489876   -7.0018641    18.843944   0.02661574  0.033662033            2 
   60000    1.2371057   -7.0276166    19.262131  0.026752959  0.033631952            4 
   61000    1.2267024   -6.9299968    19.560848   0.02672247  0.033574954            2 
   62000    1.2515134   -6.9940155    19.977461  0.026851426   0.03353133            3 
   63000    1.2288816   -6.9890523     20.27473  0.026818425  0.033489148            3 
   64000    1.2101227   -6.9327018    20.736829   0.02700108  0.033440789            3 
   65000    1.2541596   -6.9273767    20.961398  0.026873587  0.033393785            2 
   66000    1.2269626   -6.9638108     21.44676  0.027079242  0.033348884            2 
   67000    1.2081173   -7.0070973    21.914903  0.027257342  0.033303629            2 
   68000    1.2591769   -6.9999315    22.318556  0.027351172  0.033271612            2 
   69000    1.2315556   -7.0002166    22.774192  0.027505063  0.033255728            3 
   70000     1.224259   -7.0042379    23.228356  0.027652805  0.033242277            4 
   71000    1.2271331    -6.980138    23.725748  0.027847122  0.033242078            6 
   72000    1.2374101   -7.0330522    24.003807  0.027782184  0.033238608            1 
   73000    1.2128435   -7.0217915     24.33366  0.027778151   0.03322263            2 
   74000     1.218477   -7.0136764    24.724527  0.027842936  0.033205995            2 
   75000    1.2235711   -7.0233863    25.113439  0.027903821  0.033178155            3 
   76000     1.241939   -7.0274288    25.366038  0.027813638  0.033145716            1 
   77000    1.2134702   -7.0313167    25.571945  0.027675265  0.033106687            2 
   78000    1.2012294   -7.0263229    25.986959  0.027763845  0.033063555            2 
   79000    1.2411892   -7.0056014    26.427526  0.027877137   0.03302496            3 
   80000    1.2184418   -6.9621896    26.847444  0.027966087  0.032989241            3 
   81000    1.2187219   -7.0180674    27.185176  0.027968287  0.032964172            4 
   82000    1.2267477   -7.0035874    27.785997  0.028237802  0.032946593            2 
   83000    1.2241785   -7.0090656    28.120299  0.028233232  0.032935027            1 
   84000    1.2000629   -6.9781974    28.541358  0.028314839  0.032923543            4 
   85000    1.2321004   -6.9926822    28.888536  0.028322094  0.032911524            3 
   86000    1.2134235   -6.9889689    29.170687   0.02826617  0.032893537            2 
   87000    1.2144818   -7.0127987    29.603388  0.028355736  0.032878206            5 
   88000    1.2360546    -6.983133    29.997476  0.028406701  0.032864469            1 
   89000    1.2264515   -6.9742784    30.443752  0.028505386  0.032854409            4 
   90000    1.2116188   -7.0039988    30.793713  0.028512697  0.032849349            2 
   91000    1.2283926   -6.9806708    31.181839  0.028554797  0.032831898            1 
   92000    1.1783359   -7.0213286    31.439799  0.028478079   0.03280778            2 
   93000    1.2029729   -7.0083467    31.802862  0.028497188  0.032783361            1 
   94000    1.2439764   -7.0124161    32.303209  0.028637597  0.032763679            2 
   95000    1.2239901   -6.9571567    32.701872  0.028685853  0.032749036            3 
   96000    1.1876171   -7.0173867    32.962587  0.028613357  0.032732926            1 
   97000    1.1988032   -7.0670111    33.274944  0.028586721  0.032714891            2 
   98000    1.2293116    -7.036144     33.77247  0.028718086  0.032700939            5 
   99000    1.2140315    -7.003234    34.265341  0.028842879  0.032689086            1 
  100000    1.2184565   -7.0044435    34.588882  0.028824068  0.032682239            2 
  101000    1.2225945   -6.9948679    35.211032  0.029052007  0.032675805            2 
  102000    1.1885278   -7.0272783    35.488533  0.028993899  0.032675731            2 
  103000    1.2357469   -6.9864682    36.053467  0.029169472  0.032673131            3 
  104000    1.2088919   -7.0960659    36.273546  0.029065341  0.032673795            1 
  105000    1.2175018   -7.0239149     36.80705  0.029211945  0.032670053            4 
  106000    1.2269929   -7.0489193    37.169492  0.029221298  0.032670072            2 
  107000    1.2142394   -6.9894582    37.684569  0.029349353  0.032670287            2 
  108000    1.2190981   -7.0544331     37.94703  0.029280115  0.032672643            2 
  109000    1.1972629   -7.0542077    38.326896  0.029301908  0.032677204            1 
  110000    1.2300957   -7.0452273    38.793663  0.029389138  0.032678538            2 
  111000    1.2197655   -7.0674067    39.121421  0.029370436  0.032678542            1 
  112000    1.1937316   -7.0151812    39.529534  0.029411856  0.032678195            2 
  113000    1.2061172   -7.0243459    39.873092  0.029404935  0.032679683            1 
  114000    1.1875273   -7.0258217    40.081413  0.029299278   0.03267484            2 
  115000     1.228052   -7.0597588    40.496331  0.029345168  0.032661599            2 
  116000    1.1906781   -7.0566402    40.811805  0.029318825    0.0326519            2 
  117000    1.2299921   -7.0446646    41.261749   0.02938871  0.032646137            3 
  118000    1.1996256   -7.0522143    41.708505  0.029455159  0.032642115            3 
  119000    1.2253483   -7.0007781    42.304213  0.029624799  0.032642006            2 
  120000    1.2365634   -7.0270614     42.56313  0.029557729  0.032644714            2 
  121000    1.2289848   -7.0317916    42.908041  0.029550992  0.032640927            2 
  122000    1.2152316   -7.0386823    43.265031  0.029552616  0.032635228            3 
  123000    1.2134958   -7.0812821     43.57449  0.029522012  0.032626149            5 
  124000    1.2044063   -7.0326336    43.640334  0.029328181  0.032611594            4 
  125000    1.2069094   -7.0226628     44.10058  0.029400387  0.032591578            2 
  126000    1.2087239   -7.0495633    44.433776  0.029387418  0.032568909            1 
  127000    1.1961114   -7.0855455    44.583588  0.029254323  0.032542824            4 
  128000    1.2065296   -7.0647398    45.137531  0.029386413  0.032522109            2 
  129000    1.1851154    -7.009387    45.777655  0.029572128  0.032504139            4 
  130000    1.1939354   -7.0590597    45.791947  0.029353812  0.032485216            3 
  131000    1.1782922   -7.0849718    46.103547  0.029327956  0.032464653            2 
  132000     1.211424    -7.027841    46.670629  0.029463781  0.032450871            1 
  133000    1.2184934   -7.0622226    46.867598  0.029365663  0.032432666            2 
  134000    1.2220767   -7.0696545    47.102789  0.029292779   0.03241049            3 
  135000    1.1981632   -7.0246585    47.593408  0.029378647  0.032388555            2 
  136000    1.1879094   -7.0096254    48.226454  0.029550523  0.032373483            4 
  137000    1.1923091   -7.0215675    48.392462  0.029435804  0.032357779            4 
  138000    1.2068949   -7.0310555     48.69322  0.029404118  0.032338879            3 
  139000    1.2033484   -7.0572038    48.902979  0.029318333  0.032314323            2 
  140000    1.2275619   -7.0515944    49.417694  0.029415294  0.032290098            5 
  141000    1.2136221   -7.0791498    49.644854   0.02934093   0.03227113            3 
  142000       1.2026    -7.097745    50.045518  0.029369435  0.032248641            4 
  143000    1.2174829   -7.0654766    50.466481  0.029409371  0.032229111            2 
  144000    1.1941419    -7.046776     50.91425  0.029464265  0.032212176            2 
  145000    1.1852732   -7.0815649    51.033778  0.029329758  0.032193838            4 
  146000    1.1844396   -7.0457675    51.477685   0.02938224  0.032170889            3 
  147000    1.1814471   -7.0643696     51.83741  0.029386287  0.032148626            1 
  148000    1.1994541   -7.0616254    52.224212  0.029405525   0.03212848            4 
  149000     1.188044   -7.0318078     52.57813  0.029406113  0.032103607            3 
  150000    1.1882516   -7.0623979    52.931679  0.029406488  0.032078595            2 
  151000    1.1640749   -7.0666656    53.429707  0.029486593  0.032056118            2 
  152000    1.1976492   -7.0919797    53.483843  0.029322282  0.032034282            3 
  153000     1.174471    -7.086591    53.847214  0.029328548  0.032011757            2 
  154000       1.1859   -7.0005395      54.2848  0.029374891  0.031990367            2 
  155000    1.2207468    -7.091604    54.356388  0.029223864   0.03196404            2 
  156000    1.2026795   -7.0722122    54.688283  0.029213826  0.031934322            3 
  157000    1.2179609   -7.0605992    55.099297  0.029245911  0.031907142            3 
  158000    1.1780413   -7.0859925    55.404482  0.029221773  0.031881572            1 
  159000    1.1888964   -7.1035643    55.868364  0.029281113  0.031854602            4 
  160000    1.1962022   -7.0682262    56.323692  0.029335256  0.031831611            2 
  161000    1.1922056   -7.0350187    56.680672  0.029337822  0.031809649            4 
  162000    1.1709296   -7.0972631    57.008032  0.029325119   0.03178762            2 
  163000    1.1724092   -7.0464518    57.431691  0.029361805  0.031766727            5 
  164000    1.1972374   -7.0942588    57.676747   0.02930729  0.031744384            2 
  165000    1.1765684   -7.0840607    58.272734  0.029430674  0.031725411            2 
  166000    1.1799129   -7.0739806    58.359768  0.029297072  0.031702669            1 
  167000    1.1951995   -7.0546297     58.76292  0.029322814  0.031679327            3 
  168000    1.1900372   -7.1086145    58.692605  0.029113395  0.031654206            2 
  169000    1.1951788    -7.066467    59.355298  0.029267898  0.031630518            8 
  170000    1.2002194   -7.0960758    59.503505  0.029168385  0.031605654            2 
  171000    1.1795466   -7.0858975    60.037011  0.029257803  0.031581572            3 
  172000    1.1549214   -7.0745231    60.535235  0.029329086  0.031560153            3 
  173000    1.1643118   -7.0896906    60.796065  0.029285195   0.03153809            2 
  174000    1.1702228   -7.1276542      60.8204  0.029128544  0.031513449            1 
  175000    1.2174194    -7.100285    61.368181  0.029222943  0.031491369            2 
  176000    1.1796064   -7.1387809    61.553928  0.029144852  0.031468708            1 
  177000    1.1672131   -7.1060644    61.816819  0.029103964  0.031441659            2 
  178000    1.1663499   -7.1185483    62.025959   0.02903837  0.031413878            3 
  179000     1.187333   -7.1344398    62.283147  0.028995878  0.031386547            5 
  180000    1.2032907   -7.1020213    62.656447  0.029007614  0.031357874            2 
  181000    1.1761663   -7.0841021    62.885174  0.028952658  0.031329562            2 
  182000    1.1774132   -7.0551475    63.536765  0.029091925  0.031302112            3 
  183000    1.1934345   -7.1080035    63.736666  0.029023983  0.031273821            3 
  184000     1.154278   -7.1273538    64.189886  0.029071506  0.031246915            4 
  185000    1.1944008   -7.1340497     64.23469  0.028934545  0.031220857            1 
  186000    1.1744393   -7.1022644    64.794544  0.029029813  0.031195108            6 
  187000    1.1595259   -7.0899594    65.405941  0.029147032  0.031172285            2 
  188000    1.1706116   -7.1135687    65.645491  0.029098179  0.031151072            1 
  189000    1.1550837   -7.1299764    65.517772  0.028887906  0.031126443            3 
  190000    1.1729663   -7.1038865     65.91361  0.028909478   0.03109865            3 
  191000    1.1743834   -7.0866356    66.296087  0.028924994  0.031071548            3 
  192000     1.198966   -7.1033389    66.850205  0.029014846  0.031046476            3 
  193000    1.1873266   -7.1125789    66.828389   0.02885509  0.031021807            2 
  194000    1.1842866   -7.1371765    67.152899  0.028845747   0.03099589            2 
  195000    1.1668966   -7.1105865    67.420471  0.028812167  0.030969352            1 
  196000    1.1847135    -7.090065    67.823988   0.02883673  0.030942915            4 
  197000    1.1881083   -7.0886237    68.256769  0.028873422  0.030916599            2 
  198000    1.1909877   -7.1495981    68.175672  0.028693465  0.030888742            2 
  199000    1.1844938   -7.1122812    68.844166  0.028829215  0.030860075            3 
  200000     1.148405   -7.1159926    69.134652  0.028806105  0.030834051            2 
  201000    1.1901559   -7.0822423    69.762271  0.028922998  0.030808747            1 
  202000    1.1538393   -7.1067499    70.143113  0.028936928  0.030783929            3 
  203000    1.2000135   -7.1403528    70.262771  0.028843502  0.030760524            2 
  204000       1.1484   -7.1047907    70.707091  0.028883616  0.030737695            2 
  205000    1.1658752   -7.1289455     71.14187  0.028919459  0.030714373            2 
  206000    1.1686681   -7.1122494    71.494943  0.028921902  0.030693182            2 
  207000    1.1681807   -7.1715023    71.608798  0.028828018  0.030672482            3 
  208000    1.2080278   -7.1146941    71.928506   0.02881751  0.030650274            3 
  209000    1.1655195   -7.1902059    72.040215  0.028724168  0.030627102            3 
  210000    1.1586674   -7.1174177    72.455479  0.028752174  0.030604064            4 
  211000    1.1771419   -7.1106741    73.077356  0.028861515  0.030583016            1 
  212000    1.1420064   -7.1527169    73.149388   0.02875369  0.030563192            1 
  213000    1.1781811   -7.1214061    73.535143  0.028769618  0.030542863            7 
  214000    1.1580182   -7.1540678    74.021437  0.028824547  0.030522861            5 
  215000    1.1665085   -7.1704767    74.183307   0.02875322  0.030502725            3 
  216000    1.1879604   -7.1851429    74.814562  0.028863643  0.030483167            2 
  217000    1.1803802   -7.1576561    74.746951  0.028704666  0.030464763            2 
  218000    1.1656676   -7.1612351    75.419583  0.028830116    0.0304441            1 
  219000    1.1651584   -7.1695718    75.264874  0.028639602   0.03042408            2 
  220000    1.1643816   -7.0911631    76.199633  0.028863497  0.030404957            4 
  221000    1.1864538   -7.1493235    76.289462  0.028766765   0.03038535            3 
  222000    1.1665269   -7.1480833    76.629222  0.028764723  0.030364988            4 
  223000    1.1704233    -7.130117    76.843175  0.028715686  0.030344836            6 
  224000    1.1544559   -7.1274423     77.23893  0.028734721  0.030324853            6 
  225000    1.1682637   -7.1946143    77.023103  0.028527075  0.030303402            2 
  226000    1.1741563   -7.1489429    77.599788  0.028613491  0.030280686            2 
  227000    1.1438907   -7.1662431     77.86384  0.028584376  0.030257762            5 
  228000    1.1478322   -7.1692359    77.731638  0.028410686  0.030232675            4 
  229000    1.1640459   -7.1503167    78.280305  0.028486283  0.030207925            1 
  230000    1.1426243   -7.1994446    78.522117  0.028450042   0.03018389            4 
  231000    1.1742281    -7.184628    78.772223  0.028417108   0.03015901            3 
  232000    1.1607848   -7.1759414    78.965998  0.028364223  0.030134814            2 
  233000    1.1557175   -7.1562011    79.279985  0.028354787  0.030108819            3 
  234000    1.1490682   -7.1363249    79.857375  0.028439236  0.030083312            2 
  235000    1.1616705   -7.1657669    80.021775  0.028376516  0.030056201            3 
  236000    1.1725292   -7.1743571    80.291624  0.028351562  0.030030083            3 
  237000     1.168923   -7.1464695    80.456423  0.028289881  0.030004544            2 
  238000     1.151829   -7.1764112    80.754469  0.028275374  0.029977809            2 
  239000    1.1505309   -7.1432919    81.487823  0.028412769  0.029952111            5 
  240000    1.1687421   -7.1589696    81.716421  0.028373757    0.0299287            3 
  241000    1.1563589   -7.1238525    82.239441  0.028436874  0.029905014            5 
  242000     1.159632   -7.1653002    82.111711  0.028275382   0.02988017            4 
  243000    1.1554836   -7.1802187     82.42283  0.028265717  0.029855613            2 
  244000    1.1374936   -7.1966807    82.603181  0.028211469   0.02983076            2 
  245000    1.1579418   -7.1903248    83.076908  0.028257452   0.02980598            2 
  246000    1.1325541   -7.1415439    83.473815  0.028277038  0.029782504            3 
  247000    1.1762145   -7.1696897    83.812783  0.028276917  0.029760315            2 
  248000    1.1428886   -7.1650692    84.017122   0.02823156  0.029737265            1 
  249000    1.1509839    -7.160242    84.364373  0.028234395  0.029713817            2 
  250000    1.1645362   -7.1459315    84.498596  0.028166199  0.029691503            1 
  251000    1.1591196   -7.2062294    84.797917  0.028153359  0.029668093            2 
  252000    1.1513289   -7.1717979    85.003764   0.02810971  0.029643986            1 
  253000    1.1574722   -7.2256808    85.271147  0.028086676  0.029621598            2 
  254000    1.1313519   -7.1175011    85.894157  0.028180498  0.029597423            2 
  255000    1.1260911   -7.1430478    85.858115  0.028058207  0.029574966            4 
  256000     1.159219    -7.179966    85.935246  0.027973713  0.029550284            4 
  257000     1.156159   -7.2041773    85.954408  0.027871079  0.029523586            3 
  258000     1.142097   -7.1313849    86.530951  0.027949274  0.029497128            2 
  259000    1.1652493   -7.2081799     86.64388  0.027877696  0.029471213            1 
  260000    1.1411511   -7.2072385    87.311347  0.027984406   0.02944633            3 
  261000    1.1390026   -7.1458757    87.992786  0.028094759  0.029422663            1 
  262000    1.1391287   -7.1947231    87.830491  0.027935907  0.029398789            4 
  263000    1.1716927   -7.1776308    88.309502  0.027981464  0.029374602            2 
  264000     1.167239   -7.1129935    88.951931  0.028078261  0.029350971            2 
  265000    1.1251871   -7.2189614    89.101784  0.028019429  0.029328705            6 
  266000     1.179042   -7.1652378    89.308646  0.027978899   0.02930607            2 
  267000    1.1438476   -7.2119557      89.0197  0.027783926  0.029281865            4 
  268000    1.1447166   -7.1979103    89.890983  0.027951176  0.029258766            3 
  269000    1.1450659   -7.1681364    90.037243  0.027892578  0.029236549            2 
  270000    1.1418066   -7.1776217    90.412301  0.027905031  0.029213244            3 
  271000    1.1475334    -7.224013    90.668439  0.027880824  0.029189807            9 
  272000    1.1653073   -7.1502048    91.055395  0.027896873  0.029165574            3 
  273000     1.143808   -7.2256534     91.12507  0.027815955  0.029143121            2 
  274000    1.1041381   -7.2118908    91.279128  0.027761292  0.029119684            2 
  275000    1.1454402   -7.2437981    91.329788  0.027675693   0.02909665            4 
  276000     1.153071   -7.2074939    91.933721  0.027757766  0.029073579            3 
  277000    1.1247926   -7.1707783     92.66186  0.027876612  0.029051142            2 
  278000    1.1265409   -7.2180089    92.670127  0.027778815  0.029029323            3 
  279000    1.1641468   -7.1932415    92.825544   0.02772567   0.02900754            4 
  280000    1.1302125   -7.2115656    93.124989   0.02771577  0.028985979            1 
  281000     1.130751   -7.2346243     93.21464  0.027643725  0.028962541            3 
  282000    1.1424535   -7.2494962    93.429157  0.027609089  0.028939386            5 
  283000    1.1454604   -7.1836858     94.10234  0.027709759   0.02891726            1 
  284000    1.1430851    -7.291772    93.936756  0.027563602  0.028895229            2 
  285000    1.1507927   -7.2880148    94.501357  0.027631976  0.028872646            5 
  286000    1.1124382   -7.2699251    94.528387  0.027543236  0.028850947            3 
  287000    1.1471696   -7.1996564    94.960357  0.027572694  0.028828418            6 
  288000    1.1229516   -7.2121048     95.54601  0.027646415  0.028807313            4 
  289000     1.158009   -7.2107784    95.397956  0.027508061  0.028784802            6 
  290000    1.1550304   -7.2072699    95.989107  0.027583077  0.028762338            3 
  291000    1.1360394   -7.2407379    96.036969  0.027501996  0.028740048            3 
  292000    1.1753782   -7.2034025    95.943037  0.027381004    0.0287168            2 
  293000    1.1092975   -7.2140845    96.523441  0.027452628  0.028693337            2 
  294000    1.1592928   -7.2314809    96.626981    0.0273886  0.028670086            3 
  295000    1.1215609    -7.202795    97.556503  0.027558334  0.028648509            3 
  296000    1.1238453   -7.1979303    97.963997  0.027579954  0.028627235            5 
  297000    1.1340405   -7.2219961     98.08398  0.027520757   0.02860701            3 
  298000    1.1578983   -7.1902531    98.535859   0.02755477  0.028587099            3 
  299000    1.1250205    -7.246455    98.512952   0.02745623  0.028566155            3 
  300000    1.1214792   -7.2258646    98.724536  0.027423482  0.028544929            2 
  301000    1.1394954   -7.2794092    98.861618  0.027370326  0.028523188            2 
  302000    1.1268386   -7.2345858    99.188231  0.027369821  0.028500883            4 
  303000    1.1321447   -7.2421611    99.528711  0.027373133  0.028478695            2 
  304000    1.1349572   -7.2070995    99.215077  0.027197115  0.028455875            1 
  305000    1.1342348   -7.2243936    99.643309  0.027224948  0.028432886            1 
  306000    1.1250682   -7.2473598    99.414183  0.027073579  0.028409824            5 
  307000    1.1170383   -7.2217989    99.713924  0.027066755  0.028385409            3 
  308000    1.1354475   -7.2752654    99.907341  0.027031207  0.028359989            3 
  309000    1.1373759   -7.1961568    100.38882  0.027073576  0.028334813            1 
  310000     1.115796   -7.2033174    100.74872   0.02708299    0.0283108            2 
  311000    1.1571101   -7.2459803    100.80884  0.027012015  0.028285205            3 
  312000    1.1173318   -7.2296008    101.29137  0.027054318  0.028260184            2 
  313000    1.1404809   -7.2662737    101.55039  0.027036846  0.028235084            1 
  314000    1.1337987   -7.2359958    101.87311  0.027036389  0.028210383            5 
  315000    1.1042427   -7.2385811    102.07981  0.027005241  0.028186157            3 
  316000    1.1445186   -7.2552459    102.58917  0.027054107  0.028162114            5 
  317000    1.1507857   -7.2235322    102.61248  0.026974888  0.028138531            1 
  318000     1.115197   -7.2886569    102.64539  0.026898687  0.028114937            6 
  319000    1.1135828   -7.2641502    103.23196  0.026967597  0.028090053            2 
  320000    1.1168314   -7.2239123    103.53259  0.026961611  0.028066765            2 
  321000    1.1330992    -7.248649    103.62196   0.02690082  0.028043688            5 
  322000    1.1306255    -7.251472    103.61865   0.02681642   0.02801978            2 
  323000    1.1317489   -7.2675931    104.09434  0.026856124  0.027995997            2 
  324000    1.1175478    -7.243737    104.31373  0.026829664  0.027973063            2 
  325000    1.1332439   -7.2451667    104.84445  0.026883193  0.027950209            3 
  326000    1.1099872    -7.227589    105.01716  0.026844876  0.027926843            2 
  327000    1.1173373    -7.268804    105.22053  0.026814609  0.027902876            5 
  328000    1.1167749   -7.2916703    105.17259  0.026720679  0.027879256            2 
  329000    1.1041817   -7.2633072    105.23358  0.026654908  0.027855699            3 
  330000    1.1149942   -7.2426855    105.89635  0.026741502  0.027832466            5 
  331000    1.1249011    -7.280686    105.81264  0.026639639  0.027808401            1 
  332000    1.1118049   -7.2749188    106.34076  0.026691958  0.027784497            3 
  333000    1.1146699   -7.2410001    106.93278  0.026759956  0.027760982            3 
  334000    1.1122926   -7.2336911    107.40225  0.026796969  0.027736932            7 
  335000    1.1144388   -7.2501213    106.94336  0.026602826  0.027712639            1 
  336000    1.1363594   -7.2594354    107.15182  0.026575352  0.027688798            3 
  337000    1.1122633   -7.3056497    107.45982  0.026572656  0.027665169            2 
  338000    1.1297528   -7.2790656    107.78198  0.026573466  0.027641515            4 
  339000    1.1253711   -7.3142163    107.40148  0.026401543  0.027616729            2 
  340000    1.0856751   -7.2428304    108.17177  0.026512688   0.02759132            2 
  341000    1.1268212   -7.3154555    107.80489  0.026345282  0.027566204            2 
  342000    1.1112311   -7.2393138    108.39512  0.026412066  0.027540539            3 
  343000    1.1197701   -7.2781586    108.49806  0.026360073  0.027515263            3 
  344000    1.1175201   -7.2894263    108.69369  0.026330837  0.027489572            3 
  345000    1.1285818   -7.2316463    109.44608  0.026436251  0.027463623            3 
  346000    1.1202422   -7.2551875    109.53074  0.026380236  0.027438747            1 
  347000    1.0975813    -7.263155    109.36003  0.026263216  0.027413443            3 
  348000      1.11323   -7.2783922    109.67477  0.026263116  0.027387549            2 
  349000    1.1225169   -7.2944459    109.36792  0.026114594  0.027360858            3 
  350000     1.102735   -7.3188684     109.6099  0.026097596  0.027334133            3 
  351000    1.1142692   -7.2236351    110.51744  0.026238708  0.027309034            1 
  352000    1.1265321   -7.3024854    110.23169  0.026096517  0.027283447            3 
  353000    1.1238484   -7.3261859    110.80577  0.026158115  0.027257436            2 
  354000    1.1202016   -7.2827664     110.9413  0.026116125  0.027231695            4 
  355000    1.1166388   -7.2557555    111.20659  0.026104834  0.027205657            2 
  356000    1.1255077   -7.3177107    111.73543  0.026155298  0.027180297            4 
  357000    1.1017756   -7.2865446    111.92853  0.026127107  0.027155544            3 
  358000    1.1191805   -7.2654342    112.03164  0.026078128  0.027130841            3 
  359000    1.1254753   -7.3313255    111.73026  0.025935529  0.027105463            4 
  360000    1.1271641    -7.319267    111.90039  0.025902867  0.027079681            5 
  361000     1.128173   -7.3158015    112.58126  0.025988287  0.027053778            2 
  362000    1.1256737   -7.3057763    112.58518  0.025917399  0.027027737            2 
  363000    1.1013384   -7.3331047    112.63251  0.025856866  0.027001918            1 
  364000    1.1344268   -7.2659754    113.47636  0.025979019  0.026976831            2 
  365000    1.1240066   -7.2652717    114.00544  0.026028638  0.026952634            3 
  366000    1.1055054   -7.2778237    114.04743  0.025967084  0.026928223            3 
  367000    1.0965368   -7.3065469    114.12821  0.025914671  0.026903683            6 
  368000    1.1227266   -7.2937924     114.5901  0.025948845  0.026879337            4 
  369000    1.0889402   -7.3194465    114.38757  0.025832784  0.026855045            7 
  370000    1.1113871   -7.2951945    115.25612  0.025958587  0.026831914            2 
  371000     1.111769   -7.2581594    115.42158  0.025925782  0.026809155            3 
  372000    1.1288791   -7.2658703    115.99406  0.025984333   0.02678653            3 
  373000    1.1014112   -7.3130579    115.74482  0.025858987  0.026764231            3 
  374000    1.0951883    -7.322534    116.28669  0.025910581  0.026741073            3 
  375000    1.1042368   -7.2966778     116.4744  0.025883201  0.026718856            3 
  376000    1.1057463   -7.3001393    116.63368  0.025849664  0.026696412            3 
  377000    1.1176141    -7.286246    116.94898   0.02585079  0.026674275            1 
  378000    1.1236697   -7.2750466    117.07622  0.025810453  0.026652138            4 
  379000    1.1211491   -7.3389153    117.49388  0.025834186  0.026629856            2 
  380000    1.1026213   -7.3406074    117.56793  0.025782442  0.026607491            2 
  381000    1.1042746   -7.2884448    117.98579  0.025806167  0.026585628            2 
  382000    1.1080892   -7.3549828    118.04176   0.02575082  0.026563359            3 
  383000    1.1034744   -7.3600689    118.47996   0.02577893  0.026541467            2 
  384000    1.0813848   -7.3420715    118.73227  0.025766551  0.026520588            4 
  385000    1.0999377   -7.3526326    119.00059  0.025757704  0.026500149            5 
  386000    1.1254967   -7.3451809    119.27353  0.025749898  0.026479644            3 
  387000    1.0929166   -7.2950867    119.81463  0.025799877  0.026459173            6 
  388000    1.0990609   -7.3126996    120.23969  0.025824677  0.026439052            2 
  389000    1.0950765   -7.3038952    120.57882  0.025830939  0.026419216            3 
  390000    1.0921885   -7.3455737    120.41621  0.025729959  0.026399721            6 
  391000    1.0776131   -7.3542718      120.881  0.025763214  0.026380359            1 
  392000    1.0961257   -7.3582811    121.12466   0.02574929  0.026360622            2 
  393000     1.100212    -7.339497    121.26403  0.025713322  0.026341515            5 
  394000    1.0814607   -7.3827784    121.19225  0.025632879  0.026322212            4 
  395000    1.0885009   -7.3374757    121.80455  0.025697162  0.026302805            4 
  396000    1.0925259   -7.3357367    122.15975  0.025707019  0.026283976            2 
  397000    1.0846958   -7.3730154    122.38005  0.025688508  0.026265364            5 
  398000    1.1049314   -7.3559875     122.1608  0.025578057  0.026245624            4 
  399000    1.0874336   -7.3815855     122.3864  0.025561069  0.026226343            7 
  400000     1.108283   -7.3803715    122.80957  0.025585326  0.026206302            2 
  401000    1.0959368   -7.3689683    123.33991  0.025631736  0.026187039            3 
  402000    1.0958994   -7.3272381    123.36397  0.025572963  0.026168195            4 
  403000    1.1019272   -7.3594267    123.78002  0.025595537   0.02614923           14 
  404000     1.102622    -7.369411    123.38179   0.02545004  0.026129226            4 
  405000    1.1081528   -7.3640528    124.01357  0.025517196  0.026109242            3 
  406000    1.0789945   -7.3133835    124.42076  0.025537924  0.026089691            3 
  407000    1.0857551   -7.4005577    123.92662  0.025374002  0.026069831            3 
  408000    1.0933498   -7.3518163    124.91332  0.025513342  0.026050319            2 
  409000    1.0788262    -7.315864    125.37118   0.02554425  0.026031309            3 
  410000    1.0729272   -7.3424145    125.63984  0.025536552  0.026012168            1 
  411000    1.1008769   -7.3719091     125.2549   0.02539637   0.02599295            2 
  412000    1.1116062   -7.3837006    125.15857  0.025315244  0.025972663            3 
  413000    1.1179751   -7.3450619    126.18665  0.025461391  0.025953215            2 
  414000    1.0966675   -7.3596927    125.47142  0.025255922  0.025933458            8 
  415000    1.0907004   -7.3768665    125.81094  0.025263241  0.025913818           10 
  416000    1.1190104    -7.352541    126.48973  0.025338489   0.02589417            3 
  417000      1.08784    -7.337727    126.71049   0.02532184  0.025874715            6 
  418000    1.0891331   -7.3528502    127.07133    0.0253332  0.025855105            2 
  419000    1.0783986   -7.3502528    127.37582  0.025333298  0.025836082            2 
  420000    1.1078198   -7.3751241     127.4984  0.025297301  0.025816726            6 
  421000    1.0628249   -7.3176566    127.56353  0.025250105   0.02579699            3 
  422000    1.1071413   -7.3543556    127.50365  0.025178446  0.025777081            2 
  423000    1.0682366   -7.3110163    128.15425  0.025247094  0.025757709            4 
  424000    1.0815847   -7.3959589    127.69959   0.02509819  0.025738308            4 
  425000    1.0967455   -7.3633281    128.64025  0.025223578  0.025718904            5 
  426000     1.098152   -7.3605056    128.45579  0.025128285  0.025699649            7 
  427000    1.0942216   -7.3712175    128.83014  0.025142494  0.025679987            1 
  428000    1.0758022    -7.410584    128.89301   0.02509599  0.025660113            2 
  429000     1.096875    -7.360714    129.43518  0.025142809  0.025640396            2 
  430000    1.0958437   -7.3490818    129.51609  0.025100017  0.025621152            5 
  431000    1.0963908   -7.4081448    129.71197  0.025079655   0.02560196            4 
  432000    1.0880468   -7.3813433    129.80384   0.02503932  0.025582447            3 
  433000     1.070186   -7.3541522     129.8992  0.024999845  0.025563081            1 
  434000    1.0693612   -7.3782161    130.26204  0.025011912  0.025543344            2 
  435000    1.0927188   -7.4106173    130.51974  0.025003781  0.025524203            5 
  436000    1.0835651   -7.4389912    130.18512  0.024882477  0.025504922            8 
  437000    1.1020855   -7.4157281    130.93132  0.024967833  0.025485209            4 
  438000     1.087996   -7.3660011     131.4732  0.025013926  0.025466442            2 
  439000    1.0412631   -7.3758314    131.45374  0.024953254  0.025447626            2 
  440000    1.0677892   -7.3977001    131.61885  0.024927813  0.025429058            6 
  441000    1.0933094   -7.3852988    132.39014  0.025017034  0.025411025            4 
  442000    1.0981613   -7.3413619    132.28046  0.024939755  0.025392598            4 
  443000    1.0452243   -7.4112325    132.20806  0.024869839  0.025374366            3 
  444000    1.0945863   -7.4264009    132.27418  0.024826235  0.025355851            4 
  445000    1.0657646   -7.3745658    132.98154  0.024902911  0.025337032            4 
  446000    1.1022878   -7.3255353    133.02908  0.024855957  0.025318553            5 
  447000    1.0636369   -7.3434864    133.71153  0.024927578  0.025300617            3 
  448000    1.0585577   -7.3767208    134.06187  0.024937105   0.02528225            9 
  449000    1.0748342   -7.3857797    133.58636  0.024793311  0.025264349            2 
  450000    1.0698443   -7.3820999    134.30796  0.024871844  0.025246724            5 
  451000    1.0906967   -7.3916989    134.23788  0.024803747  0.025228848            2 
  452000    1.0758439   -7.3833752    134.76015  0.024845161  0.025211425            2 
  453000    1.0788124   -7.4280445    134.95677  0.024826485  0.025194624            1 
  454000    1.0902081   -7.3982031    135.43581   0.02485973  0.025177846            3 
  455000    1.0697209   -7.3826127    135.52161  0.024820809  0.025160887            5 
  456000    1.0813796    -7.422328    136.24728  0.024898992  0.025144439            5 
  457000    1.0487794    -7.408415    136.25353  0.024845647  0.025127989            2 
  458000    1.0674507   -7.4173532    136.68795  0.024870443  0.025111452            3 
  459000    1.0710861   -7.4303383    136.58354  0.024797302  0.025094525            3 
  460000     1.072369   -7.3994815    136.77917  0.024778835  0.025077571            2 
  461000    1.0420753   -7.4257105    137.04551   0.02477323  0.025061077            5 
  462000    1.0618257   -7.3976576    137.50694  0.024802839  0.025045007            4 
  463000    1.0588604   -7.4245119     137.6646  0.024777646  0.025029222            3 
  464000    1.0962901   -7.4069159    138.17106  0.024815205  0.025013904            4 
  465000    1.0729884   -7.4108486    138.41428  0.024805427  0.024998338            3 
  466000    1.0604146   -7.4242428    138.61898  0.024788802   0.02498281            5 
  467000    1.0662936   -7.4109858    138.85582  0.024777984  0.024967844            3 
  468000    1.0777242   -7.4336825    139.15495  0.024778303  0.024953501            4 
  469000    1.0911241   -7.3985807    139.83813   0.02484686  0.024938629            2 
  470000    1.0594387   -7.4755345    139.09783  0.024662736  0.024924167            3 
  471000    1.0742202   -7.4144572    140.54582  0.024866563  0.024909392            4 
  472000    1.0675042   -7.4188298    140.21438  0.024755363  0.024895109            4 
  473000     1.070211   -7.4055938     140.1407  0.024690045  0.024881198            3 
  474000    1.0633633   -7.4229417    140.27565  0.024661682  0.024866711            5 
  475000    1.0331627   -7.4413527    140.34485  0.024621903  0.024851753            2 
  476000     1.073663   -7.4316423    141.24002  0.024726893  0.024836619            5 
  477000    1.0698034   -7.4538915    141.09922  0.024650457  0.024821987            2 
  478000    1.0554594   -7.4285029    141.65358  0.024695533  0.024807051            3 
  479000    1.0684976     -7.44093     141.2202   0.02456858  0.024791749            3 
  480000     1.036956   -7.4084451    141.78077  0.024614716  0.024776377            2 
  481000    1.0499304   -7.4661057     141.8382  0.024573492   0.02476103            4 
  482000    1.0657913   -7.4851289    141.86881  0.024527803  0.024745988            3 
  483000    1.0848983   -7.4670801    142.35266    0.0245605  0.024730766            5 
  484000    1.0861633   -7.4154081    142.51397   0.02453753  0.024715341            4 
  485000      1.06165   -7.4593058    142.89639  0.024552644  0.024700283            3 
  486000    1.0531484   -7.4445963    142.94928  0.024511193  0.024685062            1 
  487000    1.0570527   -7.4657544    143.17987   0.02450032  0.024670166            7 
  488000    1.0787886   -7.4454421     143.0169  0.024422284   0.02465502            6 
  489000     1.062888   -7.4309221    143.78475  0.024503195  0.024640137            5 
  490000     1.057903   -7.4263997    144.15518  0.024516186  0.024624778            4 
  491000    1.0669485    -7.420167    143.97128  0.024435044  0.024609786            2 
  492000    1.0620235   -7.4428091    144.66626  0.024503093  0.024594551            5 
  493000    1.0698185   -7.4791113    144.04887  0.024349031  0.024578869           10 
  494000    1.0574159    -7.458232    144.24815  0.024333358  0.024562975            4 
  495000    1.0628197   -7.4731362    144.32192  0.024296619  0.024547475            7 
  496000    1.0557983   -7.4831131    145.17311  0.024390643  0.024532187            2 
  497000    1.0352114   -7.4478437    144.93149  0.024301055  0.024517274            2 
  498000    1.0714165    -7.423207    145.51487  0.024349878   0.02450223            2 
  499000    1.0782373   -7.4504048    145.74666  0.024339789  0.024487466            2 
  500000    1.0485153   -7.4553826    145.77277  0.024295461  0.024471995            2 
  501000    1.0602407   -7.4028749    146.48197  0.024364932  0.024456683            3 
  502000    1.0694539   -7.4695359    146.09703  0.024252496  0.024441655            5 
  503000    1.0575316   -7.4594489    145.95786  0.024181222  0.024425779            3 
  504000    1.0675968    -7.426898    146.31097  0.024191628  0.024409987            1 
  505000    1.0572825   -7.4289864    147.05222  0.024266044  0.024394338            4 
  506000    1.0681461   -7.4649383    146.77774  0.024172881  0.024379534            7 
  507000    1.0556577   -7.4655304    147.18385  0.024191954  0.024364249            1 
  508000    1.0332911    -7.412298     147.9174  0.024264666  0.024349025            2 
  509000    1.0533512   -7.4744346    147.48403  0.024146044   0.02433363            6 
  510000    1.0555097   -7.4362506    147.97912  0.024179594  0.024318447            4 
  511000    1.0424348   -7.5098096    148.02366   0.02413954  0.024303311            4 
  512000    1.0637335   -7.4837699    147.70007  0.024039725  0.024287922            5 
  513000    1.0178256   -7.4179626    148.48771  0.024120811   0.02427248            2 
  514000    1.0725289   -7.4961329    148.88735  0.024138675  0.024257225            6 
  515000    1.0388401   -7.4742904    149.06669  0.024120824  0.024242439            6 
  516000    1.0510612   -7.4660901    149.75527  0.024185283  0.024227991            5 
  517000    1.0615071   -7.4659204    149.24138   0.02405567  0.024213352            1 
  518000    1.0543532   -7.4986712    149.04066   0.02397694  0.024198348            6 
  519000    1.0442264   -7.4784696    148.94114  0.023914763  0.024182672            4 
  520000    1.0449463   -7.4640953    149.59691  0.023973864     0.024167            2 
  521000    1.0417231   -7.4790322     149.2785  0.023876919   0.02415098            5 
  522000    1.0418278    -7.507143    149.31141  0.023836432  0.024134464            2 
  523000    1.0516669   -7.4758026    149.55211  0.023829209  0.024118231            6 
  524000    1.0548333   -7.4901681    149.93879  0.023845228  0.024101781            3 
  525000    1.0416696   -7.4778571    150.00575  0.023810436  0.024085286            2 
  526000    1.0450278   -7.4490768    150.74987  0.023883059   0.02406866            4 
  527000    1.0453654   -7.5298428    149.74888  0.023679456  0.024051939            5 
  528000    1.0375805   -7.4414835    151.07914  0.023844561  0.024035235            4 
  529000    1.0450299   -7.4720351    150.21119  0.023662758  0.024018367            6 
  530000    1.0397613   -7.4902782    150.95547  0.023735137  0.024001152            3 
  531000    1.0448567   -7.5308463    150.57098  0.023630098  0.023983632            6 
  532000    1.0595334   -7.4880703      150.823  0.023625157  0.023966396           15 
  533000    1.0199317   -7.5331298    150.81285  0.023579244   0.02394906            2 
  534000    1.0275088   -7.5195737    150.90057  0.023548777  0.023931278            2 
  535000    1.0272841   -7.5096323    151.20177  0.023551677  0.023913578            5 
  536000    1.0481905   -7.4842938    151.66134  0.023579189  0.023896185            4 
  537000    1.0524455   -7.5010959    151.75424  0.023549697  0.023878821            5 
  538000    1.0538976   -7.4743068    151.98867  0.023542235  0.023861329            3 
  539000    1.0486061   -7.4513343    152.26057  0.023540595  0.023844017            3 
  540000    1.0428155   -7.5091247     151.9876  0.023454876  0.023826549            3 
  541000    1.0261331   -7.4950284     153.0326  0.023572489  0.023809242            6 
  542000    1.0717815   -7.5136395    152.52742  0.023451325  0.023791278            2 
  543000    1.0311183   -7.5505843    152.32757  0.023377467  0.023772837            8 
  544000    1.0497398   -7.4840742    152.70548  0.023392384  0.023754866            5 
  545000    1.0345385   -7.5285718    152.05777  0.023250423  0.023736704            4 
  546000    1.0209013   -7.5195255    152.45544  0.023268535  0.023717881            3 
  547000    1.0350815    -7.487595    153.00647  0.023309943  0.023699261            5 
  548000    1.0360088    -7.547144    152.56419  0.023200151  0.023680252            3 
  549000    1.0370159   -7.5026228    152.94948  0.023216376  0.023661379            4 
  550000    1.0268429   -7.4996547    152.85373  0.023159656  0.023642712            4 
  551000    1.0351594   -7.4909982    153.77476   0.02325692  0.023624514            4 
  552000    1.0522751   -7.5047892    153.82421  0.023222253  0.023606518            5 
  553000    1.0441613   -7.4953652    153.89576  0.023191043  0.023588111            3 
  554000    1.0343577   -7.4967564    153.85025  0.023142335  0.023569555            3 
  555000    1.0537536   -7.5225487    153.93641  0.023113575  0.023550942            3 
  556000    1.0036649   -7.4565291    154.61177  0.023173227  0.023532219            3 
  557000    1.0381391   -7.5035624    154.69229   0.02314367  0.023514024            1 
  558000    1.0459578   -7.5163465    154.32514  0.023047362  0.023495331            4 
  559000    1.0462036   -7.5060947     155.4899   0.02317977  0.023476584            3 
  560000    1.0473025   -7.5422189    154.77758  0.023032378  0.023458108            5 
  561000    1.0403902   -7.5103115    155.42532   0.02308754    0.0234399            6 
  562000    1.0240688   -7.5166011    155.40627  0.023043635   0.02342149            4 
  563000    1.0065978   -7.5065177    155.77417  0.023057159  0.023403014            3 
  564000     1.032589   -7.5022921    155.92897   0.02303915  0.023384971            3 
  565000    1.0621531   -7.5749967    155.41198  0.022922121  0.023366576            5 
  566000    1.0515397    -7.528478    156.69604  0.023070677  0.023348759            4 
  567000    1.0185854   -7.5610179    155.95427  0.022920968   0.02333075           15 
  568000    1.0127445   -7.5187488    156.63385  0.022980319  0.023312872           20 
  569000    1.0428168   -7.5388024    156.04729  0.022854027  0.023295039            3 
  570000    1.0237167   -7.5533175    156.88189  0.022935949  0.023276893            3 
  571000    1.0259409   -7.5221469    156.66166   0.02286364  0.023258348            4 
  572000    1.0549273   -7.5557365    156.67395  0.022825459  0.023239809            4 
  573000    1.0289561   -7.4983364    157.02872   0.02283722  0.023220994            6 
  574000    1.0188999     -7.51795    156.67408  0.022745947  0.023202016            5 
  575000    1.0074706   -7.5511721    156.68539  0.022708028  0.023182681            4 
  576000    1.0245507   -7.5695423    156.94961  0.022706831  0.023163461            8 
  577000    1.0057394   -7.5143205    157.44722  0.022739345  0.023144553            2 
  578000    1.0285481   -7.5213039    157.17614  0.022660919  0.023125631            2 
  579000    1.0338025    -7.539876    157.19634  0.022624689  0.023106242            4 
  580000     1.031981   -7.5362492    158.02377  0.022704565  0.023086836            4 
  581000    1.0087701   -7.5482113    157.47614   0.02258694  0.023067374            4 
  582000    1.0385274   -7.5480343    157.75944  0.022588694  0.023048172            6 
  583000    1.0096844   -7.5182322    158.67607  0.022680971  0.023028972            4 
  584000    1.0060252   -7.5523481    158.56008  0.022625582  0.023010055            3 
  585000    1.0309446   -7.5311437    158.85703  0.022629206   0.02299142            2 
  586000    1.0104092   -7.5073078     158.6004  0.022554095  0.022972335            4 
  587000    1.0085311   -7.5107729    159.07327  0.022582803  0.022953314            6 
  588000    1.0242743   -7.5836085    158.47231  0.022459228  0.022934294            4 
  589000    1.0012994   -7.5616969    158.79182  0.022466302  0.022915123            5 
  590000    1.0082242   -7.5454371    159.05284  0.022465091  0.022896023            2 
  591000    1.0094918   -7.5900172    158.66865  0.022372906  0.022876637            2 
  592000    1.0158312   -7.5374485    159.18813   0.02240824  0.022856767            3 
  593000    1.0216315   -7.5894014    158.60762  0.022288873  0.022837106            7 
  594000    1.0026201   -7.5613186    159.26174  0.022343117   0.02281727            3 
  595000     1.027903   -7.5990517    159.55869  0.022347156  0.022797537            7 
  596000    1.0047342    -7.554155    159.81655  0.022345715  0.022778142            3 
  597000    1.0245864   -7.5728404     159.5547  0.022271733  0.022759062            7 
  598000    1.0099689   -7.5432361     160.5353   0.02237114  0.022739716            5 
  599000    1.0264867   -7.5429979    160.83685  0.022375744  0.022720777            3 
  600000    1.0206376   -7.5762846    160.66431  0.022314487  0.022701774            3 
  601000    1.0233931   -7.5768056    160.36993   0.02223654  0.022682411            6 
  602000    1.0293693   -7.5966945     160.1518  0.022169408  0.022662841           10 
  603000     1.012085   -7.5646316    161.10647  0.022264576  0.022643309            4 
  604000    1.0250953   -7.5627618    161.11609  0.022229041  0.022624188            3 
  605000    1.0453097   -7.5731033    161.27039  0.022213553  0.022605077            5 
  606000     1.012514   -7.5611948    161.32221  0.022184022  0.022585759            6 
  607000    1.0214891   -7.5652106    161.19553  0.022130083  0.022566057            3 
  608000    1.0150169   -7.5677859    161.10041  0.022080648  0.022546548            4 
  609000     1.010455   -7.5587488    161.83681  0.022145157  0.022527201            2 
  610000    1.0068446   -7.5123733    162.30511   0.02217283  0.022508107            2 
  611000    1.0060743   -7.6072256    161.87399   0.02207774  0.022489076           10 
  612000   0.99977811   -7.5584252     162.1409  0.022078009  0.022469924            5 
  613000   0.98989035   -7.5661424    162.12351  0.022039629  0.022450662           10 
  614000    1.0099278   -7.5699508    162.54361   0.02206075  0.022431599            6 
  615000    1.0264008   -7.5777205    162.70924  0.022047322   0.02241261            5 
  616000    1.0037035   -7.5602705    162.94064  0.022042835  0.022393343            8 
  617000   0.98372249     -7.58767    163.06859  0.022024391   0.02237414            3 
  618000   0.99503479   -7.6184452    162.42347  0.021901762  0.022354577            3 
  619000    1.0073218   -7.5965138    162.61239  0.021891814  0.022334924            1 
  620000   0.99783459   -7.6074319    162.64777  0.021861259  0.022315384            2 
  621000    1.0169101   -7.5890351    163.40127   0.02192717  0.022295945            7 
  622000   0.98453669   -7.5949825    163.04993  0.021844846  0.022276432            4 
  623000    1.0027326   -7.5994617    163.74397  0.021902618  0.022257032            2 
  624000    1.0276063   -7.6068303    163.59578  0.021847726  0.022237767            4 
  625000    1.0252531   -7.6208045    163.69579  0.021826105  0.022218502            2 
  626000   0.99665705   -7.5450844    163.76464  0.021800405  0.022199395            3 
  627000     1.007947   -7.5906697    163.91001  0.021784956  0.022179908            6 
  628000    1.0011008   -7.5873391    164.12159  0.021778342  0.022160633            4 
  629000    1.0347691   -7.6349433    164.09665  0.021740415  0.022141025            2 
  630000   0.99447815   -7.5756856    164.75338  0.021792776  0.022121842            4 
  631000    1.0105794   -7.5841948    164.48809  0.021723203  0.022102937            4 
  632000    1.0090658   -7.5987254    164.91573  0.021745217  0.022084019           11 
  633000   0.99602424   -7.6030259    165.53724  0.021792685  0.022065115            2 
  634000    1.0121658   -7.5734219    165.52807  0.021757107  0.022046346            4 
  635000    1.0099474   -7.5866968    165.10799  0.021667715  0.022027761            3 
  636000    1.0125177   -7.6248714    165.30898  0.021659981  0.022008993            6 
  637000   0.98092998   -7.6550269    165.03565  0.021590222  0.021989853           10 
  638000    1.0034199   -7.6326036    165.65736  0.021637586  0.021971052            4 
  639000    1.0069863   -7.6087313     166.2621  0.021682591  0.021952107            3 
  640000   0.98275334   -7.6053684    166.11609  0.021629699   0.02193353            4 
  641000    1.0124875   -7.6151385    165.93769  0.021572763  0.021915005            2 
  642000    1.0256403   -7.6083151    166.27112  0.021582441  0.021896184            3 
  643000   0.98839768   -7.6644713    165.81546  0.021489821  0.021877088            3 
  644000    1.0234953   -7.6098464    166.41665  0.021534246  0.021858016            3 
  645000   0.98746282   -7.6175804    166.74547  0.021543342  0.021839328            3 
  646000   0.99998562    -7.600677    166.97516  0.021539623  0.021820398            3 
  647000   0.97707487   -7.5755919    167.31909   0.02155063  0.021801808            4 
  648000   0.98229283   -7.5954142    167.64597   0.02155941  0.021783247            3 
  649000   0.99885098   -7.5873852    167.73887  0.021538119  0.021765037            5 
  650000   0.98873904   -7.6509336    167.26705  0.021444494  0.021746849            7 
  651000   0.98464931   -7.6309561    167.15413  0.021397097  0.021728184           11 
  652000   0.99193855   -7.6368414    167.18614  0.021368372  0.021709425            2 
  653000   0.99322516   -7.6289917    167.84218  0.021419369  0.021690478            8 
  654000   0.97083376   -7.6404959    167.44344  0.021335811  0.021671862            4 
  655000   0.99623117   -7.6630692    167.68495  0.021333963  0.021653185            6 
  656000    1.0085091   -7.6294734    167.95826  0.021336162  0.021634564            4 
  657000    1.0031519   -7.6075617    168.39697  0.021359332  0.021616075            5 
  658000    1.0095792   -7.6380765    168.51051   0.02134125  0.021597536            2 
  659000    1.0426242   -7.6257196    168.48316  0.021305407  0.021578939            5 
  660000   0.98210976   -7.6429197    168.35457   0.02125689  0.021560299            7 
  661000   0.99644441   -7.6249558    168.67659  0.021265329  0.021541656            9 
  662000   0.99012236   -7.6842355    168.15947   0.02116811  0.021522914            4 
  663000    1.0068839   -7.6311668    168.86643  0.021225041  0.021504139            6 
  664000   0.97681355   -7.6637185    168.93163  0.021201259  0.021485477            7 
  665000   0.97989857   -7.6427643    169.84287  0.021283568  0.021467289            8 
  666000   0.96703691   -7.6657028    169.44421  0.021201728  0.021449157            3 
  667000   0.97106462   -7.6645152    169.27043   0.02114823  0.021430821            3 
  668000   0.98198582    -7.671142    169.45147  0.021139156  0.021412627            5 
  669000   0.97191573    -7.657734    169.70483  0.021139117  0.021394176            3 
  670000    1.0203929   -7.6381815    169.84281  0.021124727   0.02137574            5 
  671000   0.99829581   -7.6119612    169.95177  0.021106777  0.021357462            5 
  672000   0.97464788   -7.6397457    170.24985  0.021112333  0.021339038            9 
  673000   0.99320103   -7.6893374    169.44099  0.020980806  0.021320374            8 
  674000   0.98845193   -7.6665386    170.29276   0.02105499  0.021301659            8 
  675000   0.96858175    -7.656993     169.9432  0.020980642  0.021282894            5 
  676000   0.97087898   -7.6596813    170.27196  0.020990133  0.021264391            5 
  677000   0.96264778   -7.6353092    169.99444  0.020924968  0.021245826            3 
  678000   0.98094918   -7.6624201    169.90955  0.020883672  0.021227242            4 
  679000   0.96190598   -7.6663899    170.82609  0.020965401  0.021209003            1 
  680000   0.97533614    -7.675465     171.4225  0.021007659  0.021190707            6 
  681000   0.97915171   -7.6871511    171.13613  0.020941768  0.021172452            9 
  682000    0.9826651   -7.7104507    171.14732  0.020912429  0.021154169            4 
  683000   0.99322775   -7.7257177    171.33585  0.020904813  0.021135986            4 
  684000   0.98860109   -7.6750327    171.48958  0.020892979  0.021117996            2 
  685000   0.98517122   -7.6454229    172.03117  0.020928366  0.021100053            5 
  686000   0.96564178   -7.6342989    171.63625  0.020849884   0.02108226            7 
  687000   0.98421224   -7.6902818    171.52358  0.020805868  0.021064133            3 
  688000   0.98990268   -7.6640804    172.48075  0.020891563  0.021045912            4 
  689000   0.98537552   -7.6560497    172.14985   0.02082122  0.021028073            5 
  690000   0.98595911   -7.6728494    172.24007  0.020801941  0.021009891            5 
  691000   0.98942538   -7.6559982    172.37943  0.020788643  0.020991857            4 
  692000   0.97419028   -7.7100943    172.14015  0.020729787  0.020973813            4 
  693000   0.99544029    -7.709081    172.12555  0.020698119  0.020955927            8 
  694000   0.96662592     -7.70361    172.37414  0.020698144  0.020937807            2 
  695000   0.96756281   -7.7096688    172.31895  0.020661744  0.020919468            9 
  696000   0.97727671   -7.6753242    172.52261  0.020656443  0.020901084            3 
  697000   0.98091326    -7.660807    173.36915  0.020728019  0.020883043           15 
  698000   0.98366352   -7.6322098    173.67207  0.020734488  0.020865093            4 
  699000   0.98337326   -7.6602986    173.57996  0.020693844    0.0208476            3 
  700000   0.98496162   -7.6385181    174.26296   0.02074559  0.020829764            4 
  701000   0.99665641   -7.7013696    173.68668   0.02064749  0.020811946            2 
  702000   0.95567767   -7.6966438    172.92337  0.020527466  0.020793983            4 
  703000    1.0024261    -7.706482    173.06278  0.020514792  0.020775895            3 
  704000   0.97196605   -7.6822418    173.73045  0.020564683  0.020757777            6 
  705000   0.96798881   -7.6749678    173.69658   0.02053151  0.020739708            3 
  706000   0.97442256   -7.6773655    174.27337  0.020570511  0.020721596            7 
  707000   0.98881121   -7.6878991    173.45048  0.020444422  0.020703723            3 
  708000   0.98799744   -7.6902863    174.86473  0.020582007  0.020685949            4 
  709000   0.95631128   -7.7297363    174.16569  0.020470814  0.020668236           10 
  710000   0.97845814   -7.7062929    175.18307  0.020561393  0.020650855            3 
  711000   0.97449298   -7.7530943    174.33403  0.020432962  0.020633483            7 
  712000   0.99089055   -7.7140363    174.76114  0.020454253  0.020616105            3 
  713000    0.9492971   -7.7347075    174.88283  0.020439788  0.020598747            5 
  714000   0.97680019    -7.697205     175.1862  0.020446568  0.020581126            2 
  715000   0.97173836   -7.7321896    175.57166  0.020462897   0.02056343            4 
  716000   0.98074513   -7.6857861    175.75604  0.020455778   0.02054602            5 
  717000   0.95132489   -7.6925259    175.25379  0.020368874  0.020528673            5 
  718000   0.97430342   -7.7195439    175.48532  0.020367376  0.020511274            3 
  719000   0.98347447   -7.7224079    175.78397  0.020373664   0.02049379            8 
  720000   0.95471726   -7.6949481    175.89647  0.020358387  0.020476332            4 
  721000   0.95830645   -7.7107243    176.32576  0.020379769  0.020458887            5 
  722000    0.9695294    -7.711737    176.00179  0.020314149  0.020441473            7 
  723000   0.97133343   -7.7242983    175.83968  0.020267367  0.020424017            4 
  724000   0.96200029   -7.7459612    176.21695  0.020282798   0.02040676            4 
  725000   0.97980925   -7.7183792    176.40612  0.020276565  0.020389468            4 
  726000   0.94061546   -7.6826769    177.19138  0.020338772  0.020372316            2 
  727000   0.93952821   -7.6853349    176.80204  0.020266167  0.020355256            4 
  728000    0.9790229   -7.7060386    177.07786  0.020269902   0.02033819           12 
  729000   0.95361342   -7.7496707    176.86048  0.020217248  0.020320788            5 
  730000   0.94072759   -7.7392834    176.78355  0.020180771  0.020303358            3 
  731000   0.96988784   -7.7278653    177.25977  0.020207452  0.020286095            6 
  732000   0.94800959   -7.7346938     177.6025  0.020218863  0.020268963            5 
  733000   0.97189364   -7.7097305    177.78917  0.020212502  0.020252162            9 
  734000   0.97411289   -7.7039984    177.54457  0.020157195  0.020235356            3 
  735000   0.97748887   -7.7518231    177.63114  0.020139585   0.02021843            6 
  736000   0.95814436   -7.7435253    177.89005  0.020141536  0.020201578            3 
  737000   0.95993927    -7.711295     177.8233   0.02010666  0.020184572            7 
  738000   0.96957043   -7.7619487    177.86109  0.020083682  0.020167485            4 
  739000   0.95008867   -7.7301171     177.7883  0.020048298  0.020150355            4 
  740000   0.96155801   -7.6933846    178.47386  0.020098408  0.020133039            3 
  741000   0.98312267   -7.7454573    178.12582  0.020032144  0.020115758            3 
  742000   0.95452957   -7.7578755    177.99982  0.019990995  0.020098425            6 
  743000   0.98636951   -7.6750322    178.76154  0.020049522  0.020081271            4 
  744000   0.96011446    -7.737379    178.29434  0.019970245  0.020064239            4 
  745000   0.96090274   -7.7453547    178.65369  0.019983634  0.020047294            4 
  746000   0.96557349   -7.7334955    178.56017  0.019946399  0.020030466            5 
  747000   0.96431341   -7.7552235    178.36493  0.019897917  0.020013224            7 
  748000   0.93335487   -7.7370342    178.46702  0.019882689  0.019996046            9 
  749000   0.96106277   -7.7062952    178.74038  0.019886557  0.019978992            2 
  750000   0.96702089    -7.753284    179.12187  0.019902431  0.019962005            5 
  751000   0.92713256   -7.7355688    179.22102  0.019886931  0.019945013            5 
  752000   0.93571732   -7.7547401    179.29375  0.019868545  0.019927971            5 
  753000   0.95941826   -7.7483305    179.90175  0.019909446  0.019910941            5 
  754000   0.95374606   -7.7264568    180.25012  0.019921543  0.019894121            7 
  755000    0.9357903   -7.7763487    179.21068  0.019780428  0.019877124            4 
  756000   0.94772238   -7.7525245    180.25578  0.019869464  0.019860249            6 
  757000   0.96058919   -7.7378086    180.04537  0.019820054  0.019843562            3 
  758000   0.95406656   -7.7377828    180.15733  0.019806214  0.019826895            6 
  759000   0.94125743   -7.7620758    180.24239  0.019789459  0.019810297            7 
  760000     0.974507   -7.7551451    180.47255  0.019788656  0.019793695           11 
  761000   0.94915173   -7.7393229    180.50138  0.019765811  0.019777005            4 
  762000   0.94597231   -7.7781499    180.45671  0.019734986  0.019760347            8 
  763000   0.95049331   -7.7455594    180.51216  0.019715177  0.019743663            3 
  764000   0.93973634   -7.7838784    180.21482  0.019656939  0.019726778            4 
  765000   0.94039113   -7.8009412    180.00912  0.019608837  0.019709717            9 
  766000   0.94460264   -7.7893498    180.19803  0.019603789  0.019692697            3 
  767000   0.95174499   -7.7722885    180.84483  0.019648504  0.019675676            8 
  768000   0.95824115   -7.7885558    180.96934   0.01963643  0.019658857            3 
  769000   0.93398162   -7.7721471    180.46325  0.019556052  0.019641889            5 
  770000   0.93717039   -7.7630217    180.95138  0.019583483  0.019625005            4 
  771000   0.93428156   -7.7739801    180.82369  0.019544281  0.019608016            8 
  772000    0.9439647   -7.8013861    180.48532   0.01948244  0.019591003            7 
  773000   0.95389061   -7.7834763    181.17043  0.019531094  0.019574117           11 
  774000   0.95481056   -7.7811303    181.23078  0.019512358  0.019557314            8 
  775000   0.94648555   -7.7788183    181.11661  0.019474904  0.019540453            4 
  776000   0.95213292   -7.8019135    181.54978  0.019496325  0.019523415            5 
  777000   0.94383689   -7.8126044    180.61604   0.01937109  0.019506255            4 
  778000   0.94746021    -7.773753    181.25058  0.019414158  0.019489184            7 
  779000   0.94536873   -7.7759291    181.28175   0.01939257  0.019472108            4 
  780000   0.96599472   -7.7635452    181.74863  0.019417588  0.019455022            2 
  781000    0.9479221   -7.7512143     182.1082  0.019431092  0.019437934            4 
  782000   0.92586146    -7.790291    181.64735  0.019357134  0.019420943            7 
  783000   0.91912463   -7.7931463    181.46233  0.019312722  0.019403715            8 
  784000    0.9581004   -7.7615677    182.15464  0.019361675  0.019386682            8 
  785000   0.95271625   -7.7853578    181.91958  0.019312057  0.019369619           13 
  786000   0.93343997    -7.829882    181.39359   0.01923172  0.019352261            8 
  787000   0.94248701   -7.7549094    182.54633  0.019329344   0.01933508            4 
  788000   0.95574939   -7.7975575    182.58316   0.01930871  0.019318124            4 
  789000   0.92258832   -7.7935384    181.92584  0.019214812  0.019301193            3 
  790000   0.96051597   -7.7162638    182.80087  0.019282792  0.019284316            8 
  791000    0.9475572   -7.7638011     182.7754  0.019255731  0.019267503            5 
  792000   0.94799556    -7.817545     182.4273  0.019194791  0.019250652            3 
  793000   0.93238727   -7.7687736    182.98939  0.019229654   0.01923378            5 
  794000   0.92023282   -7.7385897    182.98387  0.019204856  0.019216893            6 
  795000    0.9551994   -7.7723833    182.99852  0.019182234  0.019200145            7 
  796000   0.92970084   -7.7780412    182.94399  0.019152428  0.019183112            7 
  797000   0.92872298   -7.8226892     183.1406  0.019148954  0.019165946            6 
  798000   0.95241366   -7.7976648    182.41257  0.019048932  0.019148898            7 
  799000    0.9329866   -7.8084168    182.85611   0.01907135  0.019131833            3 
  800000   0.92847061   -7.8527078    182.63939  0.019024936  0.019114853            4 
  801000   0.92545961   -7.7897419    183.38837  0.019079107  0.019097874            3 
  802000   0.92703667   -7.8392942    183.15752   0.01903133  0.019081081            4 
  803000   0.94541398   -7.8035427     184.0729  0.019102626  0.019064214            9 
  804000   0.92177116   -7.7929539    183.58645  0.019028446  0.019047261            2 
  805000   0.93545916   -7.7993451    183.39585  0.018985078  0.019030428            6 
  806000   0.92908711   -7.8260662    183.55533  0.018978011  0.019013693            3 
  807000   0.93985614   -7.8424804    183.44133  0.018942723  0.018996874            4 
  808000   0.93141828   -7.8125435    184.04091  0.018981117  0.018979971            5 
  809000   0.93098971   -7.8203379      183.968  0.018950144   0.01896317            4 
  810000   0.93296228   -7.7959241    184.14857  0.018945326  0.018946545            4 
  811000   0.92840607   -7.8430919    183.78218  0.018884318  0.018929787            5 
  812000   0.91771416   -7.8260077    184.32758  0.018917034  0.018912848            3 
  813000   0.92251199   -7.8147687    184.26292  0.018887139  0.018896031            5 
  814000   0.91649098   -7.7868532    184.72878  0.018911627  0.018879287            5 
  815000   0.93877329   -7.8026344     184.1176   0.01882593  0.018862592            5 
  816000   0.93370209   -7.8303496     183.9866  0.018789481  0.018845819            3 
  817000   0.91875411   -7.8340062    184.18679  0.018786903  0.018829019            5 
  818000    0.9376748   -7.8373313    184.30616  0.018776096  0.018812152            6 
  819000   0.93226884    -7.820026    184.81029  0.018804466  0.018795407            4 
  820000    0.9145137   -7.8353328    184.57452  0.018757573  0.018778646           14 
  821000   0.91055307   -7.8374556    184.44523  0.018721603  0.018761922            7 
  822000   0.92406883   -7.8056514    184.90553  0.018745492   0.01874524            8 
  823000   0.90813651   -7.8646215    184.77982  0.018709986  0.018728365           12 
  824000   0.91779471   -7.8274895    184.89762  0.018699193  0.018711424            4 
  825000   0.92622551   -7.8636766    184.71372  0.018657951   0.01869449            5 
  826000   0.94345143   -7.8660847     184.3524  0.018598911  0.018677647           10 
  827000   0.92112749   -7.8274023    185.08061  0.018649799  0.018660779            4 
  828000   0.92670014   -7.8362628    185.07504  0.018626715  0.018643939            4 
  829000   0.93798953   -7.8386216    185.01862  0.018598575  0.018627041            8 
  830000   0.92258438   -7.8391684    185.19153  0.018593527  0.018610244            5 
  831000   0.92011716   -7.8699128    185.17516  0.018569511  0.018593612            4 
  832000   0.91165826   -7.8223809     186.1043  0.018640254  0.018577059            5 
  833000   0.93456751   -7.8057107    186.30552  0.018638007   0.01856068            6 
  834000   0.90109871   -7.8249913    185.60677  0.018545841  0.018544041           13 
  835000   0.89782278    -7.842004    185.68904   0.01853184  0.018527365            3 
  836000   0.91555657   -7.8317489    185.53333  0.018494152  0.018510481            5 
  837000   0.92286215   -7.8337725    185.89738  0.018508301  0.018493763            2 
  838000   0.93410476   -7.8697901    185.38569  0.018435331  0.018476982            2 
  839000   0.88772225   -7.8919303    184.96837  0.018371908  0.018460123            4 
  840000   0.91717966   -7.8765678    185.48834  0.018401621  0.018443297            9 
  841000   0.90233308   -7.8681574    185.79974  0.018410596  0.018426559            5 
  842000   0.91160566   -7.8517891    186.28824  0.018437078  0.018409972            9 
  843000   0.92071182   -7.8807517     185.6034  0.018347509  0.018393394            9 
  844000   0.92217787   -7.8452432    186.49471  0.018413774  0.018376779            3 
  845000   0.92016061    -7.852421    186.53761  0.018396214  0.018360246           10 
  846000   0.90493909   -7.8621565    186.92219  0.018412351  0.018343667            4 
  847000   0.92355478   -7.8242856    186.73607  0.018372301  0.018327203            5 
  848000   0.91179515   -7.8337793    186.57948  0.018335247  0.018310784            4 
  849000   0.91523391   -7.8495875    187.24577   0.01837905  0.018294489            7 
  850000   0.93872239   -7.8396986    187.18403  0.018351376  0.018278026            4 
  851000   0.91606328   -7.8476493    186.84884  0.018296988  0.018261539           14 
  852000   0.92183527   -7.8819224    186.89323  0.018279854  0.018244974            8 
  853000     0.898284    -7.875255    186.91276  0.018260332  0.018228461           10 
  854000   0.92452895   -7.9232853    187.02755  0.018250152  0.018212038            4 
  855000   0.90760067   -7.9479285    186.64559  0.018191578  0.018195603           10 
  856000   0.91709312   -7.8802884    186.74105  0.018179619  0.018179081           29 
  857000   0.92197902   -7.8838468    187.45581  0.018227908  0.018162629           15 
  858000   0.92154411    -7.904084    187.12443  0.018174479  0.018146172           10 
  859000   0.92345802   -7.8836911    187.53179  0.018192839   0.01812987            9 
  860000   0.93103431   -7.8693573    187.07834  0.018127746  0.018113543            7 
  861000   0.89661727   -7.8836736    187.13939    0.0181126  0.018097106            6 
  862000   0.91830046   -7.9055325    187.04354  0.018082322  0.018080821            5 
  863000   0.89797031   -7.9262167    187.56931  0.018112139  0.018064523            9 
  864000   0.90808692   -7.9107333    187.56793  0.018091043  0.018048067            7 
  865000   0.91155046    -7.914598    187.80938  0.018093389  0.018031607           12 
  866000   0.90148101   -7.8997721    188.05004  0.018095654  0.018015267           10 
  867000    0.9133961   -7.9109514    187.81045  0.018051754  0.017998918            6 
  868000   0.88678384   -7.8717566    188.18217  0.018066644  0.017982692            9 
  869000   0.89879977   -7.9071434    187.83888  0.018012935  0.017966572           15 
  870000   0.90425065    -7.916785    187.86977  0.017995189  0.017950281            6 
  871000   0.94111464   -7.9359895    188.40237  0.018025485  0.017934022           10 
  872000    0.9004713   -7.8912334    188.29466  0.017994521  0.017917729            9 
  873000   0.91109983   -7.8579945      188.625  0.018005441  0.017901487            5 
  874000   0.90509945   -7.9100027    188.46266  0.017969362  0.017885258           11 
  875000   0.88585339    -7.900887     188.6974  0.017971181  0.017869003            7 
  876000    0.9013331   -7.9000223    188.49716  0.017931617  0.017852794           13 
  877000   0.92000309   -7.8768826    188.44062  0.017905798  0.017836544           23 
  878000    0.9047535   -7.9177357    188.67876  0.017908007  0.017820314            9 
  879000    0.9135155   -7.9080621    188.42267  0.017863355  0.017803977           18 
  880000    0.9041254   -7.9641301     188.5703  0.017857036  0.017787778            9 
  881000    0.8955849   -7.9005364    188.72091  0.017851013  0.017771487           15 
  882000   0.89907698   -7.9231485    188.93366  0.017850874  0.017755262           23 
  883000   0.90007456   -7.9192056    189.00197  0.017837105  0.017739231            7 
  884000   0.88802833   -7.8748506    189.17826  0.017833546  0.017723162            4 
  885000   0.88845065    -7.910423     189.1864  0.017814162  0.017707095            8 
  886000   0.90191604   -7.8965119    189.00618  0.017777105  0.017691051           23 
  887000   0.91493937   -7.9652221    188.85465  0.017742827  0.017674884           25 
  888000   0.89981684   -7.9550853     188.9032  0.017727402  0.017658596            8 
  889000   0.90935653   -7.9175043    189.27343  0.017742167  0.017642451           12 
  890000   0.89460155   -7.9109304    189.72615  0.017764621  0.017626476           20 
  891000   0.90948053   -7.9204347    189.22598  0.017697903  0.017610376            4 
  892000   0.89634251     -7.91823    189.86246  0.017737524  0.017594327            6 
  893000   0.90675541   -7.9619056    189.39178  0.017673738  0.017578262            5 
  894000   0.90589336   -7.9471439     189.5866  0.017672129  0.017562056            4 
  895000   0.91412387   -7.9275188    189.44315  0.017639027   0.01754606            7 
  896000   0.88471414   -7.8939113    189.65847  0.017639367  0.017530085            4 
  897000   0.88632429    -7.941082    189.59934  0.017614208  0.017514129            7 
  898000    0.9100037   -7.9071855    189.97593  0.017629541  0.017498127            5 
  899000   0.90396399   -7.9477361    189.18878  0.017536965  0.017481993            7 
  900000    0.8931139   -7.9072999    189.77074  0.017571364  0.017465838            3 
  901000   0.89251015   -7.9157654    189.50932  0.017527684  0.017449637            3 
  902000   0.88632906   -7.9000808    190.00666    0.0175542  0.017433426            8 
  903000   0.88892694   -7.9321695    190.05952  0.017539638  0.017417243           10 
  904000   0.88844223   -7.9563312    189.69041  0.017486211  0.017401021            9 
  905000   0.89186786   -7.9570392    189.90996  0.017487105  0.017384762            6 
  906000   0.91236697   -7.9686982    189.73842  0.017452025  0.017368709           12 
  907000    0.9050117   -7.9470108    189.90116  0.017447736  0.017352692           10 
  908000   0.91270164   -7.9586462     189.9945  0.017437087  0.017336705            7 
  909000   0.88264105    -7.937081    189.91288  0.017410422  0.017320718            9 
  910000   0.90039168   -7.9523346     190.2696  0.017423956   0.01730478            6 
  911000   0.88595117   -7.9388065      190.326  0.017409989  0.017288765            8 
  912000   0.88352971   -7.9548116    190.60457  0.017416353  0.017272721            6 
  913000   0.89630184   -7.9745599    190.30719  0.017370134  0.017256783            6 
  914000   0.90820043   -7.9346539    190.66662    0.0173839  0.017240874           10 
  915000   0.88181824   -7.9672067     190.1132  0.017314499  0.017225139           11 
  916000   0.88449114   -8.0119592    190.58359   0.01733839  0.017209293           19 
  917000   0.86642536   -7.9867625    190.42836  0.017305376  0.017193318           18 
  918000   0.88290381   -7.9618071    190.88302  0.017327798  0.017177396           11 
  919000   0.86850079   -7.9580906    190.89623  0.017310141   0.01716142           12 
  920000   0.89708692   -7.9474505     190.9684  0.017297862   0.01714558            6 
  921000   0.86890757   -7.9239394    191.38427  0.017316709  0.017129872           10 
  922000   0.88074659   -7.9664857     191.2241  0.017283451  0.017114292           11 
  923000   0.88206262   -7.9501598    191.19493  0.017262092  0.017098737            2 
  924000   0.89867126   -7.9198637    191.35479  0.017257827  0.017083191           18 
  925000   0.89263739   -7.9846573    191.02897  0.017209817  0.017067566           23 
  926000   0.87346119    -7.979019    191.66778  0.017248721  0.017051792           17 
  927000   0.88104454   -7.9538681    191.36825  0.017203187  0.017036153           13 
  928000   0.88701586   -7.9493259    191.98693  0.017240205  0.017020553            6 
  929000    0.8747405   -7.9538698    191.38073   0.01716727   0.01700511            7 
  930000   0.87723094   -7.9543501    191.56295  0.017165139  0.016989611            7 
  931000   0.85951808   -8.0150858    191.06334  0.017101982  0.016974019           12 
  932000   0.87725176   -7.9934262    191.58901  0.017130634   0.01695843           21 
  933000   0.87500479   -7.9485805    191.89024  0.017139178    0.0169429           24 
  934000   0.87571506   -7.9346718    192.24744  0.017152698  0.016927391            9 
  935000   0.88981254   -7.9954925    191.21184  0.017042053  0.016911906           23 
  936000   0.89365993   -7.9652006    192.18975  0.017110911  0.016896487           19 
  937000   0.87628414   -8.0143539    191.75444  0.017053935  0.016881073            7 
  938000   0.89359011   -8.0134737    191.88595  0.017047437  0.016865658           14 
  939000   0.88702749   -7.9720869    192.20071  0.017057216  0.016850211           24 
  940000   0.89422168   -8.0011131     192.3061  0.017048413   0.01683475            7 
  941000   0.90250918   -7.9786938    192.58069  0.017054613  0.016819377            8 
  942000    0.8778264   -7.9907323    192.75012  0.017051497  0.016804078            9 
  943000   0.86773128   -8.0200318    192.39656   0.01700217  0.016788705           13 
  944000   0.88113001   -7.9611208    193.13428  0.017049283    0.0167735            7 
  945000   0.87191419   -7.9968067    192.56741  0.016981253  0.016758391           15 
  946000   0.86208837    -7.994352    192.62829  0.016968665  0.016743226           18 
  947000   0.87206586   -7.9702314    192.42473  0.016932835  0.016728088           21 
  948000   0.87924066   -7.9861557    192.74892   0.01694347   0.01671298           17 
  949000    0.8931487   -7.9901488    193.34387   0.01697786  0.016697875            8 
  950000   0.88473733   -7.9648876    193.28167  0.016954533  0.016682815            5 
  951000   0.86944233   -7.9818778    192.62938  0.016879546  0.016667753            8 
  952000   0.87178074   -8.0234281    193.07174  0.016900538  0.016652636            5 
  953000   0.85937455   -7.9891425    193.20065  0.016894076  0.016637535            7 
  954000   0.86815822   -8.0162246    193.29382  0.016884506  0.016622471            9 
  955000   0.86002778   -8.0264635    192.54193  0.016801215   0.01660732            6 
  956000   0.87782952   -7.9593418    193.94507  0.016905951  0.016592278            6 
  957000   0.88424487   -7.9988149    193.59972  0.016858213  0.016577373            4 
  958000   0.89260343   -7.9906826    193.43763  0.016826516  0.016562472            5 
  959000    0.8755651   -8.0045874    193.48482  0.016813071  0.016547482           10 
  960000   0.85898846   -8.0100239    193.46139  0.016793523  0.016532594            7 
  961000   0.87551676   -7.9291469    193.82376  0.016807472  0.016517716           13 
  962000   0.86699983   -7.9900332    194.01423    0.0168065  0.016502795            5 
  963000    0.8674594   -8.0036087    193.59036  0.016752368  0.016487862           14 
  964000   0.86130673   -7.9939563     193.6924   0.01674381  0.016472917            7 
  965000   0.85633854   -7.9577946    193.90003  0.016744389   0.01645809            4 
  966000   0.87013364   -7.9674292    193.91885   0.01672868  0.016443268           12 
  967000    0.8583625   -8.0193387    193.69126  0.016691767   0.01642839            9 
  968000   0.89233245   -8.0226111    193.65301   0.01667123   0.01641343            5 
  969000   0.86834322   -8.0084688    193.72344  0.016660083  0.016398482            6 
  970000   0.87474326   -8.0204148    193.68191   0.01663934  0.016383509            4 
  971000   0.85510676   -8.0128444    193.66928  0.016621119  0.016368584            4 
  972000   0.89057539   -8.0342239    193.79784  0.016615041  0.016353714            9 
  973000   0.87678263   -8.0325095     194.1142   0.01662506  0.016338789            7 
  974000   0.85131929   -7.9945018    194.28319   0.01662245  0.016323942            7 
  975000   0.86090922   -7.9922765    194.55668  0.016628776  0.016309129            6 
  976000   0.86154808   -8.0462315     194.0093  0.016565002  0.016294338            4 
  977000   0.85963057   -7.9895618    194.52092  0.016591685  0.016279453            7 
  978000   0.87286475   -8.0327137    194.51545  0.016574254  0.016264604            8 
  979000   0.86005658   -7.9879272    194.60363   0.01656483  0.016249775            5 
  980000   0.86996879   -8.0648039    194.28576  0.016520898  0.016234913            7 
  981000   0.88043996   -8.0572304    193.78753  0.016461734  0.016219998           10 
  982000   0.85899016   -8.0756969    193.86069  0.016451179  0.016205069            4 
  983000   0.87689852   -8.0713708    193.81379  0.016430467  0.016190046           12 
  984000   0.86179451    -8.042599    194.33068  0.016457544  0.016175124           10 
  985000   0.84373555   -8.0520253    193.89716  0.016404159   0.01616025            9 
  986000   0.84913911   -8.0295825    194.26527  0.016418633  0.016145343           11 
  987000   0.87477849   -8.0160798    194.70724  0.016439315  0.016130558           10 
  988000   0.85385273   -8.0057976     194.7103  0.016422934    0.0161158            7 
  989000    0.8505866   -8.0282769    194.04828  0.016350546  0.016100911            5 
  990000   0.87170889   -8.0457297    194.45949  0.016368644  0.016086052           10 
  991000   0.85922702   -8.0304567    194.97875  0.016395791   0.01607128            6 
  992000   0.85182002   -8.0573261    194.41184   0.01633164  0.016056496           15 
  993000   0.86896291     -8.09325    194.61747   0.01633245  0.016041646           16 
  994000   0.85788126   -8.0584706    194.35927  0.016294372  0.016026802           10 
  995000   0.84261949    -8.050719    194.77663   0.01631295  0.016011907           13 
  996000   0.83642201   -8.0470688    194.45066  0.016269299  0.015997112           11 
  997000    0.8574867   -8.0551835    195.02943  0.016301357  0.015982341           18 
  998000   0.85336079    -8.044014    194.71908  0.016259108  0.015967569           12 
  999000   0.85116454   -8.0637447    194.67913    0.0162395  0.015952777           13 
 1000000    0.8422299   -8.0635703     194.3073  0.016192275  0.015938018           17 
 1001000   0.85536993   -8.0621879    195.52869   0.01627778  0.015923177           28 
 1002000   0.86455996   -8.0815443    194.52341  0.016177928  0.015908357           17 
 1003000   0.84365713   -8.0742806    194.98907  0.016200488  0.015893561           29 
 1004000    0.8406381    -8.077606    194.98845    0.0161843  0.015878901           18 
 1005000   0.87375091   -8.0550662    195.01215  0.016170162  0.015864146           10 
 1006000   0.85851517   -8.0775945    195.16655  0.016166878  0.015849494            9 
 1007000   0.84932628   -8.0358865     195.7058  0.016195449  0.015834903            7 
 1008000   0.84609855   -8.0730113    195.01695  0.016122433  0.015820315            8 
 1009000   0.85535122    -8.066826    195.01149  0.016106004  0.015805656           13 
 1010000   0.85811158   -8.0955397    194.78465   0.01607134  0.015791026           16 
 1011000   0.83237917   -8.0867933    195.14227  0.016084922  0.015776241           25 
 1012000   0.84832506    -8.106417    195.24025  0.016077096   0.01576151           28 
 1013000   0.85322885   -8.1468408     194.5452  0.016004048  0.015746676           20 
 1014000   0.83159478   -8.1137698     194.6904  0.016000197  0.015731902           17 
 1015000   0.84632636   -8.1172109    195.05463  0.016014337  0.015717172           16 
 1016000   0.86797146   -8.1043583    194.91242  0.015986911  0.015702413           35 
 1017000   0.85025791   -8.0780861    195.17982  0.015993102  0.015687682           30 
 1018000   0.84499564   -8.0729218    195.28689  0.015986156  0.015673036           30 
 1019000   0.85203487   -8.0889458    195.37839  0.015977951  0.015658372           20 
 1020000   0.83441702   -8.0741776    195.92371  0.016006839  0.015643802           22 
 1021000   0.85439262   -8.1176192    195.75231  0.015977172  0.015629189           26 
 1022000   0.85967506   -8.1048026    195.37317  0.015930624  0.015614567           17 
 1023000   0.85717057   -8.1100983    195.73665   0.01594466  0.015600009           35 
 1024000   0.85223359   -8.0836526    195.68452  0.015924847  0.015585418           25 
 1025000   0.84107719   -8.0965041    194.93427  0.015848314  0.015570864           29 
 1026000   0.85169088   -8.1341583    195.15635  0.015850905  0.015556166           26 
 1027000   0.84170663   -8.1305618    195.15835  0.015835634   0.01554155           17 
 1028000   0.84017169   -8.1285402    195.21508  0.015824828  0.015526874           27 
 1029000   0.84882526   -8.0826684    195.32465  0.015818323  0.015512252           22 
 1030000   0.84271065   -8.0918195    195.80088  0.015841495  0.015497728           16 
 1031000   0.84331685   -8.1013008    195.41979  0.015795327  0.015483181           32 
 1032000   0.84270952   -8.1238822    195.55031  0.015790561   0.01546853           33 
 1033000   0.83318012   -8.1098918    195.34839  0.015758986  0.015453975           23 
 1034000   0.84136787   -8.1228612     195.4045  0.015748267  0.015439449           20 
 1035000   0.84791611   -8.1049948    195.44419  0.015736247  0.015424871           33 
 1036000    0.8322596   -8.1277516    195.64712  0.015737381  0.015410359           27 
 1037000    0.8635416   -8.1359772    195.60969  0.015719197  0.015395871           28 
 1038000   0.85612321   -8.1011375    195.89004  0.015726561  0.015381454           26 
 1039000   0.84327228   -8.0970955    195.89678  0.015711965  0.015366973           24 
 1040000   0.84098462   -8.1169457    196.15135  0.015717255  0.015352497           23 
 1041000   0.84475166    -8.140989    195.98162   0.01568857  0.015337999           35 
 1042000   0.83790559   -8.1402374    195.66462  0.015648162  0.015323519           16 
 1043000   0.84034854   -8.1246539    196.41935   0.01569346  0.015309118           10 
 1044000   0.84700441   -8.1515939    196.25133  0.015665017  0.015294763           23 
 1045000   0.82531756   -8.1399734    195.72329  0.015607918  0.015280305           45 
 1046000   0.83333544   -8.1040909    196.56022  0.015659673  0.015265988           10 
 1047000   0.84564804   -8.0968995    195.95472  0.015596524  0.015251649           29 
 1048000   0.80919244   -8.1115251    196.19194  0.015600504  0.015237296           21 
 1049000   0.82134529    -8.126658    195.72137   0.01554825  0.015222912           19 
 1050000    0.8322745   -8.1280596    196.04381  0.015559032  0.015208658           13 
 1051000   0.83175936   -8.1507425    195.82278  0.015526703  0.015194249           14 
 1052000   0.83713721   -8.1095261    195.73056  0.015504639  0.015179774           11 
 1053000   0.83138945   -8.1367793    196.15536  0.015523533  0.015165307           20 
 1054000    0.8375025   -8.1687316    195.55897  0.015461651  0.015150863           16 
 1055000   0.82317254   -8.1250506    195.67986  0.015456545  0.015136371           14 
 1056000   0.82543417   -8.1159876    196.03616  0.015470025  0.015121929           16 
 1057000   0.84968205   -8.1318163    196.32174  0.015477904  0.015107446            9 
 1058000   0.82722882   -8.1186309    196.00986   0.01543871  0.015093031           18 
 1059000   0.84188935   -8.1409918    196.24497  0.015442632  0.015078605           23 
 1060000   0.83013657   -8.1547004    195.60759  0.015377955  0.015064228           37 
 1061000   0.81941559   -8.1480851    196.29116   0.01541715  0.015049746           23 
 1062000   0.83899871   -8.1439281    195.91605  0.015373199  0.015035258           36 
 1063000   0.81350025   -8.1276768    196.28881  0.015387959  0.015020881           30 
 1064000   0.81124904   -8.1147237    196.16684  0.015363944  0.015006617           37 
 1065000   0.83159635   -8.1095996    196.56067  0.015380334  0.014992354           61 
 1066000   0.83722116   -8.1633945    196.41004  0.015354131  0.014978039           57 
 1067000   0.82367343   -8.1774081    196.07502  0.015313576  0.014963699           51 
 1068000   0.80824649   -8.1477274    196.13137  0.015303634  0.014949355           73 
 1069000   0.82417125   -8.1704095    195.54567   0.01524366   0.01493499           46 
 1070000   0.82601529   -8.1958091    196.26483  0.015285423  0.014920595           38 
 1071000   0.82535429   -8.1605207    196.08928  0.015257491  0.014906223           55 
 1072000   0.81639874   -8.1835868    195.86706  0.015225984  0.014891827           70 
 1073000    0.8301033   -8.2073434    195.66271  0.015195923  0.014877452           67 
 1074000   0.81386625   -8.1985513    196.10707  0.015216253  0.014863065           46 
 1075000   0.82729121   -8.2105129    196.27216  0.015214896  0.014848723           56 
 1076000    0.8394988   -8.2000722    196.05132  0.015183653  0.014834284           50 
 1077000   0.82945467   -8.1907102    195.97752  0.015163844  0.014819932           64 
 1078000   0.82534496   -8.2171926    196.11184   0.01516016  0.014805538           80 
 1079000   0.81827327   -8.2132986    195.79062  0.015121302  0.014791164           90 
 1080000   0.83336222   -8.1986586    195.92115  0.015117373  0.014776821          123 
 1081000   0.82330064   -8.1978443     196.4017  0.015140433  0.014762448          110 
 1082000   0.82558332   -8.1936646    196.06448  0.015100468  0.014748186          129 
 1083000   0.82792729   -8.1959873    196.00092  0.015081634  0.014733829          141 
 1084000   0.82586906   -8.2017098    195.91081  0.015060794  0.014719482          140 
 1085000   0.83895893   -8.2221844    196.25171  0.015073096  0.014705131          143 
 1086000   0.80992506    -8.211931    195.93289  0.015034752  0.014690804          196 
 1087000   0.83315032   -8.2150446    196.39674  0.015056481  0.014676477          137 
 1088000   0.81999125   -8.2414114    196.31895  0.015036684  0.014662186          184 
 1089000   0.81797553   -8.2193505    196.53013  0.015039037  0.014647913          180 
 1090000   0.82587385     -8.23594    196.25903  0.015004513  0.014633551          223 
 1091000   0.83027189   -8.2211357    196.28608  0.014992826  0.014619234          200 
 1092000    0.8467975   -8.2650494    195.26334  0.014901048  0.014604927          260 
 1093000   0.82649044   -8.1976855    196.09552  0.014950863  0.014590545          207 
 1094000   0.82710889   -8.2440323    196.42666  0.014962421  0.014576229          252 
 1095000    0.8132882   -8.2380258    196.55416   0.01495846  0.014561894          237 
 1096000    0.8607179   -8.2075904    196.15636  0.014914565  0.014547596          233 
 1097000   0.82030281   -8.2486908    196.18004  0.014902768  0.014533327          248 
 1098000   0.78643029   -8.2418624    196.00238  0.014875712  0.014519069          225 
 1099000   0.82169608   -8.2558583    196.21471  0.014878276  0.014504798          296 
 1100000   0.81490431   -8.2343243    196.51432  0.014887448   0.01449056          251 
 1101000   0.82058224   -8.2456789    195.99752  0.014834811   0.01447636          297 
 1102000   0.82345724   -8.2717559    196.05418  0.014825633  0.014462138          265 
 1103000   0.80667092    -8.249721    196.11714  0.014816949  0.014447864          292 
 1104000   0.80860171   -8.2697952     196.4437  0.014828178  0.014433628          333 
 1105000   0.82440903    -8.270616    196.24121  0.014799488   0.01441939          354 
 1106000   0.81603786   -8.2559969    196.58146  0.014811743  0.014405117          330 
 1107000   0.82667157   -8.2567082    196.00517  0.014754981  0.014390936          288 
 1108000   0.80540693   -8.2786133     195.8675   0.01473131   0.01437672          351 
 1109000    0.8233338    -8.265455     196.2131  0.014743996  0.014362517          333 
 1110000   0.80956574   -8.2972331    196.61483  0.014760873  0.014348357          368 
 1111000   0.79888963   -8.3023537    196.29398  0.014723521  0.014334131          394 
 1112000   0.81097161   -8.2776958    196.16089  0.014700306  0.014319969          371 
 1113000   0.79284656   -8.2631066    196.01565  0.014676224  0.014305841          351 
 1114000   0.80329765   -8.2771258    195.91848  0.014655781  0.014291614          402 
 1115000   0.78992506   -8.3082251    195.64451   0.01462216  0.014277382          381 
 1116000   0.80754952   -8.2724673    196.07916  0.014641514  0.014263167          433 
 1117000   0.80567899   -8.2562924    196.51209  0.014660705  0.014248997          429 
 1118000   0.80555377   -8.2912638    195.65344   0.01458359  0.014234773          465 
 1119000   0.80669827   -8.2699328    195.51835  0.014560496  0.014220612          472 
 1120000   0.81290015    -8.319581    195.95203  0.014579764  0.014206478          446 
 1121000   0.80679895   -8.3162141    196.23431  0.014587742  0.014192352          443 
 1122000   0.81820961   -8.2881809    196.19288  0.014571664  0.014178201          452 
 1123000   0.78583215   -8.3113537    196.15054  0.014555546  0.014164021          422 
 1124000   0.79733909   -8.2834286     196.2317  0.014548614   0.01414991          448 
 1125000   0.79420473   -8.3204066    195.83129  0.014506021   0.01413577          463 
 1126000   0.79239352   -8.2990903    195.89761  0.014498047  0.014121613          460 
 1127000   0.83096525   -8.3300428    195.57338  0.014461208  0.014107446          448 
 1128000   0.80563538   -8.3168201    195.79676  0.014464891  0.014093367          477 
 1129000   0.81158014     -8.31725    196.02497  0.014468923  0.014079225          515 
 1130000   0.80783596     -8.32522    195.90096  0.014446973  0.014065091          557 
 1131000   0.79249436   -8.3182286    196.07746  0.014447205  0.014050985          581 
 1132000    0.7980736   -8.3453792    195.68885  0.014405834  0.014036899          571 
 1133000   0.80421022   -8.3040092    195.92614  0.014410573  0.014022764          596 
 1134000   0.80122829    -8.329428    196.00434  0.014403611  0.014008639          637 
 1135000   0.81176799   -8.3482245    195.61249   0.01436215  0.013994472          597 
 1136000   0.80327766   -8.3413654    195.61813  0.014349921  0.013980369          620 
 1137000   0.79352726   -8.3619323    195.54919  0.014332248  0.013966243          623 
 1138000   0.81225327   -8.3748338    195.32416  0.014303175  0.013952096          656 
 1139000   0.81537927   -8.3726404    195.72231  0.014319747  0.013937929          657 
 1140000   0.78875496     -8.36946    195.62528  0.014300093  0.013923767          693 
 1141000   0.81116125   -8.3921911    195.66962  0.014290799  0.013909674          762 
 1142000   0.81892108   -8.3831778     195.3833  0.014257392  0.013895547          756 
 1143000   0.78721709   -8.3673447    196.14155    0.0143002  0.013881458          821 
 1144000   0.79834596   -8.3752934    196.08653  0.014283692  0.013867421          887 
 1145000    0.7820751   -8.3749944    195.54071  0.014231493  0.013853343         1006 
 1146000   0.80335241    -8.400994     195.2201  0.014195761  0.013839212          993 
 1147000   0.79646214   -8.3996248    195.27565   0.01418742  0.013825092         1109 
 1148000   0.79979552    -8.426463     195.3963   0.01418382  0.013810952         1100 
 1149000   0.81487474   -8.4240087    195.23395    0.0141597   0.01379676         1199 
 1150000   0.80013166   -8.4264177    195.44104  0.014162394  0.013782582         1248 
 1151000   0.79135309   -8.4198894    195.73072  0.014171063  0.013768394         1199 
 1152000   0.77859682   -8.4679039     195.3727  0.014132863  0.013754195         1318 
 1153000   0.79176018    -8.447988    195.37137  0.014120509  0.013739955         1409 
 1154000   0.78632346   -8.4900403    195.06565  0.014086197  0.013725666         1484 
 1155000   0.78810902   -8.4944151    194.75929  0.014051897  0.013711331         1429 
 1156000   0.77572302   -8.4837708    194.95541  0.014053879  0.013697033         1491 
 1157000   0.78457221   -8.5137932    195.07545  0.014050378  0.013682695         1499 
 1158000   0.77739541   -8.5204352    194.98721  0.014031894  0.013668428         1489 
 1159000   0.78496596   -8.5141533    194.83526  0.014008862  0.013654142         1509 
 1160000   0.80287357   -8.5199184    194.62216  0.013981477  0.013639863         1578 
 1161000   0.79371842   -8.5251781    194.59927  0.013967791  0.013625568         1547 
 1162000   0.80410697   -8.5529459    194.51224   0.01394953  0.013611262         1647 
 1163000   0.78730953   -8.5431567    194.64277  0.013946888  0.013596977         1554 
 1164000    0.8064397   -8.5282305    195.28391  0.013980807  0.013582719         1545 
 1165000   0.78448598   -8.5479228    194.19245  0.013890734  0.013568426         1675 
 1166000   0.78017648   -8.5522344    194.10452  0.013872536  0.013554135         1738 
 1167000   0.77713806   -8.5297421    194.40194  0.013881886  0.013539822         1747 
 1168000   0.79389532   -8.5869471    194.11334  0.013849411  0.013525493         1774 
 1169000   0.79908902   -8.5714914    194.46221  0.013862433  0.013511156         1869 
 1170000   0.79448775   -8.5848634    194.70799   0.01386809   0.01349682         1923 
 1171000   0.79734626   -8.5891057    194.06583  0.013810549  0.013482485         1983 
 1172000   0.78397949   -8.6018219    194.42489  0.013824295  0.013468139         2002 
 1173000   0.78127696   -8.6034456    194.09491  0.013789067  0.013453738         2122 
 1174000   0.79467872   -8.6304466    193.62027  0.013743631    0.0134393         2180 
 1175000   0.79855484   -8.6332953    193.76135   0.01374194  0.013424874         2182 
 1176000   0.78477791   -8.6413152    193.35642   0.01370156  0.013410462         2232 
 1177000   0.78490472   -8.6527742     193.7651  0.013718854  0.013396025         2271 
 1178000   0.78088404   -8.6541409    193.55195   0.01369213  0.013381564         2409 
 1179000   0.77404528   -8.6733737    193.40461  0.013670102  0.013367058         2546 
 1180000   0.80656799   -8.7082153    193.30939  0.013651793  0.013352483         2637 
 1181000   0.76362152   -8.7122846    193.05817  0.013622507  0.013337869         2706 
 1182000   0.78981753   -8.7291239    192.86708   0.01359751   0.01332324         2734 
 1183000   0.78386349   -8.7481822    193.04999    0.0135989  0.013308578         2858 
 1184000    0.7925654   -8.7684019    192.28708  0.013533719  0.013293858         2968 
 1185000   0.78475457   -8.7675068    192.32007  0.013524618  0.013279108         2936 
 1186000    0.7887505   -8.7575389    192.39533  0.013518502  0.013264375         3005 
 1187000   0.78752704   -8.7658563    192.53826  0.013517148  0.013249628         3102 
 1188000   0.78774589   -8.7884819    192.42464  0.013497801  0.013234834         3108 
 1189000    0.7747254   -8.8269956    191.93347  0.013452023  0.013220003         3138 
 1190000   0.79425266   -8.8235018    192.18135  0.013458077  0.013205133         3233 
 1191000   0.79208527   -8.8571342    191.85393  0.013423869  0.013190278         3261 
 1192000   0.79386918   -8.8546085    191.69212  0.013401295  0.013175407         3332 
 1193000   0.77506404    -8.883397    191.53908  0.013379371  0.013160528         3388 
 1194000   0.76957144   -8.8538396    191.61418  0.013373408  0.013145647         3446 
 1195000   0.78150857   -8.8644231    191.69642  0.013367951  0.013130752         3497 
 1196000   0.76090597   -8.8973538    191.34643  0.013332388  0.013115834         3575 
 1197000   0.80041518    -8.894556    191.62124  0.013340382  0.013100917         3606 
 1198000   0.77208608   -8.9316903     191.0681  0.013290769  0.013085998         3717 
 1199000    0.7792126   -8.8981024    191.13344  0.013284226  0.013071012         3656 
 1200000   0.77383911   -8.9305039    191.36079  0.013288944  0.013056049         3662 
 1201000   0.78219474   -8.9383407    191.00979  0.013253524   0.01304107         3710 
 1202000   0.76825232   -8.9407208    191.04058  0.013244633  0.013026109         3706 
 1203000   0.77777003   -8.9489472    191.09708  0.013237537  0.013011176         3734 
 1204000   0.77772458   -8.9510941    190.75133  0.013202612  0.012996233         3766 
 1205000   0.76007086   -8.9834143     191.0427  0.013211805  0.012981291         3787 
 1206000   0.78811041   -8.9567947    190.64474  0.013173351  0.012966329         3696 
 1207000    0.7572561   -8.9574396    190.92819  0.013182007  0.012951398         3773 
 1208000    0.7638036   -8.9557546     190.9142   0.01317013  0.012936476         3724 
 1209000   0.76424303    -8.971325    190.60179  0.013137702  0.012921565         3787 
 1210000   0.77649903   -8.9540901    191.18082  0.013166723  0.012906674         3768 
 1211000   0.77611793   -8.9731347    190.85658  0.013133539  0.012891786         3749 
 1212000   0.75983056   -8.9872577     190.5346  0.013100563  0.012876913         3745 
 1213000   0.76183932   -8.9810874    190.73936  0.013103831  0.012862061         3766 
 1214000   0.77233543   -8.9829615     190.6361  0.013085948  0.012847217         3782 
 1215000   0.77316891    -9.003546    190.39122  0.013058383  0.012832384         3773 
 1216000   0.77218995   -8.9886559    190.84129  0.013078487  0.012817555         3782 
 1217000   0.77740216   -9.0289771     190.4338  0.013039838  0.012802706         3813 
 1218000   0.78135865   -9.0150449    190.12004  0.013007666  0.012787839         3811 
 1219000   0.75737452   -9.0353508    190.09745   0.01299545  0.012772996         3844 
 1220000   0.78286229   -9.0249543    190.24225  0.012994689  0.012758156         3830 
 1221000   0.77045865   -9.0127934    190.19555  0.012980859  0.012743331         3834 
 1222000   0.74776918   -9.0382648    190.13512  0.012966116  0.012728537         3837 
 1223000   0.76635821   -9.0280744    190.23116  0.012962058  0.012713746         3830 
 1224000   0.76093277   -9.0060564    190.42213  0.012964469  0.012698979         3862 
 1225000   0.76350046    -9.053341     189.9026  0.012918544  0.012684208         3860 
 1226000   0.77500849   -9.0587133    190.03398  0.012916937  0.012669458         3861 
 1227000   0.75724301   -9.0290734    190.34024   0.01292721  0.012654727         3879 
 1228000   0.75612383   -9.0473031    190.19263  0.012906666  0.012640026         3856 
 1229000   0.74956731    -9.036919    189.99799  0.012882966  0.012625353         3842 
 1230000   0.76345429   -9.0428008    190.50504  0.012906846  0.012610673         3861 
 1231000   0.74763831   -9.0389993    190.07535  0.012867272  0.012596029         3883 
 1232000   0.74062671   -9.0506401    190.27867  0.012870581  0.012581384         3891 
 1233000   0.76192133   -9.0418073    190.11762  0.012849258  0.012566751         3865 
 1234000   0.75018863    -9.014217    190.48377  0.012863572  0.012552132         3838 
 1235000   0.76244514   -9.0489872     190.1683  0.012831869  0.012537539         3874 
 1236000   0.75594357   -9.0073994    189.85161  0.012800136  0.012522969         3856 
 1237000   0.75319013   -9.0632691    189.90301   0.01279325  0.012508408         3886 
 1238000   0.74679145   -9.0618248    189.80607  0.012776391  0.012493864         3839 
 1239000   0.75035107   -9.0623783    189.38028  0.012737441  0.012479332         3880 
 1240000   0.77275326   -9.0733157    189.97995   0.01276747  0.012464809         3871 
 1241000   0.75998152   -9.0423934    190.08295  0.012764098  0.012450317         3881 
 1242000   0.75911993   -9.0657742    189.58508  0.012720416  0.012435847         3880 
 1243000   0.75986271   -9.0298884    190.16094  0.012748789    0.0124214         3862 
 1244000    0.7358988   -9.0581035    190.16695  0.012738944  0.012406968         3888 
 1245000    0.7583337   -9.0569861    189.93983  0.012713509  0.012392546         3864 
 1246000   0.73997941   -9.0376479    189.90897  0.012701242  0.012378145         3878 
 1247000   0.74490284   -9.0756555    190.07195  0.012701948  0.012363746         3910 
 1248000   0.75383634   -9.0645214    189.90748  0.012680788  0.012349377         3870 
 1249000   0.76885464   -9.0610148    190.01021  0.012677489  0.012335004         3895 
 1250000   0.74445699   -9.0852445    189.72656  0.012648437  0.012320664         3880 
 1251000   0.74846382   -9.0587544    189.68665  0.012635668  0.012306355         3894 
 1252000   0.74585884    -9.084548    189.86907  0.012637718  0.012292057         3877 
 1253000   0.74841196   -9.0643671    189.70814  0.012616929  0.012277784         3888 
 1254000   0.75369644    -9.078105    190.34212  0.012648998  0.012263522         3916 
 1255000   0.75837044   -9.0752376    189.66889  0.012594216  0.012249296         3885 
 1256000   0.76171101   -9.0610293    190.18511  0.012618439  0.012235069         3889 
 1257000   0.75384554   -9.0695748    190.20826  0.012609935  0.012220871         3881 
 1258000   0.75695778   -9.0814112    189.82542  0.012574551  0.012206705         3868 
 1259000   0.75897272   -9.0869832    189.48851  0.012542263   0.01219255         3890 
 1260000   0.75808013   -9.0787613    189.87443  0.012557832  0.012178409         3871 
 1261000   0.73963265   -9.0689287    190.24304  0.012572234  0.012164285         3899 
 1262000   0.74592648   -9.0882452    189.67285   0.01252462  0.012150199         3886 
 1263000   0.75193645   -9.0900023    189.60961  0.012510531  0.012136122         3902 
 1264000   0.75594113   -9.0695058    189.96992  0.012524388  0.012122044         3855 
 1265000   0.74475853   -9.0694744    189.45415  0.012480511  0.012107993         3874 
 1266000   0.75497258   -9.1037697    189.94343  0.012502859   0.01209398         3889 
 1267000   0.75275051   -9.0700968    190.07561  0.012501684  0.012079968         3893 
 1268000   0.74582745   -9.0650498     189.4235  0.012448968  0.012065962         3865 
 1269000   0.74908939   -9.0802206    189.71015  0.012457982  0.012051976         3884 
 1270000   0.75703759   -9.0803087    189.35089  0.012424599     0.012038         3873 
 1271000    0.7545387   -9.0840338    189.58036  0.012429869  0.012024041         3892 
 1272000   0.73810731   -9.1002721    189.51174  0.012415602  0.012010097         3899 
 1273000   0.74225674   -9.0836498     189.7264    0.0124199   0.01199617         3862 
 1274000   0.74496715   -9.0810222    189.56397  0.012399527  0.011982244         3887 
 1275000   0.74869894   -9.1002265    189.60016  0.012392168  0.011968332         3911 
 1276000   0.73061855    -9.102781    189.10071  0.012349837  0.011954431         3885 
 1277000   0.74116264   -9.0753625    189.80448  0.012386092   0.01194056         3897 
 1278000   0.73493104   -9.1248385    189.14492  0.012333393  0.011926703         3895 
 1279000    0.7187854   -9.1000366    189.66462  0.012357611  0.011912863         3895 
 1280000   0.74318737   -9.1110855    189.45006  0.012333988  0.011899029         3901 
 1281000   0.76840848   -9.1107286    189.28566  0.012313665  0.011885236         3887 
 1282000   0.74823401   -9.0996521    189.52698  0.012319747  0.011871448         3889 
 1283000   0.74298174    -9.085884    189.65381  0.012318382  0.011857678         3883 
 1284000   0.75099872   -9.0887087    189.70829  0.012312324  0.011843925         3866 
 1285000   0.72399569   -9.1194044    189.33416   0.01227848  0.011830192         3887 
 1286000   0.74297531   -9.1190537    189.51489  0.012280643  0.011816473         3895 
 1287000   0.72984286   -9.1245138    189.40212    0.0122638  0.011802779         3918 
 1288000   0.74429527   -9.1207142     189.5589  0.012264422  0.011789067         3908 
 1289000    0.7344247   -9.0938889    189.93108  0.012278968  0.011775385         3883 
 1290000   0.72993013   -9.1516749    188.83297  0.012198512   0.01176172         3927 
 1291000   0.73820707   -9.1192462    189.25064  0.012216024  0.011748058         3909 
 1292000    0.7402313    -9.115508    189.28834     0.012209  0.011734406         3936 
 1293000   0.74272131   -9.1323768    189.24137  0.012196531   0.01172076         3922 
 1294000   0.74689763   -9.1400188    189.36288   0.01219493  0.011707129         3928 
 1295000   0.74889241   -9.1319779    189.41386  0.012188794  0.011693525         3919 
 1296000   0.74031922   -9.1359477    189.24398  0.012168466  0.011679961         3924 
 1297000   0.74554444    -9.134628    189.45267  0.012172492  0.011666419         3925 
 1298000   0.73318824   -9.1293784     189.4877  0.012165364  0.011652889         3912 
 1299000   0.73364465   -9.1343714    188.97962  0.012123404  0.011639368         3931 
 1300000   0.73554279   -9.1364056    189.24969   0.01213139  0.011625877         3936 
 1301000   0.73664155   -9.1220488    189.01858  0.012107263  0.011612407         3921 
 1302000   0.73232103   -9.1484051    189.19079  0.012108985  0.011598965         3903 
 1303000   0.72494449   -9.1355385    189.55153  0.012122763  0.011585519         3936 
 1304000   0.74270117    -9.107419      189.675  0.012121357  0.011572105         3931 
 1305000   0.74759849   -9.1498004    189.13348  0.012077489  0.011558697         3927 
 1306000   0.73780679   -9.1348562    189.25863  0.012076227    0.0115453         3905 
 1307000    0.7244013   -9.1553669    189.19622  0.012063008  0.011531931         3916 
 1308000   0.72146042   -9.1495059     189.0146  0.012042215  0.011518581         3930 
 1309000   0.71708664   -9.1603735    189.01302  0.012032915  0.011505249         3934 
 1310000   0.73299704   -9.1683348    189.19501  0.012035306  0.011491922         3921 
 1311000   0.72857016   -9.1669769    189.23418  0.012028616  0.011478621         3910 
 1312000   0.72239353   -9.1569839    189.21082  0.012017964  0.011465349         3919 
 1313000    0.7278295   -9.1812715    189.01805  0.011996576   0.01145208         3913 
 1314000   0.74178351   -9.1545411    189.02462  0.011987863  0.011438841         3941 
 1315000   0.71944178    -9.160731    188.73735  0.011960542  0.011425603         3913 
 1316000   0.73437675   -9.1875521    188.81324  0.011956259  0.011412383         3916 
 1317000   0.71873022    -9.173198    188.97666  0.011957521   0.01139918         3923 
 1318000   0.73510707   -9.1641257    188.82483  0.011938848  0.011385991         3939 
 1319000   0.72391623   -9.1323774     189.2507  0.011956703  0.011372823         3932 
 1320000   0.71118392   -9.1767477    189.03642  0.011934118  0.011359674         3918 
 1321000   0.73139813   -9.1957913     188.8472  0.011913146  0.011346539         3925 
 1322000    0.7361503    -9.161627     189.2574  0.011929992  0.011333416         3911 
 1323000   0.72482102   -9.1511785    188.84436  0.011894959  0.011320318         3900 
 1324000   0.73470063   -9.1666676     188.8126  0.011883976  0.011307216         3937 
 1325000   0.71034942   -9.1763366    188.73299      0.01187  0.011294148         3924 
 1326000   0.72934562   -9.1797751    188.70288  0.011859156  0.011281098         3933 
 1327000   0.72533736    -9.161957    189.23255  0.011883481  0.011268069         3915 
 1328000   0.71656122   -9.1657522    189.01147   0.01186066  0.011255073         3893 
 1329000   0.72818415   -9.1606983    188.96718  0.011848958  0.011242078         3901 
 1330000   0.71868466   -9.1592715    188.91541  0.011836805  0.011229109         3913 
 1331000   0.72592668   -9.1996839    188.70087   0.01181448  0.011216146         3939 
 1332000   0.71558514   -9.1861257    188.83861  0.011814227  0.011203209         3923 
 1333000   0.73324671   -9.1557706    188.72428  0.011798217  0.011190288         3910 
 1334000   0.71466365   -9.1774212    188.92994   0.01180222  0.011177392         3898 
 1335000   0.73169024   -9.1746742    189.10221  0.011804133  0.011164514         3918 
 1336000   0.71324183   -9.1471109    189.32859  0.011809418  0.011151652         3926 
 1337000   0.71688636   -9.1879621    189.15302  0.011789642  0.011138808         3932 
 1338000   0.71400585   -9.1831928    189.19647  0.011783537  0.011125992         3895 
 1339000   0.71513585   -9.1497773    189.35977    0.0117849  0.011113188         3893 
 1340000   0.72699037   -9.1846371     188.8244  0.011742811  0.011100402         3925 
 1341000   0.71953715   -9.2016468     188.7438  0.011729045   0.01108762         3928 
 1342000   0.71784556   -9.1773752    188.80675  0.011724215  0.011074868         3925 
 1343000   0.71156212   -9.1948419     188.5503  0.011699572  0.011062128         3925 
 1344000   0.70999556    -9.189875    188.72332  0.011701595    0.0110494         3910 
 1345000   0.73185259   -9.1872192    188.34955  0.011669737  0.011036705         3932 
 1346000    0.7247202   -9.1753514    188.84297  0.011691615  0.011024024         3917 
 1347000   0.72594719   -9.1792073    188.80294  0.011680459  0.011011379         3916 
 1348000   0.72862554   -9.1751226    188.99178  0.011683468  0.010998743         3909 
 1349000   0.71843436   -9.1969211    188.80391  0.011663202  0.010986108         3923 
 1350000   0.69127042    -9.174727    188.83779  0.011656653  0.010973502         3923 
 1351000   0.72072906   -9.2080629    188.89149  0.011651338  0.010960908         3910 
 1352000   0.71272544   -9.1795717     189.3003  0.011667918  0.010948333         3921 
 1353000   0.71021135   -9.1656569    189.10207  0.011647085  0.010935781         3912 
 1354000   0.71609303   -9.1829534    189.10357  0.011638575  0.010923264         3928 
 1355000   0.70677556   -9.1854673    188.94487  0.011620226  0.010910754         3919 
 1356000   0.71889194    -9.184571     188.8642  0.011606699  0.010898269         3960 
 1357000   0.71220309     -9.19582    189.13824  0.011614974  0.010885793         3918 
 1358000   0.70771656     -9.17794    188.67077  0.011577735  0.010873322         3904 
 1359000   0.70798706   -9.2139453    188.80923  0.011577706  0.010860884         3948 
 1360000   0.71517016   -9.2266425    188.47051  0.011548438  0.010848443         3936 
 1361000   0.70924432   -9.2100038    188.42166  0.011536962  0.010836034         3943 
 1362000   0.71188601   -9.1833765    188.63261  0.011541398  0.010823643         3945 
 1363000   0.71623667   -9.2058412    188.91682  0.011550307  0.010811281         3922 
 1364000   0.70946205   -9.2019065    188.63522  0.011524635  0.010798933         3934 
 1365000   0.69802596   -9.1898384    188.66192  0.011517822  0.010786611         3921 
 1366000   0.69928327   -9.1982477    188.71521  0.011512641  0.010774313         3923 
 1367000   0.70267953   -9.1780023    189.09999  0.011527676  0.010762015         3915 
 1368000   0.69926341   -9.2082765    188.48679  0.011481895  0.010749739         3938 
 1369000     0.698701   -9.1964621     188.8326  0.011494558  0.010737474         3920 
 1370000   0.69304099   -9.2431705    188.83711  0.011486442   0.01072522         3935 
 1371000   0.71826481   -9.1997729    188.88263  0.011480831  0.010712999         3944 
 1372000   0.71415679   -9.2195613    188.95529  0.011476876  0.010700797         3948 
 1373000   0.70646717    -9.198558    188.77815  0.011457766  0.010688622         3929 
 1374000   0.69448424   -9.2086015    188.45576  0.011429874  0.010676435         3932 
 1375000   0.70277069   -9.1956972    188.75399  0.011439636  0.010664282         3928 
 1376000   0.70445397   -9.1982369    188.93821  0.011442479   0.01065214         3940 
 1377000   0.70446614   -9.2017781    188.33651  0.011397755  0.010640019         3956 
 1378000   0.72030944   -9.2018907    188.56164  0.011403098  0.010627923         3936 
 1379000   0.71210581   -9.1979724    188.72368  0.011404622  0.010615823         3919 
 1380000   0.71141379    -9.194758    188.23269  0.011366708   0.01060375         3920 
 1381000   0.70721708   -9.1948898    188.71086  0.011387332  0.010591704         3944 
 1382000   0.70233089   -9.2094415    188.62461  0.011373891  0.010579654         3948 
 1383000   0.70551409   -9.2020283    188.68119  0.011369077  0.010567623         3942 
 1384000   0.71124045   -9.2005762     188.4418  0.011346448  0.010555624         3935 
 1385000   0.70766805   -9.1840478    188.56611  0.011345735  0.010543644         3934 
 1386000   0.71234505   -9.1960453    188.61566  0.011340528   0.01053168         3925 
 1387000   0.70258543   -9.2251168    188.39637  0.011319176  0.010519727         3952 
 1388000   0.69691808   -9.1976354     188.7765  0.011333844  0.010507795         3938 
 1389000    0.7034204   -9.2141276    188.49128  0.011308572  0.010495881         3931 
 1390000   0.69197216   -9.2111961     188.3425  0.011291517  0.010483992         3945 
 1391000   0.69174451   -9.2237043    188.73611   0.01130698  0.010472108         3936 
 1392000   0.69867609   -9.2273606    188.47523  0.011283239  0.010460235         3931 
 1393000   0.70437382   -9.2187232    188.10241  0.011252836  0.010448389         3932 
 1394000   0.70381095   -9.2111725     188.6576  0.011277953  0.010436558         3943 
 1395000   0.70697985   -9.2053492    188.49169  0.011259958  0.010424749         3943 
 1396000   0.69744931   -9.2158271    188.54493   0.01125507  0.010412947         3923 
 1397000   0.68515412   -9.2325498    188.60053   0.01125033  0.010401165         3934 
 1398000   0.69289322   -9.2176087    188.82445   0.01125563  0.010389397         3937 
 1399000   0.68294468   -9.2420149    188.43921  0.011224637  0.010377645         3946 
 1400000   0.69176214   -9.2212252    188.38082  0.011213144  0.010365913         3926 
 1401000   0.69981348   -9.2205616     188.6028  0.011218344  0.010354194         3927 
 1402000   0.69230063   -9.2087654    188.64619  0.011212921  0.010342495         3948 
 1403000   0.68745882   -9.2139113    188.66644  0.011206132  0.010330809         3937 
 1404000   0.68695177   -9.2361214    188.43516  0.011184423  0.010319145         3918 
 1405000   0.71358338   -9.2401381    188.48794  0.011179593   0.01030749         3926 
 1406000   0.69616947   -9.2264836    188.55668  0.011175716  0.010295845         3936 
 1407000   0.69188232    -9.235206    188.35061  0.011155568  0.010284231         3954 
 1408000   0.70287718   -9.2348085    188.11349  0.011133611  0.010272634         3939 
 1409000   0.68689697   -9.2057652    188.48116  0.011147454  0.010261063         3928 
 1410000   0.69274935   -9.2023476    188.49805  0.011140547  0.010249501         3942 
 1411000   0.70293524   -9.2422893    187.98161   0.01110215  0.010237952         3932 
 1412000   0.68290374   -9.2152996    188.79946  0.011142555   0.01022641         3933 
 1413000   0.69433521   -9.2321009    188.78376  0.011133744  0.010214894         3919 
 1414000   0.69875236   -9.2230294    188.44769  0.011106064  0.010203394         3909 
 1415000   0.69442361    -9.233824    188.51448  0.011102148   0.01019191         3950 
 1416000   0.69196261   -9.2416819    188.52175  0.011094736  0.010180434         3949 
 1417000   0.71049734    -9.231736    188.24893  0.011070862   0.01016899         3946 
 1418000   0.69185267   -9.2346421    188.62371   0.01108508  0.010157569         3954 
 1419000   0.68339598   -9.2059201    188.55252  0.011073087  0.010146154         3939 
 1420000   0.68097037   -9.2282321    188.37909  0.011055111  0.010134751         3937 
 1421000   0.67827176   -9.2289726    188.27868  0.011041443  0.010123371         3941 
 1422000   0.68693991   -9.2137882    188.73903  0.011060656  0.010112004         3942 
 1423000   0.68688582   -9.2433669    188.47408  0.011037367  0.010100646         3942 
 1424000   0.67704373   -9.2520003    188.68812  0.011042142  0.010089309         3938 
 1425000   0.67571815   -9.2563874    188.12977  0.011001741  0.010077989         3959 
 1426000   0.69016546   -9.2326883     188.2859   0.01100315  0.010066687         3923 
 1427000   0.68220094   -9.2184991    188.31304  0.010997024  0.010055394         3923 
 1428000   0.67863203   -9.2158784    188.38425  0.010993478  0.010044123         3938 
 1429000   0.68615883   -9.2405863    188.17757  0.010973733  0.010032868         3946 
 1430000   0.66940124   -9.2410177    188.38521  0.010978159  0.010021626         3945 
 1431000   0.68193575   -9.2391525    188.13223  0.010955755   0.01001039         3930 
 1432000   0.67866139   -9.2351979    187.87359  0.010933053  0.009999182         3944 
 1433000   0.66071665   -9.2390113    188.39172  0.010955555 0.0099879877         3938 
 1434000   0.68346774   -9.2431649    188.58864  0.010959359 0.0099768142         3929 
 1435000    0.6680024   -9.2256952    187.93153  0.010913561 0.0099656554         3939 
 1436000   0.67554464   -9.2484839    188.47275  0.010937369  0.009954512         3927 
 1437000   0.67620629   -9.2562051    188.24557  0.010916584 0.0099433894         3946 
 1438000   0.67973027   -9.2363162    188.33114  0.010913951 0.0099322646         3926 
 1439000   0.67781676   -9.2254472    188.28843  0.010903893 0.0099211591         3934 
 1440000   0.68112045   -9.2398391    188.07707   0.01088409 0.0099100762         3946 
 1441000   0.68692202   -9.2674184    187.84631  0.010863191 0.0098989995         3938 
 1442000   0.69709849   -9.2374221    188.24313   0.01087859 0.0098879486         3950 
 1443000   0.67504983   -9.2372527    188.41484  0.010880968 0.0098769167         3923 
 1444000    0.6706563   -9.2584347    188.09247  0.010854829 0.0098658996         3934 
 1445000   0.66544643   -9.2731478    188.01094  0.010842615 0.0098548958         3943 
 1446000    0.6837937   -9.2581348    188.05455  0.010837629 0.0098439014         3937 
 1447000    0.6825664   -9.2579027    188.36708  0.010848139 0.0098329237         3947 
 1448000   0.68347825   -9.2833503    188.37634   0.01084118 0.0098219705         3949 
 1449000   0.66865842   -9.2663075    188.07329  0.010816269 0.0098110294         3950 
 1450000   0.67388622   -9.2533965    188.31182  0.010822518 0.0098000914         3937 
 1451000   0.68012991   -9.2529123    188.42527  0.010821575 0.0097891846         3932 
 1452000   0.66726236   -9.2663061    188.35523  0.010810103 0.0097782774         3961 
 1453000   0.66712007   -9.2416096    188.26375  0.010797416 0.0097673909         3930 
 1454000   0.65506706    -9.262769    187.86253  0.010766995 0.0097565227         3950 
 1455000   0.66073251   -9.2644692    187.78169  0.010754965 0.0097456723         3940 
 1456000   0.67511829   -9.2544562     188.1345  0.010767771 0.0097348359         3922 
 1457000   0.66860751   -9.2607549    188.15772  0.010761709 0.0097240261         3927 
 1458000   0.67232212   -9.2618169    188.07371  0.010749526 0.0097132219         3930 
 1459000   0.65870761   -9.2792258    188.01749  0.010738948 0.0097024346         3943 
 1460000   0.66074362   -9.2569157    188.11776  0.010737315 0.0096916701         3943 
 1461000   0.67885355   -9.2380297    188.24238  0.010737074 0.0096809174         3950 
 1462000    0.6475223   -9.2906613    187.95611  0.010713412 0.0096701721         3932 
 1463000    0.6571053   -9.2569235    188.24742  0.010722683 0.0096594411         3934 
 1464000   0.67218447   -9.2500232    188.35336  0.010721389 0.0096487274         3939 
 1465000   0.65743247   -9.2800212    188.19393  0.010705002 0.0096380309         3929 
 1466000   0.66419283   -9.2655702    187.85925  0.010678675 0.0096273519         3935 
 1467000   0.67770732   -9.2553882    188.14807  0.010687802 0.0096166958         3943 
 1468000   0.66506629    -9.281021    187.98033     0.010671 0.0096060471         3941 
 1469000   0.66635514   -9.2726348    187.93379  0.010661095 0.0095954198         3946 
 1470000   0.66686572   -9.2745297    187.75151  0.010643509 0.0095847944         3927 
 1471000   0.65943226   -9.2708322    187.86352   0.01064262  0.009574192         3918 
 1472000   0.66417482   -9.2767232    187.89731  0.010637302 0.0095636033         3946 
 1473000   0.66046512   -9.2651386    187.69133  0.010618428 0.0095530354         3948 
 1474000   0.66572204   -9.2602579    188.32504  0.010647051 0.0095424723         3940 
 1475000   0.66751321   -9.2720066    187.95902  0.010619154 0.0095319414         3939 
 1476000   0.67292252   -9.2737721    187.78307  0.010602025 0.0095214152         3944 
 1477000   0.65852057   -9.2795936    188.08016  0.010611609 0.0095108968         3929 
 1478000   0.66932535   -9.2695698    188.04638  0.010602525  0.009500398         3940 
 1479000    0.6574635   -9.2923915    187.68225  0.010574839 0.0094899151         3941 
 1480000    0.6574704   -9.2853666    188.01022  0.010586161 0.0094794479         3942 
 1481000   0.66014037   -9.2687193    187.95447  0.010575876 0.0094690043         3946 
 1482000   0.66938657   -9.2910346    187.58044  0.010547708  0.009458577         3947 
 1483000   0.66731403   -9.2733345    187.81864  0.010553981  0.009448154         3942 
 1484000   0.67063342   -9.2829265    187.73694  0.010542281 0.0094377489         3950 
 1485000   0.66193984   -9.2755284    187.74598  0.010535689 0.0094273507         3930 
 1486000   0.66354151   -9.2881662    187.72019  0.010527153 0.0094169653         3941 
 1487000   0.65625003    -9.297326    187.84356  0.010526987 0.0094066004         3953 
 1488000   0.66244235   -9.2811007    188.03699  0.010530745 0.0093962592         3936 
 1489000   0.65850151   -9.2653536    188.13615  0.010529223 0.0093859269         3932 
 1490000   0.65448328   -9.2869489    187.95248  0.010511884 0.0093756155         3938 
 1491000   0.65954278   -9.2799815    187.70556  0.010491033 0.0093653083         3933 
 1492000   0.65884831   -9.2849118      187.957  0.010498045 0.0093550205         3945 
 1493000   0.66526117   -9.2986401    187.58121  0.010470038 0.0093447379         3952 
 1494000   0.65268638   -9.2784758    188.01318  0.010487125 0.0093344747         3925 
 1495000   0.65835535   -9.2634718    187.89609  0.010473584 0.0093242242         3938 
 1496000   0.65277776   -9.2932186    187.72703  0.010457165 0.0093139978         3943 
 1497000   0.64871656   -9.2707293    187.82303  0.010455524 0.0093037761         3939 
 1498000   0.65262539   -9.2811121    187.98488  0.010457548 0.0092935633         3937 
 1499000   0.65413077   -9.2947357    188.01652   0.01045233 0.0092833739         3949 
 1500000   0.66860129   -9.3079334    187.55055  0.010419475  0.009273192         3954 
 1501000   0.65242481   -9.2923909    187.77388  0.010424932 0.0092630275         3947 
 1502000   0.65213523     -9.29146    187.85619  0.010422558  0.009252873         3934 
 1503000   0.63694847   -9.2843911    187.77326  0.010411025  0.009242728         3949 
 1504000   0.66165615   -9.2961617    187.90632  0.010411476 0.0092326063         3947 
 1505000   0.66331431   -9.2858964    187.72571  0.010394558 0.0092225028         3939 
 1506000   0.65754551   -9.3077088    187.53395  0.010377045 0.0092124064         3944 
 1507000   0.66178585    -9.304493    187.68711  0.010378628 0.0092023212         3945 
 1508000    0.6423986   -9.2858616    187.88556  0.010382712 0.0091922578         3948 
 1509000   0.64920663   -9.3069457    187.79538  0.010370851 0.0091822041         3937 
 1510000   0.66866671   -9.2964794    187.84985  0.010366989 0.0091721717         3939 
 1511000    0.6628404   -9.2786813    187.72866  0.010353445 0.0091621609         3956 
 1512000   0.65624272   -9.3010187    187.79314  0.010350151  0.009152158         3952 
 1513000   0.64206505   -9.2833965    187.88939  0.010348611 0.0091421677         3956 
 1514000   0.62999463   -9.2926026    187.79746  0.010336716 0.0091322018         3945 
 1515000   0.64322748   -9.2993661    187.82536  0.010331428 0.0091222408         3945 
 1516000   0.65005185   -9.3105998    187.53947  0.010308898 0.0091122837         3946 
 1517000   0.66339492      -9.3059    187.69635   0.01031072 0.0091023502         3934 
 1518000   0.64947816   -9.2882009    187.61105  0.010299245 0.0090924366         3948 
 1519000   0.64159084    -9.327333    187.65174  0.010294697  0.009082522         3958 
 1520000   0.65046764   -9.3093821    187.79929  0.010296013  0.009072631         3953 
 1521000   0.64935831   -9.3129094    187.73106  0.010285506 0.0090627469         3954 
 1522000   0.64892368   -9.2985445    187.68675  0.010276322 0.0090528811         3934 
 1523000   0.66071906   -9.3201545    187.57342  0.010263374 0.0090430303         3951 
 1524000   0.63759527   -9.2969181    187.73869  0.010265676 0.0090331942         3944 
 1525000   0.64450224   -9.3135372    187.60888  0.010251851 0.0090233739         3939 
 1526000   0.63724988   -9.3047094    187.72653  0.010251558 0.0090135783         3958 
 1527000   0.64844954   -9.3033463     187.5006  0.010232515  0.009003776         3948 
 1528000   0.64207588   -9.2744652    187.92053   0.01024872 0.0089939965         3951 
 1529000   0.64052266   -9.3362897    187.52508  0.010220464 0.0089842338         3961 
 1530000    0.6496605   -9.3220673    187.61033  0.010218427 0.0089744806         3956 
 1531000   0.64080165   -9.2953624    187.57089  0.010209607 0.0089647403         3946 
 1532000   0.65610556   -9.3172673    187.47873  0.010197929 0.0089550128         3955 
 1533000   0.63186607   -9.3187812    187.92969  0.010215791 0.0089453092         3955 
 1534000   0.65109119   -9.3196128    187.72502  0.010198013 0.0089356205         3942 
 1535000   0.65506522    -9.302721    187.41722  0.010174659 0.0089259436         3959 
 1536000   0.64429524   -9.3181741    187.70925  0.010183878  0.008916271         3949 
 1537000   0.63735111   -9.3213345    187.76225  0.010180126 0.0089066132         3951 
 1538000   0.63314321   -9.3100849    187.60527  0.010165002 0.0088969713         3944 
 1539000   0.62997634   -9.3253888    187.68465  0.010162695 0.0088873398         3950 
 1540000    0.6331569   -9.3237203    187.69031  0.010156402 0.0088777217         3966 
 1541000   0.63849341   -9.3465326    187.72199  0.010151524 0.0088681147         3953 
 1542000   0.62726797   -9.3062746    187.56199  0.010136294 0.0088585178         3947 
 1543000   0.63819906   -9.3415509    187.33547  0.010117491 0.0088489409         3955 
 1544000   0.62694629   -9.3125679    187.53656  0.010121792 0.0088393794         3957 
 1545000   0.63832807   -9.3083728    187.46268  0.010111256 0.0088298295         3945 
 1546000    0.6417403   -9.3365969    187.44621  0.010103827 0.0088202945         3960 
 1547000   0.65210957   -9.3237438     187.3469  0.010091947 0.0088107708         3940 
 1548000   0.63947332   -9.3364492    187.44811  0.010090876 0.0088012604         3957 
 1549000   0.62930107   -9.3361887    187.62122  0.010093675 0.0087917557         3954 
 1550000   0.63662216   -9.3280283    187.51723  0.010081571 0.0087822696         3947 
 1551000   0.62705125   -9.3195836    187.42461  0.010070095 0.0087728016         3952 
 1552000   0.63085799   -9.3266591    187.27089  0.010055353 0.0087633426         3953 
 1553000   0.62939309   -9.3521766    187.19003  0.010044539 0.0087539015         3948 
 1554000   0.63080473   -9.3185951    187.56251   0.01005805 0.0087444781         3944 
 1555000   0.63465969    -9.327544    187.62524  0.010054943 0.0087350617         3947 
 1556000   0.63430067   -9.3192925    187.61682   0.01004803   0.00872566         3968 
 1557000   0.63884682   -9.3282486    187.54276  0.010037613 0.0087162684         3955 
 1558000   0.62039301   -9.3248835     187.9171  0.010051193 0.0087068977         3947 
 1559000   0.62903432   -9.3414771    187.28721  0.010011076 0.0086975355         3955 
 1560000   0.63791864   -9.3094127    187.22217  0.010001184 0.0086881827         3948 
 1561000   0.63094281    -9.334448    187.42268  0.010005482 0.0086788434         3959 
 1562000   0.62872461   -9.3448585     187.4702  0.010001611 0.0086695235         3959 
 1563000   0.64426702   -9.3378736    187.46323 0.0099948408 0.0086602217         3954 
 1564000   0.62529692   -9.3227024    187.67806 0.0099998969 0.0086509217         3941 
 1565000   0.62916339   -9.3470859    187.51399 0.0099847706 0.0086416368         3941 
 1566000   0.63262946   -9.3255402    187.57752 0.0099817752  0.008632364         3951 
 1567000   0.63480078   -9.3355074     187.2309 0.0099569719 0.0086230991         3942 
 1568000   0.62892948   -9.3537395      187.282 0.0099533374 0.0086138513         3952 
 1569000   0.62190711   -9.3322751    187.58028 0.0099628363 0.0086046254         3946 
 1570000   0.63277112   -9.3580559     187.5112 0.0099528238 0.0085954124         3963 
 1571000   0.62152506   -9.3290909    187.41375 0.0099413192 0.0085862092         3946 
 1572000    0.6306472   -9.3335514    187.68601 0.0099494281 0.0085770131         3952 
 1573000   0.63555079    -9.335435    187.27127 0.0099211311 0.0085678457         3934 
 1574000   0.62496395   -9.3165763     187.4659 0.0099251325 0.0085586832         3932 
 1575000   0.62298445   -9.3279848    187.39053 0.0099148427 0.0085495276         3950 
 1576000   0.62271121   -9.3414657    187.58643 0.0099189103 0.0085403952         3938 
 1577000   0.61113905   -9.3217758    187.39951 0.0099027432 0.0085312761         3951 
 1578000   0.61252869   -9.3156025    187.72022 0.0099134042 0.0085221627         3954 
 1579000   0.62628732   -9.3401751     187.6417 0.0099029817 0.0085130658         3935 
 1580000   0.62869691   -9.3396778    187.55085 0.0098919226 0.0085039798         3936 
 1581000   0.60767645   -9.3372203    187.17346 0.0098657739 0.0084949085         3953 
 1582000   0.61785672   -9.3506038    187.45984  0.009874623 0.0084858407         3967 
 1583000   0.61087321   -9.3354568    187.26548 0.0098581532 0.0084767934         3940 
 1584000   0.62724638   -9.3491069    187.16183 0.0098464769 0.0084677597         3948 
 1585000   0.63007421   -9.3458557    187.18143 0.0098412951 0.0084587318         3938 
 1586000   0.61648934   -9.3674477    187.32827 0.0098428051 0.0084497197         3952 
 1587000   0.61508132   -9.3550522    187.00582 0.0098196715 0.0084407191         3944 
 1588000   0.62518636   -9.3264047     187.4134 0.0098348762 0.0084317414         3938 
 1589000   0.63090711   -9.3319024     187.0068  0.009807363 0.0084227657         3940 
 1590000   0.61258186   -9.3288991    187.62306 0.0098334937 0.0084138057         3948 
 1591000    0.6292266   -9.3680543    187.11179 0.0098005338 0.0084048609         3953 
 1592000   0.62158809   -9.3543018    187.39629 0.0098092699 0.0083959218         3950 
 1593000    0.6196651   -9.3508413    186.98197 0.0097814379 0.0083870027         3938 
 1594000   0.61766246    -9.350286     187.3589 0.0097950075 0.0083781041         3941 
 1595000   0.61014601   -9.3441378    187.16849 0.0097789178 0.0083692096         3945 
 1596000   0.61997598   -9.3569237    186.85964 0.0097566648 0.0083603302         3942 
 1597000   0.61746837   -9.3509291    187.19308 0.0097679543 0.0083514579         3943 
 1598000   0.61349979   -9.3445706    187.31894 0.0097684052 0.0083425992         3953 
 1599000   0.61077684     -9.34501    187.15925 0.0097539738 0.0083337486         3936 
 1600000   0.60271157   -9.3324092    187.41181 0.0097610318 0.0083249257         3948 
 1601000   0.62751862   -9.3501905    187.16694 0.0097421892 0.0083161088         3933 
 1602000   0.60404526   -9.3577654    186.99781 0.0097273099 0.0083073163         3949 
 1603000   0.60483847   -9.3668939    186.89534 0.0097159149 0.0082985268         3956 
 1604000   0.61174846   -9.3609787    187.37008 0.0097345219 0.0082897473         3947 
 1605000   0.59308915   -9.3522122    187.34825 0.0097273234 0.0082809938         3937 
 1606000    0.6059435   -9.3559423    187.19611 0.0097133721  0.008272244         3940 
 1607000   0.62435266   -9.3596053    187.18209 0.0097066007 0.0082634982         3934 
 1608000    0.6064863   -9.3555858    187.06048 0.0096942618 0.0082547763         3946 
 1609000   0.61837857   -9.3504479    187.03664 0.0096870025 0.0082460718         3917 
 1610000   0.61320897   -9.3533706    187.13603 0.0096861298 0.0082373741         3958 
 1611000   0.62361088   -9.3706374    187.22516 0.0096847281 0.0082286907         3949 
 1612000   0.60799814   -9.3590479    186.82418  0.009657991 0.0082200234         3960 
 1613000   0.59576619   -9.3634704     187.1972 0.0096712752 0.0082113596         3965 
 1614000   0.60608219   -9.3615248    187.19685  0.009665265 0.0082027112         3954 
 1615000   0.62311424   -9.3640306    187.04979 0.0096516921  0.008194071         3965 
 1616000   0.61299645   -9.3376592    187.54671 0.0096713444 0.0081854417         3940 
 1617000   0.59417382   -9.3556769     187.4526 0.0096605131 0.0081768258         3960 
 1618000   0.60931924   -9.3544686    187.27503 0.0096453971 0.0081682138         3951 
 1619000    0.6164555   -9.3650615    187.19538 0.0096353396  0.008159613         3953 
 1620000   0.61329228    -9.370764    187.27198 0.0096333321 0.0081510336         3951 
 1621000   0.59232399   -9.3553386    187.02306 0.0096145927 0.0081424649         3957 
 1622000   0.60459894   -9.3776927    187.29301 0.0096225344 0.0081339157         3964 
 1623000   0.59979294   -9.3855184    187.31012 0.0096174841 0.0081253723         3941 
 1624000   0.61524554   -9.3647452    187.52201  0.009622435 0.0081168443         3951 
 1625000   0.59586337   -9.3541457    187.00914 0.0095902125 0.0081083323         3941 
 1626000   0.60272855   -9.3633125    187.24089 0.0095961916 0.0080998189         3944 
 1627000   0.60212369   -9.3737425     186.8545  0.009570503 0.0080913241         3952 
 1628000   0.61182208   -9.3731018    187.31345 0.0095881167 0.0080828429         3963 
 1629000   0.60045207   -9.3749417    187.18998 0.0095759147 0.0080743701         3958 
 1630000   0.59774878    -9.360554    187.10779 0.0095658378 0.0080659029         3948 
 1631000   0.61390258   -9.3699194    187.20452 0.0095649154 0.0080574514         3946 
 1632000   0.60801506   -9.3801334    187.00018 0.0095486205 0.0080490141         3954 
 1633000   0.60083973    -9.373872    186.97541 0.0095415087 0.0080405903         3953 
 1634000   0.60542372   -9.3920803    187.14277 0.0095442049 0.0080321697         3959 
 1635000    0.5863207   -9.3663442    186.98223 0.0095301849 0.0080237727         3939 
 1636000   0.59989686   -9.3657419    187.07775 0.0095292251  0.008015381         3948 
 1637000   0.60681898   -9.3716078    187.21803  0.009530545 0.0080069972         3940 
 1638000   0.60411649    -9.399382    187.07001 0.0095171963 0.0079986279         3958 
 1639000   0.61102566   -9.4085184    187.15326 0.0095156223 0.0079902687         3962 
 1640000   0.59383008   -9.3606751    187.30689 0.0095176265 0.0079819249         3946 
 1641000   0.60520583   -9.3702927    186.99671 0.0094960748 0.0079735921         3948 
 1642000   0.60501028    -9.382797    186.96158 0.0094885089   0.00796527         3940 
 1643000   0.58121666   -9.3878174    187.25404 0.0094975673 0.0079569652         3959 
 1644000   0.60204009   -9.3987075    186.86143 0.0094718892 0.0079486657         3932 
 1645000   0.60756285   -9.3724582    187.57292 0.0095021742 0.0079403773         3960 
 1646000   0.60712949   -9.3688894    187.17793  0.009476404 0.0079321045         3954 
 1647000   0.59898375   -9.3566388    187.29572 0.0094766102  0.007923846         3961 
 1648000   0.59645227   -9.3835231    187.23734 0.0094679074 0.0079155921         3943 
 1649000   0.59744996   -9.3732261    187.12691 0.0094565853 0.0079073575         3948 
 1650000   0.56946423   -9.3890564    186.86547 0.0094376501 0.0078991245         3958 
 1651000   0.59170029    -9.387315    186.81153 0.0094292112 0.0078909088         3964 
 1652000   0.58577216   -9.3819909    187.28582 0.0094474286  0.007882703         3958 
 1653000   0.60026359   -9.3889129    186.70917 0.0094126423 0.0078745121         3933 
 1654000   0.59291045   -9.3924561    187.01912 0.0094225676 0.0078663232         3950 
 1655000   0.58502922   -9.3817168    187.19844 0.0094259032 0.0078581556         3950 
 1656000    0.5925409   -9.3948864    186.71118 0.0093956915 0.0078499903         3944 
 1657000   0.57598683   -9.3918875    187.08085 0.0094086124 0.0078418462         3957 
 1658000   0.59007604   -9.3676433    186.88906 0.0093932983 0.0078337042         3952 
 1659000   0.59583003   -9.3899585    186.75431 0.0093808675 0.0078255783         3957 
 1660000   0.58598073   -9.3777136    187.08222 0.0093916779 0.0078174712         3948 
 1661000   0.58342523   -9.3937608    186.93988  0.009378882 0.0078093712         3947 
 1662000   0.58541934    -9.395212    187.13186 0.0093828653 0.0078012811         3958 
 1663000   0.59497463   -9.3857554    186.78174 0.0093596781 0.0077931991         3960 
 1664000   0.58611119   -9.3835452     187.2114 0.0093755708 0.0077851309         3940 
 1665000   0.58724895   -9.4030581    186.75887 0.0093472908 0.0077770809         3946 
 1666000   0.58346162   -9.3985741    186.72568   0.00934002 0.0077690246         3959 
 1667000   0.59132097    -9.388877     186.8152 0.0093388921 0.0077609919         3954 
 1668000   0.58876132   -9.4023213    186.90907 0.0093379833 0.0077529633         3952 
 1669000   0.58204316   -9.3873069    186.99164 0.0093365107 0.0077449493         3958 
 1670000   0.59454351   -9.3884792    186.81021 0.0093218666 0.0077369423         3956 
 1671000   0.57243499   -9.3942087    187.04365 0.0093279298 0.0077289561         3953 
 1672000   0.58059132    -9.405755    186.73359 0.0093068975 0.0077209718         3951 
 1673000   0.57419609   -9.4025186    186.69805 0.0092995639 0.0077129919         3940 
 1674000   0.57585228   -9.4190828     186.7407 0.0092961319 0.0077050288         3949 
 1675000      0.57643   -9.4183867    186.57588 0.0092823823  0.007697074         3949 
 1676000   0.60063625   -9.4113752    186.77274 0.0092866316 0.0076891316         3947 
 1677000   0.59482093   -9.3971698    186.99488 0.0092921326 0.0076812087         3964 
 1678000   0.58722678   -9.4080749    187.09065 0.0092913515 0.0076733038         3951 
 1679000   0.58491013   -9.3898477    187.12892 0.0092877171 0.0076654045         3961 
 1680000   0.56971086   -9.3897909    186.66055 0.0092589558 0.0076575055         3954 
 1681000    0.5840698   -9.4083802    186.85489 0.0092630818  0.007649628         3956 
 1682000    0.5796212   -9.3934656    186.75904 0.0092528259 0.0076417559         3954 
 1683000   0.58705944   -9.4030518    186.89851 0.0092542339 0.0076338921         3957 
 1684000   0.58132407    -9.408792    187.08923 0.0092581765 0.0076260397         3960 
 1685000   0.58883497   -9.4063819    186.73524  0.009235175  0.007618198         3959 
 1686000   0.58431358    -9.383465    186.96112 0.0092408622 0.0076103658         3934 
 1687000    0.5916074   -9.4070218    186.77782 0.0092263297 0.0076025489         3952 
 1688000   0.58199886   -9.4101735    187.10307 0.0092369208 0.0075947403         3956 
 1689000   0.56905963   -9.4183083    186.79585 0.0092162942 0.0075869473         3956 
 1690000   0.58308931   -9.4146894    186.98864 0.0092203471 0.0075791557         3945 
 1691000   0.57857867   -9.4350857    186.57534 0.0091945269 0.0075713764         3946 
 1692000   0.58557819   -9.3871443    186.67185 0.0091938458 0.0075636138         3958 
 1693000   0.58630648   -9.4167583    186.78837 0.0091941508 0.0075558625         3962 
 1694000   0.57610867   -9.4047907    186.80514 0.0091895486 0.0075481168         3962 
 1695000   0.56696663   -9.3973777    186.73506 0.0091806814 0.0075403815         3939 
 1696000   0.59055891   -9.4049466    186.44342 0.0091609385 0.0075326582         3965 
 1697000   0.56863522   -9.4171238    186.64987  0.009165678 0.0075249478         3951 
 1698000   0.57191913   -9.4010914    186.90682 0.0091728906 0.0075172479         3936 
 1699000   0.57907708     -9.42428    186.72735 0.0091586889 0.0075095603         3959 
 1700000   0.57864933   -9.4159116    186.39286 0.0091369047 0.0075018805         3957 
 1701000   0.57071977   -9.4193248    186.49822 0.0091366951 0.0074942156         3951 
 1702000   0.57446285   -9.4279694    187.02117 0.0091569317 0.0074865598         3949 
 1703000   0.56381209   -9.4311402    186.75953 0.0091387519 0.0074789149         3951 
 1704000   0.57490056   -9.4238081    186.59742 0.0091254606 0.0074712738         3949 
 1705000   0.57130325   -9.4357606    186.72182 0.0091261887 0.0074636488         3952 
 1706000   0.57606635   -9.4290849    186.40505  0.009105366 0.0074560254         3956 
 1707000   0.57267027   -9.4036774    186.53198 0.0091062282 0.0074484154         3945 
 1708000   0.57729514   -9.4242155    186.54823 0.0091016898 0.0074408169         3956 
 1709000   0.56812776   -9.4141933    186.80455 0.0091088625 0.0074332254         3945 
 1710000   0.56246483   -9.4316736    186.55964 0.0090916006 0.0074256479         3949 
 1711000   0.56465623   -9.4200312    186.58804 0.0090876701 0.0074180785         3948 
 1712000    0.5690747   -9.4332671    186.60397 0.0090831372 0.0074105213         3964 
 1713000   0.58230635   -9.4282814     186.6107 0.0090781619 0.0074029778         3954 
 1714000   0.57082037   -9.4230735    186.58229 0.0090714842 0.0073954407         3954 
 1715000    0.5579793    -9.413202    186.80162 0.0090768522  0.007387911         3941 
 1716000   0.56142618   -9.4214879    186.65807 0.0090645914 0.0073803935         3969 
 1717000   0.56173971   -9.4301488    186.57119 0.0090550955 0.0073728888         3946 
 1718000   0.56038687   -9.4228012    186.59322 0.0090508934 0.0073654015         3954 
 1719000   0.56392621    -9.434928    186.65712  0.009048726 0.0073579212         3962 
 1720000   0.55665058    -9.421831    186.70791 0.0090459257 0.0073504463         3941 
 1721000   0.56365642   -9.4353098    186.58453 0.0090346954 0.0073429839         3943 
 1722000   0.57150752   -9.4371428    186.67292 0.0090337263  0.007335525         3940 
 1723000   0.57678006   -9.4275598    186.53759 0.0090219382 0.0073280822         3955 
 1724000   0.57039611   -9.4409954    186.60523 0.0090199742 0.0073206449         3947 
 1725000   0.57582588   -9.4285423    186.40788 0.0090052114 0.0073132216         3953 
 1726000   0.56539004   -9.4451493    186.51104 0.0090049748 0.0073058016         3951 
 1727000   0.56568421   -9.4424229    186.43661  0.008996169 0.0072983951         3956 
 1728000   0.56676069   -9.4137639    186.74154 0.0090056682 0.0072910009         3946 
 1729000   0.57704847   -9.4332325    186.65929 0.0089964955 0.0072836135         3958 
 1730000    0.5536482   -9.4404927    186.46728 0.0089820461 0.0072762379         3947 
 1731000   0.55303662    -9.443257    186.65467 0.0089858786 0.0072688682         3947 
 1732000   0.56185009   -9.4296863    186.51575 0.0089740064 0.0072615129         3936 
 1733000   0.54664232   -9.4344908    186.48967 0.0089675738 0.0072541681         3963 
 1734000   0.55990946   -9.4462733    186.82845 0.0089786839 0.0072468309         3950 
 1735000   0.56903284    -9.415027    186.62533 0.0089637524 0.0072395088         3948 
 1736000   0.56162565   -9.4366585     186.3686 0.0089462654 0.0072321936         3947 
 1737000   0.55876017   -9.4489207    186.54936 0.0089497871 0.0072248851         3941 
 1738000   0.55844051   -9.4394095     186.1563 0.0089257913 0.0072175964         3942 
 1739000   0.56224015   -9.4197767    186.82108 0.0089525149 0.0072103186         3964 
 1740000   0.55802248   -9.4379756     186.3877 0.0089266139 0.0072030487         3959 
 1741000   0.56498387   -9.4451866    186.43956 0.0089239689 0.0071957822         3948 
 1742000   0.56805567    -9.443451    186.32109 0.0089131787 0.0071885289         3952 
 1743000   0.55833831   -9.4435423    186.66668 0.0089245877 0.0071812885         3954 
 1744000    0.5584054   -9.4297401    186.73378 0.0089226767 0.0071740616         3951 
 1745000   0.55455326    -9.458539    186.73298 0.0089175254 0.0071668388         3953 
 1746000   0.53944127   -9.4431186     186.2109 0.0088875002  0.007159621         3955 
 1747000   0.56952524   -9.4347366     186.6552 0.0089036061 0.0071524155         3935 
 1748000   0.55384199   -9.4484767    186.51296 0.0088917313 0.0071452296         3952 
 1749000   0.56514768   -9.4576374    186.75623 0.0088982384 0.0071380502         3951 
 1750000   0.56120912   -9.4249269    186.48157 0.0088800749 0.0071308816         3962 
 1751000   0.54339461   -9.4597816     186.3014 0.0088664287   0.00712372         3953 
 1752000   0.54476385   -9.4554566    186.32641 0.0088625574 0.0071165618         3957 
 1753000   0.54904285   -9.4431553    186.19385 0.0088512005 0.0071094105         3961 
 1754000   0.55541668   -9.4662099    186.35843 0.0088539733 0.0071022703         3960 
 1755000   0.55310125   -9.4287748    186.25521 0.0088440273 0.0070951434         3958 
 1756000   0.54414907   -9.4585191    186.50568 0.0088508772 0.0070880272         3944 
 1757000   0.55396679   -9.4682831    186.28178   0.00883522 0.0070809135         3946 
 1758000   0.56121277   -9.4478671    186.27732 0.0088299831 0.0070738133         3954 
 1759000   0.55873946   -9.4472924     186.5244 0.0088366685 0.0070667204         3945 
 1760000   0.56016887   -9.4526111    186.47812 0.0088294563 0.0070596412         3944 
 1761000   0.54851102   -9.4655883    186.12236 0.0088076073 0.0070525714         3951 
 1762000   0.54531033   -9.4523448    186.04428 0.0087989161 0.0070455047         3959 
 1763000   0.53783593   -9.4409278    186.27452  0.008804808 0.0070384529         3957 
 1764000   0.55207664   -9.4682815    186.51068  0.008810973 0.0070314171         3957 
 1765000   0.55478719   -9.4580195     186.4201 0.0088017043 0.0070243904         3956 
 1766000   0.55354236   -9.4620631    186.48399 0.0087997351 0.0070173628         3960 
 1767000   0.54888182   -9.4585291    186.23098  0.008782823 0.0070103452         3951 
 1768000   0.56128664   -9.4467045    186.26968 0.0087796797 0.0070033433         3953 
 1769000   0.54378791   -9.4604779     186.3879 0.0087802856 0.0069963477         3960 
 1770000   0.54361478   -9.4498612    186.38201 0.0087750476 0.0069893549         3952 
 1771000   0.56459257   -9.4739753    186.54106 0.0087775768 0.0069823785         3949 
 1772000   0.53861173   -9.4538729    185.99733 0.0087470528 0.0069754118         3947 
 1773000   0.54125749   -9.4585746    186.25539 0.0087542486 0.0069684592         3930 
 1774000   0.55591973    -9.463635    186.57218 0.0087641947 0.0069615115         3947 
 1775000   0.54631448   -9.4547866    186.55925   0.00875865 0.0069545708         3963 
 1776000   0.54741849   -9.4643759    186.17013 0.0087354602 0.0069476381         3949 
 1777000   0.54191426   -9.4529454    186.48163 0.0087451523 0.0069407213         3948 
 1778000   0.54076353    -9.439761    186.08285 0.0087215435 0.0069338121         3965 
 1779000   0.53738653   -9.4829906    186.32053 0.0087277746 0.0069269107         3950 
 1780000    0.5457665    -9.465436    186.39272 0.0087262508 0.0069200209         3953 
 1781000   0.53751385   -9.4665596    186.39285 0.0087213575  0.006913138         3961 
 1782000   0.53440511   -9.4589517    186.23276 0.0087089769 0.0069062633         3952 
 1783000   0.54046693   -9.4568536    186.07622 0.0086967761 0.0068994019         3953 
 1784000    0.5400303   -9.4730518    186.14831 0.0086952686 0.0068925434         3948 
 1785000   0.54772257   -9.4749606    186.21894 0.0086936947 0.0068857016         3958 
 1786000   0.53011684   -9.4806235     186.2125 0.0086885266 0.0068788618         3957 
 1787000   0.53771461   -9.4668696     186.4028 0.0086925385 0.0068720368         3953 
 1788000   0.53349717   -9.4490972    186.09545 0.0086733525 0.0068652236         3960 
 1789000   0.54201294    -9.469858    186.35917 0.0086807888 0.0068584166         3938 
 1790000   0.53745308   -9.4781045    186.08845 0.0086633355 0.0068516229         3955 
 1791000    0.5322609     -9.46692    186.14333 0.0086610518 0.0068448319         3957 
 1792000   0.53729028   -9.4714067    186.30214 0.0086636039 0.0068380537         3960 
 1793000   0.53164821   -9.4669104    186.36355 0.0086616263 0.0068312807         3966 
 1794000   0.52531036   -9.4865524     186.3338 0.0086554164 0.0068245189         3949 
 1795000   0.54174278   -9.4712955    185.96831 0.0086336264  0.006817766         3948 
 1796000   0.53871334   -9.4834635    186.09797 0.0086348353 0.0068110233         3946 
 1797000   0.53989177    -9.464735    186.10055 0.0086301497 0.0068042871         3950 
 1798000   0.53898701    -9.473848    186.79307 0.0086574469 0.0067975594         3947 
 1799000    0.5341895   -9.4803253    186.34819 0.0086320266 0.0067908463         3956 
 1800000   0.53634588    -9.482435    186.07207 0.0086144478 0.0067841449         3951 
 1801000   0.53079004   -9.4877079    186.25546 0.0086181499 0.0067774486         3946 
 1802000   0.53846491   -9.4945211    186.42635 0.0086212703 0.0067707583         3961 
 1803000   0.52712222   -9.4909002    186.03536 0.0085984176 0.0067640771         3969 
 1804000   0.53653058   -9.4928125    185.95267 0.0085898314 0.0067574012         3958 
 1805000    0.5396315     -9.48388    186.18854 0.0085959621 0.0067507428         3961 
 1806000    0.5354095   -9.4730853     186.1378 0.0085888611 0.0067440904         3973 
 1807000   0.53372318   -9.4714758    186.33937 0.0085934037 0.0067374457         3959 
 1808000   0.51459317   -9.4916977    186.24444 0.0085842755 0.0067308091         3957 
 1809000   0.53522258   -9.4803682    186.15585 0.0085754493 0.0067241799         3964 
 1810000   0.52175261   -9.4871905    185.96861 0.0085620905 0.0067175589         3951 
 1811000    0.5406227   -9.4737036    186.39986  0.008577207 0.0067109508         3960 
 1812000   0.52955387   -9.4872558    186.07686 0.0085576185 0.0067043512         3963 
 1813000   0.53669364   -9.4791139    186.21342 0.0085591752 0.0066977642         3957 
 1814000   0.52291432   -9.4810691    185.95697 0.0085426759 0.0066911836         3962 
 1815000   0.54356042   -9.4855812    186.08809 0.0085439893 0.0066846129         3955 
 1816000   0.53478067   -9.4878253    186.21386 0.0085450559 0.0066780449         3961 
 1817000   0.53560851   -9.4783903    185.95127   0.00852831 0.0066714872         3951 
 1818000   0.53313986   -9.4807928     186.1568 0.0085330401 0.0066649389         3962 
 1819000   0.54162173   -9.4817753    186.25481 0.0085328389 0.0066584014         3960 
 1820000   0.53413149   -9.4864636    186.02378 0.0085175722 0.0066518725         3955 
 1821000   0.53595829   -9.5068963    186.33289 0.0085270405 0.0066453499         3965 
 1822000   0.51833908   -9.5052552    186.04765 0.0085093143 0.0066388344         3967 
 1823000   0.53055745   -9.4901003    186.18137 0.0085107593 0.0066323293         3965 
 1824000   0.52741791   -9.4984625    185.88579 0.0084925889 0.0066258311         3959 
 1825000    0.5219693   -9.4810204    185.97719 0.0084921089 0.0066193438         3963 
 1826000   0.51376995   -9.5000389    185.79651 0.0084792128 0.0066128602         3965 
 1827000   0.52602385    -9.491156    185.95136 0.0084816349 0.0066063876         3958 
 1828000   0.52456974    -9.491573    186.33211 0.0084943524 0.0065999222         3966 
 1829000   0.53070635    -9.493948    186.08971 0.0084786637 0.0065934668         3962 
 1830000   0.51196277   -9.5044785    186.23607 0.0084806953 0.0065870175         3970 
 1831000   0.52011262    -9.487958    185.88588 0.0084601257 0.0065805773         3960 
 1832000   0.51931743   -9.5032866    185.88395 0.0084554196 0.0065741471         3962 
 1833000   0.52115585   -9.5052349    185.98331  0.008455324 0.0065677217         3942 
 1834000   0.52090669   -9.4970473     185.7524 0.0084402219 0.0065613089         3959 
 1835000   0.51396377   -9.5034493    185.92494 0.0084434577 0.0065549024         3945 
 1836000   0.51788508   -9.5196021    186.01995 0.0084431715 0.0065485001         3957 
 1837000   0.51904198   -9.4987503    185.92564 0.0084342967 0.0065421101         3957 
 1838000   0.51823161   -9.5039801    186.25579 0.0084446768 0.0065357288         3966 
 1839000   0.51741639   -9.4871568     185.9644 0.0084268804 0.0065293544         3962 
 1840000   0.52964996   -9.5103417    186.20048 0.0084329929 0.0065229894         3956 
 1841000     0.512464   -9.4901643    185.82439 0.0084113884 0.0065166322         3959 
 1842000   0.51668423   -9.5009726    186.12053 0.0084202196  0.006510284         3962 
 1843000   0.51675024   -9.5003003    186.02683 0.0084114138 0.0065039455         3965 
 1844000   0.52181036   -9.5025949    185.89116 0.0084007212 0.0064976197         3950 
 1845000   0.52141345   -9.4903045    185.71956 0.0083884174 0.0064912909         3962 
 1846000   0.51547864   -9.5120929    186.13833 0.0084027777 0.0064849719         3955 
 1847000   0.51582878   -9.5276946    186.11676 0.0083972549 0.0064786601         3946 
 1848000   0.49647484   -9.5124136    185.91994 0.0083838357 0.0064723617         3956 
 1849000   0.52072309   -9.5098215    186.06333 0.0083857638 0.0064660662         3960 
 1850000   0.51519318   -9.5323626    186.05666 0.0083809307 0.0064597816         3947 
 1851000   0.51567408   -9.5278216    185.91412 0.0083699855 0.0064535038         3962 
 1852000   0.51310454   -9.5024917    185.83275 0.0083618047 0.0064472344         3961 
 1853000   0.51383321   -9.5128284    185.86993 0.0083589642 0.0064409731         3955 
 1854000     0.508975   -9.5055747    186.18674 0.0083686956  0.006434721         3958 
 1855000   0.51349954   -9.5008855    185.84275 0.0083487308  0.006428475         3959 
 1856000   0.51919722   -9.5043774    185.76057 0.0083405426 0.0064222419         3957 
 1857000   0.52098458    -9.506138     185.9563 0.0083448347 0.0064160116         3967 
 1858000   0.50685825   -9.5097702    186.06163 0.0083450676 0.0064097927         3956 
 1859000    0.5207377   -9.5178349    185.98047 0.0083369407 0.0064035784         3953 
 1860000   0.51657996   -9.5208988    185.74396  0.008321862 0.0063973733         3945 
 1861000    0.5037544   -9.5350526    185.91421 0.0083250139 0.0063911748         3972 
 1862000   0.50992447   -9.5079945    185.96031 0.0083226062  0.006384983         3945 
 1863000   0.50234502   -9.5319797    185.80763 0.0083113095 0.0063788011         3962 
 1864000   0.50233132   -9.5166536     185.7813 0.0083056734 0.0063726298         3953 
 1865000   0.50747631   -9.5309132    185.77155 0.0083007841 0.0063664622         3960 
 1866000   0.50059797    -9.517695    185.87258 0.0083008474 0.0063603034         3961 
 1867000   0.50147811    -9.521118    185.67594 0.0082876247 0.0063541557         3954 
 1868000    0.4952267   -9.5309853    185.75264 0.0082866098 0.0063480181         3960 
 1869000   0.50730524   -9.5015885    185.79436 0.0082840362 0.0063418883         3953 
 1870000   0.50784896   -9.5229503    185.65554 0.0082734199 0.0063357639         3944 
 1871000   0.49957756   -9.5230505    185.88027 0.0082790073  0.006329647         3962 
 1872000   0.48968022   -9.5094872    185.78417 0.0082703069 0.0063235376         3964 
 1873000   0.49983888   -9.5283893     185.7962 0.0082664266 0.0063174383         3946 
 1874000   0.49769124   -9.5188735    185.62231 0.0082542827 0.0063113461         3963 
 1875000   0.50821658   -9.5275382    185.55492 0.0082468853 0.0063052652         3960 
 1876000   0.49860044   -9.5151882    185.77779 0.0082523896 0.0062991924         3958 
 1877000   0.51019687   -9.5193968    185.62982 0.0082414232 0.0062931239         3953 
 1878000   0.50621757   -9.5289652    185.87234 0.0082477963 0.0062870625         3953 
 1879000    0.4988937   -9.5305008     185.7918  0.008239835 0.0062810119         3965 
 1880000   0.51084572   -9.5302243    185.47064 0.0082212162  0.006274973         3958 
 1881000   0.50554503   -9.5262373    185.73055 0.0082283602 0.0062689377         3949 
 1882000   0.50737921   -9.5327351    185.95016 0.0082337124 0.0062629115         3959 
 1883000   0.50096913    -9.542479    185.78695 0.0082221169 0.0062568927         3958 
 1884000   0.49881118   -9.5549972    185.66974 0.0082125681 0.0062508809         3962 
 1885000   0.50562237    -9.523307    185.78394 0.0082132598 0.0062448805         3963 
 1886000   0.48831389   -9.5197845    185.86307 0.0082124015 0.0062388836         3953 
 1887000   0.49401706   -9.5285665    185.94054 0.0082114707 0.0062328982         3961 
 1888000   0.50376421   -9.5446044    185.81887 0.0082017509 0.0062269211         3963 
 1889000   0.49245027   -9.5327016    185.84532  0.008198576 0.0062209535         3963 
 1890000    0.5009673   -9.5276885    185.62578 0.0081845583 0.0062149899         3956 
 1891000   0.49699431   -9.5184615    185.53747 0.0081763385  0.006209032         3954 
 1892000   0.49750842   -9.5275013    185.94228 0.0081898467 0.0062030861         3963 
 1893000   0.50072954   -9.5334913    185.41677 0.0081623866 0.0061971458         3957 
 1894000   0.49565237   -9.5289446    185.74384 0.0081724675 0.0061912091         3960 
 1895000   0.49787415   -9.5261697    185.78328 0.0081698893 0.0061852836         3957 
 1896000   0.49625963   -9.5429766    186.01782 0.0081758885 0.0061793684         3961 
 1897000    0.5108808   -9.5374131    185.38479 0.0081437706 0.0061734549         3959 
 1898000   0.49412115   -9.5348544    185.78608 0.0081570988  0.006167555         3963 
 1899000   0.50550268   -9.5333555    185.76192 0.0081517432 0.0061616595         3956 
 1900000   0.49622461   -9.5243967    185.62372 0.0081413914 0.0061557762         3955 
 1901000   0.51257593   -9.5497277    185.69408 0.0081401931  0.006149898         3953 
 1902000   0.50446763   -9.5250427     185.5398 0.0081291537 0.0061440285         3961 
 1903000   0.49626204    -9.549724    185.96594 0.0081435425 0.0061381673         3960 
 1904000   0.48109184    -9.533488    185.73726 0.0081292569 0.0061323127         3948 
 1905000   0.49590998   -9.5579837    185.63132  0.008120355 0.0061264688         3936 
 1906000   0.49252136   -9.5531464     185.8074 0.0081237933 0.0061206269         3958 
 1907000    0.4976567   -9.5284646    185.59873 0.0081104146 0.0061147946         3945 
 1908000   0.48976096   -9.5384861    185.57679 0.0081052059 0.0061089711         3947 
 1909000    0.4923327   -9.5468061    185.52092 0.0080985209 0.0061031537         3959 
 1910000   0.51202137   -9.5509351    185.79957 0.0081064383 0.0060973418         3947 
 1911000   0.48508209   -9.5376196     185.4657 0.0080876375 0.0060915387         3964 
 1912000   0.48532731   -9.5459029    185.84232 0.0080998222 0.0060857475         3956 
 1913000   0.49070109   -9.5314897    185.87736 0.0080971143 0.0060799593         3959 
 1914000   0.48765097   -9.5517078    185.83301  0.008090953  0.006074179         3956 
 1915000    0.4891533    -9.542802    185.69668 0.0080807953 0.0060684032         3964 
 1916000   0.48691864   -9.5498104    185.59445 0.0080721315 0.0060626339         3954 
 1917000   0.49810499   -9.5514665    185.41899 0.0080602935 0.0060568764         3969 
 1918000   0.48576901   -9.5570812    185.61147 0.0080644539 0.0060511274         3951 
 1919000   0.48829829   -9.5486212    185.40813 0.0080514212 0.0060453839         3949 
 1920000   0.49902214   -9.5476825    185.64175 0.0080573675 0.0060396508         3961 
 1921000   0.49379966   -9.5507905    185.51434 0.0080476461 0.0060339241         3952 
 1922000   0.49182222   -9.5592219    185.38714 0.0080379441 0.0060281997         3957 
 1923000   0.48841311   -9.5380521    185.46797  0.008037267 0.0060224823         3959 
 1924000   0.48776231   -9.5409932     185.5235 0.0080354948 0.0060167727         3936 
 1925000   0.47739342   -9.5518966    185.63104 0.0080359757 0.0060110754         3958 
 1926000   0.48541531   -9.5600232    185.13761 0.0080104539 0.0060053824         3948 
 1927000   0.48309931   -9.5489121    185.58213 0.0080255204 0.0059996949         3964 
 1928000    0.4856362   -9.5509369    185.30908 0.0080095557 0.0059940137         3956 
 1929000   0.47786752    -9.564862    185.64699 0.0080200011 0.0059883436         3965 
 1930000   0.47427321   -9.5644777     185.6092 0.0080142142 0.0059826766         3962 
 1931000   0.47981249   -9.5532145    185.36699 0.0079996114 0.0059770229         3965 
 1932000   0.48924104   -9.5564648    185.46207 0.0079995716  0.005971369         3965 
 1933000   0.48614369   -9.5471403    185.47807 0.0079961232 0.0059657262         3960 
 1934000   0.48633115   -9.5502541     185.4439  0.007990516 0.0059600903         3964 
 1935000   0.48251756   -9.5508122    185.58896 0.0079926341 0.0059544658         3958 
 1936000   0.48398819    -9.554023    185.62986 0.0079902658 0.0059488462         3955 
 1937000   0.48473191   -9.5525518    185.31862  0.007972751 0.0059432278         3942 
 1938000   0.48043956   -9.5720496    185.42669 0.0079732838  0.005937624         3960 
 1939000   0.47850663   -9.5731618    185.23223 0.0079608144 0.0059320255         3958 
 1940000   0.46671386    -9.562374    185.50456 0.0079684088 0.0059264316         3954 
 1941000   0.47193292   -9.5796773    185.29232 0.0079551914 0.0059208475         3968 
 1942000   0.47809398   -9.5607837    185.42928  0.007956972 0.0059152669         3955 
 1943000   0.47942611   -9.5539162    185.34046 0.0079490674 0.0059096932         3963 
 1944000    0.4750189   -9.5403765    185.55586 0.0079542122 0.0059041288         3957 
 1945000   0.47112692   -9.5551248    185.49399 0.0079474718 0.0058985744         3966 
 1946000   0.47680025    -9.548161    185.39887 0.0079393145 0.0058930273         3956 
 1947000   0.48727068   -9.5694599    185.58146 0.0079430519 0.0058874865         3974 
 1948000   0.47566592   -9.5670172    185.48195 0.0079347173 0.0058819514         3953 
 1949000   0.48494011   -9.5637151    185.28708 0.0079223142 0.0058764225         3954 
 1950000    0.4717344   -9.5854669    185.52688 0.0079284993 0.0058708998         3964 
 1951000   0.48567092   -9.5614452    185.54443  0.007925185  0.005865388         3954 
 1952000   0.47628407   -9.5662346    185.62313 0.0079244846 0.0058598819         3965 
 1953000   0.47744369    -9.567913    185.41679 0.0079116229 0.0058543846         3962 
 1954000   0.47327962    -9.567342    185.49503 0.0079109106 0.0058488939         3956 
 1955000   0.46695487   -9.5749199    184.96712 0.0078843614  0.005843408         3967 
 1956000   0.47512154   -9.5786179    185.06079 0.0078843213 0.0058379259         3950 
 1957000   0.47088296   -9.5739429    185.63061 0.0079045567 0.0058324545         3965 
 1958000    0.4695217    -9.565981    185.29715 0.0078863274 0.0058269913         3963 
 1959000   0.48036359   -9.5706368    185.37139 0.0078854597 0.0058215338         3943 
 1960000   0.46613649   -9.5553057    185.34688 0.0078803946 0.0058160838         3951 
 1961000   0.47971055   -9.5700952    185.08874 0.0078654063 0.0058106421         3958 
 1962000   0.47963342   -9.5713955    185.05068  0.007859781 0.0058052018         3965 
 1963000    0.4694768   -9.5837551    185.38989 0.0078701769 0.0057997746         3958 
 1964000   0.46719623   -9.5887249     185.3816 0.0078658181 0.0057943485         3952 
 1965000   0.47616974   -9.5846791    185.20307 0.0078542438 0.0057889308         3955 
 1966000   0.46046424   -9.5743622    185.29958 0.0078543396 0.0057835218         3964 
 1967000   0.46267553   -9.5821269    185.27959 0.0078494996  0.005778117         3960 
 1968000   0.46147149   -9.5764932    185.36736 0.0078492276 0.0057727228         3968 
 1969000   0.46855696   -9.5844324    185.24539  0.007840079 0.0057673357         3956 
 1970000   0.46998932    -9.578715    184.99711 0.0078255969 0.0057619553         3951 
 1971000   0.46068037   -9.5989148    185.32801 0.0078356168 0.0057565772         3959 
 1972000    0.4731214   -9.5758375    185.08319 0.0078212978 0.0057512098         3956 
 1973000    0.4655579   -9.5868837    184.96469 0.0078123287 0.0057458478         3953 
 1974000   0.45737751   -9.5652159    185.25569 0.0078206554  0.005740487         3973 
 1975000   0.47464837    -9.575824    185.32516 0.0078196272 0.0057351378         3959 
 1976000   0.46485956   -9.5637815    185.20042 0.0078104089 0.0057297948         3953 
 1977000   0.47036176   -9.5794351      185.082  0.007801467 0.0057244596         3970 
 1978000   0.46316434   -9.5802688    185.10164 0.0077983503 0.0057191312         3950 
 1979000   0.45893857   -9.5815256    185.19046 0.0077981495  0.005713811         3967 
 1980000   0.45767082   -9.5927678    185.10902 0.0077907838 0.0057084943         3956 
 1981000   0.45879734   -9.5776985    185.35207  0.007797075 0.0057031853         3959 
 1982000   0.46879667   -9.5860494    185.23217    0.0077881  0.005697885         3955 
 1983000     0.466807     -9.59293    185.22838 0.0077840133  0.005692592         3960 
 1984000   0.46331525    -9.588699    185.01459 0.0077711102 0.0056873037         3964 
 1985000   0.46099439   -9.5936613    185.00787 0.0077669133 0.0056820257         3963 
 1986000   0.45715983    -9.588556    185.35015 0.0077773645 0.0056767522         3957 
 1987000   0.46727197   -9.5839704     185.2627 0.0077697829 0.0056714858         3963 
 1988000   0.46774489   -9.6027455    185.17973 0.0077623964 0.0056662229         3959 
 1989000   0.46691004   -9.5930816    185.27555 0.0077625082 0.0056609691         3955 
 1990000    0.4611851   -9.6070483    185.27158 0.0077584412 0.0056557219         3963 
 1991000   0.46899555   -9.5918902     185.1916 0.0077511969 0.0056504796         3943 
 1992000   0.45375354    -9.577182    185.48792 0.0077597023  0.005645247         3961 
 1993000   0.45534645   -9.5998431    185.10275 0.0077397037 0.0056400187         3962 
 1994000     0.463073   -9.5931586    185.28126 0.0077432823 0.0056347966         3958 
 1995000   0.46574458    -9.593708    184.86491 0.0077220096 0.0056295793         3956 
 1996000   0.45987506   -9.5873868    185.33021 0.0077375671 0.0056243675         3962 
 1997000   0.45826109   -9.5921744    184.95657 0.0077181009 0.0056191615         3962 
 1998000   0.45358293   -9.6040376     185.1509 0.0077223432 0.0056139647         3960 
 1999000   0.45884278   -9.5882784     184.9669 0.0077108096 0.0056087747         3946 
 2000000   0.46260916   -9.5744296    185.09962 0.0077124843 0.0056035882         3942 
 2001000   0.46006681   -9.5864714    184.99375 0.0077042208 0.0055984111         3960 
 2002000   0.45893338   -9.5805797    185.20768 0.0077092772 0.0055932393         3969 
 2003000   0.45366157   -9.6007511    185.17565  0.007704096 0.0055880734         3956 
 2004000   0.45402481   -9.5944718    185.32359 0.0077064034 0.0055829151         3954 
 2005000   0.45347028   -9.5965528    185.09344 0.0076929941 0.0055777625         3962 
 2006000   0.45652655   -9.5961266    185.00234 0.0076853746 0.0055726167         3958 
 2007000   0.45109938   -9.5954031    184.97056  0.007680226 0.0055674765         3962 
 2008000    0.4408655   -9.6117484    184.99415 0.0076773799 0.0055623407         3962 
 2009000   0.44727653   -9.6131622    184.94807 0.0076716473 0.0055572117         3956 
 2010000   0.46322704   -9.5926611    185.03779 0.0076715503 0.0055520891         3971 
 2011000   0.45845761   -9.6070351    184.70948 0.0076541308 0.0055469762         3965 
 2012000   0.44537133   -9.6054556    185.01286 0.0076628919 0.0055418687         3970 
Loop time of 5255.73 on 48 procs for 2000000 steps with 4000 atoms

Performance: 65756.781 tau/day, 380.537 timesteps/s
99.4% CPU use with 48 MPI tasks x no OpenMP threads

MPI task timing breakdown:
Section |  min time  |  avg time  |  max time  |%varavg| %total
---------------------------------------------------------------
Pair    | 395.08     | 431.63     | 469.51     |  96.9 |  8.21
Neigh   | 37.825     | 38.904     | 40.058     |   9.8 |  0.74
Comm    | 336.16     | 373.26     | 411.51     | 103.6 |  7.10
Output  | 5.8098     | 5.8125     | 5.8786     |   0.4 |  0.11
Modify  | 4346       | 4358.2     | 4369.1     |   8.6 | 82.92
Other   |            | 47.88      |            |       |  0.91

Nlocal:        83.3333 ave          88 max          79 min
Histogram: 2 3 5 6 10 10 4 4 1 3
Nghost:        2441.69 ave        2458 max        2426 min
Histogram: 3 4 4 5 12 5 3 5 3 4
Neighs:        16921.1 ave       19522 max       14685 min
Histogram: 4 2 10 5 5 10 3 2 6 1
FullNghs:      33840.3 ave       36172 max       31774 min
Histogram: 3 4 5 3 11 11 3 2 3 3

Total # of neighbors = 1624336
Ave neighs/atom = 406.08400
Neighbor list builds = 106333
Dangerous builds = 0

#clear
#
#next RN
#
#jump SELF
Total wall time: 1:27:39
