
units lj                  # Use reduced LJ style units
atom_style atomic         # Uncharged point particles
atom_modify map hash      # Needed for indexing of clusters etc
                          # Used to be able to find where atoms are in relation to each other.

lattice fcc 1.0 spacing 1 1 1
Lattice spacing in x,y,z = 1.5874011 1.5874011 1.5874011
region box block 0 10 0 10 0 10 units lattice
create_box 2 box
Created orthogonal box = (0.0000000 0.0000000 0.0000000) to (15.874011 15.874011 15.874011)
  3 by 4 by 4 MPI processor grid
create_atoms 1 box
Created 4000 atoms
  using lattice units in orthogonal box = (0.0000000 0.0000000 0.0000000) to (15.874011 15.874011 15.874011)
  create_atoms CPU = 0.002 seconds
set type 1 type/fraction 2 0.36 78393
Setting atom values ...
  1453 settings made for type/fraction
mass 1 1.0
mass 2 1.0
pair_style lj/cut  3.5
pair_modify tail  yes
pair_coeff 1  1  1.0  1.0   # Intearaction between 1 and 1 set with epsilon = 1 and sigma = 1
pair_coeff 1  2  1.5  0.8
pair_coeff 2  2  0.5  0.88

write_data data.0
System init for write_data ...
Neighbor list info ...
  update every 1 steps, delay 10 steps, check yes
  max neighbors/atom: 2000, page size: 100000
  master list distance cutoff = 3.8
  ghost atom cutoff = 3.8
  binsize = 1.9, bins = 9 9 9
  1 neighbor lists, perpetual/occasional/extra = 1 0 0
  (1) pair lj/cut, perpetual
      attributes: half, newton on
      pair build: half/bin/atomonly/newton
      stencil: half/bin/3d
      bin: standard
WARNING: Not all mixed pair coeffs generated from mixing. Use write_data with 'pair ij' option to store all pair coeffs. (../write_data.cpp:312)


#############################
#   M E L T   S Y S T E M   #
#############################

velocity all create 2.4 8172548 mom yes dist gaussian # Assign velocities
                                                    # Temperature 2.4, random number seed, zero linear momentum
                                                                                # Gaussian distribution

timestep 0.002   # simulation timestep
thermo 1000       # output thermodynamic data every 1000 steps bf 100

# Define a fix  in this case with index 1 applied to all
# particles in the simulation. This fix is for simulations
# in the anisotropic NPT ensemble. Note that we use the MTK
# correction.
fix 1 all npt temp 2.4 2.4 0.1 iso 5.68 5.68 0.5 mtk yes tchain 5 pchain 5 # Use NPT ensemble
                                                                         # Set temperature and pressure and damping
                                                                         # Numbers of thermostats in chain and in barostat
run 10000          # run for 10000 steps
Per MPI rank memory allocation (min/avg/max) = 3.642 | 3.644 | 3.648 Mbytes
Step Temp E_pair E_mol TotEng Press Volume 
       0          2.4   -6.0964775            0   -2.4973775   -4.1129651         4000 
    1000     2.372165   -5.0222552            0   -1.4648972    5.4001793    4012.3071 
    2000    2.3973309   -5.0062756            0   -1.4111783    5.5802563    4005.7493 
    3000    2.4183061    -5.029114            0   -1.4025617    5.7500611    3990.0987 
    4000    2.3309346   -5.0599985            0   -1.5644706    5.8730586    3959.0619 
    5000    2.4463718   -5.0485462            0   -1.3799059    5.5234497    4001.7004 
    6000    2.3810264   -5.0169936            0   -1.4463469    5.6844064    3992.6237 
    7000    2.3991612   -5.0117657            0   -1.4139236    5.4142945    4024.9965 
    8000    2.3501452   -5.0283042            0   -1.5039678    5.8250205    3979.2393 
    9000    2.4206746   -5.0637488            0   -1.4336447    5.6864399    3977.3603 
   10000    2.4251913   -5.0369774            0      -1.4001     5.630228    3993.0506 
Loop time of 2.49107 on 48 procs for 10000 steps with 4000 atoms

Performance: 693677.861 tau/day, 4014.339 timesteps/s
99.6% CPU use with 48 MPI tasks x no OpenMP threads

MPI task timing breakdown:
Section |  min time  |  avg time  |  max time  |%varavg| %total
---------------------------------------------------------------
Pair    | 1.0701     | 1.1543     | 1.3079     |   3.7 | 46.34
Neigh   | 0.20508    | 0.21408    | 0.2354     |   1.1 |  8.59
Comm    | 0.70153    | 0.86126    | 0.9525     |   4.8 | 34.57
Output  | 0.00024392 | 0.00024786 | 0.00030866 |   0.0 |  0.01
Modify  | 0.20334    | 0.24597    | 0.28719    |   4.3 |  9.87
Other   |            | 0.01523    |            |       |  0.61

Nlocal:        83.3333 ave          93 max          73 min
Histogram: 3 0 3 7 7 7 10 5 3 3
Nghost:        1647.46 ave        1676 max        1622 min
Histogram: 1 1 9 9 7 5 6 9 0 1
Neighs:        9560.42 ave       10995 max        7744 min
Histogram: 2 0 4 3 9 11 7 6 2 4

Total # of neighbors = 458900
Ave neighs/atom = 114.72500
Neighbor list builds = 904
Dangerous builds = 202

# Equilibrate just above the melting temperature to avoid step fn in T

fix 1 all npt temp 1.25 1.25 0.1 iso 5.68 5.68 0.5 mtk yes tchain 5 pchain 5
run 2000
Per MPI rank memory allocation (min/avg/max) = 3.643 | 3.645 | 3.649 Mbytes
Step Temp E_pair E_mol TotEng Press Volume 
   10000    2.4251913   -5.0369774            0      -1.4001     5.630228    3993.0506 
   11000    1.2375292    -6.978457            0   -5.1226273    5.5805205     3188.828 
   12000    1.2520218   -7.0259508            0   -5.1483876    5.8209386    3166.0357 
Loop time of 0.596036 on 48 procs for 2000 steps with 4000 atoms

Performance: 579830.903 tau/day, 3355.503 timesteps/s
99.6% CPU use with 48 MPI tasks x no OpenMP threads

MPI task timing breakdown:
Section |  min time  |  avg time  |  max time  |%varavg| %total
---------------------------------------------------------------
Pair    | 0.25822    | 0.28456    | 0.3153     |   2.3 | 47.74
Neigh   | 0.038313   | 0.040801   | 0.045629   |   0.7 |  6.85
Comm    | 0.18318    | 0.21926    | 0.24813    |   2.9 | 36.79
Output  | 5.1598e-05 | 5.4042e-05 | 8.3946e-05 |   0.0 |  0.01
Modify  | 0.043145   | 0.046553   | 0.050748   |   1.0 |  7.81
Other   |            | 0.004803   |            |       |  0.81

Nlocal:        83.3333 ave          90 max          77 min
Histogram: 6 4 1 7 8 4 9 0 6 3
Nghost:        1922.81 ave        1950 max        1901 min
Histogram: 5 3 8 9 5 5 2 4 4 3
Neighs:        12071.5 ave       13794 max       10476 min
Histogram: 2 3 2 8 10 10 6 4 1 2

Total # of neighbors = 579434
Ave neighs/atom = 144.85850
Neighbor list builds = 143
Dangerous builds = 9

#############################
# L I N E A R  Q U E N C H  #
#############################

# Define solid atoms. This closely follows ten Wolde  Ruiz-Montero and Frenkel  Faraday Discuss  1996  104  93-110
# Compute components of the per-atom q6 vector
compute q6 all orientorder/atom degrees 1 6 components 6 nnn NULL cutoff 1.3 # compute the Q6 parameter.
                                                                             # Use all neighbours within 1.3 unit cell.

# get number of connections
compute coord_number all coord/atom orientorder q6 0.5

# An atom is solid if it has 8 or more connections (of a possible 14)
variable is_solid atom c_coord_number>=8
group solid dynamic all var is_solid    # Must be dynamic to update
dynamic group solid defined

# do clustering
compute cluster solid cluster/atom 1.3 # Create a cluster where all atoms within are solid and max 1.3 units from another member

# define chunks one chunk per cluster
compute clus_chunks solid chunk/atom c_cluster nchunk every compress yes  # Says which atoms are in which chunk

# count the size of each chunk
compute size_chunks solid property/chunk clus_chunks count


# Find the maximum entry in the vector of chunk sizes
variable max_n equal max(c_size_chunks)


# Thermo style which includes this variable
# thermo_style custom step temp pe vol v_max_n

thermo ${N}  # Print the thermo information every 100 steps
thermo 1000  

# Reset the npt fix at a lower temperature (below freezing)
fix 1  all npt temp  ${temp} ${temp}  0.1  iso  5.68  5.68  0.5  mtk yes tchain  5  pchain  5
fix 1  all npt temp  0.45 ${temp}  0.1  iso  5.68  5.68  0.5  mtk yes tchain  5  pchain  5
fix 1  all npt temp  0.45 0.45  0.1  iso  5.68  5.68  0.5  mtk yes tchain  5  pchain  5

dump dmp2 all dcd ${N} traj.dcd
dump dmp2 all dcd 1000 traj.dcd


compute msd all msd com yes
variable twopoint equal c_msd[4]/6/(step*dt+1.0e-6)
fix 9 all vector 10 c_msd[4]
variable fit equal slope(f_9)/6/(10*dt)
thermo_style custom step temp pe c_msd[4] v_twopoint v_fit v_max_n

fix 1 all npt temp 1.25 ${temp} 0.1 iso 5.68 5.68 0.5 mtk yes tchain 5 pchain 5
fix 1 all npt temp 1.25 0.45 0.1 iso 5.68 5.68 0.5 mtk yes tchain 5 pchain 5
run 500000 # 5000000  # Run for this many steps
Neighbor list info ...
  update every 1 steps, delay 10 steps, check yes
  max neighbors/atom: 2000, page size: 100000
  master list distance cutoff = 3.8
  ghost atom cutoff = 3.8
  binsize = 1.9, bins = 8 8 8
  4 neighbor lists, perpetual/occasional/extra = 1 3 0
  (1) pair lj/cut, perpetual
      attributes: half, newton on
      pair build: half/bin/atomonly/newton
      stencil: half/bin/3d
      bin: standard
  (2) compute orientorder/atom, occasional
      attributes: full, newton on
      pair build: full/bin/atomonly
      stencil: full/bin/3d
      bin: standard
  (3) compute coord/atom, occasional
      attributes: full, newton on
      pair build: full/bin/atomonly
      stencil: full/bin/3d
      bin: standard
  (4) compute cluster/atom, occasional
      attributes: full, newton on
      pair build: full/bin/atomonly
      stencil: full/bin/3d
      bin: standard
Per MPI rank memory allocation (min/avg/max) = 9.819 | 9.824 | 9.829 Mbytes
Step Temp PotEng c_msd[4] v_twopoint v_fit v_max_n 
   12000    1.2520218   -7.0259508 8.3520648e-31 5.8000448e-33 8.3333333e+20            1 
   13000    1.2408296   -7.0454383   0.47800825 0.0030641553  0.039057986            1 
   14000    1.2552721   -7.0333045   0.93226334 0.0055491863  0.037219252            1 
   15000    1.2729431    -7.047126    1.3579861 0.0075443669  0.037454505            1 
   16000    1.2310243   -7.0332629    1.7758618   0.00924928  0.036632792            2 
   17000    1.2715809   -7.0096328    2.2591397  0.011074214  0.036793756            1 
   18000    1.2438172   -7.0399016    2.7215572  0.012599802  0.036961478            1 
   19000    1.2207032       -7.027    3.1733006  0.013917985  0.037106585            1 
   20000     1.246835   -7.0403289    3.5743048  0.014892936  0.037053527            1 
   21000     1.204552   -7.0371437    3.9685729  0.015748305  0.036685618            1 
   22000    1.2413989   -7.0748259    4.3403167  0.016440593  0.036261908            3 
   23000    1.2352544   -7.0517577    4.7426265  0.017183429  0.035952416            2 
   24000    1.1990461   -7.0702452    5.2024718  0.018064138  0.035734459            1 
   25000    1.2547063   -7.0405003    5.6450816  0.018816938  0.035669643            1 
   26000    1.2570537   -7.0439683    6.0489519  0.019387666  0.035670256            1 
   27000    1.2732994   -7.0993241    6.4743337  0.019982511  0.035599714            1 
   28000    1.2311318   -7.0560534    6.8383644  0.020352275  0.035491495            4 
   29000    1.2428523   -7.0727943    7.2086438  0.020714493  0.035300657            2 
   30000    1.2132964    -7.101922    7.6160823  0.021155784  0.035167755            1 
   31000    1.2462797   -7.0809741     8.095538  0.021762199  0.035061187            2 
   32000    1.2355264   -7.1317732    8.4829635   0.02209105  0.035031698            1 
   33000    1.1939016   -7.1228641    8.8921021  0.022454803  0.034973591            2 
   34000    1.2242415   -7.0708268    9.3414402  0.022895686    0.0349223            1 
   35000    1.2177766   -7.0919069    9.7452711  0.023203026  0.034887822            1 
   36000    1.1942113   -7.1211535    10.145243  0.023484358  0.034867601            2 
   37000    1.2215516   -7.1122701    10.600174  0.023874265  0.034856645            1 
   38000    1.2156462   -7.1226861    10.983172  0.024085904  0.034833154            5 
   39000    1.2143918   -7.0987034     11.36629  0.024286943  0.034808075            2 
   40000    1.2120634    -7.112889    11.755184  0.024489967  0.034737164            2 
   41000    1.2120436   -7.1045165    12.105857    0.0246054  0.034661078            1 
   42000    1.1525879   -7.1281997    12.605011  0.025009942  0.034601236            1 
   43000    1.2004548   -7.1080232    12.977468  0.025150131  0.034567537            1 
   44000     1.190177   -7.0816791    13.305003  0.025198869  0.034510527            1 
   45000    1.2246284   -7.1785364    13.734382  0.025434041  0.034450039            2 
   46000    1.1993388   -7.1750531    14.232351  0.025783244  0.034431056            1 
   47000    1.1928501   -7.1291214    14.533165  0.025768022  0.034406327            3 
   48000    1.1972971   -7.1696884    14.828994  0.025744781  0.034336546            2 
   49000     1.171303   -7.1649024     15.16485  0.025790562  0.034238008            1 
   50000    1.2181214    -7.194209    15.523602   0.02587267  0.034151087            5 
   51000    1.2043705   -7.1613541    15.988875  0.026125613  0.034069941            1 
   52000    1.1894116   -7.1345819    16.370155  0.026234223   0.03400384            2 
   53000    1.1674793   -7.1155545    16.734179  0.026311602  0.033936738            1 
   54000    1.1844359   -7.1713478    16.961919  0.026175801  0.033849899            1 
   55000    1.1640675   -7.2005643    17.392336  0.026352024  0.033752705            2 
   56000    1.1829761   -7.1594568    17.763492  0.026433768  0.033647064            1 
   57000    1.2001267    -7.178486    17.879677  0.026139878  0.033530705            2 
   58000    1.1891304   -7.1807624     18.26883  0.026248319  0.033404527            2 
   59000    1.1897134   -7.2108791    18.597055  0.026267026  0.033280794            3 
   60000    1.1693931    -7.221505    18.958515  0.026331271  0.033157754            2 
   61000    1.1713064   -7.2001863    19.116462  0.026115385  0.033026823            1 
   62000    1.1698221   -7.1878296    19.581971  0.026319854  0.032881054            1 
   63000    1.1329011    -7.189197    19.820816   0.02621801  0.032751971            2 
   64000    1.1602522   -7.1916748    20.203647  0.026306832  0.032622514            1 
   65000    1.1609581   -7.2222125    20.522491  0.026310885  0.032502025            2 
   66000    1.1578282   -7.2329137    20.739055  0.026185675  0.032368092            2 
   67000    1.1800736   -7.2223502    21.130899  0.026282212  0.032238355            2 
   68000    1.1765076   -7.2114068    21.436134  0.026269772  0.032124046            1 
   69000    1.1755608    -7.195255    21.836912  0.026373082  0.032009658            2 
   70000    1.1702408   -7.2237324    22.210864  0.026441505  0.031906485            1 
   71000    1.1352351   -7.2066174    22.476539  0.026380914  0.031802631            4 
   72000    1.1338374   -7.2356698    22.726973  0.026304367   0.03168864            1 
   73000    1.1668034   -7.2329113    23.151173   0.02642828  0.031580941            2 
   74000    1.1716704    -7.237928    23.468616  0.026428622  0.031490121            2 
   75000    1.1475393   -7.2490897    23.920978  0.026578864  0.031402896            2 
   76000    1.1541478   -7.2381065    24.243274  0.026582537  0.031322427            1 
   77000    1.1628438   -7.2570411    24.582803  0.026604765  0.031247344            2 
   78000    1.1585522   -7.2234622     24.81635  0.026513194  0.031166852            1 
   79000    1.1476428   -7.2628525    25.188577  0.026570229  0.031086061            1 
   80000    1.1544181   -7.2324939    25.512774  0.026575806  0.031009059            1 
   81000    1.1248215   -7.2545371    25.817228  0.026560934  0.030935993            1 
   82000    1.1307377   -7.2683323    26.177869  0.026603525  0.030866378            3 
   83000    1.1371408   -7.3094674    26.490493   0.02659688  0.030799268            2 
   84000    1.1411189   -7.3155505    26.713898  0.026501883  0.030721705            1 
   85000    1.1363236   -7.2909943    27.132896  0.026600878   0.03064166            1 
   86000    1.1412629   -7.2993057     27.31692  0.026469884  0.030565422            2 
   87000    1.1299278   -7.3424731    27.514846  0.026355217  0.030489674            1 
   88000    1.1404009    -7.257643     27.82546  0.026349867  0.030399714            1 
   89000    1.1413585   -7.3077705    27.938051  0.026159224  0.030304766            2 
   90000    1.1037338   -7.2757458    28.263871  0.026170251  0.030209816            1 
   91000    1.1394181   -7.3093394     28.57081  0.026163745  0.030121792            4 
   92000    1.1095073   -7.3222979    28.950821   0.02622357  0.030036914            1 
   93000    1.1092433   -7.2835725    29.496621  0.026430664  0.029963408            3 
   94000    1.1082301    -7.313843     29.87548  0.026485354  0.029900839            2 
   95000    1.1280241   -7.2908416    30.409441  0.026674948  0.029848144            1 
   96000    1.1159062   -7.2832593     30.67105  0.026624175  0.029805961            1 
   97000    1.1287914   -7.3282354    30.909114  0.026554222  0.029762114            2 
   98000    1.1047338   -7.3931286    31.100791   0.02644625  0.029709964            1 
   99000    1.1146515   -7.3190854    31.659638  0.026649527  0.029656777       -1e+20 
  100000    1.0918833   -7.3498045     31.80919  0.026507658  0.029608224            2 
  101000    1.1132394   -7.3109616    32.194008  0.026562713  0.029557066            3 
  102000    1.1054123   -7.3470049    32.306107  0.026393878  0.029506614            3 
  103000     1.139708    -7.356359    32.553544  0.026337819  0.029449515            1 
  104000    1.0951866   -7.3414677    32.734144  0.026229282  0.029384853            1 
  105000    1.0930784   -7.3275601    33.018721  0.026205334  0.029319246            1 
  106000    1.1009639   -7.3706262    33.330797  0.026203457  0.029254998            2 
  107000     1.095116   -7.3420359    33.557718  0.026135295  0.029192449            4 
  108000    1.0765262   -7.3491275     33.82692  0.026101018  0.029127794            1 
  109000    1.0710215   -7.3541029    34.006251  0.025998663  0.029061211            3 
  110000    1.0954417   -7.3623767    34.313408  0.025995006  0.028992362            1 
  111000    1.1193004    -7.378235     34.65267  0.026015518  0.028923345            3 
  112000    1.0759105    -7.380968    34.894752  0.025963357  0.028855368            2 
  113000    1.0819141    -7.354197    35.242771  0.025990244  0.028789071            1 
  114000    1.0992139   -7.4385773     35.45741  0.025919159  0.028726515            2 
  115000    1.0696216   -7.3759849    35.755673  0.025909908  0.028658001            3 
  116000    1.0957027   -7.4187122    35.835443  0.025743853  0.028589215            1 
  117000    1.0888342   -7.3513759    36.254043  0.025821968  0.028520111            2 
  118000    1.0941485   -7.4061048    36.603435  0.025849883  0.028454214            2 
  119000    1.1201433   -7.4234867    36.817287  0.025782414  0.028388328            1 
  120000    1.0825243   -7.3904913    37.192027  0.025827797   0.02832546            1 
  121000     1.063193   -7.4196393    37.317565  0.025700802  0.028265869            3 
  122000    1.0984331   -7.4175638    37.789593  0.025812563  0.028204047            1 
  123000    1.0684775    -7.442152    37.814899   0.02561985  0.028146163            1 
  124000    1.0578366   -7.4235153    38.125191  0.025621768  0.028080668            1 
  125000    1.0739045   -7.4004617     38.26832  0.025512214  0.028015813            2 
  126000    1.0756429   -7.4595735    38.382415  0.025385195  0.027945856            1 
  127000    1.0760694   -7.4108514    38.644876   0.02535753  0.027872646            1 
  128000     1.075933     -7.43096    38.794906    0.0252571  0.027800243            1 
  129000    1.0621432   -7.5049348    39.135817  0.025281535  0.027727989            2 
  130000    1.0751826   -7.4711968    39.490316  0.025314305  0.027662589            2 
  131000    1.0894066   -7.4757698    39.792191  0.025313099  0.027602006            4 
  132000    1.0828537   -7.4762258    39.824884  0.025141972  0.027537859            1 
  133000    1.0724754   -7.4618052    40.209397  0.025193858  0.027469212            2 
  134000    1.0579402   -7.4495106    40.436494  0.025147073   0.02739971            1 
  135000    1.0523326   -7.3975363     40.75718  0.025158753  0.027335398            2 
  136000     1.060025   -7.4524858    41.015969  0.025132334  0.027271793            1 
  137000    1.0176269   -7.4830922    41.170489  0.025042876  0.027208174            3 
  138000    1.0361982   -7.4764889    41.497862  0.025059095   0.02714627            1 
  139000    1.0602503    -7.519469    41.608271  0.024945007  0.027083172            1 
  140000    1.0381808   -7.5107678    41.702603  0.024822978  0.027018908            2 
  141000    1.0502337   -7.5072841     42.04392  0.024848653  0.026953875            1 
  142000    1.0419036   -7.5145117    42.175059  0.024750621  0.026888924            1 
  143000    1.0459895   -7.4689356    42.665538  0.024863367  0.026824684            1 
  144000     1.029959   -7.4867367    42.889351  0.024820226  0.026763399            2 
  145000    1.0433837    -7.487131    43.359006  0.024918969  0.026703529            1 
  146000    1.0179976   -7.4926804     43.61394  0.024893801  0.026649555            1 
  147000    1.0609789   -7.5175977    43.926499  0.024901643  0.026596245            1 
  148000    1.0303781   -7.5021196    43.692574  0.024601674   0.02653879            2 
  149000    1.0135306   -7.4941045    44.000423  0.024608738  0.026478074            2 
  150000    1.0266573   -7.5504965    43.907193  0.024392885  0.026414494            2 
  151000    1.0229573   -7.5151431    44.391311  0.024498516   0.02635088            2 
  152000    1.0124737   -7.5159136    44.551299  0.024425054  0.026289191            2 
  153000    1.0482424   -7.5549098    44.701083  0.024346995  0.026226137            1 
  154000    1.0119861   -7.5483526     44.89484  0.024293744  0.026163818            2 
  155000    1.0229432   -7.5178922    45.048656  0.024219707  0.026098814            2 
  156000    1.0060603   -7.5362066    45.352818  0.024226932   0.02603657            2 
  157000    1.0209501   -7.5257764      45.6258  0.024217516  0.025973067            2 
  158000    1.0158928    -7.559724    45.587186  0.024043874  0.025908784            2 
  159000    1.0084893    -7.550246    45.805466  0.024007058  0.025843288            1 
  160000   0.99071122   -7.5780123    46.200973  0.024063007  0.025779392            3 
  161000    1.0028825   -7.6150399    46.148535  0.023886405  0.025714537            2 
  162000     1.009448   -7.6220833    46.210317  0.023770739    0.0256474            1 
  163000    1.0191581   -7.6118265    46.496319  0.023771124  0.025576478            3 
  164000   0.99405366   -7.5990264    46.496264   0.02362615  0.025503863            1 
  165000    1.0127144   -7.6164895    46.710392  0.023591107   0.02543343            3 
  166000     1.006521   -7.5974158    47.032608  0.023610747  0.025364553            2 
  167000    1.0018423   -7.6018944    47.363921  0.023634691  0.025297751            3 
  168000   0.98922577   -7.5983225    47.383594  0.023503767  0.025231872            2 
  169000    1.0014519    -7.614346    47.610686   0.02347667  0.025164417            2 
  170000    1.0017591    -7.553687    47.888689  0.023474847   0.02509632            2 
  171000   0.99766766    -7.601579    47.940325  0.023362731  0.025028856            2 
  172000    1.0072774   -7.6051739    48.140228  0.023323754  0.024961012            1 
  173000    1.0013441   -7.6246756     48.26647  0.023249745  0.024893152            1 
  174000    1.0022451   -7.5925258    48.425677  0.023192374  0.024825244            1 
  175000   0.96524285   -7.6056798    48.532276  0.023110608  0.024757127            2 
  176000   0.98086006   -7.6152481    48.702639  0.023059962  0.024687862            2 
  177000   0.97660397   -7.6523613    48.814582  0.022982383  0.024617117            1 
  178000    1.0133958   -7.6685019    48.846425  0.022868177  0.024546649            2 
  179000   0.97908228   -7.6237418    49.130497  0.022872671  0.024475843            2 
  180000   0.97521262   -7.6464127    49.162815  0.022760562  0.024406007            3 
  181000    1.0003491   -7.6400153    49.515404  0.022797147    0.0243367            2 
  182000    0.9756632   -7.6238065    49.788802   0.02279707   0.02426933            2 
  183000    1.0049492   -7.7245212    49.948048  0.022745013  0.024202778            3 
  184000   0.96067283   -7.6891958    50.205268  0.022737893  0.024137102            2 
  185000   0.98225132   -7.6497371    50.357708  0.022683652  0.024072617            2 
  186000   0.96488667   -7.6358209     50.61844  0.022678512  0.024009185            2 
  187000   0.97567014   -7.6710741    50.752742  0.022617087  0.023944826            1 
  188000    0.9399253   -7.6994484    50.820369  0.022526759  0.023879728            2 
  189000   0.96133573   -7.6707733    50.906017  0.022445334  0.023814652            1 
  190000   0.97072789   -7.7023062    51.421349  0.022553223  0.023751726            1 
  191000   0.95851233    -7.681967    51.496068  0.022467743  0.023690992            3 
  192000   0.96054633   -7.6760619    51.684888  0.022432677  0.023629051            2 
  193000    0.9734974   -7.7308641     51.59892  0.022279326  0.023566025            1 
  194000   0.95558996    -7.725353     51.81452  0.022257096   0.02350367            2 
  195000    0.9477635   -7.6957091    52.060192  0.022247945  0.023441717            1 
  196000   0.93616238   -7.7116025    52.320754  0.022245218  0.023381851            1 
  197000   0.94933158   -7.6995164    52.380558  0.022157596  0.023321737            3 
  198000   0.93062253   -7.7064769     52.57727   0.02212848  0.023259625            2 
  199000   0.96945348   -7.7299442    52.678653  0.022059738  0.023197121            4 
  200000   0.94450515   -7.7111774    52.648809  0.021937004  0.023134601            4 
  201000   0.94729726      -7.7211    52.807891  0.021893819  0.023071635            2 
  202000    0.9558721   -7.7449366    52.914257  0.021829314  0.023008555            1 
  203000   0.95319363   -7.7557068    52.942254  0.021733273  0.022945497            1 
  204000   0.92848439   -7.7482624    53.271887  0.021761392  0.022882534            2 
  205000   0.95417563   -7.7586508    53.419167  0.021715108  0.022819902            1 
  206000   0.94937554   -7.7446013    53.695769  0.021721589  0.022758302            2 
  207000   0.94613224   -7.7602051    53.623019  0.021587367  0.022696338            4 
  208000   0.93699903   -7.7616069    53.681439  0.021506987  0.022633614            2 
  209000   0.91207312   -7.7663225    53.820909  0.021459693   0.02257112            3 
  210000   0.92417625   -7.7843984    53.832484  0.021362097  0.022508489            4 
  211000   0.92328819    -7.781082     54.12935    0.0213781  0.022446054            4 
  212000   0.93011353   -7.7764652    54.243574   0.02132216  0.022383441            2 
  213000   0.91877367   -7.7751653    54.563821  0.021347348  0.022321408            2 
  214000   0.93666608   -7.7914052     54.45894  0.021206752   0.02226044            1 
  215000    0.9193323   -7.8090362    54.590844  0.021159242  0.022199048            5 
  216000   0.94627808   -7.8050915    54.792433  0.021139056  0.022138249            2 
  217000   0.92195301   -7.7801965    54.906302  0.021085369  0.022077369            1 
  218000   0.92333614   -7.8182776     54.93198  0.020998463  0.022015685            3 
  219000   0.93223721   -7.8208461    55.055655   0.02094964   0.02195368            2 
  220000   0.92307102   -7.8010444    55.142463  0.020887297   0.02189174            2 
  221000   0.90880036   -7.8131734    55.387148  0.020885048  0.021830479            1 
  222000   0.90596534   -7.7901745    55.721079  0.020916321  0.021771177            3 
  223000   0.89524244   -7.8423735    55.567372  0.020765087   0.02171177            2 
  224000   0.91864737   -7.8351482    55.661899  0.020707552  0.021651243            2 
  225000    0.9254734   -7.8376355    55.779578  0.020659103  0.021590313            1 
  226000   0.90936896   -7.8158121    55.863048  0.020598469  0.021529068            3 
  227000    0.9144087   -7.8538921    55.981535  0.020551224  0.021467025            2 
  228000   0.89551468   -7.8022819    56.161574  0.020526891  0.021405313            4 
  229000   0.91516206   -7.8505587    56.127964  0.020425023  0.021343776            1 
  230000   0.89465624   -7.8409858    56.287798   0.02039413  0.021282678            2 
  231000   0.90940391   -7.8903166    56.194374  0.020272141  0.021220723            2 
  232000    0.9025225   -7.8759449    56.548454  0.020311945  0.021158073            3 
  233000   0.90379888   -7.8737698     56.49897  0.020207071  0.021096558            2 
  234000   0.88330502   -7.8691726    56.454238  0.020104786  0.021034386            2 
  235000   0.88960273    -7.865455    56.565453  0.020058671  0.020971559            1 
  236000   0.89219902   -7.8814438    56.690166  0.020017714  0.020908628            1 
  237000   0.89294633   -7.8952956    56.713254  0.019941369  0.020846032            3 
  238000   0.89566387   -7.9150536    56.713669  0.019857727   0.02078326            2 
  239000   0.87217881   -7.8967653    56.990406  0.019871132  0.020720939            2 
  240000   0.91365756   -7.9159451    57.052139  0.019809771   0.02065888            1 
  241000   0.90053415   -7.9087431    57.235511  0.019790979  0.020597446            2 
  242000   0.89217566   -7.9019534    57.192222  0.019694291   0.02053513            3 
  243000   0.88751483   -7.9152374    57.202791  0.019616869  0.020472639            2 
  244000   0.87750517   -7.8991497    57.196769  0.019534416  0.020409201            2 
  245000   0.87789438   -7.9505383     57.40602  0.019525857  0.020345931            2 
  246000   0.86838984   -7.9077894    57.497576  0.019477499  0.020282343            1 
  247000    0.8563323   -7.9714348    57.303723   0.01933324  0.020219037            2 
  248000   0.85951634   -7.9465219    57.520389  0.019328088  0.020155488            1 
  249000    0.8832512   -7.9505822    57.640066  0.019290518  0.020092943            2 
  250000   0.86920195   -7.9286699    57.704449  0.019234816  0.020030482            2 
  251000   0.85167901   -7.9473156    57.783331  0.019184373  0.019968487            2 
  252000   0.87851654   -7.9323421    57.924901   0.01915506  0.019906331            2 
  253000   0.84475545   -7.9349055    57.914397  0.019075888  0.019844002            2 
  254000   0.85791418   -7.9144048    58.102759  0.019062585  0.019782091            5 
  255000   0.85145431   -7.9435834    58.272942  0.019043445  0.019721144            1 
  256000   0.87405399   -7.9413219    58.189879  0.018942018  0.019659866            2 
  257000   0.85608851   -7.9534559    58.223341  0.018879164  0.019598924            5 
  258000   0.86060634   -7.9834134    58.226291  0.018806942  0.019537821            3 
  259000   0.86415354   -7.9415744    58.478629  0.018815518  0.019476503            5 
  260000   0.85818708   -7.9818774    58.262271  0.018673805  0.019415372            2 
  261000   0.85254083   -7.9903572    58.364836  0.018635005  0.019353725            2 
  262000   0.86165542   -7.9977981    58.443881  0.018589021  0.019292045            1 
  263000    0.8478153   -7.9806349    58.529386  0.018545433  0.019230164            1 
  264000   0.87525838   -8.0009725    58.309912  0.018405906  0.019168097            2 
  265000   0.87292739   -7.9991055    58.477205  0.018389058  0.019105719            2 
  266000   0.82326713   -8.0106414    58.491986  0.018324557  0.019043339            3 
  267000   0.82568783   -7.9657243     58.55125  0.018274423  0.018981343            2 
  268000   0.85105389   -8.0041188    58.699031  0.018252186  0.018919712            3 
  269000   0.83342867   -7.9989259    58.657753  0.018171547  0.018857768            1 
  270000    0.8276085   -8.0083542    59.097108  0.018239848  0.018796457            5 
  271000   0.84285834   -8.0276003    58.836027  0.018092259  0.018735716            3 
  272000     0.818169   -8.0003196    59.060096  0.018094392  0.018674889            2 
  273000   0.84364808   -8.0455998    59.101902  0.018040873  0.018614926            2 
  274000   0.84386097   -8.0426022    59.172297  0.017996441  0.018554931            2 
  275000   0.82590586   -8.0116139    59.153435  0.017925283  0.018495401            8 
  276000    0.8446565   -8.0364852    59.344855  0.017918133   0.01843581            2 
  277000    0.8404907   -8.0574411    59.068739  0.017770379  0.018376192            2 
  278000   0.82599964   -8.0486828    59.355869  0.017792527   0.01831624            3 
  279000   0.81770579   -8.0376309    59.205789  0.017683927  0.018256351            5 
  280000   0.84029225   -8.0336631    59.463925  0.017697597  0.018196402            3 
  281000   0.80948557   -8.0525644    59.204926  0.017557807  0.018136631            2 
  282000   0.82787235   -8.0693497    59.354206  0.017539659  0.018077354            2 
  283000   0.80183065   -8.0544135    59.594687  0.017548494  0.018018005            2 
  284000    0.8320474   -8.0701012    59.576537  0.017481378  0.017959548            4 
  285000   0.80482619   -8.0515977    59.778478  0.017479087  0.017901038            3 
  286000   0.81311936   -8.0617286    59.475038  0.017329556  0.017841778            1 
  287000   0.80774093   -8.0933312    59.533887  0.017286262  0.017782685            5 
  288000   0.82578113   -8.0908453     59.66502  0.017264184   0.01772369            2 
  289000   0.81139287   -8.0743399    59.650043  0.017200128   0.01766459            2 
  290000   0.79414967   -8.0895821    59.554931  0.017113486  0.017605462            2 
  291000   0.80733485   -8.0797093    59.768976  0.017115972  0.017546601            3 
  292000   0.79365426   -8.1010479    59.858069  0.017082782   0.01748793            2 
  293000   0.81094058   -8.1155153    59.876839  0.017029818  0.017429498            2 
  294000    0.8036006   -8.0980462    59.965759  0.016997097  0.017371691            3 
  295000   0.79823837   -8.1124435    60.056524   0.01696512  0.017314305            2 
  296000   0.79147175   -8.0919725    59.928025  0.016871629   0.01725672            1 
  297000   0.79883038   -8.1393436    59.892577  0.016804876  0.017199244            3 
  298000   0.80048285    -8.126305    60.237768  0.016845013  0.017142037            3 
  299000   0.79742952    -8.156774    60.172468  0.016770476  0.017085375            3 
  300000   0.78213311   -8.1174258    60.234607  0.016731835  0.017028898            1 
  301000   0.79232607   -8.1323052    60.240269  0.016677815  0.016972574            2 
  302000   0.78317606   -8.1479816     60.48657  0.016690555  0.016916618            4 
  303000   0.77592776   -8.1421344    60.347397  0.016597194  0.016860538            3 
  304000   0.77936191   -8.1256113    60.222605   0.01650839  0.016804605            3 
  305000   0.78548499   -8.1571892    60.357304  0.016491067   0.01674878            1 
  306000   0.78562592   -8.1052933    60.503803   0.01647707  0.016693624            2 
  307000   0.77391961   -8.1532999      60.4787  0.016416585  0.016638493            3 
  308000   0.78488165   -8.1678744    60.440872   0.01635305  0.016583673            5 
  309000   0.77896742   -8.1769892    60.536857  0.016326013  0.016528828            2 
  310000   0.76196098   -8.1347744    60.644236  0.016302214  0.016474446            1 
  311000   0.77309891   -8.1501013    60.710771  0.016267623  0.016420385            1 
  312000   0.76104367   -8.1789858    60.799002   0.01623905  0.016366876            1 
  313000   0.77372628    -8.185921     60.85094  0.016200996  0.016313326            5 
  314000   0.76374272   -8.2229346    60.773315  0.016128799  0.016259983            4 
  315000    0.7691635   -8.2153224     60.93725  0.016120966  0.016206443            3 
  316000   0.75553971    -8.225817    60.884325  0.016055993  0.016153208            2 
  317000   0.78182438   -8.2543864    60.830673  0.015991239  0.016100098            1 
  318000   0.76639986   -8.2132819    60.965884  0.015976385  0.016047364            1 
  319000   0.77143028   -8.2195672    60.915352  0.015913101  0.015994708            2 
  320000   0.75821674   -8.2146702    60.974192  0.015878696  0.015942141            3 
  321000   0.75710928   -8.2494491    60.917296  0.015814459   0.01588946            2 
  322000   0.75000946   -8.2520283    60.894399   0.01575942  0.015837025            1 
  323000   0.74983142   -8.2367528    61.013241   0.01574129  0.015784816            1 
  324000   0.74974786   -8.2571313    60.991934  0.015687226  0.015732915            1 
  325000   0.74616757   -8.2583386    61.116385  0.015670868  0.015680953            1 
  326000   0.75699646   -8.2193907    61.258896  0.015659227  0.015629053            3 
  327000   0.73376227    -8.251623     61.27587  0.015615665   0.01557742            1 
  328000   0.74050493   -8.2863961    60.924163    0.0154787   0.01552563            2 
  329000   0.73237308   -8.2734762    61.223867  0.015507565   0.01547392            3 
  330000   0.74025559    -8.276442    61.151456  0.015442287   0.01542235            3 
  331000   0.72369798   -8.3067652    61.060628  0.015372766  0.015370692            2 
  332000   0.74377208   -8.2680684    61.143445   0.01534725    0.0153192            2 
  333000   0.74463426   -8.2891076    61.161016  0.015305559  0.015268215            1 
  334000   0.72909574   -8.2892908    61.132325  0.015252576   0.01521729            1 
  335000   0.74055607   -8.3122753    60.979903   0.01516913  0.015166317            1 
  336000   0.72058058   -8.3132659    61.054302  0.015142436  0.015115294            4 
  337000    0.7266635   -8.3238058    61.099544   0.01510869  0.015064485            3 
  338000   0.73595862   -8.3162498    61.107641  0.015065986   0.01501366            2 
  339000   0.71686456   -8.3105843     61.09181  0.015017652  0.014962974            1 
  340000   0.71771376   -8.3335067    61.069291  0.014967964  0.014912078            1 
  341000   0.71404889   -8.3192489    61.219267   0.01496072  0.014861895            1 
  342000   0.72151631    -8.310393    61.281943  0.014932247    0.0148119            1 
  343000   0.71513698   -8.3103272    61.343375  0.014903638  0.014762054            2 
  344000   0.71958002   -8.3307185    61.358966  0.014864091   0.01471222            1 
  345000   0.72965153   -8.3365559    61.291589  0.014804732  0.014662604            2 
  346000    0.7087428   -8.3320622    61.165081  0.014731474  0.014612831            5 
  347000   0.72511901   -8.3521343    61.158841  0.014687522  0.014563243            5 
  348000   0.71668203   -8.3557917    61.217745  0.014659422  0.014513797            2 
  349000   0.71105643   -8.3541564    61.251541  0.014625487  0.014464495            3 
  350000   0.71823742   -8.3567007    61.239977  0.014580947  0.014415126            1 
  351000   0.68386967   -8.3595326     61.06905  0.014498825  0.014365788            2 
  352000    0.6990399   -8.3846885    61.124881  0.014470853  0.014316565            3 
  353000   0.69485043   -8.3765506    61.176906   0.01444214  0.014267507            3 
  354000   0.70621846   -8.4108361     61.26343  0.014421711  0.014218672            2 
  355000   0.70107743    -8.403369    61.215329  0.014369795  0.014169957            3 
  356000   0.69958627   -8.3977367    61.134239  0.014310449  0.014121281            2 
  357000    0.6974435   -8.4195748    61.144069  0.014272659  0.014072678            2 
  358000   0.70372178   -8.4113092    61.136372  0.014230999  0.014024218            1 
  359000   0.69825084   -8.3990417    61.119906  0.014187536   0.01397595            1 
  360000    0.6849035   -8.4046886    61.174264  0.014160709  0.013927647            3 
  361000   0.69413034   -8.4426124     61.17317   0.01412123  0.013879459            2 
  362000   0.68803584   -8.4188884    61.108777  0.014067398  0.013831349            2 
  363000   0.67248946   -8.4060917    61.243382  0.014059546  0.013783492            2 
  364000   0.69503825   -8.4260288    61.140935  0.013997467   0.01373563            1 
  365000   0.68608873   -8.4215924    61.047755  0.013937843  0.013687896            2 
  366000   0.69311009   -8.4218329    60.990249  0.013886669  0.013640295            1 
  367000    0.6835525   -8.4627285    61.049047  0.013862181  0.013592736            3 
  368000    0.6727946   -8.4262216     61.11504  0.013839456  0.013545448            2 
  369000   0.67630948     -8.43718     61.02834  0.013782371   0.01349832            2 
  370000   0.67663072   -8.4298785    61.030333  0.013745571  0.013451364            2 
  371000   0.65600875   -8.4451749    61.037603  0.013710153  0.013404797            1 
  372000   0.66043489    -8.450017    61.135493  0.013695227  0.013358223           10 
  373000   0.67728373   -8.4309259    61.261674  0.013686701  0.013311945            1 
  374000   0.67315984    -8.443046    61.217203  0.013640197  0.013266027            2 
  375000   0.66031864   -8.4871987    61.233117  0.013607359  0.013220149            1 
  376000   0.66387775   -8.4676792    61.056175  0.013531954   0.01317429            3 
  377000   0.66643588   -8.4492914    61.201923  0.013528276  0.013128591            1 
  378000    0.6361954   -8.4718604    61.114915  0.013473306  0.013083072            1 
  379000   0.66414332    -8.480519      61.1323  0.013441579  0.013037539            4 
  380000   0.66277826   -8.4753934    61.089624  0.013396847  0.012992178            3 
  381000   0.67147897   -8.4907539    61.048294  0.013352645  0.012946925            1 
  382000   0.66133051   -8.4831713     61.03097  0.013313911  0.012901863            2 
  383000   0.65847292   -8.4909686    60.951256  0.013261805  0.012856735            1 
  384000   0.63536295   -8.5353822    60.934487   0.01322363  0.012811787            1 
  385000   0.64378871   -8.5002868     61.17307  0.013240924  0.012766966            4 
  386000   0.66494006   -8.4927607    61.051953  0.013180473  0.012722309            2 
  387000   0.64413092   -8.5184004    61.071946   0.01315072  0.012677868            2 
  388000   0.67008646   -8.5257834    61.109432  0.013124878  0.012633661            2 
  389000   0.64375795   -8.5323781    61.032039  0.013074558  0.012589459            2 
  390000   0.62773543    -8.547854    60.866919  0.013005752  0.012545275            2 
  391000   0.64896957   -8.5503205    61.039527  0.013009277  0.012501308            2 
  392000   0.65419499   -8.5624015    60.887309  0.012943731  0.012457415            1 
  393000   0.64159184   -8.5376987    60.945589  0.012923153  0.012413618            6 
  394000   0.64508225   -8.5519573    60.915488  0.012883986  0.012369969            1 
  395000   0.63177722   -8.5678999    60.920111  0.012852344  0.012326454            3 
  396000   0.63174061    -8.556339    60.905153  0.012816741  0.012283254            2 
  397000   0.65620325    -8.547635    60.848114  0.012772484  0.012240046            2 
  398000   0.64733203    -8.564669     60.87908  0.012746876  0.012197061            5 
  399000   0.62783652   -8.5472443    60.852348  0.012709346  0.012154321            2 
  400000   0.63487241   -8.5556007    60.912267  0.012690056  0.012111657            2 
  401000   0.63610476   -8.5758314    60.843926  0.012644207  0.012069034            3 
  402000   0.63228455   -8.5827909    60.758355  0.012595016  0.012026531            2 
  403000    0.6150539   -8.5787504    60.836678  0.012579958  0.011984272            2 
  404000   0.61885628    -8.572237    60.807208  0.012542741  0.011942142            1 
  405000    0.6166026    -8.586893    60.808048  0.012511944   0.01190019            2 
  406000   0.62616361   -8.5677467    60.768453  0.012472999  0.011858418            2 
  407000   0.62863419    -8.572521    60.782817  0.012445294  0.011816766            2 
  408000   0.62020888   -8.5838172    60.749506  0.012407987  0.011775207            2 
  409000   0.61885229    -8.600406    60.744444  0.012376619  0.011733831            2 
  410000   0.62622165   -8.5954113    60.709052  0.012339238  0.011692611            3 
  411000   0.60528226    -8.616558    60.674023  0.012302113  0.011651492            1 
  412000   0.60864464   -8.5950096    60.655245  0.012268456    0.0116105            4 
  413000   0.60470926   -8.5783207    60.746345  0.012257132  0.011569755            3 
  414000   0.59783327    -8.602001    60.824045  0.012243165  0.011529286            8 
  415000   0.60315673   -8.6290571    60.743919  0.012197574  0.011489057            3 
  416000   0.60834809   -8.6157497    60.716873  0.012162835  0.011449027            1 
  417000   0.60138258   -8.6048684    60.740395  0.012138368  0.011408979            2 
  418000   0.60440086   -8.6321394    60.750447  0.012111333  0.011369081            3 
  419000   0.61113503   -8.6201136    60.717636  0.012075902  0.011329388            4 
  420000    0.5999621      -8.6264    60.745105    0.0120526  0.011289822            2 
  421000   0.58974931   -8.6253724    60.750016  0.012024944  0.011250444            3 
  422000   0.59479508   -8.6414582    60.860983  0.012018362   0.01121122            2 
  423000   0.59421781   -8.6454141    60.627189  0.011943891  0.011172032            4 
  424000   0.59156479   -8.6688057    60.725084  0.011934962  0.011133028            2 
  425000   0.58272892   -8.6377065    60.649493  0.011892057  0.011094161            3 
  426000   0.59066777   -8.6661388    60.679606  0.011870032  0.011055553            2 
  427000   0.58544668   -8.6531722    60.582134  0.011823211  0.011017008            4 
  428000   0.59015144    -8.639481    60.573792  0.011793963  0.010978605            3 
  429000   0.58172666    -8.657717    60.627558  0.011776915  0.010940298            3 
  430000   0.58087395   -8.6538319    60.806793  0.011784262  0.010902151            3 
  431000   0.57904972   -8.6673036    60.647367  0.011726096   0.01086408            2 
  432000   0.57435913   -8.6576181    60.768414  0.011722302  0.010826214            2 
  433000    0.5778286    -8.680911    60.639944  0.011670505  0.010788549            3 
  434000   0.57173745   -8.6601731     60.63421  0.011642513  0.010751006            2 
  435000   0.56795647   -8.6694007    60.634068  0.011615722  0.010713683            2 
  436000   0.57884329   -8.6666266    60.648143   0.01159177  0.010676446            1 
  437000    0.5891327   -8.6851666    60.497129  0.011536447  0.010639325            2 
  438000   0.57999706   -8.6579515    60.612605  0.011532079  0.010602401            1 
  439000   0.57318732   -8.6782125    60.634685  0.011510001  0.010565676            5 
  440000   0.56317306   -8.6810716    60.648185  0.011486399  0.010529063            2 
  441000   0.55825828   -8.6993016    60.624763  0.011455926  0.010492657            5 
  442000   0.56538282   -8.6844887    60.612987  0.011427788  0.010456386            3 
  443000   0.56827919   -8.7003505    60.522125  0.011384899  0.010420236            4 
  444000   0.55067364   -8.7009616    60.529771  0.011360693  0.010384201            3 
  445000   0.56413314    -8.687308    60.483268  0.011326455  0.010348359            2 
  446000   0.55861569   -8.7009967    60.584218  0.011319921   0.01031266            2 
  447000   0.55857294   -8.7046975    60.611344  0.011299654  0.010277067            2 
  448000   0.53953067    -8.727489    60.545805   0.01126224  0.010241639            3 
  449000   0.55945202   -8.7031826    60.528365  0.011233921  0.010206328            2 
  450000   0.55551756   -8.7230526    60.551111  0.011213169  0.010171142            2 
  451000   0.54518413    -8.730782    60.438918  0.011167575  0.010136058            3 
  452000   0.53818039    -8.714111    60.565787  0.011166259  0.010101157            2 
  453000   0.54285965   -8.7439726    60.445641  0.011119507  0.010066447            2 
  454000   0.53512844   -8.7282387    60.534429  0.011111312  0.010031868            2 
  455000   0.54215384   -8.7318367    60.540087  0.011087928 0.0099973796            1 
  456000      0.53636   -8.7326687    60.444934  0.011046223 0.0099630203            1 
  457000   0.54552003   -8.7532297    60.492079  0.011030649 0.0099288229            2 
  458000   0.54144006   -8.7624422    60.424552  0.010994278 0.0098948317            1 
  459000    0.5454527   -8.7573058     60.45295  0.010975481 0.0098609427            3 
  460000   0.51870274   -8.7450918    60.471826  0.010955041 0.0098272056            2 
  461000   0.53891031    -8.753529    60.384233  0.010915443 0.0097936102            2 
  462000   0.53249829   -8.7388877    60.350497  0.010885732 0.0097601546            1 
  463000   0.52661427   -8.7473264    60.466682  0.010883132  0.009726832            4 
  464000    0.5177002   -8.7492024    60.436488  0.010854254 0.0096936105            1 
  465000   0.51760396   -8.7499254    60.356733  0.010816619  0.009660525            2 
  466000   0.52470282   -8.7594735    60.467325  0.010813184 0.0096275839            2 
  467000   0.53595139   -8.7565964    60.297668  0.010759755 0.0095947528            3 
  468000   0.52590093   -8.7698336    60.297507  0.010736736 0.0095620928            4 
  469000   0.51684284   -8.7749496    60.313303   0.01071665 0.0095295258            2 
  470000   0.52721986   -8.7503502    60.408035  0.010710644 0.0094971355            2 
  471000   0.50734772   -8.7800933    60.402824  0.010686982 0.0094648973            2 
  472000   0.49227847   -8.7854532    60.352304  0.010655421 0.0094327961            4 
  473000   0.50482564   -8.7933209    60.402054  0.010641659 0.0094007924            1 
  474000    0.5102842   -8.7783462    60.379175  0.010615185 0.0093689793            2 
  475000   0.50845885   -8.7850836     60.26349  0.010572542 0.0093372887            3 
  476000   0.50734997   -8.7810662    60.343148  0.010564277 0.0093057173            2 
  477000   0.50350565   -8.8093439     60.27042  0.010529423 0.0092742829            1 
  478000   0.49770142    -8.796825     60.37142  0.010525004  0.009242989            3 
  479000    0.4997654   -8.7929196    60.388502  0.010506002 0.0092118367            4 
  480000   0.49770235   -8.7975463    60.308828  0.010470283 0.0091808051            2 
  481000   0.50331915   -8.8005943    60.423751  0.010468425 0.0091499083            2 
  482000   0.51326799   -8.8042082    60.224306  0.010412224 0.0091191476            2 
  483000   0.50511321   -8.7989749    60.246874  0.010394561 0.0090885571            5 
  484000   0.48954255    -8.786377    60.322034  0.010386025 0.0090579829            3 
  485000   0.49137828   -8.8290124    60.302467  0.010361249 0.0090275693            3 
  486000   0.49783515   -8.7935385    60.204556  0.010323141 0.0089972399            3 
  487000   0.49095198   -8.8213475    60.194127  0.010300159 0.0089670665            2 
  488000   0.49875106   -8.8315091    60.143709  0.010270442 0.0089370025            2 
  489000   0.48197202   -8.8332228    60.148488  0.010250254 0.0089070705            2 
  490000    0.4818488   -8.8258565    60.223672  0.010242121 0.0088772798            2 
  491000   0.48639636   -8.8322244    60.216725  0.010220082 0.0088476093            4 
  492000    0.4775525   -8.8281309    60.186197  0.010194139   0.00881807            2 
  493000   0.48520594   -8.8328116    60.231796  0.010181169 0.0087886422            2 
  494000   0.48753999   -8.8193884     60.19478  0.010154315 0.0087593858            1 
  495000   0.47972083   -8.8416768     60.14156  0.010124842 0.0087301977            3 
  496000   0.46830789   -8.8373935    60.199096  0.010114095 0.0087011801            2 
  497000   0.47147338   -8.8179002    60.196232  0.010093265 0.0086722656            2 
  498000   0.48211803   -8.8427176    60.150002  0.010065261 0.0086434908            2 
  499000   0.47220324   -8.8521303     60.20175  0.010053732 0.0086148013            2 
  500000   0.47278347   -8.8268327    60.168165  0.010028028 0.0085862595            3 
  501000   0.47240033   -8.8606082    60.080375  0.009993409 0.0085577903            2 
  502000   0.46440193   -8.8564738    60.107606 0.0099780223 0.0085294563            2 
  503000   0.46375604   -8.8442131    60.020471 0.0099437494 0.0085012095            1 
  504000   0.46376494   -8.8494889    60.126912  0.009941619 0.0084731218            3 
  505000   0.45754227   -8.8448888    60.124064 0.0099214627 0.0084451664            4 
  506000   0.45713638   -8.8591065    60.043402 0.0098885708  0.008417308            3 
  507000   0.45795336   -8.8605011    60.003267 0.0098624699  0.008389585            3 
  508000   0.45665322   -8.8703347    60.011856 0.0098444646  0.008361965            2 
  509000   0.44798518   -8.8662673    60.089313  0.009837805 0.0083344239            3 
  510000   0.45020162   -8.8683905    60.162746  0.009830514 0.0083070108            4 
  511000   0.45625624   -8.8758009    60.111831 0.0098029731 0.0082797177            3 
  512000   0.44247648   -8.8862241    60.054544 0.0097745026 0.0082525849            4 
Loop time of 1219.38 on 48 procs for 500000 steps with 4000 atoms

Performance: 70855.632 tau/day, 410.044 timesteps/s
99.4% CPU use with 48 MPI tasks x no OpenMP threads

MPI task timing breakdown:
Section |  min time  |  avg time  |  max time  |%varavg| %total
---------------------------------------------------------------
Pair    | 76.522     | 83.442     | 90.083     |  29.2 |  6.84
Neigh   | 8.0239     | 8.3865     | 8.6987     |   6.3 |  0.69
Comm    | 77.185     | 84.425     | 92.362     |  31.5 |  6.92
Output  | 0.84263    | 0.84323    | 0.85122    |   0.1 |  0.07
Modify  | 1028.7     | 1031.1     | 1033.9     |   3.7 | 84.56
Other   |            | 11.21      |            |       |  0.92

Nlocal:        83.3333 ave          92 max          75 min
Histogram: 1 0 11 6 7 6 8 7 0 2
Nghost:        2144.33 ave        2174 max        2109 min
Histogram: 1 1 5 5 7 10 7 8 2 2
Neighs:        14098.3 ave       15529 max       12700 min
Histogram: 4 4 4 2 11 6 6 5 2 4
FullNghs:      28196.4 ave       31634 max       25348 min
Histogram: 1 2 11 9 6 6 9 2 0 2

Total # of neighbors = 1353426
Ave neighs/atom = 338.35650
Neighbor list builds = 26742
Dangerous builds = 0

#clear
#
#next RN
#
#jump SELF
Total wall time: 0:20:22
