
units lj                  # Use reduced LJ style units
atom_style atomic         # Uncharged point particles
atom_modify map hash      # Needed for indexing of clusters etc
                          # Used to be able to find where atoms are in relation to each other.

lattice fcc 1.0 spacing 1 1 1
Lattice spacing in x,y,z = 1.5874011 1.5874011 1.5874011
region box block 0 10 0 10 0 10 units lattice
create_box 2 box
Created orthogonal box = (0.0000000 0.0000000 0.0000000) to (15.874011 15.874011 15.874011)
  3 by 4 by 4 MPI processor grid
create_atoms 1 box
Created 4000 atoms
  using lattice units in orthogonal box = (0.0000000 0.0000000 0.0000000) to (15.874011 15.874011 15.874011)
  create_atoms CPU = 0.002 seconds
set type 1 type/fraction 2 0.04 78393
Setting atom values ...
  161 settings made for type/fraction
mass 1 1.0
mass 2 1.0
pair_style lj/cut  3.5
pair_modify tail  yes
pair_coeff 1  1  1.0  1.0   # Intearaction between 1 and 1 set with epsilon = 1 and sigma = 1
pair_coeff 1  2  1.5  0.8
pair_coeff 2  2  0.5  0.88

write_data data.0
System init for write_data ...
Neighbor list info ...
  update every 1 steps, delay 10 steps, check yes
  max neighbors/atom: 2000, page size: 100000
  master list distance cutoff = 3.8
  ghost atom cutoff = 3.8
  binsize = 1.9, bins = 9 9 9
  1 neighbor lists, perpetual/occasional/extra = 1 0 0
  (1) pair lj/cut, perpetual
      attributes: half, newton on
      pair build: half/bin/atomonly/newton
      stencil: half/bin/3d
      bin: standard
WARNING: Not all mixed pair coeffs generated from mixing. Use write_data with 'pair ij' option to store all pair coeffs. (../write_data.cpp:312)


#############################
#   M E L T   S Y S T E M   #
#############################

velocity all create 2.4 9622624 mom yes dist gaussian # Assign velocities
                                                    # Temperature 2.4, random number seed, zero linear momentum
                                                                                # Gaussian distribution

timestep 0.002   # simulation timestep
thermo 1000       # output thermodynamic data every 1000 steps bf 100

# Define a fix  in this case with index 1 applied to all
# particles in the simulation. This fix is for simulations
# in the anisotropic NPT ensemble. Note that we use the MTK
# correction.
fix 1 all npt temp 2.4 2.4 0.1 iso 5.68 5.68 0.5 mtk yes tchain 5 pchain 5 # Use NPT ensemble
                                                                         # Set temperature and pressure and damping
                                                                         # Numbers of thermostats in chain and in barostat
run 10000          # run for 10000 steps
Per MPI rank memory allocation (min/avg/max) = 3.642 | 3.644 | 3.648 Mbytes
Step Temp E_pair E_mol TotEng Press Volume 
       0          2.4   -8.1195307            0   -4.5204307   -2.5632236         4000 
    1000    2.3760264    -4.467674            0  -0.90452536     5.740737    5060.9526 
    2000    2.4370677   -4.4152421            0  -0.76055441    5.9170739    5068.3564 
    3000    2.3776264   -4.4587917            0  -0.89324375    5.8461392     5055.713 
    4000    2.4074216   -4.4328119            0  -0.82258228    5.8457501    5078.2325 
    5000    2.3982085   -4.4544818            0  -0.85806843     5.703486    5082.2392 
    6000    2.3558372   -4.4476965            0  -0.91482416    5.5827057     5095.976 
    7000    2.4240906   -4.4544503            0  -0.81922348    5.7926249    5068.1808 
    8000    2.3520891   -4.4595526            0  -0.93230101    5.5893743    5090.3096 
    9000    2.3552162   -4.4851279            0  -0.95318675    5.3702072    5096.6534 
   10000    2.4123395    -4.459258            0  -0.84165332    5.5987993    5096.0052 
Loop time of 2.14178 on 48 procs for 10000 steps with 4000 atoms

Performance: 806806.814 tau/day, 4669.021 timesteps/s
99.6% CPU use with 48 MPI tasks x no OpenMP threads

MPI task timing breakdown:
Section |  min time  |  avg time  |  max time  |%varavg| %total
---------------------------------------------------------------
Pair    | 0.87595    | 0.9263     | 1.0599     |   3.7 | 43.25
Neigh   | 0.16798    | 0.17569    | 0.19832    |   1.5 |  8.20
Comm    | 0.67322    | 0.77066    | 0.86127    |   4.9 | 35.98
Output  | 0.00024604 | 0.00025017 | 0.0003161  |   0.0 |  0.01
Modify  | 0.19102    | 0.2546     | 0.31335    |   7.1 | 11.89
Other   |            | 0.01429    |            |       |  0.67

Nlocal:        83.3333 ave          92 max          73 min
Histogram: 1 1 4 9 8 7 5 5 6 2
Nghost:        1403.58 ave        1426 max        1387 min
Histogram: 5 5 7 5 12 2 5 1 4 2
Neighs:        7466.79 ave        8480 max        6424 min
Histogram: 1 1 9 7 5 10 5 4 4 2

Total # of neighbors = 358406
Ave neighs/atom = 89.601500
Neighbor list builds = 906
Dangerous builds = 217

# Equilibrate just above the melting temperature to avoid step fn in T

fix 1 all npt temp 1.25 1.25 0.1 iso 5.68 5.68 0.5 mtk yes tchain 5 pchain 5
run 2000
Per MPI rank memory allocation (min/avg/max) = 3.643 | 3.645 | 3.648 Mbytes
Step Temp E_pair E_mol TotEng Press Volume 
   10000    2.4123395    -4.459258            0  -0.84165332    5.5987993    5096.0052 
   11000    1.2470648    -5.975815            0   -4.1056855    5.7986215    4195.4647 
   12000    1.1953089   -5.9745124            0   -4.1819973    5.5860479    4209.6169 
Loop time of 0.458491 on 48 procs for 2000 steps with 4000 atoms

Performance: 753777.518 tau/day, 4362.138 timesteps/s
99.6% CPU use with 48 MPI tasks x no OpenMP threads

MPI task timing breakdown:
Section |  min time  |  avg time  |  max time  |%varavg| %total
---------------------------------------------------------------
Pair    | 0.19847    | 0.21281    | 0.23266    |   1.7 | 46.41
Neigh   | 0.03021    | 0.032092   | 0.034286   |   0.5 |  7.00
Comm    | 0.13725    | 0.15995    | 0.17928    |   2.2 | 34.89
Output  | 5.0507e-05 | 5.143e-05  | 6.567e-05  |   0.0 |  0.01
Modify  | 0.045235   | 0.049093   | 0.053911   |   1.1 | 10.71
Other   |            | 0.004502   |            |       |  0.98

Nlocal:        83.3333 ave          91 max          74 min
Histogram: 2 0 4 7 10 6 2 10 3 4
Nghost:        1582.48 ave        1605 max        1563 min
Histogram: 7 4 4 5 3 6 10 2 4 3
Neighs:        9055.17 ave       10177 max        7851 min
Histogram: 1 1 6 6 12 7 3 6 3 3

Total # of neighbors = 434648
Ave neighs/atom = 108.66200
Neighbor list builds = 141
Dangerous builds = 12

#############################
# L I N E A R  Q U E N C H  #
#############################

# Define solid atoms. This closely follows ten Wolde  Ruiz-Montero and Frenkel  Faraday Discuss  1996  104  93-110
# Compute components of the per-atom q6 vector
compute q6 all orientorder/atom degrees 1 6 components 6 nnn NULL cutoff 1.3 # compute the Q6 parameter.
                                                                             # Use all neighbours within 1.3 unit cell.

# get number of connections
compute coord_number all coord/atom orientorder q6 0.5

# An atom is solid if it has 8 or more connections (of a possible 14)
variable is_solid atom c_coord_number>=8
group solid dynamic all var is_solid    # Must be dynamic to update
dynamic group solid defined

# do clustering
compute cluster solid cluster/atom 1.3 # Create a cluster where all atoms within are solid and max 1.3 units from another member

# define chunks one chunk per cluster
compute clus_chunks solid chunk/atom c_cluster nchunk every compress yes  # Says which atoms are in which chunk

# count the size of each chunk
compute size_chunks solid property/chunk clus_chunks count


# Find the maximum entry in the vector of chunk sizes
variable max_n equal max(c_size_chunks)


# Thermo style which includes this variable
# thermo_style custom step temp pe vol v_max_n

thermo ${N}  # Print the thermo information every 100 steps
thermo 1000  

# Reset the npt fix at a lower temperature (below freezing)
fix 1  all npt temp  ${temp} ${temp}  0.1  iso  5.68  5.68  0.5  mtk yes tchain  5  pchain  5
fix 1  all npt temp  0.45 ${temp}  0.1  iso  5.68  5.68  0.5  mtk yes tchain  5  pchain  5
fix 1  all npt temp  0.45 0.45  0.1  iso  5.68  5.68  0.5  mtk yes tchain  5  pchain  5

dump dmp2 all dcd ${N} traj.dcd
dump dmp2 all dcd 1000 traj.dcd


compute msd all msd com yes
variable twopoint equal c_msd[4]/6/(step*dt+1.0e-6)
fix 9 all vector 10 c_msd[4]
variable fit equal slope(f_9)/6/(10*dt)
thermo_style custom step temp pe c_msd[4] v_twopoint v_fit v_max_n

fix 1 all npt temp 1.25 ${temp} 0.1 iso 5.68 5.68 0.5 mtk yes tchain 5 pchain 5
fix 1 all npt temp 1.25 0.45 0.1 iso 5.68 5.68 0.5 mtk yes tchain 5 pchain 5
run 500000 # 5000000  # Run for this many steps
Neighbor list info ...
  update every 1 steps, delay 10 steps, check yes
  max neighbors/atom: 2000, page size: 100000
  master list distance cutoff = 3.8
  ghost atom cutoff = 3.8
  binsize = 1.9, bins = 9 9 9
  4 neighbor lists, perpetual/occasional/extra = 1 3 0
  (1) pair lj/cut, perpetual
      attributes: half, newton on
      pair build: half/bin/atomonly/newton
      stencil: half/bin/3d
      bin: standard
  (2) compute orientorder/atom, occasional
      attributes: full, newton on
      pair build: full/bin/atomonly
      stencil: full/bin/3d
      bin: standard
  (3) compute coord/atom, occasional
      attributes: full, newton on
      pair build: full/bin/atomonly
      stencil: full/bin/3d
      bin: standard
  (4) compute cluster/atom, occasional
      attributes: full, newton on
      pair build: full/bin/atomonly
      stencil: full/bin/3d
      bin: standard
Per MPI rank memory allocation (min/avg/max) = 9.734 | 9.739 | 9.743 Mbytes
Step Temp PotEng c_msd[4] v_twopoint v_fit v_max_n 
   12000    1.1953089   -5.9745124 1.0304496e-30 7.1558994e-33 8.3333333e+20            3 
   13000    1.2639545      -5.9688   0.56442312 0.0036180968  0.045862732            3 
   14000    1.2305584   -5.9485149    1.1328953 0.0067434241  0.046228907            2 
   15000    1.2579425   -5.9682173    1.7452533 0.0096958515  0.047721515            4 
   16000     1.235859   -5.9796013     2.282244  0.011886687  0.048133928            3 
   17000    1.2414513   -5.9850062    2.8425873  0.013934251  0.047919557            3 
   18000    1.2321192    -5.951683    3.3884435  0.015687238  0.047383036            3 
   19000    1.2410317   -6.0279816    3.9126924  0.017160931  0.047150869            3 
   20000    1.2247444   -6.0148397    4.4757168  0.018648819  0.046756068            3 
   21000    1.2379194   -5.9677959    5.0641324  0.020095763  0.046600198            2 
   22000    1.2149579   -6.0321241    5.6896127  0.021551563  0.046819384            3 
   23000     1.217726   -5.9983481    6.1582036  0.022312332  0.046886375            2 
   24000    1.2171159   -6.0234533    6.6961632  0.023250566  0.046736516            5 
   25000    1.2133374   -6.0057895    7.2141895  0.024047298  0.046509459            2 
   26000    1.2104576   -6.0144004    7.7250488  0.024759771   0.04630757            4 
   27000    1.2239937   -5.9567331    8.3184797   0.02567432  0.046083021            2 
   28000    1.2189899   -5.9978421    8.8119703  0.026226102  0.045944658            3 
   29000    1.2092716   -6.0321885    9.2959638  0.026712539  0.045745657            3 
   30000    1.2122611   -5.9785461    9.8629497  0.027397082  0.045577178            2 
   31000    1.2296209   -6.0224645    10.333039  0.027776986  0.045409649            1 
   32000    1.2149932   -6.0236063    10.893697  0.028369003  0.045253099            1 
   33000    1.2266499   -6.0575235    11.343108  0.028644211  0.045092765            2 
   34000    1.2414277   -6.0647809    11.812642  0.028952552  0.044916478            3 
   35000    1.2108938   -6.0666311    12.403228  0.029531494  0.044792679            3 
   36000    1.2305169   -6.0831938    12.797167  0.029623071   0.04464554            3 
   37000       1.2065   -6.0430888    13.298143  0.029950773  0.044474869            5 
   38000    1.2307056   -6.0295056    13.857707  0.030389709  0.044304465            4 
   39000    1.1853836   -6.0674702    14.180497  0.030300208  0.044112438            5 
   40000    1.1991037   -6.0528517    14.527194  0.030264987  0.043873425            2 
   41000    1.2184966   -6.0168312    15.071055  0.030632224  0.043613089            3 
   42000    1.2056603   -6.0686767    15.415357  0.030586026  0.043356511            2 
   43000    1.1928203   -6.0459075    15.922739   0.03085802  0.043103659            8 
   44000    1.2320652   -6.0641676    16.460728  0.031175622  0.042899876            4 
   45000    1.1845897   -6.0796279    16.951226   0.03139116  0.042744514           10 
   46000    1.2028111    -6.072793    17.400026  0.031521785    0.0425909            1 
   47000    1.1824259   -6.0982763    17.743088  0.031459376  0.042400093            3 
   48000    1.1924584   -6.0978714    18.304278   0.03177826  0.042199875            3 
   49000    1.2038694   -6.0700506    18.865367  0.032083957   0.04207327            3 
   50000     1.176424    -6.103156    19.299362  0.032165603  0.041956712            7 
   51000    1.1805458   -6.1440852    19.684431  0.032164103  0.041823849            2 
   52000    1.1877922   -6.0964347    20.189129  0.032354373  0.041704236            4 
   53000    1.2049012   -6.1137735    20.706258  0.032557009  0.041614597            6 
   54000    1.1720345   -6.1224155    21.175096  0.032677617  0.041520443            3 
   55000    1.1559867   -6.0943308    21.485441  0.032553698   0.04140257            4 
   56000    1.1981854   -6.1039522    21.958423  0.032676225  0.041280329            3 
   57000    1.1836053   -6.0826998    22.512968  0.032913696  0.041182088            2 
   58000    1.1774558   -6.1263711    23.029708   0.03308866  0.041103373            2 
   59000    1.1634694   -6.1018093    23.349139   0.03297901  0.041013101            5 
   60000    1.1707944   -6.1369101    23.667946  0.032872147  0.040897416            4 
   61000    1.1645045   -6.0866336    24.149329  0.032990886  0.040777142            7 
   62000    1.2026912    -6.113848    24.646319  0.033126773  0.040676938            3 
   63000    1.1375213   -6.1005163    25.153838  0.033272272  0.040590396            2 
   64000    1.1708927   -6.1082904    25.656068  0.033406339  0.040516945            3 
   65000    1.1600736   -6.1321747    25.997878  0.033330612  0.040445372            3 
   66000    1.1707864   -6.1621027    26.295896  0.033201889  0.040354928            5 
   67000    1.1669088   -6.1205736    26.617468  0.033106303  0.040238085            3 
   68000    1.1405054   -6.1168904    27.074454  0.033179478  0.040119611            4 
   69000     1.151461   -6.1352746    27.485081  0.033194541   0.04001104            5 
   70000    1.1419135   -6.1440995    27.798413  0.033093349  0.039890688            3 
   71000    1.1501038    -6.131093    28.324332  0.033244521  0.039772573            2 
   72000     1.174102   -6.1335553    28.785478  0.033316526  0.039664248            6 
   73000    1.1547835   -6.1476642    29.273713   0.03341748  0.039558662            2 
   74000    1.1444851   -6.1455405     29.56179  0.033290304  0.039466599            3 
   75000    1.1500373   -6.1265563    30.119258  0.033465842  0.039372432            2 
   76000    1.1379591   -6.1596836    30.471249  0.033411457  0.039280795            5 
   77000    1.1350303   -6.1593163    30.915332  0.033458151  0.039194595            2 
   78000    1.1533954   -6.1640083    31.361425  0.033505795  0.039117165            5 
   79000    1.1474719   -6.1325034    31.849294  0.033596302   0.03904547            4 
   80000    1.1363111   -6.1480425    32.377517   0.03372658  0.038984657            5 
   81000     1.166873    -6.153705    32.645992  0.033586411  0.038922354            3 
   82000    1.1801618   -6.1530949    33.097751  0.033635926      0.03885            3 
   83000    1.1205334   -6.2047218    33.362715  0.033496702    0.0387702            5 
   84000    1.1196861    -6.196037    33.876439  0.033607578  0.038690584            4 
   85000    1.1303762   -6.2047977    34.315776  0.033642917   0.03862776            5 
   86000    1.1455682   -6.1915068    34.649297    0.0335749  0.038554126            3 
   87000    1.1182542    -6.167331    35.060575  0.033582926  0.038479997            4 
   88000    1.1265625   -6.2054092    35.311314  0.033438744  0.038401139            4 
   89000     1.129168   -6.1971376    35.977981  0.033687248  0.038324227            6 
   90000    1.1131873   -6.1718417    36.531847  0.033825784  0.038267803            3 
   91000    1.1406882   -6.1914936    37.022718  0.033903588  0.038220928            8 
   92000     1.113746   -6.1889803    37.741066  0.034185748  0.038190455            3 
   93000    1.1036923   -6.2139732     37.91819  0.033976872  0.038157935            4 
   94000    1.1142949   -6.2030069    38.131282  0.033804328  0.038110328            2 
   95000    1.1024749   -6.2181584    38.787795  0.034024381  0.038066882            2 
   96000    1.1235461    -6.245974    39.150258  0.033984599  0.038030027            5 
   97000    1.1338426   -6.2449753    39.487948  0.033924354  0.037986762            4 
   98000    1.1058807   -6.2107148    39.925036   0.03394986  0.037944248            4 
   99000    1.1054476   -6.2139639    40.316845  0.033936738  0.037895858            4 
  100000    1.0773932   -6.1892626     40.59269  0.033827242  0.037840529            2 
  101000    1.1180648   -6.1811012     40.89855  0.033744678   0.03778245            4 
  102000    1.1218489   -6.2189719    41.456291  0.033869519  0.037725804            3 
  103000    1.1144026   -6.2151239    41.873822  0.033878497  0.037671016            3 
  104000    1.0859476   -6.2180452    42.273317   0.03387285  0.037620115            9 
  105000    1.1000992    -6.236775    42.684231  0.033876374  0.037572165            2 
  106000      1.09917   -6.2205291    43.144405  0.033918557  0.037523735            4 
  107000    1.0892109   -6.2488394    43.691659  0.034027772  0.037484296            8 
  108000     1.079192   -6.2259719    44.091301  0.034021065     0.037452            4 
  109000    1.1138966   -6.2634604    44.273408  0.033848171  0.037406347            4 
  110000    1.0912634   -6.2697518    44.366205  0.033610761  0.037355877            3 
  111000    1.0855848   -6.2531915    44.810843  0.033641774  0.037299117            3 
  112000    1.0924608   -6.2489881    45.387325  0.033770331  0.037248662            7 
  113000    1.1071717   -6.1963289    45.954352   0.03388964  0.037200401            7 
  114000    1.0794151   -6.2740455    46.163872   0.03374552  0.037153864            2 
  115000    1.0843559   -6.3047492    46.510089  0.033702963   0.03710465            5 
  116000    1.0862234   -6.2639285    47.036072  0.033790282  0.037061262            5 
  117000    1.1094353   -6.2729872    47.480398  0.033817947  0.037016813            4 
  118000    1.0701476   -6.2715248    47.748524  0.033720709  0.036973791           10 
  119000    1.0516996    -6.247511    48.269812  0.033802389  0.036928459            4 
  120000    1.0749264   -6.2909574    48.330171  0.033562619  0.036879651            5 
  121000    1.0971917   -6.3013847    48.685105  0.033529686  0.036822203            3 
  122000    1.0844553   -6.2528726     48.98253  0.033458012  0.036762728            9 
  123000    1.0859806   -6.3061318    49.469765  0.033516101  0.036704186            4 
  124000    1.0517929   -6.3112735    49.824496  0.033484204  0.036645134            3 
  125000    1.0741136   -6.2827181    49.913942  0.033275961   0.03658243            6 
  126000    1.0598292   -6.2859378    50.375112  0.033316873  0.036519311           11 
  127000    1.0697939   -6.3147803    50.774464  0.033316577  0.036459205            5 
  128000    1.0735383   -6.2988089    51.089972    0.0332617  0.036398089            3 
  129000    1.0755632   -6.2958245    51.327606  0.033157368  0.036335936            5 
  130000    1.0610563   -6.3212729    51.539164  0.033037926  0.036267142            4 
  131000    1.0567289   -6.3042669    51.935161  0.033037634  0.036199651            4 
  132000     1.056955   -6.3198963    52.031077  0.032847902  0.036129426            5 
  133000    1.0644093   -6.3316216    52.267508  0.032749065  0.036053765            4 
  134000    1.0489581   -6.3144023    52.653818  0.032744912   0.03597687            5 
  135000    1.0594078   -6.3075776    52.829971  0.032611093  0.035896655            4 
  136000    1.0336201    -6.354822    52.897668  0.032412786  0.035813542            8 
  137000    1.0531461    -6.287354    53.431589  0.032500966   0.03572817            3 
  138000    1.0308528   -6.3014229    53.497924   0.03230551  0.035640731            5 
  139000    1.0429899   -6.3214575    53.787456  0.032246676  0.035551767            6 
  140000    1.0486935   -6.2988331    54.218459  0.032272892  0.035463313            4 
  141000    1.0399622   -6.3214792    54.483795  0.032200824  0.035377183            7 
  142000    1.0537369   -6.3232917     54.58076  0.032030962  0.035292297            4 
  143000    1.0266195   -6.3264787    55.064032  0.032088597  0.035207093            3 
  144000    1.0526126   -6.3652701    55.171166  0.031927758  0.035120029            3 
  145000       1.0627   -6.3807006    55.687036  0.032004043  0.035032774            5 
  146000    1.0372497   -6.3775593    55.685623  0.031784031  0.034947623            6 
  147000    1.0405226   -6.3278097    56.365203  0.031953063  0.034862326            7 
  148000    1.0464605   -6.3610612    56.739677  0.031948016  0.034779254            4 
  149000    1.0344462    -6.393079    57.125104  0.031949163  0.034700976            3 
  150000    1.0377219   -6.3649511    57.461476  0.031923042  0.034624205            3 
  151000    1.0053562   -6.3648595    57.827451  0.031913604  0.034549026            2 
  152000    1.0368617   -6.3880007     57.89463  0.031740477     0.034472            6 
  153000    1.0172208   -6.3704886    58.017419  0.031599901   0.03439229            6 
  154000    1.0257733   -6.3434951    58.604714  0.031712507   0.03431145            7 
  155000    1.0284245   -6.3469809    58.567928  0.031488133  0.034229688            3 
  156000    1.0359336    -6.367574    58.938993  0.031484505  0.034149341            4 
  157000    1.0067571   -6.3849283       59.136  0.031388535  0.034069604            4 
  158000   0.99887256   -6.4205075    59.272641  0.031261941  0.033987573            9 
  159000     1.031666   -6.3936134    59.475379  0.031171582  0.033904785            9 
  160000    1.0096333   -6.3812712    60.119798  0.031312395  0.033823997            8 
  161000    1.0338431   -6.4187247    60.248996   0.03118478  0.033744149            3 
  162000    1.0237744   -6.3843351    60.774035  0.031262364  0.033664893            4 
  163000    1.0100806   -6.4021605    61.022543  0.031197619  0.033587225           10 
  164000    1.0049245   -6.3965217    61.267858  0.031132041  0.033512038            3 
  165000   0.99983882   -6.4113985    61.741041  0.031182344  0.033438039            6 
  166000    1.0016062   -6.4276801    61.937361  0.031093053  0.033364539            6 
  167000    1.0036487   -6.4288737    62.108556  0.030992293  0.033289804            4 
  168000    1.0136863    -6.375802    62.174124  0.030840339  0.033212795            6 
  169000    1.0072271   -6.4175615    62.567341  0.030851746  0.033135257            4 
  170000   0.99343602   -6.4236474    62.589241  0.030681001  0.033057921            3 
  171000   0.99817163   -6.4063055    63.072356  0.030737015  0.032981916            4 
  172000    0.9964696   -6.4342639    63.185136  0.030612953  0.032905802            6 
  173000    1.0023654   -6.4342505    63.617385  0.030644212  0.032827049            8 
  174000    0.9824975   -6.3818105    63.653443  0.030485366  0.032748329            4 
  175000   0.97358707   -6.4280633    63.881673  0.030419844  0.032669963            4 
  176000   0.97953766   -6.4655076    63.940553  0.030274883   0.03258966            5 
  177000   0.97987087   -6.4601535    64.180019  0.030216581  0.032506807            3 
  178000    1.0055959   -6.4312503    64.551186  0.030220593  0.032426036            8 
  179000   0.96720306   -6.4718193    64.771649  0.030154399  0.032348375            5 
  180000   0.99973716   -6.4607704    65.070739  0.030125342  0.032272863            6 
  181000   0.99499636   -6.4190498    65.661908  0.030231081  0.032199453            7 
  182000   0.99278111   -6.4671463    65.777771  0.030118027  0.032125593            7 
  183000   0.98794181   -6.4713327    66.023809  0.030065487  0.032051424            3 
  184000   0.97813105   -6.4781201    65.928409  0.029858881  0.031975514            4 
  185000   0.96698106   -6.4595328    66.268227  0.029850553   0.03189733            5 
  186000    0.9610344    -6.461482    66.677359  0.029873369  0.031820589            6 
  187000    0.9672811    -6.458523    66.853081  0.029791926  0.031746247            3 
  188000   0.95731489   -6.4796471    67.199322  0.029786933  0.031672789            4 
  189000   0.97218711   -6.5065376    67.461589  0.029744969   0.03160019            5 
  190000   0.96635697   -6.4998824    67.652553  0.029672172  0.031528451            4 
  191000   0.96868408    -6.476605    68.224534  0.029766376  0.031458589            4 
  192000   0.97521518   -6.5097634     68.14493  0.029576792  0.031388251            4 
  193000   0.97067013   -6.4831979    68.386643  0.029527911  0.031317035            9 
  194000   0.95211159   -6.5006597    68.556004  0.029448455  0.031245033            9 
  195000   0.93827513    -6.513376    68.494156  0.029271007  0.031172059            9 
  196000   0.95395161    -6.484397    69.077058  0.029369497  0.031099248            6 
  197000   0.95881406   -6.5345314    69.043417  0.029206183  0.031026484           12 
  198000   0.95028176   -6.5007838    69.231777  0.029137953  0.030952475            4 
  199000   0.94744921   -6.5295153    69.420774  0.029070676  0.030877788           11 
  200000   0.94013602   -6.5075185    69.613971  0.029005821  0.030804717            4 
  201000   0.95564015   -6.5007742    69.815107  0.028944903  0.030729446            5 
  202000   0.94709837   -6.5147498    69.883345  0.028829763  0.030654192            8 
  203000   0.94193053   -6.5094698    70.173956  0.028807043  0.030579406            6 
  204000   0.96119092    -6.542915     70.20565  0.028678779  0.030501691            3 
  205000   0.93258832   -6.5379668    70.447339  0.028637129  0.030424331            4 
  206000   0.93751458   -6.5175729    70.665084  0.028586199  0.030347023            6 
  207000   0.93409143   -6.5319961    71.032862   0.02859616  0.030271764            4 
  208000   0.92346065   -6.5418634    70.949503  0.028425281  0.030194659            7 
  209000   0.92930852   -6.5465328     71.32533  0.028439127  0.030119555            5 
  210000   0.92438262    -6.539751    71.581208  0.028405241  0.030044638            7 
  211000    0.9297733   -6.5595078    71.988196  0.028431357  0.029971665            6 
  212000   0.93381385   -6.5472731    72.174599  0.028370518  0.029899028            8 
  213000   0.94475149   -6.5722797    72.290349  0.028282609  0.029826069            6 
  214000   0.92507842   -6.5512521    72.486954  0.028227007  0.029752996            6 
  215000   0.95122258   -6.5763603    72.560411   0.02812419   0.02968022           10 
  216000   0.94329874   -6.5799033    72.681157   0.02804057  0.029606313            6 
  217000   0.94268066   -6.5650225    72.840478  0.027972534  0.029533525           10 
  218000   0.91326029    -6.584285      73.2552  0.028002752  0.029460567            9 
  219000   0.95030875   -6.5638674    73.356334  0.027913369  0.029387049            5 
  220000   0.91290165   -6.5676154    73.453719  0.027823378  0.029313348            6 
  221000   0.92934332   -6.5803207    73.601625  0.027753252  0.029240291            6 
  222000   0.90597884   -6.5884225     73.58069  0.027620379  0.029166717            6 
  223000   0.91534711    -6.586072    73.947224  0.027633492  0.029093138            8 
  224000   0.92172688   -6.5942117    74.070823   0.02755611   0.02901819            8 
  225000   0.90267898   -6.6084088    74.275274  0.027509361  0.028944562            7 
  226000    0.9022724   -6.6208041    74.334263  0.027409389  0.028870006            6 
  227000   0.90173694   -6.5828362    74.581708  0.027379482  0.028796442            6 
  228000   0.91512042   -6.6001169    74.479196  0.027221928  0.028721727           14 
  229000   0.90210878   -6.6257103    74.531529  0.027122099  0.028645676           10 
  230000    0.9124383   -6.6165344     74.77855  0.027093677  0.028570117            3 
  231000   0.89946318   -6.6026229    75.071203  0.027081963  0.028495052            7 
  232000   0.90000983   -6.5999718    75.157742  0.026996315  0.028421212           11 
  233000   0.89283716   -6.6415366     75.31471  0.026936592  0.028345401            9 
  234000   0.89633395   -6.6490917    75.250854  0.026798737  0.028269436            4 
  235000   0.86568888    -6.620831    75.750295  0.026861807  0.028193832           10 
  236000   0.90232112   -6.6291029    75.854311  0.026784714  0.028118933           10 
  237000   0.89037858   -6.6163998    75.964144  0.026710318  0.028044562            5 
  238000   0.90359715   -6.6558174    75.792435  0.026537967  0.027967923           10 
  239000    0.8993848   -6.6499828    75.839836  0.026443457  0.027890354            8 
  240000   0.87656276   -6.6259812     76.19423   0.02645633    0.0278133           10 
  241000   0.88414749   -6.6538773    76.316029  0.026388668  0.027737788            7 
  242000   0.88858867   -6.6468115    76.679471  0.026404777  0.027663164           17 
  243000   0.89265271   -6.6243543    76.723683  0.026311277  0.027589152            5 
  244000   0.85520115   -6.6735556    77.009991  0.026301226  0.027514808            7 
  245000   0.87363422   -6.6510818    77.102898  0.026225476  0.027440971            9 
  246000   0.87861485   -6.6337015    77.088112  0.026113859  0.027366596           13 
  247000   0.86591471   -6.6675874    77.243147  0.026060441  0.027292868           16 
  248000   0.87055083   -6.6817709    77.515056  0.026046726  0.027220136           10 
  249000   0.86976404   -6.6755581    77.622114   0.02597795  0.027148949           20 
  250000    0.8699069   -6.6796115    77.907695  0.025969232  0.027077234           11 
  251000   0.85651823   -6.6688525    78.074614  0.025921187  0.027006494            5 
  252000   0.87230176   -6.6414947    78.071605   0.02581733  0.026935732            9 
  253000   0.86615374   -6.6686419    78.125733  0.025733113  0.026863654            4 
  254000   0.85512179   -6.7102247    78.003346  0.025591649   0.02679097           13 
  255000   0.86688776   -6.6790997    78.293304  0.025586047  0.026718649            9 
  256000   0.85474136   -6.6899727    78.492643   0.02555099   0.02664653           17 
  257000   0.84911599    -6.692378    78.832669  0.025561825  0.026574804           14 
  258000    0.8653284   -6.6774671    78.830068  0.025461908  0.026504164            8 
  259000    0.8436079   -6.7089212    78.967204  0.025407723  0.026434215           11 
  260000   0.84588221   -6.6602514    79.104623  0.025354046  0.026363736            4 
  261000   0.84030023    -6.693212    79.169315  0.025277559  0.026292843           14 
  262000    0.8366589   -6.6846628    79.344256  0.025236723  0.026222209            9 
  263000   0.83539857   -6.7105646    79.160383  0.025082504  0.026151996           16 
  264000   0.85048713   -6.7090596    79.435787  0.025074428  0.026081122           12 
  265000   0.83466374   -6.7549142    79.455746  0.024986084  0.026009564           16 
  266000   0.85067157   -6.7216207     79.70002  0.024968678  0.025938327           14 
  267000    0.8552118    -6.695144    79.798001  0.024905743  0.025867328            6 
  268000   0.84223413   -6.7189046     79.89578  0.024843215  0.025795689            6 
  269000   0.84152466   -6.7513639    79.617216  0.024664565  0.025724547            7 
  270000   0.83123024   -6.7393348     79.79475  0.024628009  0.025652994           11 
  271000   0.83880945   -6.7466519    79.915746  0.024574337  0.025581201            7 
  272000   0.83411357   -6.7334405    80.098173  0.024539882   0.02550989           14 
  273000   0.82275873   -6.7535581    80.322064  0.024518334  0.025439332            9 
  274000   0.83169564   -6.7576634    80.602332  0.024514091   0.02536896           14 
  275000   0.83636629   -6.7614069    80.699958  0.024454533  0.025298894           11 
  276000   0.83247955   -6.7619554    80.468473  0.024296037  0.025228489           12 
  277000   0.81411942   -6.7437188    80.860423   0.02432624  0.025157872           18 
  278000   0.82833242   -6.7975785    81.026156  0.024288416  0.025088665           16 
  279000   0.83608206   -6.7135675    81.112711  0.024227214  0.025019731           12 
  280000   0.81617683   -6.7474302    81.305155  0.024197963  0.024951025           18 
  281000   0.82797538   -6.7700232    80.986341  0.024017302  0.024882493           12 
  282000   0.82277131   -6.7618509    81.546513  0.024097669  0.024813873            8 
  283000   0.82219979   -6.7711027    81.559561  0.024016361  0.024745897           10 
  284000   0.81194947   -6.7894686     81.47694  0.023907553  0.024678393            7 
  285000   0.82478822   -6.7828496    81.628005  0.023867838  0.024610789            9 
  286000   0.80446498   -6.7729588    81.674674  0.023797982  0.024542147           20 
  287000   0.80071083   -6.8030684    81.850073  0.023765991  0.024474005            8 
  288000   0.80554545   -6.8087849    81.694154  0.023638355  0.024405748            7 
  289000   0.80386981   -6.7917906    81.651286    0.0235442  0.024336894           15 
  290000   0.80748675   -6.8069609    81.985074  0.023558929  0.024268104            9 
  291000   0.80646261   -6.8186436    82.055645   0.02349818   0.02419979            7 
  292000   0.81717664   -6.7843887    82.197509  0.023458193  0.024131808           11 
  293000   0.78014411   -6.8148423    82.159575  0.023367342  0.024063847            6 
  294000   0.80065381   -6.8325457    82.133111   0.02328036  0.023995588           17 
  295000   0.79854535   -6.7958379    82.439021  0.023287859  0.023926908           11 
  296000   0.79380276    -6.811426     82.43727  0.023208691  0.023858758            7 
  297000   0.79631794   -6.8108588    82.530342  0.023156662  0.023791356           28 
  298000   0.79308879   -6.8316866    82.489492  0.023067531  0.023723968           13 
  299000   0.79103187   -6.8540905    82.761769  0.023066268  0.023657181           27 
  300000   0.78344798   -6.8224818    82.666163  0.022962823  0.023590635           39 
  301000   0.79260908   -6.8497504    82.867712  0.022942334  0.023524079           20 
  302000   0.78673633   -6.8287161    83.116554  0.022935031   0.02345845           15 
  303000   0.77622781   -6.8196181    83.232001  0.022891089  0.023393762           27 
  304000   0.79489509   -6.8161513    83.325247   0.02284135  0.023328774           15 
  305000   0.77601429   -6.8557516    83.144499  0.022717076  0.023263065           11 
  306000   0.77627478    -6.858669    82.876151  0.022569758  0.023196983           27 
  307000     0.778325   -6.8440319    83.262645  0.022601152  0.023130965           18 
  308000   0.77118938   -6.8531224    83.310718  0.022540779   0.02306509           27 
  309000   0.79192839   -6.8476377    83.414594  0.022495845   0.02299976           29 
  310000   0.77377047   -6.8839705    83.587991   0.02246989  0.022934639           34 
  311000   0.78301724   -6.8673726     83.75889  0.022443432  0.022869798           39 
  312000   0.76952041   -6.8713722     83.60029  0.022329137  0.022805607           14 
  313000   0.75771167   -6.8637593    83.636207  0.022267361  0.022741377           23 
  314000   0.77683387   -6.8608915     83.93845  0.022276659  0.022676959           10 
  315000   0.77186007   -6.8569041    83.662393  0.022132908  0.022612542           20 
  316000   0.76416453   -6.9015485    83.969427  0.022143836  0.022548271            9 
  317000   0.76092312   -6.8955345    84.088321  0.022105237  0.022484615            6 
  318000   0.76384622   -6.8793649    84.118127  0.022043534  0.022421107           22 
  319000    0.7598035   -6.8569596    84.291011  0.022019595  0.022357973           21 
  320000   0.75707785   -6.8960997    84.282213  0.021948493  0.022294782           27 
  321000   0.77705089    -6.912702    84.422101  0.021916433  0.022231792           34 
  322000    0.7568792   -6.9303614    84.357179  0.021831568  0.022168898           23 
  323000   0.75815803   -6.9270346    84.439175  0.021785133  0.022106216           20 
  324000    0.7510036   -6.9084215    84.666049  0.021776247  0.022043517           13 
  325000   0.73831711   -6.8923326    84.504815  0.021667901  0.021981135           12 
  326000   0.75666364   -6.9436706    84.566684   0.02161725  0.021918616           31 
  327000    0.7613273   -6.9254052    84.462487  0.021524589  0.021855994           20 
  328000   0.74189656   -6.9106442    84.455799  0.021457266  0.021793224           36 
  329000   0.74410699   -6.9374474    84.509027  0.021405529  0.021730325           28 
  330000   0.73672535   -6.9314209    84.748756  0.021401201  0.021668074           16 
  331000   0.74950434   -6.9123903    84.786806  0.021346124  0.021606313           13 
  332000   0.74680091   -6.9083983    84.830971  0.021292914  0.021544687           15 
  333000   0.75826698   -6.9593713    84.931985  0.021254251  0.021482522           34 
  334000    0.7263422   -6.9329112    84.821734  0.021163107  0.021420737           36 
  335000   0.74696494   -6.9396487    84.961549  0.021134714  0.021359456           31 
  336000   0.74189775   -6.9321206    85.077732  0.021100628  0.021298351           46 
  337000   0.73660007   -6.9223822    85.134087   0.02105195  0.021237162           41 
  338000   0.71669808   -6.9332983    85.012773  0.020959757  0.021175889           21 
  339000   0.72153841    -6.961357    85.276867  0.020962848   0.02111471           29 
  340000   0.71637652   -6.9552884    85.462694  0.020946739  0.021053938           27 
  341000   0.71967406   -6.9442593     85.26969  0.020838145  0.020993521           21 
  342000   0.72701535   -6.9646868    85.454695  0.020822294  0.020933392           31 
  343000   0.74164481   -6.9461638    85.527183  0.020779199  0.020873532           18 
  344000    0.7302154   -6.9683553    85.477797  0.020706831  0.020813981           26 
  345000   0.71229361   -6.9824987    85.251913   0.02059225  0.020754096           20 
  346000    0.7151508   -6.9642948     85.60039  0.020616664  0.020694326           18 
  347000   0.71185295    -7.002051      85.6552  0.020570413  0.020634818           25 
  348000   0.71236998   -6.9991496    85.488621  0.020471413  0.020575245           34 
  349000    0.7030131   -7.0011045    85.748105  0.020474715  0.020515907           24 
  350000   0.71687099   -6.9906484    85.706109  0.020406216  0.020456647           60 
  351000   0.71951001   -6.9791109    85.586112   0.02031959  0.020397323           28 
  352000   0.71083759   -7.0067084    85.622423   0.02027046  0.020338171           33 
  353000   0.70728651   -6.9831345    85.685483  0.020227923  0.020279374           18 
  354000   0.70510025   -6.9733547    85.879669  0.020216495  0.020220977           41 
  355000     0.705082     -6.97987    85.742769   0.02012741  0.020162229           51 
  356000   0.71991318   -6.9919389    86.079853  0.020149778   0.02010399           54 
  357000   0.69820617    -7.013498    86.110715   0.02010054  0.020046477          116 
  358000   0.69593743   -6.9862845    85.788823  0.019969465  0.019988458           75 
  359000   0.67480418   -7.0225121    85.936202  0.019948051  0.019930362           52 
  360000   0.70029963   -7.0107383    85.978001  0.019902315  0.019872535           63 
  361000   0.69181515   -7.0436898    85.985956   0.01984902  0.019814845           86 
  362000   0.69791079   -7.0548677    85.980592  0.019792954  0.019757389          151 
  363000   0.69774138   -7.0144958    86.100544  0.019765965  0.019700111           66 
  364000   0.69450191   -7.0296203    86.110094  0.019713849  0.019642719          113 
  365000   0.67501654   -7.0286929     86.21985  0.019684897  0.019585687           91 
  366000   0.68901588   -7.0527939    86.077805  0.019598772  0.019528822           94 
  367000   0.68804115   -7.0529756    86.084744  0.019546945  0.019471986           88 
  368000    0.6611979   -7.0335292    86.259023  0.019533293  0.019415425           64 
  369000   0.67282489   -7.0697166    86.096777  0.019443717   0.01935866          102 
  370000   0.67337837   -7.0621458    86.211396  0.019416981  0.019301995           98 
  371000   0.68035029    -7.091781    85.953882  0.019306802  0.019245164           86 
  372000   0.66950871   -7.0754261    86.122676  0.019292714  0.019188312           30 
  373000   0.67324308   -7.0686253    86.328986  0.019287083  0.019131862           52 
  374000   0.68260821   -7.0699982     86.11994  0.019188935  0.019075345           57 
  375000   0.66273298   -7.0691382    86.205594  0.019156799   0.01901904          104 
  376000   0.67851569   -7.0744741    86.208249  0.019106438  0.018962916           86 
  377000   0.67376075   -7.0854214    86.262915  0.019067841  0.018906772          166 
  378000   0.67196593   -7.0797245    86.118504  0.018985561  0.018850537          108 
  379000   0.68199883   -7.0781897    86.295558  0.018974397  0.018794529          159 
  380000    0.6648522   -7.1088317    86.198612  0.018903204  0.018738599          183 
  381000   0.66517023   -7.1157571    86.212491  0.018856625  0.018682796          268 
  382000   0.65893608   -7.1036692    86.279503  0.018821881  0.018627046          247 
  383000   0.64307959   -7.1158825    86.332903  0.018784357  0.018571625          268 
  384000   0.65329909   -7.1350555    86.334212  0.018735723  0.018516177          309 
  385000   0.65102009   -7.1016254    86.342624   0.01868888  0.018460806          102 
  386000   0.64189828   -7.1464954      86.3559  0.018643329  0.018405657          260 
  387000   0.66372001   -7.1224519    86.375603  0.018599398  0.018350521          304 
  388000   0.65476459   -7.1382746    86.063485  0.018484425  0.018295411          283 
  389000   0.64602703   -7.1135877    86.363321   0.01850114  0.018240648          188 
  390000   0.64685225   -7.1400259    86.454398  0.018473162  0.018185857          348 
  391000   0.64524077   -7.1488757     86.22802  0.018377668  0.018131119          334 
  392000   0.63790131   -7.1574277    86.290586  0.018344087  0.018076504          366 
  393000   0.63550418   -7.1434328     86.17729  0.018273386  0.018021979          142 
  394000   0.64795349   -7.1634589    86.179182  0.018227407  0.017967386          409 
  395000   0.64634114   -7.1702833    86.332239  0.018213553  0.017913043          233 
  396000   0.63398561   -7.1535885    86.342922  0.018169807  0.017858827          366 
  397000   0.63778051   -7.1675268    86.352779  0.018126108  0.017804674          312 
  398000   0.64075731   -7.1760151    86.257031  0.018060517  0.017750493          284 
  399000   0.62198519   -7.1635544    86.563323  0.018079224  0.017696789          376 
  400000   0.62350718   -7.1918658    86.283937   0.01797582  0.017643135          401 
  401000   0.61844871   -7.1648834    86.273615  0.017928848  0.017589612          504 
  402000   0.62173595   -7.1766637    86.490802  0.017929271  0.017536367          420 
  403000   0.62800222   -7.1793163    86.151618  0.017814644   0.01748302          490 
  404000   0.62788406   -7.1818977    86.171206  0.017774589  0.017429893          444 
  405000    0.6196526   -7.1750918    86.241853  0.017745237  0.017376766          463 
  406000   0.60790336   -7.2141969    86.325314   0.01771866   0.01732379          483 
  407000   0.62551568   -7.1970563    86.345966  0.017679354  0.017270934          445 
  408000   0.61252576   -7.2023098    86.330427  0.017632849  0.017218193          483 
  409000   0.61158556   -7.1951553    86.200403  0.017563244  0.017165541          553 
  410000   0.61023484   -7.2094956    86.190435  0.017518381  0.017113017          478 
  411000   0.61701148   -7.2063331    86.151449  0.017467853  0.017060543          351 
  412000   0.62055927    -7.218191    86.272892  0.017450018   0.01700818          378 
  413000   0.61651341   -7.2110211    86.292407  0.017411704  0.016955938          324 
  414000   0.60577585    -7.213489     86.24989  0.017361089  0.016903988          528 
  415000   0.61962649   -7.2246148     86.26764  0.017322819  0.016851906          569 
  416000   0.59420102    -7.223596    86.226248  0.017272886  0.016800163          563 
  417000   0.59924176   -7.2455845    86.240811  0.017234375  0.016748648          582 
  418000   0.60691132   -7.2543954    85.985357  0.017142216  0.016697167          331 
  419000   0.60805904   -7.2389821    86.355431  0.017174907  0.016645859          745 
  420000    0.5999045   -7.2288656    86.005315  0.017064547   0.01659463          666 
  421000   0.58899006   -7.2362108    86.124457  0.017047596  0.016543396          742 
  422000   0.59012694   -7.2604122     86.17799   0.01701777  0.016492285          712 
  423000   0.58851163   -7.2464045    86.130977  0.016968278   0.01644124          645 
  424000   0.58420726   -7.2508593    86.058527  0.016914019  0.016390402          747 
  425000   0.59588606   -7.2792014     86.19528  0.016901035  0.016339606          786 
  426000   0.58564141   -7.2916865    86.139762  0.016850501  0.016289074          735 
  427000   0.58740351   -7.2668392    86.003298  0.016784406  0.016238679          687 
  428000   0.59019518   -7.2776081    86.082405  0.016760593  0.016188409          684 
  429000   0.57831361   -7.2698356    86.087611  0.016722535  0.016138274          775 
  430000   0.57571257   -7.2620069    86.026248  0.016671753  0.016088288          780 
  431000   0.58788137    -7.269058    86.000186  0.016628033  0.016038392          781 
  432000   0.57585633   -7.2703992    85.949007   0.01657967  0.015988698          742 
  433000   0.57972729   -7.2882608    86.017334  0.016554529  0.015938959          801 
  434000    0.5785211   -7.2827379    85.993788  0.016511864  0.015889323          875 
  435000   0.57424164   -7.2895274    85.970528   0.01646945   0.01584002          797 
  436000    0.5580388    -7.314279    85.925986  0.016423162  0.015790727          887 
  437000   0.56895607   -7.2922533    85.959874  0.016392043  0.015741511          862 
  438000   0.55767557   -7.2823117     85.95104  0.016352938  0.015692511          911 
  439000   0.56884546   -7.2941167    85.781567  0.016283517  0.015643721          821 
  440000   0.57549869   -7.3077823    85.884748  0.016266051  0.015595112          868 
  441000   0.56398422   -7.2962479    85.974595  0.016246144  0.015546668          855 
  442000   0.56625926   -7.3054576    85.942024  0.016203247  0.015498441          851 
  443000   0.56306897   -7.3114218    86.082365  0.016193071  0.015450257          885 
  444000   0.56435827   -7.3235499    86.118818  0.016163442  0.015402291          965 
  445000   0.56931334   -7.3147722    85.847581  0.016076326  0.015354458         1030 
  446000   0.55606279   -7.3195346    85.818271  0.016034804  0.015306767          976 
  447000   0.55427135   -7.3263622    85.859574  0.016006632  0.015259214          991 
  448000   0.55441888   -7.3200154    85.956847  0.015988997  0.015211811          998 
  449000   0.53443652   -7.3344475    85.922551  0.015947021  0.015164601         1042 
  450000   0.54267473    -7.326586    85.911467  0.015909531  0.015117448          948 
  451000   0.54421041   -7.3319317    85.801472   0.01585393  0.015070494         1049 
  452000   0.54417104   -7.3403647    85.853409  0.015828431  0.015023789         1083 
  453000   0.56017111   -7.3586825     85.81551  0.015786518  0.014977027         1105 
  454000   0.54300199   -7.3523476    85.866338  0.015761075   0.01493035         1150 
  455000   0.53378449    -7.331751    85.715683  0.015698843  0.014883863         1126 
  456000   0.53776782   -7.3419278    85.816297  0.015682803  0.014837411         1112 
  457000   0.52914984   -7.3674598    85.849009  0.015654451   0.01479122         1211 
  458000   0.53740888   -7.3417987    85.881642  0.015626208  0.014745227         1143 
  459000   0.54477204   -7.3511916    85.885518  0.015592868  0.014699388         1213 
  460000   0.53874064   -7.3819952    85.798338  0.015543177  0.014653676         1163 
  461000   0.53659577   -7.3785061    85.869042  0.015522242   0.01460808         1191 
  462000   0.53743007   -7.3716624    85.721166  0.015461971  0.014562567         1186 
  463000   0.53198084   -7.3835092    85.607268  0.015408076  0.014517134         1192 
  464000   0.52941232   -7.3680368    85.634069  0.015379682    0.0144719         1180 
  465000   0.52761168   -7.3707111    85.634337  0.015346655  0.014426816         1198 
  466000   0.51531376   -7.3615468    85.634329  0.015313721  0.014381957         1296 
  467000   0.52155932   -7.4068384    85.691619  0.015291153  0.014337247         1331 
  468000   0.52334626   -7.3873915    85.563906  0.015235738  0.014292584         1272 
  469000   0.51025372   -7.3921066    85.701678  0.015227732  0.014248133         1293 
  470000   0.51364765   -7.3852036    85.512079  0.015161716  0.014203835         1294 
  471000   0.51965576   -7.3867751    85.631571  0.015150667  0.014159634         1225 
  472000   0.50029497   -7.3970408    85.694149  0.015129617  0.014115651         1267 
  473000   0.51182748   -7.4055487    85.590687  0.015079402  0.014071895         1290 
  474000   0.51457253    -7.377798    85.657463  0.015059329  0.014028271         1291 
  475000   0.51140263   -7.4065074    85.686907  0.015032791  0.013984865         1375 
  476000   0.51161522   -7.4085814    85.482265  0.014965383  0.013941484         1345 
  477000   0.51220199   -7.4026662    85.488264  0.014935057  0.013898323         1344 
  478000   0.50571857   -7.4098768    85.588226  0.014921239  0.013855168         1320 
  479000   0.49626875   -7.4186032    85.441965  0.014864642  0.013812211         1368 
  480000   0.49234509   -7.4208339     85.58431  0.014858387  0.013769361         1315 
  481000   0.50215054    -7.432736    85.477741  0.014809033  0.013726674         1365 
  482000   0.49608169   -7.4032667    85.524451  0.014786385  0.013684128         1257 
  483000    0.4939924   -7.4280299     85.45249  0.014743356  0.013641859         1295 
  484000   0.49354626    -7.413645    85.428454  0.014708756  0.013599619         1282 
  485000   0.50307618   -7.4458031    85.566266  0.014702107  0.013557555         1316 
  486000   0.50786203   -7.4272934    85.482586  0.014657508  0.013515615         1332 
  487000   0.50222907   -7.4285241    85.458788  0.014623338  0.013473907         1249 
  488000   0.48785761   -7.4517251    85.492668  0.014599158  0.013432206         1348 
  489000   0.48528543   -7.4443339    85.450081  0.014562045    0.0133907         1357 
  490000   0.48866983   -7.4224949    85.232014   0.01449524   0.01334929         1323 
  491000   0.48290248   -7.4426532    85.408028  0.014495592  0.013308113         1318 
  492000   0.47445791   -7.4509239    85.419562  0.014468083  0.013266971         1370 
  493000   0.47786655   -7.4561689    85.352118  0.014427336  0.013225992         1348 
  494000   0.48676196   -7.4486644    85.335973  0.014395407  0.013185223         1346 
  495000   0.48213353   -7.4447921    85.307426  0.014361519  0.013144584         1332 
  496000   0.47375555   -7.4461168    85.258948   0.01432442   0.01310403         1318 
  497000   0.45972675   -7.4447267    85.265719  0.014296734  0.013063677         1345 
  498000   0.49303711   -7.4714889    85.219952  0.014260367  0.013023505         1391 
  499000   0.46326722   -7.4526231    85.486242   0.01427626  0.012983448         1367 
  500000   0.47636712   -7.4688207    85.318177  0.014219696  0.012943556         1319 
  501000   0.46518448    -7.445594    85.223304  0.014175533  0.012903763         1341 
  502000   0.47563916   -7.4612503    85.240288  0.014150114  0.012864152         1335 
  503000   0.46166904   -7.4738551    85.273847  0.014127542  0.012824717         1323 
  504000   0.47034943   -7.4805763    85.321399  0.014107374  0.012785391         1347 
  505000   0.45346518   -7.4755842    85.346435   0.01408357  0.012746212         1364 
  506000   0.46338652   -7.4863261     85.29857  0.014047854  0.012707215         1259 
  507000   0.45540239   -7.4866646    85.260893  0.014013953  0.012668342         1373 
  508000    0.4592111   -7.4808562    85.342675  0.013999783  0.012629661         1266 
  509000   0.45978208   -7.4671637    85.155761  0.013941677   0.01259103         1334 
  510000   0.44586922   -7.4741544    85.132551  0.013910548  0.012552548         1429 
  511000   0.45281701   -7.4725155    85.298827  0.013910441  0.012514199         1474 
  512000   0.43725625   -7.4891262    85.096253  0.013850302  0.012476013         1377 
Loop time of 1080.31 on 48 procs for 500000 steps with 4000 atoms

Performance: 79976.757 tau/day, 462.828 timesteps/s
99.4% CPU use with 48 MPI tasks x no OpenMP threads

MPI task timing breakdown:
Section |  min time  |  avg time  |  max time  |%varavg| %total
---------------------------------------------------------------
Pair    | 64.384     | 69.305     | 76.298     |  34.6 |  6.42
Neigh   | 6.5638     | 6.7522     | 7.0167     |   3.5 |  0.63
Comm    | 58.881     | 65.787     | 73.098     |  42.9 |  6.09
Output  | 0.89715    | 0.89772    | 0.90729    |   0.1 |  0.08
Modify  | 916.02     | 923.6      | 932.82     |  13.3 | 85.49
Other   |            | 13.97      |            |       |  1.29

Nlocal:        83.3333 ave          93 max          76 min
Histogram: 2 4 8 7 10 9 2 5 0 1
Nghost:        1749.58 ave        1769 max        1724 min
Histogram: 2 1 3 5 5 8 11 5 5 3
Neighs:        10592.2 ave       12063 max        9687 min
Histogram: 3 5 11 10 5 7 5 1 0 1
FullNghs:      21185.2 ave       23924 max       19205 min
Histogram: 3 3 7 12 10 4 5 2 1 1

Total # of neighbors = 1016888
Ave neighs/atom = 254.22200
Neighbor list builds = 27011
Dangerous builds = 0

#clear
#
#next RN
#
#jump SELF
Total wall time: 0:18:03
