
units lj                  # Use reduced LJ style units
atom_style atomic         # Uncharged point particles
atom_modify map hash      # Needed for indexing of clusters etc
                          # Used to be able to find where atoms are in relation to each other.

lattice fcc 1.0 spacing 1 1 1
Lattice spacing in x,y,z = 1.5874011 1.5874011 1.5874011
region box block 0 10 0 10 0 10 units lattice
create_box 2 box
Created orthogonal box = (0.0000000 0.0000000 0.0000000) to (15.874011 15.874011 15.874011)
  3 by 4 by 4 MPI processor grid
create_atoms 1 box
Created 4000 atoms
  using lattice units in orthogonal box = (0.0000000 0.0000000 0.0000000) to (15.874011 15.874011 15.874011)
  create_atoms CPU = 0.014 seconds
set type 1 type/fraction 2 0.79 78393
Setting atom values ...
  3145 settings made for type/fraction
mass 1 1.0
mass 2 1.0
pair_style lj/cut  3.5
pair_modify tail  yes
pair_coeff 1  1  1.0  1.0   # Intearaction between 1 and 1 set with epsilon = 1 and sigma = 1
pair_coeff 1  2  1.5  0.8
pair_coeff 2  2  0.5  0.88

write_data data.0
System init for write_data ...
Neighbor list info ...
  update every 1 steps, delay 10 steps, check yes
  max neighbors/atom: 2000, page size: 100000
  master list distance cutoff = 3.8
  ghost atom cutoff = 3.8
  binsize = 1.9, bins = 9 9 9
  1 neighbor lists, perpetual/occasional/extra = 1 0 0
  (1) pair lj/cut, perpetual
      attributes: half, newton on
      pair build: half/bin/atomonly/newton
      stencil: half/bin/3d
      bin: standard
WARNING: Not all mixed pair coeffs generated from mixing. Use write_data with 'pair ij' option to store all pair coeffs. (../write_data.cpp:312)


#############################
#   M E L T   S Y S T E M   #
#############################

velocity all create 2.4 5833274 mom yes dist gaussian # Assign velocities
                                                    # Temperature 2.4, random number seed, zero linear momentum
                                                                                # Gaussian distribution

timestep 0.002   # simulation timestep
thermo 1000       # output thermodynamic data every 1000 steps bf 100

# Define a fix  in this case with index 1 applied to all
# particles in the simulation. This fix is for simulations
# in the anisotropic NPT ensemble. Note that we use the MTK
# correction.
fix 1 all npt temp 2.4 2.4 0.1 iso 5.68 5.68 0.5 mtk yes tchain 5 pchain 5 # Use NPT ensemble
                                                                         # Set temperature and pressure and damping
                                                                         # Numbers of thermostats in chain and in barostat
run 10000          # run for 10000 steps
Per MPI rank memory allocation (min/avg/max) = 3.642 | 3.644 | 3.648 Mbytes
Step Temp E_pair E_mol TotEng Press Volume 
       0          2.4   -3.7530074            0  -0.15390738    -3.337815         4000 
    1000    2.3961331   -3.1645739            0   0.42872719    5.7982762    3744.7873 
    2000    2.3870915   -3.1221207            0   0.45762136    5.9002491    3769.4829 
    3000    2.4206917    -3.135721            0   0.49440889    5.9190989    3773.5919 
    4000    2.3663888   -3.1010113            0   0.44768455     5.852969    3790.4172 
    5000    2.4361896   -3.1600444            0   0.49332647    5.8901238    3750.8293 
    6000    2.4284119   -3.1807447            0   0.46096256    5.5560052    3758.7457 
    7000    2.3875655   -3.1350755            0   0.44537738    5.8811745    3758.9317 
    8000    2.4095987   -3.1771935            0     0.436301     5.403712    3782.8005 
    9000    2.4044876   -3.1591755            0   0.44665415    5.7539346    3772.4857 
   10000    2.4413604   -3.1530182            0   0.50810695    5.8868232    3747.1973 
Loop time of 2.67542 on 48 procs for 10000 steps with 4000 atoms

Performance: 645878.844 tau/day, 3737.725 timesteps/s
99.6% CPU use with 48 MPI tasks x no OpenMP threads

MPI task timing breakdown:
Section |  min time  |  avg time  |  max time  |%varavg| %total
---------------------------------------------------------------
Pair    | 1.1189     | 1.2271     | 1.4119     |   5.0 | 45.87
Neigh   | 0.21088    | 0.22114    | 0.25606    |   1.8 |  8.27
Comm    | 0.7663     | 0.92412    | 1.0568     |   7.3 | 34.54
Output  | 0.00024444 | 0.00025039 | 0.00031964 |   0.0 |  0.01
Modify  | 0.22473    | 0.28728    | 0.35556    |   7.7 | 10.74
Other   |            | 0.01554    |            |       |  0.58

Nlocal:        83.3333 ave          93 max          72 min
Histogram: 1 2 4 9 6 7 6 4 5 4
Nghost:        1711.58 ave        1738 max        1681 min
Histogram: 1 6 3 2 10 6 9 3 4 4
Neighs:        10195.5 ave       11701 max        8585 min
Histogram: 3 0 6 6 9 8 5 3 6 2

Total # of neighbors = 489385
Ave neighs/atom = 122.34625
Neighbor list builds = 904
Dangerous builds = 205

# Equilibrate just above the melting temperature to avoid step fn in T

fix 1 all npt temp 1.25 1.25 0.1 iso 5.68 5.68 0.5 mtk yes tchain 5 pchain 5
run 2000
Per MPI rank memory allocation (min/avg/max) = 3.644 | 3.646 | 3.649 Mbytes
Step Temp E_pair E_mol TotEng Press Volume 
   10000    2.4413604   -3.1530182            0   0.50810695    5.8868232    3747.1973 
   11000    1.2393267   -4.6752098            0   -2.8166844    5.6210468    2885.8785 
   12000     1.245314   -4.6593884            0   -2.7918844    5.5429826    2893.7755 
Loop time of 0.686927 on 48 procs for 2000 steps with 4000 atoms

Performance: 503110.571 tau/day, 2911.520 timesteps/s
99.5% CPU use with 48 MPI tasks x no OpenMP threads

MPI task timing breakdown:
Section |  min time  |  avg time  |  max time  |%varavg| %total
---------------------------------------------------------------
Pair    | 0.28522    | 0.3132     | 0.34652    |   2.6 | 45.59
Neigh   | 0.040017   | 0.043216   | 0.046687   |   0.8 |  6.29
Comm    | 0.19909    | 0.23563    | 0.27769    |   3.5 | 34.30
Output  | 5.1959e-05 | 5.3372e-05 | 6.9358e-05 |   0.0 |  0.01
Modify  | 0.049006   | 0.089904   | 0.095214   |   2.2 | 13.09
Other   |            | 0.004926   |            |       |  0.72

Nlocal:        83.3333 ave          93 max          75 min
Histogram: 1 1 9 5 7 14 8 2 0 1
Nghost:        2051.98 ave        2075 max        2038 min
Histogram: 9 5 5 8 8 2 5 2 3 1
Neighs:        13204.4 ave       15053 max       11905 min
Histogram: 4 7 8 6 4 7 5 5 1 1

Total # of neighbors = 633813
Ave neighs/atom = 158.45325
Neighbor list builds = 143
Dangerous builds = 12

#############################
# L I N E A R  Q U E N C H  #
#############################

# Define solid atoms. This closely follows ten Wolde  Ruiz-Montero and Frenkel  Faraday Discuss  1996  104  93-110
# Compute components of the per-atom q6 vector
compute q6 all orientorder/atom degrees 1 6 components 6 nnn NULL cutoff 1.3 # compute the Q6 parameter.
                                                                             # Use all neighbours within 1.3 unit cell.

# get number of connections
compute coord_number all coord/atom orientorder q6 0.5

# An atom is solid if it has 8 or more connections (of a possible 14)
variable is_solid atom c_coord_number>=8
group solid dynamic all var is_solid    # Must be dynamic to update
dynamic group solid defined

# do clustering
compute cluster solid cluster/atom 1.3 # Create a cluster where all atoms within are solid and max 1.3 units from another member

# define chunks one chunk per cluster
compute clus_chunks solid chunk/atom c_cluster nchunk every compress yes  # Says which atoms are in which chunk

# count the size of each chunk
compute size_chunks solid property/chunk clus_chunks count


# Find the maximum entry in the vector of chunk sizes
variable max_n equal max(c_size_chunks)


# Thermo style which includes this variable
# thermo_style custom step temp pe vol v_max_n

thermo ${N}  # Print the thermo information every 100 steps
thermo 1000  

# Reset the npt fix at a lower temperature (below freezing)
fix 1  all npt temp  ${temp} ${temp}  0.1  iso  5.68  5.68  0.5  mtk yes tchain  5  pchain  5
fix 1  all npt temp  0.45 ${temp}  0.1  iso  5.68  5.68  0.5  mtk yes tchain  5  pchain  5
fix 1  all npt temp  0.45 0.45  0.1  iso  5.68  5.68  0.5  mtk yes tchain  5  pchain  5

dump dmp2 all dcd ${N} traj.dcd
dump dmp2 all dcd 1000 traj.dcd


compute msd all msd com yes
variable twopoint equal c_msd[4]/6/(step*dt+1.0e-6)
fix 9 all vector 10 c_msd[4]
variable fit equal slope(f_9)/6/(10*dt)
thermo_style custom step temp pe c_msd[4] v_twopoint v_fit v_max_n

fix 1 all npt temp 1.25 ${temp} 0.1 iso 5.68 5.68 0.5 mtk yes tchain 5 pchain 5
fix 1 all npt temp 1.25 0.45 0.1 iso 5.68 5.68 0.5 mtk yes tchain 5 pchain 5
run 500000 # 5000000  # Run for this many steps
Neighbor list info ...
  update every 1 steps, delay 10 steps, check yes
  max neighbors/atom: 2000, page size: 100000
  master list distance cutoff = 3.8
  ghost atom cutoff = 3.8
  binsize = 1.9, bins = 8 8 8
  4 neighbor lists, perpetual/occasional/extra = 1 3 0
  (1) pair lj/cut, perpetual
      attributes: half, newton on
      pair build: half/bin/atomonly/newton
      stencil: half/bin/3d
      bin: standard
  (2) compute orientorder/atom, occasional
      attributes: full, newton on
      pair build: full/bin/atomonly
      stencil: full/bin/3d
      bin: standard
  (3) compute coord/atom, occasional
      attributes: full, newton on
      pair build: full/bin/atomonly
      stencil: full/bin/3d
      bin: standard
  (4) compute cluster/atom, occasional
      attributes: full, newton on
      pair build: full/bin/atomonly
      stencil: full/bin/3d
      bin: standard
Per MPI rank memory allocation (min/avg/max) = 9.836 | 9.844 | 9.848 Mbytes
Step Temp PotEng c_msd[4] v_twopoint v_fit v_max_n 
   12000     1.245314   -4.6593884 2.0039039e-30 1.3915999e-32 8.3333333e+20            1 
   13000    1.2403649     -4.69163   0.73920785 0.0047385117  0.062125458            2 
   14000    1.2374713   -4.6605534    1.4948119 0.0088976897  0.062284986            2 
   15000    1.2637557    -4.672822    2.2539566  0.012521981  0.061853233            1 
   16000    1.2079888   -4.6545005    2.9993298  0.015621509  0.062293523            2 
   17000    1.2375489   -4.6608854     3.773702  0.018498539  0.062721089            2 
   18000    1.2764789   -4.6804896    4.5464219  0.021048249  0.063143838            3 
   19000    1.2130949   -4.7140108    5.4175736  0.023761287  0.063594338            1 
   20000    1.2436252   -4.6896357     6.196406  0.025818358  0.064372124            2 
   21000    1.2202574   -4.6418069    6.9795077  0.027696458  0.064827911            1 
   22000    1.2361222   -4.7107921    7.7033935   0.02917952  0.064974116            2 
   23000    1.2133289   -4.6697118    8.4339779   0.03055789  0.064905342            2 
   24000     1.244073   -4.7008148    9.0392863   0.03138641  0.064369737            2 
   25000    1.2474888   -4.7050881    9.8317047  0.032772349  0.063887933            2 
   26000    1.2146611   -4.7001679    10.481662  0.033595069  0.063482464            1 
   27000    1.2405937   -4.7453699    11.215698   0.03461635  0.063026326            3 
   28000    1.1893455   -4.7178187    11.979298  0.035652671  0.062745392            2 
   29000    1.2143764   -4.7425784    12.812487   0.03681749  0.062622823            2 
   30000    1.2298547   -4.7118675    13.599425   0.03777618  0.062674681            3 
   31000    1.2401101   -4.7148374    14.402564  0.038716569  0.062726047            2 
   32000    1.2134502   -4.7049685    15.147643  0.039446987    0.0628029            1 
   33000    1.2055361   -4.7067689    15.964014  0.040313166  0.062869139            2 
   34000    1.2152711   -4.7041542    16.709694  0.040955133  0.062961101            2 
   35000    1.2215934   -4.7036787    17.559201   0.04180762  0.063008374            2 
   36000    1.2161945   -4.7219526    18.148852  0.042011231  0.063049649            1 
   37000    1.2021255   -4.7099173    18.801878  0.042346571  0.062946889            2 
   38000    1.2560529   -4.7233442    19.493769  0.042749494  0.062837178            3 
   39000    1.2121366   -4.7325153    20.225633  0.043217164  0.062703804            5 
   40000    1.1729667    -4.763594    20.943233  0.043631734  0.062619729            2 
   41000    1.1955917   -4.7464528    21.792999  0.044294712  0.062571999            4 
   42000    1.1929859   -4.7566923    22.553711  0.044749426  0.062545021            6 
   43000    1.2030469    -4.731491    23.199763  0.044960781  0.062504869            2 
   44000    1.2082757   -4.7475512    23.839892   0.04515131  0.062393001            2 
   45000    1.1866326   -4.7917832     24.51658  0.045401074  0.062295985            2 
   46000     1.188546   -4.7902914    25.356678  0.045936011  0.062268533            2 
   47000    1.2175051    -4.746299    26.013532  0.046123282  0.062191361            4 
   48000    1.1918002   -4.7572536    26.731663  0.046409137  0.062101761            4 
   49000    1.1959718   -4.8103044    27.356776  0.046525129  0.061999957            2 
   50000     1.212206   -4.7648386    28.345881  0.047243134  0.061943831            3 
   51000    1.1956338   -4.8020482    28.878452  0.047187012  0.061901729            2 
   52000    1.2082938   -4.7978988    29.736117  0.047654034  0.061854001            3 
   53000    1.1821797   -4.7901022    30.377067  0.047762684  0.061795782            2 
   54000    1.1744142   -4.7847468    31.290493  0.048287797  0.061753754            3 
   55000    1.1729371   -4.7989238    31.999976  0.048484812  0.061727422            4 
   56000    1.1777222   -4.7456777    32.931818  0.049005682   0.06173541            2 
   57000    1.1790211    -4.802171     33.36373  0.048777382  0.061715573            2 
   58000    1.1758374   -4.7942351    33.982435  0.048825338  0.061695533            3 
   59000    1.1575508   -4.7638547    34.677679  0.048979773  0.061617764            2 
   60000    1.1662722   -4.7847904    35.441653  0.049224517  0.061525643            3 
   61000    1.1532744   -4.8085424    35.934728  0.049091158  0.061433673            2 
   62000    1.1813272   -4.8169832    36.683517  0.049305802  0.061351262            3 
   63000    1.1640999   -4.8346805    37.434539  0.049516586  0.061265121            1 
   64000    1.1572878   -4.7895103    37.935632  0.049395354  0.061169307            3 
   65000    1.2056857   -4.8279747    38.529461  0.049396744  0.061063916            2 
   66000    1.1539986   -4.8311559    39.204776  0.049500979  0.060972606            2 
   67000    1.1713827   -4.8152785    40.054368  0.049818865  0.060892569            4 
   68000     1.159345   -4.8700324    40.339495  0.049435655   0.06080206            3 
   69000    1.1900214   -4.7797709    41.176627  0.049730225  0.060697793            2 
   70000    1.1728365   -4.8316885    41.597059  0.049520308  0.060560658            4 
   71000    1.1478833   -4.8451284    42.203834  0.049535016  0.060415824            7 
   72000     1.157432   -4.8443783    42.925559  0.049682359  0.060275918            1 
   73000    1.1577105   -4.8407786    43.431569  0.049579417   0.06013298            4 
   74000    1.1648053   -4.8307846    43.956814  0.049500917  0.059980337            3 
   75000    1.1361588   -4.8338638     44.33823  0.049264699  0.059819823            3 
   76000    1.1532357   -4.8125327    45.145739  0.049501906  0.059664893            2 
   77000    1.1746199   -4.8596239    45.627266  0.049380158  0.059503679            3 
   78000    1.1415885   -4.8787991    46.304259  0.049470361  0.059346611            1 
   79000    1.1306653   -4.8307053    47.078257  0.049660609   0.05919286            3 
   80000    1.1446596   -4.8493253    47.810386  0.049802485  0.059049133            2 
   81000    1.1586799   -4.8814071    48.634088   0.05003507  0.058918759            2 
   82000    1.1183901   -4.8771634     49.16758  0.049967053  0.058799435            3 
   83000     1.163504   -4.8146513    50.280715  0.050482645  0.058695212            2 
   84000    1.1204751   -4.8716168    50.195916  0.049797536  0.058582194            3 
   85000    1.1189849   -4.8663707    50.844788  0.049847831  0.058458047            3 
   86000     1.122081   -4.8532003    51.606862  0.050006649   0.05833877            1 
   87000    1.1032427     -4.86461     52.26372  0.050061035  0.058211244            3 
   88000    1.1265549   -4.8672374    52.507966  0.049723453  0.058079112            2 
   89000     1.131519   -4.8781965    53.058176  0.049679939  0.057936264            1 
   90000    1.1147233   -4.8652009    53.823113  0.049836215  0.057789863            2 
   91000    1.1484345   -4.8947195    54.199217  0.049632983   0.05765851            4 
   92000    1.1479071   -4.8604887    55.068521  0.049880906  0.057533366            3 
   93000     1.122789   -4.8911126    55.450014  0.049686393  0.057408541            3 
   94000    1.1267881   -4.9353294    55.930184  0.049583496  0.057279245            6 
   95000    1.1195367   -4.8876531    56.933284  0.049941477  0.057154738            3 
   96000    1.1273437   -4.8801592     57.28774  0.049728941    0.0570336            5 
   97000    1.1205944   -4.8784666    57.662966  0.049538631  0.056903165            4 
   98000    1.1192132   -4.9189383    58.406578  0.049665457  0.056772434            2 
   99000    1.1010749     -4.90444    58.774548  0.049473525  0.056650653            3 
  100000    1.1014819     -4.93113    59.249211  0.049374342  0.056520703            2 
  101000    1.0882825   -4.9004764    59.931803  0.049448682  0.056402162            3 
  102000    1.0884825   -4.9547596    60.484871  0.049415744  0.056279964            3 
  103000    1.1135977   -4.9238122    61.171471  0.049491481  0.056161563            3 
  104000    1.0992356   -4.9452041    61.224651  0.049058214  0.056034522            3 
  105000    1.1082714   -4.9510137    61.764176  0.049019187  0.055899224            3 
  106000    1.1053715   -4.9572047    62.385641  0.049045315  0.055765789            3 
  107000    1.1072956   -4.9163444    62.904484  0.048991031  0.055641424            4 
  108000    1.1074941   -4.9651629    63.670415  0.049128407  0.055517283            3 
  109000    1.0828356   -4.9801112    64.284354  0.049147059  0.055399538            3 
  110000    1.1266499   -4.9448819    64.732719  0.049039938  0.055277328            4 
  111000    1.1055753   -4.9336441     65.43135  0.049122635   0.05515866            2 
  112000    1.0916496   -4.9475858    66.062423  0.049153588  0.055043714            3 
  113000    1.1038374    -4.932706     66.56393  0.049088444  0.054928301            5 
  114000    1.0841673   -4.9495402    66.972895  0.048956794  0.054816061            4 
  115000    1.0630993   -4.9761087    67.622694  0.049001952  0.054713136            2 
  116000    1.0631965    -4.933718    68.526131  0.049228542    0.0546072            2 
  117000    1.0654076   -4.9844192     68.94652  0.049107208  0.054512429            2 
  118000    1.0738063   -4.9416641    69.596802  0.049150284  0.054421502            2 
  119000    1.1007338   -4.9575916    70.196903  0.049157495  0.054323617            3 
  120000    1.0617799    -4.982017    70.424821  0.048906125   0.05422959            3 
  121000    1.0572902   -4.9412807    71.274716   0.04908727  0.054134103            1 
  122000    1.0829883   -4.9660125    71.637538  0.048932744  0.054039882            6 
  123000    1.0600203   -4.9370638    72.330684  0.049004528  0.053942872            3 
  124000    1.0628651   -5.0123607    72.289244  0.048581481   0.05384354            5 
  125000    1.0578102   -5.0383091    72.504686  0.048336457  0.053738721            2 
  126000    1.0683079   -4.9705109    74.090969  0.049001963  0.053640931            4 
  127000    1.0810928   -5.0258519    73.693318  0.048355195  0.053543097            4 
  128000    1.0616901   -4.9974189    74.246234  0.048337391  0.053434016            2 
  129000    1.0485095   -4.9767295    74.947118  0.048415451  0.053324193            2 
  130000    1.0697731   -4.9989662    75.122321  0.048155334  0.053211674            1 
  131000    1.0738741   -5.0276368    75.653996  0.048125952  0.053103457            5 
  132000    1.0409888   -5.0325823    76.030945  0.047999334  0.052988869            1 
  133000    1.0491105   -5.0199349    76.960589   0.04822092  0.052882136            3 
  134000    1.0460462   -5.0255884    77.445738  0.048162772  0.052774959            1 
  135000    1.0438333   -5.0468007    78.100123  0.048209952  0.052670748            2 
  136000    1.0468359   -5.0654772    78.215094  0.047925915  0.052567936            4 
  137000    1.0505126   -5.0133773    79.180902  0.048163565  0.052467086            2 
  138000    1.0452695   -5.0179218    79.373041   0.04793058  0.052368712            3 
  139000    1.0599115   -5.0345261    80.134561  0.048042303  0.052267531            3 
  140000    1.0630887   -5.0529653    80.412409  0.047864529  0.052164958            3 
  141000    1.0609843   -5.0392605    80.535227  0.047597652  0.052061971            2 
  142000    1.0234648    -5.104956    80.819885   0.04742951    0.0519532            3 
  143000    1.0588869   -5.0336005    81.292276  0.047373121  0.051838346            2 
  144000    1.0451443   -5.0822796    81.386206  0.047098499  0.051723363            6 
  145000    1.0127729   -5.0706598    82.127945  0.047199968   0.05161099            4 
  146000    1.0304734   -5.0567458    82.953514  0.047347896  0.051499142            3 
  147000    1.0309848   -5.0935226    83.310427  0.047228133  0.051395601            2 
  148000    1.0334309   -5.0897056    83.558657  0.047048793  0.051294598            5 
  149000    1.0255563    -5.049812    84.465381  0.047240146  0.051189324            2 
  150000    1.0419909   -5.0851469    84.500955  0.046944975  0.051086803            3 
  151000    1.0401489   -5.0854387    85.110496  0.046970472  0.050979187            2 
  152000    1.0422905   -5.0919766      85.8419  0.047062445  0.050874129            4 
  153000    1.0389224   -5.0793505    86.135992  0.046915028  0.050771279            2 
  154000    1.0326787   -5.0991352    86.542501  0.046830358  0.050668186            3 
  155000    1.0119682   -5.0751244    87.190131  0.046876415   0.05056553            3 
  156000    1.0131732   -5.0704681    87.755375  0.046877871   0.05046746            2 
  157000    1.0030892   -5.0588134    88.217153  0.046824391  0.050372104            4 
  158000    1.0243585   -5.1299412    88.323461  0.046584104  0.050273451            4 
  159000    1.0298766   -5.0910021    88.856117  0.046570292  0.050173892            2 
  160000     1.011248   -5.0845488     89.38306  0.046553677  0.050073059            2 
  161000    1.0311781   -5.1083884    89.691863   0.04642436  0.049970544            2 
  162000    1.0199437   -5.0721138    90.149328  0.046373111  0.049872192            6 
  163000    1.0168432   -5.1361492     90.47154  0.046253343    0.0497732            7 
  164000    1.0116745   -5.1014976    90.670365   0.04607234  0.049674772            3 
  165000    1.0176075   -5.1215458    90.988384  0.045953729  0.049576678            4 
  166000   0.99552765   -5.1138802    91.247662  0.045807059  0.049472439            4 
  167000   0.99765509     -5.13009    91.606985  0.045712068  0.049365575            4 
  168000    1.0024754   -5.1239994    92.065662  0.045667491  0.049257228            4 
  169000    1.0102025    -5.112251    92.921466  0.045819263   0.04915111            2 
  170000   0.97826549   -5.1230195    93.033067  0.045604445  0.049046802            4 
  171000   0.99491313   -5.1376508    93.253699  0.045445272  0.048941583            4 
  172000   0.98162827   -5.1272969    94.209663  0.045644217  0.048838812            4 
  173000   0.99994604   -5.1522245    94.609046  0.045572758  0.048736672            3 
  174000   0.99758002   -5.1853701    94.871506  0.045436545  0.048638192            3 
  175000   0.98983907    -5.177396    94.936254   0.04520774  0.048537668            4 
  176000   0.97531527   -5.1328343    95.685259   0.04530552  0.048437735            3 
  177000   0.99212501   -5.1885059    95.763662   0.04508647  0.048337418            5 
  178000   0.97044391     -5.17503    96.290301  0.045079729  0.048235071            3 
  179000    1.0051127   -5.1590321     96.73775  0.045036196  0.048130045            3 
  180000   0.98023262   -5.1570985    96.868341  0.044846454  0.048025511            3 
  181000   0.99023524   -5.1894215    97.072974  0.044692898  0.047923399            2 
  182000   0.99094885   -5.1740683    97.441907  0.044616258  0.047817109            4 
  183000   0.96556906   -5.1800078    97.780273  0.044526536   0.04771063            4 
  184000   0.97935789   -5.1937743    97.855714  0.044318711  0.047601437            2 
  185000   0.96649947   -5.2154968    98.072761  0.044176919  0.047489966            2 
  186000   0.94969819   -5.1989038    98.226957  0.044008493  0.047379159            3 
  187000   0.96391402   -5.1769385    99.157376  0.044187779  0.047267925            5 
  188000   0.95815456   -5.1814704    99.504111  0.044106432  0.047156382            5 
  189000   0.96362095   -5.1793187    99.369029  0.043813505   0.04704489            5 
  190000   0.95733826    -5.208255    99.403342  0.043597957  0.046932929            5 
  191000   0.95884117   -5.1892307    100.14847  0.043694794  0.046818026            7 
  192000   0.95528988   -5.2154822    100.19135  0.043485828  0.046703151            3 
  193000   0.96349934   -5.2025278    100.61273  0.043442456   0.04658774            9 
  194000   0.93539412   -5.2417484    101.51049  0.043604161  0.046476629            3 
  195000   0.97229306   -5.2125784    101.53424  0.043390702  0.046365094           16 
  196000   0.93632889   -5.2150093    102.18135   0.04344445  0.046254278            3 
  197000   0.95596885   -5.2486714    102.23188  0.043245298  0.046145283            2 
  198000   0.95899347    -5.208163    102.89758  0.043307064  0.046036709            3 
  199000   0.94326412   -5.2256052    103.28202  0.043250427  0.045931426            3 
  200000   0.97094438   -5.1931995    103.55475  0.043147813  0.045827042            7 
  201000   0.93883262    -5.223371    103.82079  0.043043444  0.045723123            2 
  202000   0.95187934   -5.2585154    104.27214  0.043016557  0.045621728            4 
  203000   0.91589304   -5.2678833    104.65292  0.042960968  0.045519826            3 
  204000   0.93220496    -5.274377    105.34317  0.043032342  0.045420628            3 
  205000   0.94759179   -5.2718155    105.61376  0.042932422  0.045320922            3 
  206000   0.93065227   -5.2690052    105.63405  0.042732222  0.045223107            7 
  207000   0.92300244   -5.2667507    105.97148  0.042661628  0.045123147            6 
  208000   0.95648204    -5.279984    106.02365  0.042477426  0.045021975            4 
  209000   0.93356323   -5.2728599    106.54615  0.042482514  0.044920311            3 
  210000   0.92515147    -5.264841    107.14062  0.042516118  0.044819767            5 
  211000   0.93522242   -5.2657648    107.17983  0.042330106  0.044720577            2 
  212000   0.94455404   -5.2332583    107.52611  0.042266554   0.04462166            2 
  213000   0.93892126    -5.247067    108.24608  0.042349798  0.044523925            5 
  214000   0.91032284   -5.2801602    108.24797  0.042152635  0.044426061            4 
  215000   0.92546087   -5.2714262    108.34458  0.041994022  0.044326896            4 
  216000   0.90529633   -5.2963097     108.6233  0.041907136  0.044226186            2 
  217000   0.90722462   -5.3265958    108.68136  0.041736313  0.044125296            4 
  218000   0.91783398   -5.2901137    109.40613  0.041821914  0.044027027            3 
  219000   0.92757545   -5.3009222    109.68992  0.041738935  0.043929232            8 
  220000   0.91565209   -5.3319284    109.53367  0.041490027   0.04382946            4 
  221000   0.92089776   -5.2753708    110.09361  0.041513427  0.043730492            3 
  222000   0.90987621   -5.2976547    110.74348  0.041570377  0.043633487            3 
  223000   0.91105372   -5.3303128    110.79521  0.041403294  0.043536528            5 
  224000   0.93896294   -5.3118311    111.14133  0.041347223  0.043440801            3 
  225000   0.92147166   -5.3488954    111.64404  0.041349643  0.043347012            3 
  226000   0.91734804   -5.3489507    111.74744   0.04120481  0.043250448            4 
  227000   0.89959051   -5.3199311    111.96268  0.041102305  0.043150717           13 
  228000   0.91980549   -5.3395787     112.0574  0.040956653  0.043050717            7 
  229000   0.89596604   -5.3415389    111.98183  0.040750301  0.042950527            7 
  230000   0.88783158   -5.3338621    112.12113  0.040623599  0.042848311            4 
  231000   0.91048304   -5.3402709    112.51467  0.040589707  0.042745911            3 
  232000   0.91012122   -5.3393193    112.93726  0.040566544  0.042644874            4 
  233000   0.89931046     -5.38218    112.74778  0.040324672  0.042542602            4 
  234000   0.87608902   -5.3416598    113.61489  0.040461144   0.04244192            4 
  235000   0.90619748   -5.3133986    113.88822  0.040385894  0.042343405            4 
  236000   0.87053889   -5.3746412    113.72608  0.040157514  0.042244403            5 
  237000   0.90127486   -5.3468507    114.29418  0.040187828  0.042144979            3 
  238000   0.90251467   -5.3715654    114.47615  0.040082687   0.04204642            2 
  239000   0.89017617   -5.3387866    114.66786  0.039981819  0.041947683            5 
  240000   0.87572733   -5.3594687    114.98096  0.039923945  0.041851123            3 
  241000    0.8795724   -5.3663253      115.564  0.039959888  0.041753911            8 
  242000   0.90759837   -5.3834518    115.31695  0.039709693  0.041656703            7 
  243000   0.86209258   -5.3997874    116.00311  0.039781587  0.041559684            4 
  244000   0.86916594   -5.3739131    116.40354  0.039755306   0.04146404            4 
  245000   0.87992466   -5.3925567    116.80108  0.039728259  0.041370261            2 
  246000   0.86208669   -5.3924607    117.21605  0.039707334  0.041276132            4 
  247000   0.87623718   -5.4257549    117.31502  0.039579965   0.04118386            5 
  248000   0.86640188   -5.4114661    117.75904  0.039569571  0.041092538            5 
  249000   0.87881837   -5.3995731    118.08312  0.039519118  0.041001892            5 
  250000    0.8992105   -5.3659342     118.7683  0.039589432   0.04091323            6 
  251000   0.85803754   -5.4094855    118.31562  0.039281414   0.04082467            5 
  252000   0.87885108   -5.3810289    119.06747  0.039374164  0.040734538            5 
  253000   0.86414494   -5.3822123    119.17108  0.039252662  0.040645685            8 
  254000   0.84016295   -5.4530608    119.22053  0.039114346  0.040555372            4 
  255000   0.84952027   -5.4011942    119.85665  0.039168838  0.040465159            5 
  256000    0.8786131   -5.4090188    119.83097  0.039007477  0.040376291            4 
  257000     0.857117   -5.4310432    119.87613  0.038870342  0.040286429            3 
  258000    0.8570179   -5.4390681    119.86656  0.038716589  0.040197186            5 
  259000   0.83105486    -5.430001     120.1742  0.038666087  0.040105198            5 
  260000   0.85092055   -5.4112795    120.68036  0.038679602  0.040014442            4 
  261000   0.84700366   -5.4516126    120.26708  0.038399452  0.039922011            7 
  262000    0.8310525    -5.466131    120.64525   0.03837317  0.039830562            6 
  263000   0.84522081   -5.4597521    121.21437  0.038407596  0.039738667            7 
  264000   0.87246985   -5.4308433    121.22814  0.038266459  0.039646589            4 
  265000   0.83978373   -5.4661279    121.37398  0.038167918  0.039554969            3 
  266000   0.84358438   -5.4536468    121.63127  0.038105035  0.039463075            5 
  267000   0.82640004   -5.4555279    122.14455  0.038122518   0.03937156            4 
  268000   0.83356444   -5.4717542    121.95157  0.037920265  0.039281804            7 
  269000   0.84528392   -5.4802117    122.67026  0.038001939  0.039193473           10 
  270000   0.84600594   -5.4835032    122.55252  0.037824853  0.039104857           11 
  271000   0.84388432   -5.4516952    123.02491  0.037830538  0.039016264            7 
  272000   0.82270886     -5.48693    123.21592  0.037749976  0.038927568            9 
  273000   0.85025903   -5.4855805    123.27204  0.037628829  0.038838514            8 
  274000   0.84284806   -5.4856524    123.57297  0.037583019  0.038748592            4 
  275000   0.82036689   -5.4939815    123.71358  0.037488965  0.038660707            3 
  276000   0.81101871   -5.5016473    124.12059  0.037476025  0.038574915            7 
  277000   0.82233062   -5.5365309    124.00018  0.037304506    0.0384895            5 
  278000   0.82765497    -5.489379     124.5827  0.037344933  0.038404761            7 
  279000   0.80451679     -5.53148    124.98745  0.037331974   0.03831955            5 
  280000   0.83303676   -5.5224466    125.07804  0.037225606  0.038235248            4 
  281000   0.83368482    -5.486314    125.18675  0.037125369  0.038151068            4 
  282000    0.8243118   -5.5023513    125.58372  0.037111028  0.038066358            6 
  283000   0.81795268   -5.5332079     125.3826  0.036920673  0.037980791            8 
  284000   0.82090083   -5.5557437    125.48618  0.036821061  0.037894792            9 
  285000   0.80579831   -5.5587769    125.94422  0.036825796  0.037809373            5 
  286000   0.80800883   -5.5236094    126.27995  0.036794858  0.037724474            4 
  287000   0.81760698   -5.5392521    126.33826  0.036683583  0.037640531            2 
  288000   0.81101953   -5.5625649    126.81083   0.03669295  0.037555834            6 
  289000   0.81489453   -5.5510777     126.8269  0.036570616  0.037471356            8 
  290000   0.82383348    -5.564295     126.7569  0.036424396  0.037386502            8 
  291000   0.80406629   -5.5617021    127.11967  0.036403113  0.037300976           13 
  292000   0.80928499   -5.5422295    127.43773  0.036369215  0.037216761            4 
  293000   0.79589921   -5.5518642    127.60829  0.036293599  0.037132459           11 
  294000   0.80534098     -5.53673    127.60682  0.036169735  0.037048939            7 
  295000   0.79334553   -5.5308183    127.91829  0.036135111  0.036964998            5 
  296000   0.80963437   -5.5653246    127.77056  0.035971441  0.036881441            7 
  297000   0.79366907   -5.5675413    128.06686  0.035933464  0.036797384            3 
  298000   0.78744972   -5.5793926    128.41456  0.035910111  0.036713038            4 
  299000   0.79031773   -5.5750903    128.58086  0.035836361  0.036628368           10 
  300000   0.78868036   -5.5787904    128.11063  0.035586286  0.036542796            7 
  301000   0.80379594   -5.6164352    128.46142  0.035565177  0.036457194            3 
  302000   0.79635821   -5.5924702     128.6765  0.035506759  0.036373358            7 
  303000   0.79072309    -5.591704    128.94447  0.035463276   0.03628893            4 
  304000   0.78797931    -5.601367     128.9722  0.035354221  0.036203905           11 
  305000   0.78680143   -5.5963766    129.45182   0.03536935  0.036119079            9 
  306000   0.78403665   -5.6319967    128.99908  0.035130467  0.036033785            5 
  307000   0.79284298    -5.635866    128.92688  0.034996439  0.035948224            8 
  308000   0.78487672   -5.6187709    129.15981  0.034945836  0.035861698            8 
  309000   0.75641168   -5.6142327    129.50144  0.034924877  0.035774503            9 
  310000   0.76671127   -5.6150028    129.19654  0.034730253  0.035687415            6 
  311000   0.78443808   -5.6003395     129.5199  0.034705225  0.035601021            5 
  312000   0.75897027   -5.6072586     129.5767  0.034609162  0.035514078           11 
  313000   0.77717317    -5.632205    129.37829  0.034445763   0.03542655           10 
  314000   0.76836468   -5.6284358    129.75557  0.034436191  0.035339464           12 
  315000   0.77113223   -5.6282324     130.0769  0.034411879   0.03525288            8 
  316000   0.76205873   -5.6311198    130.03737  0.034292554  0.035165341            8 
  317000   0.75330113    -5.641079    129.89265  0.034146332  0.035078391            4 
  318000     0.759657   -5.6333183    130.28044  0.034140576  0.034990812            6 
  319000    0.7385694   -5.6615924    129.99477  0.033958927  0.034903127           11 
  320000   0.75770469    -5.633034    130.13943  0.033890475  0.034814852            6 
  321000   0.75860495   -5.6127278    130.34218  0.033837534   0.03472679            9 
  322000   0.73553549   -5.6685915    130.26809  0.033713273  0.034638592            7 
  323000   0.75459761   -5.6631046     130.6353  0.033703637  0.034550497            9 
  324000   0.74285837   -5.6659947    130.84178  0.033652722  0.034462655            4 
  325000   0.74604939   -5.6858393    130.97347  0.033582941  0.034375429           10 
  326000   0.75408854   -5.7000687    130.55364  0.033372606  0.034288477            7 
  327000   0.74833135   -5.6466349    131.29035  0.033458294   0.03420185            9 
  328000   0.74894848   -5.6787881    131.62759  0.033441969  0.034116305           12 
  329000   0.76013017   -5.6758917    131.27936  0.033252118  0.034030187           10 
  330000   0.74325379    -5.696054    131.87051  0.033300633    0.0339443            3 
  331000   0.74256825   -5.6945429    132.11883  0.033262546  0.033858998            6 
  332000   0.74347685   -5.6824982     132.0639  0.033148569  0.033773786            7 
  333000   0.73342259   -5.6901063    131.86363  0.032998907  0.033688157            5 
  334000   0.72125367   -5.6836289    132.53775    0.0330683  0.033602948            8 
  335000   0.72832571   -5.7123079    131.98295  0.032831579  0.033518219           16 
  336000   0.72800929   -5.7134115    132.07605  0.032756957  0.033434107            4 
  337000   0.72256287   -5.7261503    132.38602  0.032736404   0.03334956            8 
  338000   0.73368037    -5.708717    132.53632  0.032676607  0.033265235            5 
  339000   0.71860409   -5.7129987     132.7902  0.032642626  0.033181311            6 
  340000   0.71108212   -5.7386824    132.95927  0.032588057  0.033098145            4 
  341000   0.71910714   -5.7386516    132.76887  0.032445959  0.033014521           15 
  342000   0.73219758    -5.737403    132.72994  0.032341604  0.032930873            6 
  343000   0.72296461   -5.7281161     133.2761  0.032380004  0.032847689            4 
  344000    0.7115707   -5.7468005    133.10396  0.032244176  0.032764577           11 
  345000   0.70887238   -5.7538984    133.05756  0.032139508  0.032681336            8 
  346000   0.69803505   -5.7369512    133.18966  0.032078435   0.03259746            8 
  347000   0.70707537   -5.7490805    133.69114  0.032106422  0.032514654            6 
  348000   0.71289938   -5.7442999    134.08394  0.032108224  0.032432715           13 
  349000   0.72167391   -5.7399259    133.93776  0.031981317  0.032350887            4 
  350000   0.70637499   -5.7519548    134.03241  0.031912478  0.032269128            8 
  351000   0.73678799   -5.7574331    134.01644  0.031817767  0.032188028            5 
  352000   0.69889473   -5.8097275    133.78025  0.031671461  0.032106849            8 
  353000   0.70916859   -5.7632942     134.4136  0.031731256  0.032026578           17 
  354000    0.7102176   -5.7766303     134.4005  0.031638537  0.031947069           12 
  355000   0.70010078   -5.7998175    134.83211   0.03165073  0.031867013           16 
  356000   0.69952482    -5.783271    134.86652  0.031569877  0.031787158           16 
  357000   0.68349755   -5.7669429    135.08871  0.031533311  0.031708199           11 
  358000   0.68847217   -5.7885655    135.07013  0.031440905  0.031628894            6 
  359000   0.68515034   -5.7671122    134.96685  0.031329352  0.031549717           12 
  360000   0.68568337   -5.7752587    135.04869  0.031261271  0.031470368           15 
  361000    0.6891388   -5.8146861    134.78513  0.031113833   0.03139157            5 
  362000   0.70697411   -5.7718141    135.05171  0.031089252  0.031312905            7 
  363000   0.69704467   -5.8043288     135.4496   0.03109495  0.031234452           10 
  364000   0.68661511   -5.8155886    135.62004  0.031048545  0.031156069            5 
  365000   0.70746049   -5.8386262    135.32474  0.030896059  0.031077938           26 
  366000   0.69097805   -5.8206899    135.35665  0.030818909  0.030999755           25 
  367000   0.67727784   -5.8234194    135.77675  0.030830325  0.030921777           12 
  368000   0.68250397   -5.8296007    135.67726  0.030724017  0.030843785           14 
  369000   0.66838989    -5.843568    135.47674   0.03059547  0.030766028           12 
  370000   0.67579007   -5.8358577    136.07342  0.030647166  0.030688077           14 
  371000   0.68321621   -5.8619821    135.44874  0.030424245  0.030609653           15 
  372000   0.67192942   -5.8651872    135.21688   0.03029052  0.030531318           11 
  373000   0.67015097   -5.8704294    135.45216  0.030261877   0.03045297           14 
  374000   0.68778031   -5.8495282    135.94821  0.030291491  0.030374861           11 
  375000   0.67484638   -5.8638431     135.8149   0.03018109   0.03029671           13 
  376000   0.66999897   -5.8556599    135.83338  0.030104915  0.030219371            5 
  377000   0.66765473   -5.8669711    135.94079  0.030048805   0.03014239           17 
  378000   0.67901372   -5.8625694    136.10029  0.030004472  0.030065274           16 
  379000   0.68025193   -5.8547366    136.03195  0.029910278   0.02998856           18 
  380000   0.67180412   -5.8680205    136.06683  0.029839217  0.029912563           12 
  381000   0.66488948   -5.8466614     136.2003  0.029790091  0.029836273            9 
  382000   0.65120419   -5.8788742    136.69329  0.029819653  0.029760142           17 
  383000   0.64935015   -5.8821555    136.58613  0.029718479  0.029684572           28 
  384000   0.66292967   -5.9090789    136.62803  0.029650179  0.029609149            8 
  385000   0.63043552   -5.9035448    136.70211  0.029589202  0.029534128           14 
  386000   0.64254541   -5.8852402    136.71112   0.02951449  0.029458444           17 
  387000   0.65175047   -5.8962764    136.64221  0.029423388  0.029383166           18 
  388000   0.65480321   -5.9071242    136.98353  0.029420862  0.029307791           19 
  389000   0.67059247   -5.9324179    136.59051  0.029261034  0.029232495           27 
  390000   0.64413161   -5.8951682    136.99874  0.029273235  0.029157025           16 
  391000    0.6518945   -5.9166624    136.93391  0.029184551  0.029081796           22 
  392000   0.63639378   -5.9342403    136.95646  0.029114894  0.029006572           16 
  393000   0.65279788   -5.9146222    137.08832  0.029068771  0.028931488           17 
  394000   0.63654766   -5.9176708    136.82736  0.028939797  0.028856488           14 
  395000   0.63296652   -5.9306813    136.79219  0.028859112  0.028781175           25 
  396000   0.64664638   -5.9341712    136.87078  0.028802773   0.02870614           10 
  397000    0.6451824   -5.9581081    136.64271  0.028682349  0.028631314           18 
  398000   0.64889646   -5.9503484    137.00304  0.028685729  0.028557077            8 
  399000   0.61991049    -5.964097    137.07385  0.028628623  0.028482104           13 
  400000   0.63420029   -5.9703778    136.62816    0.0284642  0.028406925           31 
  401000   0.62225544   -5.9805861    136.88247  0.028446066  0.028331446           25 
  402000   0.63305743   -5.9661726    136.72077  0.028341785  0.028255745           13 
  403000   0.62765791   -5.9533427    136.93314  0.028315371  0.028180492           12 
  404000   0.60725399   -5.9910881    136.75102  0.028207718  0.028105322           38 
  405000    0.6232881   -6.0007217    136.62756  0.028112667  0.028030072           43 
  406000   0.62860131   -5.9821354    136.75082  0.028068722  0.027955465           25 
  407000    0.6227517   -5.9794048    137.07647  0.028066435  0.027880792           34 
  408000   0.61244871   -6.0167582    136.97573   0.02797707  0.027806444           27 
  409000    0.6164373   -6.0104891    136.97444  0.027908403  0.027731888           25 
  410000   0.60756095   -5.9985462     136.8341  0.027811809  0.027657102           14 
  411000   0.61328063   -6.0190503    136.35436  0.027646868  0.027582399            9 
  412000   0.60947019   -5.9999372    136.81985  0.027673917  0.027507547           29 
  413000   0.62110954   -6.0220344    136.61631  0.027565842  0.027433195           12 
  414000   0.61000039   -6.0135542    136.95591  0.027567616  0.027358932           15 
  415000    0.5921011   -6.0022654    137.01003  0.027512054  0.027284818           16 
  416000   0.61799252   -6.0454196      136.713  0.027386417  0.027210738           15 
  417000   0.60067135   -6.0230699    136.63095  0.027304347  0.027136523           26 
  418000   0.59894686   -6.0449615    136.76969  0.027266684  0.027062457           14 
  419000   0.59251958   -6.0201651    137.01519  0.027250437  0.026988714           20 
  420000    0.5989348    -6.027009    136.73537  0.027130034  0.026914825           18 
  421000   0.60614449   -6.0297228    136.92959  0.027104037  0.026841292           35 
  422000   0.58521846   -6.0117872    136.81864  0.027017899  0.026767777           25 
  423000   0.58770359   -6.0340117     136.8595  0.026962076  0.026694424           31 
  424000   0.58919847   -6.0550727    136.73098  0.026873226  0.026621265           36 
  425000   0.57875609   -6.0477954    136.49344   0.02676342  0.026547688           24 
  426000   0.58963852    -6.081727    136.53794  0.026709299  0.026473997           15 
  427000   0.58282977   -6.0613726    136.68588   0.02667562   0.02640055           27 
  428000   0.58237758    -6.070035    136.20943  0.026520529  0.026327028           28 
  429000   0.57524222   -6.0698815    136.64882   0.02654406  0.026253895           32 
  430000   0.57133793   -6.0635841    136.34012  0.026422504   0.02618096           26 
  431000   0.59864412   -6.0969526    136.55997  0.026403707  0.026108181           16 
  432000   0.56914015   -6.0968971    136.88241  0.026404785  0.026035215           31 
  433000   0.57717808    -6.098339    136.53957  0.026277823  0.025962279           32 
  434000   0.57908006   -6.1079691    136.56419  0.026222002  0.025889505           36 
  435000   0.57482741   -6.1038753    136.77325  0.026201773  0.025816962           54 
  436000   0.57633039   -6.0744699    136.70391  0.026128423  0.025744897           59 
  437000   0.56829157   -6.1020685    136.57119  0.026043325  0.025673199           36 
  438000   0.56020456   -6.0979099    136.80588  0.026028516  0.025601664           17 
  439000   0.55988589   -6.1000088    136.52235  0.025915404  0.025530419           10 
  440000   0.56720168   -6.1034981    136.82431  0.025913696  0.025459394           12 
  441000   0.56950181   -6.1079065    136.68503  0.025828615  0.025388372           11 
  442000   0.55966229   -6.1335705    136.53616  0.025742111  0.025317429           34 
  443000   0.54948739   -6.1280148    136.82497  0.025738331  0.025246679           73 
  444000   0.55731714   -6.1199163    136.60711  0.025639472  0.025176225           94 
  445000   0.54641536   -6.1474852    136.56105   0.02557323   0.02510574           39 
  446000   0.54807878   -6.1309529    136.40119  0.025486023   0.02503538           70 
  447000   0.56151144   -6.1508079    136.42652  0.025433729  0.024965165          114 
  448000   0.56225999   -6.1612749    136.39626  0.025371328   0.02489471           80 
  449000   0.54598668   -6.1316366    136.58597  0.025350032  0.024824592           79 
  450000   0.56496309    -6.159968    136.49946  0.025277678   0.02475459           50 
  451000   0.54601898   -6.1624146    136.67717  0.025254466  0.024684988           33 
  452000   0.54926096   -6.1572932    136.85232  0.025230885  0.024615381           58 
  453000   0.55542197   -6.1720347    136.39727  0.025091477   0.02454595           33 
  454000   0.55086239   -6.1571859    136.21169  0.025002145  0.024476803           42 
  455000   0.53729495   -6.1763141    136.33702  0.024970151  0.024407647           33 
  456000   0.53855929   -6.1663749    136.81663  0.025003039  0.024338894           20 
  457000   0.53461971   -6.1809883    136.48689    0.0248882  0.024270176           24 
  458000   0.54690804   -6.1805092    136.48763  0.024833994  0.024201757           28 
  459000   0.54310855   -6.1765477    136.73327  0.024824486   0.02413359           34 
  460000   0.52793046   -6.2025137    136.26604  0.024685877  0.024065273           60 
  461000   0.53716851    -6.176325    136.37721  0.024652424  0.023997272           34 
  462000   0.52545923   -6.1993161    136.32875  0.024590323  0.023929287           45 
  463000   0.52749064   -6.2010367    136.11331  0.024498436  0.023861084           85 
  464000    0.5226256   -6.2104016    136.05192  0.024434611  0.023793106           60 
  465000   0.52808043   -6.2119673    136.33918  0.024433545  0.023725276           86 
  466000   0.51904195   -6.2138547     136.1135  0.024340754  0.023657725           78 
  467000   0.52546392    -6.233231    136.23207  0.024309792  0.023590204           71 
  468000   0.53036559   -6.2236371    136.09428  0.024233311  0.023522904           36 
  469000    0.5125539   -6.2266197    136.23007  0.024205769  0.023455667          116 
  470000   0.51429911   -6.2217327    136.14687  0.024139516  0.023388631           86 
  471000   0.51396518   -6.2355481    136.06298  0.024073422  0.023321759           77 
  472000     0.521563   -6.2404556    136.18509  0.024043977  0.023255094           79 
  473000    0.5029644   -6.2543716    135.97876  0.023956793   0.02318848           91 
  474000   0.51206355   -6.2468138    136.22531  0.023949598  0.023122008          125 
  475000   0.49474361   -6.2330706    136.12503  0.023881584  0.023055908           84 
  476000   0.50785798   -6.2563384    136.04583  0.023817547  0.022989892          127 
  477000   0.50418857    -6.254336    135.93704   0.02374861  0.022924165          147 
  478000    0.5003829   -6.2630768    136.01278   0.02371213  0.022858644          176 
  479000   0.50579854   -6.2746356     135.8968   0.02364245  0.022793491          162 
  480000   0.50013023   -6.2514717    136.14597  0.023636453  0.022728399          110 
  481000   0.48642393   -6.2779203    136.12471  0.023583629  0.022663694          114 
  482000   0.49879459   -6.2669678    136.11016  0.023532185  0.022598974          116 
  483000   0.49867946   -6.2606059    135.96886  0.023459086  0.022534368          170 
  484000   0.49427949   -6.2716819    135.78527  0.023379007  0.022469734          176 
  485000   0.48579873   -6.2682194    135.91337  0.023352814  0.022405227          165 
  486000   0.49385951   -6.2711514    135.93988  0.023309306  0.022340766          218 
  487000    0.4932166   -6.2801829    135.82329  0.023241494  0.022276516          207 
  488000   0.47916554   -6.2990392    135.74446  0.023180407  0.022212374          216 
  489000    0.4909775   -6.3011476     135.6343   0.02311423  0.022148295          242 
  490000   0.48461715   -6.3046942    135.50613   0.02304526  0.022084562          202 
  491000    0.4815401   -6.3053791    135.63503  0.023020202  0.022020881          211 
  492000   0.48002621   -6.2989321    135.85861  0.023011281  0.021957495          326 
  493000   0.47795233   -6.3179176    135.58246  0.022917928  0.021894189          283 
  494000   0.47840845   -6.3135872    135.24708  0.022814959   0.02183099          218 
  495000   0.48699825   -6.3124294    135.54624  0.022819233   0.02176794          245 
  496000   0.47959272   -6.3186651    135.35875  0.022741726  0.021704939          220 
  497000    0.4704014   -6.3274501    135.42147  0.022706484  0.021642137          253 
  498000   0.46420462   -6.3278516    135.45134  0.022665888  0.021579442          222 
  499000   0.47764219    -6.321916    135.38394  0.022609209  0.021516889          178 
  500000   0.46188237   -6.3397479    135.52426  0.022587377  0.021454606          256 
  501000   0.47468218   -6.3293504    135.16747  0.022482945  0.021392425          219 
  502000   0.46616586   -6.3440805    135.11248   0.02242903  0.021330424          397 
  503000   0.45206471   -6.3297023     135.2006  0.022399039  0.021268625          260 
  504000   0.45875674   -6.3473384    135.28744  0.022368955  0.021207078          269 
  505000   0.45051364   -6.3456696    135.12046  0.022297105  0.021145557          226 
  506000    0.4648481   -6.3530707    135.06382  0.022243712  0.021084241          230 
  507000   0.46960276   -6.3630343    135.21875  0.022225303   0.02102303          294 
  508000   0.45412052   -6.3542786    135.15774  0.022171546  0.020962124          334 
  509000   0.44650559   -6.3543989    135.07801  0.022114933  0.020901385          200 
  510000   0.45452658   -6.3686572    135.19217  0.022090223  0.020840827          208 
  511000   0.44568107   -6.3625983    135.27218  0.022060042  0.020780484          192 
  512000   0.44395286   -6.3726536    135.03473  0.021978309  0.020720224          283 
Loop time of 1273.47 on 48 procs for 500000 steps with 4000 atoms

Performance: 67845.973 tau/day, 392.627 timesteps/s
99.4% CPU use with 48 MPI tasks x no OpenMP threads

MPI task timing breakdown:
Section |  min time  |  avg time  |  max time  |%varavg| %total
---------------------------------------------------------------
Pair    | 89.033     | 94.681     | 101.31     |  32.0 |  7.43
Neigh   | 8.7038     | 9.0174     | 9.3434     |   5.9 |  0.71
Comm    | 81.604     | 88.248     | 94.425     |  37.1 |  6.93
Output  | 1.5878     | 1.5886     | 1.6128     |   0.3 |  0.12
Modify  | 1065       | 1068.3     | 1074.2     |   5.3 | 83.89
Other   |            | 11.66      |            |       |  0.92

Nlocal:        83.3333 ave          90 max          77 min
Histogram: 4 1 0 11 7 11 9 3 0 2
Nghost:        2370.06 ave        2399 max        2350 min
Histogram: 3 4 6 13 7 9 3 0 1 2
Neighs:        16266.2 ave       18403 max       14178 min
Histogram: 2 5 10 1 4 8 7 6 2 3
FullNghs:      32532.8 ave       35287 max       30244 min
Histogram: 5 0 6 7 8 11 6 2 2 1

Total # of neighbors = 1561576
Ave neighs/atom = 390.39400
Neighbor list builds = 26856
Dangerous builds = 0

#clear
#
#next RN
#
#jump SELF
Total wall time: 0:21:17
