
units lj                  # Use reduced LJ style units
atom_style atomic         # Uncharged point particles
atom_modify map hash      # Needed for indexing of clusters etc
                          # Used to be able to find where atoms are in relation to each other.

lattice fcc 1.0 spacing 1 1 1
Lattice spacing in x,y,z = 1.5874011 1.5874011 1.5874011
region box block 0 10 0 10 0 10 units lattice
create_box 2 box
Created orthogonal box = (0.0000000 0.0000000 0.0000000) to (15.874011 15.874011 15.874011)
  3 by 4 by 4 MPI processor grid
create_atoms 1 box
Created 4000 atoms
  using lattice units in orthogonal box = (0.0000000 0.0000000 0.0000000) to (15.874011 15.874011 15.874011)
  create_atoms CPU = 0.002 seconds
set type 1 type/fraction 2 0.43 78393
Setting atom values ...
  1722 settings made for type/fraction
mass 1 1.0
mass 2 1.0
pair_style lj/cut  3.5
pair_modify tail  yes
pair_coeff 1  1  1.0  1.0   # Intearaction between 1 and 1 set with epsilon = 1 and sigma = 1
pair_coeff 1  2  1.5  0.8
pair_coeff 2  2  0.5  0.88

write_data data.0
System init for write_data ...
Neighbor list info ...
  update every 1 steps, delay 10 steps, check yes
  max neighbors/atom: 2000, page size: 100000
  master list distance cutoff = 3.8
  ghost atom cutoff = 3.8
  binsize = 1.9, bins = 9 9 9
  1 neighbor lists, perpetual/occasional/extra = 1 0 0
  (1) pair lj/cut, perpetual
      attributes: half, newton on
      pair build: half/bin/atomonly/newton
      stencil: half/bin/3d
      bin: standard
WARNING: Not all mixed pair coeffs generated from mixing. Use write_data with 'pair ij' option to store all pair coeffs. (../write_data.cpp:312)


#############################
#   M E L T   S Y S T E M   #
#############################

velocity all create 2.4 5833274 mom yes dist gaussian # Assign velocities
                                                    # Temperature 2.4, random number seed, zero linear momentum
                                                                                # Gaussian distribution

timestep 0.002   # simulation timestep
thermo 1000       # output thermodynamic data every 1000 steps bf 100

# Define a fix  in this case with index 1 applied to all
# particles in the simulation. This fix is for simulations
# in the anisotropic NPT ensemble. Note that we use the MTK
# correction.
fix 1 all npt temp 2.4 2.4 0.1 iso 5.68 5.68 0.5 mtk yes tchain 5 pchain 5 # Use NPT ensemble
                                                                         # Set temperature and pressure and damping
                                                                         # Numbers of thermostats in chain and in barostat
run 10000          # run for 10000 steps
Per MPI rank memory allocation (min/avg/max) = 3.642 | 3.644 | 3.648 Mbytes
Step Temp E_pair E_mol TotEng Press Volume 
       0          2.4   -5.6998203            0   -2.1007203   -4.1891945         4000 
    1000    2.4615502   -4.9418044            0   -1.2504021    5.5881771    3875.4189 
    2000    2.3926793     -5.04316            0   -1.4550383    5.6868167    3810.6755 
    3000    2.3905448   -5.0141785            0   -1.4292576    5.8132842    3819.6863 
    4000    2.4150117   -5.0012049            0    -1.379593    5.7097769    3827.1069 
    5000    2.4403673   -5.0890702            0   -1.4294345    5.7463673    3785.2745 
    6000    2.3344606   -4.9915475            0    -1.490732    5.6936849    3835.5488 
    7000    2.4243318   -4.9784054            0   -1.3428167    5.9689375    3821.2727 
    8000    2.4148874    -5.047786            0   -1.4263605    5.6529254    3809.2646 
    9000    2.3617622   -5.0623483            0   -1.5205907    5.4703959    3830.4482 
   10000    2.3926315   -5.0278536            0   -1.4398036    5.4191059    3840.4214 
Loop time of 2.5573 on 48 procs for 10000 steps with 4000 atoms

Performance: 675711.387 tau/day, 3910.367 timesteps/s
99.6% CPU use with 48 MPI tasks x no OpenMP threads

MPI task timing breakdown:
Section |  min time  |  avg time  |  max time  |%varavg| %total
---------------------------------------------------------------
Pair    | 1.1343     | 1.2101     | 1.3167     |   3.0 | 47.32
Neigh   | 0.20793    | 0.21727    | 0.24151    |   1.0 |  8.50
Comm    | 0.78875    | 0.86406    | 0.97591    |   4.8 | 33.79
Output  | 0.00026847 | 0.00027314 | 0.00035605 |   0.0 |  0.01
Modify  | 0.19381    | 0.24985    | 0.2992     |   6.2 |  9.77
Other   |            | 0.01576    |            |       |  0.62

Nlocal:        83.3333 ave          94 max          73 min
Histogram: 1 2 4 9 10 9 8 1 2 2
Nghost:        1688.73 ave        1729 max        1660 min
Histogram: 2 4 8 8 9 10 3 3 0 1
Neighs:        9949.65 ave       11302 max        8702 min
Histogram: 3 3 3 5 12 11 4 3 1 3

Total # of neighbors = 477583
Ave neighs/atom = 119.39575
Neighbor list builds = 897
Dangerous builds = 168

# Equilibrate just above the melting temperature to avoid step fn in T

fix 1 all npt temp 1.25 1.25 0.1 iso 5.68 5.68 0.5 mtk yes tchain 5 pchain 5
run 2000
Per MPI rank memory allocation (min/avg/max) = 3.643 | 3.645 | 3.649 Mbytes
Step Temp E_pair E_mol TotEng Press Volume 
   10000    2.3926315   -5.0278536            0   -1.4398036    5.4191059    3840.4214 
   11000    1.2658448   -7.0263864            0   -5.1280938    6.0293111     3014.871 
   12000    1.2524002   -7.1102452            0   -5.2321145    5.7820777    3003.1227 
Loop time of 0.624906 on 48 procs for 2000 steps with 4000 atoms

Performance: 553043.056 tau/day, 3200.481 timesteps/s
99.7% CPU use with 48 MPI tasks x no OpenMP threads

MPI task timing breakdown:
Section |  min time  |  avg time  |  max time  |%varavg| %total
---------------------------------------------------------------
Pair    | 0.2722     | 0.30398    | 0.34579    |   2.4 | 48.64
Neigh   | 0.039924   | 0.04266    | 0.048968   |   0.7 |  6.83
Comm    | 0.18596    | 0.22851    | 0.26167    |   3.1 | 36.57
Output  | 5.3013e-05 | 5.4769e-05 | 7.13e-05   |   0.0 |  0.01
Modify  | 0.039406   | 0.044947   | 0.048931   |   1.4 |  7.19
Other   |            | 0.004758   |            |       |  0.76

Nlocal:        83.3333 ave          94 max          77 min
Histogram: 3 7 12 2 15 3 1 3 1 1
Nghost:        1986.40 ave        2013 max        1962 min
Histogram: 3 1 8 5 9 7 6 7 0 2
Neighs:        12731.4 ave       13952 max       11513 min
Histogram: 3 3 7 6 4 10 3 4 3 5

Total # of neighbors = 611105
Ave neighs/atom = 152.77625
Neighbor list builds = 144
Dangerous builds = 15

#############################
# L I N E A R  Q U E N C H  #
#############################

# Define solid atoms. This closely follows ten Wolde  Ruiz-Montero and Frenkel  Faraday Discuss  1996  104  93-110
# Compute components of the per-atom q6 vector
compute q6 all orientorder/atom degrees 1 6 components 6 nnn NULL cutoff 1.3 # compute the Q6 parameter.
                                                                             # Use all neighbours within 1.3 unit cell.

# get number of connections
compute coord_number all coord/atom orientorder q6 0.5

# An atom is solid if it has 8 or more connections (of a possible 14)
variable is_solid atom c_coord_number>=8
group solid dynamic all var is_solid    # Must be dynamic to update
dynamic group solid defined

# do clustering
compute cluster solid cluster/atom 1.3 # Create a cluster where all atoms within are solid and max 1.3 units from another member

# define chunks one chunk per cluster
compute clus_chunks solid chunk/atom c_cluster nchunk every compress yes  # Says which atoms are in which chunk

# count the size of each chunk
compute size_chunks solid property/chunk clus_chunks count


# Find the maximum entry in the vector of chunk sizes
variable max_n equal max(c_size_chunks)


# Thermo style which includes this variable
# thermo_style custom step temp pe vol v_max_n

thermo ${N}  # Print the thermo information every 100 steps
thermo 1000  

# Reset the npt fix at a lower temperature (below freezing)
fix 1  all npt temp  ${temp} ${temp}  0.1  iso  5.68  5.68  0.5  mtk yes tchain  5  pchain  5
fix 1  all npt temp  0.45 ${temp}  0.1  iso  5.68  5.68  0.5  mtk yes tchain  5  pchain  5
fix 1  all npt temp  0.45 0.45  0.1  iso  5.68  5.68  0.5  mtk yes tchain  5  pchain  5

dump dmp2 all dcd ${N} traj.dcd
dump dmp2 all dcd 1000 traj.dcd


compute msd all msd com yes
variable twopoint equal c_msd[4]/6/(step*dt+1.0e-6)
fix 9 all vector 10 c_msd[4]
variable fit equal slope(f_9)/6/(10*dt)
thermo_style custom step temp pe c_msd[4] v_twopoint v_fit v_max_n

fix 1 all npt temp 1.25 ${temp} 0.1 iso 5.68 5.68 0.5 mtk yes tchain 5 pchain 5
fix 1 all npt temp 1.25 0.45 0.1 iso 5.68 5.68 0.5 mtk yes tchain 5 pchain 5
run 2000000 # 5000000  # Run for this many steps
Neighbor list info ...
  update every 1 steps, delay 10 steps, check yes
  max neighbors/atom: 2000, page size: 100000
  master list distance cutoff = 3.8
  ghost atom cutoff = 3.8
  binsize = 1.9, bins = 8 8 8
  4 neighbor lists, perpetual/occasional/extra = 1 3 0
  (1) pair lj/cut, perpetual
      attributes: half, newton on
      pair build: half/bin/atomonly/newton
      stencil: half/bin/3d
      bin: standard
  (2) compute orientorder/atom, occasional
      attributes: full, newton on
      pair build: full/bin/atomonly
      stencil: full/bin/3d
      bin: standard
  (3) compute coord/atom, occasional
      attributes: full, newton on
      pair build: full/bin/atomonly
      stencil: full/bin/3d
      bin: standard
  (4) compute cluster/atom, occasional
      attributes: full, newton on
      pair build: full/bin/atomonly
      stencil: full/bin/3d
      bin: standard
Per MPI rank memory allocation (min/avg/max) = 9.830 | 9.834 | 9.840 Mbytes
Step Temp PotEng c_msd[4] v_twopoint v_fit v_max_n 
   12000    1.2524002   -7.1102452 1.686979e-30 1.1715132e-32 8.3333333e+20            3 
   13000    1.2303771   -7.1953755   0.45729928 0.0029314055  0.037639234            2 
   14000    1.2141802   -7.1358991   0.85251864 0.0050745155  0.034046244            2 
   15000     1.243027   -7.1801262    1.2486572  0.006936984  0.033457239            2 
   16000    1.2203628   -7.1592106    1.6503047 0.0085953366  0.033247975            1 
   17000    1.2307183   -7.1298546    2.0864986  0.010227934  0.033629201            2 
   18000    1.2543437    -7.095912    2.5213607  0.011672966  0.034142146            2 
   19000    1.2025339   -7.1377584    2.9627745  0.012994625  0.034550871            2 
   20000    1.2447874   -7.1311746    3.3585341  0.013993892  0.034728194            2 
   21000    1.2368073   -7.1466991     3.724903  0.014781361  0.034550726            1 
   22000    1.2468871   -7.1207659    4.1214179  0.015611431  0.034376871            3 
   23000    1.2465268   -7.0957082    4.5301412  0.016413555  0.034272371            2 
   24000    1.2373112   -7.1462674    4.9061321   0.01703518  0.034083887            2 
   25000    1.2414245   -7.1691935    5.3018662  0.017672887  0.033926875            2 
   26000      1.24542   -7.1602151    5.7276507  0.018357854  0.033915199            2 
   27000    1.2242819   -7.1364998    6.1427231  0.018959022  0.033945561            2 
   28000    1.2570429   -7.1480683    6.5357296  0.019451576  0.033941822            2 
   29000    1.2184809   -7.1240021    7.0650607  0.020301898  0.033952531            1 
   30000    1.2437663   -7.1570293    7.4772807  0.020770224  0.034126073            1 
   31000    1.2460426   -7.1525203     7.881436  0.021186655  0.034234134            2 
   32000    1.2412393   -7.0903625    8.3864555  0.021839727   0.03435372            1 
   33000    1.2496063   -7.1717269    8.7891676  0.022194867  0.034467918            1 
   34000    1.2405552   -7.2063017    9.2454419  0.022660396  0.034550844            1 
   35000    1.2335033    -7.172759    9.7514602  0.023217762   0.03469414            1 
   36000    1.2339088   -7.1950541     10.20267   0.02361729  0.034859492            1 
   37000    1.2539511   -7.1560375    10.570617  0.023807695  0.034965309            1 
   38000    1.2288434    -7.136138    10.888504  0.023878299  0.035015504            3 
   39000     1.231285   -7.1722801     11.29683  0.024138525  0.034991205            2 
   40000    1.2426183   -7.1783062    11.921108  0.024835641  0.035061066            2 
   41000    1.2176517   -7.1830474    12.443895  0.025292468  0.035212619            1 
   42000    1.2220346    -7.114917    12.893083  0.025581514  0.035356977            1 
   43000    1.2474695   -7.1495072    13.176979   0.02553678  0.035436087            2 
   44000    1.2094962   -7.1534176    13.644824  0.025842469  0.035492564            1 
   45000    1.2206708   -7.1541331    14.103726  0.026118011  0.035545409            2 
   46000    1.2303135   -7.1143438    14.446243   0.02617073  0.035567532            2 
   47000    1.2189325   -7.1959518    14.901894  0.026421797  0.035570612            3 
   48000    1.2273275   -7.1489487    15.367304  0.026679348  0.035569912            1 
   49000    1.2354972   -7.1766978    15.688114  0.026680465  0.035592616            1 
   50000    1.2311073   -7.1917495    15.967731  0.026612885   0.03557505            1 
   51000    1.2424625   -7.1716685    16.349887  0.026715501  0.035519122            1 
   52000    1.1969286   -7.1369587     16.89873  0.027081298  0.035495892            1 
   53000    1.2292533   -7.1716211    17.328956  0.027246786  0.035477707            1 
   54000    1.2474918   -7.1916218      17.7442  0.027383025  0.035468495            3 
   55000    1.2540806   -7.1523938    18.116144  0.027448702  0.035435976            2 
   56000    1.2401386   -7.1771308    18.356867  0.027316766  0.035387518            3 
   57000     1.199652    -7.178031    18.858861  0.027571434   0.03533153            2 
   58000    1.2600774   -7.1754025    19.196582  0.027581296  0.035282128            1 
   59000    1.2346382   -7.1386499    19.651109  0.027755803  0.035227876            1 
   60000    1.2439458   -7.1823699    19.970445  0.027736729  0.035188682            3 
   61000    1.2384773   -7.1563909    20.488287  0.027989463  0.035147598            2 
   62000    1.2366839   -7.1635714    20.726919  0.027858761  0.035095363            2 
   63000    1.2283041   -7.1420042    21.204358  0.028048092  0.035041855            1 
   64000    1.2253738   -7.1763802    21.482188  0.027971599  0.034984475            1 
   65000     1.229876   -7.1441504    21.845948  0.028007626  0.034921679            3 
   66000    1.2420094    -7.193228    22.143754  0.027959285  0.034853952            1 
   67000    1.2236042    -7.234913    22.558059  0.028057288  0.034786635            1 
   68000     1.239457   -7.1484339    23.228093    0.0284658  0.034748604            2 
   69000     1.216838   -7.1655916    23.761295  0.028697216   0.03472757            2 
   70000    1.2239299   -7.1953269    24.219795  0.028833089  0.034722209            3 
   71000    1.2256951   -7.1506085    24.536545  0.028798762  0.034709905            2 
   72000    1.2145207   -7.1764854    24.655599  0.028536573  0.034673049            3 
   73000    1.2186477   -7.1551204    25.206886  0.028774984  0.034633652            1 
   74000     1.213527   -7.1435456    25.570416  0.028795513  0.034605925            2 
   75000    1.2009587   -7.1842232    26.031728  0.028924142  0.034582688            2 
   76000    1.2385652   -7.2127624    26.389944  0.028936342  0.034559792            1 
   77000    1.2104839   -7.1980947    26.693623  0.028889203  0.034520211            1 
   78000    1.1991269   -7.1996968    27.081827  0.028933576  0.034479316            1 
   79000    1.2339981   -7.1486471    27.562892   0.02907478  0.034437882            1 
   80000     1.228642   -7.2580858    27.854677  0.029015289  0.034401335            1 
   81000    1.2225527   -7.2168742    28.175486  0.028987126  0.034358496            1 
   82000    1.2565689   -7.1946288     28.33461  0.028795335  0.034298347            3 
   83000    1.2212259   -7.1654356    28.888997  0.029005017  0.034241107            1 
   84000    1.2338813   -7.2025942    29.242154  0.029010073  0.034192755            1 
   85000    1.2271474   -7.1818757    29.687765  0.029105652  0.034151219            6 
   86000    1.2166058   -7.1758405    30.080702  0.029147967   0.03411197            1 
   87000    1.2134942   -7.2282432    30.562851  0.029274761  0.034072316            1 
   88000     1.201329   -7.2045272    30.902559  0.029263787  0.034034177            1 
   89000    1.2248532   -7.2059493    31.411199  0.029411235  0.034003906            2 
   90000    1.2313215   -7.2366735    31.658234  0.029313179  0.033977924            2 
   91000    1.2306431   -7.2067958      32.1928  0.029480586  0.033954186            3 
   92000    1.2348527   -7.1744256    32.495715  0.029434524  0.033933396            1 
   93000    1.2210168   -7.2317128    32.741005  0.029337818  0.033906187            1 
   94000    1.2406298   -7.1850618    33.247795  0.029474995  0.033870398            3 
   95000     1.216778   -7.1759894    33.563024  0.029441249   0.03383847            2 
   96000    1.2328105   -7.2197043    34.143069   0.02963808  0.033811007            3 
   97000    1.2068021   -7.1824849    34.589417  0.029715994  0.033789965            2 
   98000    1.2602249   -7.2043492    34.754606  0.029553236  0.033767162            3 
   99000    1.2138095   -7.1650054    35.065875   0.02951673  0.033734427            1 
  100000    1.1978171    -7.153879    35.116168  0.029263474  0.033691127            1 
  101000    1.2082948   -7.2142992    35.418925  0.029223535  0.033641113            4 
  102000    1.2493767   -7.2754024    35.805245  0.029252651  0.033587109            2 
  103000    1.1991432   -7.1947468    36.219789  0.029304036  0.033538266            3 
  104000     1.224656   -7.2464327    36.561183   0.02929582  0.033493051            2 
  105000    1.1908538   -7.2069428    37.095214  0.029440646  0.033450742            2 
  106000    1.2048913   -7.2191491    37.379826  0.029386655  0.033410707            1 
  107000    1.2547716    -7.236814     37.87579  0.029498279  0.033369389            2 
  108000    1.2149268   -7.2583227    37.978749   0.02930459  0.033330931            2 
  109000    1.2047869   -7.2348367    38.418742  0.029372127  0.033293643            3 
  110000    1.2178539   -7.1847233    38.855713  0.029436146  0.033254238            1 
  111000    1.2172812     -7.25315    39.086489  0.029344211  0.033212346            2 
  112000    1.2039026   -7.2268535    39.283335  0.029228671  0.033169735            2 
  113000    1.1876006   -7.2458625    39.826079  0.029370264  0.033123833            1 
  114000    1.2193555   -7.2288616    40.137962  0.029340615  0.033079361            2 
  115000    1.2174371   -7.2422397    40.391417  0.029269143  0.033034716            2 
  116000     1.198286   -7.2131848    40.536756  0.029121232  0.032980716            3 
  117000    1.1960251   -7.2190562    41.153386  0.029311528  0.032932451            1 
  118000    1.2090612   -7.2205525    41.412295  0.029245971  0.032889148            1 
  119000    1.1779825   -7.2194025    41.965666  0.029387721  0.032846451            1 
  120000    1.2013378   -7.2619026    42.067722  0.029213695  0.032803887            6 
  121000    1.1990387    -7.270898    42.696855  0.029405547  0.032764548            1 
  122000    1.2120074   -7.2504799     43.11287  0.029448682  0.032725993            2 
  123000    1.1767856   -7.2042375    43.437747  0.029429368  0.032691325            2 
  124000    1.1940594   -7.2358675    43.682327  0.029356403  0.032656968            1 
  125000    1.1659727   -7.2283224    44.056203  0.029370802  0.032619002            1 
  126000    1.2230296   -7.2285661    44.372484  0.029346881  0.032576469            3 
  127000    1.1977085   -7.2585403      44.6622  0.029305906  0.032533563            3 
  128000    1.2142396   -7.2262612    45.061472  0.029336896  0.032494434            1 
  129000    1.2006077   -7.2363088    45.616786  0.029468208  0.032459713            2 
  130000    1.1957935   -7.2604218    45.843873  0.029387098  0.032425043            1 
  131000    1.2103802   -7.2894025    46.071927  0.029307841  0.032390145            3 
  132000    1.1895709   -7.2819393    46.589258  0.029412411  0.032356128            2 
  133000    1.1924321   -7.2472958    47.006616  0.029452767  0.032328614            3 
  134000    1.1985075    -7.207926    47.376515  0.029463007  0.032300762            1 
  135000    1.2112966   -7.2634841    47.663867   0.02942214  0.032268099            2 
  136000    1.2100104   -7.2216442     48.13399  0.029493866  0.032236229            2 
  137000    1.1899703   -7.2824246    48.387816  0.029432978  0.032206332            2 
  138000    1.2191052   -7.2287331    48.606349   0.02935166  0.032175629            1 
  139000    1.2265343   -7.2525702    49.084391  0.029427093  0.032145964            2 
  140000    1.2196029   -7.2924392    49.439059  0.029428011  0.032116497            2 
  141000    1.1840079   -7.2429716    49.829107  0.029449826  0.032089215            2 
  142000    1.2280618   -7.2560139    49.956212  0.029317026   0.03205874            3 
  143000    1.1703223   -7.2521565    50.317648  0.029322639  0.032028073            2 
  144000    1.2021859   -7.2479323    50.869251  0.029438224  0.031997751            2 
  145000    1.1994961   -7.2635737     51.39005  0.029534511  0.031973275            1 
  146000    1.2027205   -7.2903795    51.646478  0.029478583  0.031950356            2 
  147000    1.1790663   -7.2701908     51.88844  0.029415216  0.031925399            1 
  148000    1.1838862   -7.2666481    52.221249  0.029403856  0.031897532            3 
  149000    1.1873699   -7.2744552    52.560048     0.029396  0.031870271            4 
  150000    1.1847311   -7.2508271    52.984722  0.029435957  0.031844315            1 
  151000    1.1930487   -7.2919105    53.427843  0.029485564  0.031822156            2 
  152000    1.1808926   -7.2847858    53.692148  0.029436484  0.031800316            2 
  153000    1.1971237   -7.2836964    53.766248  0.029284449  0.031775001            3 
  154000    1.1951806   -7.2916022    54.347185   0.02940865  0.031750018            1 
  155000    1.2288125   -7.3124796    54.634177  0.029373213  0.031724284            2 
  156000    1.1767195   -7.2006673    55.192227  0.029483027   0.03170014            3 
  157000    1.1686515   -7.2468289    55.287306  0.029345704   0.03167343            2 
  158000    1.1957646   -7.2219037    55.574818  0.029311613  0.031648205            4 
  159000    1.1778351    -7.310621    55.806861  0.029248879  0.031620933            2 
  160000    1.2019171   -7.2967307    56.071481  0.029203896  0.031592939            2 
  161000    1.1930919   -7.2915182    56.581245  0.029286358  0.031565556            2 
  162000    1.1797758    -7.317816    56.831806  0.029234468  0.031538444            2 
  163000    1.1576275    -7.316327    57.126146  0.029205596  0.031511392            1 
  164000    1.1541613    -7.297753    57.789867   0.02936477  0.031487155            3 
  165000    1.1983558   -7.2728158    58.058942  0.029322698   0.03146522            1 
  166000    1.1935762    -7.280417    58.567719  0.029401465  0.031444601            1 
  167000    1.1667087   -7.2221293    58.961352  0.029421832  0.031423718            3 
  168000    1.2198157   -7.2529779     59.34251  0.029435769  0.031406214            1 
  169000    1.1778468   -7.2735689    59.439114  0.029309228  0.031386526            1 
  170000    1.1957206   -7.3132892    60.090396  0.029456076  0.031366935            1 
  171000     1.205267   -7.2589043     60.62485  0.029544274  0.031351667            2 
  172000    1.1845605    -7.254239    61.026277  0.029566995  0.031337159            3 
  173000    1.1945328   -7.2838918     61.27016  0.029513564  0.031320806            2 
  174000    1.1909412   -7.2924723    61.479159  0.029444042  0.031304536            3 
  175000    1.2031103   -7.3113316    61.817618  0.029436961  0.031288036            1 
  176000    1.1770431   -7.2569072    62.381656  0.029536769  0.031272715            3 
  177000    1.1853921   -7.2523295    62.687398  0.029513841  0.031255891            1 
  178000     1.188999   -7.2906833    62.797706  0.029399675   0.03123993            1 
  179000    1.1989627   -7.2595975    62.904077  0.029284952  0.031220618            2 
  180000    1.1828775   -7.2699094    63.390941  0.029347658  0.031200188            2 
  181000    1.1792365   -7.2865098    63.631792  0.029296405  0.031179111            1 
  182000    1.1570592   -7.2640152    63.982641  0.029296081  0.031158135            1 
  183000    1.1668536   -7.2619383    64.034767   0.02915973  0.031135658            2 
  184000    1.1872694   -7.2573852    64.398641  0.029166051  0.031111927            3 
  185000    1.1505527   -7.2868376    64.713234  0.029150105  0.031089131            1 
  186000    1.1973194   -7.3127758    65.109225    0.0291708  0.031065183            2 
  187000    1.1764116   -7.2977747    65.784609  0.029315779  0.031046488            1 
  188000     1.153428   -7.3221061    66.114711  0.029306166  0.031029452            3 
  189000    1.1698921   -7.3151095    66.540452  0.029338824  0.031012537            3 
  190000    1.1685716   -7.2603702    66.834944  0.029313572  0.030996522            1 
  191000    1.1648143     -7.26517    66.955869  0.029212857  0.030976058            3 
  192000    1.1892692   -7.3125799    67.009833  0.029084129    0.0309532            3 
  193000    1.1859848   -7.2771915    67.512891  0.029150644   0.03092977            1 
  194000    1.1716865   -7.3172782    67.429693  0.028964645  0.030906071            2 
  195000    1.1514995   -7.3092196    67.902574  0.029018194  0.030881332            2 
  196000     1.158562   -7.3402259    68.124952   0.02896469  0.030857206            2 
  197000    1.1572082   -7.2788924    68.646268  0.029038184  0.030832274            2 
  198000    1.1933658   -7.3181449      68.7828   0.02894899  0.030807171            3 
  199000    1.1853448   -7.3129827     69.24576  0.028997387  0.030782594            3 
  200000    1.1766659   -7.3443049    69.352225   0.02889676  0.030758021            2 
  201000    1.1583249   -7.3171471     70.09244  0.029059884  0.030734226            1 
  202000    1.1848821   -7.2863982    70.700728  0.029166967  0.030712857            2 
  203000    1.1624208    -7.325734      70.6295  0.028994048  0.030691954            2 
  204000    1.1929676   -7.3369427    70.997803   0.02900237  0.030671022            1 
  205000    1.1661409   -7.3522708    71.077105  0.028893132  0.030647622            1 
  206000    1.1948772    -7.281604    71.509521    0.0289278  0.030625967            2 
  207000    1.1821293   -7.2976423    71.887304  0.028940138  0.030604303            1 
  208000    1.1757061   -7.2967752    72.296853  0.028965085  0.030582054            2 
  209000     1.173337   -7.3464446    72.368187  0.028854939  0.030559143            4 
  210000    1.1945691   -7.3719111    72.613348   0.02881482  0.030536014            2 
  211000    1.1488998   -7.3191133    72.976473  0.028821672  0.030514073            1 
  212000    1.1793823   -7.2953331    73.482334  0.028884565  0.030491639            2 
  213000    1.1732151   -7.3253107     73.65533  0.028816639  0.030469966            2 
  214000    1.1804522   -7.2867928    74.145366  0.028872806  0.030447828            3 
  215000    1.1614208   -7.3196658    74.662857  0.028939092  0.030426082            1 
  216000    1.1685214   -7.3274249    74.838827  0.028873004  0.030404761            2 
  217000    1.1715405   -7.3322165    75.213477  0.028883824   0.03038347            1 
  218000      1.14958   -7.3710036    75.075898  0.028698738  0.030362145            1 
  219000    1.1687674   -7.3777349    75.296839  0.028651765  0.030338334            4 
  220000    1.1944095   -7.3363696     75.90207  0.028750784  0.030314735            2 
  221000    1.1659934   -7.3249081    76.279909  0.028763163  0.030290967            2 
  222000    1.1411586   -7.3535108    76.247665  0.028621496  0.030264698            2 
  223000    1.1689877    -7.354977    76.490457  0.028583878  0.030238791            2 
  224000    1.1539133   -7.3105804     77.19329  0.028717742  0.030213907            2 
  225000    1.1739805   -7.3603169    77.475106  0.028694484  0.030192412            1 
  226000    1.1665516   -7.3253828    77.701004  0.028650813  0.030170662            1 
  227000    1.1673444   -7.3448126    77.791363  0.028557769  0.030146307            3 
  228000    1.1265964   -7.3520225    77.851881  0.028454635  0.030120524            1 
  229000    1.1628275   -7.3333664    78.626006  0.028612084  0.030094163            2 
  230000    1.1625939   -7.3857007    78.689451  0.028510671  0.030069423            2 
  231000    1.1630119    -7.320766    79.139668  0.028549664  0.030044184            2 
  232000    1.1630815   -7.3547044    78.989505  0.028372667  0.030019901            1 
  233000    1.1591347   -7.2948088    79.894471   0.02857456  0.029995391            2 
  234000    1.1775592   -7.3073523     80.35417  0.028616157   0.02997319            5 
  235000    1.1688634   -7.3077295    80.347812  0.028492132  0.029949801            3 
  236000    1.1270989    -7.286131      80.9252  0.028575282  0.029926051            2 
  237000    1.1464971   -7.2936435    81.276141  0.028578109  0.029904442            3 
  238000    1.1589895   -7.3408985     81.29902  0.028466044  0.029884469            7 
  239000    1.1574041   -7.3972009    81.622464  0.028459715   0.02986177            1 
  240000    1.1471439   -7.3174901    82.198218  0.028541048  0.029840394            2 
  241000    1.1494003    -7.318804    82.364837  0.028480234  0.029819925            2 
  242000    1.1719835     -7.35806    82.412165  0.028378845  0.029798138            1 
  243000    1.1748607   -7.3135105    82.970652  0.028453584  0.029775583            3 
  244000    1.1504029   -7.3449742    83.171145  0.028405446  0.029754464            2 
  245000    1.1675562   -7.3485327    83.652384  0.028453192  0.029731683            2 
  246000    1.1584463   -7.3821857    83.816985  0.028393287  0.029710082            2 
  247000    1.1706291   -7.3204924    84.124199  0.028381984  0.029688876            2 
  248000    1.1511677   -7.3389244    84.637427  0.028439996  0.029665777            3 
  249000    1.1397528    -7.293595    85.012487  0.028451301  0.029645356            2 
  250000     1.150959   -7.3865279    85.218643  0.028406214  0.029625101            3 
  251000    1.1620954   -7.4329204    85.464906  0.028374803  0.029604635            1 
  252000    1.1614834   -7.3282354    85.754911  0.028358106  0.029584133            1 
  253000    1.1714683    -7.391166    85.925983  0.028302366   0.02956249            3 
  254000    1.1323793   -7.3915167     86.15062  0.028264639  0.029540788            2 
  255000    1.1573598   -7.4042901    86.262774  0.028190449  0.029517475            2 
  256000    1.1492031   -7.3358648    86.957538   0.02830649  0.029496312            4 
  257000    1.1411332   -7.3942143    86.911359  0.028181375   0.02947468            1 
  258000    1.1544549   -7.3536693    87.170853   0.02815596   0.02945266            1 
  259000    1.1459923     -7.37204    87.798688  0.028249256  0.029430174            3 
  260000    1.1698175   -7.3790551    87.990341  0.028202032  0.029408488            4 
  261000     1.160644   -7.3650859    88.329165   0.02820216  0.029387281            2 
  262000     1.141972   -7.3536801     88.29354  0.028083187  0.029365249            2 
  263000    1.1730138   -7.3813119    88.704914  0.028106753  0.029343062            1 
  264000    1.1733436   -7.3651854    88.876946  0.028054592  0.029321685            1 
  265000     1.139553   -7.3383779    89.584693  0.028171287  0.029298737            2 
  266000     1.165511   -7.3663823    89.346268  0.027990685  0.029275462       -1e+20 
  267000    1.1485323   -7.3978797    89.897667  0.028057948  0.029253117            1 
  268000    1.1189886   -7.3423358    90.604771  0.028173125  0.029231802            2 
  269000    1.1639237   -7.3613987    90.505272  0.028037569  0.029209823            2 
  270000    1.1796384    -7.366554    90.399421  0.027901056  0.029186534            2 
  271000    1.1740092   -7.3435396     91.15013  0.028028945  0.029164696            2 
  272000      1.15098   -7.4236851    91.042371  0.027892883  0.029143326            2 
  273000    1.1571229   -7.4013055    91.377848  0.027893116  0.029122368            2 
  274000    1.1539595   -7.3533894    91.514201  0.027832786  0.029099146            1 
  275000    1.1839472   -7.3664014    91.912542  0.027852285  0.029076663            2 
  276000    1.1420774   -7.4479072    91.763268  0.027706301  0.029053965            2 
  277000    1.1515983   -7.3607994    92.598335  0.027857501  0.029030152            2 
  278000    1.1286503   -7.3922396    92.844287  0.027831021  0.029008225            3 
  279000    1.1366081   -7.3350688     93.48098   0.02792144  0.028986132            1 
  280000      1.13496   -7.3513636     93.81677  0.027921658  0.028965941            6 
  281000    1.1429704     -7.38131    93.968957  0.027867425  0.028946263            3 
  282000    1.1498243   -7.3656991     94.63322  0.027964899  0.028927212            2 
  283000    1.1458909   -7.3382871     94.82746   0.02792328  0.028908458            3 
  284000    1.1414672   -7.3829856    94.864261  0.027835757  0.028889366            3 
  285000    1.1406587   -7.3405171    95.603455  0.027954227   0.02887076            4 
  286000    1.1622189   -7.4198903    95.631756  0.027864731  0.028851791            5 
  287000    1.1245792   -7.3854696    95.538169  0.027740467  0.028832442            3 
  288000    1.1190165   -7.3990962    96.148182  0.027820654   0.02881248            2 
  289000    1.1226644   -7.3998675    96.664234  0.027873193  0.028793889            1 
  290000    1.1438132   -7.3771806    96.949891  0.027859164  0.028775707            1 
  291000    1.1389888   -7.3993183    97.334543   0.02787358   0.02875841            1 
  292000    1.1232313   -7.3797199    97.888443  0.027936199  0.028741536            2 
  293000    1.1302545   -7.4191884    98.192445  0.027927317  0.028724273            2 
  294000    1.1390991   -7.3640083    98.728885  0.027984378  0.028707845            3 
  295000    1.1250729   -7.3965233    98.544531  0.027837438  0.028691824            5 
  296000    1.1045326   -7.3622117     98.95984  0.027860315  0.028676617            2 
  297000    1.1501504   -7.3853503     99.05118  0.027792138  0.028660451            1 
  298000    1.1458384   -7.4286993    99.527347  0.027832032  0.028644928            3 
  299000    1.1163901   -7.4247112    99.768745  0.027806228  0.028628459            2 
  300000    1.1349104   -7.4138151    100.32696  0.027868599  0.028612371            3 
  301000    1.1420967   -7.4045154     100.5913  0.027849197  0.028597217            2 
  302000    1.1342743   -7.4174046    101.25865  0.027941128  0.028582711            2 
  303000    1.1161787   -7.4104238    101.43939  0.027898621  0.028568528            1 
  304000    1.1602739    -7.456272    101.35878  0.027784752  0.028553563            2 
  305000     1.124129   -7.3806013    101.70762  0.027788966  0.028538838            2 
  306000    1.1297169   -7.3924177    102.06078  0.027794329  0.028524036            3 
  307000    1.1550087   -7.3849159    102.67883  0.027871561  0.028510619            6 
  308000    1.1005247    -7.450193    102.61756  0.027764493  0.028496726            2 
  309000     1.151526   -7.4201674    103.17114  0.027823932  0.028481898            4 
  310000    1.1206819   -7.4242561    103.46845  0.027814099  0.028467813            1 
  311000    1.1090973   -7.3851858    103.74581  0.027798985   0.02845308            2 
  312000    1.1228111   -7.3729746    103.87756  0.027745075  0.028437889            1 
  313000    1.1365327   -7.3904984    103.75536  0.027623899   0.02842161            4 
  314000    1.1352703   -7.3782044    104.05858  0.027616395  0.028406201            2 
  315000    1.1311425   -7.4173515    104.01871  0.027518176  0.028388975            5 
  316000    1.1108511   -7.4135759    104.56219  0.027574417  0.028373273            4 
  317000    1.1093341   -7.4721237    104.64773  0.027509919   0.02835626            2 
  318000    1.1333297   -7.4247173    105.29572  0.027593218  0.028339362            5 
  319000    1.1214893   -7.4639521    105.63102  0.027594309  0.028323352            1 
  320000    1.1242973   -7.4070438    105.86835  0.027569883  0.028307108            1 
  321000    1.1296381   -7.4236576    106.19241  0.027568122  0.028290975            2 
  322000    1.1161549   -7.4531977    106.43622  0.027545607  0.028274608            2 
  323000     1.097934    -7.387349    106.52135  0.027482289  0.028258157            1 
  324000    1.1439248   -7.4426458    106.80786  0.027471158  0.028242119            5 
  325000    1.1185474   -7.4429193    106.97384   0.02742919  0.028225663            6 
  326000    1.1042837   -7.4654103    107.07869  0.027371854  0.028208465            2 
  327000    1.1168466   -7.4432108    107.25098  0.027332054  0.028190534            2 
  328000    1.1253772   -7.4524934    107.94405  0.027424811  0.028173218            1 
  329000    1.1180786   -7.4656143    107.75876  0.027294518  0.028154969            2 
  330000    1.1313314     -7.42471    108.18271  0.027318866  0.028137335            2 
  331000    1.1153075   -7.4346941    108.78226  0.027387277  0.028121059            2 
  332000    1.1122781   -7.4681251    109.06829  0.027376578  0.028104848            1 
  333000    1.1129355   -7.4120572     109.5268   0.02740911  0.028089202            3 
  334000    1.1481027   -7.4315498    109.72691  0.027376972  0.028073857            2 
  335000    1.1046184   -7.4297656    110.23012  0.027420429  0.028058372            1 
  336000    1.1070174   -7.4522427    110.01253  0.027284853  0.028042807            2 
  337000    1.1061395   -7.4473008    110.46262  0.027315187  0.028026276            2 
  338000    1.1102806   -7.4796526    110.33491  0.027202888  0.028008944            2 
  339000     1.140909   -7.4398372    110.59049   0.02718547  0.027991449            2 
  340000    1.0928571   -7.4517877    111.25917  0.027269404  0.027974109            3 
  341000    1.0993319   -7.4505475    111.42976  0.027231125  0.027957429            6 
  342000     1.114039    -7.456855    111.65372  0.027206071  0.027940902            2 
  343000    1.1119347   -7.4743217    111.81365  0.027165609  0.027923264            1 
  344000    1.1079841   -7.4155553    112.57421  0.027270885  0.027906225            2 
  345000    1.1200558   -7.4588155     112.6903  0.027219879  0.027889157            2 
  346000    1.1089045   -7.4468902    112.83497  0.027176053  0.027872871            4 
  347000    1.1352868   -7.4441162    113.33131  0.027216934  0.027856575            6 
  348000    1.1002803   -7.4548051    112.92849  0.027042263  0.027839826            5 
  349000    1.1084491   -7.4822025    113.15213  0.027018179  0.027822243            4 
  350000    1.1259258   -7.4639218    113.34479  0.026986855  0.027804461            2 
  351000    1.1322151   -7.4409482    113.76251  0.027009142  0.027786048            2 
  352000    1.1369759   -7.4652549    114.13786  0.027021273  0.027767951            6 
  353000    1.0950696   -7.4856409    114.50589  0.027031609  0.027751221            2 
  354000    1.1072851   -7.4698339    114.84943  0.027036118  0.027734584            1 
  355000    1.1229598   -7.4234248    115.44207  0.027099077  0.027717879            3 
  356000    1.0995669   -7.4474985     115.0977  0.026942345  0.027701351            2 
  357000    1.1301949   -7.4683168    115.37725  0.026932132    0.0276844            3 
  358000    1.1006734   -7.4567954    115.92513  0.026984434  0.027667188            2 
  359000    1.1120272   -7.5084509    115.84513  0.026890699  0.027649683            1 
  360000    1.1085411   -7.4712173    116.24925  0.026909548  0.027631556            1 
  361000    1.1063223   -7.4536879    116.96547  0.027000339  0.027614581            1 
  362000    1.1197756    -7.468578    117.15526  0.026969442  0.027598379            7 
  363000    1.1230271   -7.4994836    116.67219   0.02678425  0.027580962            3 
  364000    1.0737921   -7.4666775    117.51987  0.026904732   0.02756399            3 
  365000     1.115183   -7.4551729    117.81368  0.026898101  0.027547107            1 
  366000    1.1134738   -7.4575117    118.04783  0.026877921  0.027530102            3 
  367000    1.1013063   -7.5032198    117.84647  0.026758962  0.027513132            5 
  368000    1.1309573   -7.4773386    118.33227  0.026796257  0.027495658            1 
  369000    1.1107045   -7.4974645    118.34364  0.026726206   0.02747752            3 
  370000    1.1000513   -7.4475547    118.83821  0.026765363  0.027459608            2 
  371000    1.1135167   -7.4816224    118.68145  0.026658008  0.027441056            1 
  372000    1.0997069   -7.4710998    119.24602  0.026712818  0.027422317            1 
  373000    1.1142495   -7.4562983     119.8161  0.026768566  0.027404151            1 
  374000    1.1137087    -7.458931    119.85504  0.026705668  0.027386942            2 
  375000    1.1004528   -7.4838808     120.5043  0.026778734  0.027370649            1 
  376000    1.1084773   -7.4621468    121.00763  0.026819066  0.027354379            2 
  377000    1.1130655   -7.4706775    120.99422  0.026744965  0.027338244            2 
  378000    1.1034021   -7.4745042    120.98844  0.026672936  0.027322032            2 
  379000    1.1112308   -7.4895978    121.06619  0.026619655  0.027305622            1 
  380000    1.1078508    -7.456918    121.71237  0.026691308  0.027289036            2 
  381000    1.1204472    -7.489876    121.98361  0.026680579  0.027272862            1 
  382000    1.1117842   -7.4673841    122.45583   0.02671375  0.027256037            5 
  383000    1.1071387   -7.5076089    122.13589   0.02657439  0.027239852            2 
  384000    1.0989587   -7.4931446    122.65321  0.026617449  0.027223039            2 
  385000    1.0874598   -7.4867503     122.9315  0.026608551   0.02720585            2 
  386000    1.1094894   -7.5131366    122.87338  0.026527068  0.027188096            3 
  387000    1.0958538   -7.5000307    122.63851  0.026407948  0.027169827            4 
  388000    1.0983935   -7.4634549    123.61695  0.026550031  0.027152121            7 
  389000    1.1043557   -7.5196137    123.46196  0.026448578  0.027134847            1 
  390000    1.1083318   -7.4990502    124.09309  0.026515618  0.027118464            3 
  391000     1.104937    -7.516794    124.45553  0.026525048  0.027102309            3 
  392000    1.0714629   -7.5193301    124.63286   0.02649508  0.027086442            3 
  393000    1.1030953   -7.4956839    124.88189  0.026480469  0.027071024            1 
  394000    1.1353013   -7.5048645    126.13973  0.026679301   0.02705659            3 
  395000     1.082278   -7.5052703    125.96492  0.026574878  0.027043128            2 
  396000     1.099832   -7.5194581    126.79959  0.026683414  0.027029108            2 
  397000    1.1022653   -7.4848856    126.37828  0.026527768  0.027014285            1 
  398000    1.0527513   -7.5196042     126.8821  0.026566603  0.027000039            1 
  399000    1.1091494   -7.4439134     127.1456  0.026555055  0.026985596            1 
  400000     1.087841   -7.5327173    126.86894  0.026431028  0.026970893            2 
  401000    1.0923779   -7.5221968     127.1628  0.026426184  0.026955381            1 
  402000    1.0891194    -7.498302    127.87628   0.02650835  0.026940601            3 
  403000    1.1032004   -7.5282992    128.12577  0.026494163  0.026925012            2 
  404000    1.0919731   -7.5500717    127.60142  0.026320424  0.026909368            1 
  405000    1.0995586   -7.5562524    127.83163  0.026302804   0.02689337            1 
  406000    1.0785018   -7.4832554    128.88686   0.02645461  0.026877827            1 
  407000    1.0965909   -7.4433027    129.00776  0.026414364  0.026861955            5 
  408000     1.058941   -7.4896813    128.79163  0.026305481  0.026846403            2 
  409000    1.0891827   -7.4916461    128.98827  0.026281228  0.026831092            2 
  410000     1.099069   -7.4936294    129.40791   0.02630242  0.026815973            1 
  411000    1.0794163    -7.514206    129.97636  0.026353682  0.026800673            1 
  412000    1.0741296    -7.505956     130.3841  0.026372189  0.026785396            3 
  413000    1.0611901   -7.5336181    130.38555  0.026308626  0.026770564            1 
  414000    1.0949783   -7.5174531    130.60476  0.026289203  0.026755955            2 
  415000    1.0908335   -7.5150848     131.2526  0.026355944  0.026741856            3 
  416000    1.0558611   -7.5098784    131.59535  0.026361247  0.026727962            2 
  417000    1.0595321    -7.527582    131.44533  0.026268051  0.026713734            2 
  418000    1.0999316   -7.5063341    131.92992  0.026301818  0.026699577            2 
  419000    1.0608058   -7.5387737    131.83085  0.026219341  0.026685137            2 
  420000     1.060303    -7.527191    132.28451  0.026246927  0.026670255            4 
  421000    1.0799385   -7.5390239    132.84915  0.026296348  0.026655221            3 
  422000    1.0767563   -7.5307036    132.43823  0.026152889  0.026640448            2 
  423000    1.0821695   -7.5571444    132.82272  0.026166808  0.026625425            1 
  424000    1.0732148   -7.5545221    132.67007  0.026075092  0.026609539            3 
  425000     1.087103   -7.5423345    132.74916  0.026029246  0.026592762            3 
  426000    1.1024504   -7.5415152    132.93399  0.026004302  0.026576544            4 
  427000    1.0848137   -7.5234424    133.38292  0.026031015  0.026560349            3 
  428000    1.0861486    -7.532537    133.86314  0.026063696  0.026543967            1 
  429000    1.0597982   -7.5459831    133.48555  0.025929594  0.026527216            4 
  430000     1.054455   -7.5745229    133.69809  0.025910482  0.026510107            2 
  431000      1.08612   -7.5607374    133.84865  0.025879476  0.026492237            2 
  432000    1.0920248   -7.5779533    134.49057  0.025943398  0.026474651            4 
  433000    1.0743175   -7.6124264    133.94951  0.025779351  0.026457093            3 
  434000    1.0808738   -7.5510417    134.59311  0.025843531  0.026439243            2 
  435000    1.0793199   -7.5420588    135.35304  0.025929702   0.02642194            4 
  436000    1.0552825   -7.5462665    135.05929  0.025814085  0.026405107            3 
  437000    1.0920075   -7.5577637    134.97923  0.025739746  0.026387777            3 
  438000    1.0449967   -7.5790693    135.27991  0.025738187  0.026370637            2 
  439000     1.094409   -7.5775992    135.85428  0.025788588  0.026353607            3 
  440000    1.1052136   -7.5847768    136.11466  0.025779291  0.026336612            4 
  441000    1.0467539   -7.5751779     136.6716  0.025826077  0.026319895            3 
  442000    1.0878225   -7.5297401    137.07476  0.025843658  0.026302917            1 
  443000    1.0770399   -7.5467044    137.20621  0.025810048  0.026286104            2 
  444000    1.0646902   -7.5816377    136.69775  0.025656485  0.026269065            1 
  445000    1.0556461   -7.5391702    137.05932   0.02566654  0.026251906            1 
  446000    1.0890023    -7.550304     137.7165  0.025731782  0.026235155            1 
  447000    1.0653531   -7.5342749    138.02821  0.025732329  0.026218055            1 
  448000     1.062312   -7.5757331     138.4832  0.025759524  0.026201285            1 
  449000    1.0778305   -7.5532712    138.30555  0.025669182  0.026184946            1 
  450000    1.0652398   -7.5785718    138.40978   0.02563144  0.026168399            2 
  451000    1.0715439   -7.5898474    138.49844   0.02559099  0.026151253            3 
  452000    1.0637667   -7.5922229    138.56944  0.025547464  0.026133634            4 
  453000    1.0672347   -7.5718881    138.70312  0.025515658  0.026115901            3 
  454000    1.0593025   -7.5862941    138.67848  0.025454934  0.026097696            2 
  455000    1.0785126   -7.5402829    139.44542  0.025539453  0.026079653            1 
  456000    1.0624444   -7.6216698     139.3444  0.025464985  0.026061557            3 
  457000    1.0838449   -7.5664388    140.18949  0.025563365  0.026043799            2 
  458000    1.0950793   -7.5193115    140.11726  0.025494407  0.026026464            3 
  459000    1.0745595   -7.5705349    139.80511  0.025382192  0.026008689            3 
  460000    1.0461303   -7.6149097    140.03927  0.025369433  0.025990359            2 
  461000    1.0776287   -7.5919743    140.45438  0.025389439   0.02597229            2 
  462000    1.0859274   -7.5682032    140.81868  0.025400195  0.025954759            4 
  463000    1.0715493   -7.6090355     141.0281  0.025383028  0.025936909            2 
  464000      1.06491    -7.604322    141.11241  0.025343465  0.025919333            1 
  465000    1.0858676   -7.5768061    141.36898  0.025334943  0.025901552            5 
  466000       1.0716   -7.5531281    142.03612  0.025399878  0.025884336            2 
  467000    1.0659796   -7.5935623    142.14327   0.02536461  0.025866936            2 
  468000    1.0895217   -7.5942217    142.14833  0.025311312  0.025849506            1 
  469000    1.0729243   -7.5510065    142.17817  0.025262646  0.025831751            1 
  470000     1.060235   -7.5672462    142.75787   0.02531168  0.025813919            1 
  471000    1.0811093   -7.5516845    142.49294  0.025211065  0.025795814            1 
  472000    1.0790019   -7.5829338     142.9343  0.025235576  0.025778446            3 
  473000     1.068027    -7.566795    143.55458  0.025291504  0.025760486            1 
  474000    1.0836519   -7.5722987    143.31469  0.025195971  0.025742882            2 
  475000    1.0465888   -7.5723497    143.48793  0.025173321  0.025725167            3 
  476000    1.0874112   -7.5341022    144.17077   0.02523998  0.025707535            2 
  477000    1.0652473   -7.5885219    144.51013  0.025246353  0.025690527            3 
  478000    1.0469639   -7.6212694    144.33974  0.025163832  0.025673376            4 
  479000    1.0670305     -7.58999    144.66423   0.02516775  0.025656017            4 
  480000    1.0764878   -7.6297429    144.92395  0.025160409  0.025638415            1 
  481000    1.0440966   -7.5954763    144.67998  0.025065832  0.025620427            2 
  482000    1.0800154   -7.5723419    145.21977  0.025107153  0.025602623            1 
  483000     1.057427   -7.5548303    145.46549  0.025097565  0.025584708            3 
  484000    1.0477322   -7.5886225    145.27818   0.02501346  0.025566802            2 
  485000    1.0744342   -7.5838624    145.39337  0.024981679  0.025548345            1 
  486000    1.0522599   -7.5286396    146.49279  0.025118792  0.025530587            1 
  487000    1.0636171   -7.6163694     146.0151  0.024985472  0.025512373            1 
  488000    1.0679582   -7.5658938    146.24955  0.024974308  0.025494222            2 
  489000    1.0486614   -7.5737265    146.79948  0.025016952  0.025476205            1 
  490000    1.0507447   -7.6128251     146.1599  0.024857125  0.025457649            2 
  491000    1.0440362   -7.5785429    147.06082  0.024959407  0.025438622            2 
  492000    1.0396968   -7.5936777    146.68608  0.024845204  0.025419945            2 
  493000    1.0670964   -7.6072569     146.9317  0.024836325  0.025401078            2 
  494000    1.0473668   -7.6028016    147.29047   0.02484657  0.025382714            1 
  495000    1.0459407   -7.6071247    147.03235   0.02475292  0.025363951            2 
  496000    1.0581658   -7.5815365    147.60646  0.024799473  0.025345053            1 
  497000    1.0546533   -7.6298671    146.72439  0.024601675  0.025326137            4 
  498000    1.0595651   -7.5957505    148.03816  0.024772116  0.025307305            2 
  499000    1.0539841   -7.6160329    147.88528  0.024696941  0.025288616            3 
  500000     1.071686    -7.606616    147.89406   0.02464901  0.025268942            1 
  501000    1.0783262   -7.5989347    147.70509  0.024568378  0.025249075            3 
  502000    1.0471938   -7.5996808    147.94057  0.024558527  0.025229008            3 
  503000     1.049891   -7.6240146    148.02919  0.024524386  0.025208977            2 
  504000    1.0454735   -7.5839814     148.4636  0.024547552  0.025189065            3 
  505000    1.0416375   -7.6111948    148.45895  0.024498177  0.025169073            2 
  506000    1.0488625   -7.6149968      148.955  0.024531456  0.025149152            4 
  507000     1.030485   -7.6052498    148.98559  0.024488099  0.025129724            3 
  508000     1.065754   -7.6081651    149.42517  0.024512003  0.025110378            1 
  509000    1.0365036   -7.6406285    149.53626  0.024482033  0.025091141            1 
  510000    1.0260723   -7.6292061    150.02714  0.024514238    0.0250718            1 
  511000    1.0675127   -7.6095418    150.13522   0.02448389  0.025052925            2 
  512000    1.0271706    -7.651651    150.34257  0.024469819  0.025034012            3 
  513000    1.0248134   -7.6541897    150.62781  0.024468454  0.025015259            2 
  514000    1.0475756   -7.6943801    150.57588  0.024412433   0.02499628            3 
  515000    1.0617211   -7.6567734    150.52933  0.024357497   0.02497741            2 
  516000    1.0314109   -7.6203059    150.93921  0.024376488  0.024958327            2 
  517000    1.0415195   -7.5902191    151.49847  0.024419482  0.024939359            2 
  518000    1.0417859   -7.6087059    151.16634   0.02431891  0.024920489            3 
  519000    1.0558672   -7.5756119    151.57612  0.024337848  0.024901597            3 
  520000     1.047342   -7.6250752    152.11139  0.024376826  0.024882816            2 
  521000    1.0769676   -7.5955957    152.28207  0.024357337  0.024864128            2 
  522000    1.0439323   -7.6194121    152.49386  0.024344486  0.024845713            2 
  523000    1.0461378   -7.6276455    152.19384  0.024250134  0.024826782            2 
  524000    1.0647197   -7.5677911    152.71505  0.024286745  0.024808099            2 
  525000    1.0275862   -7.6078345    152.74305  0.024244929  0.024789322            1 
  526000     1.046234    -7.616962    152.94745  0.024231218  0.024770026            2 
  527000    1.0767665   -7.6442388    153.24264  0.024231916  0.024750997            2 
  528000    1.0638462   -7.6192734    153.27501  0.024191131  0.024732192            3 
  529000    1.0183432   -7.6430993    153.64061  0.024202995  0.024713504            2 
  530000    1.0197713   -7.6351355    153.78136   0.02417946  0.024694451            2 
  531000    1.0356985   -7.6359027    154.20235  0.024199992  0.024675986            3 
  532000    1.0516597   -7.6341282    154.32059  0.024173025  0.024657349            1 
  533000     1.045791   -7.6117453    154.95089  0.024226218  0.024639097            4 
  534000    1.0512714   -7.6018384    154.92941  0.024177499  0.024621437            1 
  535000    1.0163291   -7.6587254    154.97241  0.024139004  0.024603643            1 
  536000    1.0442009   -7.6674346    155.09958   0.02411374  0.024585749            4 
  537000    1.0319692   -7.6249525    155.65345  0.024154787  0.024568188            1 
  538000    1.0218282   -7.6370223    155.48973   0.02408453  0.024550478            3 
  539000    1.0186557    -7.691771     155.3592  0.024019666  0.024532646            3 
  540000    1.0292894   -7.6558154    156.50268  0.024151648  0.024514818            2 
  541000    1.0458217    -7.650635    156.22657  0.024064475  0.024497285            3 
  542000    1.0430321   -7.6715452    155.79717  0.023954054  0.024479529            2 
  543000    1.0454566   -7.6482066    156.88865  0.024077448  0.024462073            3 
  544000    1.0428758   -7.6322695    156.99562  0.024049574  0.024445236            2 
  545000    1.0304439   -7.6261043     157.5764   0.02409425  0.024428189            2 
  546000     1.042584   -7.6357517    157.33307  0.024012983  0.024410958            1 
  547000    1.0030802   -7.6742118    157.74014    0.0240311  0.024393377            1 
  548000    1.0500387   -7.6449789    157.86238  0.024005837  0.024375889            3 
  549000    1.0271211   -7.6912823    157.65862  0.023931181  0.024358695            2 
  550000    1.0113225   -7.6614074    158.23234  0.023974597  0.024341274            2 
  551000    1.0290085   -7.6672046    158.10603  0.023911982  0.024323847            3 
  552000    1.0279124    -7.632108    158.67047  0.023953875  0.024306571            1 
  553000    1.0585597   -7.6651926      158.466  0.023879747  0.024289269            2 
  554000    1.0208506   -7.7015694    158.72005  0.023874857  0.024271549            4 
  555000    1.0489881   -7.6448942    159.09847  0.023888659  0.024253767            1 
  556000    1.0322619    -7.676773    159.28342  0.023873415  0.024236023            2 
  557000    1.0383063   -7.6773341    158.91493  0.023775424  0.024218462            3 
  558000    1.0424504   -7.6745876    159.65936  0.023843991  0.024201037            4 
  559000    1.0355155   -7.6857482    160.39412  0.023910871  0.024184271            2 
  560000    1.0454681   -7.6727966    160.25074  0.023846836  0.024167148            3 
  561000    1.0226764   -7.6803012    159.82919  0.023741709  0.024150059            3 
  562000    1.0586285   -7.6915214    160.38383  0.023781706  0.024132708            7 
  563000    1.0051135   -7.6746337     160.5312  0.023761279  0.024115681            1 
  564000    1.0207875   -7.7136343    160.05192  0.023648333  0.024098278            2 
  565000    1.0158243   -7.7152185     160.7365  0.023707449  0.024080876            2 
  566000    1.0083635   -7.6874865    160.71062  0.023661752  0.024063416            2 
  567000    1.0300454   -7.6312537    161.50279  0.023736448   0.02404633            1 
  568000    1.0053211   -7.6448125     161.3676  0.023674823  0.024029616            3 
  569000    1.0409203   -7.6736806    161.84441  0.023703048   0.02401275            2 
  570000     1.034501   -7.6392271    162.04634  0.023690985  0.023995992            4 
  571000    1.0322167    -7.685051    162.17857  0.023668794  0.023979213            4 
  572000    1.0370424   -7.6627078    162.42327  0.023663064  0.023962432            1 
  573000    1.0071789   -7.6633849    162.43576  0.023623583  0.023945609            2 
  574000    1.0184252   -7.6525841    163.13524  0.023683978  0.023928863            1 
  575000    1.0169916   -7.6864612      163.008  0.023624348  0.023912177            1 
  576000    1.0298364   -7.6416022     163.3125  0.023627387  0.023895434            3 
  577000    1.0203841   -7.6700026    162.66973  0.023493606  0.023878059            1 
  578000    1.0199841   -7.6711955    162.82937  0.023475976  0.023860647            1 
  579000     1.015425   -7.6628914    163.42579  0.023521272  0.023843213            3 
  580000    1.0092492   -7.6954842    163.29344  0.023461702  0.023825783            2 
  581000    1.0478564   -7.7029087    163.27546  0.023418741  0.023808305            4 
  582000    1.0101995   -7.6612738    163.80308  0.023454049  0.023791015            1 
  583000    1.0269316   -7.7489563    163.62123  0.023387826  0.023773482            1 
  584000    1.0245413   -7.7039723    164.00261  0.023402199  0.023755978            3 
  585000    1.0210179   -7.6916767    164.29331  0.023403605  0.023738812            1 
  586000    1.0318591   -7.6927923    164.32925  0.023368779  0.023721856            2 
  587000    1.0010027   -7.7255177    164.63516  0.023372396  0.023704741            1 
  588000    1.0303577   -7.6647618    165.08601  0.023396544  0.023687767            2 
  589000    1.0203506   -7.6709599    165.69253  0.023442633  0.023671424            3 
  590000    1.0092775   -7.6931347    165.14589   0.02332569  0.023654642            1 
  591000    1.0045796   -7.6830578    165.42441  0.023325495   0.02363781            3 
  592000    1.0113548      -7.6889    166.38888  0.023421859  0.023621354            1 
  593000    1.0111247   -7.7204797    165.96213   0.02332239  0.023604469            4 
  594000    1.0296183   -7.6837784    165.81626  0.023262662  0.023587465            1 
  595000    1.0167342   -7.7160594     165.9503  0.023242339  0.023570837            1 
  596000    1.0094591   -7.7530364    166.01588  0.023212512  0.023554067            4 
  597000   0.99275956   -7.6891252    167.03045   0.02331525  0.023537245            1 
  598000    1.0077557   -7.7200694    166.52766  0.023206196  0.023520434            1 
  599000    1.0298713     -7.69405     166.8375  0.023210559  0.023503995            4 
  600000    0.9842639   -7.7264469    166.64509  0.023145151  0.023487124            3 
  601000    1.0026684   -7.7370147    166.87042  0.023137884  0.023470327            2 
  602000   0.99930414   -7.7306086     167.0552  0.023125027  0.023453436            1 
  603000    1.0240794   -7.7558114     167.5355  0.023153055   0.02343617            1 
  604000     1.006614   -7.7368913    167.32933  0.023086276   0.02341885            2 
  605000    1.0089485   -7.7074894    167.54562   0.02307791  0.023402085            1 
  606000    1.0297282   -7.7133186    167.62435  0.023050654  0.023384916            2 
  607000    1.0142657   -7.6997805    168.25663  0.023099483  0.023368074            1 
  608000    1.0039353   -7.7294624    167.97305  0.023022622  0.023350806            4 
  609000   0.99868311   -7.7397863    168.21973  0.023018573  0.023333365            1 
  610000    1.0224755   -7.7250954    168.45438  0.023012894   0.02331588            2 
  611000    1.0019162   -7.6950597     168.3022  0.022954474  0.023298573            3 
  612000    1.0186622   -7.7003025    168.95654  0.023006065  0.023281454            2 
  613000    1.0145031   -7.7156776    169.12341  0.022991219  0.023264668            2 
  614000    1.0068164   -7.7438828     169.4693  0.023000719  0.023247991            1 
  615000   0.99690656   -7.7276363    169.19216  0.022925767  0.023230866            8 
  616000   0.99606221   -7.7035842    169.49496  0.022929513  0.023214075            2 
  617000    1.0061841   -7.7119152    169.54129  0.022898607  0.023197434            2 
  618000    1.0234857   -7.7087748    170.47489  0.022987445  0.023180684            2 
  619000    1.0003888   -7.7490859     170.1033  0.022900282   0.02316398            2 
  620000    1.0308969   -7.7368689    169.79334  0.022821686  0.023147108            2 
  621000    1.0063913   -7.6703811    170.97185  0.022943083   0.02313041            2 
  622000    1.0102535   -7.7413184    170.69893  0.022869632  0.023113807            2 
  623000    1.0055677   -7.7445169    170.61892   0.02282222  0.023096725            3 
  624000   0.98684805   -7.7072151    170.77797  0.022806887  0.023079524            4 
  625000   0.99656596   -7.7412487    170.70006  0.022760008  0.023062329            1 
  626000     1.018653    -7.766414    170.66802  0.022719385  0.023044991            2 
  627000   0.99530583   -7.7409771    171.20481  0.022754493  0.023027674            2 
  628000    1.0121231   -7.7353991    171.32941  0.022734794  0.023010908            2 
  629000    1.0045925   -7.7520224    171.59809  0.022734246  0.022994249            2 
  630000    1.0208126   -7.7427885    171.36412  0.022667212  0.022977391            1 
  631000   0.97715727   -7.7392882    171.79707  0.022688466  0.022960515            1 
  632000    1.0101064   -7.7778561    171.96536  0.022674758  0.022943698            1 
  633000    1.0095553    -7.777033    172.02673  0.022647016  0.022926917            1 
  634000   0.99283731   -7.7923974    172.20091  0.022634189  0.022910285            4 
  635000    1.0108009   -7.7681239    172.61179  0.022652466  0.022893549            5 
  636000   0.99285818    -7.769949     172.2945  0.022575275  0.022877348            3 
  637000   0.97188281   -7.7575479      172.899  0.022618917  0.022861021            2 
  638000   0.99295626   -7.7783281    173.35324  0.022642795  0.022844733            1 
  639000   0.99454987   -7.7855794      173.483  0.022624282  0.022828551            4 
  640000     0.970374   -7.7291053    173.79987  0.022630192  0.022812329            2 
  641000    1.0000692   -7.7435322    173.67446  0.022578583  0.022795971            4 
  642000   0.99714549   -7.7871904    173.24763   0.02248801  0.022779447            3 
  643000   0.99218407    -7.775396    173.62995  0.022502585  0.022763085            2 
  644000   0.99551212   -7.7245702    174.11252  0.022530088  0.022746682            3 
  645000    1.0064619   -7.7552066    174.79588  0.022583447  0.022730383            1 
  646000   0.99301297    -7.753095    174.48827  0.022508806  0.022714001            2 
  647000   0.97864639   -7.7545002    175.15698  0.022560147  0.022697988            1 
  648000    0.9916656   -7.7536091    175.35994  0.022551433  0.022682032            1 
  649000   0.99120417   -7.7512833    175.43459   0.02252627  0.022666025            2 
  650000   0.98432154   -7.7707337    175.40207  0.022487444  0.022649826            2 
  651000   0.99893703   -7.7442701    175.81111  0.022505263   0.02263376            2 
  652000    1.0056616   -7.7782583    175.89489  0.022481453  0.022617739            3 
  653000   0.98830168   -7.7903084    175.73254  0.022426307  0.022601912            2 
  654000   0.97949755   -7.7737469    176.44655  0.022482996   0.02258604            1 
  655000    1.0088132    -7.780011    175.85686  0.022373647  0.022569944            3 
  656000    1.0103205   -7.7783303    176.36976  0.022404695  0.022554036            2 
  657000   0.98047384   -7.7815665    176.87369  0.022434511  0.022538022            2 
  658000   0.97921122   -7.7799857    176.58301  0.022363603  0.022521896            2 
  659000   0.99201379   -7.7717364    176.89668  0.022369332   0.02250559            2 
  660000   0.98441962   -7.7869947    176.53742  0.022290078   0.02248961            2 
  661000   0.98775709   -7.7615468    176.87452  0.022298855   0.02247365            3 
  662000   0.99262582   -7.7520445    177.58881  0.022355087   0.02245754            1 
  663000      0.98526   -7.7901783    177.41947  0.022300084  0.022441637            1 
  664000   0.97678944   -7.7566899     177.6987  0.022301544  0.022425806            2 
  665000   0.97790545   -7.7823816    177.73555  0.022272625  0.022409926            1 
  666000   0.99194266   -7.8046062    177.79758  0.022246945  0.022394234            3 
  667000    1.0124775   -7.7865196    178.57042  0.022310148  0.022378759            4 
  668000   0.97830085   -7.7681142    178.72299  0.022295782  0.022363588            5 
  669000    1.0000042    -7.748123    178.88884  0.022283114  0.022348437            4 
  670000   0.98309834   -7.7960322    178.74477  0.022231936  0.022333232            4 
  671000   0.96804546   -7.7931875    179.04789  0.022236449  0.022317852            2 
  672000   0.97256259   -7.7585902     179.2425  0.022227492  0.022302553            2 
  673000   0.99771996   -7.7955768    179.05579  0.022171345  0.022286951            2 
  674000   0.98403966   -7.7724623    179.41974  0.022183449  0.022271305            4 
  675000   0.97325281   -7.7846138    179.03209  0.022102727  0.022255614            2 
  676000   0.98140455   -7.7565869    179.28541  0.022101259  0.022240051            3 
  677000   0.97643838   -7.7808716    179.46096  0.022090222  0.022224285            2 
  678000   0.98404203   -7.7785154    179.23243  0.022029551  0.022208634            6 
  679000   0.97208761   -7.7899483     179.3952  0.022017084  0.022192825            1 
  680000   0.99528986   -7.7492905    180.23594  0.022087738  0.022177036            2 
  681000    0.9563573   -7.7854488    180.08876  0.022037293  0.022161262            3 
  682000   0.99161352   -7.8135215    180.29216  0.022029834  0.022145403            6 
  683000   0.98805574   -7.8015516    179.98106  0.021959622  0.022129325            2 
  684000   0.95497226   -7.7953057     180.2443  0.021959589  0.022113295            4 
  685000   0.98561423   -7.8097307    180.00767  0.021898743  0.022097009            1 
  686000   0.95689733   -7.7918639    180.59894  0.021938646  0.022081009            1 
  687000    0.9930053   -7.8125198    180.83486   0.02193533  0.022064913            3 
  688000    0.9747292   -7.8224741    180.62351  0.021877847   0.02204897            1 
  689000   0.97844931   -7.7964742    181.02307  0.021894421  0.022032949            5 
  690000   0.96945702   -7.8294528    181.26434  0.021891828  0.022017248            6 
  691000   0.96963797   -7.8013165    181.36528   0.02187232  0.022001407            5 
  692000   0.99412731   -7.8524721    180.85448    0.0217792  0.021985481            2 
  693000   0.97457826   -7.8148354    181.88812  0.021872068   0.02196953            2 
  694000   0.95208904   -7.8370578     181.4281  0.021785314  0.021953747            2 
  695000   0.97720214   -7.8003941    181.81656  0.021800547  0.021937811            2 
  696000   0.96683556   -7.8002945    182.50213  0.021851308  0.021922003            2 
  697000   0.97995243   -7.8363114    182.31354   0.02179741  0.021906153            1 
  698000   0.99233152   -7.8028722    182.15024  0.021746686  0.021890397            4 
  699000   0.97996813   -7.8446941    182.08697  0.021708032  0.021874376            4 
  700000   0.97665777   -7.8151937    182.60634   0.02173885  0.021858285            3 
  701000   0.97100759   -7.7828905    182.88247  0.021740665  0.021842504            2 
  702000   0.98145284   -7.8460088    182.89202  0.021710828  0.021826709            3 
  703000   0.94728641   -7.8276983    182.70985  0.021658351  0.021810606            2 
  704000   0.98766998   -7.7945759    182.98549  0.021660214   0.02179443            1 
  705000   0.97789949   -7.8046607    182.79523  0.021607001  0.021778297            3 
  706000   0.97645053   -7.8383983    182.85549   0.02158351  0.021762301            1 
  707000   0.96172828   -7.7976379    183.58215  0.021638632  0.021746362            2 
  708000   0.94752173   -7.8181631    184.08941  0.021667775  0.021730657            2 
  709000    0.9834727   -7.8191026    183.84551  0.021608546  0.021714954            3 
  710000   0.96621959    -7.846576    183.44034  0.021530556  0.021698866            2 
  711000   0.95169514   -7.8095415    184.00667  0.021566651  0.021682718            1 
  712000    0.9738585    -7.814365    183.08772  0.021428806  0.021666437            1 
  713000   0.96978971   -7.8242744     183.8908  0.021492613  0.021650116            1 
  714000   0.97282373   -7.8075796    184.07582  0.021484107  0.021633927            1 
  715000   0.95930578   -7.8387947    183.77963  0.021419538   0.02161793            2 
  716000    1.0025839   -7.7984096    184.72361  0.021499489   0.02160182            2 
  717000   0.96448899   -7.8640052    184.41774  0.021433954  0.021585838            2 
  718000   0.96849214   -7.8277258     184.8521  0.021454515  0.021569583            1 
  719000   0.95871575   -7.8535168    184.42372  0.021375025  0.021553334            2 
  720000   0.94118195   -7.8318628    184.52351  0.021356887  0.021537121            2 
  721000    0.9633796   -7.8584733    185.13129  0.021397514  0.021520829            2 
  722000   0.97162309   -7.8657137    185.47425  0.021407462    0.0215046            2 
  723000   0.96750903   -7.8349314    184.93532  0.021315735  0.021488396            2 
  724000   0.95756056   -7.8615447    184.82662  0.021273782  0.021472189            2 
  725000    0.9415993    -7.808394    185.38591  0.021308726  0.021456094            2 
  726000   0.93807703   -7.8603013    185.40508  0.021281575   0.02144029            4 
  727000   0.94111849     -7.84458    185.87401  0.021306054  0.021424422            3 
  728000    0.9491738   -7.8253263    186.06352   0.02129848  0.021408452            2 
  729000   0.96257337   -7.8279326    185.61177  0.021217623  0.021392451            2 
  730000   0.96896667   -7.8835482    185.77846  0.021207587  0.021376289            2 
  731000   0.95463156   -7.8822974        186.1  0.021215231   0.02136006            3 
  732000   0.95064857   -7.8524207    185.69553  0.021140201  0.021343535            2 
  733000   0.97061463   -7.8491741     185.7227   0.02111445   0.02132718            2 
  734000   0.96122484     -7.87088    186.36121  0.021158176  0.021310832            2 
  735000   0.95833078   -7.8247504    186.46167  0.021140779  0.021294546            1 
  736000   0.96751235   -7.8668815    186.25602   0.02108877  0.021278348            2 
  737000   0.95152352   -7.8811427    186.40656  0.021077177  0.021261902            1 
  738000   0.94717481   -7.8297039    186.58936   0.02106926  0.021245593            2 
  739000   0.97175448   -7.8766786    186.93101  0.021079274  0.021229435            4 
  740000   0.97626259   -7.8440966    187.12004  0.021072076  0.021213175            1 
  741000   0.95410722   -7.8694439    187.36352  0.021071021  0.021196959            1 
  742000   0.96149891   -7.8764638    187.39308  0.021045944  0.021180568            4 
  743000   0.95082577   -7.8888712    187.29098  0.021006167   0.02116413            1 
  744000   0.95955343   -7.8342578    187.84699  0.021040209  0.021147996            4 
  745000   0.96826338   -7.8592527    187.70104  0.020995642  0.021132111            2 
  746000   0.98082348   -7.8393168    188.42513  0.021048383  0.021116183            4 
  747000   0.94565465   -7.8855502    187.82235  0.020952962  0.021100393            3 
  748000    0.9567934   -7.8960323    187.84902  0.020927921  0.021084407            3 
  749000   0.96119109   -7.8540483    188.54252  0.020977139  0.021068246            4 
  750000   0.96239202   -7.8628108    188.98161  0.020997956   0.02105236            2 
  751000   0.95239599   -7.8823322    189.02519  0.020974832   0.02103675            2 
  752000   0.94540225   -7.8780853    188.43715  0.020881776  0.021020876            1 
  753000   0.93334208   -7.8955321    189.30388  0.020949965  0.021004768            5 
  754000   0.94865277   -7.8653053    189.35829  0.020928193  0.020988874            2 
  755000   0.96030965   -7.8375406    189.07139  0.020868807  0.020973166            8 
  756000   0.95662017   -7.8780948    189.68739  0.020909104  0.020957273            2 
  757000   0.93180562   -7.8578032    189.25767  0.020834178  0.020941358            2 
  758000   0.97339274   -7.8787604    189.23769  0.020804495   0.02092548            2 
  759000    0.9329004    -7.923166    189.09366  0.020761272  0.020909603            4 
  760000   0.95050694   -7.8918064    189.56074  0.020785168  0.020893732            3 
  761000   0.94702226   -7.8332904    190.07068  0.020813696  0.020877964            2 
  762000   0.95254796    -7.908699    189.77961  0.020754551  0.020862213            3 
  763000    0.9431728   -7.8953549    190.22753  0.020776271  0.020846527            2 
  764000   0.93943069   -7.8817261    190.17231  0.020743053  0.020830889            3 
  765000    0.9451627   -7.8758527    190.44103  0.020745211  0.020815297            2 
  766000   0.95517421   -7.8648303     190.4225  0.020716112   0.02079975            2 
  767000   0.94360718   -7.8778887    190.80319  0.020730464  0.020784131            4 
  768000   0.91783223   -7.8781099    190.85861  0.020709485  0.020768415            3 
  769000   0.92129138   -7.8704521    191.18514  0.020717939  0.020752775            4 
  770000   0.94018283    -7.883578    191.55485  0.020731044  0.020737224            2 
  771000   0.93968646   -7.9061789    190.49912  0.020590048   0.02072139            1 
  772000   0.93097762   -7.9088588    190.74926  0.020590378  0.020705459            2 
  773000   0.93946352   -7.8886007    190.74875  0.020563685   0.02068968            5 
  774000   0.94567143   -7.8839168    190.89084  0.020552416  0.020673842            3 
  775000   0.92642435   -7.8735634    191.68492  0.020611282  0.020658026            1 
  776000   0.94776524   -7.8459194    191.78959  0.020595962  0.020642394            2 
  777000   0.91798534   -7.8902501    192.19688  0.020613136  0.020626754            8 
  778000   0.95668961   -7.8849612    191.38947  0.020500157  0.020611091            3 
  779000   0.94203979   -7.8348205    192.40393  0.020582363  0.020595378            3 
  780000   0.91677247   -7.8792373    192.16342   0.02053028  0.020579873            3 
  781000   0.95350421   -7.8673003    192.43019  0.020532457  0.020564387            9 
  782000   0.94803109   -7.9115627    192.08647  0.020469572  0.020548828            4 
  783000   0.94267131    -7.898669    192.28651   0.02046472  0.020533269            4 
  784000   0.94755518   -7.9187289     192.0061  0.020408811    0.0205177            1 
  785000   0.95585933   -7.8949316      192.507  0.020435987  0.020502151            1 
  786000   0.91459081   -7.9248462    191.64292  0.020318376  0.020486471            2 
  787000    0.9478014   -7.9221978    192.89865  0.020425524  0.020470738            1 
  788000   0.93847479    -7.911006    192.89512   0.02039923  0.020455029            3 
  789000   0.93833408   -7.9286754    192.60895  0.020343151  0.020439404            2 
  790000   0.93024256   -7.8970297     193.6705  0.020429377   0.02042382            2 
  791000   0.93291926   -7.9445925    193.01578  0.020334574   0.02040839            2 
  792000   0.92395337   -7.9101802    193.43092   0.02035258  0.020392904            2 
  793000   0.96596187   -7.9115003    193.53504  0.020337856  0.020377477            3 
  794000   0.94654083   -7.8857418    194.35002  0.020397777  0.020362394            2 
  795000   0.93878584   -7.8962123    194.40499  0.020377882  0.020347359            2 
  796000   0.94345813   -7.9211059    194.30374  0.020341681  0.020332372            5 
  797000   0.92552985   -7.9106935    194.62891  0.020350157  0.020317283            2 
  798000   0.95234402   -7.8828307    194.33374  0.020293833    0.0203023            2 
  799000   0.96601336   -7.9129468    194.88131  0.020325543  0.020287396            4 
  800000   0.93413045   -7.9076132    194.59315  0.020270119  0.020272357            3 
  801000   0.92965013   -7.9407741    194.25811  0.020209957  0.020257163            4 
  802000   0.94886725    -7.920124    194.61235  0.020221565  0.020241909            5 
  803000   0.92168321   -7.9077586    195.11111  0.020248143  0.020226949            4 
  804000   0.93712579   -7.9133886    194.91417  0.020202547  0.020211932            1 
  805000   0.93988365    -7.924578    195.77125  0.020266174  0.020196696            4 
  806000   0.94082036   -7.9467388    195.02502  0.020163877  0.020181546            2 
  807000   0.91165642   -7.9573063    195.04616  0.020141074  0.020166225            3 
  808000   0.93843936   -7.9257672    195.56064  0.020169208  0.020151027            4 
  809000   0.91519237   -7.9068336    196.08497  0.020198287  0.020135894            3 
  810000   0.92544273   -7.9162662    195.99462  0.020164056  0.020120902            3 
  811000   0.95047528   -7.9232396    195.27244  0.020064986  0.020105754            3 
  812000   0.92294269   -7.9558273    195.58969  0.020072833  0.020090589            3 
  813000   0.92383635   -7.9723446    195.95241  0.020085323   0.02007535            3 
  814000    0.9180904   -7.9223038    195.86862   0.02005207  0.020059937            2 
  815000   0.93766297   -7.9977104    195.44141  0.019983785  0.020044519            4 
  816000   0.96048898   -7.9572391    196.46502   0.02006383  0.020029195            3 
  817000   0.90971645   -7.9343422    196.31265   0.02002373  0.020013952            2 
  818000   0.92643898   -7.9481004    195.90187  0.019957403  0.019998702            3 
  819000   0.93979812   -7.9569898    196.39052  0.019982756  0.019983395            2 
  820000   0.92266552   -7.9289221    196.49321  0.019968822  0.019968267            1 
  821000   0.92862329   -7.9388261    197.38557  0.020035076  0.019953427            3 
  822000   0.92761369   -7.9784473    196.89728    0.0199612  0.019938499            4 
  823000   0.92808794   -7.9210392    197.49626  0.019997596  0.019923485            3 
  824000   0.90269104   -7.9414758    197.40198  0.019963792  0.019908609            3 
  825000   0.91555275   -7.9660709    197.15423  0.019914569  0.019893665            1 
  826000    0.9330493   -7.9745656    197.31499  0.019906678  0.019878822            3 
  827000   0.94627178   -7.9333218    197.36316  0.019887461  0.019863856            3 
  828000   0.91926814   -7.9139082    197.69475  0.019896815  0.019848873            3 
  829000   0.93148016   -7.9745153    197.27878     0.019831  0.019833678            6 
  830000   0.93354302   -7.9324411    197.87462   0.01986693  0.019818557            2 
  831000   0.91490132   -7.9488471    197.12694  0.019768045  0.019803545            5 
  832000     0.918908   -7.9389588    198.41354  0.019873151  0.019788691            2 
  833000   0.92175505   -7.9450712     198.1041  0.019818337  0.019773936            1 
  834000   0.91729536   -7.9673735    197.46459  0.019730675  0.019758992            5 
  835000   0.91196763   -7.9682714    198.27413  0.019787837  0.019743952            1 
  836000   0.89712172   -7.9662312    198.21449  0.019758223  0.019728938            5 
  837000   0.91134477   -7.9441164     198.2287  0.019736031  0.019714039            3 
  838000   0.92896459   -7.9374256    198.19912  0.019709539  0.019699129            3 
  839000    0.8985987   -7.9667677    199.19746  0.019785207  0.019684239            4 
  840000   0.91121581   -7.9433515    198.99563   0.01974163  0.019669267            2 
  841000   0.91614406   -7.9783871    198.84726  0.019703454   0.01965426            3 
  842000    0.9062129   -7.9855434     198.9151  0.019686768  0.019639226            2 
  843000   0.91739205   -7.9823564     199.0897  0.019680674  0.019624296            1 
  844000   0.92828193   -8.0083983    198.14962  0.019564536  0.019609063            4 
  845000   0.88830144   -7.9595229    198.97222  0.019622507  0.019594097            3 
  846000   0.93891003   -7.9652897    198.73408  0.019575855  0.019579008            2 
  847000    0.9087834   -7.9681856     198.8813  0.019567227  0.019563815            2 
  848000   0.90675291   -8.0257205    198.54906  0.019511503  0.019548528            1 
  849000   0.93949049   -7.9690967    199.16802  0.019549275  0.019533133            1 
  850000   0.90465136   -7.9930079    198.80509  0.019490695  0.019517866            1 
  851000   0.90989542   -7.9770211    198.97994  0.019484914  0.019502508            2 
  852000   0.90756689    -7.984711    198.82302  0.019446696  0.019487369            2 
  853000   0.89803516   -7.9888543    199.19185  0.019459931  0.019472141            2 
  854000   0.90875522   -8.0373078    198.67168  0.019386385  0.019456916            2 
  855000   0.90756249   -8.0073462    199.22064  0.019417217  0.019441591            8 
  856000   0.91328441   -8.0058084    199.09684  0.019382481  0.019426302            3 
  857000   0.90605391   -7.9668483    199.94766  0.019442596  0.019411036            3 
  858000   0.91661784   -7.9559678    200.74649  0.019497522   0.01939605            4 
  859000   0.91451929   -7.9973733    200.03757   0.01940605  0.019381112            6 
  860000   0.91739256   -7.9644989    199.59371  0.019340476  0.019365989            3 
  861000   0.92888235   -7.9673068     200.1835  0.019375096  0.019350879            2 
  862000   0.91816108   -8.0233201    199.50512  0.019287038   0.01933568            4 
  863000   0.90763369   -7.9620807    200.11864  0.019323932  0.019320569            2 
  864000   0.93274727   -8.0301421    200.00017   0.01929014  0.019305337            2 
  865000   0.90115295   -7.9765221    200.80423  0.019345301  0.019290209            2 
  866000   0.90959778   -8.0048248     200.7131  0.019314194  0.019274942            1 
  867000   0.88853055   -8.0168163    199.54402  0.019179548  0.019259629            2 
  868000   0.91189508   -7.9532524    200.82766  0.019280689  0.019244376            2 
  869000    0.9023836   -7.9984756    200.15464  0.019193962  0.019229118            4 
  870000   0.91042874   -7.9984776    200.25167  0.019181195  0.019213802            3 
  871000   0.89329244   -8.0164278    200.09212  0.019143908  0.019198444            7 
  872000   0.90524736    -7.974812    200.97148   0.01920599  0.019183066            2 
  873000   0.91224346   -8.0140488    200.55412  0.019144151  0.019167821            4 
  874000   0.88412149   -8.0018835    201.30843  0.019194167  0.019152423            2 
  875000   0.91232819   -7.9844057    201.08715  0.019151157  0.019137151            4 
  876000   0.92341803   -8.0093645    200.47639  0.019071194  0.019121716           12 
  877000    0.8946712   -8.0259606    200.94552  0.019094025  0.019106313            1 
  878000   0.90029079   -8.0306988     200.5946  0.019038971  0.019090705            3 
  879000   0.89637694   -8.0075613    200.85479  0.019041978  0.019075157            6 
  880000   0.90854267    -8.009249    200.77942  0.019013202  0.019059629            2 
  881000   0.88977215   -8.0182791    200.67199   0.01898146  0.019043854            2 
  882000   0.89334402   -8.0037372     200.2998  0.018924773  0.019028234            3 
  883000   0.88703586   -8.0157727     200.6303  0.018934532  0.019012621            3 
  884000   0.90734754   -8.0307597    200.81861  0.018930864  0.018996966            2 
  885000   0.89768196   -8.0076461    201.51994  0.018975512  0.018981394            2 
  886000   0.89700261   -7.9834946    202.01126  0.019000306  0.018965967            9 
  887000   0.90073199   -8.0148772    201.78686  0.018957803  0.018950641            2 
  888000   0.91336713   -8.0299013    201.37021  0.018897354   0.01893536            3 
  889000   0.89188954   -8.0314623    201.65423  0.018902721  0.018919935            4 
  890000   0.88169259    -8.060296     202.0288  0.018916554   0.01890456            2 
  891000    0.8954361   -8.0282267    202.59156  0.018947957  0.018889126            2 
  892000   0.87005648   -8.0393547    201.80437  0.018853173  0.018873797            1 
  893000   0.91407309   -8.0579345    201.53287  0.018806726  0.018858265            4 
  894000   0.89209995   -8.0343321    201.60321  0.018792246  0.018842706            1 
  895000   0.90203701   -8.0644173    201.82205  0.018791625   0.01882705            1 
  896000   0.88692535    -8.014736    202.49247  0.018833005  0.018811535            3 
  897000   0.88327956   -8.0373051     202.2106  0.018785823  0.018796097            3 
  898000   0.88723153    -8.046056    202.51713  0.018793349  0.018780685            1 
  899000   0.89531712   -8.0134357    202.81919  0.018800444  0.018765384            3 
  900000    0.9059146    -8.063414     202.8669  0.018783972  0.018750117            4 
  901000   0.89870824    -8.045016    202.56167  0.018734893   0.01873473            6 
  902000   0.87775936   -8.0307676    203.32545  0.018784686  0.018719487           12 
  903000   0.90502317    -8.057948    202.52828  0.018690317  0.018704211            3 
  904000   0.90302012   -8.0176789    202.88743   0.01870275  0.018688949            4 
  905000   0.88275322    -8.062898    202.92874  0.018685887  0.018673653            2 
  906000   0.88500586   -8.0424964    203.10166  0.018681168  0.018658381            7 
  907000   0.89760908   -8.0374901    203.36494  0.018684761  0.018643143            2 
  908000   0.89670978   -8.0302674    203.06517  0.018636671  0.018628053            4 
  909000   0.91211636   -8.0517828    203.61922  0.018666961   0.01861293            6 
  910000   0.87573322   -8.0555011    203.57273  0.018642191  0.018597818            1 
  911000   0.89379284   -8.0879191    203.10528  0.018578968  0.018582672            3 
  912000   0.90068868   -8.0366306    204.07364   0.01864708  0.018567569            3 
  913000   0.89043519   -8.0329764    203.50579  0.018574826  0.018552679            2 
  914000   0.89385717    -8.031895    203.69389  0.018571653  0.018537529            9 
  915000   0.88118368   -8.0367675    203.90678  0.018570745  0.018522386            2 
  916000   0.89602282   -8.0186392    203.51819  0.018515119  0.018507265            1 
  917000   0.89089367    -8.020368    204.23257  0.018559848  0.018492145            1 
  918000   0.88688061   -8.0106563    204.42207  0.018556833  0.018477107            2 
  919000   0.87534333     -8.05623    203.92419  0.018491494  0.018462126            4 
  920000   0.87362177   -8.0580722    203.55397  0.018437859   0.01844699            2 
  921000    0.8917783   -8.0534276    204.67004  0.018518824  0.018431988            4 
  922000   0.88591776   -8.0929154    204.15001  0.018451736  0.018417001            4 
  923000   0.89540018   -8.0426447    204.12613  0.018429589  0.018401975            5 
  924000   0.88438694   -8.0974353    203.63376  0.018365238  0.018386883            3 
  925000   0.87816186   -8.1073694    204.01771  0.018379974  0.018371786            3 
  926000   0.88703637   -8.0870272    204.49803   0.01840335   0.01835674            5 
  927000   0.90098625   -8.0722774     204.6345  0.018395766  0.018341708            3 
  928000   0.88480877   -8.0877763    204.08761  0.018326833  0.018326613            6 
  929000   0.87921947   -8.0557338    204.42024  0.018336943  0.018311423            2 
  930000   0.89444302   -8.0783516    204.50328  0.018324667  0.018296163            4 
  931000   0.88484888   -8.0952202    204.23332   0.01828082  0.018280953            1 
  932000   0.85517968   -8.0664648    204.75857   0.01830817   0.01826586            3 
  933000   0.88436914   -8.1054057    204.82781  0.018294731  0.018250659            3 
  934000   0.89250534   -8.0494528    205.52968  0.018337766  0.018235623            2 
  935000   0.87440361   -8.0744455     204.7608  0.018249626  0.018220611            2 
  936000   0.88402929   -8.0921324    204.88385  0.018241084  0.018205641            2 
  937000   0.88154534   -8.0882422    205.43372  0.018270519  0.018190718            4 
  938000   0.88084021   -8.0434729    205.65188  0.018270423  0.018175786            3 
  939000   0.87836303   -8.0938347    204.91641  0.018185695  0.018160751            8 
  940000   0.87427368   -8.0745263    205.19383  0.018190942  0.018145747            2 
  941000   0.89237131   -8.0504772    205.54298  0.018202531  0.018130692            2 
  942000   0.88312607   -8.0775507    205.97848  0.018221733  0.018115791            4 
  943000   0.87931706   -8.0669829    205.97673  0.018202256  0.018100896            3 
  944000   0.87239596    -8.063449    205.80693  0.018167985  0.018086017            1 
  945000   0.88599688   -8.0631066    205.99107  0.018164997   0.01807124            3 
  946000   0.87997682   -8.0921311     206.0921  0.018154695  0.018056361            3 
  947000   0.87600287   -8.0991286    205.21979  0.018058763   0.01804137            2 
  948000   0.86835837   -8.0916171    205.86444  0.018096382  0.018026439            3 
  949000   0.87919751   -8.0706093    206.08491  0.018096673  0.018011504            2 
  950000   0.87728074   -8.1224416    205.68042  0.018042142  0.017996553            2 
  951000   0.86991512   -8.0825091    206.27315  0.018075109  0.017981686            2 
  952000   0.87734148   -8.0785829    206.85176  0.018106772  0.017966898            2 
  953000   0.88480241   -8.1008926    206.25828  0.018035876  0.017952115            1 
  954000   0.89691512    -8.101241     206.1707   0.01800932  0.017937443            5 
  955000    0.8835363   -8.0889955     206.7594  0.018041832  0.017922766            2 
  956000   0.88646548    -8.099315    206.58966  0.018008164  0.017908172            4 
  957000   0.85402123   -8.0909384     206.5149  0.017982837  0.017893506            3 
  958000   0.86170092   -8.1064222    206.74967  0.017984488   0.01787879            2 
  959000   0.88866374   -8.0650293    206.54731   0.01794815  0.017864065            2 
  960000   0.85501213    -8.096032    206.60747  0.017934676  0.017849419            3 
  961000   0.88137819     -8.11721    206.63214  0.017918153  0.017834697            3 
  962000   0.87980644   -8.0855832    206.60575  0.017897241  0.017820106            2 
  963000   0.86723828   -8.0676832    207.34006    0.0179422  0.017805442            5 
  964000   0.87276633   -8.1111628    207.58912  0.017945117  0.017791023            2 
  965000   0.86313295   -8.0981067    207.16922   0.01789026  0.017776565            1 
  966000   0.86121101   -8.1582529    207.07188  0.017863344  0.017762042            3 
  967000   0.86888396   -8.1432297    207.22382  0.017857965  0.017747497            6 
  968000   0.86832462   -8.1489519     207.1637  0.017834341  0.017732903            1 
  969000   0.85625619   -8.1206399    207.57045  0.017850916  0.017718352            2 
  970000   0.86898177   -8.1191671    207.52156  0.017828312  0.017703765            3 
  971000   0.88284268   -8.1111982    207.43027  0.017802117  0.017689167            3 
  972000    0.8835684   -8.1260255    207.70049  0.017806969  0.017674613            2 
  973000   0.84121825   -8.1557538    207.15497  0.017741947  0.017660013            5 
  974000   0.86351527   -8.1383133    207.04612  0.017714419  0.017645357            2 
  975000   0.83256207   -8.1026765     207.8417  0.017764248  0.017630809            2 
  976000   0.87531721   -8.1402489    207.49074  0.017716081  0.017616233            6 
  977000   0.88625539   -8.1136488    208.10454  0.017750302  0.017601671            4 
  978000   0.85910816   -8.1216055    207.71907  0.017699307  0.017587128            3 
  979000   0.83822778   -8.1533043    207.50079  0.017662648  0.017572482            3 
  980000   0.85294692   -8.1398254    208.42207  0.017722965  0.017557919            2 
  981000   0.86306143   -8.1462631    208.19416  0.017685538  0.017543411            2 
  982000   0.88552869   -8.1209712    208.21091   0.01766895   0.01752893            4 
  983000   0.85252481   -8.1623195    207.43108  0.017584866  0.017514423            3 
  984000   0.86468339   -8.1482118    208.27518   0.01763848  0.017500012            2 
  985000   0.85241623    -8.125243     208.1668  0.017611404  0.017485525            5 
  986000   0.85686855   -8.1397652    208.81553  0.017648371  0.017471029            3 
  987000   0.84956866   -8.1419265    208.44417  0.017599136  0.017456526            3 
  988000   0.86220158   -8.1562257    208.68676  0.017601784   0.01744204            4 
  989000   0.85581317   -8.1455351    208.98598    0.0176092  0.017427654            1 
  990000   0.86392298   -8.1475756    208.95243  0.017588589  0.017413354            3 
  991000   0.84851439    -8.127305    209.28914  0.017599154  0.017399134            3 
  992000    0.8524602   -8.1319834    209.75167  0.017620268  0.017385023            1 
  993000   0.85481744   -8.1365583    209.35765  0.017569457  0.017370939            3 
  994000   0.85156457   -8.1336985    209.74176  0.017583984  0.017356905            2 
  995000   0.83919313   -8.1432355    209.41026  0.017538548  0.017342744            3 
  996000   0.84817734   -8.1398342    209.77537  0.017551487  0.017328603            6 
  997000   0.84665891   -8.1660293    208.45961  0.017423905  0.017314393            2 
  998000    0.8504968   -8.1746504    209.07374  0.017457727  0.017300115            2 
  999000   0.85808871   -8.1560841    209.65866  0.017489044  0.017285986            3 
 1000000   0.84923854    -8.100541    210.18996   0.01751583  0.017271989            2 
 1001000   0.84920813   -8.1275371    209.87364  0.017471998  0.017257948            2 
 1002000   0.85754853   -8.1581661    209.93935  0.017460026  0.017243915            3 
 1003000   0.84291868   -8.1351424    209.50503  0.017406533  0.017229906            2 
 1004000   0.86229345   -8.1125259    209.87946  0.017420274  0.017215914            3 
 1005000   0.85069759   -8.1377246    209.85065  0.017400551  0.017201916            4 
 1006000   0.84217935   -8.1593266    210.13666  0.017406946  0.017187928            3 
 1007000   0.85977663    -8.171637    210.17623  0.017392936  0.017173857            3 
 1008000   0.85490884   -8.1844332      209.765  0.017341683  0.017159826            3 
 1009000   0.83832931   -8.1700982    209.51992  0.017304255  0.017145767            4 
 1010000   0.85804857   -8.1561722    210.45327  0.017364131   0.01713174            4 
 1011000   0.85679663   -8.1412884    210.41716   0.01734398  0.017117757            3 
 1012000   0.84226934   -8.1190581    210.62945  0.017344323  0.017103801            2 
 1013000   0.83509566   -8.1493323    210.70572  0.017333475  0.017089772            6 
 1014000   0.83272198   -8.1581418     210.0084  0.017259073  0.017075714            2 
 1015000      0.84958   -8.1504019     210.6723  0.017296576  0.017061671            2 
 1016000   0.85486923   -8.1668888     210.1962  0.017240502  0.017047702            4 
 1017000   0.85914319   -8.1645626    210.54192  0.017251878  0.017033562            2 
 1018000   0.83606376   -8.1820289    209.98297  0.017189176  0.017019411            4 
 1019000    0.8564106   -8.1708483    210.66102  0.017227757  0.017005325            1 
 1020000   0.83408315   -8.1837954    210.47276  0.017195487   0.01699116            2 
 1021000   0.81761528   -8.2102423    210.10357  0.017148512  0.016977051            3 
 1022000   0.85373079   -8.1913061    210.25813  0.017144335  0.016962852            3 
 1023000   0.84723476   -8.1746578    210.63317  0.017158128  0.016948599            3 
 1024000   0.84845997   -8.1763032    210.30585  0.017114734  0.016934437            2 
 1025000   0.86164714   -8.1594122    210.55449  0.017118251  0.016920325            2 
 1026000   0.84341241   -8.1334901    210.96637   0.01713502   0.01690626            2 
 1027000    0.8502209   -8.1811081    210.45803  0.017077088  0.016892245            2 
 1028000   0.83072345   -8.1947565    210.04865   0.01702729  0.016878097            2 
 1029000   0.85771409   -8.1872795    211.18754  0.017102975  0.016863915            5 
 1030000     0.834544   -8.2106043    210.49335  0.017030206  0.016849819            6 
 1031000   0.84210627   -8.1621693    210.72262  0.017032219  0.016835681            1 
 1032000   0.84045825   -8.1626626    211.15973  0.017051012  0.016821554            5 
 1033000   0.85884423   -8.1914187    210.58675  0.016988283  0.016807526            1 
 1034000   0.84643349   -8.1799911    210.66353  0.016978041  0.016793426            4 
 1035000   0.84057082   -8.1886269    210.94688  0.016984451  0.016779307            2 
 1036000   0.84787214   -8.1819758    211.67688  0.017026776  0.016765285            7 
 1037000   0.83668275   -8.1772627    210.92604   0.01695002  0.016751316            3 
 1038000   0.85857915   -8.2104751     210.9697  0.016937195  0.016737197            2 
 1039000   0.84587177    -8.202867    211.13978  0.016934535  0.016723063            4 
 1040000   0.84336347   -8.1938273    210.91383  0.016900147  0.016708917            3 
 1041000   0.81991483   -8.1564617    210.86251  0.016879804  0.016694792            2 
 1042000   0.84402451      -8.1863    210.59507  0.016842216  0.016680658            5 
 1043000   0.84324697   -8.1984665       210.61  0.016827261  0.016666441            4 
 1044000   0.83716983   -8.1981316    211.06958  0.016847827  0.016652214            3 
 1045000    0.8590388   -8.2124257     210.8889  0.016817297  0.016637978            2 
 1046000   0.82413926   -8.2356951    210.87622  0.016800209  0.016623717            5 
 1047000   0.82926895   -8.2206592    210.61725  0.016763551  0.016609435            2 
 1048000    0.8385383   -8.1788064    211.16628  0.016791212  0.016595257            4 
 1049000   0.83380596   -8.2244594     210.9845  0.016760764  0.016581083            2 
 1050000   0.83432915   -8.1619127    211.42478  0.016779745  0.016566949            3 
 1051000   0.84459331   -8.2337423    211.02043  0.016731718  0.016552754            6 
 1052000   0.83512753    -8.224728    210.45046  0.016670664  0.016538456            3 
 1053000   0.86626431   -8.2370145    211.06225  0.016703249  0.016524164            6 
 1054000   0.81665319   -8.2255914     211.1481  0.016694189  0.016509939            2 
 1055000   0.83905611   -8.2231854    212.07026  0.016751206  0.016495799            2 
 1056000   0.82691585   -8.1948953    211.64529  0.016701807  0.016481687            2 
 1057000   0.81312274   -8.1974101    211.26984  0.016656405  0.016467515            1 
 1058000   0.82405698   -8.2187593    210.58658  0.016586844  0.016453387            4 
 1059000    0.8225402   -8.2288538    211.24554  0.016623036  0.016439208            2 
 1060000   0.84606116   -8.2268317    211.29142  0.016610961  0.016425034            1 
 1061000   0.82153023   -8.2265931    211.34733  0.016599696  0.016410838            3 
 1062000    0.8406222   -8.2338776    211.66652  0.016609112  0.016396637            2 
 1063000   0.83492326   -8.2275907    211.26866  0.016562297  0.016382365            2 
 1064000   0.82494808   -8.2206568    211.46414  0.016562041  0.016368146            3 
 1065000   0.84631956   -8.2180242    211.26115  0.016530607  0.016354003            1 
 1066000   0.81975694   -8.2399515    211.08794  0.016501558  0.016339783            3 
 1067000   0.81831897    -8.216876    211.09232  0.016486435   0.01632564            6 
 1068000   0.83541821   -8.2298833    211.16221  0.016476452    0.0163115            4 
 1069000   0.82543445   -8.2105972    211.64662  0.016498801  0.016297379            4 
 1070000   0.83776129   -8.2373641    211.39285  0.016463617   0.01628335            1 
 1071000   0.81394096   -8.2281135    211.68023  0.016470606  0.016269322            2 
 1072000   0.82801377   -8.2298347    211.63927  0.016452058  0.016255307            2 
 1073000     0.826179   -8.2165417    212.29805  0.016487888  0.016241274            4 
 1074000   0.81252346   -8.2222217    211.82774  0.016436044  0.016227321            3 
 1075000   0.84590825   -8.2424154     212.0355   0.01643686  0.016213429            6 
 1076000   0.83033956   -8.2085733    212.30007  0.016442075  0.016199525            2 
 1077000   0.80636631   -8.2245702    212.67864    0.0164561  0.016185691            4 
 1078000   0.81736306    -8.239215    212.30853  0.016412224  0.016171801            4 
 1079000   0.82297431   -8.2348029    212.13796   0.01638384  0.016157925            3 
 1080000   0.81330517   -8.2261666    212.60668  0.016404837  0.016144085            1 
 1081000   0.83480123   -8.2148623    212.64904  0.016392927  0.016130268            3 
 1082000    0.8288966   -8.1924924    212.83364  0.016391993  0.016116578            3 
 1083000   0.83680259   -8.2182317    212.59568  0.016358547  0.016102843            2 
 1084000   0.81451151   -8.2355756    212.83275  0.016361681  0.016089186            5 
 1085000   0.83722922   -8.2327198    212.69053  0.016335678  0.016075544            5 
 1086000   0.83798422   -8.2179612    212.68094    0.0163199  0.016061857            3 
 1087000   0.81624601   -8.2383497    212.74091  0.016309484  0.016048208            2 
 1088000   0.81511204   -8.2658529    212.93953  0.016309707    0.0160346            4 
 1089000   0.81291412   -8.2415109    212.72648  0.016278427  0.016020966            1 
 1090000   0.81875445   -8.2535934    213.16528  0.016297039  0.016007349            4 
 1091000   0.80507211   -8.2106198    212.98036  0.016267978  0.015993746            1 
 1092000   0.79831145   -8.2163699    213.19806  0.016269693  0.015980213            2 
 1093000    0.8143743   -8.2098867    213.10024  0.016247349  0.015966592            3 
 1094000   0.80887281   -8.2183469    213.38416  0.016254125  0.015953039            1 
 1095000   0.82258699   -8.2052632     213.7644  0.016268219  0.015939582            2 
 1096000   0.80080944   -8.2204639    213.36989  0.016223379  0.015926109            3 
 1097000   0.83387451   -8.2285706    213.46664   0.01621594  0.015912618            6 
 1098000    0.8258166   -8.2483924    213.38881  0.016195265  0.015899212            4 
 1099000   0.82285821   -8.2336325    213.98119  0.016225447  0.015885766            2 
 1100000   0.81320499   -8.2515158    213.10093   0.01614401  0.015872327            2 
 1101000   0.80446226   -8.2665217    213.36026  0.016148975  0.015858867            4 
 1102000   0.83227875   -8.2570308    214.21145  0.016198688  0.015845471            5 
 1103000   0.80310158   -8.2283741     214.3331  0.016193193  0.015832115            7 
 1104000   0.81499106   -8.2561678    214.28784  0.016175109  0.015818774            2 
 1105000   0.83624352   -8.2487391    213.99947  0.016138723  0.015805389            2 
 1106000   0.81868522   -8.2713745    213.90559  0.016117058  0.015792019            3 
 1107000   0.80342612    -8.227804    213.94719   0.01610563  0.015778601            4 
 1108000   0.79526159   -8.2584887    213.90475  0.016087902   0.01576512            4 
 1109000   0.81461655   -8.2460582    213.58981   0.01604973  0.015751663            4 
 1110000   0.80779781   -8.2702563    213.57074  0.016033839  0.015738197            1 
 1111000   0.80880987   -8.2625988    213.58111  0.016020185  0.015724702            3 
 1112000   0.79304052   -8.2796146      213.458  0.015996553  0.015711131            6 
 1113000   0.80499302   -8.2824899    213.59626  0.015992533  0.015697636            2 
 1114000    0.8085116   -8.2712453    213.56181  0.015975599  0.015684206            5 
 1115000    0.8134358   -8.2880087    213.98952  0.015993238  0.015670783            2 
 1116000   0.81298326   -8.2779601    213.90249  0.015972408   0.01565733            4 
 1117000   0.81419784   -8.3193095    213.96788  0.015962987  0.015643911            3 
 1118000   0.81264338   -8.2757014    213.91673  0.015944896  0.015630557            2 
 1119000   0.80366167   -8.2754063     214.0177  0.015938166  0.015617162            3 
 1120000   0.80119692   -8.2900453    213.75302  0.015904242  0.015603771            4 
 1121000   0.80983527   -8.2802399    213.87422  0.015899065  0.015590303            1 
 1122000   0.81991051   -8.2582005    214.27693  0.015914804   0.01557687            4 
 1123000   0.81464824   -8.2996677    213.93818  0.015875495  0.015563463            3 
 1124000   0.79192542   -8.2839887    213.80233    0.0158513  0.015550085            2 
 1125000   0.81451817   -8.2522685    214.25058  0.015870413  0.015536676            5 
 1126000   0.79721975    -8.252485    214.13919  0.015848075  0.015523268            8 
 1127000    0.8024508   -8.2821171    214.28318   0.01584466  0.015509866            3 
 1128000   0.81530893   -8.2780934    213.96688  0.015807246  0.015496486            2 
 1129000   0.78968829   -8.2913849    214.08244  0.015801774  0.015483035            4 
 1130000   0.80743117   -8.2847799    213.54435  0.015748108  0.015469647            5 
 1131000   0.80724957   -8.2917596    214.10872  0.015775768  0.015456247            7 
 1132000   0.77919239   -8.2588553    214.25944  0.015772927  0.015442912            2 
 1133000   0.79025461   -8.2649956    214.16778  0.015752264  0.015429592            2 
 1134000     0.812961   -8.3082876    213.74075  0.015706992  0.015416237            4 
 1135000   0.78872802   -8.3201185    214.44205  0.015744644  0.015402824            7 
 1136000     0.804279   -8.3222359    213.87981   0.01568954  0.015389414            2 
 1137000   0.82343634   -8.2815548    214.05088  0.015688279  0.015376027            2 
 1138000   0.79789044   -8.2586157    214.37896  0.015698518  0.015362744            3 
 1139000   0.80392117   -8.3068807    214.05088  0.015660732  0.015349436            4 
 1140000   0.78704961    -8.281619    214.56817  0.015684808  0.015336208            2 
 1141000   0.78154084   -8.2987803    214.77467  0.015686143  0.015322996            3 
 1142000   0.80031253   -8.2874498    214.71686  0.015668189  0.015309811            1 
 1143000   0.80159767   -8.2929603    214.63376  0.015648422  0.015296603            3 
 1144000   0.79116597   -8.2676839    214.18341  0.015601938  0.015283473            3 
 1145000   0.80371683   -8.2889247    215.21084  0.015663089  0.015270354            2 
 1146000   0.79840488   -8.2928978    214.74242   0.01561536  0.015257291            3 
 1147000   0.79168986   -8.3084471    214.74387   0.01560185  0.015244213            1 
 1148000   0.79532202   -8.3152003    214.83256  0.015594698  0.015231017            2 
 1149000   0.80534017   -8.3218827    214.31735  0.015543759  0.015217827            6 
 1150000   0.77032619    -8.266376    214.93328  0.015574875  0.015204685            2 
 1151000   0.79809088   -8.3078249    214.86081  0.015556097  0.015191624            2 
 1152000   0.80634552   -8.2797174    215.38234   0.01558032   0.01517858            2 
 1153000   0.81061992   -8.3243316    215.11401  0.015547413  0.015165549            2 
 1154000   0.78310583   -8.3107172     214.9808  0.015524322  0.015152539            2 
 1155000   0.79658034   -8.2815892    214.94972  0.015508638   0.01513955            3 
 1156000   0.77998477   -8.3159268    215.11433  0.015507088   0.01512654            1 
 1157000   0.80011686    -8.343616    215.46934  0.015519255  0.015113546            5 
 1158000   0.80118286   -8.3168681    214.71998  0.015451927   0.01510056            7 
 1159000   0.79311474    -8.329342    215.79299  0.015515746  0.015087653            7 
 1160000   0.80837224   -8.2970695    215.54598  0.015484625  0.015074667            3 
 1161000   0.79230879   -8.3166414    215.26891  0.015451401  0.015061676            3 
 1162000   0.79267044   -8.3541187    215.32406  0.015442059  0.015048674            4 
 1163000   0.79452138   -8.3152051    215.39842  0.015434109  0.015035621            2 
 1164000   0.79008213   -8.3500042    215.31465  0.015414852  0.015022656            3 
 1165000   0.78938323   -8.2952173    215.08358  0.015385091  0.015009652            4 
 1166000   0.80700316   -8.3000075      215.334  0.015389794  0.014996734            5 
 1167000   0.79662614   -8.2947213    215.17473  0.015365234  0.014983812            1 
 1168000   0.80201281   -8.3160922    215.14515  0.015349968  0.014970906            6 
 1169000   0.80295368     -8.32532    214.89508  0.015319011  0.014957927            5 
 1170000   0.77326899   -8.3304244    215.26297  0.015332121  0.014944901            7 
 1171000   0.77494701   -8.3351135    214.85742  0.015290166  0.014931875            4 
 1172000   0.79483122   -8.3384962    215.31229  0.015309463  0.014918813            4 
 1173000   0.77537145   -8.3033607    215.49572  0.015309443  0.014905858           10 
 1174000   0.77571489   -8.3209493    215.61628   0.01530496  0.014892925            4 
 1175000     0.782503   -8.3332177     215.3677  0.015274305  0.014880005            2 
 1176000   0.77989263   -8.3098481    215.60733  0.015278297  0.014867105            3 
 1177000   0.79632327   -8.3602931    214.64687  0.015197315  0.014854211            3 
 1178000   0.78463302   -8.3201861    215.20144  0.015223645  0.014841285            4 
 1179000   0.79188164   -8.3690951     215.3714  0.015222745  0.014828351            6 
 1180000   0.78896499   -8.3185309    215.34662  0.015208095  0.014815381            3 
 1181000   0.77932556   -8.3360318    216.03621  0.015243876  0.014802451            4 
 1182000   0.79055389   -8.3314193    215.29921  0.015179019  0.014789539            3 
 1183000   0.79170642   -8.3336479    215.54661  0.015183616  0.014776692            4 
 1184000    0.7888606   -8.3539301    215.02683  0.015134208  0.014763823            4 
 1185000   0.78968578   -8.3551819    215.77469  0.015174029  0.014750956            3 
 1186000   0.77664065    -8.340241    215.76159  0.015160314  0.014738067            4 
 1187000   0.75796966   -8.3584667    215.56625  0.015133828  0.014725172            1 
 1188000    0.7717378   -8.3497141    215.39657  0.015109187  0.014712266            4 
 1189000    0.7862541   -8.3571875    215.99941  0.015138731  0.014699363           14 
 1190000    0.7777841   -8.4038091    215.33277  0.015079325  0.014686475            6 
 1191000    0.7822991   -8.3746677     215.6194   0.01508672  0.014673592            4 
 1192000   0.77634659   -8.3849811    215.47809  0.015064184  0.014660718            3 
 1193000   0.77686836   -8.4044427    214.79088  0.015003554  0.014647799            5 
 1194000   0.78594402   -8.4081371    215.09999  0.015012562  0.014634858            3 
 1195000   0.78892259   -8.4177857    214.80311  0.014979296  0.014621861            6 
 1196000   0.77334824   -8.4242269    215.25007  0.014997915  0.014608888            4 
 1197000   0.78603293   -8.4006909    215.32759  0.014990782  0.014595889            7 
 1198000   0.75446805   -8.4004756    215.14663  0.014965681  0.014582945            3 
 1199000   0.75080154    -8.400942     215.2356  0.014959382  0.014570018            6 
 1200000   0.77116823   -8.4014282    215.20989  0.014945131  0.014557082            7 
 1201000    0.7650167   -8.4020748    215.42753  0.014947789  0.014544195            3 
 1202000   0.76812633   -8.3936565    215.14578   0.01491582   0.01453127            5 
 1203000   0.79586691   -8.4119623    215.69812  0.014941682   0.01451836            3 
 1204000   0.77503846   -8.4151758    214.91726  0.014875225  0.014505421            3 
 1205000   0.75916395   -8.3877635    214.86968   0.01485959  0.014492497            5 
 1206000   0.78415793   -8.4264193    215.00773  0.014856809   0.01447957            2 
 1207000    0.7816886   -8.4121139    214.90525  0.014837424  0.014466664            2 
 1208000   0.77069003   -8.4207555       215.51   0.01486686  0.014453764            6 
 1209000    0.7605598   -8.3977484    215.19457  0.014832821  0.014440907            2 
 1210000   0.74576544   -8.3742012    215.50486  0.014841933  0.014428052            2 
 1211000   0.76154553   -8.3897362    215.79353  0.014849541  0.014415285            2 
 1212000    0.7720334   -8.4091192    215.50142  0.014817204  0.014402529            3 
 1213000   0.77283894   -8.3945418    215.82987  0.014827554  0.014389776            4 
 1214000    0.7568067   -8.4004531    215.90634  0.014820589  0.014377048            2 
 1215000   0.75768158   -8.4187948    215.66522  0.014791853  0.014364329            3 
 1216000   0.77143563   -8.3962003    215.47294  0.014766512  0.014351571            5 
 1217000   0.75298011   -8.4065118    215.74454  0.014772976  0.014338842            6 
 1218000   0.76710326   -8.3845951    215.69255   0.01475729  0.014326209            4 
 1219000   0.77001755   -8.4065116     216.0917  0.014772471  0.014313519            2 
 1220000   0.76982114   -8.4079657     215.8979  0.014747124  0.014300876            1 
 1221000    0.7723224   -8.4362516     215.4247   0.01470275  0.014288197            3 
 1222000   0.78405975   -8.3832284    215.67371    0.0147077  0.014275533            6 
 1223000   0.77882455   -8.4026806    215.62541  0.014692382  0.014262846            3 
 1224000   0.75511002   -8.3906032    215.78424  0.014691193   0.01425018           10 
 1225000   0.78472116   -8.3809577    215.86349  0.014684591  0.014237542           10 
 1226000   0.75896522   -8.3899029    215.67206  0.014659602  0.014224929            6 
 1227000   0.78179354   -8.4265212    215.77225  0.014654459  0.014212271            6 
 1228000   0.75538924    -8.411235    215.98524  0.014656979   0.01419965            4 
 1229000   0.76254294   -8.3814617    216.14994  0.014656221  0.014187077            4 
 1230000   0.74922412   -8.4031528    215.68454  0.014612774  0.014174461            9 
 1231000   0.75943599   -8.4067666    215.32445  0.014576527  0.014161819            2 
 1232000   0.76020896    -8.403417     215.7783  0.014595394  0.014149214            3 
 1233000   0.75300161   -8.4468394    215.86976  0.014589738  0.014136613            3 
 1234000   0.76758018   -8.4424666    215.28515  0.014538435   0.01412399            3 
 1235000   0.75971125   -8.4344803    216.37117  0.014599944  0.014111441            2 
 1236000   0.77047364   -8.3907675    216.61447  0.014604535  0.014098908            6 
 1237000   0.76990652   -8.4227698    215.94324   0.01454751  0.014086428            1 
 1238000   0.76569849   -8.4048187    216.73368  0.014588966  0.014073961            6 
 1239000   0.74062586   -8.4243076     216.2499  0.014544653  0.014061504            3 
 1240000   0.75866287   -8.4332599    216.00934  0.014516757   0.01404899            5 
 1241000   0.74919586   -8.4436009    216.27391  0.014522825  0.014036466            2 
 1242000    0.7653296   -8.4136337     216.7782  0.014544967  0.014024043            5 
 1243000   0.76491128   -8.4291353    216.45123  0.014511345  0.014011681            3 
 1244000   0.76850736   -8.4443715    215.70105  0.014449427  0.013999251            4 
 1245000   0.76691123   -8.4288007    216.52008  0.014492643  0.013986846           11 
 1246000    0.7643223   -8.4562342    215.96953   0.01444419  0.013974465            4 
 1247000   0.75459843   -8.4528788    216.20191  0.014448136  0.013962115            8 
 1248000   0.76218935   -8.4345756     216.2014  0.014436525  0.013949737            3 
 1249000   0.75662708   -8.4434794    216.27891  0.014430138  0.013937369            4 
 1250000   0.74176302   -8.4777924    215.87896   0.01439193  0.013924978            2 
 1251000    0.7630024   -8.4594007    216.39854  0.014415037   0.01391259            4 
 1252000    0.7585178   -8.4534024    216.08713  0.014382796  0.013900216            1 
 1253000   0.75009788   -8.4495887    216.07556  0.014370548  0.013887823            5 
 1254000   0.75431321   -8.4349331     216.2869  0.014373133  0.013875479            3 
 1255000   0.75900768    -8.450047    216.23832  0.014358454  0.013863151            2 
 1256000   0.76549793   -8.4362858    216.26667  0.014348903  0.013850831            1 
 1257000   0.73475862   -8.4539865    216.67036  0.014364251  0.013838534            2 
 1258000   0.74691658   -8.4466602    216.50554  0.014341914  0.013826253            8 
 1259000   0.75357375   -8.4479759     216.1224  0.014305163  0.013813934            4 
 1260000   0.75172539    -8.447653    216.35467  0.014309171  0.013801652            8 
 1261000   0.74840567   -8.4210896    216.29688  0.014294005  0.013789411            4 
 1262000   0.74907241   -8.4365129     216.8856  0.014321553  0.013777207           12 
 1263000   0.75263861   -8.4540503    216.99948  0.014317728  0.013765027            3 
 1264000   0.74290224   -8.4568939    216.55947  0.014277391  0.013752811            1 
 1265000   0.73591028   -8.4584638    216.42351  0.014257148  0.013740591            3 
 1266000   0.74131516   -8.4649178    216.76134  0.014268124  0.013728402            5 
 1267000   0.76511548   -8.4724297    216.19117  0.014219362  0.013716215            4 
 1268000   0.75833723   -8.4560015    216.83472  0.014250442  0.013704044           11 
 1269000   0.75391568   -8.4443812    216.88684  0.014242635  0.013691863            6 
 1270000   0.75808003   -8.5068046    216.15004  0.014183074  0.013679659            2 
 1271000   0.73460428   -8.4679019    216.51639  0.014195934  0.013667453            3 
 1272000   0.72909405   -8.4181312    216.51117  0.014184432  0.013655308            2 
 1273000   0.74038892   -8.4417553    216.74905  0.014188861   0.01364319            7 
 1274000   0.76691619   -8.4731339    216.26314  0.014145941  0.013631088            3 
 1275000   0.75506719   -8.4557231    216.57808   0.01415543  0.013618975            2 
 1276000   0.74511401   -8.4550243    216.63736  0.014148208  0.013606798            2 
 1277000   0.74127629   -8.4718706    216.78286  0.014146624  0.013594689            2 
 1278000   0.73411207   -8.4272353    216.96613  0.014147505  0.013582614            3 
 1279000   0.75508558   -8.4769088    216.37526  0.014097945  0.013570612            4 
 1280000   0.73988936   -8.4730898    216.85953  0.014118459  0.013558576            4 
 1281000   0.74009591   -8.4825147    217.08013  0.014121789  0.013546536            6 
 1282000   0.73194719   -8.4528397    216.93428  0.014101292  0.013534514            3 
 1283000   0.75150597   -8.4618137    216.50434  0.014062376  0.013522463            2 
 1284000   0.73752711    -8.469269    216.56976   0.01405567  0.013510395            2 
 1285000   0.76018829   -8.4945723    216.53596  0.014042539  0.013498324            4 
 1286000   0.74009832   -8.5311194    216.04038  0.013999506  0.013486243            3 
 1287000   0.72590361   -8.4804232     216.7079   0.01403185  0.013474172            6 
 1288000   0.72413742   -8.4522763    216.92576  0.014035052  0.013462148            3 
 1289000    0.7304831   -8.4720281    216.77632  0.014014502   0.01345017            2 
 1290000   0.72783556   -8.4708738    216.54326  0.013988582  0.013438166            5 
 1291000   0.73956649   -8.4705338    216.76574  0.013992108  0.013426188            4 
 1292000   0.71909663   -8.4768601    216.62314  0.013972081  0.013414214            3 
 1293000   0.73940343   -8.4714571    216.57646  0.013958266  0.013402244            4 
 1294000   0.73233445    -8.479542    216.55789  0.013946283   0.01339032            5 
 1295000   0.73351104   -8.4899246    216.81443  0.013952022   0.01337837            5 
 1296000   0.73466325   -8.4818714    217.00694  0.013953635   0.01336645            2 
 1297000   0.74326639   -8.4868768    216.96672  0.013940293  0.013354561            2 
 1298000   0.75083509   -8.4831863    216.87176  0.013923457  0.013342698            3 
 1299000   0.74102927    -8.491708    216.93639  0.013916884    0.0133308            5 
 1300000   0.75498903   -8.4654484    216.69594  0.013890765  0.013318947            3 
 1301000   0.73827952   -8.4868625     216.7327  0.013882443  0.013307057            2 
 1302000   0.73911234   -8.5228994    216.95951  0.013886297   0.01329516            3 
 1303000   0.73055909   -8.4964468    217.16377  0.013888703  0.013283274            2 
 1304000   0.73149505   -8.4777887    216.69613  0.013848168  0.013271396            1 
 1305000   0.72496911   -8.4888546    216.32637  0.013813945  0.013259537            9 
 1306000   0.74093949   -8.4911768    216.63578   0.01382311  0.013247673            3 
 1307000   0.73258583   -8.5214686    216.30644  0.013791535  0.013235768            7 
 1308000   0.71862088   -8.5139207    216.52681  0.013795031   0.01322387            5 
 1309000   0.70909106   -8.5161433    216.59956  0.013789124  0.013211977            8 
 1310000   0.74571138   -8.4914877    216.69588  0.013784725  0.013200145            6 
 1311000   0.74512707    -8.482916    216.63941  0.013770621  0.013188357            4 
 1312000   0.72987082   -8.4997927    216.94386  0.013779463  0.013176579           11 
 1313000    0.7284398   -8.4896368     216.6697  0.013751568  0.013164798            6 
 1314000    0.7265616   -8.5053031    216.90427  0.013755978  0.013153015            5 
 1315000    0.7315255   -8.4999712    216.72481  0.013734145  0.013141249            5 
 1316000   0.73183101   -8.5195478    216.21886   0.01369167  0.013129487            6 
 1317000   0.72029744   -8.5371679    216.90875  0.013724927  0.013117703            3 
 1318000   0.72979846   -8.4966387    217.18192  0.013731786  0.013105963            4 
 1319000   0.73395968   -8.5282115    216.60237  0.013684759  0.013094234            5 
 1320000   0.73308722   -8.5171646    217.31991  0.013719691  0.013082503            3 
 1321000   0.73165206    -8.506575    217.01588  0.013690126  0.013070851            5 
 1322000   0.71866736   -8.5239467    216.50239  0.013647403  0.013059171            5 
 1323000   0.71944012     -8.49798    216.97994  0.013667167  0.013047514            6 
 1324000   0.72021647   -8.5146979    217.07952  0.013663112  0.013035863           11 
 1325000   0.71773641   -8.5143458    216.61496  0.013623582  0.013024214            5 
 1326000   0.73198912   -8.5456436    216.99906  0.013637447  0.013012581            3 
 1327000   0.73130113   -8.5278187    216.95083  0.013624141  0.013000938           17 
 1328000   0.73086533    -8.525553    216.79137  0.013603876  0.012989289           12 
 1329000   0.70536298   -8.5266835    216.96452  0.013604497  0.012977634            7 
 1330000   0.71709321   -8.5325565    216.46571  0.013563014  0.012965976           12 
 1331000    0.7150937   -8.5024985    216.83567  0.013575987   0.01295434            8 
 1332000   0.70879354   -8.5402971    216.43416  0.013540676  0.012942706            4 
 1333000   0.72970144   -8.5101736    216.92901  0.013561454  0.012931079            7 
 1334000   0.70983581   -8.5596487    216.46535  0.013522323  0.012919534            5 
 1335000    0.7188589   -8.5408622    216.71516  0.013527788   0.01290795            4 
 1336000   0.71393824   -8.5288542    216.47513   0.01350269  0.012896386            3 
 1337000   0.71475535   -8.5296598    216.69326  0.013506187  0.012884828            4 
 1338000   0.72365393   -8.5365646    216.74292  0.013499185  0.012873248            3 
 1339000    0.7057629   -8.5050676    217.32243   0.01352517  0.012861717            4 
 1340000   0.71571316   -8.5576374    216.73037  0.013478257  0.012850214            5 
 1341000   0.72310861   -8.5308661    217.41757  0.013510911  0.012838728            5 
 1342000   0.71910346    -8.522548    217.26092  0.013491115  0.012827235            8 
 1343000   0.69833955   -8.5029842    217.01491  0.013465805  0.012815751            5 
 1344000   0.69825174   -8.5481304    217.31999  0.013474701  0.012804265            3 
 1345000   0.73376628   -8.5556905    217.20727    0.0134577  0.012792774           10 
 1346000   0.71697392   -8.5412598     217.1539  0.013444397  0.012781335            4 
 1347000   0.72589056   -8.5037243    217.13117   0.01343301  0.012769885            4 
 1348000   0.71549954   -8.5411344    216.89873  0.013408675  0.012758448            7 
 1349000   0.70994421   -8.5453092    217.17684  0.013415915  0.012747001            4 
 1350000   0.71775977   -8.5566731    216.52665  0.013365843  0.012735569            2 
 1351000   0.70594808   -8.5385268    217.12493  0.013392853  0.012724116            3 
 1352000   0.72639696   -8.5437092    216.87495  0.013367539  0.012712656            6 
 1353000   0.69978804   -8.5079717    216.71271  0.013347666  0.012701238            7 
 1354000   0.71076332    -8.536867    217.27309  0.013372298  0.012689804            4 
 1355000   0.70080892     -8.54927    216.83705  0.013335612  0.012678386            8 
 1356000   0.69564161   -8.5717188    216.43344  0.013300973  0.012666964            4 
 1357000   0.71409493   -8.5815753    216.48121  0.013294105  0.012655538            4 
 1358000   0.71723976   -8.5717144    216.55631  0.013288925  0.012644141            2 
 1359000   0.70145929   -8.5451213    217.07658  0.013311048  0.012632737            7 
 1360000   0.70683754   -8.5412569    216.84777  0.013287241  0.012621347            4 
 1361000   0.70114763   -8.5588376    216.32709  0.013245597  0.012609948            5 
 1362000    0.7046397   -8.5781561    216.70701  0.013259117   0.01259856            4 
 1363000   0.70681874   -8.5553382    216.91321  0.013261996  0.012587182            4 
 1364000   0.71408936    -8.584538    216.32654  0.013216431   0.01257582            2 
 1365000   0.69568815   -8.5511569    216.74239  0.013232136  0.012564462            3 
 1366000   0.70662803   -8.5572271    216.43848  0.013203909  0.012553113            5 
 1367000   0.70164629   -8.5595908     216.6117   0.01320481  0.012541793            2 
 1368000   0.71075829   -8.5651162    216.51016  0.013188972  0.012530461            7 
 1369000   0.69402046   -8.5732658    216.53339  0.013180752   0.01251915            4 
 1370000   0.70478922   -8.5681316    216.92851  0.013195165  0.012507833            2 
 1371000   0.71141513   -8.5823352    216.81348  0.013178548  0.012496582            3 
 1372000   0.70217706   -8.5856567    217.18036  0.013191227  0.012485351            4 
 1373000   0.69787928   -8.5626582     216.8127  0.013159304  0.012474103            8 
 1374000   0.69532677   -8.5813515    216.28045  0.013117446  0.012462844            5 
 1375000   0.71143416   -8.5388551    217.07767  0.013156223  0.012451605            3 
 1376000   0.69966476   -8.5747078    216.46318  0.013109446  0.012440386            2 
 1377000     0.704077   -8.5809611    216.97335    0.0131308   0.01242916            5 
 1378000   0.70065974   -8.5617361     216.7007  0.013104784  0.012417947            3 
 1379000   0.68769863   -8.5873319    216.64978  0.013092203   0.01240674            4 
 1380000   0.70941049   -8.5708928    217.23633  0.013118136  0.012395541            4 
 1381000   0.71076827   -8.5776885    216.85749  0.013085776  0.012384366            4 
 1382000   0.71656153   -8.5735428    216.82564  0.013074387  0.012373207            9 
 1383000   0.69285041   -8.6101004    216.91352  0.013070229  0.012362022            5 
 1384000    0.6878528   -8.6070518    216.89576  0.013059716  0.012350831            4 
 1385000   0.68620481   -8.5886562    216.57161  0.013030783  0.012339652            4 
 1386000   0.72476295   -8.5845444    217.05432  0.013050404  0.012328465            4 
 1387000   0.68692267   -8.5842351    216.85241  0.013028864  0.012317281            6 
 1388000   0.70915719   -8.5758397     216.8897  0.013021716  0.012306072            3 
 1389000     0.699602   -8.5954491    216.85522  0.013010272  0.012294918            3 
 1390000   0.72090491   -8.5992006    216.47365  0.012978036  0.012283738            5 
 1391000   0.69734907    -8.581996    216.98768  0.012999502   0.01227263            5 
 1392000   0.70133767   -8.5881006    217.09044  0.012996314  0.012261541            4 
 1393000   0.70080365   -8.5971505    216.90467  0.012975872  0.012250457            3 
 1394000   0.69900198   -8.6038781    216.82285  0.012961672  0.012239363            4 
 1395000   0.69069191   -8.5826087    216.69287  0.012944616  0.012228288            6 
 1396000   0.70626316    -8.608282    216.65903  0.012933323  0.012217231            3 
 1397000   0.69330597   -8.5736929    216.79223  0.012932011  0.012206173            6 
 1398000    0.6894741   -8.5944816    216.42187  0.012900684  0.012195134            7 
 1399000   0.69820867   -8.5915002    216.96631  0.012923893  0.012184094            5 
 1400000   0.68780088   -8.6079167    216.53124  0.012888764  0.012173075            6 
 1401000    0.6982884   -8.5930968    217.25244  0.012922463  0.012162068            7 
 1402000   0.70966277   -8.5896597    216.87142  0.012890598  0.012151061           11 
 1403000    0.6916916   -8.5922679    217.31187  0.012907572  0.012140063            9 
 1404000   0.68303342   -8.5870099    216.51676  0.012851185  0.012129072            7 
 1405000   0.68068126   -8.6055411    216.63149  0.012848843   0.01211812            6 
 1406000   0.67898303    -8.587634    217.29439  0.012878994  0.012107166            6 
 1407000   0.70318672   -8.5670634    217.26758  0.012868253  0.012096273            5 
 1408000   0.66921845   -8.5834416    217.29608    0.0128608   0.01208536            5 
 1409000   0.67546633   -8.6053922    216.82729  0.012823947  0.012074439            5 
 1410000   0.70180795   -8.6002953    216.88393  0.012818199  0.012063498            3 
 1411000   0.68748595   -8.6219881    216.21786  0.012769777   0.01205258            4 
 1412000   0.69538295   -8.5962358    216.74203  0.012791669  0.012041677            4 
 1413000   0.70038073   -8.5942979    216.98021  0.012796663  0.012030797            5 
 1414000    0.6932313   -8.5797217    217.14811  0.012797508  0.012019973            5 
 1415000   0.69628981   -8.5858935    216.98699  0.012778975  0.012009177            3 
 1416000   0.69406809   -8.6016611    217.37611   0.01279285  0.011998357            2 
 1417000   0.66561016   -8.6073371    217.14897  0.012770464  0.011987536            3 
 1418000   0.68402064     -8.60384    217.05267  0.012755798  0.011976725            2 
 1419000   0.68809212   -8.5897381    217.03374  0.012745697  0.011965938            5 
 1420000   0.69540381   -8.6193913    216.30616  0.012694024  0.011955149            4 
 1421000    0.7002602   -8.6079748    216.72906  0.012709891  0.011944337            5 
 1422000   0.67666297    -8.593698    216.81918  0.012706234  0.011933555            5 
 1423000   0.67846284   -8.6205769    217.28959  0.012724853  0.011922799            2 
 1424000    0.6746454   -8.6278582    216.71864  0.012682505  0.011912042            6 
 1425000   0.68617938   -8.6079516    216.80246  0.012678506  0.011901307            5 
 1426000    0.6738597   -8.6244343    216.56068  0.012655486  0.011890559            2 
 1427000   0.67505988   -8.6247562    216.47713  0.012641738  0.011879812            2 
 1428000   0.70125495   -8.5866133    217.12345  0.012670603  0.011869068            4 
 1429000   0.67367761   -8.6181493    216.90386  0.012648931  0.011858341            3 
 1430000   0.68698593   -8.6120698    217.11852  0.012652595   0.01184763            3 
 1431000   0.68467528   -8.5985971     216.7678  0.012623328  0.011836946            3 
 1432000   0.68545595   -8.5885945    217.27626  0.012644103  0.011826255            3 
 1433000   0.69231869   -8.6143158    217.03621   0.01262132  0.011815561            3 
 1434000   0.67427651   -8.6202768    216.83746  0.012600968  0.011804913            2 
 1435000   0.68801047   -8.5997666      216.759  0.012587631  0.011794281            3 
 1436000   0.68346142   -8.6210024    216.68793  0.012574741  0.011783628            6 
 1437000   0.67126343   -8.6208852     216.8489  0.012575325  0.011772955            9 
 1438000   0.69812312   -8.6404176    216.57486  0.012550699  0.011762282            4 
 1439000   0.69138122   -8.6631634    216.72798  0.012550844  0.011751635            4 
 1440000   0.69162287    -8.636753    216.83044  0.012548058  0.011740975           14 
 1441000   0.67449949   -8.6495795    216.63702  0.012528164  0.011730337            5 
 1442000   0.67401629    -8.641981     216.4192  0.012506889  0.011719704            4 
 1443000   0.66670655   -8.6229965    216.46096  0.012500633  0.011709093            8 
 1444000   0.66222485   -8.6505338    216.54534  0.012496846  0.011698479           11 
 1445000   0.67149235   -8.6332626    216.94906   0.01251148  0.011687871           13 
 1446000   0.68350162   -8.6468861    216.67883  0.012487254   0.01167725            9 
 1447000   0.67836668   -8.6575743    216.96002  0.012494818  0.011666644           21 
 1448000    0.6821258   -8.6616005    216.09861  0.012436614   0.01165607           10 
 1449000   0.67693291   -8.6595783    216.46699  0.012449217  0.011645463            5 
 1450000   0.66569277   -8.6502428    217.02665  0.012472796  0.011634902            2 
 1451000   0.67222718   -8.6441232    216.74339  0.012447932  0.011624357            1 
 1452000   0.66433055   -8.6720671     216.4001  0.012419657  0.011613817           21 
 1453000   0.67847077   -8.6479999    216.63423  0.012424537  0.011603284           15 
 1454000   0.66801299   -8.6664176    216.87006  0.012429508  0.011592758            6 
 1455000   0.67581698   -8.6713262    216.77971  0.012415791  0.011582255           14 
 1456000   0.65999882   -8.6826577    216.19503    0.0123738  0.011571743           13 
 1457000    0.6656841   -8.6496924     216.1901  0.012365025   0.01156121            6 
 1458000   0.67017679   -8.6767305    216.85252  0.012394406  0.011550697            6 
 1459000   0.66956792   -8.6806101    216.32328  0.012355682  0.011540203           13 
 1460000   0.67757296   -8.6623733    216.60687  0.012363406  0.011529707            2 
 1461000   0.67063343   -8.6632576    216.75184  0.012363212  0.011519227           14 
 1462000   0.67142051   -8.6568024    216.48833  0.012339736  0.011508743            9 
 1463000   0.66672628    -8.679339    216.52561  0.012333425  0.011498272           14 
 1464000   0.67432926   -8.6674548    216.79154  0.012340138  0.011487828           13 
 1465000   0.67417905   -8.7005011    216.29636  0.012303547  0.011477359           15 
 1466000   0.66421139   -8.6668475    216.27309  0.012293832  0.011466926           10 
 1467000   0.67032148   -8.6724692     216.3621  0.012290508  0.011456501           12 
 1468000   0.67811914   -8.6696472     216.5062  0.012290315   0.01144608            9 
 1469000   0.66560781   -8.6924735    216.06808  0.012257096  0.011435667            8 
 1470000   0.66748457   -8.6808789     216.2001  0.012256241  0.011425262           14 
 1471000   0.66287467   -8.6877315    216.67282   0.01227469  0.011414891            6 
 1472000   0.67574571   -8.6792822    216.19936  0.012239547  0.011404526            5 
 1473000   0.66076479   -8.6561126    216.80681  0.012265603  0.011394162           16 
 1474000    0.6662984   -8.6603111    216.73894  0.012253445   0.01138382            8 
 1475000    0.6618241   -8.6839394     216.2157  0.012215576  0.011373489           12 
 1476000   0.64741891   -8.6890238    216.32545  0.012213497  0.011363183            8 
 1477000   0.67416473   -8.6729529    216.67416  0.012224902  0.011352873           11 
 1478000   0.66360043   -8.6621388    216.71933  0.012219177  0.011342571            7 
 1479000    0.6708066   -8.6885336    216.64647   0.01220681  0.011332276           13 
 1480000   0.66259308   -8.7003397    216.56081  0.012193739  0.011321973           10 
 1481000   0.66054161   -8.6937321    216.29233  0.012170399  0.011311671           13 
 1482000   0.67343206   -8.6930045     216.2238  0.012158333  0.011301398            6 
 1483000   0.67512644   -8.7217469    216.24676  0.012151425  0.011291123            8 
 1484000    0.6486864   -8.6820298    216.22535  0.012142035  0.011280844            7 
 1485000   0.67127934   -8.7141709    216.35572  0.012141174  0.011270585            6 
 1486000    0.6502539   -8.6941504    216.58248   0.01214572  0.011260342            7 
 1487000   0.66914091    -8.702306    216.40161  0.012127416  0.011250109            5 
 1488000   0.66393946   -8.7109937    216.56494  0.012128413  0.011239895            5 
 1489000   0.65108963   -8.7132797    216.16077  0.012097648  0.011229676            9 
 1490000   0.65753753   -8.7198805    216.14044  0.012088391  0.011219475            7 
 1491000   0.65597095   -8.7088665     215.8729  0.012065331  0.011209266           10 
 1492000   0.65792415   -8.7139783    216.24057   0.01207778  0.011199077            3 
 1493000   0.65055713   -8.7114768    216.66952  0.012093633  0.011188887           13 
 1494000   0.66186111   -8.7167944    216.11765  0.012054755  0.011178699            8 
 1495000   0.66427457   -8.7110709     216.8825  0.012089325  0.011168527            6 
 1496000    0.6484733   -8.7039215    216.58932  0.012064913  0.011158381            8 
 1497000     0.663108   -8.7075793    216.20127  0.012035252  0.011148233           10 
 1498000   0.65486106   -8.7262473     216.0738  0.012020127  0.011138093            7 
 1499000   0.64836034   -8.7349853    216.38012  0.012029137   0.01112794            3 
 1500000   0.65509057   -8.7034019    216.06458  0.012003588  0.011117794            7 
 1501000   0.66630549   -8.6926808    216.34168  0.012010975  0.011107686            7 
 1502000   0.66055089   -8.7337055    215.95736  0.011981655  0.011097591            7 
 1503000   0.64752115   -8.7255945    216.21933  0.011988209  0.011087503            6 
 1504000   0.65523402   -8.7253864    216.31608  0.011985598  0.011077412            6 
 1505000   0.64378214   -8.7028355    216.26051  0.011974557  0.011067346            6 
 1506000   0.65407359    -8.700801    216.40469  0.011974584   0.01105728           10 
 1507000   0.65085693   -8.7223118    216.18827  0.011954671  0.011047226            6 
 1508000    0.6508604   -8.7354658    215.81852  0.011926311  0.011037163            6 
 1509000   0.65704878   -8.7122816    216.24825  0.011942139   0.01102712            9 
 1510000   0.63818049    -8.710625    216.38375  0.011941708  0.011017065           12 
 1511000   0.65128841   -8.7432791    215.87484  0.011905738  0.011007045            9 
 1512000   0.63998785   -8.7175134    215.77001  0.011892086   0.01099701            6 
 1513000   0.64930771   -8.6953511    216.45891   0.01192217  0.010987004            9 
 1514000   0.65234824   -8.7389194    215.87973  0.011882416  0.010977011           11 
 1515000   0.64271989   -8.7140075    216.18525  0.011891378  0.010967021           10 
 1516000    0.6516388   -8.7232474    216.39006  0.011894792   0.01095704            6 
 1517000   0.65480605    -8.714657    216.00143  0.011865603  0.010947057            4 
 1518000   0.63430683   -8.7114878    215.90531  0.011852509  0.010937085           20 
 1519000   0.64897086    -8.747544    215.94152  0.011846693  0.010927082            4 
 1520000   0.64218828   -8.7450583    216.21071  0.011853657  0.010917114            7 
 1521000   0.64985664   -8.7315489    216.29179  0.011850306  0.010907152           10 
 1522000   0.63444701   -8.7476349    215.97397  0.011825119  0.010897203           10 
 1523000   0.63187816   -8.7354924    216.06238  0.011822192  0.010887256            5 
 1524000   0.66177195   -8.7118959    215.99359  0.011810673  0.010877325            7 
 1525000   0.65033577   -8.7528709    215.46736  0.011774172  0.010867375           11 
 1526000    0.6447928   -8.7211266    215.84554  0.011787109  0.010857435           12 
 1527000   0.66227195     -8.74766    216.04451  0.011790248  0.010847518            5 
 1528000   0.64797409   -8.7734613     215.8832  0.011773735  0.010837583            7 
 1529000   0.64122277   -8.7443038    215.54195  0.011747436  0.010827666            2 
 1530000   0.64611078   -8.7606817    216.04555  0.011767187  0.010817769            5 
 1531000   0.62751274   -8.7697692    215.70103  0.011740748  0.010807875            6 
 1532000   0.64132296   -8.7351309    215.20452  0.011706077  0.010797987            5 
 1533000   0.65223244   -8.7603243    215.56666  0.011718127  0.010788115            5 
 1534000    0.6460735   -8.7334313    216.14702  0.011742015  0.010778263            6 
 1535000   0.64350036   -8.7578563    216.07679  0.011730553  0.010768418            5 
 1536000    0.6397395   -8.7541894    215.52476  0.011692967  0.010758591            6 
 1537000   0.64648599    -8.760001     215.6729  0.011693391  0.010748766            7 
 1538000   0.63847053   -8.7430663    215.88577  0.011697322  0.010738951            5 
 1539000   0.63452113    -8.776638    216.15004  0.011704031  0.010729146            2 
 1540000   0.65946547   -8.7321023    216.11477  0.011694522  0.010719366            5 
 1541000   0.64030594   -8.7169068    215.65334   0.01166198    0.0107096            5 
 1542000   0.62262127   -8.7390544    215.57516  0.011650192  0.010699826            4 
 1543000    0.6519588   -8.7616505    215.46916  0.011636917  0.010690067            5 
 1544000   0.64370061   -8.7643429    215.52288   0.01163228  0.010680318            4 
 1545000   0.63877574   -8.7715867    215.44557  0.011620581  0.010670571           16 
 1546000   0.63661626   -8.7793508    215.46704  0.011614222  0.010660813            4 
 1547000   0.64695198   -8.7661422    215.80014  0.011624657  0.010651085            7 
 1548000   0.65591088   -8.7658626    215.52095  0.011602118  0.010641371            6 
 1549000   0.64757195   -8.7689813    215.45234  0.011590937  0.010631667            4 
 1550000   0.63957794    -8.743022    215.52647  0.011587445  0.010621963            7 
 1551000   0.62176644    -8.757709    215.67434  0.011587918  0.010612272            4 
 1552000   0.62702333   -8.7508531    215.89493  0.011592297  0.010602598            3 
 1553000   0.63237972   -8.7863557    215.49214  0.011563218  0.010592931            6 
 1554000   0.64068964   -8.7530955    215.86319  0.011575675  0.010583259            4 
 1555000   0.62806654   -8.7584656    215.74627  0.011561965   0.01057361            7 
 1556000   0.63259726   -8.7666754    215.46763  0.011539612   0.01056397            5 
 1557000   0.62593617   -8.7722478    215.59549  0.011539043  0.010554319            3 
 1558000   0.61521624   -8.7667731    215.50641  0.011526873  0.010544674           19 
 1559000   0.62495645   -8.7491239    215.59188  0.011524047  0.010535077            5 
 1560000   0.63707301   -8.7560392    215.54679  0.011514252  0.010525485            4 
 1561000   0.62596355   -8.7602681    215.32244  0.011494899  0.010515895            5 
 1562000   0.62808988   -8.7670614    215.47216  0.011495527  0.010506325            4 
 1563000   0.62952822   -8.7614874    215.64674   0.01149748  0.010496753            7 
 1564000   0.62533978   -8.7667678    215.35376  0.011474518  0.010487195            3 
 1565000   0.62709512   -8.7350907    215.59983  0.011480289  0.010477651           10 
 1566000   0.62802138   -8.7777908    215.69307   0.01147792  0.010468116            5 
 1567000    0.6196384   -8.7751166    215.79063  0.011475783  0.010458596            9 
 1568000   0.61070284    -8.777058    215.65239  0.011461118  0.010449078            5 
 1569000   0.62567437   -8.7656496    215.46574    0.0114439  0.010439559            6 
 1570000   0.62254817   -8.7999791     215.4691  0.011436789  0.010430052            5 
 1571000    0.6235845   -8.7688137    215.75667  0.011444763  0.010420532            9 
 1572000   0.61722899     -8.77357    215.32401  0.011414547  0.010411049            5 
 1573000   0.61810347   -8.7669625    215.31017  0.011406557  0.010401573            9 
 1574000   0.62152992   -8.8037199    215.23735  0.011395455   0.01039211            5 
 1575000   0.61711024   -8.7815412    215.60574  0.011407711  0.010382645            3 
 1576000   0.62662639   -8.7734178    215.86291  0.011414071  0.010373197            8 
 1577000    0.6253009   -8.7721578    215.26428    0.0113752  0.010363769            7 
 1578000   0.62011902   -8.7917972    215.34866  0.011372447  0.010354337            8 
 1579000   0.62504393   -8.7810004    215.81253  0.011389726  0.010344925            4 
 1580000   0.62808317   -8.8004684    215.44515  0.011363141  0.010335526            5 
 1581000   0.61579545   -8.7660842     215.8716  0.011378431  0.010326124           12 
 1582000   0.61706167   -8.7918185    215.29906   0.01134108  0.010316729            6 
 1583000   0.61439631    -8.767039    215.69746  0.011354888  0.010307343            9 
 1584000   0.60897777   -8.7768835    215.35525  0.011329716  0.010297958            7 
 1585000   0.61159814   -8.7917703    215.26809  0.011317986  0.010288589            8 
 1586000   0.62072732   -8.8024279    215.61659  0.011329161   0.01027925            8 
 1587000   0.61654418   -8.7745862    215.26785   0.01130371  0.010269922            9 
 1588000   0.62330013   -8.7934644    215.17564  0.011291753  0.010260606           11 
 1589000   0.60858055   -8.7925051    215.63952  0.011308974  0.010251297            6 
 1590000   0.60851809   -8.7808485    215.29214  0.011283655   0.01024199            9 
 1591000   0.61121452   -8.7972024    215.41548  0.011283023  0.010232695           12 
 1592000   0.62095138   -8.7875516    215.20418  0.011264875  0.010223402            5 
 1593000   0.61474931   -8.7787377    215.97522  0.011298139   0.01021412           10 
 1594000   0.61131433   -8.7949998    215.31456  0.011256512  0.010204841            5 
 1595000   0.61936864   -8.8006306    215.33909  0.011250736  0.010195573            5 
 1596000   0.61980102   -8.7911402    215.65042  0.011259943  0.010186304            4 
 1597000   0.61657044   -8.8067996    215.37677  0.011238613  0.010177053            9 
 1598000   0.61580223    -8.776308    215.41849  0.011233755  0.010167809            9 
 1599000   0.63231992   -8.7951243    215.35852  0.011223604  0.010158579            5 
 1600000   0.61238083   -8.7897741    215.59802  0.011229063  0.010149356            8 
 1601000   0.61181197   -8.8124329     215.1156  0.011196939  0.010140138           11 
 1602000   0.61400169   -8.8026713    215.27158  0.011198064  0.010130935            8 
 1603000   0.61480081   -8.7891762    215.56141  0.011206145  0.010121747           13 
 1604000   0.61869901   -8.7829649    215.63497  0.011202981  0.010112559            9 
 1605000   0.60886287   -8.7810867    215.26739  0.011176915  0.010103384            8 
 1606000   0.60492832   -8.8051508    215.27186  0.011170188  0.010094223           11 
 1607000   0.61367484   -8.7783167    215.46481  0.011173242   0.01008507            7 
 1608000   0.60851289   -8.8068484    215.27875  0.011156652  0.010075929            9 
 1609000   0.62021348   -8.7916817    215.60843  0.011166793  0.010066802            6 
 1610000   0.61239606   -8.8134812    215.05128  0.011131019  0.010057677           12 
 1611000   0.61606093   -8.7815498    215.19082  0.011131328  0.010048567            7 
 1612000   0.60807857   -8.8195436    215.60293  0.011145726  0.010039447            6 
 1613000    0.6062324   -8.8214375    215.18539  0.011117245  0.010030344            8 
 1614000   0.59708669   -8.8103886    215.42001  0.011122471  0.010021251            6 
 1615000   0.60349009   -8.8183761    215.33261  0.011111074  0.010012162           10 
 1616000   0.60245922   -8.8171779    215.14019  0.011094276  0.010003077           11 
 1617000   0.62036236   -8.7900415    215.37584  0.011099559  0.009993999            5 
 1618000   0.60153371   -8.8011169    215.36528  0.011092155 0.0099849284            8 
 1619000   0.61247329   -8.8209638    215.42003  0.011088122 0.0099758617            6 
 1620000   0.60928281   -8.8038774    214.91623  0.011055361 0.0099668032           14 
 1621000   0.59506852   -8.7941349     215.1246  0.011059254 0.0099577499            5 
 1622000   0.60433788    -8.829027    215.19359   0.01105598 0.0099487201            4 
 1623000   0.60742849   -8.8327173    215.32181  0.011055751 0.0099396775            4 
 1624000   0.59792661   -8.8137728    215.32918  0.011049322 0.0099306463            5 
 1625000   0.60587765   -8.8194102    215.27771  0.011039883 0.0099216365            7 
 1626000    0.6037146   -8.8388911    215.28782  0.011033611 0.0099126452            7 
 1627000   0.58839811   -8.8303969    215.23467  0.011024107 0.0099036515            5 
 1628000   0.61194793   -8.8237448    214.96699  0.011003634 0.0098946636            5 
 1629000   0.60703123   -8.8241745    214.93819  0.010995405 0.0098857009            6 
 1630000   0.61126952   -8.8191382    215.01882  0.010992782 0.0098767391           15 
 1631000   0.59950633   -8.8310208     215.3403  0.011002468 0.0098677923           11 
 1632000   0.59683976   -8.8056288    215.26754  0.010992011 0.0098588612            6 
 1633000   0.59997008   -8.8095052    215.30925  0.010987408 0.0098499586            8 
 1634000   0.60277632   -8.8323127    215.09049  0.010969527 0.0098410477            7 
 1635000    0.6100322   -8.8214195    215.30079  0.010973537 0.0098321536            6 
 1636000   0.60659602    -8.839323    215.14128  0.010958704 0.0098232587           11 
 1637000   0.60396058   -8.8383063     215.3692  0.010963612 0.0098143791            9 
 1638000    0.5915026   -8.8354525    214.94511  0.010935343 0.0098054985           15 
 1639000   0.60820014   -8.8321615    215.15413  0.010939299 0.0097966312            9 
 1640000   0.59787301   -8.8371252    215.06682  0.010928192 0.0097877731           13 
 1641000   0.60516349   -8.8359626    214.83643  0.010909833 0.0097789189            6 
 1642000   0.59857829   -8.8222008    214.78853  0.010900758 0.0097700854            4 
 1643000   0.60275676   -8.8476028    215.17356  0.010913652 0.0097612514            7 
 1644000   0.60265677    -8.825602    214.99363  0.010897893 0.0097524189            9 
 1645000   0.60674483   -8.8468243    214.95468  0.010889295 0.0097436147            6 
 1646000   0.59100397   -8.8467348    214.83019  0.010876377 0.0097348114           10 
 1647000   0.59596145   -8.8347964    215.50946  0.010904142 0.0097260085            7 
 1648000   0.59669304   -8.8144905    215.18728  0.010881234 0.0097172228            7 
 1649000   0.58156046   -8.8044775    215.46584  0.010888712 0.0097084409            4 
 1650000   0.57926861    -8.840591    214.78895  0.010847927 0.0096996819           15 
 1651000   0.59944388    -8.804663    215.21113  0.010862665 0.0096909318            7 
 1652000   0.57953087   -8.8111996    215.05368  0.010848148 0.0096821855            8 
 1653000    0.6044156   -8.8490428    215.00418   0.01083909 0.0096734268            6 
 1654000   0.59073695   -8.8280136    215.26873  0.010845865 0.0096646957            9 
 1655000   0.58748526   -8.8493377    215.20597  0.010836152 0.0096559787            6 
 1656000   0.57869761   -8.8308236     215.0608  0.010822303 0.0096472741            7 
 1657000   0.57723681   -8.8596404    214.95346  0.010810373 0.0096385667            8 
 1658000   0.59376208   -8.8485456    214.99827  0.010806105 0.0096298712            7 
 1659000   0.58524156   -8.8457446    215.08803  0.010804101 0.0096211944            4 
 1660000   0.58870727   -8.8471939     215.0703  0.010796702 0.0096125339            7 
 1661000   0.59597038   -8.8466544    214.80257   0.01077677 0.0096038804            4 
 1662000   0.58609575   -8.8312315    214.94411  0.010777382 0.0095952201            6 
 1663000   0.58850395   -8.8284295    214.78956  0.010763157 0.0095865646            8 
 1664000   0.60208167   -8.8282559    215.26742   0.01078062 0.0095779314            7 
 1665000    0.5862294   -8.8364618    214.71671  0.010746582 0.0095693195            7 
 1666000   0.59876695   -8.8491198    214.63338  0.010735963 0.0095607059            7 
 1667000   0.57525515   -8.8467524    215.04569  0.010750135 0.0095520869            6 
 1668000    0.5888347   -8.8407803    215.08105  0.010745456  0.009543485            7 
 1669000   0.58012787    -8.841243    215.07092  0.010738512 0.0095349026            8 
 1670000   0.57607228   -8.8340175     215.1816  0.010737605 0.0095263119            7 
 1671000   0.59488518   -8.8462153     214.9843  0.010721339  0.009517737            8 
 1672000   0.60385397   -8.8697752    214.40616  0.010686112 0.0095091752           17 
 1673000   0.58098144   -8.8586666    214.89429  0.010704039 0.0095006289            4 
 1674000   0.58196069   -8.8400564    215.13109  0.010709433  0.009492096           12 
 1675000    0.5853325   -8.8541741    215.32783  0.010712827 0.0094835667            7 
 1676000   0.59997166   -8.8618379    215.15011  0.010697599 0.0094750486            4 
 1677000   0.57500944   -8.8590146     214.9623  0.010681887 0.0094665404           10 
 1678000   0.57962034   -8.8461925    215.13421  0.010684059 0.0094580403            8 
 1679000   0.58489815   -8.8647846    214.61161  0.010651757 0.0094495407            7 
 1680000   0.59187124   -8.8477874    215.01207  0.010665281 0.0094410587            5 
 1681000   0.57627143   -8.8669846    215.33615  0.010675003 0.0094325848            9 
 1682000   0.59224672   -8.8664486    214.89198   0.01064665  0.009424113            5 
 1683000   0.58138686   -8.8437752    214.49585  0.010620709 0.0094156552           10 
 1684000   0.58719162   -8.8502973     214.8704  0.010632938 0.0094072122            9 
 1685000   0.55885302   -8.8430077    215.32646  0.010649182 0.0093987697           12 
 1686000   0.58236996   -8.8651084    214.96542  0.010625021 0.0093903472           14 
 1687000   0.57066969   -8.8516736    214.76306  0.010608727 0.0093819298            9 
 1688000   0.56902575   -8.8421727    215.18332  0.010623189 0.0093735277           10 
 1689000   0.57465743   -8.8531528    214.66928  0.010591537 0.0093651288           11 
 1690000    0.5785837   -8.8692854    214.56746   0.01058025  0.009356745            8 
 1691000   0.57132681   -8.8756112    214.83453  0.010587154 0.0093483683           12 
 1692000   0.56976326   -8.8632346    214.60001  0.010569347 0.0093399866            7 
 1693000   0.57798286   -8.8746522    214.90324  0.010578029 0.0093316131            4 
 1694000    0.5844371   -8.8487828    214.70642  0.010562103 0.0093232668           10 
 1695000   0.57696488   -8.8459444    214.70215  0.010555661  0.009314926           15 
 1696000    0.5810032   -8.8711746    214.80413  0.010554448 0.0093065905            8 
 1697000   0.58120068   -8.8512787    215.02949  0.010559295 0.0092982635           10 
 1698000     0.576741    -8.859372    215.16232  0.010559596 0.0092899452           12 
 1699000   0.58175437   -8.8782521    214.63504  0.010527518 0.0092816353            7 
 1700000    0.5787484   -8.8564584    214.69923  0.010524472 0.0092733472            8 
 1701000   0.56467321   -8.8734773     214.7134  0.010518979 0.0092650632            5 
 1702000   0.56905669   -8.8817922    214.44687  0.010499749 0.0092567824           12 
 1703000    0.5703537   -8.8516076    214.90312  0.010515909  0.009248513            8 
 1704000   0.58025794   -8.8629783    214.94081  0.010511581 0.0092402503            6 
 1705000   0.58506028   -8.8686357    215.27377   0.01052169 0.0092320046            6 
 1706000   0.58401109   -8.8525197    214.71354  0.010488157 0.0092237611            9 
 1707000   0.57856113   -8.8821122    214.87669  0.010489977 0.0092155191           10 
 1708000   0.56700104   -8.8647269    214.70537  0.010475477 0.0092073021           10 
 1709000   0.58071896   -8.8646673    215.09824  0.010488504 0.0091990853           11 
 1710000    0.5716116   -8.8895721    214.89695  0.010472561 0.0091908752            7 
 1711000   0.56962002   -8.8861696    214.97399  0.010470193 0.0091826848           10 
 1712000   0.57634778   -8.8880652     214.8467  0.010457881  0.009174482            6 
 1713000   0.57116598   -8.8645386    214.45707  0.010432821 0.0091662752           12 
 1714000   0.57795355   -8.8878772    214.69969   0.01043853 0.0091580861            8 
 1715000   0.57795649    -8.884787    214.27409  0.010411763 0.0091499139           10 
 1716000   0.57289718   -8.8802465    214.88865   0.01043554 0.0091417591           14 
 1717000   0.56885378   -8.8680163    214.88974  0.010429516 0.0091336118            6 
 1718000   0.57157768   -8.8807239    215.13959  0.010435564 0.0091254774            9 
 1719000   0.56899121   -8.8843724    214.79312  0.010412697 0.0091173562           12 
 1720000   0.55612711    -8.898213    214.64336  0.010399388  0.009109239           10 
 1721000   0.56906346   -8.9041757    214.70753  0.010396452 0.0091011214           14 
 1722000    0.5742911    -8.880136     215.1349  0.010411096 0.0090930238            9 
 1723000   0.57355207   -8.9042331     214.4744  0.010373109 0.0090849245           11 
 1724000   0.55359517   -8.8946414    214.97888  0.010391477 0.0090768431           10 
 1725000   0.57174399   -8.8884541    215.04863  0.010388823 0.0090687749            7 
 1726000   0.56639849   -8.8792704    214.89454  0.010375364 0.0090607185           11 
 1727000   0.56014551   -8.8849007    214.83993  0.010366721 0.0090526716           13 
 1728000   0.56200866    -8.888676    214.78748  0.010358193  0.009044634           10 
 1729000    0.5653193   -8.8997117    214.87686   0.01035651 0.0090365927            8 
 1730000   0.55939613   -8.8928432    214.70996  0.010342484 0.0090285777           10 
 1731000   0.55614393    -8.897278    214.64381  0.010333324 0.0090205685           14 
 1732000   0.55755106   -8.8887621    214.55726  0.010323194 0.0090125537           13 
 1733000   0.56188059   -8.8798697    214.82852  0.010330281 0.0090045503            7 
 1734000   0.56184748   -8.8896432    214.75679  0.010320876 0.0089965547            5 
 1735000   0.55217279   -8.8984793    214.66314  0.010310429  0.008988569           18 
 1736000   0.55330838   -8.8866121    214.73401  0.010307892 0.0089805994            9 
 1737000   0.55431242   -8.8849997    214.32415  0.010282295 0.0089726295           14 
 1738000   0.55845404   -8.8956146     214.5971  0.010289466 0.0089646688           14 
 1739000   0.55567409     -8.90071    214.69932  0.010288447 0.0089567121           15 
 1740000   0.56185334   -8.8862442    214.64344  0.010279858 0.0089487649            6 
 1741000   0.55609868   -8.9223936    214.36527  0.010260639 0.0089408228           11 
 1742000   0.55524465   -8.9163341      214.347  0.010253875 0.0089328924           15 
 1743000   0.55929905   -8.9071525    214.35163  0.010248213 0.0089249683           11 
 1744000   0.55996581   -8.9029762    214.40801  0.010245031  0.008917061           22 
 1745000   0.55339116   -8.9080066    214.31496  0.010234716 0.0089091533           18 
 1746000   0.56150716   -8.9001873    214.92925  0.010258173 0.0089012525           14 
 1747000   0.57778805   -8.9077997    215.09276  0.010260101  0.008893368           12 
 1748000   0.56933957   -8.9085168    214.68104  0.010234603 0.0088854835            6 
 1749000   0.55746509   -8.8874314    214.48401  0.010219364 0.0088776073           13 
 1750000   0.56031857   -8.9106274      214.544  0.010216381  0.008869747            7 
 1751000   0.55382147   -8.8997209    214.12617  0.010190661  0.008861893           17 
 1752000   0.56398408   -8.9161757    214.48675  0.010201995 0.0088540498           12 
 1753000      0.55082   -8.9188444    214.57774  0.010200501 0.0088462081           10 
 1754000   0.55096416   -8.9133419    214.23289  0.010178301 0.0088383711            9 
 1755000   0.56237736   -8.9123187    214.65086  0.010192349 0.0088305548           11 
 1756000   0.53436431   -8.9111087    213.86509  0.010149255 0.0088227396           10 
 1757000   0.53885572   -8.8951043     214.4057  0.010169119 0.0088149405           12 
 1758000    0.5428012   -8.9315209    214.36572  0.010161439 0.0088071388           13 
 1759000   0.54460105   -8.9151625    214.42891  0.010158656 0.0087993513           10 
 1760000    0.5451175   -8.9176953    214.22102  0.010143041  0.008791574           10 
 1761000   0.55227464   -8.9067314    214.85997  0.010167517 0.0087838014            9 
 1762000   0.54882473   -8.9124033    214.36017  0.010138109 0.0087760492           18 
 1763000   0.54485547   -8.9338587     214.4834  0.010138183 0.0087682979           20 
 1764000    0.5432455   -8.9160693    214.27834  0.010122748 0.0087605588           12 
 1765000   0.53768227   -8.9177506    214.24382  0.010115383 0.0087528199           12 
 1766000   0.53924563   -8.9262737    214.11883  0.010103758 0.0087450888           12 
 1767000   0.55139159   -8.9337079    214.47479  0.010114827 0.0087373718           10 
 1768000    0.5432987   -8.9141473     214.5111  0.010110817 0.0087296601           17 
 1769000   0.55432656   -8.9230621     214.1574   0.01008844 0.0087219576            9 
 1770000   0.54056165   -8.9219346    214.49595   0.01009868 0.0087142649           14 
 1771000   0.55284927   -8.9138219    214.45593  0.010091094 0.0087065803           10 
 1772000   0.55076815    -8.941661    214.46498  0.010085825 0.0086988994           23 
 1773000   0.53974126   -8.9183066    214.82473  0.010097045  0.008691227           18 
 1774000   0.53685574   -8.9281263    214.40247  0.010071518 0.0086835601           13 
 1775000   0.54006004   -8.9210323    214.16899  0.010054882 0.0086758955           20 
 1776000   0.53782545   -8.9345144    214.57072   0.01006807 0.0086682439           21 
 1777000   0.54539776   -8.9243539    214.62712   0.01006505  0.008660604           10 
 1778000   0.53881688   -8.9173132    214.34828   0.01004632  0.008652961           10 
 1779000   0.54331235   -8.9316042    214.00195   0.01002445 0.0086453341            9 
 1780000   0.54681146   -8.9113155    214.39562  0.010037248  0.008637716           20 
 1781000   0.54787581   -8.9362721    214.30507  0.010027375 0.0086301072           16 
 1782000   0.53608032   -8.9549495    214.46459  0.010029208 0.0086225123            6 
 1783000   0.53946084   -8.9265465    214.36109  0.010018746  0.008614928           20 
 1784000   0.53895993   -8.9385184     214.5569  0.010022277 0.0086073491           10 
 1785000   0.54332578    -8.929994     214.3561  0.010007288  0.008599777           18 
 1786000   0.55250258   -8.9518332    213.99006 0.0099846053 0.0085922129           18 
 1787000   0.53817322   -8.9138786    214.02386 0.0099805941 0.0085846614           13 
 1788000   0.54098029   -8.9567839    214.32727 0.0099891532 0.0085771129            7 
 1789000   0.54372108    -8.942287    214.12628 0.0099742074   0.00856957           13 
 1790000   0.55456381   -8.9287874    214.37861 0.0099803824 0.0085620403           15 
 1791000   0.53642711    -8.941142    214.25432 0.0099690267 0.0085545104           14 
 1792000   0.53892088   -8.9363959    214.61551 0.0099802599 0.0085469903            9 
 1793000   0.54397713   -8.9482966     213.9062  0.009941727 0.0085394786           17 
 1794000   0.53634108   -8.9419874     214.2313 0.0099512869  0.008531979           15 
 1795000   0.53361316   -8.9371201    214.21522 0.0099449964 0.0085244879           20 
 1796000    0.5360708   -8.9560581    214.13954 0.0099359473 0.0085169894           14 
 1797000   0.52920183   -8.9434087    214.46632 0.0099455724 0.0085095064           21 
 1798000    0.5410996   -8.9576709    213.83639  0.009910845 0.0085020326           22 
 1799000   0.53884939     -8.97284    214.01759 0.0099137293  0.008494565           13 
 1800000   0.56538773   -8.9367943    214.05502 0.0099099549 0.0084871146           19 
 1801000   0.52584938   -8.9466499    214.09666 0.0099063791 0.0084796663           26 
 1802000   0.52975384   -8.9347568    214.25303 0.0099081126 0.0084722294           11 
 1803000   0.53223704   -8.9440397    213.97365 0.0098897047 0.0084647931            7 
 1804000   0.53364687   -8.9510283    213.95923 0.0098835566 0.0084573723           23 
 1805000   0.52853593   -8.9257384    214.20996 0.0098896566 0.0084499597           11 
 1806000   0.52063362   -8.9514714    214.04459   0.00987655 0.0084425522           10 
 1807000   0.53690025   -8.9542255    213.77031 0.0098584351 0.0084351537           10 
 1808000   0.52866022   -8.9550241     214.0925 0.0098678328 0.0084277618            8 
 1809000   0.53634688   -8.9418687     213.7709 0.0098475632 0.0084203838            9 
 1810000   0.53323545   -8.9683292    214.10783 0.0098576351 0.0084130132            8 
 1811000   0.53328622   -8.9352853    214.04333 0.0098492238 0.0084056466            9 
 1812000   0.52637392   -8.9596583    214.18987 0.0098505274 0.0083982896            9 
 1813000   0.54009101   -8.9451322     214.2283 0.0098468605 0.0083909482           12 
 1814000   0.51490238    -8.953205    214.23186 0.0098415957 0.0083836032           14 
 1815000   0.52916912    -8.947337    213.96081 0.0098237287 0.0083762686           17 
 1816000    0.5224713   -8.9564009     214.0429 0.0098220862 0.0083689406            9 
 1817000   0.53545083   -8.9756361    213.91142 0.0098106503 0.0083616169            7 
 1818000   0.51617228   -8.9504202    213.90497 0.0098049583 0.0083543031           13 
 1819000   0.53556858   -8.9780144    213.84579 0.0097968568 0.0083469989           10 
 1820000   0.52904413   -8.9703104    214.16581 0.0098061267 0.0083396958           10 
 1821000   0.51552575   -8.9710443    213.64913 0.0097770971 0.0083324065           12 
 1822000   0.53351879   -8.9659528    214.07237 0.0097910891 0.0083251271           22 
 1823000   0.52180961   -8.9487237    214.36563 0.0097991235   0.00831786            8 
 1824000   0.52064274   -8.9883672    213.70052 0.0097633644 0.0083105978           13 
 1825000   0.52756912   -8.9828348    214.06288 0.0097745605 0.0083033395           11 
 1826000   0.50703357   -8.9669665    213.66251 0.0097509361 0.0082960854           12 
 1827000   0.51747453   -8.9715512    214.08086 0.0097646808 0.0082888483           10 
 1828000   0.51280758   -8.9689617    214.07561 0.0097590998 0.0082816121            7 
 1829000   0.53037643   -8.9606705    214.10906 0.0097552881 0.0082743879            6 
 1830000   0.52679306   -8.9548494    213.74316 0.0097332949 0.0082671643           13 
 1831000   0.52608729   -8.9716665    213.59013 0.0097210147 0.0082599511           11 
 1832000    0.5367957   -8.9755025    213.55052 0.0097139066 0.0082527461            7 
 1833000   0.51355902   -8.9602543     214.0482  0.009731233 0.0082455471            7 
 1834000   0.51279049   -8.9687175    214.10551  0.009728531  0.008238364            7 
 1835000   0.52307592   -8.9672982    213.69991 0.0097048099 0.0082311856            7 
 1836000   0.52752954   -8.9674015    213.74771 0.0097016934 0.0082240128           18 
 1837000   0.51521674   -8.9679374    214.10476 0.0097126094  0.008216854           11 
 1838000   0.52121918   -8.9708638    213.61894 0.0096852982 0.0082096997           20 
 1839000   0.52236833   -8.9462433    214.23546 0.0097079688 0.0082025498            8 
 1840000   0.51655974   -8.9648063    213.73004 0.0096798026 0.0081954168           11 
 1841000   0.52829053   -8.9689641    213.84326 0.0096796694 0.0081882889           11 
 1842000   0.51801127   -8.9629094    213.93609 0.0096786145  0.008181171           11 
 1843000   0.52182273   -8.9834532    214.00415 0.0096764399 0.0081740541           21 
 1844000   0.51404108   -8.9673906    213.66999 0.0096560916 0.0081669476            9 
 1845000   0.51013045   -8.9609209    213.99909 0.0096657223 0.0081598508           16 
 1846000   0.52383282   -8.9805464    213.67189 0.0096457157 0.0081527673           18 
 1847000   0.50192934   -8.9827991    213.98136  0.009654456 0.0081456842           17 
 1848000   0.51712596   -8.9873817    213.86064 0.0096437879 0.0081386138           12 
 1849000   0.51537445   -8.9863132    213.76655 0.0096343317  0.008131542           12 
 1850000   0.51571045   -8.9794119    213.66488 0.0096245443 0.0081244877           11 
 1851000    0.5172638   -8.9812866    213.94213 0.0096318264  0.008117436           10 
 1852000   0.52107823   -8.9754352    213.76619 0.0096187093 0.0081103887            8 
 1853000   0.52650931   -8.9562327    213.91565 0.0096202396 0.0081033537           21 
 1854000   0.51562627   -8.9726875    213.83279 0.0096113265 0.0080963286            9 
 1855000    0.5182939   -8.9735039    213.81796  0.009605479 0.0080893038           12 
 1856000   0.50380352   -8.9716368    213.98695 0.0096078912  0.008082289           19 
 1857000   0.52103199    -8.994227    213.77526 0.0095932173  0.008075277            7 
 1858000   0.51121154   -8.9730621    213.75255 0.0095870356  0.008068279            8 
 1859000   0.50473191   -8.9892818    213.69662 0.0095793715 0.0080612912           24 
 1860000   0.50738503   -8.9888012    213.80297 0.0095789859 0.0080543096           11 
 1861000   0.50375587   -8.9783708    213.78086 0.0095728489 0.0080473394           20 
 1862000   0.50373172   -8.9752284     213.6573 0.0095621777 0.0080403693           19 
 1863000   0.50667321   -9.0009297    213.98742 0.0095718114  0.008033407           21 
 1864000   0.50260666   -8.9937211    213.96562 0.0095657021 0.0080264552           13 
 1865000   0.51560513   -8.9767852    213.60232 0.0095443397 0.0080195109            6 
 1866000   0.50212642   -8.9870203    213.43901 0.0095319316 0.0080125645           10 
 1867000   0.51265337    -9.006555    213.69475 0.0095382411 0.0080056332           11 
 1868000   0.50675641   -8.9698631    213.76123 0.0095361007 0.0079987038           17 
 1869000   0.51610875   -8.9879385    213.66708 0.0095268006 0.0079917867           22 
 1870000   0.51116282   -8.9864619    213.54612 0.0095163157 0.0079848788           10 
 1871000   0.51090031   -8.9857924    213.75154 0.0095203787 0.0079779771           24 
 1872000   0.49849086   -8.9968087    213.65877 0.0095111632 0.0079710844           18 
 1873000   0.50793214   -8.9709246    213.61804 0.0095042732 0.0079642016           13 
 1874000   0.50556879   -8.9831267    213.73071 0.0095042118 0.0079573285           12 
 1875000   0.49380186   -8.9941939    213.93951 0.0095084226 0.0079504544           28 
 1876000   0.49898893   -8.9944598    213.56771 0.0094868388 0.0079435864           16 
 1877000   0.51238261   -8.9997645    213.85848 0.0094946935 0.0079367234            8 
 1878000   0.50630417   -8.9877518     213.9116 0.0094919951 0.0079298736           19 
 1879000   0.49187406   -8.9876927    213.68322 0.0094768147 0.0079230268           19 
 1880000   0.50083482   -8.9975333    213.27119 0.0094535101 0.0079161866            8 
 1881000   0.50240273   -9.0027742    213.68747 0.0094669268  0.007909359           18 
 1882000   0.50263426   -8.9856377    213.37801 0.0094481937 0.0079025287           16 
 1883000   0.50408042   -9.0053605    213.71887 0.0094582613 0.0078957117           10 
 1884000   0.49831904   -8.9882721    213.42544 0.0094402617 0.0078889007           16 
 1885000   0.49942163   -8.9939935    213.76717 0.0094503612 0.0078820999           21 
 1886000   0.50096444    -8.985531    213.63175 0.0094393669 0.0078753118           11 
 1887000   0.51011177   -8.9948975    213.18334 0.0094145621 0.0078685296           11 
 1888000   0.49747986   -9.0030112    213.66096 0.0094306569 0.0078617525           14 
 1889000   0.50754122   -9.0076603    213.37487 0.0094130433 0.0078549854           15 
 1890000   0.50877684   -9.0054262    213.47656 0.0094125466 0.0078482237           21 
 1891000   0.49399497   -8.9957369    213.76957 0.0094204815 0.0078414663           12 
 1892000   0.50372071   -8.9900202    213.78305 0.0094160962 0.0078347206           11 
 1893000   0.51560788   -9.0188526    213.35549    0.0093923 0.0078279776            9 
 1894000   0.50337326   -8.9936765    213.58052  0.009397242 0.0078212433            7 
 1895000   0.50239498   -9.0176967    213.40743 0.0093846715 0.0078145149           10 
 1896000   0.50988158   -8.9983986    213.35981 0.0093776287 0.0078078014            7 
 1897000   0.48762585   -9.0028597    213.59793 0.0093831459 0.0078010881           15 
 1898000   0.49543988   -8.9931429    213.20395 0.0093609041 0.0077943829           13 
 1899000   0.50040464   -9.0018404    213.44849 0.0093667056 0.0077876804           14 
 1900000   0.49444821   -9.0122184    213.79145  0.009376818 0.0077809885            9 
 1901000   0.49781006    -9.003926    213.34153 0.0093521625 0.0077743021           13 
 1902000   0.49681285    -9.013015     213.4703 0.0093528875  0.007767625           12 
 1903000   0.49678931   -9.0128637    213.20842 0.0093365048 0.0077609655            8 
 1904000   0.49347508   -9.0166051    213.17023 0.0093299296 0.0077542983           18 
 1905000   0.49188282   -9.0067581    213.79328 0.0093522868 0.0077476386           19 
 1906000   0.48291419    -9.011993    213.67127 0.0093420455 0.0077409903           20 
 1907000   0.49253106   -9.0208174    213.48288 0.0093289145 0.0077343577           19 
 1908000   0.48495328   -9.0184708     213.1251 0.0093083989 0.0077277309           13 
 1909000   0.49035973     -9.01697    213.51112 0.0093203737 0.0077211071            9 
 1910000    0.4955082   -9.0130909    213.61503 0.0093200273 0.0077144923           20 
 1911000   0.49983069   -9.0154555    213.76619 0.0093217423 0.0077078886           25 
 1912000   0.49448181   -9.0270262    213.62762 0.0093108271 0.0077012875           11 
 1913000   0.49165762   -9.0157129    213.23697 0.0092889429  0.007694695           23 
 1914000   0.48662024   -9.0180266      213.344 0.0092887497 0.0076881014           21 
 1915000   0.49055101   -9.0117966    213.52476 0.0092917651  0.007681511           11 
 1916000   0.49640854    -9.021845    213.70981 0.0092949638 0.0076749414           12 
 1917000   0.48990312   -9.0084588    213.56687 0.0092839014   0.00766837           18 
 1918000   0.48486948   -9.0211924    213.32293 0.0092684622 0.0076618091           22 
 1919000   0.48327897   -9.0225532    213.42148 0.0092679123 0.0076552553           16 
 1920000   0.48339383   -9.0214536     213.5183 0.0092672872 0.0076487063           19 
 1921000   0.49109188   -9.0145781    213.13554 0.0092458589   0.00764216           11 
 1922000   0.47800434   -9.0190089    213.41866 0.0092533238 0.0076356276           13 
 1923000    0.4803356   -9.0152848     213.6384 0.0092580342 0.0076290982           17 
 1924000   0.48758515   -9.0197934    213.42025 0.0092437738 0.0076225844           13 
 1925000   0.48603884   -9.0144506    213.39434 0.0092378504 0.0076160723           10 
 1926000   0.48890652   -9.0185473    213.23703 0.0092262476 0.0076095639            9 
 1927000   0.48651548   -9.0033463    213.13906 0.0092172229 0.0076030611           23 
 1928000   0.48148877   -9.0388193    213.13102 0.0092120946 0.0075965659           12 
 1929000   0.48643123   -9.0307599    213.31701 0.0092153537 0.0075900859           10 
 1930000   0.48227278   -9.0159188    213.37779 0.0092132035 0.0075836089           12 
 1931000   0.48448212   -9.0202284    213.32695  0.009206238 0.0075771352           22 
 1932000   0.48632317   -9.0221446     213.5724 0.0092120601 0.0075706669           19 
 1933000   0.47807627    -9.021475    212.96814 0.0091812441 0.0075642047           12 
 1934000   0.47562602   -9.0196875    213.38991 0.0091946704 0.0075577493           12 
 1935000   0.47768138   -9.0300177    213.24172 0.0091835364 0.0075513034            8 
 1936000   0.48624429   -9.0341238    213.22316 0.0091779941  0.007544863           17 
 1937000   0.48647402   -9.0239125    213.18538 0.0091716306 0.0075384321            8 
 1938000   0.46939018   -9.0367815     212.9395 0.0091563252 0.0075320108           10 
 1939000   0.49337465   -9.0375498    213.34618 0.0091690812 0.0075255903            9 
 1940000   0.47360525   -9.0462971    213.27333 0.0091612257 0.0075191778           19 
 1941000   0.50306896   -9.0274747     213.3552 0.0091600208  0.007512772           13 
 1942000    0.4750966   -9.0357424    213.50599 0.0091617742 0.0075063774            9 
 1943000   0.47008296   -9.0469166    212.98613  0.009134763 0.0074999868           11 
 1944000   0.47698394   -9.0304663    212.96791 0.0091292827 0.0074936078           15 
 1945000   0.46920212   -9.0478279    213.08666 0.0091296771 0.0074872382           11 
 1946000   0.48174735    -9.049392    213.24266 0.0091316659 0.0074808739           21 
 1947000   0.47695605   -9.0269636    213.51933 0.0091388175 0.0074745166           12 
 1948000   0.48134344   -9.0349287    212.97421 0.0091108062 0.0074681665           25 
 1949000   0.47765314   -9.0407307    212.88968 0.0091025176 0.0074618168           11 
 1950000   0.46736885   -9.0242346    213.25329 0.0091133885 0.0074554724           16 
 1951000   0.47045425   -9.0482362    213.03928 0.0090995763 0.0074491401           10 
 1952000   0.47660221   -9.0453904    212.83617 0.0090862435 0.0074428157           17 
 1953000   0.46254422   -9.0519376    213.03443 0.0090900506 0.0074365034           13 
 1954000   0.47488059   -9.0481931     213.2245 0.0090935048 0.0074301883           19 
 1955000   0.46776077   -9.0226258    213.30278 0.0090921901 0.0074238862           11 
 1956000   0.46202127   -9.0404038    213.25808 0.0090856374 0.0074175905           26 
 1957000   0.47215102   -9.0419765    213.33851 0.0090844196 0.0074112985           13 
 1958000   0.47430026   -9.0429518    213.20965 0.0090742956 0.0074050193           16 
 1959000   0.47047301   -9.0470829    213.23513 0.0090707476  0.007398741           14 
 1960000   0.46757698   -9.0657776    212.91553 0.0090525312 0.0073924678           18 
 1961000   0.47340387   -9.0363184    212.93029 0.0090485422 0.0073862007            7 
 1962000   0.47016603    -9.052719    213.34247 0.0090614369 0.0073799448           12 
 1963000   0.47134366   -9.0455731    213.40864 0.0090596299  0.007373701            7 
 1964000   0.46583771   -9.0485997    213.01082 0.0090381374 0.0073674547           11 
 1965000   0.47223257    -9.045542    213.08379 0.0090366323 0.0073612193            6 
 1966000   0.47930533   -9.0443026    213.01043 0.0090289262 0.0073549929            6 
 1967000   0.47816479   -9.0411196    212.78524 0.0090147958  0.007348768            8 
 1968000   0.46934386   -9.0423854    213.34173  0.009033779 0.0073425507           18 
 1969000   0.46077492   -9.0356871    213.23608 0.0090247199  0.007336336            9 
 1970000   0.47193722   -9.0592036    212.82176 0.0090026127 0.0073301312           20 
 1971000   0.45919485    -9.066062    212.95596 0.0090037187 0.0073239358            8 
 1972000   0.46467638   -9.0509778    213.25533 0.0090118038 0.0073177457            6 
 1973000    0.4699207   -9.0520235    212.95522 0.0089945609  0.007311563           13 
 1974000   0.46317297   -9.0628299    212.91397  0.008988263 0.0073053926           13 
 1975000    0.4714806   -9.0396144    213.05372 0.0089896084 0.0072992234            9 
 1976000   0.46351989   -9.0422164    212.98391 0.0089821148  0.007293064           12 
 1977000   0.45472268   -9.0602628    212.87051 0.0089727917  0.007286906            7 
 1978000   0.46929423   -9.0583713    213.33174 0.0089876872 0.0072807554            7 
 1979000    0.4579512   -9.0507449    212.83359 0.0089621691 0.0072746132            7 
 1980000   0.45868087   -9.0652665    213.07487 0.0089677974 0.0072684794           12 
 1981000   0.45992844   -9.0614279    212.82688 0.0089528387 0.0072623565           17 
 1982000   0.45916438   -9.0540815    213.11471 0.0089604236 0.0072562356           10 
 1983000   0.47334578   -9.0624952    213.08009 0.0089544501 0.0072501222           12 
 1984000   0.46771508   -9.0449103    212.60945 0.0089301682 0.0072440119           11 
 1985000   0.45984921   -9.0467059    212.84531 0.0089355712 0.0072379125           19 
 1986000   0.46391847   -9.0569805    213.32256 0.0089510978 0.0072318145           13 
 1987000   0.45893324   -9.0609473    212.73987 0.0089221551 0.0072257214           14 
 1988000   0.43901411   -9.0689338    212.90286 0.0089244997 0.0072196361           14 
 1989000   0.46435486   -9.0541837    212.93507 0.0089213621 0.0072135584           16 
 1990000   0.45629048     -9.05196    213.00177  0.008919672 0.0072074901           12 
 1991000   0.46110016   -9.0690399    212.91818 0.0089116934 0.0072014235           10 
 1992000   0.45829621    -9.064519    212.71658 0.0088987859  0.007195369           11 
 1993000   0.45896953    -9.073894    213.30491 0.0089189208 0.0071893182           18 
 1994000   0.45383546    -9.074721     212.9587 0.0088999793 0.0071832804           10 
 1995000   0.46548545    -9.071947    212.87936 0.0088922037 0.0071772391           11 
 1996000   0.45914698   -9.0700368    212.58103 0.0088752934 0.0071712075            9 
 1997000   0.45516262   -9.0580409    212.96193 0.0088867438 0.0071651812           15 
 1998000   0.44976001   -9.0743428    213.09015 0.0088876439 0.0071591589            9 
 1999000   0.45937923    -9.057347    212.92692 0.0088763934 0.0071531425            7 
 2000000   0.46484272    -9.076585     212.8432 0.0088684668 0.0071471419           15 
 2001000    0.4536092   -9.0644361    212.90054 0.0088664225 0.0071411424           14 
 2002000    0.4471687   -9.0522594    212.89066 0.0088615827  0.007135154            9 
 2003000   0.44863473   -9.0722854    213.23927 0.0088716622 0.0071291747           13 
 2004000   0.45688254   -9.0657594    212.71894 0.0088455979 0.0071232003            9 
 2005000   0.46017189   -9.0756829    212.68851 0.0088399216 0.0071172312           12 
 2006000   0.44703689   -9.0755193    212.87868 0.0088434148 0.0071112666           12 
 2007000   0.45509878   -9.0623734    212.70933 0.0088319767 0.0071053104           11 
 2008000   0.45671522   -9.0830868    212.77753 0.0088304087 0.0070993606            8 
 2009000   0.45033674    -9.079426    212.68343 0.0088221102 0.0070934208           14 
 2010000   0.45648468   -9.0729391    212.61052 0.0088146982 0.0070874837            9 
 2011000   0.44944361   -9.0797666    212.85092 0.0088202769 0.0070815529           15 
 2012000   0.44835531    -9.074079    212.67998 0.0088088129 0.0070756331           12 
Loop time of 5036.33 on 48 procs for 2000000 steps with 4000 atoms

Performance: 68621.366 tau/day, 397.114 timesteps/s
99.4% CPU use with 48 MPI tasks x no OpenMP threads

MPI task timing breakdown:
Section |  min time  |  avg time  |  max time  |%varavg| %total
---------------------------------------------------------------
Pair    | 344.63     | 370.99     | 402.27     |  72.8 |  7.37
Neigh   | 33.252     | 34.559     | 35.902     |  10.7 |  0.69
Comm    | 311.75     | 344.51     | 372.1      |  79.4 |  6.84
Output  | 4.166      | 4.1684     | 4.2326     |   0.5 |  0.08
Modify  | 4225.6     | 4237.2     | 4250.6     |   9.9 | 84.13
Other   |            | 44.93      |            |       |  0.89

Nlocal:        83.3333 ave          92 max          78 min
Histogram: 6 2 12 8 4 9 4 1 1 1
Nghost:        2229.17 ave        2241 max        2214 min
Histogram: 3 1 6 1 8 5 6 10 5 3
Neighs:        14944.4 ave       16630 max       13386 min
Histogram: 2 3 3 12 5 10 9 1 1 2
FullNghs:      29888.0 ave       33246 max       27904 min
Histogram: 6 3 11 11 6 4 4 1 1 1

Total # of neighbors = 1434624
Ave neighs/atom = 358.65600
Neighbor list builds = 106659
Dangerous builds = 0

#clear
#
#next RN
#
#jump SELF
Total wall time: 1:23:59
