
units lj                  # Use reduced LJ style units
atom_style atomic         # Uncharged point particles
atom_modify map hash      # Needed for indexing of clusters etc
                          # Used to be able to find where atoms are in relation to each other.

lattice fcc 1.0 spacing 1 1 1
Lattice spacing in x,y,z = 1.5874011 1.5874011 1.5874011
region box block 0 10 0 10 0 10 units lattice
create_box 2 box
Created orthogonal box = (0.0000000 0.0000000 0.0000000) to (15.874011 15.874011 15.874011)
  3 by 4 by 4 MPI processor grid
create_atoms 1 box
Created 4000 atoms
  using lattice units in orthogonal box = (0.0000000 0.0000000 0.0000000) to (15.874011 15.874011 15.874011)
  create_atoms CPU = 0.003 seconds
set type 1 type/fraction 2 0.57 78393
Setting atom values ...
  2292 settings made for type/fraction
mass 1 1.0
mass 2 1.0
pair_style lj/cut  3.5
pair_modify tail  yes
pair_coeff 1  1  1.0  1.0   # Intearaction between 1 and 1 set with epsilon = 1 and sigma = 1
pair_coeff 1  2  1.5  0.8
pair_coeff 2  2  0.5  0.88

write_data data.0
System init for write_data ...
Neighbor list info ...
  update every 1 steps, delay 10 steps, check yes
  max neighbors/atom: 2000, page size: 100000
  master list distance cutoff = 3.8
  ghost atom cutoff = 3.8
  binsize = 1.9, bins = 9 9 9
  1 neighbor lists, perpetual/occasional/extra = 1 0 0
  (1) pair lj/cut, perpetual
      attributes: half, newton on
      pair build: half/bin/atomonly/newton
      stencil: half/bin/3d
      bin: standard
WARNING: Not all mixed pair coeffs generated from mixing. Use write_data with 'pair ij' option to store all pair coeffs. (../write_data.cpp:312)


#############################
#   M E L T   S Y S T E M   #
#############################

velocity all create 2.4 5300450 mom yes dist gaussian # Assign velocities
                                                    # Temperature 2.4, random number seed, zero linear momentum
                                                                                # Gaussian distribution

timestep 0.002   # simulation timestep
thermo 1000       # output thermodynamic data every 1000 steps bf 100

# Define a fix  in this case with index 1 applied to all
# particles in the simulation. This fix is for simulations
# in the anisotropic NPT ensemble. Note that we use the MTK
# correction.
fix 1 all npt temp 2.4 2.4 0.1 iso 5.68 5.68 0.5 mtk yes tchain 5 pchain 5 # Use NPT ensemble
                                                                         # Set temperature and pressure and damping
                                                                         # Numbers of thermostats in chain and in barostat
run 10000          # run for 10000 steps
Per MPI rank memory allocation (min/avg/max) = 3.642 | 3.644 | 3.648 Mbytes
Step Temp E_pair E_mol TotEng Press Volume 
       0          2.4   -4.8904957            0   -1.2913957   -4.1230707         4000 
    1000     2.381043   -4.6313728            0   -1.0607012    5.7835331    3608.2106 
    2000    2.3607093   -4.6144265            0   -1.0742479    5.5450345    3632.6247 
    3000    2.3736463   -4.6558429            0   -1.0962636    5.8369959       3598.3 
    4000    2.4198545   -4.6236969            0  -0.99482249    5.6302436    3637.9571 
    5000    2.3426032   -4.6029038            0   -1.0898776    5.5667353    3637.9638 
    6000    2.3839825   -4.6624962            0   -1.0874165    5.5717465    3614.5361 
    7000    2.4136175    -4.728894            0   -1.1093729     5.527022    3590.9894 
    8000    2.3788013   -4.6394898            0   -1.0721799    5.5142003    3621.4146 
    9000    2.4245448   -4.6483973            0   -1.0124892     5.976513    3601.9058 
   10000    2.3680997   -4.7080814            0   -1.1568198    5.6878247    3583.6553 
Loop time of 2.71576 on 48 procs for 10000 steps with 4000 atoms

Performance: 636286.560 tau/day, 3682.214 timesteps/s
99.6% CPU use with 48 MPI tasks x no OpenMP threads

MPI task timing breakdown:
Section |  min time  |  avg time  |  max time  |%varavg| %total
---------------------------------------------------------------
Pair    | 1.2222     | 1.2774     | 1.4316     |   3.1 | 47.04
Neigh   | 0.21887    | 0.22517    | 0.2521     |   1.1 |  8.29
Comm    | 0.81677    | 0.92043    | 0.99868    |   4.9 | 33.89
Output  | 0.00024551 | 0.00025195 | 0.00034153 |   0.0 |  0.01
Modify  | 0.19454    | 0.27654    | 0.35273    |  10.2 | 10.18
Other   |            | 0.01596    |            |       |  0.59

Nlocal:        83.3333 ave          93 max          76 min
Histogram: 3 3 10 3 11 10 2 4 0 2
Nghost:        1767.92 ave        1797 max        1744 min
Histogram: 4 6 3 6 10 4 8 4 2 1
Neighs:        10657.0 ave       12275 max        9611 min
Histogram: 6 5 5 11 7 7 2 3 1 1

Total # of neighbors = 511535
Ave neighs/atom = 127.88375
Neighbor list builds = 904
Dangerous builds = 177

# Equilibrate just above the melting temperature to avoid step fn in T

fix 1 all npt temp 1.25 1.25 0.1 iso 5.68 5.68 0.5 mtk yes tchain 5 pchain 5
run 2000
Per MPI rank memory allocation (min/avg/max) = 3.644 | 3.646 | 3.650 Mbytes
Step Temp E_pair E_mol TotEng Press Volume 
   10000    2.3680997   -4.7080814            0   -1.1568198    5.6878247    3583.6553 
   11000    1.2753379   -6.7357051            0   -4.8231765    5.6172205    2790.2145 
   12000    1.2247112   -6.8495083            0   -5.0129008    5.7826355    2751.8272 
Loop time of 0.657981 on 48 procs for 2000 steps with 4000 atoms

Performance: 525243.351 tau/day, 3039.603 timesteps/s
99.6% CPU use with 48 MPI tasks x no OpenMP threads

MPI task timing breakdown:
Section |  min time  |  avg time  |  max time  |%varavg| %total
---------------------------------------------------------------
Pair    | 0.30594    | 0.3267     | 0.34951    |   2.1 | 49.65
Neigh   | 0.040766   | 0.043916   | 0.047297   |   0.7 |  6.67
Comm    | 0.20979    | 0.23747    | 0.26197    |   2.9 | 36.09
Output  | 4.9801e-05 | 5.1007e-05 | 6.905e-05  |   0.0 |  0.01
Modify  | 0.04109    | 0.044837   | 0.048071   |   1.0 |  6.81
Other   |            | 0.00501    |            |       |  0.76

Nlocal:        83.3333 ave          91 max          75 min
Histogram: 4 1 2 5 8 7 10 5 5 1
Nghost:        2108.46 ave        2126 max        2086 min
Histogram: 3 1 2 6 7 5 8 7 5 4
Neighs:        13879.3 ave       15595 max       12164 min
Histogram: 2 3 2 11 2 10 11 5 0 2

Total # of neighbors = 666208
Ave neighs/atom = 166.55200
Neighbor list builds = 142
Dangerous builds = 10

#############################
# L I N E A R  Q U E N C H  #
#############################

# Define solid atoms. This closely follows ten Wolde  Ruiz-Montero and Frenkel  Faraday Discuss  1996  104  93-110
# Compute components of the per-atom q6 vector
compute q6 all orientorder/atom degrees 1 6 components 6 nnn NULL cutoff 1.3 # compute the Q6 parameter.
                                                                             # Use all neighbours within 1.3 unit cell.

# get number of connections
compute coord_number all coord/atom orientorder q6 0.5

# An atom is solid if it has 8 or more connections (of a possible 14)
variable is_solid atom c_coord_number>=8
group solid dynamic all var is_solid    # Must be dynamic to update
dynamic group solid defined

# do clustering
compute cluster solid cluster/atom 1.3 # Create a cluster where all atoms within are solid and max 1.3 units from another member

# define chunks one chunk per cluster
compute clus_chunks solid chunk/atom c_cluster nchunk every compress yes  # Says which atoms are in which chunk

# count the size of each chunk
compute size_chunks solid property/chunk clus_chunks count


# Find the maximum entry in the vector of chunk sizes
variable max_n equal max(c_size_chunks)


# Thermo style which includes this variable
# thermo_style custom step temp pe vol v_max_n

thermo ${N}  # Print the thermo information every 100 steps
thermo 1000  

# Reset the npt fix at a lower temperature (below freezing)
fix 1  all npt temp  ${temp} ${temp}  0.1  iso  5.68  5.68  0.5  mtk yes tchain  5  pchain  5
fix 1  all npt temp  0.45 ${temp}  0.1  iso  5.68  5.68  0.5  mtk yes tchain  5  pchain  5
fix 1  all npt temp  0.45 0.45  0.1  iso  5.68  5.68  0.5  mtk yes tchain  5  pchain  5

dump dmp2 all dcd ${N} traj.dcd
dump dmp2 all dcd 1000 traj.dcd


compute msd all msd com yes
variable twopoint equal c_msd[4]/6/(step*dt+1.0e-6)
fix 9 all vector 10 c_msd[4]
variable fit equal slope(f_9)/6/(10*dt)
thermo_style custom step temp pe c_msd[4] v_twopoint v_fit v_max_n

fix 1 all npt temp 1.25 ${temp} 0.1 iso 5.68 5.68 0.5 mtk yes tchain 5 pchain 5
fix 1 all npt temp 1.25 0.45 0.1 iso 5.68 5.68 0.5 mtk yes tchain 5 pchain 5
run 2000000 # 5000000  # Run for this many steps
Neighbor list info ...
  update every 1 steps, delay 10 steps, check yes
  max neighbors/atom: 2000, page size: 100000
  master list distance cutoff = 3.8
  ghost atom cutoff = 3.8
  binsize = 1.9, bins = 8 8 8
  4 neighbor lists, perpetual/occasional/extra = 1 3 0
  (1) pair lj/cut, perpetual
      attributes: half, newton on
      pair build: half/bin/atomonly/newton
      stencil: half/bin/3d
      bin: standard
  (2) compute orientorder/atom, occasional
      attributes: full, newton on
      pair build: full/bin/atomonly
      stencil: full/bin/3d
      bin: standard
  (3) compute coord/atom, occasional
      attributes: full, newton on
      pair build: full/bin/atomonly
      stencil: full/bin/3d
      bin: standard
  (4) compute cluster/atom, occasional
      attributes: full, newton on
      pair build: full/bin/atomonly
      stencil: full/bin/3d
      bin: standard
Per MPI rank memory allocation (min/avg/max) = 9.846 | 9.851 | 9.856 Mbytes
Step Temp PotEng c_msd[4] v_twopoint v_fit v_max_n 
   12000    1.2247112   -6.8495083 8.4980041e-31 5.9013915e-33 8.3333333e+20            1 
   13000    1.2567038   -6.8109524   0.44898182 0.0028780885  0.036667687            5 
   14000    1.2397266   -6.8710185   0.85784604 0.0051062262  0.034541081            2 
   15000    1.2528276   -6.7972766     1.272955 0.0070719717  0.034714414            2 
   16000    1.2319361   -6.8285145    1.7065151 0.0088880991  0.034959097            4 
   17000    1.2264458   -6.8168043    2.1352623  0.010466972  0.034945426            1 
   18000    1.2377357   -6.8423522    2.5293747  0.011710068  0.034799432            2 
   19000    1.2403322   -6.8622551    2.9770401  0.013057193   0.03481456            2 
   20000    1.2464599   -6.8654601    3.3929111  0.014137129  0.034950603            3 
   21000    1.2912249   -6.8563418    3.7836807  0.015014606  0.034905941            2 
   22000    1.2163415   -6.8296304    4.2528717  0.016109362  0.034949496            2 
   23000    1.2549897   -6.8532745    4.6252542  0.016758167  0.034905753            3 
   24000    1.2001339   -6.8215616    5.0496667  0.017533564  0.034939638            4 
   25000    1.2424832   -6.8422751    5.4478676  0.018159558  0.034865159            2 
   26000    1.2360257   -6.7729578    5.9154939  0.018959916  0.034869193            3 
   27000    1.2318126   -6.8200727    6.3041286  0.019457187  0.034864831            2 
   28000    1.2389995   -6.8235949    6.6939766  0.019922549  0.034837549            2 
   29000    1.2677683   -6.8455476    7.1520005  0.020551725  0.034880444            2 
   30000    1.2330229    -6.860704    7.5705844  0.021029401  0.034903188            2 
   31000    1.2382189   -6.8632657    8.0269622  0.021577855  0.034962555            1 
   32000    1.2709316   -6.8684173    8.3430343  0.021726651  0.034953066            3 
   33000    1.2248612   -6.8595922    8.7622659  0.022126934   0.03487261            2 
   34000    1.2277366   -6.8333997    9.1730338  0.022482926  0.034844803            2 
   35000    1.2339993   -6.8748838    9.6243596  0.022915142  0.034826648            2 
   36000    1.2188442   -6.8470553    10.127673  0.023443688  0.034873503            2 
   37000    1.2607477    -6.871432    10.590555    0.0238526   0.03492497            2 
   38000    1.2240712   -6.8610458    11.109162  0.024362198  0.035026184            2 
   39000    1.2447893   -6.8895255    11.528731   0.02463404  0.035148568            2 
   40000    1.2236814   -6.8294413    11.923409  0.024840435  0.035242056            2 
   41000     1.249158   -6.8120603    12.248102  0.024894516  0.035259685            2 
   42000    1.2312814    -6.868385    12.516791  0.024834903  0.035224568            2 
   43000    1.2277367   -6.8648666    12.986017  0.025166699  0.035136185            3 
   44000     1.224899   -6.8478259    13.516885   0.02560016  0.035125114            2 
   45000    1.2621078   -6.8561589    13.885904  0.025714638  0.035137373            2 
   46000    1.2300934   -6.9217594    14.295052  0.025896832  0.035131316            2 
   47000    1.2461498   -6.8585524    14.746222  0.026145784  0.035135116            2 
   48000    1.2362451   -6.8940972    15.146043  0.026295213  0.035136657            1 
   49000    1.2398375   -6.8428512    15.617483  0.026560345  0.035132737            6 
   50000    1.2328581   -6.8601752    16.019596  0.026699327  0.035122326            4 
   51000    1.2253068   -6.8407293    16.483904  0.026934483  0.035127031            2 
   52000     1.265105   -6.8784108    16.889934  0.027067201  0.035147243            2 
   53000    1.2323524   -6.8790201     17.44834  0.027434496  0.035161008            2 
   54000    1.2637096   -6.8761621    17.861861  0.027564599  0.035201905            2 
   55000     1.214642   -6.8899147    18.363812  0.027823958  0.035262669            3 
   56000    1.2240332   -6.8518817     18.86996  0.028080298   0.03531047            2 
   57000     1.236587    -6.869347    19.292497  0.028205405  0.035363529            3 
   58000    1.2325263   -6.8504247    19.638663   0.02821647  0.035398916            3 
   59000    1.2360788   -6.8859038    20.130818  0.028433358  0.035429683            2 
   60000     1.220731   -6.9040529    20.524417  0.028506135  0.035458736            4 
   61000    1.2293193   -6.8381835    21.002853  0.028692422  0.035505639            2 
   62000    1.2395325   -6.8823443    21.356711  0.028705256  0.035537791            2 
   63000    1.2441846   -6.9013426    21.715317  0.028723964  0.035544788            3 
   64000    1.2341423    -6.912099    22.004817  0.028652106  0.035539308            3 
   65000    1.1985001   -6.8915632    22.485969  0.028828165  0.035535021            4 
   66000    1.2241143   -6.8988082    22.803904  0.028792807  0.035519302            2 
   67000    1.2208845   -6.9223328    23.171564  0.028820353  0.035493284            1 
   68000    1.2198518    -6.878144    23.576482  0.028892748  0.035462516            2 
   69000      1.22051   -6.8345639    24.036182  0.029029205  0.035428224            2 
   70000    1.2328565   -6.8643226    24.458809   0.02911763   0.03539947            2 
   71000     1.254793   -6.8826849    25.013183  0.029358196  0.035374368            3 
   72000    1.2100471   -6.8996034    25.426006  0.029428248   0.03537148            5 
   73000    1.2167395   -6.8713042    25.772325  0.029420462  0.035357145            2 
   74000    1.2128588   -6.8812399    26.286653  0.029602087  0.035347482            2 
   75000    1.2305073   -6.9006037    26.658443  0.029620492   0.03534225            6 
   76000    1.2274564   -6.8409501    26.822205  0.029410312  0.035315468            1 
   77000    1.2414393   -6.8484908    27.405553  0.029659689  0.035280919            6 
   78000    1.2150386   -6.9255776    27.570293  0.029455441  0.035246293            3 
   79000    1.2119984   -6.8871266    27.953587  0.029486906  0.035212336            4 
   80000    1.2389572   -6.9560656    28.573314  0.029763868  0.035190937            3 
   81000    1.2079466   -6.9081377    29.023003  0.029859057  0.035177905            1 
   82000    1.2119421   -6.9089033    29.382114  0.029859871  0.035155223            2 
   83000    1.2272875   -6.8621526    29.863634  0.029983568  0.035132519            3 
   84000     1.244237   -6.9047236    30.113102  0.029874109  0.035109901            2 
   85000      1.23697   -6.9211617    30.531766  0.029933103   0.03508563            2 
   86000    1.1960518   -6.9192955    30.731658  0.029778738  0.035053113            3 
   87000    1.2108287   -6.8865369    31.084851  0.029774762  0.035012453            1 
   88000    1.2352503   -6.9298245    31.545262  0.029872407  0.034975721            4 
   89000    1.2124218   -6.9423404    31.837524  0.029810415  0.034939864            1 
   90000     1.230506   -6.9118265    32.365351  0.029967917  0.034905897            2 
   91000    1.1901116    -6.914543    32.769077  0.030008312  0.034878957            5 
   92000    1.1946698   -6.9070013    33.115244  0.029995692  0.034850287            3 
   93000    1.2134453    -6.887369    33.649996  0.030152326  0.034818825            1 
   94000    1.2184507   -6.9249989    33.968208  0.030113659  0.034783546            5 
   95000    1.2201756   -6.8926012    34.217091  0.030014992  0.034745829            2 
   96000    1.2166448   -6.9140646    34.597645  0.030032678  0.034710641            2 
   97000    1.1884931   -6.9144853    34.983166  0.030054266  0.034672392            2 
   98000    1.2222255   -6.8996414    35.438476  0.030134758  0.034635842            3 
   99000    1.2016231   -6.9099263    35.844918   0.03017249   0.03459711            3 
  100000    1.2300961   -6.9119839    36.044015  0.030036679  0.034564086            2 
  101000    1.2402188   -6.9598751    36.396766  0.030030335  0.034528693            3 
  102000    1.2373783   -6.8860883    37.043215  0.030264065  0.034493436            2 
  103000    1.2007563   -6.9220791    37.488069  0.030330153  0.034465929            2 
  104000    1.2457622    -6.917248    37.662644  0.030178401  0.034437401            3 
  105000    1.2057529   -6.9468026    37.998164  0.030157273  0.034404343            2 
  106000    1.2061615   -6.9172764    38.547811  0.030304882  0.034370939            5 
  107000    1.2229971   -6.8995405    38.829734  0.030241226  0.034333033            2 
  108000     1.225972   -6.9061993    39.039586  0.030123137  0.034292737            2 
  109000    1.2086859   -6.8923481    39.325928  0.030065694   0.03424773            2 
  110000     1.221555   -6.9072336    39.906544   0.03023223  0.034206996            3 
  111000    1.2147124   -6.9350908    40.147106   0.03014047   0.03416718            1 
  112000    1.1900346   -6.8826248    40.582369  0.030195215  0.034125822            1 
  113000    1.2120803   -6.9334516    40.832652  0.030112575   0.03408175            1 
  114000    1.2211798   -6.9421364     41.07779  0.030027624  0.034035665            2 
  115000     1.221679   -6.9241076    41.380501   0.02998587  0.033986734            2 
  116000    1.2104563    -6.962992    41.695568  0.029953712  0.033936486            1 
  117000    1.2171572   -6.9167819    42.152372  0.030023057  0.033888741            7 
  118000    1.1891739   -6.9379582     42.59065  0.030078142  0.033841619            2 
  119000    1.2187754   -6.9011531    42.937588  0.030068339  0.033796742            3 
  120000    1.2083153    -6.957234    43.296517  0.030067026  0.033756785            2 
  121000    1.2112607    -6.978454    43.634029  0.030050984  0.033716766            3 
  122000    1.2212341   -6.9659237    44.013555  0.030063903  0.033676514            3 
  123000    1.1929138   -6.9508026    44.557349  0.030187906  0.033635682            3 
  124000    1.2167092   -6.9853127    44.630008  0.029993285  0.033593546            2 
  125000    1.2136229   -6.9690988    44.985239  0.029990159  0.033547516            2 
  126000    1.1980334   -6.9641887    45.283912  0.029949677  0.033501753            1 
  127000    1.2059022   -6.9414966    45.849712  0.030085113  0.033456486            2 
  128000    1.1806156   -6.9045479    45.928666  0.029901475  0.033414501            3 
  129000    1.1997368   -6.9277896    46.379213  0.029960732  0.033370577            3 
  130000    1.2176477   -7.0085869    46.582816  0.029860779   0.03332671            2 
  131000    1.2055138   -6.9595635    47.164455  0.030002834  0.033283262            3 
  132000    1.2015674    -6.940044    47.500055  0.029987408  0.033242376            3 
  133000    1.2049831   -6.9273775    48.120768  0.030150857  0.033207117            3 
  134000    1.2298486   -6.9680953    48.275127  0.030021845  0.033174531            4 
  135000    1.2162085   -6.9460019     48.78875  0.030116512  0.033143066            1 
  136000    1.2142836   -7.0061309    48.702678  0.029842327   0.03310657            8 
  137000    1.1839757   -7.0060455    49.344449  0.030014871  0.033068077            5 
  138000    1.2182413   -6.9707739    49.718442  0.030023213   0.03302851            2 
  139000    1.2180778   -6.9860937    49.912448   0.02992353  0.032989994            2 
  140000    1.2079985   -7.0019341    49.970194  0.029744163  0.032949021            2 
  141000    1.2028479   -6.9485873    50.397688  0.029785868  0.032905355            6 
  142000    1.1977052   -6.9790637    50.601954  0.029695982  0.032862458            1 
  143000    1.1720454   -6.9263484    51.333334   0.02991453  0.032820564            4 
  144000    1.2140652   -6.9894369    51.496317   0.02980111  0.032781159            2 
  145000    1.1851926   -7.0291126    51.673066  0.029697164  0.032743002            3 
  146000    1.1918475    -6.962873    52.219812  0.029805828  0.032703946            3 
  147000    1.1920067   -6.9628031     52.68752  0.029868208  0.032662915            1 
  148000    1.1886849   -6.9659757    53.049387  0.029870151   0.03262567            2 
  149000    1.1749104   -6.9786832    53.394691  0.029862802  0.032591568            3 
  150000     1.182406   -6.9916618    53.666406   0.02981467  0.032558448            4 
  151000    1.2131834    -6.985227    54.161123  0.029890244  0.032523669            2 
  152000    1.1900405    -6.956097    54.564595    0.0299148  0.032490774            2 
  153000    1.1757147   -6.9925498    54.752832  0.029821804  0.032459795            2 
  154000    1.2152736   -6.9816815    55.189262  0.029864319  0.032429597            3 
  155000    1.2001477   -7.0012042    55.462069  0.029818317  0.032399946            1 
  156000    1.2084031   -6.9714918    55.845156  0.029831814  0.032368974            4 
  157000    1.2091083   -6.9215339    56.350397  0.029909977  0.032338182            1 
  158000    1.2105724   -6.9912738    56.431411  0.029763403  0.032305749            1 
  159000    1.1883847   -6.9887431    56.864128  0.029803002  0.032274132            2 
  160000    1.1787359   -7.0144854    57.345283  0.029867335  0.032244562            4 
  161000     1.182288    -6.980175    57.660743  0.029845105  0.032214145            3 
  162000    1.1930213   -6.9614285    57.907547  0.029787833  0.032185716            2 
  163000    1.1761975   -7.0012604     58.27085  0.029790823  0.032156016            1 
  164000    1.2020522   -6.9678706    58.702995  0.029828757  0.032125589            2 
  165000    1.1670696   -6.9756528    58.924302  0.029759748  0.032092352            3 
  166000    1.1837289   -6.9548096    59.125747    0.0296816  0.032060503            1 
  167000    1.1945868   -6.9915387    59.863534  0.029872023  0.032031579            2 
  168000     1.171664   -7.0034173     60.14918  0.029835903  0.032007654            3 
  169000    1.1930775   -6.9945988    60.449514  0.029807453  0.031983168            1 
  170000    1.1868378   -7.0148365    60.733426  0.029771287  0.031958127            2 
  171000    1.2158792   -7.0290777    60.943584  0.029699602  0.031935611            5 
  172000    1.1767571   -7.0376508     61.47149  0.029782698  0.031910486            3 
  173000    1.1991577   -7.0166893    61.902759  0.029818285  0.031888693            2 
  174000    1.1599032   -7.0180142    62.306334  0.029840198  0.031867212            3 
  175000     1.176137   -7.0046033    62.461378  0.029743513  0.031843187            1 
  176000    1.1898231   -6.9922078    62.918306  0.029790865  0.031819575            3 
  177000    1.1712247   -7.0157548    63.360075  0.029830543  0.031795531            3 
  178000    1.1692374   -7.0429846    63.392941  0.029678343  0.031771407            8 
  179000    1.1918389   -6.9897579    64.071965  0.029828661  0.031745861            5 
  180000    1.1694122   -6.9867336     64.38261  0.029806764  0.031722236            3 
  181000    1.1694185   -7.0019084     64.44218  0.029669512  0.031697473            2 
  182000    1.1932098   -6.9990111     64.92392   0.02972707  0.031674657            5 
  183000     1.170478   -7.0105171    65.685127   0.02991126  0.031656186            2 
  184000    1.1931302   -6.9954298    65.916918  0.029853677  0.031636808            3 
  185000    1.1852513   -7.0184714    66.321605  0.029874597  0.031618065            1 
  186000    1.1882911   -7.0057271    66.795611  0.029926349  0.031603804            3 
  187000    1.2043439   -7.0336546    67.043177  0.029876639  0.031589356            2 
  188000    1.1761718   -7.0114777    67.285637  0.029825194  0.031574214            6 
  189000    1.1849326   -7.0255693    67.550037  0.029783967  0.031556583            2 
  190000    1.1947066   -7.0648426    67.610137  0.029653569  0.031537301            1 
  191000    1.1834166   -6.9987389    68.267234  0.029785006  0.031516764            1 
  192000    1.1596557   -6.9978054     68.79738  0.029859974  0.031497138            2 
  193000    1.1988062   -7.0462026    68.950755  0.029771483  0.031478472            2 
  194000     1.169337    -7.023001    69.241947  0.029743104  0.031460838            3 
  195000    1.1842725   -7.0018707    69.614488  0.029749781  0.031441884            2 
  196000    1.1614185    -6.975755     69.90206  0.029720263  0.031421323            1 
  197000    1.1933013   -7.0083464    70.082589  0.029645765  0.031400358            4 
  198000    1.1614847   -7.0211868    70.292236  0.029584274  0.031377586            2 
  199000    1.1945489   -7.0454956    70.511467  0.029527415  0.031353353            2 
  200000    1.1784412    -7.016816    70.898088   0.02954087  0.031329066            2 
  201000    1.1854799   -6.9999669     71.62746  0.029696293   0.03130777            2 
  202000    1.1822668   -6.9811225    71.973864  0.029692188  0.031286879            3 
  203000    1.1580927   -7.0414191    72.015071  0.029562837  0.031267655            4 
  204000    1.1675805   -7.0316434    72.457357  0.029598593  0.031248007            1 
  205000    1.1635948    -7.010419    73.053214  0.029696428  0.031228138            1 
  206000    1.1812229   -7.0248275      73.1416  0.029588026  0.031208957            2 
  207000    1.1651594   -7.0345009    73.436442  0.029563785  0.031189231            5 
  208000    1.1777509   -7.0051208    73.468273  0.029434404   0.03116553            2 
  209000    1.1607662   -7.0193133    73.884139  0.029459386  0.031142628            5 
  210000     1.157367   -7.0267118     74.00006  0.029365103  0.031118854            3 
  211000    1.1599682   -7.0072822    74.126379  0.029275821  0.031093446            1 
  212000    1.1818232   -7.0365643    74.481556  0.029277341  0.031066817            4 
  213000    1.1732229   -6.9956741    74.752749  0.029245989  0.031040409            2 
  214000     1.164836   -7.0629575     74.90133  0.029167185  0.031011878            4 
  215000    1.1558339   -7.0061119     75.12597  0.029118593  0.030982781            5 
  216000    1.1848262   -7.0701553    75.584286  0.029160604  0.030954959            2 
  217000     1.157351   -7.0424473    75.666377  0.029057748  0.030924578            2 
  218000    1.1553665   -7.0774498    76.173402  0.029118273  0.030893189            5 
  219000    1.1584715   -7.0776309    76.531574  0.029121604  0.030864401            3 
  220000    1.1863538   -7.0334378    76.908593  0.029132043  0.030837961            2 
  221000    1.1446164    -7.018731    77.342956   0.02916401  0.030813458            7 
  222000    1.1750519   -7.0646919    77.770841  0.029193259   0.03078931            1 
  223000    1.1756394   -7.0645124    78.293428  0.029257634  0.030765685            3 
  224000    1.1238755   -7.0607211     78.41194  0.029171109  0.030740923            3 
  225000    1.1780417   -7.0085078    78.693635  0.029145791  0.030717276            3 
  226000    1.1627192   -7.0317647    79.066389  0.029154273   0.03069311            6 
  227000    1.1674774   -7.0632442    79.357518  0.029132716  0.030668349            6 
  228000    1.1690406   -7.0343337    79.627118  0.029103479   0.03064366            2 
  229000    1.1567434   -7.0498946    79.816707  0.029045381  0.030619114            2 
  230000    1.1749034   -7.0348566    80.470331  0.029155917  0.030594899            5 
  231000    1.1469499   -7.0420915    80.535633  0.029053258  0.030571001            4 
  232000    1.1369485   -7.0459893    80.923445  0.029067329  0.030548568            2 
  233000    1.1467463   -7.0474767    81.195146  0.029039752  0.030524143            2 
  234000    1.1537596    -7.084827      81.4936  0.029021937  0.030498109            3 
  235000    1.1540498   -7.0813907    81.433902   0.02887727  0.030472984            3 
  236000    1.1521698   -7.0656343    82.139188   0.02900395  0.030446994            2 
  237000    1.1430417   -7.0860012    82.321769   0.02894577  0.030421625            2 
  238000    1.1832522   -7.1173952    82.205203  0.028783334  0.030394755            4 
  239000    1.1564745   -7.0619645    82.737319  0.028848438  0.030368128            5 
  240000    1.1514343   -7.0423788    83.210126  0.028892405  0.030341637            2 
  241000    1.1752235    -7.056482    83.709913  0.028945336  0.030315073            2 
  242000    1.1546821   -7.1072914     83.81733  0.028862717  0.030290736            3 
  243000    1.1561751   -7.0778369    84.129261  0.028850913  0.030266003            7 
  244000    1.1617709   -7.0974274    84.264226  0.028778766  0.030241318            3 
  245000     1.144409   -7.1289612    84.576611  0.028767555  0.030217148            2 
  246000    1.1624336   -7.0585622    84.878919  0.028753021  0.030191878            4 
  247000    1.1435263   -7.0577829    85.445923  0.028827909  0.030166708            2 
  248000    1.1441523   -7.1100693    85.670036  0.028786974  0.030142994            2 
  249000    1.1431243    -7.057085     85.95866  0.028767959  0.030119106            2 
  250000    1.1659106   -7.0959632     86.06804  0.028689346  0.030095182            3 
  251000    1.1586923    -7.082476    86.824414  0.028826167  0.030071185            3 
  252000    1.1179742   -7.0538856    86.389463  0.028567944  0.030045448            3 
  253000    1.1660089   -7.0767753    86.947357  0.028638787  0.030020554            4 
  254000    1.1568639    -7.116504    87.375514  0.028666507  0.029996466            2 
  255000    1.1502916   -7.0651267    87.791798   0.02869013  0.029971049            2 
  256000    1.1221496   -7.0926382    87.377847   0.02844331  0.029944272            3 
  257000    1.1690583    -7.090544    87.859088   0.02848868  0.029918158            5 
  258000    1.1539011   -7.0630899    88.215806  0.028493477  0.029893149            3 
  259000    1.1637264   -7.0940911    88.614138  0.028511627  0.029866721            3 
  260000    1.1264671   -7.0899779     88.83283  0.028472061  0.029841143            2 
  261000    1.1252621   -7.1276972    88.968395  0.028406256  0.029814333            3 
  262000    1.1693664   -7.1353108    89.436747  0.028446802  0.029788211            3 
  263000    1.1546505   -7.0432407    90.180998  0.028574461  0.029763798            3 
  264000    1.1442807   -7.0665886    90.327127  0.028512351  0.029740465            1 
  265000    1.1564378   -7.1121085    90.481643  0.028453347  0.029716307            5 
  266000    1.1675727   -7.0841056    90.707442  0.028417118  0.029691224            2 
  267000    1.1505198   -7.0885949    91.170906  0.028455339  0.029667497            5 
  268000    1.1768748    -7.096148    90.892666  0.028262645  0.029643014            6 
  269000    1.1622246   -7.0945004    91.587895  0.028372954  0.029618842            2 
  270000    1.1380171   -7.1284299    91.661476  0.028290579  0.029593586            3 
  271000    1.1305032   -7.1359189    91.996583  0.028289232  0.029567628            2 
  272000    1.1720407   -7.1250794    91.694519  0.028092683  0.029540236            2 
  273000      1.13078   -7.1148184    92.077249  0.028106608  0.029512094            3 
  274000    1.1625147   -7.1009168    92.875358  0.028246763  0.029485537            2 
  275000    1.1462519    -7.123938    92.837142  0.028132467   0.02945944            6 
  276000    1.1649897   -7.1388602    93.224467  0.028147484    0.0294339            4 
  277000    1.1549133   -7.0947514    93.662467  0.028177637  0.029409051            2 
  278000    1.1298741   -7.1249615     94.09414  0.028205677  0.029383849            3 
  279000    1.1288076   -7.0816061    94.689791  0.028282494   0.02935915            4 
  280000    1.1457531   -7.1190529    94.762479  0.028203119  0.029335884            4 
  281000    1.1534622   -7.1436603    94.822541  0.028120564  0.029312108            4 
  282000    1.1383371    -7.115226    95.673515  0.028272315  0.029289417            3 
  283000    1.1477919   -7.0983573     95.65685  0.028167506  0.029266029            2 
  284000    1.1114906    -7.109774    95.792409  0.028108101  0.029242497            3 
  285000    1.1454907   -7.1390853    95.847108   0.02802547  0.029218478            2 
  286000    1.1154327   -7.0968228    96.405493  0.028090179  0.029195542            3 
  287000    1.1439939   -7.0810803    96.951503  0.028150843  0.029173573            2 
  288000    1.1402005    -7.093852    96.969987  0.028058445  0.029151385            2 
  289000    1.1321857   -7.0896612    97.423925  0.028092251  0.029128752            2 
  290000    1.1707037   -7.1276428     97.44898   0.02800258  0.029105445            3 
  291000    1.1405044   -7.0962379    98.209464  0.028124131  0.029082715            3 
  292000    1.1336556   -7.1190418    98.186882   0.02802137  0.029061397            2 
  293000    1.1313319   -7.1330236    98.704545  0.028072965  0.029041192            8 
  294000    1.1436102   -7.0788401    98.934968  0.028042791  0.029020806            3 
  295000    1.1180935    -7.105794     99.14248   0.02800635  0.029000386            1 
  296000    1.1209482    -7.129974    99.400666  0.027984422  0.028978654            3 
  297000     1.166408    -7.123873    99.618934  0.027951441  0.028958104            4 
  298000    1.1051186   -7.1440941    100.32202  0.028054255  0.028937098            2 
  299000    1.1287467     -7.11285    100.71805  0.028070804  0.028917459            2 
  300000    1.1168573   -7.0930689    100.93838  0.028038439  0.028897518            4 
  301000    1.1427204   -7.1202581    101.39342  0.028071269  0.028877783            8 
  302000    1.1259883   -7.1296721    101.56207  0.028024854   0.02885748            3 
  303000    1.1443542   -7.1766332    101.54894  0.027928752  0.028837411            4 
  304000    1.1432919   -7.1714628    101.07091  0.027705841  0.028815774            3 
  305000    1.1110689   -7.1441239     101.4824  0.027727432  0.028794455           13 
  306000    1.1419363   -7.1283983    102.35365  0.027874088  0.028772954            2 
  307000    1.1381996   -7.1431911    102.52876  0.027830826  0.028750594            3 
  308000     1.147096   -7.1960377    102.25175  0.027665516  0.028728579            3 
  309000    1.1271177   -7.1472819    102.60273  0.027670639  0.028706373            2 
  310000    1.1315734   -7.1344265    102.96386  0.027678458   0.02868402            2 
  311000    1.1431206   -7.1169225    103.51864  0.027738112  0.028662184            4 
  312000    1.1358717   -7.1725337    103.51935  0.027649398  0.028639932            3 
  313000    1.1264645   -7.1370001    103.98561  0.027685201  0.028617664            3 
  314000    1.1222914    -7.120359    104.19996  0.027653916  0.028596169            2 
  315000    1.1410994   -7.1613198    104.60135  0.027672314   0.02857538            1 
  316000    1.1304663   -7.1539386    104.46093  0.027547715  0.028554046            2 
  317000     1.126719   -7.2162978    104.34704  0.027430873  0.028531212            2 
  318000    1.1340869   -7.1535715     105.2559  0.027582783   0.02850777            1 
  319000    1.1250727   -7.1344881    105.61088  0.027589048  0.028485739            3 
  320000    1.1415894   -7.1389306    105.50896  0.027476291  0.028462675            2 
  321000    1.1607233   -7.2045794    105.46227  0.027378574   0.02843896            5 
  322000    1.1325498   -7.1505127    106.36648  0.027527557  0.028416087            5 
  323000    1.1042676   -7.1562151    106.45717  0.027465731   0.02839328            2 
  324000    1.1111566   -7.1786346    106.50709  0.027393798  0.028371472            3 
  325000    1.1239184   -7.1442752    107.05389  0.027449714  0.028349375            3 
  326000    1.1225729   -7.1631958    107.30051  0.027428556  0.028326371            2 
  327000    1.1216268   -7.2050054    107.23756  0.027328634  0.028302471            4 
  328000    1.1091351   -7.1386105    107.76234  0.027378643  0.028278964            3 
  329000    1.1140117   -7.1737752    107.83683  0.027314293  0.028255976            5 
  330000    1.1283171   -7.1498195    108.26975  0.027340845  0.028233888            7 
  331000    1.1057194   -7.2119551    108.26378  0.027256743  0.028211462            2 
  332000    1.0914324   -7.1173777    108.79078  0.027306922  0.028188096            2 
  333000    1.1216836   -7.1302093    109.16762  0.027319224  0.028165443            2 
  334000    1.1443075   -7.1578555    109.31951  0.027275327  0.028142748            2 
  335000    1.1070723   -7.1479049    109.54451  0.027249878  0.028120063            5 
  336000    1.1174639   -7.1444673    109.84666  0.027243715  0.028096898            1 
  337000    1.1267619    -7.159751     109.8933  0.027174406  0.028074798            3 
  338000    1.1266494   -7.1478288    110.35545  0.027207951  0.028053331            2 
  339000    1.1091359   -7.1798887    110.80232  0.027237541   0.02803232            3 
  340000    1.1089612    -7.173503    110.83818  0.027166222  0.028010754            6 
  341000    1.1141689   -7.1186184    111.60953  0.027275056  0.027989052            4 
  342000    1.0948258   -7.1867116    111.58617  0.027189613    0.0279691            2 
  343000    1.1411449   -7.1635821    111.77004  0.027155014  0.027947734            1 
  344000    1.1333126   -7.1615761    112.33575  0.027213117  0.027927138            2 
  345000    1.0955746   -7.1526185      112.751   0.02723454  0.027906528            3 
  346000      1.09947   -7.1784998    112.51792  0.027099693  0.027885525            5 
  347000    1.1092526   -7.1925406    112.61429  0.027044737   0.02786424            2 
  348000    1.1040328   -7.1672461    112.94721  0.027046745  0.027843248            4 
  349000    1.1052372   -7.2086594    113.50187  0.027101687   0.02782145            7 
  350000    1.1223921   -7.2167843    113.52466  0.027029681  0.027800949            3 
  351000    1.1108062   -7.1755168    113.54582  0.026957698  0.027780155            6 
  352000    1.0985028   -7.2273891    113.78805  0.026938458  0.027758514            3 
  353000     1.106495   -7.1988941    114.07976  0.026931011  0.027736973            3 
  354000    1.1189314   -7.1684753    114.66025  0.026991584  0.027715524            3 
  355000    1.1305725    -7.203204    114.52985   0.02688494  0.027694028            2 
  356000    1.1180726    -7.187359    115.38966  0.027010689  0.027672417            2 
  357000    1.1210195   -7.1954865    115.37844  0.026932409  0.027651846            3 
  358000    1.1195448   -7.2240706    115.55504  0.026898287  0.027631303            3 
  359000    1.0957541   -7.1965862    116.36905  0.027012315  0.027611709            2 
  360000    1.0968264   -7.2069333    116.39008  0.026942148  0.027593114            4 
  361000    1.0923881    -7.189053    117.16014  0.027045277   0.02757456            8 
  362000    1.1354696   -7.2303988    116.97566  0.026928099   0.02755663            3 
  363000    1.1037371   -7.1912574    117.69831  0.027019813  0.027539571            2 
  364000    1.0975362   -7.2718171    117.41513  0.026880754  0.027521145            1 
  365000    1.1327942   -7.2085802    118.03889  0.026949518  0.027502352            4 
  366000     1.061792   -7.2059725     118.5693  0.026996653  0.027484549            4 
  367000    1.1002039   -7.2058936    118.39401   0.02688329  0.027466232            5 
  368000    1.1096463   -7.2208012    118.11153   0.02674627  0.027446946            3 
  369000     1.105011   -7.2017131    119.20972  0.026921798  0.027427899            3 
  370000    1.0761437   -7.1901422    119.26777  0.026862111  0.027409124            5 
  371000    1.1238426   -7.2232752    118.88902  0.026704632    0.0273902            2 
  372000     1.111398    -7.208215     119.4503  0.026758579  0.027371413            7 
  373000    1.1014172   -7.2123288    119.80446  0.026765965  0.027351725            3 
  374000    1.1301414     -7.22624    120.40152  0.026827434  0.027332828            2 
  375000     1.100385   -7.2108342    120.67158  0.026815907  0.027314635            3 
  376000    1.0994608   -7.2225733    120.80501  0.026774159  0.027296377            6 
  377000    1.1242805   -7.2810239    120.73274  0.026687167  0.027279131            8 
  378000    1.0860126   -7.1925585    121.76132  0.026843325   0.02726285            1 
  379000    1.1140683   -7.2352957    121.62283  0.026742046   0.02724665            3 
  380000     1.087507   -7.2094277     122.3006  0.026820307  0.027230137            5 
  381000    1.0808234   -7.2231938     122.7896  0.026856868  0.027213626            2 
  382000    1.1066268   -7.2296075    122.36622    0.0266942  0.027196559            4 
  383000    1.0959076     -7.21785    123.01641  0.026765972  0.027180039            4 
  384000    1.1145961   -7.2567124    122.79244  0.026647664  0.027162704            3 
  385000     1.069106   -7.2207159    124.10207  0.026861919  0.027145627            6 
  386000    1.1214478   -7.2174805    123.68851  0.026703046  0.027129483            4 
  387000     1.103024   -7.2513545    124.20604  0.026745487  0.027113222            3 
  388000    1.0968266   -7.2700092    123.98471  0.026629018  0.027097344            5 
  389000    1.0861119    -7.211935    124.63882   0.02670069  0.027081318           12 
  390000    1.0951237   -7.2552063    124.91033  0.026690242  0.027066291            4 
  391000    1.0994776   -7.2326994    125.31245  0.026707684  0.027050389            3 
  392000    1.0976805   -7.2595335    125.38086  0.026654095  0.027034368            4 
  393000    1.0999408   -7.2643445    125.39086  0.026588393  0.027018285            2 
  394000    1.0891877   -7.1933556    126.10235  0.026671393  0.027002314            2 
  395000    1.0929309   -7.2294801    126.51867  0.026691703  0.026986525            4 
  396000    1.0783616    -7.237958    126.49285  0.026618865  0.026970865            3 
  397000    1.0662437   -7.2169794    126.49525   0.02655232  0.026955039            3 
  398000    1.0895057   -7.2447391    126.90379  0.026571146  0.026939801            2 
  399000    1.0826778   -7.2446036    127.20623  0.026567718  0.026924412            5 
  400000    1.0926973   -7.2442057    127.65978  0.026595788  0.026909617            2 
  401000    1.0957419   -7.2328218    127.93642  0.026586953   0.02689437            4 
  402000    1.1055824   -7.2383044    127.83123  0.026499011  0.026879555            4 
  403000    1.0990972   -7.2568499    128.05087  0.026478675  0.026863858           10 
  404000    1.1104976   -7.2544097    128.16455  0.026436581  0.026847994            6 
  405000    1.1105026   -7.3078822    128.27491  0.026394015  0.026831363            2 
  406000    1.0896046   -7.2349943    129.08122  0.026494503  0.026814843            4 
  407000    1.0958869    -7.276368    128.40528  0.026291007  0.026797924            3 
  408000    1.1115884    -7.262738    128.80191  0.026307579  0.026780071            2 
  409000    1.1000193   -7.2188552    128.96105  0.026275683  0.026763077            3 
  410000    1.0703597   -7.2678244    129.27206   0.02627481   0.02674524            3 
  411000    1.1095319    -7.264311    129.60729   0.02627885  0.026727658            3 
  412000    1.0840733   -7.2204842    130.19742   0.02633443  0.026710918            2 
  413000    1.0918693   -7.2605848    130.25182  0.026281642   0.02669477            7 
  414000    1.0931554   -7.2483613    130.43642  0.026255317  0.026678594            6 
  415000    1.1027174   -7.2634271    130.74206  0.026253426  0.026662505            3 
  416000    1.0978376   -7.2482733    131.24607   0.02629128  0.026646975            4 
  417000    1.0686371   -7.2899331    131.23643  0.026226305  0.026630668            3 
  418000    1.0776044   -7.2914213     131.5657  0.026229207  0.026614462            4 
  419000     1.058399    -7.233336    132.18748   0.02629027  0.026598903            2 
  420000    1.0729693   -7.2441833    132.80706  0.026350607  0.026583845            3 
  421000    1.0839526   -7.2284947    133.23607  0.026372936  0.026569146            3 
  422000    1.0674716   -7.3041306    132.57117  0.026179141  0.026553644            5 
  423000    1.0682985   -7.3350297    132.37876  0.026079346   0.02653747            5 
  424000    1.0888867   -7.2482107    133.00073  0.026140081  0.026520155            8 
  425000    1.0840166   -7.3210358    133.13162  0.026104239  0.026503493            5 
  426000    1.0870219   -7.2917644    133.45065  0.026105369  0.026486627            7 
  427000    1.0852095   -7.2692696    133.81077  0.026114513  0.026470004           11 
  428000    1.0792599   -7.2732081    133.79121  0.026049691  0.026453268           10 
  429000    1.0926315   -7.2649717    134.12053  0.026052939  0.026437299            6 
  430000    1.0982519   -7.2725632    134.31933  0.026030878  0.026420819            4 
  431000    1.1069562   -7.2658163    134.88194  0.026079262  0.026404274            5 
  432000     1.074955   -7.3194854    134.49672  0.025944583  0.026387752            2 
  433000    1.1177083   -7.3113241    134.63488  0.025911255  0.026370215            3 
  434000    1.0609257   -7.2654642    134.95183   0.02591241  0.026352971            2 
  435000    1.1203883   -7.2406776    135.28186  0.025916065  0.026335834            2 
  436000    1.0868125   -7.3309104    135.26449  0.025853306  0.026318634            3 
  437000    1.0718777   -7.2891433    135.57058  0.025852512  0.026300913            4 
  438000    1.0847779   -7.2884268    135.92723  0.025861345   0.02628351            2 
  439000    1.0595427   -7.2867058    136.28243  0.025869862  0.026266465            1 
  440000    1.0696926   -7.2961605    136.58306  0.025868005  0.026249908            2 
  441000    1.0766566   -7.2676373    136.77052  0.025844769  0.026232861            3 
  442000    1.0895983   -7.2280695    136.89427  0.025809629  0.026216823            2 
  443000     1.082701   -7.3107338    137.40702  0.025847821  0.026200376            3 
  444000    1.0798797   -7.3074568    137.51083   0.02580909  0.026184156            3 
  445000    1.0897647   -7.2649415    137.91667  0.025827091  0.026167904            3 
  446000    1.0716219   -7.2593561    137.82709  0.025752445  0.026151478            2 
  447000    1.0814496   -7.3138823     137.8381  0.025696886  0.026134814            6 
  448000    1.0610204   -7.2759827    138.37502  0.025739402  0.026117849            2 
  449000    1.0821463   -7.3173701    138.69309  0.025741108  0.026100761            3 
  450000    1.0553196   -7.2769487    138.85613  0.025714098  0.026083377            3 
  451000    1.0666228   -7.3256262    138.99168  0.025682129  0.026065879            3 
  452000    1.0746204   -7.3054075    138.99071  0.025625132  0.026048329            4 
  453000    1.0638621   -7.3223309    138.72291    0.0255193  0.026030478            4 
  454000    1.0551973   -7.2966125     139.4945  0.025604718  0.026011954           10 
  455000    1.0636642   -7.3347599    139.62641  0.025572603  0.025993958            2 
  456000    1.0556721   -7.3040514    139.37127  0.025469895  0.025975833            2 
  457000    1.0520627   -7.3194301    139.52936  0.025442991  0.025957511           10 
  458000    1.0700599   -7.2928582    140.38081  0.025542361  0.025938879            5 
  459000    1.0565259   -7.2798747    140.40448  0.025491009  0.025921041            2 
  460000    1.0669296    -7.300117     140.6502   0.02548011   0.02590321            4 
  461000    1.1019435   -7.3024366    140.66861  0.025428164   0.02588532            4 
  462000     1.069181    -7.300186    141.20783  0.025470387  0.025867424            2 
  463000    1.0619498    -7.303424    141.17363   0.02540922  0.025849288            2 
  464000    1.0600381   -7.3230452     141.1567  0.025351419  0.025831221            4 
  465000    1.0880404   -7.3006093    141.46269  0.025351736  0.025812732            3 
  466000    1.0493985   -7.2689417    141.20171  0.025250664  0.025794269            7 
  467000    1.0510057   -7.2941968    142.04502  0.025347077  0.025775767            4 
  468000    1.0888822   -7.3488247    141.79382  0.025248187  0.025756886            5 
  469000      1.07004   -7.3582478      142.445  0.025310057  0.025738277            3 
  470000    1.0556764   -7.3107349    142.61758  0.025286805  0.025719534            3 
  471000    1.0838178   -7.3236231    143.04267  0.025308328  0.025701507            2 
  472000    1.0754759   -7.3501993    143.27523  0.025295768  0.025683022            4 
  473000    1.0770057   -7.3297591    143.24042  0.025236155  0.025664724            2 
  474000    1.0395828    -7.298914    143.78624  0.025278875  0.025646876            2 
  475000    1.0576591   -7.3223127    143.69708  0.025210013  0.025628998            7 
  476000    1.0572075   -7.3864123    143.78721  0.025172831  0.025610189            8 
  477000    1.0969474   -7.3486979    143.47561  0.025065621  0.025591387            3 
  478000    1.0857344   -7.3355164     143.8811  0.025083875  0.025572386            2 
  479000    1.0804639   -7.3492706    144.13346  0.025075411  0.025553327            5 
  480000    1.0576357   -7.3094745    144.41924  0.025072785  0.025534938            2 
  481000    1.0852038   -7.3644817    144.09448  0.024964393   0.02551586            2 
  482000    1.0631599   -7.3514864    144.41538  0.024968081  0.025496778            3 
  483000    1.0556561   -7.3458632    144.55654  0.024940742  0.025477054            6 
  484000    1.0563254   -7.3440173    144.75773  0.024923851  0.025456922            1 
  485000    1.0481136   -7.3495893    145.05808  0.024924069  0.025437254            4 
  486000      1.05593   -7.3636966    145.07685  0.024876002  0.025417057            3 
  487000    1.0607074   -7.3244375    145.59093  0.024912891  0.025397534            2 
  488000    1.0792068   -7.3156205     146.2895   0.02498113   0.02537844            3 
  489000    1.0452738   -7.3291585    146.07575  0.024893618  0.025359863            5 
  490000    1.0809082   -7.3201959    146.29164  0.024879531  0.025341367            4 
  491000    1.0408084   -7.3129639    146.90475  0.024932918  0.025322825            2 
  492000    1.0431148    -7.372688    146.53423  0.024819484  0.025303881            4 
  493000    1.0627603   -7.3275017    147.22184  0.024885368  0.025285033            3 
  494000    1.0455723   -7.3195642    147.12602  0.024818829  0.025266333            6 
  495000    1.0381955   -7.3370096    146.91274  0.024732785  0.025247488            2 
  496000    1.0534454    -7.349491    147.49958  0.024781516  0.025228581            7 
  497000    1.0633286   -7.3619459    147.34247   0.02470531  0.025209765            6 
  498000     1.053032   -7.3867416    147.55581    0.0246914  0.025190463            3 
  499000    1.0580347   -7.3667637    148.29982   0.02476617  0.025171171            5 
  500000    1.0559736   -7.3378039    148.39112  0.024731853  0.025152152            4 
  501000    1.0243412   -7.3599489    148.86642  0.024761548  0.025133155            2 
  502000    1.0678372   -7.3135935    148.50735  0.024652614  0.025114529            3 
  503000    1.0540475   -7.3246024    149.26758  0.024729552  0.025096212            2 
  504000    1.0741374   -7.3138217    149.63221  0.024740775  0.025078208            9 
  505000    1.0618868     -7.34381    149.53595    0.0246759  0.025059724            5 
  506000    1.0641715   -7.4006766    148.92255  0.024526112  0.025040982            7 
  507000    1.0449761   -7.3382701    150.13719  0.024677381  0.025021838            5 
  508000    1.0576335   -7.3659113    149.54062  0.024530941  0.025002948            5 
  509000    1.0523745   -7.3671359    149.72594  0.024513088  0.024983733            5 
  510000    1.0696075   -7.3531888    150.20552  0.024543386  0.024964667            5 
  511000    1.0457714   -7.3522127    150.35199  0.024519241  0.024945717            2 
  512000    1.0479339   -7.3321374    150.49385  0.024494442  0.024926849            4 
  513000    1.0590926   -7.3559637     150.4006  0.024431546  0.024907296            2 
  514000    1.0435574   -7.3785569    150.60556  0.024417243  0.024887876            5 
  515000    1.0449698   -7.4144554    150.85376  0.024409993  0.024868403            5 
  516000    1.0320713   -7.3459572    151.48116  0.024464012  0.024849068            2 
  517000    1.0528999   -7.3921464    151.08922  0.024353518   0.02483032            2 
  518000    1.0462265   -7.3571527    151.62567  0.024392804  0.024811159            2 
  519000     1.045846   -7.4014259    151.50593  0.024326578  0.024792327            4 
  520000    1.0527405   -7.4010394    151.76702  0.024321637  0.024773396            3 
  521000    1.0567553   -7.3723315    152.36431  0.024370491  0.024754605            4 
  522000    1.0330914   -7.3583711    152.54288  0.024352312  0.024735505            6 
  523000     1.025116   -7.3572286    152.84546  0.024353961  0.024717011            2 
  524000    1.0463479    -7.362802    152.92334  0.024319869   0.02469826           11 
  525000    1.0313797   -7.3838404     152.3287  0.024179159   0.02467919           12 
  526000    1.0394637   -7.3780341    153.42288   0.02430654  0.024660484            2 
  527000    1.0464946    -7.350317    153.17491  0.024221206   0.02464181            2 
  528000    1.0579093    -7.440809     153.0676  0.024158397  0.024622862            3 
  529000    1.0274828   -7.3829817    153.55129  0.024188923  0.024604128            1 
  530000     1.080275   -7.3793954    154.32894  0.024265556  0.024585874            4 
  531000    1.0412947   -7.4317308    153.70697  0.024122249  0.024566779            6 
  532000    1.0337139    -7.359481    154.68119  0.024229509  0.024547964            6 
  533000    1.0225449   -7.4006225    154.24627  0.024116051  0.024529346            4 
  534000    1.0371577   -7.3826683    154.73096  0.024146529  0.024510371            2 
  535000     1.022524   -7.4175467    153.91453  0.023974226  0.024491199            8 
  536000    1.0325699   -7.3992192    154.52188  0.024023924  0.024471649            3 
  537000    1.0320118   -7.3397454    155.19541  0.024083707  0.024452465            2 
  538000    1.0172359    -7.397544    155.11463  0.024026429  0.024433295            5 
  539000    1.0401515    -7.406823    154.75719   0.02392659  0.024413509            4 
  540000    1.0547797   -7.3797649      155.463  0.023991204  0.024393514            4 
  541000    1.0427748   -7.4518414    154.77704  0.023841195  0.024373877            4 
  542000    1.0364698   -7.4174213    155.54438  0.023915188  0.024353757            5 
  543000    1.0352832   -7.4078497    155.64012  0.023885837  0.024333771            2 
  544000    1.0270279   -7.4368032    155.59097  0.023834401  0.024314256            3 
  545000    1.0573268    -7.439797    156.00609  0.023854142  0.024294782            5 
  546000    1.0261934   -7.4478522    155.68234   0.02376104    0.0242751            5 
  547000    1.0639395   -7.4037601    156.18769   0.02379459  0.024255348            3 
  548000    1.0266647   -7.3919859    156.37365  0.023779448  0.024236288            3 
  549000    1.0374024   -7.3862387    156.76807  0.023796004  0.024216853            3 
  550000    1.0120462   -7.4088507    157.13867  0.023808889  0.024197813            2 
  551000    1.0373034    -7.402693    157.48798  0.023818509  0.024178218            2 
  552000    1.0606606   -7.4249313    157.01872  0.023704518  0.024158554            7 
  553000    1.0358764   -7.4367436    157.53759  0.023739841  0.024139039            2 
  554000    1.0416537   -7.4224217    157.77435  0.023732604  0.024119494            3 
  555000    1.0491357    -7.447225    157.58375  0.023661224  0.024100314            6 
  556000    1.0330576    -7.450348    158.03049  0.023685624  0.024081167            4 
  557000    1.0382288   -7.4592675    157.82013  0.023611629  0.024061912            6 
  558000    1.0165081   -7.4640429    158.06095   0.02360528  0.024042602            4 
  559000    1.0238387   -7.4187071    158.16086  0.023577946  0.024023094            7 
  560000    1.0321306   -7.4387243    158.77523  0.023627266  0.024003693            4 
  561000    1.0273514   -7.4521714    158.72279   0.02357736  0.023984236            6 
  562000    1.0607122   -7.4566695    159.04335   0.02358294  0.023964862            7 
  563000    1.0377343   -7.4449538    158.86237  0.023514264  0.023945588            6 
  564000    1.0539503    -7.479215    159.10102  0.023507834  0.023926376            4 
  565000    1.0114869   -7.3887503     160.0168  0.023601298  0.023907358            5 
  566000    1.0351787   -7.3904575    159.98354  0.023554702  0.023888341            3 
  567000    1.0544403   -7.3780855    159.42343  0.023430839  0.023869268            2 
  568000    1.0257215    -7.439844    159.80275  0.023445239  0.023849798            4 
  569000    1.0025274    -7.418955    159.71137  0.023390652  0.023830131            9 
  570000    1.0149581   -7.4586547    160.35766  0.023444102  0.023810697           18 
  571000    1.0124605   -7.5011477    160.27306  0.023390697  0.023791006            7 
  572000     1.030981    -7.479344    159.99059  0.023308652  0.023771149            5 
  573000    1.0241558   -7.4792576    160.87324   0.02339634  0.023751485            2 
  574000    1.0133351   -7.4485347    160.41857  0.023289572  0.023731884            5 
  575000    1.0204993   -7.4082145    161.48042  0.023402959  0.023712615            3 
  576000    1.0094989   -7.4131278    161.13424  0.023312245  0.023693233            6 
  577000    1.0231124   -7.4231735     161.1997  0.023281297  0.023673821            2 
  578000    1.0171098   -7.4901109    161.42424   0.02327339  0.023654226            4 
  579000    1.0199013   -7.4293191    161.27606  0.023211869  0.023634512            6 
  580000    1.0083165   -7.4024127    162.01319  0.023277758  0.023614942            3 
  581000    1.0084166   -7.4303331    161.59073  0.023177098  0.023595507            8 
  582000    1.0242705   -7.4694534    161.46633  0.023119463  0.023575606            4 
  583000    1.0152568   -7.4474075    162.06164  0.023164899  0.023555451            4 
  584000    0.9861474   -7.4765322    161.32999  0.023020832  0.023534981            4 
  585000    1.0351859   -7.4627892    161.50944  0.023007042  0.023514801            5 
  586000    1.0269379   -7.4707628    162.14745  0.023058511  0.023494728            4 
  587000    1.0159028    -7.418808    162.73388  0.023102481  0.023474898            5 
  588000    1.0206895   -7.4340214    162.83892  0.023078079  0.023455344            1 
  589000    1.0219634   -7.4306161    163.06528  0.023070922  0.023435694            4 
  590000    1.0235242   -7.4683975    162.60531  0.022966852  0.023415727            7 
  591000    1.0123374   -7.4504276    162.73107  0.022945723  0.023395904            2 
  592000     1.015744   -7.3891879    163.61473  0.023031353  0.023376326            3 
  593000    1.0138362   -7.4339286    163.45146  0.022969569  0.023356361            3 
  594000    1.0162272   -7.4533534    163.04596  0.022874012  0.023336346            2 
  595000    1.0040551     -7.49123    162.68212  0.022784611  0.023316091            2 
  596000     1.026632   -7.4434945    163.94702  0.022923241  0.023295873            4 
  597000    1.0374305   -7.4703723    163.62794  0.022840304  0.023276012            7 
  598000    1.0311768   -7.4595053     164.2282  0.022885759  0.023256025            6 
  599000     1.007697   -7.4587803    164.04059  0.022821451  0.023236066            2 
  600000    1.0100511   -7.4611365    163.81479  0.022752055  0.023215758            4 
  601000   0.99918143   -7.4926986    163.86852  0.022721648  0.023195336            8 
  602000    1.0039604   -7.4534489    164.10044  0.022716007  0.023174975            7 
  603000    1.0342675   -7.4266563    164.47113  0.022729564  0.023154871            5 
  604000    1.0117665    -7.484882    164.47381  0.022692303  0.023134567            2 
  605000    1.0296154   -7.4690658    164.66629  0.022681307  0.023114268            4 
  606000    1.0195228   -7.4348881    164.80579  0.022663062  0.023094022            4 
  607000    1.0185806   -7.4361165    165.25011  0.022686725  0.023073984            2 
  608000    1.0116375   -7.4372596    165.26056  0.022650845  0.023053951            4 
  609000    1.0243877   -7.4808517    165.59833   0.02265987  0.023033976            2 
  610000    1.0111284   -7.4864197    164.80147  0.022513862  0.023013605            2 
  611000    1.0024624   -7.4720211    165.17736  0.022528282  0.022993539            3 
  612000    1.0091426   -7.4974971    165.93726  0.022594942  0.022973534            5 
  613000    1.0232202   -7.5290046    165.72136  0.022528732  0.022953307            3 
  614000    1.0074439   -7.5084817    165.66551  0.022484462  0.022933069            4 
  615000    1.0112964   -7.4844119    165.86748  0.022475268  0.022913035            5 
  616000   0.99550498   -7.4706785    166.54249  0.022530099  0.022893491            3 
  617000    1.0051069   -7.4424568    166.74785  0.022521319  0.022873823            5 
  618000    1.0004953   -7.4833262    166.44261  0.022443717  0.022854335            6 
  619000    1.0110297   -7.4676184    166.57978  0.022425927  0.022834486            2 
  620000   0.99042964    -7.461363    166.60932  0.022393726  0.022814489            2 
  621000    1.0000185   -7.5037179    167.14482  0.022429524  0.022794957            2 
  622000   0.99805211   -7.5008561    167.05635  0.022381612  0.022775184            7 
  623000    1.0251076   -7.4487866    167.37773  0.022388675  0.022755516            2 
  624000   0.99682131   -7.4995752    166.91004  0.022290337  0.022735739            5 
  625000    1.0053417   -7.4966026    167.38934  0.022318579  0.022715485            6 
  626000    1.0164996   -7.4885854    167.93753  0.022355901  0.022695508            3 
  627000   0.99752976    -7.467771     167.9083  0.022316361    0.0226755            5 
  628000   0.99271822   -7.5072526    167.53411  0.022231172  0.022655317            4 
  629000    1.0094964   -7.4923772    168.04669  0.022263738  0.022635133            5 
  630000   0.99577148   -7.5047678    168.23003  0.022252649   0.02261528            4 
  631000    1.0124577   -7.5057828    167.94274  0.022179442  0.022595284            3 
  632000    1.0144832   -7.5083776    168.36309  0.022199774  0.022575547            4 
  633000    1.0015887   -7.5013653    168.94592  0.022241433  0.022555716            5 
  634000   0.99590846   -7.5157404    168.91526  0.022202321   0.02253579            3 
  635000   0.99500606   -7.5008993    169.06226  0.022186649  0.022515838            5 
  636000   0.98060002   -7.5176463    168.98563  0.022141723  0.022496217           13 
  637000    0.9913575   -7.5186488    168.83177  0.022086836  0.022476479            4 
  638000    1.0167043   -7.4987068    169.38011  0.022123838  0.022457158            3 
  639000   0.98037198   -7.4808237    169.73555   0.02213557  0.022438079            5 
  640000   0.98794543   -7.5073725    170.23471  0.022165978  0.022419006            3 
  641000    1.0063944   -7.5515214    169.19439   0.02199615  0.022399642           14 
  642000   0.98494998   -7.5227733    169.68454  0.022025511  0.022380237            4 
  643000   0.99959446   -7.5335416    170.35711  0.022078422   0.02236092            8 
  644000    1.0027032   -7.5349584    170.17295  0.022020309  0.022341637            7 
  645000   0.98464163   -7.5236405    170.46799  0.022024288  0.022322352            8 
  646000    0.9995367   -7.5206075     170.9511  0.022052515  0.022303347            7 
  647000   0.99540615   -7.5310229    170.15456  0.021915837  0.022283999            2 
  648000    1.0041888   -7.4986407    170.46731  0.021922236  0.022264356            5 
  649000   0.99804875   -7.5424229    170.84948   0.02193753  0.022244543            5 
  650000   0.99455159   -7.5186422    170.66179  0.021879717  0.022225035            4 
  651000    1.0034248   -7.5033806     170.8592  0.021871378  0.022205451            5 
  652000   0.99060993   -7.5330033    170.88012  0.021840506  0.022185784           10 
  653000   0.97932487   -7.5074346    171.21085  0.021849267  0.022166098            6 
  654000   0.98591708   -7.5410574    170.90366  0.021776715  0.022146324            3 
  655000   0.99284994   -7.5614083    171.37328  0.021803216  0.022126712            7 
  656000   0.99367199   -7.4969535    172.20601  0.021875764  0.022107292            2 
  657000   0.96599264   -7.5259265    171.73494  0.021782717   0.02208801            2 
  658000   0.97494138   -7.5470943    172.12382  0.021798863  0.022068736            5 
  659000   0.99114304   -7.5430558    171.63057  0.021703411  0.022048976           10 
  660000    1.0074158   -7.5340112    172.34903  0.021761241   0.02202917           10 
  661000   0.98736733   -7.5488413     172.0626  0.021692209  0.022009497            5 
  662000   0.98943375   -7.5165381    172.47042  0.021710777  0.021990277            6 
  663000   0.99022685   -7.5325262    172.68706  0.021705261  0.021971241            4 
  664000   0.98587019   -7.5403272    172.36935    0.0216327  0.021952299            5 
  665000    1.0043193   -7.5254913    173.02693  0.021682572  0.021933269            2 
  666000     1.012307   -7.5193041     173.5703  0.021718006  0.021914597            3 
  667000    1.0038087    -7.550768    173.18257  0.021637003   0.02189546            7 
  668000   0.98602683   -7.5904419    172.74905  0.021550531  0.021875982            2 
  669000   0.98820805   -7.5561421    173.04006  0.021554566   0.02185659            5 
  670000      1.00492   -7.5550278    173.35333   0.02156136  0.021837185            3 
  671000   0.98967172   -7.5610818    173.17885  0.021507557  0.021817599            2 
  672000   0.98637506   -7.5699993    173.36863  0.021499086  0.021798075            4 
  673000   0.98537764   -7.5242986    173.85015  0.021526764  0.021778925            7 
  674000   0.96357981    -7.583232    173.42512  0.021442276   0.02175936            3 
  675000   0.98761998   -7.5464415    173.93309  0.021473222  0.021739713            2 
  676000    1.0001345   -7.5719815     173.8795   0.02143485  0.021720522            2 
  677000   0.98289482     -7.54433    174.29992  0.021454938   0.02170126            4 
  678000   0.98909914   -7.5570158    173.74577  0.021355183   0.02168195            9 
  679000   0.97068235   -7.5470376    174.59795   0.02142832  0.021662678            3 
  680000   0.98181481   -7.5925438    174.44524  0.021378093  0.021643438            3 
  681000   0.98311082   -7.5991938    173.96746  0.021288236  0.021624194            4 
  682000   0.99266507   -7.5463024    174.70127  0.021346685  0.021605067           13 
  683000   0.98408417   -7.5540009    174.94211  0.021344816  0.021586019            4 
  684000   0.97576387    -7.574536    174.82638  0.021299511  0.021566842            3 
  685000   0.98087584   -7.5110229    175.17361  0.021310659  0.021547716            4 
  686000   0.98830089   -7.5631424    175.68685   0.02134194  0.021528479            7 
  687000   0.99004536   -7.5724984    175.55215  0.021294536  0.021509356            2 
  688000   0.95588723   -7.5677791    175.56763  0.021265459  0.021490342            4 
  689000   0.94783246   -7.5698333    175.54702  0.021232102  0.021471301            5 
  690000   0.98299066   -7.5750843    175.83906  0.021236601  0.021452045            3 
  691000   0.96834003   -7.6249235    174.64738  0.021062154  0.021432579            8 
  692000    0.9717729   -7.5687899    175.56123  0.021141767  0.021413373            4 
  693000   0.96004441   -7.5270588    176.28627  0.021198445  0.021394343            2 
  694000   0.95421606    -7.563458    175.89016  0.021120337  0.021375174            9 
  695000   0.98279208   -7.5852419    175.72254  0.021069849  0.021355714            2 
  696000   0.95835825   -7.6408977    175.41723   0.02100302  0.021336157            4 
  697000   0.95059832   -7.5979943    176.13348  0.021058523   0.02131685            9 
  698000   0.97139421   -7.5977627    175.29797  0.020928602  0.021297355            6 
  699000    0.9889394   -7.5896241    176.11534  0.020996107  0.021277742            5 
  700000   0.98388799   -7.5468888     176.6639  0.021031417  0.021258295            7 
  701000   0.97389763   -7.5931956    176.22122  0.020948789   0.02123883            3 
  702000    1.0021188   -7.5775748     176.5509  0.020958084  0.021219295            6 
  703000   0.95263293   -7.6400986    175.80541  0.020839901  0.021199728            6 
  704000   0.96493463   -7.6401018    176.21026  0.020858222  0.021180026            5 
  705000   0.98214792    -7.617055    176.50067  0.020862963  0.021160604            5 
  706000   0.95663919   -7.5739295     177.0038    0.0208928  0.021141188            6 
  707000   0.99396702   -7.5786094    177.30507  0.020898758  0.021122003            3 
  708000    0.9740497   -7.5771694    176.99034  0.020832196  0.021102949            4 
  709000   0.96829964   -7.5584291    177.75143  0.020892269  0.021083604            8 
  710000   0.98016367   -7.5770679    176.89128  0.020761887  0.021064325            7 
  711000   0.96951228   -7.5942189    177.96161  0.020858135  0.021044939            4 
  712000   0.95878893   -7.5973311    177.37167  0.020759793  0.021025597           12 
  713000   0.98412212   -7.6007495    177.84993  0.020786575  0.021006413            7 
  714000   0.97075753   -7.5899573    177.94724  0.020768819  0.020987495            4 
  715000   0.98394653   -7.6248972    177.73295  0.020714797   0.02096832            5 
  716000   0.95144174   -7.5686704    178.92383  0.020824468  0.020949227            3 
  717000   0.97104038   -7.6244001    178.40795  0.020735466  0.020930337            6 
  718000   0.96621263   -7.6014248    177.96387  0.020655045  0.020911136            2 
  719000    0.9494869   -7.6026961    178.34783  0.020670819  0.020892044            8 
  720000   0.96271622   -7.6207828    178.45885  0.020654959  0.020872956            8 
  721000   0.97330673   -7.6280411    178.75637  0.020660699  0.020853966            3 
  722000   0.95632368   -7.5875266    179.17056  0.020679889  0.020834909            6 
  723000   0.96932051     -7.62344    178.65442  0.020591795  0.020816093           23 
  724000   0.96993094   -7.6044277    179.31024  0.020638839  0.020797593           21 
  725000   0.94550079   -7.5944225    179.41216  0.020622087  0.020779065           10 
  726000   0.98218461   -7.5928278     179.0164  0.020548256  0.020760402           15 
  727000   0.95883647   -7.5933958    178.92211  0.020509182  0.020741492            6 
  728000   0.97316939   -7.6506804    178.90205  0.020478714  0.020722398            4 
  729000   0.98075508   -7.6389006    179.16313  0.020480467  0.020703395            7 
  730000   0.97074493   -7.6344382    179.68302   0.02051176  0.020684404            5 
  731000   0.96962376   -7.6093509    179.47575  0.020460072  0.020665459            6 
  732000    0.9774165   -7.6225663    179.60127  0.020446411  0.020646603            9 
  733000   0.94209632   -7.6057229    180.22685  0.020489638  0.020627651            4 
  734000   0.94321972   -7.6294837    179.52133  0.020381623  0.020608936            9 
  735000   0.95423109   -7.6151191    180.08544  0.020417851  0.020590258            3 
  736000   0.96583017   -7.6221499    180.53546  0.020441062  0.020571662            3 
  737000   0.96025204   -7.6394803    180.80232    0.0204435  0.020553041            4 
  738000   0.94741992   -7.6333723    181.06567  0.020445536  0.020534561            2 
  739000   0.94961124   -7.6700019    180.24221  0.020325012  0.020515835            3 
  740000   0.95952576   -7.6809744    180.47202  0.020323426  0.020497123            5 
  741000     0.943271   -7.6438917    180.56037  0.020305935  0.020478414           12 
  742000   0.96424762   -7.5909379    180.90146  0.020316875  0.020459833           17 
  743000   0.96834086   -7.6677081    181.47425  0.020353774  0.020441479            7 
  744000   0.96468216   -7.6442529    180.73712  0.020243853  0.020423205           11 
  745000    0.9479581   -7.6331604    181.39959  0.020290782  0.020404817            5 
  746000   0.95494471   -7.6642074    181.06934  0.020226692    0.0203866            6 
  747000   0.97378695   -7.6574354     181.8492  0.020286613  0.020368175            9 
  748000    0.9645073   -7.6550923    181.92573  0.020268019  0.020349945           10 
  749000   0.96333262   -7.6448209    181.48831  0.020192291  0.020331599            6 
  750000   0.94349207   -7.6823117    181.20638  0.020134042  0.020313361            4 
  751000   0.95589168   -7.6405446    182.24111   0.02022205  0.020294984           11 
  752000   0.96857718   -7.6730345    181.76404  0.020142292  0.020276966            4 
  753000   0.94628882   -7.6597739    182.42022   0.02018816  0.020259056            5 
  754000   0.96408816   -7.6470602     182.6765  0.020189711   0.02024102            5 
  755000   0.96010259   -7.6741889    182.14724  0.020104552  0.020222902           10 
  756000   0.94964038   -7.6635028    182.10414  0.020073207  0.020204735            9 
  757000   0.95169166   -7.7010925    182.63955  0.020105631  0.020186609           13 
  758000   0.93873526   -7.6768119    182.49919  0.020063675  0.020168428            7 
  759000   0.94618013   -7.6327685    182.85458  0.020076261  0.020150342            7 
  760000   0.96340699   -7.6472376    182.98269  0.020063891  0.020132253            9 
  761000   0.94916571   -7.6849419    182.87351   0.02002557  0.020114196            6 
  762000   0.94641018   -7.7151366    182.76819  0.019987772  0.020096157            5 
  763000   0.95999526   -7.6803056    183.27076  0.020016466  0.020078082            3 
  764000   0.94271258   -7.6560463    183.32998  0.019996726  0.020060219            8 
  765000   0.95544787   -7.6754546    183.43559  0.019982091  0.020042483            4 
  766000   0.95644161   -7.6721294    183.39178  0.019951238  0.020024748            5 
  767000   0.93365346   -7.6339972    183.44595  0.019931111  0.020006775            7 
  768000   0.96075643   -7.6362871    184.30483  0.019998354  0.019989042            4 
  769000   0.93850727   -7.7114099    183.46223  0.019881039  0.019971235           17 
  770000    0.9470529   -7.6805211    183.82404  0.019894376  0.019953543            3 
  771000   0.95463715   -7.7227646    183.72137  0.019857476  0.019935706            5 
  772000   0.92668623   -7.7009624    184.15496  0.019878558  0.019917753           13 
  773000   0.95519839   -7.6655133     184.3596  0.019874903  0.019899785            4 
  774000   0.94183126   -7.6504167     184.7194  0.019887962  0.019882067           10 
  775000   0.94165426   -7.6612942    185.10103  0.019903337  0.019864412           14 
  776000    0.9364112   -7.6880589    184.46057   0.01980891  0.019846799            3 
  777000   0.95485798   -7.7075143    184.27812  0.019763848  0.019829047            2 
  778000   0.93842808   -7.7127282     184.3996  0.019751456  0.019811268            6 
  779000   0.94108674   -7.6289831    185.15277  0.019806672  0.019793719            3 
  780000   0.93809901   -7.7040539    184.79746  0.019743318  0.019776075            6 
  781000   0.93447493   -7.6929166    184.81713  0.019720138  0.019758253            5 
  782000   0.94183021   -7.6878945    184.90721  0.019704519   0.01974052            3 
  783000   0.92514115   -7.6888115    185.24598  0.019715409  0.019722881           10 
  784000   0.95608444    -7.649743    185.38453  0.019704988  0.019705358            7 
  785000   0.93727315   -7.6725232    185.66122  0.019709259  0.019687901            5 
  786000    0.9212479   -7.6650428    185.19853  0.019635128  0.019670239            6 
  787000   0.92472739   -7.6563705    185.37393  0.019628752  0.019652504            5 
  788000   0.93843494   -7.6849862    185.40611  0.019607245  0.019634796            7 
  789000    0.9633083   -7.6860307    185.58494  0.019601282  0.019617077            4 
  790000   0.94287927   -7.6899118    185.57661  0.019575592  0.019599229            3 
  791000   0.94402469   -7.6977029    185.13751  0.019504583  0.019581371            8 
  792000    0.9551283   -7.6967584    185.32357  0.019499534  0.019563639           10 
  793000   0.92387419   -7.7307469    185.24656  0.019466852   0.01954575            8 
  794000    0.9205138   -7.6956548     185.5431  0.019473457  0.019527906            7 
  795000   0.91071313   -7.6970187      186.107  0.019508071  0.019510236            7 
  796000   0.94304138   -7.6990781    186.39813  0.019514042  0.019492737            4 
  797000   0.95434098    -7.674224    186.71474  0.019522662  0.019475352            9 
  798000   0.92398173   -7.6565225    186.88503   0.01951598  0.019458174            3 
  799000   0.91979003   -7.7017783    186.24484  0.019424785  0.019440758            5 
  800000   0.94900042   -7.6817412    186.86546  0.019465152  0.019423427            4 
  801000   0.94045709   -7.6981689      187.029  0.019457865  0.019406323            8 
  802000   0.94510358     -7.71962    186.96503  0.019426956  0.019389085            4 
  803000   0.94711851   -7.7208715    186.39378   0.01934348  0.019371765            5 
  804000    0.9252669   -7.7421993    186.69676  0.019350825  0.019354285            8 
  805000   0.94538961   -7.7066597    186.86454  0.019344155  0.019336873            4 
  806000   0.95629275    -7.719238    186.67538  0.019300598  0.019319519           12 
  807000   0.93484512   -7.7346467    186.88829  0.019298667     0.019302           14 
  808000   0.89715886   -7.7211365    187.45007  0.019332722  0.019284637           11 
  809000    0.9156324   -7.7141955     187.4041   0.01930409  0.019267273            5 
  810000   0.92208429   -7.7228769     187.2349   0.01926285  0.019249815            4 
  811000   0.94230001   -7.7275664    187.49562  0.019265888  0.019232332           14 
  812000   0.92574587   -7.7281404    187.06697   0.01919817  0.019214813           10 
  813000   0.91631203   -7.7034273     187.4068   0.01920939  0.019197375            9 
  814000   0.91852597   -7.7345391    187.36829  0.019181848   0.01917999            6 
  815000   0.93613846   -7.7311642    187.36624  0.019158102  0.019162506            7 
  816000   0.94039068   -7.6998328     187.6948  0.019168178  0.019145132            7 
  817000   0.94190799   -7.7302947    188.64642  0.019241781  0.019127759           10 
  818000   0.93679381    -7.725029    187.86783   0.01913894  0.019110485            2 
  819000   0.92466939   -7.7196792    188.18336  0.019147676  0.019093223            5 
  820000   0.93584741   -7.7001896    188.30617  0.019136806  0.019075851            7 
  821000   0.91419067   -7.7562153    188.05902  0.019088411  0.019058453            8 
  822000   0.92583405   -7.7133749    188.64137  0.019124227  0.019041063            9 
  823000   0.95951119   -7.7526984     187.8469  0.019020545   0.01902364            8 
  824000   0.91896759   -7.7489781    187.98732  0.019011663  0.019006073            6 
  825000   0.92599881   -7.7681876    188.48905  0.019039298  0.018988697            8 
  826000   0.91486286   -7.7807908    187.78754  0.018945474  0.018971193            7 
  827000   0.91966171   -7.7678882    188.44779  0.018989096  0.018953827            4 
  828000   0.91869255   -7.7152984    189.04696  0.019026466  0.018936658            4 
  829000    0.9350894   -7.7425033    188.43828  0.018942328  0.018919541            5 
  830000   0.92886858   -7.7906536    188.84639  0.018960481   0.01890243            7 
  831000   0.91615049    -7.743841    189.15694  0.018968807  0.018885297            8 
  832000   0.92820601   -7.7691179    188.70948   0.01890119  0.018868122            8 
  833000   0.92038477   -7.7670848    188.81873  0.018889429  0.018851032            7 
  834000   0.93384222   -7.7912648    189.00722  0.018885613  0.018833726            8 
  835000   0.92461783    -7.752706    189.07629   0.01886989  0.018816422           13 
  836000   0.91046354   -7.7447173    189.07331   0.01884702  0.018799196            5 
  837000   0.91918893    -7.769667     189.1618  0.018833314  0.018782025           18 
  838000   0.92850097   -7.7757899     189.2305  0.018817671  0.018764822            5 
  839000   0.92340011   -7.7709836    188.99011  0.018771366  0.018747672           11 
  840000   0.92765042   -7.7723613    189.16811  0.018766678  0.018730432            5 
  841000   0.91532303   -7.7597423    189.22913  0.018750409  0.018713426            7 
  842000   0.91977909   -7.7387806    189.57148  0.018762023  0.018696416            6 
  843000   0.93544281   -7.7555064    189.78123  0.018760501  0.018679324            4 
  844000   0.91808166   -7.7703853    190.01583  0.018761436  0.018662319            2 
  845000   0.92345231   -7.8042936    189.20835  0.018659601  0.018645166            5 
  846000   0.91847338   -7.7847386    189.67068  0.018683085  0.018627962            6 
  847000   0.91200272   -7.8177663     189.2842  0.018623003  0.018610836            5 
  848000   0.90979142   -7.7536527      190.262  0.018697131  0.018593864            6 
  849000   0.90888532   -7.7469069    189.94931  0.018644416  0.018576852            4 
  850000   0.91846859   -7.7887737    190.00987  0.018628418  0.018560019            6 
  851000   0.92864618    -7.770451    190.37996  0.018642769  0.018543186            9 
  852000   0.89602709    -7.763544    190.45604   0.01862833  0.018526417            7 
  853000   0.89786743   -7.7706879    190.43002  0.018603948  0.018509562            4 
  854000   0.92828222   -7.7716738    190.50515  0.018589495  0.018492729            3 
  855000   0.90118864   -7.8051427     189.9765  0.018516228  0.018475699            4 
  856000   0.90908036   -7.7838794    190.13855  0.018510373  0.018458654            6 
  857000   0.91718984   -7.7800892    190.52413  0.018526267  0.018441534            7 
  858000   0.89805539   -7.8093889    190.05211  0.018458829  0.018424401            6 
  859000   0.89869494   -7.8303592    190.46113  0.018477021  0.018407354            8 
  860000   0.91227286   -7.8027329     190.3814   0.01844781  0.018390074            5 
  861000   0.91351524   -7.8120371    190.31561  0.018420017  0.018372673            7 
  862000   0.90986603   -7.8001065    190.42727  0.018409442  0.018355357           10 
  863000   0.90543241   -7.7627446    190.85135   0.01842906   0.01833816            7 
  864000   0.88897059    -7.778256    190.59077  0.018382597  0.018321043            3 
  865000   0.89059609   -7.7644057    191.08144  0.018408617  0.018304068            6 
  866000   0.87661365   -7.7872708    190.77521  0.018357892  0.018287109           16 
  867000   0.90974309   -7.7834834    191.05229  0.018363349  0.018270134            8 
  868000   0.89726311   -7.7668243    190.77062  0.018315152  0.018253163            5 
  869000   0.93125775   -7.7676397    191.00931  0.018316965  0.018236139            8 
  870000   0.89422641   -7.8368165    190.54584  0.018251518  0.018219164            5 
  871000   0.90361144   -7.7960352    191.51019  0.018322827  0.018202133           18 
  872000   0.90135015   -7.8005927    191.12732  0.018265225   0.01818526            6 
  873000   0.91821671   -7.8086643    190.86989   0.01821973  0.018168153           16 
  874000   0.91299959   -7.7590968    191.69311  0.018277375  0.018151106            6 
  875000   0.88664491   -7.7860103    190.91796  0.018182663  0.018134146            6 
  876000   0.89806579   -7.7914525    191.49758  0.018217045   0.01811722            5 
  877000   0.91316064   -7.8414696    190.99091  0.018148129  0.018100176            9 
  878000    0.8957278   -7.8123984    191.65362  0.018190359  0.018083038            7 
  879000   0.91307643   -7.7857331    191.04684  0.018112138  0.018065977           10 
  880000   0.89573579   -7.8032467    191.90956  0.018173253  0.018048882            6 
  881000   0.89535447   -7.8391331    191.00392  0.018066961   0.01803178            3 
  882000   0.89713217   -7.8040769    191.44987  0.018088612   0.01801471            7 
  883000    0.8852673   -7.8195411    190.72058    0.0179993   0.01799757            8 
  884000   0.89488565   -7.8404277    191.89708  0.018089845  0.017980353            8 
  885000   0.91227429   -7.8312643    191.05274    0.0179899  0.017963148           11 
  886000    0.9007266   -7.8236075    191.70903  0.018031323   0.01794608           15 
  887000   0.89285278   -7.8180246    191.66053  0.018006438  0.017929066            9 
  888000   0.88670903   -7.7966774    191.75609  0.017995129  0.017912085           11 
  889000    0.8940882    -7.808521    192.37918  0.018033293  0.017895196           10 
  890000   0.90072398   -7.7921006    191.60425  0.017940473   0.01787818            7 
  891000   0.90886966   -7.8030592    192.40389  0.017995126  0.017861374            8 
  892000   0.90448898   -7.8668564    192.12403  0.017948807  0.017844545            6 
  893000   0.89971647   -7.8294788    192.36835  0.017951507  0.017827796            6 
  894000   0.89542459   -7.8059677    193.06627  0.017996483  0.017811079            6 
  895000   0.89079905   -7.7761994    192.46181  0.017920094  0.017794557            6 
  896000   0.88399712   -7.8009492     193.0666  0.017956343  0.017777992            6 
  897000   0.89842785   -7.8081106    193.12614  0.017941856  0.017761453            4 
  898000    0.8983375   -7.8183018    193.05565  0.017915335  0.017744851            3 
  899000   0.89246841   -7.8331985    192.49124  0.017843088  0.017728145            5 
  900000    0.9149038   -7.8205304     192.6621  0.017839083  0.017711437            5 
  901000   0.88460237    -7.789782    192.83942  0.017835684  0.017694812            4 
  902000   0.89730578   -7.8471605    193.26839  0.017855542  0.017678263            7 
  903000   0.89641506   -7.8683241    193.42973  0.017850658    0.0176617            8 
  904000   0.90356784   -7.8732242     192.8539   0.01777783  0.017645158            7 
  905000   0.88380341   -7.8607281    192.91121  0.017763463  0.017628532           15 
  906000   0.91767833   -7.8830741    192.78323  0.017732085  0.017611902            7 
  907000   0.89917644   -7.8442448    193.39684  0.017768912  0.017595311            6 
  908000   0.89014503   -7.8278392    194.05925  0.017810137  0.017578916           10 
  909000    0.9081227   -7.8776958    193.14963  0.017707154  0.017562588            9 
  910000   0.89764392   -7.8453926    193.81205  0.017748356  0.017546334           16 
  911000    0.8828139   -7.8686698     193.8267  0.017730214  0.017530161           12 
  912000   0.88812576   -7.8471414    193.75082   0.01770384  0.017514017           19 
  913000   0.86864005   -7.8630895    193.79173  0.017688182  0.017497832           16 
  914000   0.90046097   -7.8697803    193.96918  0.017685009  0.017481674           23 
  915000   0.89543604   -7.8384015    194.23399  0.017689799  0.017465626           10 
  916000   0.89088277   -7.8456216    194.17783  0.017665378  0.017449548           17 
  917000   0.89137875   -7.8707221    194.37054  0.017663626  0.017433578           17 
  918000   0.88358665   -7.8293028    194.44829  0.017651442  0.017417485           18 
  919000   0.88553091    -7.846768    194.91704   0.01767474  0.017401371           12 
  920000   0.89151654   -7.8633506    194.09649  0.017581204  0.017385225           19 
  921000   0.88377022   -7.8495216     194.0566  0.017558505   0.01736913            8 
  922000   0.88244473   -7.8664921     194.0964  0.017543059  0.017352936            9 
  923000   0.87716682   -7.9097413    194.38136   0.01754978  0.017336864            8 
  924000   0.88282097   -7.8820494    194.51492  0.017542831  0.017320791            8 
  925000   0.89861063   -7.8816712    194.55457  0.017527438   0.01730481           16 
  926000   0.90450119   -7.8955979    194.65538  0.017517583  0.017288823            8 
  927000    0.8813834   -7.8644599    194.88001  0.017518879  0.017272981            5 
  928000   0.89949678   -7.8681405    194.68559  0.017482542  0.017256957            5 
  929000   0.88446193   -7.8653487    194.56018  0.017452474  0.017240923           15 
  930000   0.87430019   -7.8951544    194.73883  0.017449716  0.017224793           24 
  931000   0.86856958   -7.9100848     194.4992  0.017409524  0.017208797           22 
  932000   0.88329091   -7.8459489    195.05837  0.017440841  0.017192937           12 
  933000   0.88528323   -7.8531855    195.55338  0.017466362  0.017177173           10 
  934000   0.85612911   -7.8684142    194.98431  0.017396887  0.017161434            9 
  935000   0.87829695   -7.8985317    195.28218  0.017404829  0.017145545            3 
  936000   0.88136411   -7.9247797    195.11229  0.017371108  0.017129659           16 
  937000   0.88296132   -7.8940147    195.40477  0.017378582  0.017113696            6 
  938000   0.87610474   -7.8936543    194.98833  0.017323057  0.017097942            9 
  939000   0.87163159   -7.8796383    195.89058  0.017384681  0.017082196           11 
  940000   0.86616225   -7.8553478    195.87944  0.017365198  0.017066552            6 
  941000   0.86947932    -7.885482     195.8913  0.017347795  0.017050851           11 
  942000   0.89577412   -7.8620062      196.103  0.017348107  0.017035256            9 
  943000   0.86690993    -7.904212    195.85621  0.017307901  0.017019703           23 
  944000    0.8657945   -7.8659148    197.01682  0.017392021  0.017004278           14 
  945000   0.89218751    -7.875047    196.43203  0.017322048  0.016988854            5 
  946000   0.88632953   -7.9125451    195.80521  0.017248521   0.01697342            7 
  947000   0.87026047   -7.9070991    195.68932  0.017220109  0.016957937           11 
  948000   0.85706993   -7.9022777     196.1396  0.017241526  0.016942456           12 
  949000   0.86677309   -7.9149757    196.30359  0.017237758  0.016926999            4 
  950000   0.87596448   -7.9052922    196.25566  0.017215409  0.016911432            6 
  951000   0.86874807   -7.8842568    196.83101  0.017247723  0.016895969            7 
  952000   0.87832532   -7.8771342    196.49337   0.01720005  0.016880573            9 
  953000    0.8912786   -7.9020153    196.73595  0.017203213  0.016865247            4 
  954000   0.85817282   -7.9253105    196.63782  0.017176609  0.016849939           13 
  955000   0.88426015   -7.8760673    196.56873  0.017152594  0.016834505           11 
  956000   0.86431337   -7.8912049    197.04393  0.017176075  0.016819152           13 
  957000   0.87137656   -7.9280444    196.38525   0.01710077  0.016803779            7 
  958000   0.87580242   -7.9142575    196.78466  0.017117664  0.016788425           16 
  959000   0.85913498   -7.9322228    196.71222   0.01709352  0.016772981           24 
  960000   0.88223141   -7.9787865    196.68354  0.017073224  0.016757581           23 
  961000   0.87313083   -7.9089716    196.82013  0.017067302  0.016742095           13 
  962000   0.87304788    -7.925259     196.9714  0.017062665  0.016726753           18 
  963000    0.8560138   -7.9114229    196.51978  0.017005865  0.016711386           16 
  964000    0.8785462    -7.920823     197.2209  0.017048833  0.016696035           16 
  965000   0.85865154   -7.8923778    197.07752  0.017018784  0.016680703           23 
  966000   0.86660424   -7.9265924     196.4788  0.016949517  0.016665416           18 
  967000   0.87130481   -7.8881568     197.4907  0.017019192  0.016650032           14 
  968000   0.87225032   -7.8832278    197.41699  0.016995264  0.016634744           12 
  969000   0.87801765   -7.8745074    197.20668  0.016959639  0.016619394            7 
  970000    0.8555195   -7.9561557    197.02794  0.016926799  0.016604053           18 
  971000    0.8515743    -7.931103    196.81197  0.016890832  0.016588752           13 
  972000   0.87180607   -7.9364582    197.08024  0.016896454  0.016573364           23 
  973000   0.85491226   -7.9611036    196.93021  0.016866239  0.016557997           32 
  974000   0.87222459   -7.9698116    196.48116  0.016810503  0.016542671           31 
  975000   0.86568504   -7.9168682    197.60402  0.016889233  0.016527331           15 
  976000   0.86165913   -7.9277408    197.38098  0.016852884  0.016512134           19 
  977000   0.85575352   -7.9371364    197.80208  0.016871553  0.016496849            6 
  978000   0.87895155   -7.9546661    197.59899  0.016836996  0.016481663           15 
  979000   0.86492117   -7.9544423     197.3867  0.016801728  0.016466441           16 
  980000   0.87941814   -7.9528637    197.31215  0.016778244  0.016451205            7 
  981000   0.87032056    -7.930991    197.56387  0.016782524   0.01643601           27 
  982000   0.87048212   -7.9786369    197.51848  0.016761581  0.016420762           20 
  983000   0.87656465   -7.9497853    197.89306  0.016776285  0.016405569            4 
  984000   0.85727348   -7.9317977     197.8822  0.016758316  0.016390385           24 
  985000   0.86991254   -7.9769573    196.89767  0.016658009  0.016375163           17 
  986000   0.85562162   -7.9448588    197.88162  0.016724275  0.016359936           21 
  987000   0.88342144   -7.9174912    198.09033  0.016724952   0.01634475            4 
  988000   0.87450408   -7.9802001    197.70818  0.016675791  0.016329569           16 
  989000   0.85618997   -7.9960552    197.84824  0.016670732  0.016314429           10 
  990000   0.86453948   -7.9520584    198.14505  0.016678876  0.016299278            7 
  991000   0.85273549   -7.9557189    198.15616   0.01666298  0.016284263           10 
  992000   0.85746835   -7.9293154    198.78233  0.016698784  0.016269317           11 
  993000   0.87245836   -7.9574757    198.40405  0.016650222  0.016254336           20 
  994000   0.84548702   -7.9700525    198.05332  0.016604068  0.016239259           17 
  995000    0.8596002   -7.9671844    198.13844   0.01659451  0.016224253           10 
  996000   0.85019287   -7.9825089    198.11963  0.016576274  0.016209314            9 
  997000   0.85488043   -7.9646141    198.06586  0.016555154   0.01619432           18 
  998000   0.83760587   -7.9366448    198.40162  0.016566602  0.016179378           13 
  999000   0.82632715   -7.9661654    198.15346  0.016529317  0.016164393           16 
 1000000    0.8433954   -7.9731288    198.30931  0.016525776  0.016149316           33 
 1001000   0.84556936    -7.963317     197.9702  0.016481035  0.016134229           22 
 1002000   0.85197833   -7.9913367     197.7003   0.01644214  0.016119124           13 
 1003000   0.82713672   -7.9984387    197.98203  0.016449155  0.016103978           15 
 1004000   0.84871208   -7.9691992    198.18107  0.016449292  0.016088835           11 
 1005000    0.8500901   -7.9838847    197.59247  0.016384118  0.016073739           12 
 1006000   0.86694707   -7.9864132    198.12558  0.016411993  0.016058591           16 
 1007000   0.84553951   -7.9975289     198.3476  0.016414068  0.016043515            8 
 1008000   0.85920413   -8.0053743    198.19066   0.01638481  0.016028485           10 
 1009000   0.83874933    -7.978408    198.47595  0.016392133  0.016013539            5 
 1010000    0.8505691   -7.9947129    198.30672   0.01636194  0.015998573            6 
 1011000   0.84222519   -7.9861098    198.45743  0.016358179  0.015983543           11 
 1012000   0.86777805   -7.9851168     198.3959  0.016336948  0.015968615            7 
 1013000   0.85227694   -8.0098873    198.53373  0.016332159  0.015953676            6 
 1014000   0.85772705   -7.9801573     198.9404  0.016349474  0.015938735           17 
 1015000   0.85150117   -8.0001334    198.58172  0.016303918  0.015923892           31 
 1016000   0.84998688   -7.9731636    198.67916  0.016295863  0.015908942           11 
 1017000   0.85866676   -7.9995202    198.36854  0.016254387  0.015893965           23 
 1018000   0.84798121   -8.0198687    198.30089  0.016232883  0.015879064           20 
 1019000   0.86808068   -7.9968525    198.51985  0.016234859  0.015864093           21 
 1020000    0.8361541   -8.0331402    198.29559   0.01620062  0.015849113           26 
 1021000   0.83732157   -7.9973141     198.4746  0.016199363  0.015834266            7 
 1022000   0.84881223   -8.0428142    198.93915  0.016221392  0.015819371           11 
 1023000   0.83933959   -8.0041071    198.99213  0.016209851  0.015804505           25 
 1024000   0.82970055    -7.980358     198.7962  0.016178076  0.015789729           12 
 1025000   0.84027506   -7.9922012    199.91189  0.016252999  0.015774979           11 
 1026000   0.82704288   -7.9993607    199.19233  0.016178715  0.015760218           20 
 1027000    0.8376885   -8.0391697     199.0505  0.016151453  0.015745472           36 
 1028000   0.85021648   -8.0107641    199.48694   0.01617112   0.01573068           30 
 1029000   0.84273543   -8.0028177    199.05303  0.016120265  0.015715895           12 
 1030000   0.84791319   -8.0390467    198.95955  0.016097051  0.015701181           35 
 1031000   0.83318439   -8.0330443    199.11236  0.016093789  0.015686294           46 
 1032000   0.85695549   -8.0305763    199.48518  0.016108299  0.015671441           33 
 1033000   0.85090442   -8.0549416    198.47987  0.016011606  0.015656615           58 
 1034000   0.83953198   -8.0418388    198.55512  0.016002186  0.015641749           47 
 1035000   0.84524424   -8.0318083    198.70294  0.015998626  0.015626873           46 
 1036000   0.84764182   -8.0409608    198.79412  0.015990518  0.015611983           29 
 1037000   0.83497816   -8.0676092    199.21731  0.016009106  0.015597003           17 
 1038000   0.80946118   -8.0297958    199.17386  0.015990195  0.015582171           19 
 1039000   0.81997433   -8.0238985    199.22207  0.015978671  0.015567412           47 
 1040000   0.82135036   -8.0553539    198.70306  0.015921719  0.015552579           37 
 1041000   0.86114675   -8.0397822    199.44022  0.015965436  0.015537799           23 
 1042000   0.84798586   -8.0488384    198.80915  0.015899644  0.015522942           24 
 1043000   0.84126196   -8.0255397    199.09073  0.015906898   0.01550807           22 
 1044000   0.84417525   -8.0740589    198.88315  0.015875092  0.015493273           29 
 1045000   0.84092686   -8.0480489     199.2527   0.01588937  0.015478453           15 
 1046000   0.84660098   -8.0371878    199.46823   0.01589135  0.015463685           25 
 1047000   0.82429667     -8.06334    198.75441  0.015819358  0.015448808           17 
 1048000   0.82920533   -8.0970171    199.29714  0.015847419  0.015433947           31 
 1049000    0.8303421   -8.0762565    199.34534  0.015836141  0.015419073           16 
 1050000   0.84424088   -8.0774792    198.91193  0.015786661  0.015404226           21 
 1051000   0.80766636   -8.0652478    199.23717  0.015797428  0.015389336           21 
 1052000   0.82283635    -8.057976    198.99145  0.015762948   0.01537447           22 
 1053000   0.81703887   -8.0769172    198.75603  0.015729347  0.015359558           32 
 1054000   0.83522369   -8.0603115    198.58899  0.015701217  0.015344781           18 
 1055000   0.83445451   -8.0530464    198.78713  0.015701985  0.015330048            7 
 1056000   0.84015992   -8.0722905    198.86185  0.015693012  0.015315288           49 
 1057000   0.84423291   -8.0787607     199.3787  0.015718914  0.015300471           23 
 1058000   0.80498208   -8.0834249    199.47807  0.015711883  0.015285749           44 
 1059000   0.81621805   -8.0692144    199.46257  0.015695827  0.015271049           41 
 1060000   0.82092481   -8.0681522    199.58329  0.015690511  0.015256405           35 
 1061000   0.83544016   -8.0537813    199.32152  0.015655161  0.015241763           38 
 1062000   0.82712258   -8.0788566    200.31306  0.015718225  0.015227181           44 
 1063000   0.81915371   -8.0826519    199.71091  0.015656233  0.015212572           25 
 1064000   0.81847916   -8.1046727    199.43056  0.015619561  0.015197934           41 
 1065000   0.83579871   -8.0921322    199.34513   0.01559821  0.015183339           28 
 1066000   0.82175882   -8.0794076    199.63423  0.015606178  0.015168753           45 
 1067000   0.83003942   -8.0996711    199.29209  0.015564831  0.015154102           84 
 1068000   0.83003015   -8.0905641    199.63212  0.015576788  0.015139411           86 
 1069000   0.83501997   -8.1108293    199.38141  0.015542673  0.015124764           65 
 1070000   0.81903262   -8.0893415    199.34657  0.015525433  0.015110133           33 
 1071000   0.82451991   -8.0982392    199.65904  0.015535251  0.015095534           50 
 1072000   0.83462667   -8.0930886    199.69483  0.015523541  0.015080966           66 
 1073000   0.82041721    -8.101144    199.95217   0.01552906  0.015066396           42 
 1074000   0.82690178   -8.0535598    199.36446  0.015468999  0.015051817           31 
 1075000   0.82209453   -8.0557234    199.77365  0.015486329  0.015037265           54 
 1076000   0.82635151   -8.0692027    199.94882  0.015485503  0.015022787           43 
 1077000   0.81467175   -8.0896061    199.95236  0.015471399  0.015008371           59 
 1078000   0.82530623   -8.0420514    200.38958  0.015490846  0.014993969           44 
 1079000   0.82445922   -8.0588176    200.09531  0.015453762  0.014979584           58 
 1080000   0.80178559   -8.0941757    199.98879  0.015431234  0.014965244           64 
 1081000   0.80951207   -8.0691248    199.77304  0.015400327  0.014950849           53 
 1082000   0.80858111   -8.1006684     200.1066  0.015411784    0.0149365           50 
 1083000   0.83478287   -8.1180107    199.81659  0.015375238  0.014922069           46 
 1084000   0.81044069   -8.1268477    199.43666  0.015331846  0.014907627           41 
 1085000   0.83964366   -8.1007762    200.28925  0.015383199    0.0148932           37 
 1086000   0.82813869   -8.0966354    199.71759  0.015325168   0.01487884           18 
 1087000     0.824077   -8.0972907    200.32112  0.015357338   0.01486457           18 
 1088000   0.82081632   -8.1003386    200.44568  0.015352764  0.014850258           11 
 1089000   0.82547807    -8.115553      199.983   0.01530326  0.014835916            9 
 1090000   0.80526131   -8.1076089    200.05522  0.015294742  0.014821611           14 
 1091000   0.79932604   -8.1199759    199.88847  0.015267986   0.01480733           19 
 1092000   0.81265194   -8.1256047     199.7299  0.015241903  0.014792991           10 
 1093000   0.82173497   -8.0866889    200.43342  0.015281596  0.014778713           24 
 1094000    0.8173716     -8.12205    199.92773  0.015229108  0.014764429           32 
 1095000   0.80805282   -8.0859898    200.09334  0.015227804  0.014750115           14 
 1096000   0.82911537   -8.1022025    200.01271  0.015207779  0.014735781           23 
 1097000   0.80688757   -8.1240197    199.86354  0.015182584  0.014721493           22 
 1098000   0.81045303   -8.1158899    200.15536  0.015190905  0.014707226            8 
 1099000   0.80764322    -8.103316     200.1017  0.015173014  0.014692937           16 
 1100000   0.81875712   -8.1163364    200.21849  0.015168067  0.014678722           14 
 1101000   0.79910985   -8.0921266    199.99837   0.01513763  0.014664488           16 
 1102000   0.81996843   -8.0979479    200.38014  0.015152763  0.014650227           21 
 1103000   0.82186651   -8.1259691    200.44878  0.015144211  0.014636047           15 
 1104000   0.81534336    -8.063427    200.25285  0.015115704  0.014621926           12 
 1105000   0.81444788   -8.1158091    200.81881  0.015144707  0.014607837           10 
 1106000   0.81118004   -8.1115409    199.92064  0.015063339   0.01459372            8 
 1107000   0.80587443   -8.1128563    200.32891  0.015080466  0.014579609           16 
 1108000   0.80359165   -8.1193941    200.31455  0.015065775  0.014565487            8 
 1109000   0.81478192   -8.0957623    200.66273  0.015078353  0.014551351           10 
 1110000   0.80959182   -8.0920113    200.89581  0.015082268  0.014537295           29 
 1111000   0.80002753    -8.111524     200.1494  0.015012706  0.014523209            5 
 1112000   0.80752472   -8.1221807    200.66153  0.015037585  0.014509158           16 
 1113000   0.81114201     -8.09922    201.03611   0.01505212  0.014495238           18 
 1114000   0.81200847   -8.1160456    200.49211  0.014997913  0.014481275            9 
 1115000   0.82334724    -8.098359     200.9601  0.015019439  0.014467382           17 
 1116000   0.80788052   -8.1550318    200.47587  0.014969823  0.014453512           13 
 1117000   0.78989196   -8.1203124    200.59651  0.014965421  0.014439669            8 
 1118000   0.80646734   -8.0959535    201.38157  0.015010553  0.014425806           20 
 1119000   0.80398566   -8.1042904    200.49154  0.014930856  0.014411895           12 
 1120000   0.81684484   -8.1085462    200.82277   0.01494217  0.014397936           12 
 1121000   0.81075821   -8.1224424    200.88816  0.014933702  0.014384044           14 
 1122000   0.80775218   -8.1036317    200.80198  0.014913991  0.014370079           36 
 1123000   0.81276945   -8.1574192    200.70262  0.014893338  0.014356095           19 
 1124000   0.78665214   -8.1424134    200.68141  0.014878515  0.014342151           22 
 1125000   0.79474648   -8.1500977    200.34601  0.014840445  0.014328207           31 
 1126000   0.79743123   -8.1452203    200.82426   0.01486266  0.014314248           41 
 1127000   0.82398257   -8.1771026    200.80844  0.014848302  0.014300339           39 
 1128000   0.80134669   -8.1594086    200.24988  0.014793874  0.014286447           45 
 1129000   0.80284231   -8.1205642    200.88127  0.014827375  0.014272547           48 
 1130000   0.80828219   -8.1687602    200.40041  0.014778792  0.014258645           57 
 1131000   0.81102531   -8.1533911    200.12412  0.014745367  0.014244668           50 
 1132000   0.79504318   -8.1569941    201.01502  0.014797925   0.01423071           51 
 1133000   0.79641833   -8.1487707    200.77242  0.014767021  0.014216837           40 
 1134000   0.78950064   -8.1787712    200.49457  0.014733581  0.014202919           35 
 1135000   0.79956163   -8.1591338    200.61217  0.014729234  0.014189058           38 
 1136000   0.79749371   -8.1763409    200.42481  0.014702524  0.014175168            7 
 1137000   0.80660062   -8.1866867    200.22021  0.014674598  0.014161283            9 
 1138000   0.78726789   -8.1639547    200.30108  0.014667624  0.014147411           15 
 1139000   0.81997213   -8.1444428    200.95607  0.014702668  0.014133577           18 
 1140000    0.8040002   -8.1542089    200.74029  0.014673997   0.01411977           10 
 1141000   0.80940074   -8.1430941    201.15519   0.01469144  0.014105937           14 
 1142000   0.80899533   -8.1597835    200.71599  0.014646526  0.014092122            8 
 1143000   0.80336991   -8.1639545    201.21057   0.01466977  0.014078268           17 
 1144000   0.79281474   -8.1584048    200.52272  0.014606842  0.014064529            9 
 1145000   0.78957227    -8.162112    201.04223  0.014631895  0.014050753           27 
 1146000   0.79720704   -8.1986692    200.17343   0.01455595   0.01403697           12 
 1147000   0.80388865   -8.1836471     200.3938  0.014559271  0.014023174            9 
 1148000   0.79411063   -8.1643873    200.78002  0.014574624  0.014009403           12 
 1149000   0.79868963   -8.1510567    200.93475  0.014573161  0.013995612           15 
 1150000   0.80191984   -8.1531698    200.32166  0.014516063  0.013981772           10 
 1151000   0.79844341   -8.1767499    200.33401  0.014504345  0.013967926           27 
 1152000   0.79390001   -8.1879281    200.16048  0.014479201  0.013954098           10 
 1153000   0.79227615   -8.1683638    200.26607  0.014474275  0.013940247           15 
 1154000   0.80294077    -8.152694    200.31719  0.014465424   0.01392641           10 
 1155000   0.79047324   -8.1841163    200.59361  0.014472843  0.013912599           23 
 1156000   0.77840309   -8.1839685    200.78438  0.014474076  0.013898848           25 
 1157000   0.79985452   -8.1742617    200.55634  0.014445141   0.01388509           17 
 1158000   0.78337334   -8.2081028    200.15641  0.014403887  0.013871298           24 
 1159000   0.78572566   -8.2229219    200.14887  0.014390916  0.013857469           57 
 1160000   0.79215768   -8.1898148    200.51685  0.014404946  0.013843688           74 
 1161000   0.80252844   -8.2231318    200.30929   0.01437764  0.013829921           37 
 1162000   0.78418034   -8.2261755    200.15058  0.014353886  0.013816188           15 
 1163000   0.78398087   -8.1782168    200.53499  0.014369088  0.013802458           23 
 1164000   0.80708072   -8.1701972     200.4668  0.014351861  0.013788766           21 
 1165000   0.78812687   -8.1605461    200.74226  0.014359246  0.013775142           39 
 1166000   0.79137201   -8.2146793    200.71931  0.014345291  0.013761586           15 
 1167000   0.77787344   -8.2053445    200.90112  0.014345981  0.013748077           34 
 1168000   0.79773035   -8.2084109    200.49478  0.014304708  0.013734496           16 
 1169000   0.78758176   -8.1654476    200.96717  0.014326146  0.013720955           15 
 1170000   0.78867447   -8.2123904    200.48203  0.014279347  0.013707452           24 
 1171000   0.79461056   -8.1861571    200.66344  0.014280063  0.013693877            8 
 1172000   0.79006973   -8.1916129     200.6959  0.014270186  0.013680291           11 
 1173000   0.77368697   -8.2311495    200.56882  0.014248993  0.013666681           25 
 1174000   0.78569194    -8.203037    200.65299   0.01424283  0.013653132           15 
 1175000   0.80167935   -8.2215366    200.96556  0.014252877  0.013639623           23 
 1176000   0.77902626   -8.2142969    200.76346  0.014226436  0.013626137           31 
 1177000   0.78944628   -8.2525363    200.91867  0.014225338  0.013612697           33 
 1178000   0.79564694   -8.1978938    201.27873  0.014238733  0.013599243           31 
 1179000   0.77077994   -8.2180381    201.16895  0.014218897  0.013585873           38 
 1180000   0.80459936   -8.1886758    200.84459   0.01418394  0.013572533           24 
 1181000   0.78729659   -8.2087496    200.60778   0.01415522  0.013559172           20 
 1182000   0.79279474   -8.2205952    200.99152  0.014170299  0.013545823           39 
 1183000   0.78704765   -8.2556165    200.69867  0.014137692  0.013532417           42 
 1184000      0.78272   -8.2160743    201.09949  0.014153962  0.013518997           57 
 1185000   0.77869096   -8.2366615    200.89866  0.014127894  0.013505613           22 
 1186000   0.78034866   -8.2450435    201.03818  0.014125786  0.013492228           27 
 1187000   0.77534093   -8.2205232     200.9838  0.014110068  0.013478845           18 
 1188000   0.77875347   -8.2327174    200.50893   0.01406488  0.013465503           26 
 1189000   0.77547446   -8.2350193    200.59443  0.014059043  0.013452163           70 
 1190000   0.76397934   -8.2307953    200.90481  0.014068964  0.013438795           29 
 1191000   0.76647499    -8.251226    200.39819  0.014021704  0.013425404           62 
 1192000   0.76282914   -8.2522397    200.67884  0.014029561  0.013412037           58 
 1193000   0.78245343   -8.2331494    200.68699  0.014018371  0.013398685           51 
 1194000   0.77783992   -8.2572402    200.78779  0.014013665   0.01338534           22 
 1195000   0.77867281   -8.2476209    200.61313  0.013989758  0.013371992           20 
 1196000   0.77866386   -8.2649856    200.63577  0.013979638  0.013358709           29 
 1197000   0.77850087   -8.2387752    200.94956  0.013989805  0.013345342           19 
 1198000   0.78140443   -8.2673051    200.70952   0.01396143  0.013332041           10 
 1199000   0.79553715   -8.2754757    200.25687  0.013918326  0.013318688           16 
 1200000   0.77001566   -8.2491845    200.56787  0.013928324    0.0133054           18 
 1201000    0.7870903    -8.261408    200.31845   0.01389942  0.013292119           32 
 1202000    0.7623649   -8.2372723    201.03652   0.01393764  0.013278837           53 
 1203000   0.75905094   -8.2262534    200.30803  0.013875591  0.013265522           54 
 1204000   0.77539198   -8.2160024    200.94876  0.013908414  0.013252216           44 
 1205000   0.78969666   -8.2213295    200.91061  0.013894233   0.01323903           66 
 1206000   0.77844027   -8.2278913     200.3256  0.013842289  0.013225813           32 
 1207000   0.77302754   -8.2292859     200.9674  0.013875131  0.013212639           27 
 1208000   0.77016792   -8.2362641    200.75198  0.013848784  0.013199476           27 
 1209000   0.78925609   -8.2152147    201.05132  0.013857962  0.013186386           38 
 1210000   0.78395421   -8.2352681     200.8791  0.013834649  0.013173302           44 
 1211000   0.77122937   -8.2407868    200.85601  0.013821635  0.013160163           42 
 1212000   0.77212018   -8.2547398    200.85643   0.01381026  0.013147083           33 
 1213000   0.76263247   -8.2517917    201.25253  0.013826088  0.013134088           43 
 1214000   0.77630972   -8.2432501    201.13875  0.013806888  0.013121095           42 
 1215000   0.76631916   -8.2475241    200.75022  0.013768877  0.013108047           62 
 1216000   0.75988385   -8.2539353    200.78971   0.01376026     0.013095           40 
 1217000    0.7527323   -8.2826276    200.82721  0.013751521  0.013081957           34 
 1218000   0.77169911   -8.2296716    201.12009  0.013760269  0.013068935           33 
 1219000   0.75944988   -8.2466934    201.25687  0.013758331  0.013055974           42 
 1220000   0.75894272   -8.2331972    201.03823  0.013732119  0.013043023           52 
 1221000    0.7592879   -8.2290283    201.22597  0.013733686  0.013030117           38 
 1222000   0.75117531   -8.2369685    201.05242  0.013710612  0.013017225           26 
 1223000   0.78165359   -8.2236837    201.56788  0.013734525   0.01300434           23 
 1224000   0.76733623   -8.2426515    200.88069  0.013676518  0.012991475           61 
 1225000   0.77730209   -8.2551235    200.95759  0.013670584  0.012978575           53 
 1226000    0.7766735   -8.2582927    200.75496  0.013645661  0.012965693           55 
 1227000   0.77754208   -8.2978902     200.6115  0.013624796  0.012952733           64 
 1228000   0.76549312   -8.2773281    200.70267  0.013619888  0.012939788           48 
 1229000   0.76165809    -8.295757    200.87285  0.013620345  0.012926833           62 
 1230000   0.77050159    -8.262169    200.83375  0.013606623  0.012913907           49 
 1231000   0.76903103   -8.2984756    200.26843    0.0135573  0.012900977           83 
 1232000   0.74808719   -8.3161702    200.66539  0.013573146  0.012888018           70 
 1233000   0.75778737    -8.279256     200.3234  0.013539024  0.012875074           42 
 1234000   0.77079943   -8.2753368    201.10546  0.013580866   0.01286218           68 
 1235000   0.76192922   -8.3083499    201.14098  0.013572266  0.012849272           72 
 1236000   0.76591434   -8.3112057    200.26735  0.013502383  0.012836364           92 
 1237000   0.75456368   -8.2941595    200.84936  0.013530677   0.01282345           80 
 1238000   0.75371026   -8.2751083    200.73772  0.013512232  0.012810572           58 
 1239000   0.76602333   -8.2994058    200.10949  0.013459073  0.012797665          103 
 1240000   0.77054623   -8.2825988    200.55938  0.013478453  0.012784788           84 
 1241000     0.762392   -8.2988036    200.77118  0.013481814  0.012771899           72 
 1242000   0.74661375    -8.298608    200.67648  0.013464606  0.012759113           91 
 1243000    0.7357159   -8.3071189    200.88329  0.013467638  0.012746283           87 
 1244000   0.76516819   -8.3130311    200.69511  0.013444206  0.012733395           74 
 1245000   0.74773237   -8.3255638    199.88726  0.013379335  0.012720545           88 
 1246000   0.74563954   -8.3170383    200.70406  0.013423225  0.012707743          102 
 1247000   0.77274404   -8.3025309    200.26586  0.013383177  0.012694936           98 
 1248000   0.76484093    -8.313062    200.46267  0.013385595  0.012682099           81 
 1249000   0.74520645   -8.3170633    200.48881  0.013376622   0.01266931           82 
 1250000   0.75326357   -8.3484424    200.30206  0.013353471  0.012656473          113 
 1251000   0.75591991   -8.3419909    200.05485  0.013326329  0.012643621          127 
 1252000   0.74611963   -8.3181876    200.01429  0.013312985  0.012630781          132 
 1253000   0.75408806   -8.3321657    200.41209  0.013328817  0.012617964          125 
 1254000   0.75468131   -8.3328859    200.37379  0.013315643  0.012605134          143 
 1255000   0.74439955   -8.3525377    200.33394  0.013302387  0.012592361          148 
 1256000   0.76003208   -8.3433943    200.44211  0.013298972   0.01257958          131 
 1257000   0.74842941   -8.3417327    200.71553  0.013306519  0.012566779          157 
 1258000   0.75915392   -8.3312499      200.338  0.013270933  0.012553999          155 
 1259000   0.75517219   -8.3591118    199.90485  0.013231722  0.012541216          128 
 1260000   0.73782934   -8.3396067    200.20713  0.013241212  0.012528448          132 
 1261000   0.72526094   -8.3515815    199.80786  0.013204326  0.012515673          157 
 1262000   0.75153727   -8.3548655    200.16966  0.013217754  0.012502906          135 
 1263000   0.76307906   -8.3360993    200.04557  0.013199101  0.012490194          142 
 1264000   0.73952022   -8.3381795    200.12914  0.013194168  0.012477524          136 
 1265000   0.74083202   -8.3181312    200.15614  0.013185516  0.012464846          205 
 1266000   0.75665767   -8.3595685    199.90778  0.013158753  0.012452151          172 
 1267000   0.73764221   -8.3636358    200.25204   0.01317101  0.012439475          171 
 1268000   0.73029166   -8.3426451    200.36019  0.013167731  0.012426799          260 
 1269000   0.73645963   -8.3429505    200.24889  0.013150045  0.012414142          165 
 1270000   0.74281969   -8.3430721     199.7369  0.013106096  0.012401515          179 
 1271000   0.75469753   -8.3540772    200.08484  0.013118597  0.012388892          217 
 1272000   0.73803916   -8.3647329    199.96623  0.013100513  0.012376308          241 
 1273000   0.74342502   -8.3778497    200.09354  0.013098556  0.012363698          227 
 1274000   0.73479143   -8.3639436    199.95819  0.013079421  0.012351101          215 
 1275000   0.74760113    -8.364289    200.14811  0.013081576  0.012338545          212 
 1276000   0.74668898   -8.3520957    199.80567   0.01304896  0.012326011          180 
 1277000   0.73535728   -8.3551068    200.22526  0.013066123  0.012313476          193 
 1278000   0.74450441   -8.3626241    199.82703  0.013029932  0.012300965          191 
 1279000   0.74189377   -8.3317533    200.51346  0.013064468  0.012288467          181 
 1280000   0.73032236   -8.3736529    199.59381  0.012994389  0.012275981          193 
 1281000   0.76536774   -8.3548031    200.24894  0.013026863  0.012263481          240 
 1282000   0.74102463   -8.3627917    199.95708   0.01299773  0.012250974          174 
 1283000   0.74372887   -8.3669346    199.93937  0.012986449  0.012238475          172 
 1284000   0.74973567   -8.3942281    199.95263  0.012977195  0.012226008          190 
 1285000   0.73872761   -8.3627524    200.35022  0.012992881  0.012213595          183 
 1286000   0.73541898   -8.3662583    200.27188  0.012977701  0.012201131          166 
 1287000   0.71721661   -8.3670733      200.075  0.012954869  0.012188699          212 
 1288000   0.73951848   -8.3553833     200.1641  0.012950576   0.01217625          185 
 1289000   0.73476984   -8.3679686    200.18462  0.012941856   0.01216383          225 
 1290000    0.7535884    -8.372847     199.9522  0.012916809   0.01215142          202 
 1291000   0.71778068   -8.3916644    200.30584  0.012929631  0.012138991          245 
 1292000   0.74020431   -8.3990376    199.65939  0.012877928  0.012126586          290 
 1293000   0.74015772   -8.3754051    200.13761  0.012898789  0.012114181          221 
 1294000   0.73024129   -8.3953531    200.15626  0.012890022  0.012101817          275 
 1295000   0.74437496   -8.3840859    199.72825  0.012852525  0.012089437          292 
 1296000   0.73653497   -8.3853468    200.01569  0.012861091  0.012077102          327 
 1297000   0.74130091   -8.3800537    200.27164   0.01286762  0.012064748          264 
 1298000   0.74110674   -8.4226971    199.76497  0.012825178  0.012052437          193 
 1299000   0.73625838   -8.3570965    199.83744  0.012819954  0.012040122          272 
 1300000   0.74051661   -8.3754276    199.84378  0.012810499  0.012027819          208 
 1301000   0.74415505   -8.3501234    200.03114  0.012812653   0.01201556          245 
 1302000    0.7226616   -8.3683233     200.5092   0.01283341   0.01200331          188 
 1303000   0.74890598   -8.4191808    199.84905  0.012781341  0.011991097          235 
 1304000   0.74518861   -8.3924242    200.50094  0.012813199  0.011978902          288 
 1305000   0.71438988   -8.3861538    200.08691  0.012776942  0.011966736          260 
 1306000   0.73496407    -8.389235    200.23089  0.012776346  0.011954603          229 
 1307000   0.72289605   -8.3943482    200.17684  0.012763124  0.011942439          292 
 1308000   0.73710319   -8.4120375    200.54391  0.012776753  0.011930278          339 
 1309000     0.731185   -8.4098992    200.03286  0.012734458  0.011918152          264 
 1310000   0.73372005   -8.4081419    200.29645  0.012741504  0.011906007          334 
 1311000   0.73014461   -8.4126831     199.9214  0.012707946  0.011893879          328 
 1312000   0.72225536    -8.426382     200.4358  0.012730933  0.011881769          346 
 1313000   0.71383195   -8.4320333    200.22068  0.012707583  0.011869627          258 
 1314000   0.73387335   -8.4149407    200.01154  0.012684648  0.011857507          223 
 1315000   0.74703823   -8.4044755     200.2871  0.012692465  0.011845422          393 
 1316000   0.72918423   -8.3752231    200.53977   0.01269882  0.011833367          219 
 1317000   0.72630256   -8.3980179     199.8871   0.01264788  0.011821316          233 
 1318000    0.7259875   -8.3994752    199.78605  0.012631895  0.011809321          216 
 1319000   0.72417609   -8.3890543    199.83444  0.012625375  0.011797293          296 
 1320000   0.72029744   -8.4344493    199.78219  0.012612512  0.011785279          217 
 1321000   0.72840795   -8.3956498     200.3643  0.012639686  0.011773327          229 
 1322000   0.72199977   -8.4071237    200.54208  0.012641332  0.011761377          553 
 1323000   0.72647592   -8.4243412    200.58913   0.01263474   0.01174946          190 
 1324000   0.72209834   -8.4266941    200.18804  0.012599952  0.011737516          487 
 1325000   0.72028676   -8.4145098     200.3908  0.012603195  0.011725592          556 
 1326000   0.70137127   -8.4498136    199.80413  0.012556821  0.011713694          524 
 1327000   0.73173282   -8.4023287    200.10063  0.012565978   0.01170181          471 
 1328000   0.72820348   -8.4040876    200.19895  0.012562685  0.011689966          483 
 1329000   0.72770057   -8.4310375    200.36729  0.012563788  0.011678106          485 
 1330000   0.72091786   -8.4277495    199.56453  0.012504043  0.011666239          323 
 1331000   0.70887883   -8.4060521    200.09349  0.012527767  0.011654413          308 
 1332000   0.72157089   -8.4259242    199.92613  0.012507891  0.011642565          462 
 1333000   0.72472834   -8.4225679     200.2891  0.012521199  0.011630758          365 
 1334000   0.72582847   -8.4321317    200.45941  0.012522452  0.011618983          395 
 1335000   0.73113861   -8.4204901     200.3751  0.012507809  0.011607215          300 
 1336000   0.73315934   -8.4336395    200.02553  0.012476642  0.011595443          512 
 1337000   0.73164536   -8.4367186    199.98656  0.012464881  0.011583634          518 
 1338000   0.72831958   -8.4268799    199.59347  0.012431083  0.011571886          363 
 1339000   0.72718728   -8.4367672    200.31679  0.012466815  0.011560145          539 
 1340000   0.72987885   -8.4206388    200.07052  0.012442197  0.011548426          283 
 1341000   0.71482314   -8.4466015     199.5426  0.012400112  0.011536726          488 
 1342000   0.72492351   -8.4030062    200.35139  0.012441095  0.011525001          607 
 1343000   0.70579728   -8.4418945     200.1874  0.012421655  0.011513316          584 
 1344000   0.70495864    -8.457599    199.47915  0.012368499  0.011501629          722 
 1345000   0.72024905   -8.4452873     199.5571  0.012364132  0.011489905          703 
 1346000   0.69333111   -8.4682813    199.95861  0.012379805  0.011478187          613 
 1347000   0.71601241   -8.4261147    199.74464  0.012357377  0.011466488          736 
 1348000   0.73085448    -8.446787    199.72109  0.012346754  0.011454783          670 
 1349000   0.70717172   -8.4429918    199.65121  0.012333284  0.011443095          587 
 1350000    0.7141141   -8.4233976    200.08632  0.012351007  0.011431461          595 
 1351000    0.7173484   -8.4536076     199.7295  0.012319856  0.011419865          632 
 1352000   0.72670042   -8.4434331    200.01272    0.0123282  0.011408276          672 
 1353000   0.72840329   -8.4589241     199.5773   0.01229227  0.011396683          633 
 1354000   0.71007546   -8.4408809    199.69689  0.012290552  0.011385101          727 
 1355000   0.71064364   -8.4602183    199.79325  0.012287408  0.011373512          710 
 1356000   0.72788502   -8.4354987    199.97141  0.012289295  0.011361958          649 
 1357000   0.71596159   -8.4701682    199.55176  0.012254468  0.011350411          569 
 1358000   0.71139285   -8.4296102    200.23928  0.012287634  0.011338862          748 
 1359000   0.71143335   -8.4439217    199.66641  0.012243464  0.011327319          624 
 1360000   0.69686893   -8.4623507    199.89757  0.012248626  0.011315794          712 
 1361000   0.69772256   -8.4697401    199.67448  0.012225966    0.0113043          758 
 1362000   0.70736996   -8.4501506    200.18688  0.012248341  0.011292819          629 
 1363000   0.72736578   -8.4876465    199.37022  0.012189424  0.011281329          715 
 1364000   0.71751802   -8.4686397    199.82898  0.012208515   0.01126985          565 
 1365000   0.70084414   -8.4778592    199.69391  0.012191325  0.011258373          654 
 1366000   0.69907963   -8.4685415    199.98146  0.012199943  0.011246901          729 
 1367000   0.71307471   -8.4677465    199.28984  0.012148857  0.011235464          721 
 1368000   0.71612514   -8.4742218    199.64277  0.012161475  0.011224044          736 
 1369000   0.69694531   -8.4815125    199.62051  0.012151236  0.011212626          675 
 1370000   0.69952956    -8.468096    199.81792  0.012154375  0.011201206          555 
 1371000   0.69441949   -8.4693585    199.35518  0.012117383  0.011189781          666 
 1372000   0.70959751   -8.4739492     199.4802  0.012116144  0.011178358          723 
 1373000   0.70373677   -8.4903601    199.52099  0.012109796  0.011166959          695 
 1374000   0.68610433   -8.4867828    199.81887  0.012119048  0.011155588          548 
 1375000   0.69490259   -8.5063158    199.14941  0.012069661  0.011144238          749 
 1376000   0.70746665   -8.4780824    199.84052  0.012102745  0.011132887          743 
 1377000   0.70624725   -8.4858583    199.58355  0.012078404  0.011121517          732 
 1378000   0.70606443   -8.4941261    199.31983  0.012053691  0.011110163          669 
 1379000   0.70617652   -8.5210327    199.04323  0.012028235  0.011098853          745 
 1380000   0.70728718   -8.4908562    199.72757  0.012060844  0.011087571          810 
 1381000   0.70390645   -8.4908376    199.21924  0.012021436  0.011076281          691 
 1382000   0.70254711   -8.5036435    199.45384  0.012026884  0.011064998          818 
 1383000   0.71748866   -8.4839176    199.54125  0.012023454  0.011053735          655 
 1384000   0.71773966   -8.4846458     199.3134  0.012001048  0.011042499          836 
 1385000   0.70756919   -8.5167594    199.62259  0.012010986  0.011031262          815 
 1386000   0.70955251   -8.4892771    199.87952  0.012017768  0.011020036          747 
 1387000   0.69443244   -8.4841655    199.65141  0.011995398  0.011008826          699 
 1388000   0.70951859   -8.4959497    199.66492  0.011987567   0.01099761          763 
 1389000   0.70716031   -8.5053829    199.57061  0.011973279  0.010986442          759 
 1390000   0.69242906   -8.5290629    199.40131  0.011954515  0.010975259          847 
 1391000   0.69619964   -8.5284499    199.14979  0.011930853  0.010964084          689 
 1392000   0.69561923   -8.5111449    199.66631  0.011953204  0.010952919          666 
 1393000   0.68726697   -8.5324762    199.04864  0.011907672   0.01094175          827 
 1394000   0.69929375   -8.5050959    199.74665  0.011940857  0.010930608          828 
 1395000   0.71461966   -8.5140623    199.56247  0.011921295  0.010919509          813 
 1396000   0.69662073   -8.5268868    199.44125  0.011905519  0.010908406          839 
 1397000   0.68741857   -8.5064949    199.69366  0.011912053  0.010897313          812 
 1398000   0.70503091   -8.5114617    199.02924  0.011863927  0.010886231          727 
 1399000   0.69905669   -8.5175572    199.49956  0.011883462  0.010875142          688 
 1400000   0.69592206   -8.5368753     199.0187  0.011846351  0.010864095          740 
 1401000   0.69375989   -8.5508378    199.21616  0.011849641  0.010853039          770 
 1402000   0.68044287   -8.5164655    199.19855  0.011840142  0.010842009          722 
 1403000   0.69022363   -8.4994064    199.30314  0.011837915  0.010830985          768 
 1404000   0.69846777   -8.5256547    199.33993  0.011831667  0.010819964          837 
 1405000   0.70650267   -8.5075903    199.14155   0.01181148   0.01080896          842 
 1406000   0.69557265   -8.5479077    199.16277  0.011804337  0.010797977          822 
 1407000   0.68722029   -8.5297659    199.52212   0.01181723  0.010787017          660 
 1408000   0.68493468   -8.5320849    199.20172  0.011789875  0.010776081          603 
 1409000   0.70070056   -8.5088278    199.34052  0.011789716  0.010765132          869 
 1410000   0.68719789   -8.5275929    199.13471  0.011769191  0.010754203          837 
 1411000    0.6890251   -8.5448238    199.23587  0.011766824   0.01074325          871 
 1412000   0.68629605   -8.5282641     199.8239  0.011793195  0.010732336          697 
 1413000   0.68078303   -8.5332018    199.30553  0.011754278  0.010721439          828 
 1414000   0.71247396   -8.5399201    199.41971  0.011752694   0.01071056          732 
 1415000   0.67611815    -8.553471    199.44503  0.011745879  0.010699682          923 
 1416000   0.68850245   -8.5562883    199.26502   0.01172699  0.010688836          754 
 1417000    0.6874763   -8.5605561    199.38481  0.011725759  0.010677992          983 
 1418000   0.67321435    -8.526137    199.49718  0.011724094   0.01066715          908 
 1419000   0.68255445   -8.5532086    199.06582  0.011690499   0.01065632          867 
 1420000   0.67135866   -8.5608166    199.15951  0.011687764  0.010645494          775 
 1421000   0.68823015   -8.5551541    199.22662  0.011683475  0.010634692          780 
 1422000   0.66834999   -8.5368899    199.38645  0.011684625  0.010623875          795 
 1423000   0.69691453   -8.5763032    199.01398  0.011654602  0.010613089          861 
 1424000   0.69452641   -8.5599979    199.27475  0.011661678  0.010602297          947 
 1425000   0.67231431   -8.5568951    199.27654  0.011653599  0.010591549          833 
 1426000   0.68472224   -8.5525625    199.22586  0.011642465  0.010580804          968 
 1427000   0.67252112   -8.5764999    199.02165  0.011622381  0.010570071          880 
 1428000   0.67631916   -8.5482227    199.07273  0.011617223  0.010559326          781 
 1429000   0.69245662   -8.5620866    198.74955  0.011590247   0.01054861          969 
 1430000   0.67542363   -8.5250164    199.15741   0.01160591  0.010537895          692 
 1431000   0.69222693   -8.5497293    198.82068   0.01157819  0.010527196          977 
 1432000    0.6873157   -8.5568959    199.39168  0.011603333  0.010516514         1005 
 1433000   0.68144953   -8.5743879    199.21179  0.011584775  0.010505833          853 
 1434000    0.6812246   -8.5790028    199.11568  0.011571111   0.01049515         1033 
 1435000   0.67911896   -8.5695378    199.12273  0.011563457  0.010484508          987 
 1436000   0.68503784   -8.5741104    199.05791  0.011551643  0.010473891          885 
 1437000   0.68472395   -8.5639893    199.04023  0.011542579  0.010463271          968 
 1438000   0.68960546   -8.5483378    199.29141  0.011549108  0.010452656          999 
 1439000   0.66259438   -8.5617137    199.18726  0.011535051  0.010442049          982 
 1440000   0.68558305   -8.5606263    198.85837  0.011508008  0.010431447         1017 
 1441000   0.66852295   -8.5819801    198.93499  0.011504452  0.010420846         1075 
 1442000   0.66757225   -8.5552514    198.77967  0.011487498  0.010410263          979 
 1443000   0.68880133    -8.570478    199.01891  0.011493353  0.010399697          896 
 1444000   0.67976298   -8.5580816    198.99872  0.011484229  0.010389129          977 
 1445000    0.6907873   -8.5523264    198.96557   0.01147437  0.010378582          874 
 1446000   0.68736962   -8.5509994    198.85324  0.011459961  0.010368054         1031 
 1447000   0.66686842   -8.5924649    198.87642  0.011453376   0.01035752         1074 
 1448000   0.66794868   -8.5780262    198.98408  0.011451662  0.010347002         1054 
 1449000   0.66295478   -8.5704764    198.79861  0.011433092  0.010336519         1029 
 1450000   0.70081247   -8.5694103    199.18457  0.011447389  0.010326054         1125 
 1451000   0.68021793   -8.5838146    199.38096  0.011450779   0.01031558          933 
 1452000   0.66766413   -8.5993859      199.236  0.011434573  0.010305113         1067 
 1453000   0.67119157   -8.5679961    199.26131  0.011428155  0.010294664         1123 
 1454000   0.66145047   -8.5915894    198.87075  0.011397911  0.010284209         1103 
 1455000   0.66804464   -8.6027023    198.63797  0.011376745  0.010273765         1084 
 1456000   0.67554023   -8.5887537    198.90492   0.01138421   0.01026334         1136 
 1457000   0.66807193   -8.5894144    198.91601  0.011377031  0.010252939         1089 
 1458000   0.66001321   -8.5982859    198.37621  0.011338375  0.010242538         1122 
 1459000   0.68018872   -8.5747928    198.74379  0.011351599  0.010232155         1071 
 1460000   0.66717933   -8.5768384    198.72259  0.011342614  0.010221801         1080 
 1461000   0.66185326   -8.5903715    198.84499  0.011341832   0.01021145         1067 
 1462000   0.66158544    -8.607656    198.58256  0.011319115  0.010201101         1025 
 1463000   0.67148581   -8.5779915    198.63815  0.011314545  0.010190767         1028 
 1464000   0.68479283   -8.5865653    199.09576  0.011332864  0.010180448         1085 
 1465000   0.65907728   -8.6137268    199.06987  0.011323656  0.010170136         1141 
 1466000    0.6544193   -8.5924362    198.70839  0.011295383  0.010159838         1185 
 1467000   0.66531424   -8.5968637    198.90684  0.011298957  0.010149567          980 
 1468000   0.66150953    -8.607859    198.61444  0.011274661  0.010139308         1143 
 1469000    0.6629822   -8.6325009    198.53043  0.011262221  0.010129053         1196 
 1470000   0.65446519   -8.6061914    198.79877  0.011269771    0.0101188         1124 
 1471000    0.6744883   -8.5870836    199.06627  0.011277265  0.010108567         1111 
 1472000   0.66434918   -8.5934394    198.52466  0.011238941  0.010098342         1045 
 1473000   0.67749635   -8.6138141    198.69404  0.011240894  0.010088126         1172 
 1474000   0.66642237   -8.6068879    199.14577  0.011258806  0.010077947         1089 
 1475000   0.65818905   -8.6121783    198.74204  0.011228364  0.010067755         1107 
 1476000   0.66779254   -8.6035462    198.94898   0.01123244  0.010057587         1177 
 1477000   0.63761968   -8.6278367    198.67025  0.011209109  0.010047433         1167 
 1478000    0.6581887   -8.6148618    198.82951  0.011210504  0.010037282         1189 
 1479000   0.66650029   -8.6224755    198.81321  0.011202006  0.010027144         1162 
 1480000   0.65403789   -8.6365596    198.43941   0.01117339   0.01001701         1283 
 1481000   0.65325453   -8.6461853     198.8048  0.011186406  0.010006899         1224 
 1482000   0.65515876   -8.6220513     198.4704  0.011160054 0.0099967927         1224 
 1483000   0.66278427   -8.6300587      198.896  0.011176444 0.0099866884         1253 
 1484000   0.65565771   -8.6495362    198.39133  0.011140573 0.0099766079         1168 
 1485000    0.6578945   -8.6640849    198.32161  0.011129159 0.0099665172         1312 
 1486000   0.65019335   -8.6459955    198.42917  0.011127701 0.0099564355         1276 
 1487000   0.66004772   -8.6399638    198.53595  0.011126202 0.0099463843         1179 
 1488000   0.65853141   -8.6326703    199.02308  0.011146006 0.0099363543         1259 
 1489000   0.68636464   -8.6276413    198.70888  0.011120936  0.009926321         1235 
 1490000   0.66389906   -8.6426195    198.64109  0.011109681 0.0099163015         1401 
 1491000   0.65712547   -8.6495298    198.53741  0.011096435 0.0099063078         1336 
 1492000   0.64949486   -8.6563356     198.5185  0.011087941 0.0098963012         1224 
 1493000   0.66309113   -8.6265289    198.62137  0.011086256 0.0098863135         1134 
 1494000   0.67787654    -8.621902    198.87356  0.011092902 0.0098763357         1252 
 1495000   0.66064442   -8.6451597    198.58638  0.011069475 0.0098663522         1289 
 1496000   0.65199898   -8.6315874    198.35024  0.011048921 0.0098563576         1146 
 1497000   0.65569101    -8.646524    198.56048  0.011053244 0.0098463986         1281 
 1498000   0.65275248    -8.649527    198.00847  0.011015157 0.0098364368         1167 
 1499000   0.66066025   -8.6771095    198.12091   0.01101406 0.0098264911         1178 
 1500000   0.66029976   -8.6230416    198.35477  0.011019709  0.009816569         1129 
 1501000   0.66204767   -8.6363545    198.47568  0.011019081 0.0098066547         1338 
 1502000     0.652535   -8.6466742    198.61965  0.011019732  0.009796778         1220 
 1503000   0.65231778   -8.6461135     198.0859  0.010982807 0.0097868958         1333 
 1504000   0.64552479   -8.6690348     198.1136  0.010977039 0.0097770183         1278 
 1505000   0.66051699   -8.6552556    198.25461  0.010977553 0.0097671507         1235 
 1506000    0.6521512   -8.6535758    198.14629   0.01096427 0.0097573275         1293 
 1507000   0.65442466   -8.6644881    198.49767  0.010976425  0.009747483         1351 
 1508000   0.65223682   -8.6779267    198.08948  0.010946589 0.0097376434         1327 
 1509000    0.6547649   -8.6376607    198.36153  0.010954359  0.009727822         1335 
 1510000   0.65517207   -8.6540626    198.22229   0.01093942  0.009718008         1259 
 1511000   0.64529399   -8.6584699    198.28412   0.01093559 0.0097082002         1355 
 1512000   0.63879368   -8.6792533     198.3343  0.010931123 0.0096983997         1322 
 1513000   0.63857639   -8.6712877     198.4577  0.010930695 0.0096886112         1405 
 1514000   0.66319705   -8.6736096    198.63475   0.01093322 0.0096788304         1301 
 1515000   0.66345382   -8.6451196    198.18955  0.010901515 0.0096690677         1244 
 1516000   0.63567936   -8.6728232      198.212  0.010895559   0.00965933         1308 
 1517000   0.64252347   -8.6536444    198.40058  0.010898736 0.0096495978         1310 
 1518000   0.63298183    -8.677336    198.16125  0.010878417 0.0096398732         1250 
 1519000   0.66218135   -8.6792253    197.90688  0.010857301 0.0096301545         1244 
 1520000   0.63925542   -8.6631249    198.56846  0.010886429 0.0096204483         1230 
 1521000   0.65068548   -8.6715615      198.263  0.010862536 0.0096107611         1314 
 1522000   0.64279588   -8.6914131    198.38835  0.010862262 0.0096010688         1364 
 1523000   0.63937631   -8.6766405    198.24664  0.010847376 0.0095913885         1279 
 1524000   0.64621543   -8.6824705    198.24499  0.010840168 0.0095817363         1440 
 1525000    0.6542571   -8.6734472    197.85272  0.010811624 0.0095720769         1403 
 1526000   0.66510736   -8.6797271    198.06454  0.010816106 0.0095624415         1435 
 1527000   0.65816259   -8.6551464    198.45083  0.010830104 0.0095528093         1384 
 1528000   0.64512605   -8.7021582    197.68309  0.010781146 0.0095431741         1470 
 1529000   0.63784983   -8.6932695    197.75196  0.010777848 0.0095335416         1383 
 1530000     0.645953   -8.6912116    197.82311  0.010774679 0.0095239265         1438 
 1531000   0.65669728   -8.6969309    197.92316  0.010773087 0.0095143274         1432 
 1532000   0.63705627   -8.6946017    197.85424  0.010762306 0.0095047283         1462 
 1533000   0.65246988   -8.7049759    198.40859   0.01078542 0.0094951592         1533 
 1534000   0.64306746   -8.6772757    198.16777  0.010765307 0.0094856077         1468 
 1535000   0.63766836   -8.6649243    197.98915  0.010748597 0.0094760501         1445 
 1536000    0.6449719   -8.6904006    197.71817  0.010726897 0.0094665038         1369 
 1537000   0.64803367   -8.6699995    197.86535  0.010727898 0.0094569769         1393 
 1538000     0.650144   -8.6793069    198.52366  0.010756592 0.0094474637         1381 
 1539000   0.64773186   -8.6845011    198.23359  0.010733896 0.0094379628         1451 
 1540000    0.6289818   -8.7025676    197.95968  0.010712104 0.0094284687         1516 
 1541000   0.64511743    -8.711098    197.91297  0.010702626 0.0094189762         1566 
 1542000   0.63793437   -8.7094907    198.13332  0.010707594 0.0094094906         1583 
 1543000   0.63170747   -8.6892987    197.90456    0.0106883 0.0094000218         1571 
 1544000   0.62583893    -8.722732    197.94999  0.010683829 0.0093905648         1437 
 1545000   0.62962186   -8.7027868    198.16051  0.010688269 0.0093811164         1623 
 1546000    0.6396254   -8.7252431    197.78429  0.010661076 0.0093716727         1563 
 1547000   0.63564719    -8.706556    198.13446  0.010673048 0.0093622418         1375 
 1548000   0.63741391   -8.7212807    198.14821  0.010666893 0.0093528464         1549 
 1549000   0.63777421   -8.6987448    198.06314   0.01065543 0.0093434587         1539 
 1550000   0.62923319   -8.6990442    197.88235  0.010638836 0.0093340804         1354 
 1551000   0.63414143   -8.7006526    198.08781  0.010643016 0.0093247216         1546 
 1552000   0.62126958    -8.721986    197.84848  0.010623308 0.0093153653         1427 
 1553000   0.63218721   -8.6927421    197.88111  0.010618218 0.0093060237         1447 
 1554000   0.63098569   -8.7144213    197.85261  0.010609857 0.0092966856         1619 
 1555000   0.63363624   -8.7107931    197.79535  0.010599965 0.0092873571         1600 
 1556000   0.62827133   -8.7048858      197.675  0.010586707 0.0092780522         1467 
 1557000   0.62813449   -8.7273009    197.77292  0.010585149 0.0092687407         1552 
 1558000   0.61083351   -8.7193765    197.81871  0.010580804 0.0092594484         1571 
 1559000   0.63058457   -8.7124746    197.78301  0.010572109  0.009250179         1504 
 1560000   0.62653771   -8.6982454    197.95256  0.010574389 0.0092409228         1521 
 1561000   0.63399711   -8.7322845    198.00137   0.01057022 0.0092316736         1650 
 1562000   0.63269292   -8.7402262    197.50127  0.010536773  0.009222415         1639 
 1563000   0.63633677   -8.7339129    197.69571  0.010540398 0.0092131826         1620 
 1564000   0.62595877   -8.6997879    197.94829  0.010547117 0.0092039587         1655 
 1565000   0.61756954   -8.7444058    197.88089  0.010536789 0.0091947508         1731 
 1566000   0.62807436   -8.7229734    197.67904  0.010519319 0.0091855476         1675 
 1567000   0.62154515   -8.7289625      197.843  0.010521325 0.0091763581         1685 
 1568000   0.62537127   -8.7184574    197.86881  0.010515987 0.0091671763         1656 
 1569000   0.63711685   -8.7448168    197.63317  0.010496769 0.0091579966         1715 
 1570000   0.63684538   -8.7344824    197.56267  0.010486341 0.0091488186         1666 
 1571000   0.61985049   -8.7448132     197.7207  0.010488049 0.0091396595         1658 
 1572000    0.6172907    -8.760751    197.52241  0.010470865 0.0091305133         1715 
 1573000   0.63108909   -8.7461888    197.85534  0.010481847 0.0091213898         1697 
 1574000   0.63163447    -8.739812    197.97856  0.010481711 0.0091122639         1756 
 1575000   0.61725664   -8.7204762    198.11182  0.010482107 0.0091031467         1713 
 1576000     0.623467   -8.7308442    197.79422  0.010458662  0.009094041         1728 
 1577000    0.6131542   -8.7459887    197.57208  0.010440291 0.0090849548         1809 
 1578000   0.63877683    -8.738304    197.76365  0.010443792 0.0090758739         1741 
 1579000   0.62506598   -8.7161671    197.76361  0.010437176 0.0090667952         1778 
 1580000   0.62514696   -8.7484608    197.90706  0.010438136 0.0090577296         1749 
 1581000   0.61712099   -8.7613019    197.59314  0.010414987 0.0090486644         1705 
 1582000   0.61496922   -8.7554751    197.32874  0.010394476 0.0090396011         1760 
 1583000    0.6226635   -8.7447029    197.54753  0.010399428 0.0090305611         1790 
 1584000   0.62271074   -8.7401798    197.52182   0.01039151 0.0090215274         1803 
 1585000    0.6202272   -8.7340978    197.54027  0.010385924 0.0090124964         1782 
 1586000   0.60816417   -8.7726338    197.39587  0.010371788 0.0090034693         1852 
 1587000   0.62676112   -8.7433664    197.58032  0.010374938 0.0089944504         1862 
 1588000   0.60722869   -8.7423724    197.56677  0.010367694 0.0089854495         1830 
 1589000   0.61467619   -8.7408404    197.51752  0.010358586 0.0089764503         1890 
 1590000   0.60725573   -8.7468312     197.3148  0.010341446 0.0089674648         1928 
 1591000   0.61980881   -8.7622833    197.52537  0.010345976 0.0089585009         1837 
 1592000   0.62225672    -8.756328    197.24282  0.010324687 0.0089495328         1911 
 1593000   0.61256413   -8.7614642    197.66008  0.010340033 0.0089405807         1864 
 1594000   0.61233028   -8.7737714    196.99901  0.010298987 0.0089316387         1853 
 1595000   0.62022443   -8.7489069    197.61525  0.010324726 0.0089227237         1841 
 1596000    0.6314298   -8.7652621    197.37176  0.010305543 0.0089138073         1814 
 1597000   0.61938193   -8.7829042     197.5208  0.010306867 0.0089049097         1854 
 1598000   0.62305415   -8.7561916    197.36769  0.010292433 0.0088960193         1818 
 1599000   0.61309597   -8.7567516    197.74639  0.010305732 0.0088871374         1843 
 1600000   0.62139751   -8.7807421    197.73888    0.0102989 0.0088782678         1872 
 1601000   0.61914992   -8.7678472    197.38689  0.010274146 0.0088694087         1825 
 1602000   0.62058551    -8.762275    197.24169  0.010260179 0.0088605525         1890 
 1603000   0.61537886   -8.7653853    197.46756  0.010265521 0.0088517221         1801 
 1604000   0.61944297   -8.7540473     197.3947  0.010255335 0.0088428833         1871 
 1605000   0.61090053   -8.7869188    197.31464  0.010244789 0.0088340625         1880 
 1606000   0.61951431   -8.7647994    197.05474  0.010224924   0.00882525         1858 
 1607000   0.61575447   -8.7832556    196.95226  0.010213247 0.0088164564         1870 
 1608000   0.62482009   -8.7776902     196.9349  0.010205996 0.0088076687         1919 
 1609000   0.62354467   -8.8056861    196.90457  0.010198082 0.0087988863         1826 
 1610000   0.61434446   -8.7806546    197.20313  0.010207202 0.0087901175         1854 
 1611000   0.59946381   -8.7853476    197.24386  0.010202972 0.0087813706         1812 
 1612000   0.62689824   -8.7867747    197.18209   0.01019345 0.0087726353         1876 
 1613000   0.60927085   -8.8026131    196.89874  0.010172491 0.0087638885         1853 
 1614000   0.61171618   -8.7904586    196.95701  0.010169197 0.0087551531         1841 
 1615000   0.61221919   -8.8001997    197.24061  0.010177534 0.0087464325         1866 
 1616000   0.60614259   -8.7949136    196.86318  0.010151773  0.008737734         1852 
 1617000   0.61854353   -8.7591841    197.24053  0.010164942 0.0087290463         1859 
 1618000   0.59741529   -8.7826832    197.03992  0.010148327 0.0087203691         1888 
 1619000   0.60407949   -8.7892951    196.71284  0.010125223  0.008711686         1886 
 1620000   0.60080889   -8.7882628      197.147  0.010141307 0.0087030305         1847 
 1621000   0.60452499   -8.7891185     196.9635  0.010125617  0.008694373         1895 
 1622000   0.60505882   -8.7944607    196.72943  0.010107348 0.0086857365         1834 
 1623000   0.61415989   -8.7788517    197.14837  0.010122631 0.0086771108         1870 
 1624000   0.60725606   -8.7814775      196.784  0.010097701 0.0086685028         1847 
 1625000   0.61528177   -8.7707218    196.96625  0.010100833 0.0086598961         1820 
 1626000   0.59299396    -8.777622    196.83192  0.010087737 0.0086513144         1892 
 1627000   0.60724961   -8.7899346    197.04068  0.010092229 0.0086427353         1883 
 1628000   0.62223855    -8.786508    196.95946  0.010081872  0.008634154         1904 
 1629000   0.58852237   -8.7997725    196.82194  0.010068648 0.0086255971         1908 
 1630000   0.60778341   -8.7899213    196.94643  0.010068836 0.0086170586         1878 
 1631000   0.60655415   -8.7973135    197.24079  0.010077702 0.0086085193         1819 
 1632000   0.60766067   -8.7793036    196.96063  0.010057222   0.00860001         1875 
 1633000   0.59642266   -8.8047303    196.85968  0.010045912 0.0085915132         1889 
 1634000   0.59127784   -8.7967912     197.1387  0.010053993 0.0085830172         1890 
 1635000   0.60379861    -8.767648    197.19689   0.01005081 0.0085745374         1824 
 1636000   0.60772721   -8.7920057    197.10714  0.010040095 0.0085660704         1882 
 1637000   0.59001795   -8.7824428    197.36722  0.010047201 0.0085576189         1814 
 1638000   0.61483886   -8.7773704    197.13807  0.010029409 0.0085491697         1853 
 1639000   0.59236383   -8.7983077    197.07153  0.010019907 0.0085407279         1911 
 1640000   0.59589061   -8.7958999    196.89346  0.010004749 0.0085323039         1856 
 1641000   0.60365417   -8.8011492    197.08115  0.010008183 0.0085238954         1877 
 1642000   0.60128024   -8.7998247    196.93482 0.0099946619 0.0085154791         1936 
 1643000   0.60749207   -8.8241244    196.97602 0.0099906687 0.0085070707         1950 
 1644000   0.59210626   -8.7976225    197.01026  0.009986327 0.0084986767         1934 
 1645000   0.59295902   -8.8105516    196.86205 0.0099727483 0.0084902867         1966 
 1646000   0.60441205   -8.8303456    196.72593 0.0099597981 0.0084819117         1962 
 1647000   0.59484883    -8.810087    196.79261 0.0099571244 0.0084735514         1961 
 1648000   0.60154025   -8.8171812    197.00219 0.0099616802 0.0084652051         1889 
 1649000   0.59886699    -8.816314    197.25548 0.0099684393 0.0084568619         1945 
 1650000    0.5933008   -8.7900126    196.70713 0.0099347035 0.0084485189         1933 
 1651000    0.5925398   -8.7963941    196.47808 0.0099171251  0.008440188         1932 
 1652000   0.59934948   -8.7958845    197.05024 0.0099399838 0.0084318757         1949 
 1653000    0.6023816    -8.816611    196.76633 0.0099196576 0.0084235696         1965 
 1654000   0.59263677   -8.8067223    197.05141 0.0099280233 0.0084152778         2002 
 1655000   0.58589378   -8.8100131    197.08803 0.0099238686 0.0084069998         1932 
 1656000   0.58313398   -8.8239178    196.68277 0.0098974824 0.0083987299         1943 
 1657000   0.60912485   -8.8096612    196.87105  0.009900978 0.0083904568         2000 
 1658000   0.59707973   -8.7929204    196.85358 0.0098941283 0.0083821945         1987 
 1659000   0.59512696   -8.8237961    196.86039 0.0098885066 0.0083739494         1979 
 1660000   0.58955142   -8.8233061    197.08888   0.00989402 0.0083657162         2000 
 1661000   0.58943399   -8.8316846    196.66474 0.0098667841 0.0083574877         2029 
 1662000   0.59174266   -8.8201572    196.54368 0.0098547775 0.0083492661         1980 
 1663000   0.58741473   -8.8190615    197.07125 0.0098752882 0.0083410543         1936 
 1664000   0.58909663   -8.8406429    196.86968  0.009859259 0.0083328607         1952 
 1665000   0.58379669   -8.8487105    196.66066 0.0098428758 0.0083246562         2051 
 1666000   0.59582416   -8.8335446    196.67549 0.0098377098  0.008316454         2000 
 1667000   0.58986329   -8.8240411    196.67368 0.0098317178  0.008308273         1977 
 1668000   0.57474859   -8.8489129    196.42656 0.0098134771 0.0083000977         2024 
 1669000   0.58007573   -8.8280273    196.49261 0.0098108953 0.0082919333         2010 
 1670000   0.60255058   -8.8169974     197.2421 0.0098424202  0.008283788         2010 
 1671000   0.58145324   -8.8293567    196.66641 0.0098078204 0.0082756457         1982 
 1672000   0.57668559   -8.8225674    196.85341 0.0098112743 0.0082675218         1955 
 1673000   0.59012467    -8.813068    196.38258 0.0097819576 0.0082594055         1944 
 1674000   0.59869519   -8.8334918     196.8194 0.0097978593 0.0082512999         1987 
 1675000   0.58259814   -8.8081699    196.65305 0.0097837337 0.0082432019         1997 
 1676000   0.58748183   -8.8451376    196.76188 0.0097833074 0.0082351193         1937 
 1677000   0.56616719   -8.8159863    196.54715 0.0097668033 0.0082270478         1945 
 1678000   0.58542343    -8.841666    196.72576  0.009769853 0.0082189939         1989 
 1679000   0.57702603   -8.8384773    196.97339 0.0097763248 0.0082109364         2046 
 1680000   0.58642182   -8.8265283    196.81291  0.009762545 0.0082028838         1976 
 1681000   0.58714982   -8.8417067    196.68021 0.0097501593 0.0081948389         1979 
 1682000    0.5744668   -8.8537481    196.27624 0.0097243481 0.0081867976         1956 
 1683000   0.58722236   -8.8338967    196.78915 0.0097439667 0.0081787758         1975 
 1684000   0.56389438    -8.857113    196.45285 0.0097215384 0.0081707525         2018 
 1685000   0.58014526   -8.8497092    196.64016 0.0097250326  0.008162739         1981 
 1686000   0.58205735   -8.8475687    196.59253 0.0097169103 0.0081547316         1977 
 1687000   0.56603855   -8.8531171    196.58258 0.0097106591 0.0081467502         2001 
 1688000   0.56939262   -8.8480976    196.78311  0.009714806 0.0081387697         1976 
 1689000   0.55654517    -8.839194    196.53535 0.0096968299 0.0081308121         1965 
 1690000   0.57610028   -8.8572326    196.16181 0.0096726729 0.0081228525         2065 
 1691000   0.57442323   -8.8511514    196.19934 0.0096688023 0.0081149017         2061 
 1692000   0.58734682    -8.846448    196.39635 0.0096727909 0.0081069613         1951 
 1693000   0.57107597   -8.8526556     196.4983 0.0096720958 0.0080990314         2031 
 1694000   0.57214712   -8.8539207    196.68578 0.0096756088 0.0080911112         2008 
 1695000    0.5862611   -8.8421475    196.77239  0.009674159 0.0080832018         1952 
 1696000   0.58485557   -8.8594778     196.5441 0.0096572377 0.0080753146         2081 
 1697000   0.58285558    -8.839274    196.68429 0.0096584312 0.0080674374         1999 
 1698000   0.56412431   -8.8464557    196.58767  0.009648001 0.0080595707         2034 
 1699000   0.56520268   -8.8637402    196.75703 0.0096506295 0.0080517022         2023 
 1700000   0.56511954   -8.8510273    196.49564 0.0096321393 0.0080438476         1960 
 1701000   0.58107347   -8.8679799    196.27563  0.009615698 0.0080360011         2055 
 1702000   0.57945025   -8.8591285    196.41106 0.0096166795 0.0080281586         2019 
 1703000   0.57935979   -8.8603584    196.42656  0.009611791 0.0080203332         2071 
 1704000   0.56314792   -8.8713836    196.51496 0.0096104734 0.0080125179         2018 
 1705000   0.58307957   -8.8612409    196.52887 0.0096055165 0.0080047176         2057 
 1706000   0.56278439   -8.8591741    196.39015 0.0095931102 0.0079969213         2078 
 1707000    0.5718029   -8.8447078    196.33396 0.0095847469 0.0079891404         2045 
 1708000   0.57798411   -8.8389817    196.44377 0.0095844932 0.0079813669         2020 
 1709000   0.55961602   -8.8496334     196.6891 0.0095908472 0.0079735907         1985 
 1710000   0.57370957   -8.8555479     196.3499 0.0095687084 0.0079658148         1983 
 1711000   0.56323507   -8.8612395    196.14618 0.0095531941 0.0079580603         2022 
 1712000   0.56099825   -8.8633841    196.24402 0.0095523761 0.0079503001         2054 
 1713000   0.57176806    -8.863019    196.38118 0.0095534725 0.0079425494         2007 
 1714000   0.56530623    -8.865243    196.34148 0.0095459685  0.007934815         2036 
 1715000   0.58633686   -8.8694176    196.50205 0.0095482045 0.0079271008         2005 
 1716000   0.57883008    -8.869849    196.33036 0.0095343028  0.007919387         2010 
 1717000   0.57423611   -8.8701113    196.38972 0.0095316306 0.0079116827         2043 
 1718000   0.57098634   -8.8698917    196.16303 0.0095150866 0.0079039823         2056 
 1719000   0.56526155   -8.8856103    196.13813 0.0095083445 0.0078962915         2095 
 1720000   0.57061815    -8.857342    196.08739 0.0095003581 0.0078886114         2007 
 1721000   0.54699862   -8.8684015    196.10585 0.0094957315 0.0078809385         2066 
 1722000    0.5775357   -8.8709368    196.54946 0.0095116852 0.0078732728         2004 
 1723000   0.58045639   -8.8843711    196.10125 0.0094844867  0.007865626         2097 
 1724000   0.57281164   -8.8778031    196.27903 0.0094875787 0.0078579915         2085 
 1725000   0.55917011   -8.8606579    195.96948 0.0094671246 0.0078503612         2121 
 1726000    0.5705301   -8.8962848     195.9737 0.0094618432 0.0078427466         2076 
 1727000   0.54850701   -8.8795601    196.44636 0.0094791718 0.0078351414         2094 
 1728000   0.55061075    -8.882993    196.00158 0.0094522369 0.0078275387         2091 
 1729000   0.56360671   -8.8672691    196.41328 0.0094666127 0.0078199446         2083 
 1730000    0.5489443   -8.8746827     196.2795 0.0094546967  0.007812366         2057 
 1731000   0.54555312    -8.882132    195.88744   0.00943036 0.0078047892         2068 
 1732000    0.5769162   -8.8927304    196.53161 0.0094559087 0.0077972256         2077 
 1733000    0.5489791   -8.8763629    196.37556 0.0094429487 0.0077896688         2075 
 1734000   0.56552807   -8.8935757    196.27977 0.0094328994 0.0077821152         2054 
 1735000   0.55611229   -8.8658906     195.8705 0.0094078052  0.007774583         2082 
 1736000   0.57629839   -8.8658869    196.19084 0.0094177633 0.0077670612         2056 
 1737000   0.56285819   -8.8870774    196.34191 0.0094195887 0.0077595582         2095 
 1738000   0.55814605   -8.8840197    196.29766 0.0094120473 0.0077520589         1998 
 1739000   0.56754391   -8.8929542    195.87376 0.0093863216 0.0077445659         2122 
 1740000   0.56683052   -8.8992865    196.21285 0.0093971674  0.007737079         2085 
 1741000   0.56177959   -8.9012661    196.17533 0.0093899736 0.0077296031         2009 
 1742000   0.55653813   -8.8874521    196.06117 0.0093791224 0.0077221283         2113 
 1743000   0.55563016   -8.8842721    196.25865 0.0093831826 0.0077146649         2058 
 1744000   0.55526832   -8.8857821    196.56454 0.0093924189 0.0077072087         2039 
 1745000    0.5621161   -8.8906693     196.0703 0.0093634335 0.0076997687         2057 
 1746000   0.55397614   -8.8874353    196.20547 0.0093645221 0.0076923409         2051 
 1747000   0.55115612   -8.9171671    196.09814  0.009354042 0.0076849143         2106 
 1748000    0.5622225   -8.9000372    196.17462 0.0093523368  0.007677488         2141 
 1749000   0.56489088   -8.8864657    195.99315 0.0093383433 0.0076700838         2084 
 1750000   0.56295166   -8.8886586    196.13136 0.0093395885 0.0076626796         2093 
 1751000   0.54664951   -8.9264905    195.83891 0.0093203364 0.0076552853         2099 
 1752000   0.55091682    -8.901006    196.21917 0.0093331037 0.0076479003         2071 
 1753000   0.54738599   -8.9080128    196.02206 0.0093184092 0.0076405263         2126 
 1754000   0.54618172   -8.8886283    196.00526 0.0093122985 0.0076331623         2065 
 1755000   0.55406542   -8.9066574    195.77275 0.0092959522 0.0076258087         2095 
 1756000   0.54015395   -8.8992025    196.05004 0.0093038173 0.0076184739         2107 
 1757000   0.55356372   -8.8889708    195.88115 0.0092905115 0.0076111364         2062 
 1758000    0.5598944   -8.8977252    195.86735 0.0092845728 0.0076038114         2049 
 1759000   0.55776375      -8.9059    196.07054  0.009288921 0.0075964879         2065 
 1760000   0.55272353   -8.9189276    195.85225 0.0092733072 0.0075891817         2084 
 1761000   0.54341654   -8.9038981    195.70035  0.009260853 0.0075818851         2109 
 1762000   0.55883657    -8.898634    196.14422 0.0092765901 0.0075745924         2102 
 1763000   0.55533954   -8.9303171    195.40504 0.0092363885 0.0075673058         2125 
 1764000   0.55386099   -8.9186398    195.89398 0.0092542507 0.0075600251         2135 
 1765000    0.5506856   -8.8964349    195.90308  0.009249437  0.007552759         2132 
 1766000   0.54815806    -8.911847    196.12991 0.0092549034 0.0075455019         2084 
 1767000   0.53838931   -8.9085003    195.92105 0.0092398156 0.0075382543         2136 
 1768000   0.54023686   -8.9180421    196.15052 0.0092454055 0.0075310213         2120 
 1769000   0.54386724   -8.9400285    195.75986 0.0092217761 0.0075237869         2114 
 1770000    0.5444539   -8.8994047    195.79292 0.0092181225 0.0075165661         2105 
 1771000   0.54562644   -8.9174721    195.69606 0.0092083596 0.0075093623         2075 
 1772000   0.54742449   -8.9451945    196.16875 0.0092253929 0.0075021608         2146 
 1773000   0.54917753   -8.9029264    196.14552 0.0092190978   0.00749497         2164 
 1774000   0.53491895   -8.9195781    196.15114 0.0092141649  0.007487792         2169 
 1775000   0.56121721   -8.9183687    195.89018 0.0091967219 0.0074806284         2195 
 1776000   0.54270597   -8.9119479    195.96136 0.0091948834  0.007473461         2136 
 1777000   0.53593365   -8.9145995    195.78983 0.0091816654 0.0074663084         2141 
 1778000   0.53430456    -8.902767    195.62181 0.0091686262 0.0074591663         2120 
 1779000   0.54283375   -8.9158476    195.86905 0.0091750539 0.0074520249         2120 
 1780000   0.54515769   -8.9306974    195.66734 0.0091604559 0.0074448885         2178 
 1781000   0.54347754   -8.9146121    195.56903 0.0091507125 0.0074377665         2141 
 1782000   0.54562737   -8.9261805    195.38197   0.00913683 0.0074306498         2087 
 1783000   0.54189913   -8.9332301    195.51854 0.0091380883 0.0074235347         2142 
 1784000   0.52529345   -8.9291958    195.86543 0.0091491701 0.0074164369         2215 
 1785000   0.54794748   -8.9552503    195.62509 0.0091328238 0.0074093428         2163 
 1786000   0.53264682   -8.9385582    195.79674 0.0091357194 0.0074022643         2133 
 1787000   0.54768779   -8.9148449     195.5013 0.0091168297 0.0073951912         2153 
 1788000    0.5460651   -8.9215755    195.85065 0.0091280133 0.0073881248         2131 
 1789000   0.54142246   -8.9401061    195.89291 0.0091248792 0.0073810673         2179 
 1790000   0.52700699   -8.9232311    195.75503 0.0091133626 0.0073740192         2149 
 1791000   0.53270691   -8.9179732    195.66352 0.0091040164 0.0073669803         2180 
 1792000   0.53231877   -8.9396583    195.57484 0.0090948119  0.007359943         2133 
 1793000   0.55079705   -8.9467064    195.52897  0.009087608 0.0073529125         2232 
 1794000   0.53879293   -8.9426079    195.55073 0.0090835531 0.0073458963         2169 
 1795000   0.52558858    -8.936868    195.61079 0.0090812807 0.0073388944         2163 
 1796000   0.54744446   -8.9371929    195.81061 0.0090854959 0.0073318953         2179 
 1797000   0.52898996   -8.9293394     195.6362 0.0090723522 0.0073249012         2143 
 1798000   0.53696335   -8.9296851    195.38661 0.0090557384 0.0073179188         2156 
 1799000   0.52960111   -8.9410975    195.65024 0.0090629165 0.0073109367         2179 
 1800000   0.52935152   -8.9652628    195.29733 0.0090415429  0.007303967         2184 
 1801000   0.54158967   -8.9551951    195.62972 0.0090519027 0.0072970063         2202 
 1802000    0.5357217   -8.9514052    195.39832 0.0090361784 0.0072900479         2193 
 1803000   0.52905467   -8.9608558    195.37885 0.0090302665 0.0072830981         2234 
 1804000   0.52727567   -8.9613465     195.1715 0.0090156828 0.0072761534         2228 
 1805000   0.53953403   -8.9499245    195.37586 0.0090201226 0.0072692219         2135 
 1806000   0.53415537   -8.9341563    195.37102 0.0090149048 0.0072622971         2120 
 1807000   0.52712348   -8.9789627    195.52325 0.0090169363 0.0072553886         2198 
 1808000   0.53865287   -8.9574567    195.24991 0.0089993504 0.0072484797         2193 
 1809000   0.53895579   -8.9502405    195.85311 0.0090221628 0.0072415835         2224 
 1810000    0.5348768   -8.9722391    195.80564 0.0090149925 0.0072346949         2210 
 1811000   0.52714787   -8.9345737     195.5286 0.0089972669 0.0072278154         2193 
 1812000   0.53381519   -8.9693899    195.34046 0.0089836487 0.0072209447         2184 
 1813000    0.5329676   -8.9651586    195.28064 0.0089759443  0.007214077         2234 
 1814000   0.53140567   -8.9461033    195.02451 0.0089592296 0.0072072295         2209 
 1815000   0.53797685   -8.9410931     195.4253 0.0089726953 0.0072003847         2198 
 1816000   0.52525337   -8.9521351    195.39772 0.0089664887  0.007193546         2238 
 1817000   0.52057682   -8.9742051    195.19044 0.0089520472  0.007186716         2191 
 1818000   0.53622366   -8.9518403    195.77508 0.0089739219 0.0071798956         2160 
 1819000   0.52379281   -8.9458285    195.51481 0.0089570648 0.0071730857         2177 
 1820000   0.52200991   -8.9724921    195.45514 0.0089494112 0.0071662828         2233 
 1821000   0.52109176   -8.9665355    195.53016 0.0089479298 0.0071594864         2236 
 1822000   0.52862922   -8.9519205    195.52208 0.0089426489 0.0071526981         2232 
 1823000   0.52280473   -8.9710771    194.82287 0.0089057812 0.0071459207         2192 
 1824000   0.52926675   -8.9523435    195.44056 0.0089291191 0.0071391459         2195 
 1825000   0.52279307   -8.9469872    195.58979 0.0089310408 0.0071323865         2229 
 1826000   0.52708449   -8.9709117    194.96899 0.0088978182 0.0071256309         2205 
 1827000   0.52855103   -8.9656216    195.26583 0.0089064876 0.0071188827         2212 
 1828000    0.5319458   -8.9596599    195.13328 0.0088955728 0.0071121515         2188 
 1829000   0.50622172   -8.9683146    195.22778 0.0088950146 0.0071054185         2105 
 1830000   0.53560476   -8.9632306    195.55741 0.0089051642  0.007098698         2161 
 1831000   0.52776985   -8.9721477    195.38206   0.00889232 0.0070919843         2157 
 1832000   0.51291151   -8.9705254    195.26581 0.0088821782 0.0070852755         2223 
 1833000   0.52519955   -8.9806143    195.71852 0.0088979143 0.0070785758         2245 
 1834000    0.5166267   -8.9595248    195.43409 0.0088801387   0.00707189         2155 
 1835000   0.52330275   -8.9651916    195.10915 0.0088605427 0.0070652107         2208 
 1836000   0.52478632   -8.9685395    195.20627 0.0088601247 0.0070585338         2227 
 1837000   0.52034144   -8.9717526    195.32199 0.0088605512 0.0070518629         2201 
 1838000   0.51972859    -8.955828    195.15203 0.0088480244 0.0070452073         2240 
 1839000   0.52358962   -8.9720422    195.23025 0.0088467576 0.0070385594         2236 
 1840000   0.52473134   -8.9679697    195.26705 0.0088436162 0.0070319189         2222 
 1841000    0.5145972   -8.9739055    195.20109 0.0088358272 0.0070252908         2230 
 1842000   0.52614637   -8.9576094    195.21917 0.0088318483 0.0070186788         2272 
 1843000   0.51460484    -8.963138     195.1716 0.0088249052 0.0070120714         2230 
 1844000   0.53375535   -8.9683934    195.20515 0.0088216354 0.0070054729         2252 
 1845000   0.52052056   -8.9725149    195.32096  0.008822085  0.006998881         2290 
 1846000    0.5173792   -8.9652178    195.36996 0.0088195181 0.0069922948         2186 
 1847000   0.50696676    -8.963452    195.24507 0.0088091078 0.0069857126         2263 
 1848000   0.51413038   -8.9833553    195.30724 0.0088071446 0.0069791445         2281 
 1849000   0.51374213   -8.9717698     195.2358 0.0087991615 0.0069725826         2222 
 1850000    0.5123615   -8.9786975     195.2825 0.0087965092 0.0069660342         2156 
 1851000   0.51785044   -8.9823961    195.04559 0.0087810908 0.0069594851         2261 
 1852000   0.51935103   -8.9723441    195.47551 0.0087956945 0.0069529499         2228 
 1853000     0.508853   -8.9709641    195.11874  0.008774903 0.0069464249         2260 
 1854000   0.51363927   -8.9729509     195.2975 0.0087782049 0.0069398962         2246 
 1855000   0.51538245   -8.9828876    195.21903 0.0087699476 0.0069333867         2234 
 1856000   0.51779577   -8.9805301    195.19484 0.0087641361 0.0069268709         2277 
 1857000   0.51186208    -8.971703    195.16322 0.0087579974 0.0069203671         2242 
 1858000   0.51746012   -8.9738815    194.84861 0.0087391733 0.0069138676         2257 
 1859000   0.52409621   -8.9771856    195.13027 0.0087470982  0.006907379         2179 
 1860000   0.51617422   -8.9785204    195.51929  0.008759825 0.0069009097         2180 
 1861000   0.51622287   -8.9865007    195.43644 0.0087514079 0.0068944349         2188 
 1862000   0.50868355   -8.9734487    195.21584 0.0087368348 0.0068879629         2160 
 1863000    0.5156173   -8.9863921     194.8145  0.008714193 0.0068815097         2245 
 1864000    0.5127156   -8.9866859    195.06565 0.0087207462 0.0068750658         2213 
 1865000   0.50633722   -8.9901174    194.98803 0.0087126017 0.0068686278         2205 
 1866000   0.52035997   -8.9902591      195.059 0.0087111021 0.0068622005         2239 
 1867000   0.51585455   -8.9814769    195.08588  0.008707636 0.0068557778         2274 
 1868000    0.5108462   -8.9847328    195.24958 0.0087102773 0.0068493618         2245 
 1869000   0.50576466   -8.9942205    194.95041 0.0086922782 0.0068429509         2173 
 1870000   0.50371198   -9.0001033    195.14839 0.0086964525 0.0068365534         2225 
 1871000   0.50585904   -8.9988374    194.73595 0.0086734345 0.0068301605         2291 
 1872000   0.50981347   -8.9808018    195.07434 0.0086838648  0.006823768         2215 
 1873000   0.49780145   -8.9821378      194.924 0.0086725397 0.0068173925         2284 
 1874000   0.51544943   -8.9966464    195.15764 0.0086783012 0.0068110204         2274 
 1875000   0.51090471   -8.9912807    195.25276 0.0086779006 0.0068046564         2233 
 1876000   0.50378808   -9.0148099    195.10268 0.0086666081 0.0067983105         2292 
 1877000   0.49333665   -9.0018208     194.9625 0.0086557674 0.0067919641         2250 
 1878000   0.49967115     -9.00037    195.44757 0.0086726822 0.0067856276         2267 
 1879000   0.50525429   -9.0005867    194.93861 0.0086454946 0.0067792949         2205 
 1880000   0.50356883   -8.9671683    194.87503 0.0086380776 0.0067729755         2209 
 1881000   0.49697787   -8.9750612    195.23944 0.0086496296 0.0067666626         2203 
 1882000   0.50231251   -8.9907395    194.77369 0.0086244107 0.0067603614         2194 
 1883000    0.4978698    -8.993865    194.97722 0.0086288379 0.0067540631         2205 
 1884000   0.50859569   -8.9895741     194.9174  0.008621612  0.006747774         2213 
 1885000   0.49810494   -8.9976002    195.33341 0.0086354291 0.0067414932         2229 
 1886000    0.4947572   -9.0187062    194.86429 0.0086101223 0.0067352174         2312 
 1887000   0.50957176   -8.9929684    194.79268  0.008602397 0.0067289441         2239 
 1888000   0.50090317   -9.0130921    195.07357 0.0086102387 0.0067226796         2225 
 1889000   0.51410275   -9.0057848    194.84352 0.0085955318 0.0067164246         2237 
 1890000   0.50194267   -9.0109652    195.07753 0.0086013021 0.0067101716         2271 
 1891000   0.51007793   -9.0055924    195.22969 0.0086034588 0.0067039278         2221 
 1892000   0.49727327   -9.0041774    194.81456 0.0085806271 0.0066976942         2236 
 1893000   0.48755999   -9.0127382    194.65856  0.008569227 0.0066914625         2237 
 1894000   0.49501626   -9.0001088    194.90761 0.0085756602 0.0066852403         2279 
 1895000   0.49727736   -8.9888838    194.67691 0.0085609898 0.0066790196         2211 
 1896000   0.49396482   -9.0002629    195.15084 0.0085773049 0.0066728183         2228 
 1897000   0.49775519   -9.0156755    194.71609 0.0085536853 0.0066666223         2183 
 1898000   0.50168116     -8.99461    194.95034 0.0085594633  0.006660436         2256 
 1899000    0.4949275   -9.0066968    194.82388 0.0085494065 0.0066542543         2257 
 1900000   0.50071316   -9.0162036    194.91757 0.0085490162 0.0066480792         2243 
 1901000   0.49822646   -9.0012866     194.6746 0.0085338683 0.0066419098         2255 
 1902000   0.50212744   -9.0340559    194.71671 0.0085312262 0.0066357533         2261 
 1903000    0.4864708   -9.0140389    194.96371 0.0085375598 0.0066296067         2265 
 1904000   0.48703579   -9.0132776     194.7544 0.0085239145 0.0066234506         2212 
 1905000    0.4972593   -9.0064797    194.99822 0.0085301057 0.0066173066         2233 
 1906000    0.4838938   -9.0146433    194.76994 0.0085156498 0.0066111726         2248 
 1907000   0.48782613   -9.0377066    194.60841 0.0085041256 0.0066050456         2284 
 1908000   0.48126401   -9.0304907     195.1685 0.0085241308 0.0065989258         2256 
 1909000   0.49046555   -9.0265844    194.69802 0.0084991277 0.0065928141         2233 
 1910000   0.49051942   -9.0102255    194.56309 0.0084887909 0.0065867117         2261 
 1911000   0.50381761   -9.0281575      194.504 0.0084817723  0.006580611         2211 
 1912000   0.48521756   -9.0207516    194.67739 0.0084848933 0.0065745242         2225 
 1913000   0.49570503   -9.0085127    195.17474 0.0085021232 0.0065684488         2245 
 1914000   0.48799862   -9.0193719    194.87505 0.0084846331 0.0065623751         2254 
 1915000   0.49349505   -9.0311742     194.6367 0.0084698303 0.0065563135         2298 
 1916000   0.49442418   -9.0190264    194.59442 0.0084635707 0.0065502582         2230 
 1917000   0.49615193    -9.015413    194.83508 0.0084696175 0.0065442089         2275 
 1918000   0.48778736   -9.0321234    195.04761 0.0084744356 0.0065381665         2270 
 1919000   0.48524813   -9.0251817    194.90448 0.0084638039  0.006532131         2273 
 1920000   0.48409639   -9.0454666     194.8496 0.0084570138 0.0065261052         2251 
 1921000   0.48843103   -9.0240128    194.87624 0.0084537669  0.006520089         2227 
 1922000    0.4786806   -9.0213142    194.93371 0.0084518606 0.0065140798         2248 
 1923000   0.48985554   -9.0305923    194.82502 0.0084427551 0.0065080719         2286 
 1924000   0.47377721   -9.0174763    194.97056 0.0084446707 0.0065020742         2327 
 1925000   0.48504897    -9.043229    194.75449 0.0084309305 0.0064960817         2290 
 1926000   0.47298049   -9.0269358      194.669  0.008422854 0.0064900908         2336 
 1927000   0.46808188   -9.0345606    194.91638 0.0084291808 0.0064841204         2265 
 1928000   0.47976992    -9.034612    194.72301 0.0084164511 0.0064781546         2270 
 1929000    0.4834524    -9.028393    194.53851 0.0084041175 0.0064721919         2244 
 1930000   0.48223992    -9.040191    194.45308 0.0083960741 0.0064662329         2267 
 1931000   0.48137383   -9.0382391    194.41497 0.0083900815   0.00646029         2272 
 1932000   0.48493235   -9.0209052    194.56223 0.0083920909 0.0064543539         2272 
 1933000   0.47489054    -9.016809    194.61361 0.0083899643 0.0064484256         2247 
 1934000   0.47238963   -9.0218048     194.6757 0.0083883013 0.0064425021         2324 
 1935000   0.48483011   -9.0347431    194.90272 0.0083937434 0.0064365778         2316 
 1936000   0.49035612   -9.0329555    194.82925 0.0083862451 0.0064306623         2318 
 1937000   0.47637692   -9.0387407    194.63874 0.0083737197 0.0064247502         2345 
 1938000   0.47864665   -9.0290392    194.67172 0.0083708171  0.006418845         2340 
 1939000   0.47828709   -9.0481979    194.49939 0.0083590937 0.0064129438         2324 
 1940000   0.47446433   -9.0372295    194.63172 0.0083604689 0.0064070556         2293 
 1941000    0.4746442   -9.0527332    194.98771 0.0083714456 0.0064011748         2283 
 1942000   0.48224345    -9.052246    194.44945 0.0083440375 0.0063953042         2322 
 1943000   0.47490793   -9.0358118    194.50301 0.0083420403 0.0063894335         2279 
 1944000   0.47364621   -9.0423512    194.47012 0.0083363393 0.0063835752         2367 
 1945000   0.48105694   -9.0536517    194.10895 0.0083165786 0.0063777152         2329 
 1946000   0.47693791   -9.0405923    194.57188 0.0083321293 0.0063718689         2309 
 1947000   0.47781615   -9.0396717    194.64961 0.0083311766 0.0063660278         2275 
 1948000   0.47190697   -9.0452103    194.79631 0.0083331757  0.006360196         2322 
 1949000   0.47789101   -9.0565012    194.34066 0.0083094176 0.0063543678         2323 
 1950000   0.46941495   -9.0439616    194.51219 0.0083124867 0.0063485509         2371 
 1951000   0.48434335   -9.0495192    194.42016 0.0083042953 0.0063427422         2264 
 1952000   0.47087267   -9.0446535    194.31065 0.0082953657 0.0063369372         2272 
 1953000   0.47419463   -9.0441191    194.54394 0.0083010729 0.0063311366         2352 
 1954000   0.47300637   -9.0632147    194.13181 0.0082792483 0.0063253457         2378 
 1955000   0.46837112   -9.0556187    194.35089 0.0082843515 0.0063195552         2281 
 1956000   0.47698092   -9.0447629    194.24085 0.0082754283 0.0063137765         2346 
 1957000   0.48867448   -9.0575058    194.45544 0.0082803372 0.0063080035         2340 
 1958000   0.46503628   -9.0481735     194.1908 0.0082648451  0.006302242         2391 
 1959000   0.47430498   -9.0507914    194.82944  0.008287793  0.006296488         2320 
 1960000   0.47490486   -9.0530504      194.434 0.0082667518 0.0062907336         2346 
 1961000   0.46503299   -9.0409674    194.33876 0.0082584887 0.0062849892         2353 
 1962000   0.47944993   -9.0628688    194.41197  0.008257389  0.006279252         2348 
 1963000   0.47338808   -9.0556562    194.18001 0.0082433355 0.0062735275         2381 
 1964000   0.47188929   -9.0567404    194.31159 0.0082447211 0.0062678023         2366 
 1965000    0.4595305   -9.0504066    194.44033 0.0082459852 0.0062620869         2308 
 1966000   0.46616105   -9.0558704    194.37657 0.0082390883 0.0062563761         2323 
 1967000   0.46690993   -9.0774496    194.23234 0.0082287893 0.0062506729         2335 
 1968000   0.47051566   -9.0482944    194.36279 0.0082301317 0.0062449791         2366 
 1969000   0.46712371   -9.0419455    194.23322 0.0082204682 0.0062392887         2293 
 1970000   0.47770848   -9.0689566    194.18296  0.008214169 0.0062336027         2328 
 1971000   0.46992155   -9.0614882    194.45212 0.0082213816 0.0062279232         2296 
 1972000   0.46469751   -9.0608573    194.58464 0.0082228127 0.0062222634         2325 
 1973000   0.46346925   -9.0697356    194.31988 0.0082074624 0.0062165949         2373 
 1974000   0.46269818   -9.0603106    194.43351 0.0082081015 0.0062109416         2334 
 1975000   0.46360957   -9.0572261    194.18127 0.0081933027 0.0062052948         2381 
 1976000   0.46581897   -9.0588834    194.21801 0.0081907057 0.0061996572         2320 
 1977000   0.46290312   -9.0720345    194.31553 0.0081906731 0.0061940285         2337 
 1978000   0.46898472    -9.066569    193.98475 0.0081725964 0.0061884015         2323 
 1979000   0.47550765   -9.0711593    194.19756 0.0081774279 0.0061827808         2312 
 1980000   0.46223292   -9.0809205    194.30348  0.008177756 0.0061771704         2383 
 1981000   0.46391038   -9.0638998    194.52082 0.0081827704 0.0061715627         2326 
 1982000   0.46445725   -9.0620078     194.1861 0.0081645688 0.0061659628         2349 
 1983000   0.45967063   -9.0594521    194.36108 0.0081678048 0.0061603721         2304 
 1984000   0.46153045   -9.0742737    194.30055 0.0081611454 0.0061547824         2278 
 1985000     0.457558    -9.073589    194.41111 0.0081616755 0.0061492008         2342 
 1986000   0.45998549   -9.0606842    194.49274 0.0081609913 0.0061436271         2366 
 1987000   0.46049731   -9.0715899     194.0893 0.0081399638 0.0061380598         2302 
 1988000   0.45652257   -9.0656691    194.10276 0.0081364336    0.0061325         2285 
 1989000   0.45698902   -9.0747726    194.41048 0.0081452353 0.0061269528         2358 
 1990000   0.46098838   -9.0649889    194.25044 0.0081344407 0.0061214151         2346 
 1991000   0.45119913   -9.0658307    194.50993  0.008141216 0.0061158751         2248 
 1992000   0.47285646   -9.0767835    194.33559 0.0081298356 0.0061103453         2329 
 1993000   0.46314988      -9.0787    194.26159 0.0081226621 0.0061048265         2298 
 1994000   0.47596434    -9.086022    194.41076 0.0081248228 0.0060993098         2323 
 1995000   0.45958679    -9.077025    194.05928 0.0081060684 0.0060937969         2336 
 1996000   0.45825858   -9.0891504    194.23868 0.0081094974 0.0060882911         2402 
 1997000   0.45509842   -9.0700788    194.13807  0.008101238 0.0060827917         2401 
 1998000   0.45606334   -9.0915514    194.15269 0.0080977931 0.0060772968         2358 
 1999000    0.4442313   -9.0723184    194.28398 0.0080992154 0.0060718068         2342 
 2000000   0.46375239   -9.0838978    194.14153 0.0080892305 0.0060663338         2397 
 2001000    0.4571242   -9.0796179    194.06226 0.0080818866 0.0060608602         2333 
 2002000   0.46358715   -9.0741658    194.22752 0.0080847286 0.0060553966         2279 
 2003000   0.45029821   -9.0734922      194.301 0.0080837493 0.0060499333         2321 
 2004000   0.45802108   -9.0892698    194.15815 0.0080737753 0.0060444786         2321 
 2005000   0.44919452   -9.0891415    194.06491 0.0080658733 0.0060390334         2345 
 2006000    0.4367004   -9.0784042    194.29126 0.0080712554 0.0060335945         2352 
 2007000   0.44276212   -9.0718865     194.1229 0.0080602431   0.00602816         2304 
 2008000   0.44283189   -9.0872331    194.22317 0.0080603906 0.0060227335         2318 
 2009000   0.45532605   -9.0816213    194.28546  0.008058962 0.0060173113         2357 
 2010000    0.4530354   -9.0860181     194.3983 0.0080596311 0.0060119015         2314 
 2011000   0.44505642   -9.0821074    194.10431 0.0080434406 0.0060064968         2298 
 2012000   0.45576636   -9.0789975    194.29332 0.0080472713 0.0060010972         2355 
Loop time of 5269.25 on 48 procs for 2000000 steps with 4000 atoms

Performance: 65588.074 tau/day, 379.561 timesteps/s
99.4% CPU use with 48 MPI tasks x no OpenMP threads

MPI task timing breakdown:
Section |  min time  |  avg time  |  max time  |%varavg| %total
---------------------------------------------------------------
Pair    | 385.35     | 423.06     | 454.66     |  93.2 |  8.03
Neigh   | 36.147     | 37.599     | 39.059     |  13.3 |  0.71
Comm    | 347.39     | 377.69     | 415.49     | 100.8 |  7.17
Output  | 5.6399     | 5.6419     | 5.686      |   0.3 |  0.11
Modify  | 4352.9     | 4373.9     | 4396.9     |  16.4 | 83.01
Other   |            | 51.34      |            |       |  0.97

Nlocal:        83.3333 ave          91 max          77 min
Histogram: 2 4 10 3 4 11 3 10 0 1
Nghost:        2414.65 ave        2446 max        2392 min
Histogram: 2 4 9 11 5 8 3 5 0 1
Neighs:        16653.5 ave       19272 max       13686 min
Histogram: 1 2 6 9 6 4 6 7 2 5
FullNghs:      33306.9 ave       36970 max       30367 min
Histogram: 1 8 5 5 9 7 6 6 0 1

Total # of neighbors = 1598731
Ave neighs/atom = 399.68275
Neighbor list builds = 106373
Dangerous builds = 0

#clear
#
#next RN
#
#jump SELF
Total wall time: 1:27:52
