
units lj                  # Use reduced LJ style units
atom_style atomic         # Uncharged point particles
atom_modify map hash      # Needed for indexing of clusters etc
                          # Used to be able to find where atoms are in relation to each other.

lattice fcc 1.0 spacing 1 1 1
Lattice spacing in x,y,z = 1.5874011 1.5874011 1.5874011
region box block 0 10 0 10 0 10 units lattice
create_box 2 box
Created orthogonal box = (0.0000000 0.0000000 0.0000000) to (15.874011 15.874011 15.874011)
  3 by 4 by 4 MPI processor grid
create_atoms 1 box
Created 4000 atoms
  using lattice units in orthogonal box = (0.0000000 0.0000000 0.0000000) to (15.874011 15.874011 15.874011)
  create_atoms CPU = 0.003 seconds
set type 1 type/fraction 2 0.62 78393
Setting atom values ...
  2494 settings made for type/fraction
mass 1 1.0
mass 2 1.0
pair_style lj/cut  3.5
pair_modify tail  yes
pair_coeff 1  1  1.0  1.0   # Intearaction between 1 and 1 set with epsilon = 1 and sigma = 1
pair_coeff 1  2  1.5  0.8
pair_coeff 2  2  0.5  0.88

write_data data.0
System init for write_data ...
Neighbor list info ...
  update every 1 steps, delay 10 steps, check yes
  max neighbors/atom: 2000, page size: 100000
  master list distance cutoff = 3.8
  ghost atom cutoff = 3.8
  binsize = 1.9, bins = 9 9 9
  1 neighbor lists, perpetual/occasional/extra = 1 0 0
  (1) pair lj/cut, perpetual
      attributes: half, newton on
      pair build: half/bin/atomonly/newton
      stencil: half/bin/3d
      bin: standard
WARNING: Not all mixed pair coeffs generated from mixing. Use write_data with 'pair ij' option to store all pair coeffs. (../write_data.cpp:312)


#############################
#   M E L T   S Y S T E M   #
#############################

velocity all create 2.4 5833274 mom yes dist gaussian # Assign velocities
                                                    # Temperature 2.4, random number seed, zero linear momentum
                                                                                # Gaussian distribution

timestep 0.002   # simulation timestep
thermo 1000       # output thermodynamic data every 1000 steps bf 100

# Define a fix  in this case with index 1 applied to all
# particles in the simulation. This fix is for simulations
# in the anisotropic NPT ensemble. Note that we use the MTK
# correction.
fix 1 all npt temp 2.4 2.4 0.1 iso 5.68 5.68 0.5 mtk yes tchain 5 pchain 5 # Use NPT ensemble
                                                                         # Set temperature and pressure and damping
                                                                         # Numbers of thermostats in chain and in barostat
run 10000          # run for 10000 steps
Per MPI rank memory allocation (min/avg/max) = 3.642 | 3.644 | 3.648 Mbytes
Step Temp E_pair E_mol TotEng Press Volume 
       0          2.4   -4.6132646            0   -1.0141646   -4.0148013         4000 
    1000    2.3955367   -4.3987123            0  -0.80630549    5.3704116    3616.0953 
    2000    2.3562675   -4.3550668            0  -0.82154909     5.640376    3610.4599 
    3000    2.4128315   -4.3985297            0  -0.78018732    5.8312652    3576.2439 
    4000    2.3758321     -4.34034            0   -0.7774828    5.6854066    3610.6537 
    5000     2.398021   -4.3723216            0  -0.77618942    5.7255978    3605.3365 
    6000    2.4028239   -4.3219046            0   -0.7185698    5.4825162    3646.0485 
    7000    2.4555077   -4.3385282            0  -0.65618745    5.8886215    3615.0345 
    8000    2.3825042   -4.3678207            0  -0.79495778    5.6747524    3592.9392 
    9000    2.3580513   -4.3188546            0  -0.78266198    5.3689376    3648.7301 
   10000    2.3743789    -4.339795            0  -0.77911712    5.6845647     3608.106 
Loop time of 2.66846 on 48 procs for 10000 steps with 4000 atoms

Performance: 647565.137 tau/day, 3747.483 timesteps/s
99.6% CPU use with 48 MPI tasks x no OpenMP threads

MPI task timing breakdown:
Section |  min time  |  avg time  |  max time  |%varavg| %total
---------------------------------------------------------------
Pair    | 1.2317     | 1.2784     | 1.3417     |   2.1 | 47.91
Neigh   | 0.21899    | 0.22456    | 0.23718    |   0.7 |  8.42
Comm    | 0.81983    | 0.89182    | 0.94772    |   2.9 | 33.42
Output  | 0.00024511 | 0.00024981 | 0.00031391 |   0.0 |  0.01
Modify  | 0.23977    | 0.25765    | 0.29118    |   2.7 |  9.66
Other   |            | 0.01574    |            |       |  0.59

Nlocal:        83.3333 ave          91 max          74 min
Histogram: 1 3 4 4 5 11 2 12 5 1
Nghost:        1760.29 ave        1783 max        1733 min
Histogram: 2 4 2 6 8 4 6 6 7 3
Neighs:        10580.7 ave       11467 max        9234 min
Histogram: 2 2 4 5 4 6 3 8 5 9

Total # of neighbors = 507873
Ave neighs/atom = 126.96825
Neighbor list builds = 904
Dangerous builds = 200

# Equilibrate just above the melting temperature to avoid step fn in T

fix 1 all npt temp 1.25 1.25 0.1 iso 5.68 5.68 0.5 mtk yes tchain 5 pchain 5
run 2000
Per MPI rank memory allocation (min/avg/max) = 3.644 | 3.646 | 3.650 Mbytes
Step Temp E_pair E_mol TotEng Press Volume 
   10000    2.3743789    -4.339795            0  -0.77911712    5.6845647     3608.106 
   11000    1.2456697   -6.3519927            0   -4.4839552    5.6433598    2775.6391 
   12000    1.2220026    -6.434853            0   -4.6023073     5.850356    2744.9982 
Loop time of 0.674467 on 48 procs for 2000 steps with 4000 atoms

Performance: 512404.635 tau/day, 2965.305 timesteps/s
99.6% CPU use with 48 MPI tasks x no OpenMP threads

MPI task timing breakdown:
Section |  min time  |  avg time  |  max time  |%varavg| %total
---------------------------------------------------------------
Pair    | 0.29675    | 0.32841    | 0.38411    |   2.5 | 48.69
Neigh   | 0.042661   | 0.044468   | 0.051178   |   0.6 |  6.59
Comm    | 0.19134    | 0.25153    | 0.28878    |   3.3 | 37.29
Output  | 5.2001e-05 | 5.3741e-05 | 6.7474e-05 |   0.0 |  0.01
Modify  | 0.039655   | 0.045045   | 0.050202   |   1.5 |  6.68
Other   |            | 0.004959   |            |       |  0.74

Nlocal:        83.3333 ave          89 max          77 min
Histogram: 5 1 0 5 5 17 4 5 4 2
Nghost:        2120.35 ave        2138 max        2100 min
Histogram: 1 2 3 7 9 9 8 2 2 5
Neighs:        13907.2 ave       15428 max       12629 min
Histogram: 3 4 8 5 5 8 7 5 1 2

Total # of neighbors = 667548
Ave neighs/atom = 166.88700
Neighbor list builds = 144
Dangerous builds = 12

#############################
# L I N E A R  Q U E N C H  #
#############################

# Define solid atoms. This closely follows ten Wolde  Ruiz-Montero and Frenkel  Faraday Discuss  1996  104  93-110
# Compute components of the per-atom q6 vector
compute q6 all orientorder/atom degrees 1 6 components 6 nnn NULL cutoff 1.3 # compute the Q6 parameter.
                                                                             # Use all neighbours within 1.3 unit cell.

# get number of connections
compute coord_number all coord/atom orientorder q6 0.5

# An atom is solid if it has 8 or more connections (of a possible 14)
variable is_solid atom c_coord_number>=8
group solid dynamic all var is_solid    # Must be dynamic to update
dynamic group solid defined

# do clustering
compute cluster solid cluster/atom 1.3 # Create a cluster where all atoms within are solid and max 1.3 units from another member

# define chunks one chunk per cluster
compute clus_chunks solid chunk/atom c_cluster nchunk every compress yes  # Says which atoms are in which chunk

# count the size of each chunk
compute size_chunks solid property/chunk clus_chunks count


# Find the maximum entry in the vector of chunk sizes
variable max_n equal max(c_size_chunks)


# Thermo style which includes this variable
# thermo_style custom step temp pe vol v_max_n

thermo ${N}  # Print the thermo information every 100 steps
thermo 1000  

# Reset the npt fix at a lower temperature (below freezing)
fix 1  all npt temp  ${temp} ${temp}  0.1  iso  5.68  5.68  0.5  mtk yes tchain  5  pchain  5
fix 1  all npt temp  0.45 ${temp}  0.1  iso  5.68  5.68  0.5  mtk yes tchain  5  pchain  5
fix 1  all npt temp  0.45 0.45  0.1  iso  5.68  5.68  0.5  mtk yes tchain  5  pchain  5

dump dmp2 all dcd ${N} traj.dcd
dump dmp2 all dcd 1000 traj.dcd


compute msd all msd com yes
variable twopoint equal c_msd[4]/6/(step*dt+1.0e-6)
fix 9 all vector 10 c_msd[4]
variable fit equal slope(f_9)/6/(10*dt)
thermo_style custom step temp pe c_msd[4] v_twopoint v_fit v_max_n

fix 1 all npt temp 1.25 ${temp} 0.1 iso 5.68 5.68 0.5 mtk yes tchain 5 pchain 5
fix 1 all npt temp 1.25 0.45 0.1 iso 5.68 5.68 0.5 mtk yes tchain 5 pchain 5
run 5000000 # 5000000  # Run for this many steps
Neighbor list info ...
  update every 1 steps, delay 10 steps, check yes
  max neighbors/atom: 2000, page size: 100000
  master list distance cutoff = 3.8
  ghost atom cutoff = 3.8
  binsize = 1.9, bins = 8 8 8
  4 neighbor lists, perpetual/occasional/extra = 1 3 0
  (1) pair lj/cut, perpetual
      attributes: half, newton on
      pair build: half/bin/atomonly/newton
      stencil: half/bin/3d
      bin: standard
  (2) compute orientorder/atom, occasional
      attributes: full, newton on
      pair build: full/bin/atomonly
      stencil: full/bin/3d
      bin: standard
  (3) compute coord/atom, occasional
      attributes: full, newton on
      pair build: full/bin/atomonly
      stencil: full/bin/3d
      bin: standard
  (4) compute cluster/atom, occasional
      attributes: full, newton on
      pair build: full/bin/atomonly
      stencil: full/bin/3d
      bin: standard
Per MPI rank memory allocation (min/avg/max) = 9.847 | 9.853 | 9.859 Mbytes
Step Temp PotEng c_msd[4] v_twopoint v_fit v_max_n 
   12000    1.2220026    -6.434853            0            0 8.3333333e+20            2 
   13000    1.2449622   -6.4898493   0.49256534   0.00315747  0.039797265            1 
   14000     1.236783   -6.4817987    1.0082145 0.0060012764  0.041185638            2 
   15000     1.263107   -6.4559361    1.4547054 0.0080816962  0.040567247            3 
   16000    1.2304397   -6.4587357    1.9016524 0.0099044393  0.039233207            1 
   17000    1.2717188   -6.4765434    2.3447632  0.011493937  0.038826706            1 
   18000    1.2561632   -6.4891091    2.8172935  0.013043025  0.038602499            3 
   19000    1.2520038   -6.4792096    3.2784653  0.014379233  0.038391662            5 
   20000    1.2612377   -6.4839238    3.7363899  0.015568291  0.038563613            3 
   21000    1.2358892   -6.4561894    4.0480762  0.016063794   0.03799515            2 
   22000    1.2716661   -6.4385675    4.5271518  0.017148302  0.037513749            1 
   23000    1.2421712   -6.4217848    5.0791572  0.018402743  0.037481426            3 
   24000     1.268326   -6.4596489    5.5228603  0.019176598  0.037610672            2 
   25000    1.2329139   -6.4496546    6.0180426  0.020060141   0.03774464            2 
   26000    1.2311383   -6.4951088    6.3671949  0.020407676  0.037774659            2 
   27000    1.2388208   -6.4287972    6.8594577  0.021171165  0.037677211            5 
   28000    1.2479753   -6.4630098    7.2326295  0.021525683  0.037604748            2 
   29000    1.2494699   -6.5312551     7.665698  0.022027867  0.037498107            4 
   30000    1.2372262    -6.442492    8.2380401  0.022883444   0.03752151            3 
   31000    1.2461855   -6.4648546    8.7120225  0.023419415  0.037585766            5 
   32000    1.2423591   -6.4135281    9.1578597  0.023848593  0.037637439            2 
   33000    1.2405888   -6.4618065    9.5204499   0.02404154  0.037596936            2 
   34000    1.2461751   -6.4971589    9.8631306  0.024174339  0.037508636            3 
   35000    1.2732427   -6.4863459    10.341672  0.024623027  0.037437784            5 
   36000    1.2418229   -6.4687085    10.922423  0.025283386  0.037421403            3 
   37000    1.2251599   -6.4399108    11.464925  0.025821902  0.037477658            4 
   38000    1.2570254   -6.4503323    12.002448  0.026321158  0.037602665            3 
   39000    1.2399963   -6.4776344    12.570589  0.026860233   0.03778462            2 
   40000    1.2788791   -6.4580116    13.030134  0.027146112  0.037946084            4 
   41000    1.2239725   -6.4534877    13.467594  0.027373159  0.038068432            2 
   42000    1.2562338   -6.4711297    13.826516  0.027433563   0.03813086            3 
   43000    1.2672826   -6.5098604    14.194915  0.027509525  0.038153128            5 
   44000    1.2454345   -6.4399001    14.747248  0.027930394  0.038178346            2 
   45000    1.2222972   -6.5125277    15.151278  0.028057923  0.038194271            2 
   46000    1.2497603   -6.4766396    15.602239  0.028264926  0.038193576            3 
   47000    1.2810767   -6.4640917    16.077225  0.028505718  0.038213288            2 
   48000    1.2595773   -6.4343964    16.401816  0.028475374  0.038200514            2 
   49000     1.246933   -6.4725998    16.960987  0.028845216   0.03817528            3 
   50000    1.2363724   -6.5113072    17.368869  0.028948115  0.038179463            2 
   51000    1.2522223   -6.4900764     17.87677  0.029210407   0.03817614            4 
   52000    1.2219419   -6.4694011    18.319343  0.029357921  0.038154199            4 
   53000    1.2074488   -6.4685706    18.795646  0.029552903  0.038154037            3 
   54000    1.2536832   -6.5179744    19.305345  0.029792199  0.038152566            1 
   55000    1.2611656   -6.5347351    19.794546  0.029991736  0.038181443            2 
   56000     1.233394   -6.4715015    20.578607  0.030622927  0.038240583            2 
   57000     1.234645   -6.4581745    20.997307  0.030697818  0.038326501            5 
   58000    1.2441421   -6.4800301    21.528596  0.030931891  0.038396345            2 
   59000    1.2509557   -6.5334764    21.894861  0.030924945  0.038487292            2 
   60000    1.2114689   -6.4927636    22.446486  0.031175675  0.038539849            3 
   61000    1.2351838   -6.5149044    22.966497  0.031374996  0.038599084            4 
   62000     1.250234   -6.4981344    23.404474  0.031457625  0.038653171            3 
   63000     1.237009      -6.4728    23.899684  0.031613338  0.038705716            3 
   64000    1.2483023   -6.4985929    24.307843  0.031650837  0.038748156            2 
   65000    1.2432332   -6.4573036    24.781476  0.031771123  0.038774819            1 
   66000    1.2340701   -6.4558869    25.192113  0.031808223  0.038801734            2 
   67000    1.2302554   -6.4695655    25.477267  0.031688143  0.038814543            1 
   68000    1.2181082   -6.5068174    25.914037  0.031757398  0.038814113            3 
   69000    1.2555122   -6.4740951    26.551864  0.032067469   0.03881442            2 
   70000     1.253143   -6.5010343    26.862283  0.031978908  0.038818418            1 
   71000    1.2234208   -6.4892737    27.354863  0.032106646  0.038825264            3 
   72000    1.2552567   -6.4804648    27.956013  0.032356496  0.038830556            2 
   73000    1.2599418   -6.4470301    28.478267  0.032509437  0.038850549            3 
   74000     1.233843   -6.4758687    29.158423  0.032836062  0.038880218            4 
   75000    1.2292867   -6.4909633    29.475121  0.032750134  0.038910372            1 
   76000    1.2355585   -6.5019857     29.86519  0.032746919  0.038926771            7 
   77000    1.2443502   -6.5115165    30.422889  0.032925205  0.038943208            1 
   78000    1.2259107   -6.4650563    30.930614  0.033045528  0.038962452            2 
   79000    1.2392841   -6.5027079    31.418167  0.033141526   0.03898299            2 
   80000    1.2576054   -6.5251221    31.794732  0.033119512  0.039001265            2 
   81000    1.2683185   -6.4816067    32.465011  0.033400217  0.039029343            1 
   82000    1.2227895    -6.492977     32.81744  0.033351057  0.039055388            5 
   83000    1.2406119   -6.4860884    33.237555  0.033371039  0.039075091            3 
   84000    1.2509036   -6.5040339    33.508708  0.033242766  0.039076921            3 
   85000    1.2252964   -6.4305101    34.162544   0.03349269  0.039074806            1 
   86000     1.231919   -6.4502722    34.706951  0.033630766  0.039077192            1 
   87000    1.2411457    -6.491467    34.877064   0.03340715  0.039079785            2 
   88000    1.2082387   -6.5231665    35.266301  0.033396118  0.039065216            3 
   89000    1.2534728   -6.5074772    35.731785  0.033456727  0.039052511            1 
   90000    1.2335152   -6.5194761    36.099237   0.03342522  0.039044095            2 
   91000    1.2541606    -6.482055    36.750896  0.033654667  0.039034627            2 
   92000    1.2558751   -6.4908853    37.151796  0.033651989  0.039022267            3 
   93000    1.2696029   -6.4848748    37.800837  0.033871718  0.039019399            5 
   94000     1.238278   -6.5111077    38.136577  0.033809022  0.039010919            3 
   95000    1.2540978    -6.516075     38.74572  0.033987473  0.039008462            2 
   96000     1.233615   -6.4758356    39.308529  0.034121987  0.039010468            3 
   97000    1.2236628   -6.4868808    39.855136  0.034239807  0.039021823            2 
   98000    1.2422507   -6.4861692    40.502287   0.03444072  0.039034884            4 
   99000       1.2471   -6.4705637    40.832348  0.034370663  0.039048091            2 
  100000    1.2254098    -6.484404    41.232418  0.034360348  0.039057342            1 
  101000    1.2185287   -6.4735368    41.920411  0.034587798  0.039070137            2 
  102000    1.2454944   -6.4987031    42.360826  0.034608518  0.039090061            1 
  103000    1.2198774   -6.5629515    42.717711  0.034561255  0.039110395            2 
  104000    1.2532502   -6.4866927    43.353298   0.03473822  0.039130072            2 
  105000    1.2347681   -6.5107984    43.745924  0.034718987  0.039142036            2 
  106000    1.2324918   -6.5521254    44.026041  0.034611668  0.039153316            2 
  107000    1.2246015   -6.5199991     44.43976  0.034610405  0.039160641            2 
  108000    1.2318217   -6.5296366      44.9126  0.034654784  0.039163124            2 
  109000    1.2470547   -6.5816377    45.100148  0.034480235  0.039161802            3 
  110000    1.2204273   -6.4788567    45.855165  0.034738761  0.039154794            3 
  111000    1.2315075   -6.5118265    46.118222   0.03462329   0.03915009            3 
  112000    1.2130739   -6.4981059    46.630867  0.034695585  0.039145571            2 
  113000    1.2314503   -6.5430484    46.930806  0.034609739  0.039139377            2 
  114000    1.2368513   -6.4906094    47.615957  0.034806986  0.039125445            3 
  115000    1.2286638   -6.4850318    48.158664  0.034897583  0.039114018            1 
  116000     1.239739   -6.5143496    48.492647  0.034836671  0.039104385            3 
  117000    1.2312286   -6.5081412    48.673382  0.034667651  0.039088996            2 
  118000    1.2300535   -6.4773328    49.233722  0.034769578  0.039072621            2 
  119000    1.2217301   -6.5201965    49.743672  0.034834504  0.039061251            3 
  120000     1.214649   -6.5245106      49.9312  0.034674445  0.039047196            3 
  121000    1.2229487   -6.5268343    50.472384  0.034760595  0.039027631            1 
  122000    1.2274638   -6.5600778      50.6502  0.034597131  0.039008132            2 
  123000     1.224486   -6.4988206    51.413253  0.034832827  0.038984979            3 
  124000    1.2571089   -6.5084344    51.870214  0.034859014  0.038965513            1 
  125000     1.252904   -6.5081888    52.390036  0.034926691  0.038947069            1 
  126000    1.2253024   -6.5264364    52.615209  0.034798419  0.038929381            1 
  127000     1.238632   -6.5204955    53.500179  0.035105104  0.038918017            4 
  128000    1.2417757   -6.5325527    53.593068   0.03489132    0.0389058            3 
  129000    1.2225767   -6.5674922    54.313855   0.03508647  0.038895816            1 
  130000    1.2399672   -6.4806453    54.621048  0.035013492  0.038881455            3 
  131000    1.2198343   -6.5129232    55.173628  0.035097728   0.03886865            2 
  132000    1.1829986   -6.5047971    55.742822  0.035191176  0.038861735            3 
  133000    1.2371832   -6.5104824    56.007088   0.03509216  0.038857732            5 
  134000     1.248457   -6.4698362    56.741067  0.035286733  0.038850737            4 
  135000    1.2187414   -6.4988013    56.785654  0.035052873  0.038842417            1 
  136000    1.2463393   -6.4683771    57.276558   0.03509593  0.038825865            1 
  137000     1.229077   -6.5126618    57.737743  0.035120282  0.038810278            4 
  138000    1.2250287   -6.5001972    58.165038  0.035123815  0.038797553            2 
  139000    1.2601987   -6.5361115    58.254243  0.034924606  0.038777277            4 
  140000    1.2099392   -6.5534586    58.812159  0.035007237  0.038757416            2 
  141000    1.2379471   -6.5177171    59.156758  0.034962623   0.03873421            6 
  142000    1.2377694   -6.4873204    59.678581  0.035022642  0.038709159            2 
  143000    1.2462459   -6.5077272    60.405157   0.03520114   0.03868946            1 
  144000     1.258599   -6.5365365    60.825876   0.03520016  0.038678675            1 
  145000    1.2203009   -6.5155243    61.291588  0.035225051  0.038662431            2 
  146000      1.20748   -6.5096306    61.492226  0.035098303  0.038646359            2 
  147000    1.2329535   -6.5323106    61.776131  0.035020482  0.038629516            3 
  148000    1.1872927   -6.5101004    62.292068  0.035074363  0.038611024            3 
  149000    1.2182377   -6.5592048    62.474612  0.034941058  0.038586233            2 
  150000    1.2468018   -6.5658439    62.985386  0.034991881   0.03856476            1 
  151000    1.2549786   -6.5186914    63.596125  0.035097199  0.038540345            1 
  152000    1.2192821      -6.5167    63.854615  0.035008013  0.038517222            2 
  153000    1.2513502   -6.5562279    64.195172   0.03496469  0.038492908            3 
  154000    1.2343041   -6.5197454      65.0802  0.035216558  0.038468243            2 
  155000    1.2409545   -6.5334221      65.5425  0.035237903  0.038448397            1 
  156000    1.2147654   -6.5351042     66.01677  0.035265369  0.038432425            1 
  157000    1.2554144   -6.5222718    66.588777  0.035344361  0.038419717            2 
  158000    1.2420526   -6.5511076    66.851375  0.035259164  0.038407584            2 
  159000    1.1943196   -6.5485375    67.060063  0.035146783  0.038391887            3 
  160000    1.2085223   -6.5649736    67.585756  0.035200915  0.038373908            3 
  161000     1.239686   -6.5404035    67.999635  0.035196499  0.038358021            2 
  162000    1.2253147   -6.5164333     68.27835  0.035122608  0.038340085            2 
  163000    1.2165268   -6.5381834    68.624322  0.035084009  0.038323408            1 
  164000    1.2348396   -6.4952471    69.700906  0.035417127  0.038308322            2 
  165000    1.2589532   -6.5462591    69.565079  0.035133878   0.03829448            4 
  166000    1.2477248   -6.5628904    69.977432  0.035129233  0.038280343            3 
  167000    1.2188288   -6.5613278    70.685321  0.035272116  0.038265313            3 
  168000    1.2251523   -6.4744615    71.319295  0.035376634  0.038250736            1 
  169000    1.2129026   -6.5124561    72.046885  0.035526077  0.038240349            1 
  170000    1.2337827   -6.4816174    72.498296   0.03553838   0.03823346            2 
  171000    1.1989921   -6.5172633    72.860828  0.035507226  0.038224658            2 
  172000     1.222089   -6.5259889    73.273521  0.035500737  0.038213844            2 
  173000    1.2217667   -6.5307823    73.561412  0.035434206  0.038201788            1 
  174000    1.2020752   -6.5591807    73.603646  0.035250788  0.038186251            3 
  175000    1.2316603   -6.5723244    74.231853  0.035348501   0.03817135            1 
  176000    1.2592643   -6.5437367    74.648827  0.035345088  0.038156389            3 
  177000    1.2402243   -6.5164035    74.694775  0.035167032  0.038141962            3 
  178000    1.2375524   -6.5019476    75.331545  0.035267577  0.038124242            3 
  179000    1.2325144    -6.527526    75.804757  0.035290855  0.038108183            2 
  180000    1.2385096   -6.5501866    76.078938   0.03522173  0.038091929            3 
  181000    1.2189493   -6.5973925    76.261906  0.035111375  0.038077099            3 
  182000    1.2004885   -6.5221366    77.246743  0.035369388  0.038060322            2 
  183000    1.2315195   -6.5315352    77.759083  0.035409418  0.038045784            3 
  184000     1.185577   -6.5236538    78.435568  0.035523355  0.038032805            3 
  185000    1.2160653   -6.5240716    78.605531  0.035407897  0.038022201            4 
  186000    1.2019786   -6.5271118    79.311606  0.035533874  0.038012791            4 
  187000    1.2169972   -6.5420047    79.579973  0.035463446  0.038003993            2 
  188000    1.2184645   -6.5358574    79.794156   0.03536975  0.037992187            2 
  189000    1.2307102   -6.5019894     80.64361  0.035557147  0.037979661            2 
  190000    1.1933177   -6.5451443    80.930463  0.035495817  0.037969413            3 
  191000    1.2119285   -6.5518317    81.325225   0.03548221  0.037959069            2 
  192000     1.207785   -6.5589319    81.458765  0.035355367  0.037948997            3 
  193000    1.2103617   -6.5651952    81.871583  0.035350424  0.037933795            2 
  194000     1.201154   -6.4982101    82.523914  0.035448416  0.037918883            2 
  195000    1.2151566    -6.537328    82.623497  0.035309187  0.037905908            3 
  196000    1.1967273    -6.545819    83.160898  0.035357525  0.037892035            2 
  197000    1.2110398   -6.5053142    83.771083   0.03543616  0.037876982            2 
  198000    1.2153628   -6.5517505    83.861516  0.035295251  0.037859787            4 
  199000    1.2561587   -6.5485982     83.78532   0.03508598   0.03783963            3 
  200000    1.2277971   -6.5507795    84.417011  0.035173755  0.037819986            4 
  201000     1.214966   -6.5520083    84.762454  0.035141979  0.037799281            1 
  202000    1.2180967   -6.5353649    85.299035  0.035189371  0.037776947            2 
  203000     1.220476   -6.5281483    85.373667  0.035046661  0.037752704            3 
  204000    1.2269255   -6.5398557    85.960078  0.035114411  0.037730528            2 
  205000    1.2118361   -6.5954123    86.468003  0.035149595  0.037710774            2 
  206000      1.23827   -6.5337737      86.5093  0.034995672  0.037688766            2 
  207000    1.2362863   -6.5071457    87.581387  0.035258207  0.037667174            3 
  208000    1.1974612   -6.5336689    87.683197  0.035129486  0.037646134            3 
  209000    1.2258573   -6.5799081    87.559231  0.034911974  0.037625309            3 
  210000    1.2083983   -6.5179862    88.263939  0.035025373  0.037603065            2 
  211000    1.2194521   -6.5555173    88.829307  0.035082665  0.037580944            8 
  212000    1.2090303   -6.5654836    88.768706  0.034893359  0.037559529            5 
  213000    1.2131365     -6.55147    89.291236  0.034933973  0.037534844            3 
  214000    1.2185406   -6.5715615    89.788226  0.034964262  0.037508366            3 
  215000    1.2190906   -6.6090227    89.667082  0.034754683  0.037481646            6 
  216000    1.1833296   -6.5192016    90.433307  0.034889393  0.037456584            2 
  217000    1.2077484   -6.5717063    91.067147  0.034972022  0.037433007            2 
  218000     1.216215   -6.6093094    91.151918  0.034844005  0.037407598            2 
  219000    1.2155584   -6.5792259    91.248145  0.034721516  0.037380404            1 
  220000    1.2071987   -6.5475738     91.78989  0.034768898  0.037352831            3 
  221000    1.2013947   -6.5290702     92.24341  0.034782583  0.037327944            2 
  222000    1.2187185   -6.5540702    92.604166  0.034761324  0.037300794            5 
  223000    1.1996932   -6.6129951    92.767821    0.0346666  0.037275584            6 
  224000    1.1987469   -6.5915539    93.330503  0.034721169  0.037250871            2 
  225000    1.2309758   -6.5506015    94.061652  0.034837649  0.037228454            2 
  226000    1.2442778   -6.5356035    94.416161  0.034814219  0.037205376            1 
  227000    1.2460295   -6.5832805    94.687579  0.034760492  0.037181804            2 
  228000    1.2107679    -6.546789    95.726122  0.034987618  0.037158887            2 
  229000    1.2219955   -6.5334286     96.24698  0.035024374  0.037139548            3 
  230000    1.2319721   -6.5694439    96.693028  0.035033706  0.037121302            2 
  231000    1.2048919   -6.5440454    97.409986  0.035140687  0.037103207            2 
  232000     1.199115   -6.5224011    98.016183  0.035206962  0.037087499            3 
  233000    1.1965726   -6.5861805    97.741146  0.034957491  0.037073134            2 
  234000    1.2005183   -6.5143854     98.99121   0.03525328   0.03705879            5 
  235000    1.1931179   -6.5435472    99.398821  0.035247809  0.037045063            6 
  236000    1.2316461   -6.5138777    99.736833  0.035217808  0.037031189            3 
  237000    1.1945367   -6.5077702    100.13516  0.035209267  0.037020213            2 
  238000    1.2282117   -6.5366105    100.93999  0.035343133  0.037009247            1 
  239000    1.2063005   -6.5974159    100.66292  0.035098648  0.036996718            3 
  240000    1.1904052   -6.5421487    101.90284  0.035382931  0.036986932            2 
  241000    1.2091668   -6.5784712    101.69597  0.035164581  0.036977614            2 
  242000    1.2124533   -6.5853076    101.98513  0.035118845  0.036968503            3 
  243000    1.2333524     -6.58232    102.54528  0.035166421  0.036959755            1 
  244000    1.2213505   -6.5668296    103.00358  0.035178818  0.036952891            2 
  245000    1.2072708    -6.511401    103.53017  0.035214344  0.036944025            7 
  246000    1.2303019   -6.5697334    103.95708  0.035215812  0.036934541            2 
  247000    1.1767664   -6.5521199    104.07472  0.035112929  0.036924484            5 
  248000    1.2255328    -6.590664    104.53611  0.035126382  0.036913051            4 
  249000    1.2547067    -6.570048    104.85901  0.035093376  0.036903199            3 
  250000    1.2321283   -6.5464782    105.70619  0.035235395  0.036893042            3 
  251000     1.202439   -6.5754127    106.00512  0.035194264  0.036884657            2 
  252000    1.2117047    -6.581085     106.3256  0.035160583  0.036873905            2 
  253000    1.2101579   -6.5339317    106.91711  0.035216441  0.036864808            2 
  254000    1.2298259   -6.5328774    107.73494  0.035346109  0.036856168            1 
  255000    1.2032318   -6.5971643    107.33467   0.03507669  0.036845153            6 
  256000    1.1977137   -6.5466141    108.12722  0.035197662  0.036834045            2 
  257000    1.2197785   -6.5884065    107.85012  0.034970855  0.036819991            4 
  258000    1.2304139   -6.5702098    108.19765  0.034947562   0.03680553            6 
  259000    1.1998849   -6.5443476     108.4736  0.034901416  0.036790701            1 
  260000     1.202056   -6.5772212    109.08881  0.034964362  0.036775439            3 
  261000    1.2068135   -6.5671706    109.71609  0.035030681  0.036761875            1 
  262000    1.1906024   -6.5209628    110.40002  0.035114509   0.03674936            3 
  263000    1.2052728   -6.5641415    110.33258  0.034959627  0.036737178            4 
  264000    1.2445155   -6.5841147    110.85266  0.034991368  0.036723075            2 
  265000    1.2122149   -6.5646172    110.81345  0.034846997   0.03670857            2 
  266000    1.1867868     -6.57965    111.39507  0.034898206  0.036692037            2 
  267000    1.2256425   -6.6025535    111.65177  0.034847619  0.036675763            4 
  268000    1.2222404   -6.5831798    111.79247   0.03476134   0.03665823            2 
  269000    1.1997068   -6.5397869    112.64722   0.03489691  0.036642082            2 
  270000    1.2268163   -6.5715175    112.99217  0.034874125  0.036624922            2 
  271000    1.1883204   -6.5677831    113.19439  0.034807622  0.036609178            2 
  272000    1.1997337   -6.5634187    113.56458  0.034793071  0.036592696            4 
  273000      1.21099   -6.6157573    113.71414  0.034711275   0.03657618            2 
  274000    1.2033996   -6.6325177    113.75653  0.034597485  0.036557972            2 
  275000    1.2134157   -6.6206694     114.2417  0.034618698  0.036540408            3 
  276000    1.2147611    -6.538776    115.18829  0.034779072   0.03652335            5 
  277000    1.2042847   -6.5404612    115.41436  0.034721527  0.036505409            6 
  278000    1.2176537     -6.57355    115.70614  0.034684095  0.036487326            2 
  279000    1.1886111   -6.5283889    116.20047  0.034707427  0.036469309            2 
  280000    1.2047213   -6.5635049    116.63509  0.034712823  0.036451375            4 
  281000    1.1899204   -6.6234781    116.36965  0.034510573  0.036432034            2 
  282000    1.2028651    -6.594695    117.10502  0.034605502  0.036413424            3 
  283000    1.2151119   -6.6080874    117.52187  0.034605969  0.036396809            4 
  284000    1.2055878   -6.5620462     118.3576  0.034729342   0.03637825            3 
  285000    1.2075898   -6.5931672     117.8518   0.03445959  0.036358125            4 
  286000    1.2095191   -6.5217747     118.9761  0.034666697  0.036338017            2 
  287000    1.1900629   -6.5653415    118.49038  0.034404874  0.036318618            2 
  288000    1.1922296   -6.6094203    118.93586  0.034414312  0.036298639            1 
  289000    1.2117618   -6.5929304    119.58717  0.034483037  0.036280124            3 
  290000    1.1974344   -6.5832955    119.96723  0.034473343  0.036260701            2 
  291000    1.1946299   -6.5386758    120.77621  0.034586544  0.036241691            2 
  292000    1.2043275   -6.5480452    121.29171  0.034615213  0.036222981            5 
  293000    1.1876985   -6.6187735    121.20904  0.034473562  0.036204709            2 
  294000    1.2014643   -6.5704563    121.90735  0.034554238  0.036187474            2 
  295000    1.2165745   -6.5643396    122.61847  0.034637985  0.036171819            3 
  296000    1.1984988   -6.5795202    122.65891  0.034532352  0.036155388            3 
  297000    1.1781618   -6.5519701    123.21657  0.034572549  0.036139019            4 
  298000    1.2287611   -6.6090631    123.39228  0.034505671  0.036122544            4 
  299000    1.1866453   -6.5854986     123.6621  0.034465467     0.036106            1 
  300000      1.20058    -6.546501    123.84881  0.034402448  0.036089375            3 
  301000     1.215396   -6.6148305    123.99629  0.034328983  0.036071614            2 
  302000    1.2492091   -6.5696214    124.25143  0.034285714  0.036055099            2 
  303000    1.1887717   -6.5626604    125.29062  0.034458366  0.036038726            1 
  304000    1.1840626   -6.6070344    125.15437  0.034307666  0.036019338            6 
  305000    1.2060978   -6.5674331    126.03674  0.034436268   0.03600237            4 
  306000    1.1647984   -6.5442542    126.40463  0.034423918   0.03598622            5 
  307000    1.2011278   -6.5579116    126.52147  0.034343503  0.035968281            3 
  308000    1.1818706    -6.567642    126.87294  0.034327094  0.035951005            2 
  309000    1.1943965   -6.6291268    127.23309   0.03431313  0.035932421            2 
  310000    1.2111502   -6.5880607    127.40267   0.03424803  0.035913138            4 
  311000    1.2103629   -6.5723747    127.39671   0.03413631  0.035893884            3 
  312000    1.1888121   -6.5685799    128.59888  0.034347991  0.035876359            2 
  313000    1.2196991   -6.5646566    129.16509  0.034389003  0.035859714            2 
  314000    1.2132628   -6.5438855    129.71536  0.034425521  0.035843499            3 
  315000    1.2125957   -6.5593444    129.84847  0.034351448   0.03582756            2 
  316000    1.1914114   -6.6372099    129.47986  0.034145534  0.035811784            6 
  317000    1.2081872    -6.593019    130.85949  0.034400498  0.035795197            3 
  318000    1.1968714   -6.5396792     130.5205  0.034203486  0.035776713            3 
  319000    1.2139149   -6.6231038    130.76746  0.034160778  0.035756442            4 
  320000    1.2055119    -6.583453    131.02493  0.034121074  0.035736482            4 
  321000    1.2406059   -6.5921521    131.57762  0.034158261  0.035717019            2 
  322000     1.194848   -6.5644846    131.64095  0.034068569  0.035698321            5 
  323000    1.1981446   -6.6043344    131.94327  0.034041092  0.035678142            2 
  324000     1.227732   -6.6376609    132.37877  0.034048039  0.035659055            3 
  325000    1.1922085   -6.5664916    133.49381  0.034229182   0.03564153            2 
  326000    1.1951117   -6.5702103    133.81681  0.034206751  0.035624365            4 
  327000     1.197431   -6.5767257    133.89337  0.034121653  0.035607133            2 
  328000    1.1986793   -6.5652638    134.69432  0.034221118  0.035590448            3 
  329000    1.1702921   -6.6081556    134.28507  0.034013441  0.035574325            4 
  330000    1.1952921   -6.6277783    134.90648  0.034067293  0.035557268            1 
  331000    1.1953152   -6.6346168    135.44212  0.034099225  0.035541019            4 
  332000     1.211588   -6.5611824    136.15049  0.034174319  0.035524916            2 
  333000     1.208537   -6.5356217     136.8855  0.034255631  0.035509561            4 
  334000     1.209854   -6.6172171    136.63249  0.034089943  0.035493515            1 
  335000    1.1962135   -6.5927049     137.2289  0.034136543  0.035478238            3 
  336000    1.1998566    -6.628333    137.41729  0.034081669  0.035464531            2 
  337000     1.180866   -6.6022539    138.50449   0.03424938  0.035449769            3 
  338000    1.1921122   -6.5927694    138.52368   0.03415278   0.03543575            4 
  339000    1.1760333   -6.6026321    138.99802  0.034168639  0.035421272            4 
  340000    1.2034143   -6.5773519    139.54807  0.034202958   0.03540715            6 
  341000    1.2093873    -6.581391    139.71625  0.034143755  0.035394085            1 
  342000    1.1819508   -6.6066106    140.20553  0.034163141  0.035381233            3 
  343000    1.1888876   -6.6251972    140.24168  0.034072322  0.035367968            4 
  344000    1.2236391   -6.6075593    140.87796  0.034127413  0.035354562            2 
  345000    1.1872898   -6.6257667    140.86175  0.034024578  0.035340436            3 
  346000    1.1790447   -6.5883402    141.34483  0.034042589  0.035325521            3 
  347000    1.1717277     -6.57108    142.05684  0.034115475  0.035311945            1 
  348000    1.1910185   -6.5756565    142.11188  0.034030621  0.035297277            3 
  349000    1.2150343   -6.6235189    142.26924  0.033970688  0.035284514            5 
  350000    1.2176853   -6.5470811    143.83827  0.034247206  0.035270945            1 
  351000    1.1804745    -6.584544     144.2858  0.034255887  0.035259564            3 
  352000    1.1854399   -6.5842997    144.73142  0.034264067  0.035248771            2 
  353000    1.1807016   -6.6060988    145.23283   0.03428537  0.035237315            2 
  354000    1.2017807   -6.6366189    145.34168  0.034214143  0.035225881            2 
  355000    1.2091518   -6.6067117    145.80981  0.034227654  0.035214449            2 
  356000    1.1911242   -6.6446619      146.134  0.034207397  0.035205007            1 
  357000    1.2288766   -6.5943385    146.92305  0.034295763  0.035196873            1 
  358000    1.2285214   -6.6527362    147.32647  0.034293871  0.035188023            3 
  359000      1.19818   -6.6108627    147.61558  0.034265454  0.035179367            4 
  360000    1.1753791   -6.5670022     148.5313  0.034382246  0.035172424            2 
  361000    1.1945555    -6.607013    149.16322  0.034432876  0.035165356            2 
  362000    1.2046444   -6.6477699    148.77689  0.034248823  0.035156775            3 
  363000    1.1945766   -6.6324839    149.25335  0.034263855  0.035148157            3 
  364000    1.2022742   -6.6294101    149.72285   0.03427721  0.035140533            4 
  365000    1.1994067   -6.5854748    150.24479  0.034302464  0.035133255            6 
  366000    1.1611477   -6.6282393    150.32336  0.034226631  0.035125633            7 
  367000     1.157233   -6.6298829    151.10753  0.034311429  0.035117065            3 
  368000    1.1926224   -6.6324279    151.62959  0.034336412  0.035108865            3 
  369000    1.2095993    -6.589221    152.20673  0.034373698  0.035101175            3 
  370000    1.1991603   -6.6091606    151.72022  0.034171221  0.035092739            1 
  371000    1.1945472    -6.577147    153.20255  0.034412072  0.035085255            3 
  372000    1.1610739   -6.5950948    153.49056  0.034384085  0.035078588            3 
  373000    1.1877305   -6.5860607    153.87663  0.034378156  0.035072233            3 
  374000       1.1951   -6.5733416    154.58167   0.03444333  0.035065902            3 
  375000    1.2007345   -6.6207807    154.15392  0.034256426  0.035057882            3 
  376000    1.1719216   -6.6508138     154.6599  0.034277461  0.035049761            2 
  377000     1.218007   -6.5916532    154.88291  0.034235833  0.035041217            2 
  378000     1.170792   -6.6493782    154.90439  0.034149997   0.03503359            3 
  379000    1.1987069   -6.5992312    155.46625  0.034183433  0.035025773            1 
  380000    1.1793284   -6.5892317    156.25326  0.034266066  0.035018431            2 
  381000    1.1984039   -6.5888131    157.26894  0.034398281   0.03501146            2 
  382000     1.196722   -6.6558359    157.33666  0.034323006  0.035005031            3 
  383000    1.1841254   -6.6336295    157.35647  0.034237701  0.034998584            2 
  384000    1.1630999   -6.6336804    158.08667  0.034307003  0.034991919            4 
  385000    1.1730802   -6.5913248    158.36934  0.034279079  0.034984842            3 
  386000     1.202245   -6.6172101    159.15988   0.03436094  0.034978654            2 
  387000     1.183614   -6.6221425    159.47975  0.034341032  0.034972807            4 
  388000     1.198273   -6.5520211    159.98229  0.034360457  0.034967881            2 
  389000    1.1992782   -6.6406876    160.22243  0.034323571  0.034961917            4 
  390000    1.1903135   -6.5824444    160.97592  0.034396564  0.034956469            2 
  391000    1.1811155   -6.6170653    160.92135  0.034296963  0.034951346            1 
  392000    1.2008997   -6.6121091    161.15486  0.034259111  0.034945845            4 
  393000    1.1765547   -6.6092997    162.35482  0.034426381  0.034941518            2 
  394000    1.1916155   -6.6398994    162.71442  0.034415062  0.034937566            4 
  395000    1.1898182   -6.6333773    162.37894  0.034257161  0.034933349            2 
  396000    1.1877294    -6.597378    163.86211  0.034482767  0.034930022            4 
  397000    1.1925041   -6.6191768    163.15829  0.034248172  0.034924645            3 
  398000    1.1539217   -6.6120199    164.54111  0.034451655  0.034920027            1 
  399000    1.1793829   -6.6255376    164.46933  0.034350319  0.034915803            1 
  400000    1.1642301   -6.6299413    164.74332  0.034321525  0.034910307            2 
  401000    1.1810656    -6.637373     164.7983  0.034247361  0.034904406            5 
  402000    1.1950841   -6.5860537    165.71128  0.034351426  0.034898614            5 
  403000     1.197905   -6.6335338    165.17898  0.034156117  0.034892763            3 
  404000    1.1863017    -6.587437    165.86982  0.034214071  0.034887192            4 
  405000    1.1895445   -6.5899294    166.28257  0.034214521  0.034881515            2 
  406000    1.2020441   -6.6593644    166.05137  0.034082793  0.034874338            2 
  407000    1.1921044   -6.6306063    167.10718  0.034215229  0.034866997            2 
  408000      1.20822   -6.6462896    167.49071  0.034209705  0.034860219            2 
  409000    1.1912883   -6.6096815    167.83291  0.034195785  0.034855147            3 
  410000    1.1647724   -6.6685794    168.32854  0.034213119  0.034849901            2 
  411000    1.1722054   -6.6545808    168.63425   0.03419186  0.034843467            4 
  412000      1.19459   -6.6428163     169.4478  0.034273422   0.03483775            5 
  413000    1.1936578    -6.555305     170.5827  0.034419431  0.034833585            2 
  414000    1.1845501   -6.6232371    169.77462  0.034173635  0.034828049            4 
  415000    1.1853039   -6.6442608    170.82999   0.03430321  0.034821567            2 
  416000    1.1800588    -6.627713    170.59847  0.034174372  0.034814941            2 
  417000    1.2071439   -6.6396425    170.76884  0.034126468  0.034807864            2 
  418000    1.1773927   -6.6396465    171.02517  0.034095927  0.034801127            2 
  419000     1.165064   -6.5775527    171.30558  0.034070323  0.034794445            4 
  420000    1.1615807   -6.6312627    172.22011  0.034170656  0.034787561            3 
  421000    1.1920542    -6.602664    172.20056  0.034085621  0.034780949            4 
  422000    1.2142119   -6.6062817    173.21401  0.034204979  0.034775352            2 
  423000     1.175609   -6.6169935    173.31137  0.034143296   0.03476892            1 
  424000    1.1915877   -6.6802612    172.27588  0.033859253  0.034760594            1 
  425000    1.1479053   -6.6447849    173.11185    0.0339435  0.034751807            4 
  426000    1.1821705   -6.6754308    173.49136   0.03393806  0.034742978            3 
  427000    1.1889924   -6.6089821    174.37622  0.034031269  0.034734581            2 
  428000    1.1713457   -6.6852897    174.02741  0.033883841  0.034726636            4 
  429000    1.1938265   -6.6304656    174.58653  0.033913468   0.03471845            3 
  430000    1.2188219    -6.650664    175.13747  0.033941369  0.034710094            7 
  431000    1.1666349   -6.6111503     175.7272  0.033976643   0.03470203            6 
  432000    1.1918653   -6.6352793    175.72984  0.033898504   0.03469328            2 
  433000    1.1872971   -6.6230941    176.30161  0.033930256  0.034683794            3 
  434000    1.2125876   -6.6375515    176.09632  0.033812657  0.034675539            2 
  435000    1.2082351   -6.6146382    176.64365  0.033839779  0.034666624            1 
  436000    1.2057618   -6.6618886    176.62353   0.03375832  0.034657435            4 
  437000    1.1709024    -6.604513     178.1679  0.033975572  0.034648647            2 
  438000    1.1820662   -6.6693149    177.84291  0.033836169  0.034640566            3 
  439000    1.1905946   -6.6598165    178.45551  0.033875381  0.034632929            4 
  440000    1.1789527   -6.6714221    178.54218  0.033814808  0.034625211            2 
  441000    1.1860137   -6.6857009    179.34608  0.033890038  0.034617516            7 
  442000     1.196422   -6.5980697    179.99851   0.03393637  0.034609976            4 
  443000    1.1435673   -6.6014058    181.29536  0.034103718  0.034602176            6 
  444000    1.1843776   -6.6910001    179.66863   0.03372159  0.034593818            2 
  445000     1.185802   -6.6528559    181.35017  0.033960707  0.034586122            5 
  446000    1.1728615    -6.652684    181.62038  0.033935048  0.034578442            2 
  447000    1.1704583   -6.6370187    181.86419  0.033904584  0.034570566            4 
  448000    1.1873259   -6.6355171    182.43742  0.033935532  0.034562388            2 
  449000    1.1511097   -6.6222357    182.27577   0.03382995  0.034554811            4 
  450000     1.184208    -6.639973    182.86066  0.033863085  0.034546779            5 
  451000    1.1809974   -6.6144932    183.47032  0.033900651  0.034538358            3 
  452000    1.1484567   -6.6411017    182.92502  0.033725114  0.034530531            2 
  453000    1.1511543   -6.6527018     183.8894  0.033828072  0.034521821            3 
  454000    1.1830559   -6.6454817     184.6622   0.03389541  0.034513395            3 
  455000    1.1733851   -6.6368281    184.53703   0.03379799  0.034505446            4 
  456000    1.1800846   -6.6768002    184.61762    0.0337386  0.034496931            1 
  457000    1.1665957   -6.6654851    184.85604  0.033708249  0.034488472            6 
  458000    1.1348939   -6.5669362    185.56783  0.033764162  0.034479922            2 
  459000    1.1834895    -6.642454    185.51562  0.033681122  0.034471329            3 
  460000    1.1789128   -6.6370835     186.0343  0.033701865  0.034461987            2 
  461000    1.2050477   -6.5900032    187.89483  0.033965081  0.034453571            2 
  462000    1.1944208   -6.6430739    187.10949  0.033749908  0.034445443            6 
  463000    1.1718263   -6.6146458     187.9409  0.033826656  0.034437973            1 
  464000    1.1764607   -6.6763321    187.85061  0.033737538  0.034429862            4 
  465000    1.1758899   -6.6342482    188.72592  0.033821849  0.034421963            3 
  466000    1.1638652   -6.6666649      187.925  0.033606043  0.034412979            3 
  467000    1.1528219   -6.6450228    188.84922  0.033699004  0.034403939            2 
  468000    1.1788516     -6.68526    188.16484  0.033505136  0.034394656            5 
  469000    1.1594631   -6.6707587    188.80259  0.033547012  0.034385073            2 
  470000    1.1832048   -6.6742786    189.15399  0.033537941  0.034376119            5 
  471000    1.1636208   -6.6690428     190.3225  0.033673478  0.034367025            2 
  472000    1.1806129   -6.6271382    190.58084  0.033647746  0.034358086            2 
  473000    1.1673115   -6.6576499    190.66692  0.033591775  0.034349019            2 
  474000    1.1632337   -6.6792238    191.43259  0.033655518  0.034340712            2 
  475000    1.1594111   -6.6943177     191.4145  0.033581491    0.0343323            2 
  476000    1.1681664   -6.7050428    191.77815  0.033574607   0.03432362            4 
  477000    1.1980158   -6.6521106    193.02551  0.033722136  0.034314853            3 
  478000    1.1858494   -6.6268335     193.0346  0.033653173  0.034306841            2 
  479000    1.1883103   -6.6023872    193.59562  0.033680518  0.034298296            2 
  480000    1.1566017   -6.6715534    193.63304  0.033616848  0.034290003            2 
  481000    1.1962016   -6.6337892    194.32029  0.033666023  0.034281844            6 
  482000    1.1937705   -6.6981804     194.1923  0.033574049  0.034273188            3 
  483000    1.1886277    -6.704968    194.06902  0.033483268  0.034265053            1 
  484000    1.1818746   -6.6684141    194.27541  0.033449623  0.034255559            2 
  485000    1.1857165   -6.6815513    195.25934  0.033549714   0.03424557            4 
  486000    1.1692503   -6.6461999     195.4512   0.03351358  0.034235585            1 
  487000    1.1653078   -6.6443551    195.58905  0.033468353  0.034226356            3 
  488000    1.1675385   -6.6946398    196.08466  0.033484403  0.034217766            3 
  489000    1.1728341   -6.6793944    196.99377  0.033570854   0.03420899            4 
  490000    1.1915103   -6.7002751    197.39917  0.033571287  0.034200085            2 
  491000    1.1773191   -6.6262656    197.74589   0.03356176  0.034191734            3 
  492000    1.1930769   -6.6178174    198.96268   0.03369964   0.03418406            1 
  493000    1.1673874   -6.6017478    198.80103  0.033603961  0.034176448            2 
  494000    1.1605331   -6.6341136     198.9212  0.033556208  0.034168724            1 
  495000    1.1957125   -6.6474421    199.70141  0.033619766  0.034161101            3 
  496000    1.1888425   -6.6526318    199.29483  0.033483675  0.034152763            2 
  497000    1.1794436   -6.6958222    200.05406  0.033543605  0.034144203            3 
  498000     1.151084   -6.6952031    199.36468   0.03336089  0.034134928            2 
  499000    1.1644948   -6.6681737    200.05867  0.033409932  0.034124934            2 
  500000    1.1797093   -6.7179884    199.79482  0.033299137  0.034115064            2 
  501000    1.1765056   -6.6788509    199.71804  0.033219901  0.034104593            4 
  502000    1.1713718   -6.6551063    200.83173    0.0333386  0.034094153            4 
  503000    1.1947449   -6.6746906    200.82015  0.033270403  0.034084225            2 
  504000    1.1949737   -6.6736595    201.67744  0.033346137  0.034073903            3 
  505000    1.1908128    -6.659326    201.95057  0.033325177  0.034064866            1 
  506000    1.1717741   -6.6387199    201.94581  0.033258533  0.034054868            6 
  507000    1.1442885   -6.6408207    202.65724  0.033309868  0.034045048            4 
  508000    1.1413493   -6.6473611    203.00425  0.033301223  0.034035704            2 
  509000    1.1779945   -6.6917939    203.79257  0.033364861   0.03402594            3 
  510000    1.1836414   -6.6485832     204.4335  0.033404167  0.034016672            3 
  511000    1.1563881   -6.6814304    203.86315  0.033245785  0.034007276            2 
  512000    1.1567951   -6.6911009    204.18825  0.033233765  0.033997577            4 
  513000    1.1686201   -6.6280078    205.49879  0.033381869  0.033988502            2 
  514000    1.1517483   -6.6614476    205.51991  0.033320348  0.033979649            1 
  515000    1.1572715   -6.6763295    205.29012  0.033218467   0.03397036            3 
  516000    1.1760511     -6.64577    206.16628  0.033295588  0.033961184            1 
  517000    1.1819067   -6.6655644    206.30152  0.033252985    0.0339515            2 
  518000    1.1469476   -6.6583822    206.77409  0.033264816  0.033941634            4 
  519000    1.1784585   -6.6780725    206.99815  0.033236697  0.033932022            2 
  520000    1.1675843    -6.674124    207.70786  0.033286516  0.033923134            3 
  521000    1.1615419   -6.6625839     208.5694  0.033360429   0.03391376            2 
  522000    1.1647475   -6.7241715    207.89583  0.033188989  0.033905089            2 
  523000    1.1647045   -6.6751713    209.27222  0.033344841  0.033896684            2 
  524000    1.1569919   -6.6761749    209.52289  0.033321071  0.033888552            2 
  525000     1.168776   -6.7267063    208.18708  0.033045568   0.03388012            3 
  526000    1.1628685   -6.6773713    209.53069   0.03319561  0.033871291            4 
  527000    1.1662809    -6.659695    210.92186  0.033352602  0.033862573            4 
  528000    1.1700117    -6.674505    211.02181   0.03330521  0.033853669            4 
  529000     1.177996   -6.6749928    210.87707  0.033219451  0.033845135            2 
  530000    1.1778114   -6.6507443    211.47252  0.033250396  0.033836537            7 
  531000    1.1708234   -6.6483009     212.0786  0.033282893  0.033827826            1 
  532000    1.1787533   -6.6682692    211.55546  0.033138387  0.033817863            3 
  533000    1.1707802   -6.6913236    211.47298  0.033063318  0.033808569            2 
  534000    1.1866692   -6.6389308     212.2935  0.033129448   0.03379882            1 
  535000    1.1643494   -6.7112772    211.70951  0.032976559  0.033788592            2 
  536000     1.168012   -6.7208737    211.89543  0.032943941  0.033778383            3 
  537000    1.1703266   -6.6649027    213.02067  0.033057211  0.033768465            2 
  538000    1.1404042   -6.6818316    213.73014   0.03310566   0.03375921            5 
  539000    1.1596741   -6.6300381    214.51034  0.033164865  0.033749589            4 
  540000    1.1526696   -6.6698385    214.72818  0.033137065  0.033740006            5 
  541000    1.1752678   -6.7044054    214.32163  0.033013191  0.033730862            3 
  542000    1.1706038   -6.6760673    215.59546  0.033148133  0.033722088            5 
  543000     1.172377   -6.6953961    215.75739  0.033111938  0.033713053            3 
  544000    1.1614867   -6.6538323    216.10031  0.033103601   0.03370353            3 
  545000    1.1566317   -6.6768367    216.62924  0.033123737  0.033694745            3 
  546000    1.1885998   -6.6971032    216.80872  0.033090464  0.033685877            3 
  547000    1.1835809   -6.6948647    217.16844  0.033084771   0.03367745            4 
  548000    1.1599004   -6.6722871    217.76137  0.033114564  0.033668488            3 
  549000      1.20087   -6.6932814    217.67488  0.033041117  0.033658832            3 
  550000    1.1386731   -6.7093328    218.08313  0.033042899   0.03364934            2 
  551000    1.1520623   -6.7136684    217.04931  0.032826574  0.033639449            2 
  552000    1.1738678   -6.7456757    217.38727  0.032818127   0.03362934            3 
  553000    1.1822721    -6.744334    217.73365  0.032810979  0.033619126            3 
  554000    1.1697042   -6.6368608    218.73978  0.032903095   0.03360929            2 
  555000    1.1965462   -6.7098637    219.26544  0.032922738  0.033599864            6 
  556000    1.1501525   -6.6798887    220.16363  0.032998147  0.033589702            3 
  557000    1.1747195   -6.7438701    219.36657  0.032819654  0.033580007            3 
  558000    1.1559388   -6.6709252    220.47185  0.032925903  0.033570154            2 
  559000    1.1676393   -6.6815739    221.09205  0.032959459  0.033560513            3 
  560000    1.1585806   -6.7019656    221.15705  0.032910276  0.033550416            3 
  561000     1.157222   -6.6720234    221.43188  0.032892436   0.03354037            3 
  562000    1.1366774   -6.6695388    220.89622  0.032754481   0.03353013            1 
  563000    1.1986022   -6.6870899    221.94499  0.032851538  0.033519716            2 
  564000    1.1694407   -6.6982236     222.2712  0.032841489  0.033509504            3 
  565000    1.1667595   -6.7337781    221.93927  0.032734406  0.033499278            5 
  566000    1.1624447   -6.6945744    222.47564  0.032755542  0.033488892            3 
  567000    1.1617043   -6.6873678     223.0505  0.032782261  0.033478918            3 
  568000    1.1500202   -6.6653711    224.26074  0.032902104  0.033468798            2 
  569000    1.1723097   -6.6957042    225.16936  0.032977353  0.033459301            3 
  570000    1.1730514   -6.7448862     225.1632  0.032918597  0.033450787            4 
  571000    1.1853554    -6.711375    225.15312  0.032859475  0.033441937            1 
  572000    1.1227617    -6.754121    226.02816  0.032929511  0.033433561            5 
  573000    1.1677511   -6.7112897    226.29148  0.032910338  0.033424919            1 
  574000    1.1758085   -6.7305534    226.56156  0.032892212  0.033416787            2 
  575000    1.1707835    -6.680563     228.3776  0.033098203  0.033409119            2 
  576000    1.1580757   -6.6857629    227.33507  0.032889912  0.033401138            4 
  577000    1.1609081   -6.6612731    227.84486  0.032906537  0.033393253            4 
  578000    1.1690446   -6.6650139    228.53714  0.032949415  0.033385547            2 
  579000    1.1803601   -6.6709302    229.07199  0.032969486  0.033377339            3 
  580000    1.1653748   -6.7111379    228.40819  0.032817268  0.033369204            1 
  581000    1.1828493   -6.6902512    228.79441   0.03281618  0.033360906            3 
  582000    1.1727734   -6.7134742    229.50521   0.03286157  0.033353001            2 
  583000    1.1868193   -6.7238085    229.58958  0.032817265  0.033344966            6 
  584000    1.1370817   -6.6983601    230.74801  0.032926371  0.033337202            4 
  585000    1.1540652   -6.7015548    230.96342  0.032900772   0.03332981            5 
  586000    1.1777062   -6.7764787    230.51514  0.032780879  0.033321966            6 
  587000    1.1536006   -6.7396897    231.44655  0.032857262  0.033313585            2 
  588000    1.1505198   -6.6829881    232.07528  0.032890487   0.03330522            2 
  589000    1.1763153   -6.7295709    231.60408   0.03276798  0.033297239            2 
  590000    1.1934962   -6.7042261    232.82084    0.0328843  0.033289862            2 
  591000    1.1643775   -6.7223583    233.14546  0.032874431  0.033283001            3 
  592000     1.155872   -6.7117071    234.01087  0.032940719  0.033275618            4 
  593000    1.1537447   -6.6815091    234.11248  0.032899449  0.033268259            2 
  594000    1.1537704    -6.736894    233.47992   0.03275532  0.033260506           12 
  595000    1.1571274   -6.7016737    234.60137  0.032857334  0.033252862            2 
  596000    1.1543496   -6.6453919    236.78362  0.033107329  0.033246679            4 
  597000    1.1301859   -6.7473564    235.65128  0.032893813  0.033240349            2 
  598000      1.16752   -6.6944219    236.73611  0.032989982  0.033234437            2 
  599000    1.1475507   -6.6852725    236.52692  0.032905804  0.033227747            3 
  600000    1.1648748   -6.7032167    236.71528  0.032877123  0.033221311            3 
  601000    1.2132829   -6.6785288    236.81697  0.032836519   0.03321406            4 
  602000    1.1602346    -6.707018    237.14899  0.032827933  0.033206905            2 
  603000    1.1524413   -6.6684383    237.72315  0.032852839  0.033200349            3 
  604000    1.1110307   -6.6644286    238.71181  0.032934852   0.03319323            1 
  605000    1.1183936   -6.6856981    239.07628  0.032930618  0.033186312            2 
  606000    1.1584868   -6.6905801    239.03785  0.032870991  0.033179375            4 
  607000    1.1331318   -6.6906447    238.76468  0.032779335  0.033172258            4 
  608000    1.1718148   -6.6859625    240.14227  0.032914237  0.033165019            3 
  609000    1.1485362   -6.6932261     240.3526  0.032888971  0.033157409            3 
  610000    1.1335079   -6.6874499    240.66834  0.032878189  0.033150055            3 
  611000     1.168643    -6.665335    241.86491  0.032987577  0.033143489            4 
  612000    1.1622568   -6.7429218    240.35803   0.03272849  0.033136642            1 
  613000    1.1499847   -6.7820254    239.74607  0.032591908  0.033129081            3 
  614000    1.1502569    -6.739194    241.69818  0.032803771  0.033121606            2 
  615000    1.1269623    -6.726703    242.67116  0.032882271   0.03311515            4 
  616000    1.1476562   -6.7187314    242.25341  0.032772376  0.033108494            4 
  617000    1.1589973   -6.6550579    243.04153  0.032825706  0.033102574            2 
  618000    1.1549874   -6.6939001    243.57785  0.032844909  0.033096166            5 
  619000    1.1336228    -6.700171    243.68953  0.032806883  0.033089845            2 
  620000    1.1538696    -6.678443    245.13643  0.032948445  0.033083707            5 
  621000    1.1333765   -6.7104364    244.27602  0.032779928  0.033077564            3 
  622000    1.1637094   -6.7230364    244.47289  0.032753602  0.033070526            1 
  623000    1.1553123   -6.7025418    245.32577  0.032815111  0.033063317            3 
  624000    1.1737446    -6.663315    245.64968  0.032805779  0.033056413            4 
  625000    1.1698265   -6.7221474    245.32691  0.032710254  0.033049986            6 
  626000     1.136266   -6.7291583    246.36084  0.032795639  0.033043375            2 
  627000     1.128814   -6.7084159    245.82415  0.032672003  0.033037202            4 
  628000    1.1667019    -6.678545    247.35233  0.032822762  0.033031096            3 
  629000    1.1322034   -6.7052375    247.77459  0.032826522  0.033025053            2 
  630000      1.13958   -6.6982324    246.76265  0.032640562  0.033018651            6 
  631000    1.1640553   -6.7237957    247.19303  0.032645672   0.03301224            3 
  632000    1.1490262   -6.7510662    248.15626  0.032721026  0.033005593            8 
  633000    1.1997363   -6.7136543    247.43484   0.03257436  0.032998428            1 
  634000    1.1542531    -6.664862    249.46515  0.032789846  0.032991488            4 
  635000    1.1346218   -6.7422617    249.21894  0.032705898  0.032984949            2 
  636000    1.1618788   -6.7027041    249.20758  0.032652985  0.032978039            3 
  637000    1.1559797   -6.7026437    249.38418  0.032624827    0.0329716            2 
  638000    1.1449007   -6.7109144    249.67124  0.032611186  0.032965335            3 
  639000    1.1478033    -6.744272    249.67237  0.032560298  0.032958533            2 
  640000    1.1332677   -6.7185547    251.35709  0.032728788   0.03295134            4 
  641000    1.1272083   -6.7373733    250.53501  0.032570854  0.032944222            3 
  642000    1.1469037   -6.7126063    250.68261  0.032539279  0.032936594           10 
  643000     1.144359   -6.7131626    250.45882  0.032459671  0.032928725            6 
  644000    1.1401541   -6.7512298    250.36604  0.032397262  0.032920998           10 
  645000    1.1391434   -6.6716208      252.094  0.032570284  0.032913656            3 
  646000    1.1896401   -6.7360962    251.48481  0.032441281  0.032905994            2 
  647000    1.1597738   -6.7379151    252.13655  0.032475084  0.032898544            4 
  648000    1.1492923   -6.7201894    252.67399  0.032494084  0.032890799            2 
  649000    1.1407172   -6.7585201    252.17637   0.03238012  0.032882627            4 
  650000    1.1324692   -6.7291492    253.27841  0.032471591  0.032875123            2 
  651000    1.1257325   -6.6887299    255.11966  0.032657406  0.032868129            2 
  652000    1.1513016   -6.7389635    254.14151  0.032482299  0.032861306            2 
  653000    1.1552636     -6.70428    255.75796  0.032638841  0.032855317            3 
  654000    1.1155395   -6.6906091    256.39955  0.032670687   0.03284885            3 
  655000    1.1459882   -6.7192319    255.89357  0.032556434  0.032842033            2 
  656000    1.1426715   -6.6512909    256.60573  0.032597272  0.032835543            1 
  657000    1.1400229   -6.6787666    256.69912  0.032559503  0.032829363            4 
  658000    1.1554426   -6.7494843    256.03007  0.032425287  0.032822541            2 
  659000    1.1360917   -6.7208318    257.10712  0.032512282  0.032815644            4 
  660000    1.1457171   -6.7642772    256.82544  0.032427454  0.032808772            2 
  661000    1.1714797   -6.7405976    257.08889  0.032411609  0.032801305            5 
  662000     1.149677   -6.7530195    257.11125  0.032365464  0.032793826            3 
  663000     1.127031   -6.7002775     257.5325  0.032369596  0.032786134            2 
  664000     1.134809   -6.7403114    258.50938  0.032443446  0.032778611            3 
  665000    1.1315925   -6.6776458    259.37225  0.032502788  0.032770895            2 
  666000    1.1582688   -6.7043613    258.51645  0.032346903  0.032763495            4 
  667000    1.1505146   -6.7045416    259.19638  0.032383355  0.032756048            3 
  668000    1.1533483   -6.7276446    260.03143   0.03243905  0.032748384            4 
  669000    1.1616533   -6.7207873    260.28959  0.032422719   0.03274085            2 
  670000    1.1499395   -6.7306154    260.54895  0.032406585  0.032732932            4 
  671000     1.122305   -6.7404603     260.3455  0.032333023  0.032725212            3 
  672000    1.1399124   -6.7281577    259.82933  0.032220899  0.032717316            3 
  673000    1.1487655   -6.7297097    260.27265  0.032227916  0.032709124            2 
  674000    1.1527511   -6.7454501    261.01746  0.032272188  0.032700858            4 
  675000      1.16161   -6.7206799    261.71698  0.032310738  0.032692778            2 
  676000    1.1435777   -6.6728695    261.96617   0.03229366  0.032685291            2 
  677000    1.1574428   -6.7322427    261.89052  0.032236647  0.032677292            2 
  678000    1.1273084   -6.7250548    261.67202  0.032162244  0.032668732            3 
  679000     1.127708   -6.7623532    262.97916  0.032275302  0.032660754            1 
  680000    1.1201171   -6.7534744    262.77021  0.032202232  0.032652814            3 
  681000    1.1595148   -6.7208313    264.53436  0.032370822  0.032645019            4 
  682000    1.1361426   -6.7096598    264.39621  0.032306477  0.032637343            1 
  683000    1.1223228    -6.712589    264.81571   0.03231036  0.032629761            4 
  684000    1.1505117   -6.7229226    263.36098   0.03208589  0.032621536            7 
  685000    1.1563065   -6.7539731    263.46463  0.032051658   0.03261325            4 
  686000    1.1170594   -6.7307118    265.14875  0.032209517  0.032605042            5 
  687000    1.1513405    -6.731717    265.29036  0.032179811   0.03259706            2 
  688000    1.1110847   -6.7348408    265.15368  0.032116482  0.032588975            3 
  689000    1.1411231   -6.7359382    264.74254  0.032020143  0.032580499            2 
  690000     1.136374   -6.7592436    265.69391  0.032088637  0.032571657            2 
  691000    1.1516257   -6.6761819    266.80007  0.032175599  0.032563506            2 
  692000     1.131243   -6.7313104    265.36526  0.031956318  0.032554691            5 
  693000    1.1282894   -6.7240494    266.24052  0.032015454  0.032545763            2 
  694000    1.1525123   -6.7833894     266.4849  0.031998667  0.032536333            2 
  695000    1.1527872   -6.7627978    266.71417  0.031980116  0.032526849            3 
  696000    1.1502895    -6.747768    267.13333  0.031984354  0.032517678            3 
  697000    1.1422672   -6.7641015    267.34792  0.031964123   0.03250832            3 
  698000    1.1451589    -6.758925    267.57289  0.031945187  0.032499163            4 
  699000    1.1413608   -6.7517829    267.44181  0.031883859   0.03249015            5 
  700000    1.1299599   -6.7464564    267.92208  0.031895485  0.032480939            6 
  701000    1.1490653   -6.7634627    269.11564  0.031991874  0.032471863            3 
  702000    1.1459772   -6.6909553    270.82384  0.032149079  0.032463069            4 
  703000    1.1371631   -6.6958374    270.32442  0.032044146  0.032454605            2 
  704000    1.1471207   -6.7277773    270.62455  0.032034156  0.032445729            6 
  705000    1.1551434   -6.7413154    269.42147  0.031846509  0.032436691            5 
  706000    1.1470107   -6.7681853    269.85651  0.031852751  0.032427614            5 
  707000    1.1562766   -6.7529395    270.38936  0.031870505  0.032418537            6 
  708000    1.1582985   -6.7819544    270.46911  0.031834877  0.032409392            2 
  709000    1.1433717   -6.7273325    271.04682  0.031857877  0.032400211            2 
  710000    1.1503686   -6.7573502    272.34216  0.031965043  0.032391506            6 
  711000    1.1340633   -6.7349601    272.34709  0.031920662  0.032382594            2 
  712000    1.1459664    -6.780448     271.8247  0.031814689  0.032373541            3 
  713000    1.1263886   -6.7594945    272.59125  0.031859659   0.03236435            4 
  714000    1.1589216   -6.7597759    272.86707   0.03184723  0.032355154            2 
  715000    1.1378956   -6.7564601    271.97838  0.031699112  0.032345508            4 
  716000    1.1398689   -6.8142647    272.32556  0.031695246  0.032335732            1 
  717000    1.1410413   -6.7853887    273.29333  0.031763521  0.032325533           11 
  718000    1.1569576   -6.7850208     273.0528  0.031691365  0.032316039            2 
  719000    1.1369024    -6.719927    273.89095  0.031744431  0.032306922            2 
  720000    1.1240642   -6.7362358    274.08397  0.031722681   0.03229717            2 
  721000    1.1135975   -6.7293399    274.44666  0.031720603  0.032287387            2 
  722000    1.1607888    -6.784787    274.27626  0.031657001  0.032277281            2 
  723000    1.1357809    -6.773536    274.55154  0.031644945  0.032267086            2 
  724000    1.1460317   -6.7705324    275.45819  0.031705593  0.032257285            2 
  725000    1.1348633   -6.7306711    274.84049  0.031590861  0.032247271            5 
  726000    1.1380356   -6.7053357    276.15877  0.031698665  0.032237576            4 
  727000    1.1347672   -6.7478818    276.19517  0.031659235  0.032227548            2 
  728000    1.1378517   -6.7374948    276.04545  0.031598609  0.032217312            5 
  729000    1.1254167   -6.7418648    276.38955  0.031594599   0.03220731            7 
  730000    1.1207087   -6.8121949    275.45081  0.031444156  0.032197351            2 
  731000    1.1802548   -6.7881942    277.51615  0.031636588  0.032187014            4 
  732000    1.1546397   -6.7245068    278.59563   0.03171626  0.032177089            3 
  733000    1.1293537    -6.767444    277.62152  0.031562247  0.032167225            3 
  734000    1.1463165   -6.7517234    276.99634  0.031448268  0.032156867            6 
  735000     1.135204    -6.762093     277.8022  0.031496848  0.032146485            2 
  736000    1.1144111   -6.7171867    279.23853  0.031616682  0.032136188            3 
  737000    1.1360988   -6.8041103    278.28141  0.031465559  0.032125939            2 
  738000    1.1181862   -6.7598984    278.82674  0.031484501  0.032115922            3 
  739000    1.0992138   -6.7882801    279.05542  0.031467684  0.032105292            7 
  740000    1.1167944   -6.7993765    280.47959   0.03158554  0.032095058            3 
  741000    1.1394311   -6.7969303    279.50145  0.031432912  0.032084644            4 
  742000    1.1299832   -6.7920431    280.08852  0.031456483  0.032074253            3 
  743000    1.1253107   -6.7672524     280.5196  0.031462494  0.032063822            3 
  744000    1.1440492   -6.7552404    281.00203  0.031474242  0.032053467            4 
  745000    1.1305202   -6.8015663    280.42864  0.031367857  0.032042997            3 
  746000    1.1341099   -6.7469295    281.70689  0.031468598  0.032032213            3 
  747000    1.1145667   -6.7636664    281.83265  0.031440501  0.032021414            4 
  748000    1.1372066   -6.7522894    282.23389   0.03144317  0.032011394            5 
  749000    1.1057158   -6.8083432      281.781  0.031350801  0.032000825            2 
  750000    1.1387235   -6.7526949    283.42118  0.031491242  0.031990081            3 
  751000    1.1174468   -6.7886591    282.41646  0.031337823  0.031979513            3 
  752000    1.1307106   -6.8158364    282.51425  0.031306987  0.031968589            5 
  753000    1.1258158   -6.7750563    282.43358  0.031256483  0.031957733            2 
  754000    1.1270524   -6.7666629    283.50281  0.031333202  0.031946936            1 
  755000    1.1392567   -6.7282826     283.4136  0.031281854  0.031936481            4 
  756000    1.1465357   -6.7637517    284.47266  0.031357215  0.031926235            1 
  757000    1.1241135   -6.7842843    283.70376  0.031231149  0.031915581            2 
  758000    1.1394894   -6.7947132    284.31984  0.031257678  0.031904938            2 
  759000    1.1123093   -6.7255167    285.55084  0.031351651   0.03189453            2 
  760000    1.1247194   -6.7615325    285.04653  0.031255102  0.031883752            5 
  761000    1.1358953   -6.7463947    285.73341  0.031289248  0.031872955            3 
  762000    1.1429651   -6.7599378    285.41116  0.031212944  0.031862821            5 
  763000    1.1426285   -6.7677774    286.37968  0.031277815  0.031852643            4 
  764000    1.1367792   -6.7803993    286.17722  0.031214793  0.031842725            4 
  765000     1.133574   -6.8180729    285.96757  0.031151151  0.031832314            2 
  766000    1.1531629   -6.7884131    287.30183  0.031255638  0.031821704            2 
  767000    1.1522209   -6.7920558     287.0171  0.031183953  0.031811304            4 
  768000    1.1320057   -6.7739821    287.64049  0.031210991  0.031801299            1 
  769000    1.1425651   -6.8112327    288.50685  0.031264288  0.031791603            2 
  770000    1.1223239   -6.7530942    289.36337  0.031316382  0.031782159            1 
  771000    1.1217778   -6.7535534    288.80564  0.031215481   0.03177278            2 
  772000    1.1163286   -6.7671859    289.53601  0.031253887  0.031763344            5 
  773000    1.1500563   -6.7772346    290.52062  0.031319601  0.031753702            3 
  774000    1.1388909   -6.7672167    290.38119  0.031264124   0.03174425            2 
  775000    1.1437797   -6.7867253    291.48717  0.031342706  0.031734711            2 
  776000    1.1191324   -6.7972916    290.83641  0.031232432  0.031725046            4 
  777000    1.1345112   -6.7510976    291.86191  0.031302222  0.031715731            4 
  778000     1.132109   -6.7436996    292.16119  0.031294044  0.031706594            3 
  779000    1.1182653   -6.7639914    291.44652  0.031177419  0.031697388            5 
  780000    1.1361905   -6.7685042    293.11069  0.031315245  0.031688087            3 
  781000    1.1459694   -6.7744845    293.86885  0.031356045  0.031679108            2 
  782000    1.1249376   -6.7675755    293.52049  0.031278825  0.031669861            2 
  783000    1.1499257   -6.7837781    294.01011  0.031290987  0.031660964            4 
  784000    1.1373462   -6.7678906    294.39701  0.031292199  0.031651888            2 
  785000    1.1285721   -6.7865644    293.68016  0.031176238  0.031643198            2 
  786000     1.128792   -6.7695678    295.68231  0.031348845  0.031634453            3 
  787000    1.1336392   -6.7693123     294.8227  0.031217991  0.031625561            5 
  788000    1.1366306   -6.7434221    295.53429  0.031253626  0.031617066            3 
  789000    1.1194672   -6.7603458    296.24544  0.031289126  0.031608133            2 
  790000    1.1412477   -6.7656226    296.76236  0.031304047  0.031599179            2 
  791000     1.137376   -6.7894263    295.76369  0.031159259  0.031590275            3 
  792000    1.0884888   -6.7388278    296.56981  0.031204736  0.031581214            1 
  793000    1.1134408   -6.7573906    297.75518  0.031289952  0.031572246            1 
  794000    1.1435688    -6.723525    298.14513  0.031291471  0.031563468            4 
  795000    1.1191158   -6.7606206    297.54834  0.031189553  0.031555128            2 
  796000    1.1495738   -6.7835531     297.3934   0.03113415  0.031546648            4 
  797000    1.1128279    -6.843484     297.1626  0.031070954  0.031537429            4 
  798000    1.1444837   -6.7804091    297.32018  0.031048473  0.031527999            6 
  799000    1.1392098   -6.7806613    299.35148  0.031221472  0.031518882            5 
  800000    1.1096758    -6.754006    299.45978  0.031193727  0.031510202            2 
  801000    1.1243931   -6.7559839     299.0366  0.031110758   0.03150136            2 
  802000    1.1367544   -6.8069676    298.61508  0.031028167  0.031492277            2 
  803000    1.1520204   -6.7844797    299.88261  0.031121068  0.031482869            3 
  804000    1.0983966   -6.8178579    299.40208  0.031032554  0.031473408            2 
  805000    1.1213064   -6.7889218    299.82898  0.031038196  0.031463922            3 
  806000    1.1033523   -6.8120158    299.07198  0.030921421  0.031454874            2 
  807000    1.1498232   -6.8750274    299.16992  0.030893218  0.031445468            8 
  808000     1.089982   -6.7980876    300.86846  0.031030163  0.031436394            3 
  809000    1.1213173   -6.7881055    301.48152  0.031054956  0.031427597            3 
  810000    1.1428465   -6.8332484    301.58481  0.031027243  0.031418755            4 
  811000    1.1230435   -6.8331604    301.65669  0.030996372  0.031409705            5 
  812000    1.1169891   -6.8275819    301.75117  0.030967895  0.031401143            6 
  813000    1.1182817   -6.8223842    302.22092  0.030977954  0.031392684            4 
  814000    1.1252498   -6.8128193    302.94929  0.031014465  0.031384124            5 
  815000    1.1307823   -6.7955268    303.10196   0.03099202  0.031375632            4 
  816000    1.1349931    -6.747448     304.3066  0.031077063  0.031367123            3 
  817000    1.1231843   -6.8017714    304.31884  0.031040274  0.031358482            3 
  818000    1.1255788   -6.8225366    303.25609   0.03089406  0.031349362            3 
  819000    1.1379758   -6.8023189    304.02296  0.030934367  0.031340569            3 
  820000    1.1265374   -6.7756287    304.69903  0.030965348  0.031331562            3 
  821000    1.1101191   -6.8222559    304.11246  0.030868094  0.031322875            2 
  822000    1.1150196   -6.8122514    305.46182  0.030967338  0.031313762            3 
  823000     1.104012    -6.785085    304.73981  0.030856602  0.031304979            5 
  824000    1.1300826   -6.7657372    305.98059  0.030944639  0.031296181            2 
  825000    1.1304704   -6.7691513    305.93134  0.030902155  0.031287327            2 
  826000    1.1327694   -6.8235262    305.21128  0.030792099   0.03127833            4 
  827000    1.1043251   -6.7977354    306.97088  0.030932172  0.031269292            5 
  828000     1.145067   -6.8091567    306.70996  0.030868555  0.031260359            2 
  829000    1.1176975   -6.8161833    306.48942  0.030809149  0.031251372            4 
  830000    1.1015805   -6.8232865     306.3233  0.030755351  0.031242434            4 
  831000    1.1066722   -6.8201667    306.46488  0.030732539  0.031233546            3 
  832000    1.1226477   -6.7920754    308.00076  0.030849435  0.031224688            3 
  833000     1.104516   -6.7847875    309.46248  0.030958632  0.031215893            3 
  834000    1.1081555   -6.8032958    308.23068  0.030798429  0.031207033            3 
  835000    1.1234691    -6.833335    309.23816  0.030862092  0.031198327            3 
  836000    1.1081984   -6.8236586    309.29371  0.030830712  0.031189355            3 
  837000    1.1040213   -6.8179298    309.35776  0.030800255   0.03118064            3 
  838000    1.1452106   -6.7801915    310.79218  0.030906143  0.031172053            5 
  839000    1.1274412   -6.7879008    310.98555  0.030888513  0.031163815            4 
  840000    1.1001796   -6.8109546    311.52196  0.030904957  0.031155613            4 
  841000    1.1140203   -6.7917115    311.62176  0.030878097  0.031147471            6 
  842000    1.1213456   -6.8172105    311.98629  0.030877503  0.031139414            2 
  843000     1.117704   -6.7914822      313.269  0.030967675  0.031131236            2 
  844000    1.1183041    -6.812509    312.98548   0.03090299  0.031123281            3 
  845000     1.101691   -6.7870143    313.17023  0.030884638  0.031115235            2 
  846000    1.1131869   -6.8149141    312.99473  0.030830844  0.031106945            5 
  847000    1.1318026    -6.797142    313.07461  0.030802303  0.031098844            2 
  848000     1.101546   -6.8195475     313.0006  0.030758707  0.031090519            1 
  849000    1.1425026   -6.8254368     313.3732   0.03075905  0.031081646            4 
  850000    1.1038812   -6.8146209    313.11869  0.030697911  0.031072928            2 
  851000    1.0976159   -6.8394967    313.46451  0.030695702  0.031064227            6 
  852000    1.1299976   -6.8124328    314.05357  0.030717289  0.031055294            2 
  853000    1.0991077   -6.7948916    314.75321  0.030749629  0.031046482            3 
  854000    1.0966652   -6.7875071    315.30698   0.03076766  0.031038127            3 
  855000    1.1144293   -6.8364252    315.27712  0.030728764  0.031029643            5 
  856000    1.1310129   -6.8057596    315.77434  0.030741272  0.031021293            3 
  857000    1.1000462   -6.8040429    315.64758  0.030693075  0.031013098            2 
  858000    1.1024737   -6.8157024    316.89524  0.030778481  0.031004977            3 
  859000    1.0938874    -6.800719    317.19819   0.03077204  0.030996683            1 
  860000    1.1261593   -6.8643679    315.82683  0.030603375  0.030988462            3 
  861000    1.1388691   -6.8158221    317.26465  0.030706993  0.030980098            2 
  862000    1.1223233   -6.8137128    317.20846  0.030665938  0.030971838            4 
  863000    1.1379093   -6.8025547    318.80394  0.030784467  0.030963819            4 
  864000    1.1092082   -6.8039448    318.69366    0.0307382  0.030955366            7 
  865000    1.0957714   -6.8070691    319.55965  0.030786094   0.03094729            3 
  866000    1.1255424   -6.8291883    318.45875  0.030644606  0.030938957            2 
  867000    1.1339934   -6.8501897    317.96514  0.030561817  0.030930767            3 
  868000    1.1156693   -6.7938969    319.20648  0.030645783  0.030922827            2 
  869000    1.1209065   -6.7637871    320.01965  0.030688497  0.030914647            7 
  870000     1.128964   -6.8295988    319.61255  0.030614229  0.030906234            2 
  871000    1.1239614   -6.8321091    319.82972  0.030599859  0.030897913            7 
  872000    1.1136726   -6.7899946    321.56187  0.030730301  0.030889689            2 
  873000    1.1326896   -6.8438861     319.1696  0.030466743  0.030881316            4 
  874000    1.1006865   -6.7819695    321.31532  0.030636472  0.030872769            2 
  875000    1.1290977    -6.802279    320.90443  0.030562326  0.030864188            3 
  876000    1.0961308    -6.814512    320.32926  0.030472723  0.030855547            3 
  877000    1.1011954   -6.8317305     320.7033  0.030473518  0.030846785            4 
  878000    1.1027154   -6.7857074     322.1018  0.030571545  0.030837984            2 
  879000    1.1138218   -6.8426352    320.76194   0.03040974   0.03082926            4 
  880000    1.1215082   -6.8556182    321.65362  0.030459623  0.030820636            2 
  881000    1.1182981   -6.8322241    323.02919  0.030555164  0.030812272            4 
  882000    1.1154994   -6.8414024    323.30889  0.030546947  0.030803639            9 
  883000    1.0984235   -6.8299509    324.12375  0.030589256  0.030795092            2 
  884000    1.1022915    -6.827181    323.38254  0.030484779  0.030786697            4 
  885000    1.0946862   -6.8188138    323.98101  0.030506686  0.030778173            4 
  886000     1.114089   -6.8526565    323.83138  0.030458181  0.030769661            4 
  887000    1.1151807   -6.8089745    324.36715  0.030474178  0.030760926            2 
  888000    1.1217569   -6.8377928    323.51582  0.030359969  0.030751928            5 
  889000    1.1146267   -6.8153771      324.841  0.030450037  0.030743229            3 
  890000     1.092788   -6.8495871    324.41703  0.030376126  0.030734391            4 
  891000     1.108019   -6.8164394    325.80264  0.030471628  0.030725854            3 
  892000    1.1011963   -6.7977894    326.81264  0.030531824  0.030717145            2 
  893000    1.1079212   -6.7953847    326.27868  0.030447805   0.03070853            3 
  894000    1.1060276   -6.8087829    327.41651  0.030519809  0.030700001            6 
  895000    1.1265088   -6.8030314    326.48351  0.030398837   0.03069147            4 
  896000    1.1257941   -6.8022072     326.6679  0.030382059  0.030682722            4 
  897000    1.0960392   -6.8078067    327.08903  0.030387312  0.030674202            4 
  898000    1.0931979   -6.8213964    327.42582  0.030384727   0.03066565            3 
  899000    1.1042732   -6.8217097      327.092  0.030319985  0.030657285            2 
  900000     1.087364   -6.8309897    327.19599  0.030295925  0.030648911            2 
  901000    1.1115499   -6.8433395    327.08945  0.030252447   0.03064025            4 
  902000    1.1119266   -6.8049618    328.56248  0.030354996  0.030631418            3 
  903000    1.1020218   -6.8440298    328.04518  0.030273641  0.030622774            2 
  904000    1.1090489   -6.8705303    327.07217  0.030150458   0.03061363            5 
  905000    1.0992864    -6.853724    328.31801  0.030231861  0.030604383            4 
  906000    1.1165503   -6.8873799    328.63366  0.030227526  0.030595296            3 
  907000    1.1017738    -6.837145    329.10924  0.030237895  0.030586165            8 
  908000    1.0800303   -6.8288828    328.92481  0.030187666  0.030577172            5 
  909000    1.0923575   -6.8378208    329.79295  0.030234044  0.030568433            5 
  910000    1.0882506   -6.8361749    329.24795  0.030150911  0.030559736            3 
  911000    1.1041683   -6.8460589    330.49313  0.030231717   0.03055098            4 
  912000    1.1051015   -6.7865738    332.86702   0.03041548  0.030542588           10 
  913000     1.076476   -6.7970093    331.40986  0.030249166  0.030534273            2 
  914000    1.1135522   -6.8536823    331.38729  0.030214012  0.030526024            3 
  915000    1.0821923   -6.8349291    331.44244  0.030186014  0.030517336            3 
  916000    1.0941935   -6.8693522    331.09569  0.030121515   0.03050833            3 
  917000    1.1112839    -6.825635    331.12131  0.030090995  0.030499459            1 
  918000    1.1074793   -6.8091874    332.90363   0.03022001   0.03049101            2 
  919000    1.1268472   -6.8364014    332.98354  0.030194373  0.030482681            4 
  920000    1.1099273   -6.8640886    333.06327  0.030168774  0.030473835            3 
  921000     1.098269   -6.8346626    333.33916  0.030160981  0.030465593            4 
  922000    1.0937298   -6.7952675    335.13057  0.030290181  0.030457109            1 
  923000    1.0984453   -6.8565574    334.00351  0.030155608  0.030448538            4 
  924000    1.1054236   -6.8510933     333.7415  0.030099341   0.03043964            2 
  925000    1.1080281   -6.8753127    333.73249   0.03006599  0.030430335            4 
  926000    1.1222313   -6.8554442    333.65609  0.030026646  0.030420922            4 
  927000    1.0804129   -6.8999788    332.56319  0.029896008   0.03041143            4 
  928000    1.0994543   -6.8146604    335.78961  0.030153521  0.030402117            1 
  929000    1.1057257   -6.8465461    334.61438  0.030015642  0.030392954            6 
  930000    1.1199146   -6.8395181    335.40307  0.030054038  0.030383678            3 
  931000    1.1027556   -6.8303193    335.57504   0.03003715  0.030374607            3 
  932000    1.0840452   -6.8561951    335.29554  0.029979931  0.030365701            2 
  933000    1.1086686   -6.8605882    335.57557  0.029972809  0.030356727            5 
  934000    1.1008098   -6.8099756    336.39844  0.030014136  0.030347874            2 
  935000    1.1131789   -6.8620001      336.715   0.03001025  0.030338922            4 
  936000    1.0884318   -6.8278313     337.1307  0.030015197  0.030330151            1 
  937000    1.0569291   -6.8634531    336.82826  0.029956267   0.03032141            7 
  938000    1.0693502   -6.8532952    337.25954  0.029962646  0.030312332            8 
  939000    1.0997803   -6.8446642    338.04709  0.030000629  0.030303535            5 
  940000     1.100888   -6.8852821    338.12473  0.029975597  0.030294827            3 
  941000    1.0923137   -6.7739022    340.30298  0.030136643  0.030286413            3 
  942000     1.107275   -6.8303432    339.60516  0.030042919  0.030277952            5 
  943000    1.0936303   -6.9147374    338.62507  0.029924449  0.030269037            2 
  944000    1.1076111   -6.8545331    339.89193  0.030004584  0.030260329            4 
  945000    1.1029521   -6.8817312    339.06377  0.029899804  0.030251484            2 
  946000    1.0961949   -6.8597634    340.49523  0.029994294  0.030242872            8 
  947000    1.0930116   -6.8426018    340.74663  0.029984744  0.030234101            4 
  948000    1.0960813   -6.8563685    340.77338  0.029955466  0.030225613            2 
  949000    1.0756988   -6.8569813    340.81366  0.029927438  0.030216738            4 
  950000     1.076914      -6.8588    340.46364  0.029865231  0.030207608            2 
  951000     1.078942   -6.8462501    340.89954  0.029872024   0.03019868            3 
  952000    1.0925098   -6.8426637    341.22698  0.029869309  0.030189717            5 
  953000    1.0912948   -6.8554697    340.53346  0.029777323  0.030180833            7 
  954000    1.1261504   -6.8997858    341.35414  0.029817797  0.030172024            5 
  955000    1.1162518   -6.8927603    342.37372  0.029875543  0.030163219            4 
  956000    1.1007104   -6.8724434    342.07824  0.029818536  0.030154229            2 
  957000     1.144802   -6.8682575     341.7127  0.029755547   0.03014515            5 
  958000    1.0959634   -6.8897148    342.00622  0.029750019   0.03013612            3 
  959000    1.1099011   -6.8559447    342.95071  0.029801069  0.030126907            3 
  960000    1.1044094    -6.836711    344.19301  0.029877866  0.030117935            6 
  961000    1.0981032   -6.8730556    342.77002   0.02972338  0.030109017            9 
  962000    1.1095414   -6.8399748     343.6502  0.029768728  0.030100324            3 
  963000     1.075083   -6.8175812        344.6  0.029820007  0.030091938            2 
  964000    1.0948304   -6.7907601    344.74106  0.029801267   0.03008308            3 
  965000    1.0698641   -6.8090579    345.70501  0.029853627  0.030074488            3 
  966000    1.1000276   -6.8654804    345.07498  0.029768373  0.030065968            7 
  967000    1.0968405   -6.8416521    345.84309  0.029803782  0.030057392            8 
  968000    1.0952351   -6.8664886    345.29494  0.029725804  0.030048699            3 
  969000    1.1158366   -6.8840572    346.59575  0.029806996  0.030039878            1 
  970000    1.1199506   -6.9143384    345.15195  0.029652229  0.030030809            3 
  971000     1.101805   -6.8851439     346.2543  0.029716298  0.030021743            5 
  972000    1.1060558   -6.8468799    346.92561  0.029743279  0.030013005            5 
  973000    1.0915023   -6.8734757    346.75757  0.029698319  0.030004117            3 
  974000    1.1017333   -6.8358086    348.82994  0.029845135  0.029995371            2 
  975000    1.0709814   -6.9029374    346.67645  0.029630466   0.02998673            4 
  976000      1.10152   -6.8797988    347.58263  0.029677479  0.029977805            4 
  977000    1.0777022   -6.8495395     348.5948  0.029733436  0.029969183            4 
  978000    1.1149424   -6.8885334    347.98886  0.029651402  0.029960698            2 
  979000    1.0966509   -6.9185735    348.20551  0.029639556  0.029952158            3 
  980000    1.0836941    -6.847894     348.7188  0.029652959  0.029943587            4 
  981000    1.1060107   -6.8355234    350.42822  0.029767942  0.029935432            4 
  982000    1.1103784   -6.8735937     349.6823  0.029674329  0.029927297            2 
  983000    1.0918173   -6.9093914    349.62274  0.029639093  0.029918677            5 
  984000    1.0912524   -6.8781519    349.91986  0.029634135  0.029910046            4 
  985000    1.0983825   -6.8443576    350.13308  0.029622088  0.029901456            4 
  986000     1.098646   -6.8614676    350.02436  0.029582857  0.029892979            5 
  987000    1.0856003   -6.8543185    351.02597  0.029637451  0.029884275            2 
  988000    1.0914488   -6.8368125    352.04621  0.029693506   0.02987574            2 
  989000    1.0869669   -6.8583019    351.45242  0.029613449   0.02986725            7 
  990000    1.0891583   -6.8757508    350.95225  0.029541435  0.029858552            2 
  991000    1.0835973   -6.8684183    351.70145  0.029574626  0.029849915            6 
  992000    1.0952001   -6.8732839    352.52587  0.029614069   0.02984124            2 
  993000    1.0801716   -6.8521257    352.20682   0.02955747   0.02983272            4 
  994000    1.1244503   -6.8664662    352.41367  0.029545076  0.029824129            2 
  995000    1.0715744   -6.8500386    352.63886  0.029534243   0.02981567            5 
  996000    1.0625962   -6.8526313    353.75416  0.029597905  0.029807205            6 
  997000    1.0683428   -6.8600598    353.54049  0.029550359  0.029798784            3 
  998000    1.0915591   -6.8673653    354.49182  0.029600186  0.029790192            3 
  999000    1.1092544   -6.8532319    353.85451  0.029517393  0.029781812            4 
 1000000    1.0807028   -6.8753241    354.85129  0.029570941  0.029773194            4 
 1001000    1.0902809   -6.8704192    354.61378  0.029521627  0.029764721            2 
 1002000    1.1066888   -6.8365468    355.54122  0.029569296  0.029756262            2 
 1003000    1.1125286   -6.8994216      355.679  0.029551263  0.029747887            4 
 1004000    1.0808446   -6.8462193    355.56703  0.029512536  0.029739471            4 
 1005000    1.0905282   -6.8935357    355.52302   0.02947952  0.029731075            2 
 1006000      1.08417   -6.8523437    356.05582  0.029494352  0.029722748            5 
 1007000    1.0815382   -6.8901153     355.7696  0.029441377  0.029714212            4 
 1008000     1.093034   -6.8629776    355.56971  0.029395644  0.029705418            3 
 1009000    1.0821369   -6.9143992    355.08403  0.029326399  0.029696709            4 
 1010000     1.093365   -6.8766826    357.02628  0.029457614  0.029688116            8 
 1011000    1.0796687   -6.9328769    356.75616  0.029406212  0.029679591            3 
 1012000    1.0952376   -6.9085833    356.75747  0.029377262  0.029670832            4 
 1013000    1.0845436   -6.8277554    357.56487  0.029414682   0.02966223            6 
 1014000    1.0866487   -6.8874137    357.23781  0.029358794  0.029653773            4 
 1015000    1.0848016   -6.8893797    358.25845  0.029413665  0.029645263            4 
 1016000    1.0713904   -6.8825147     358.2741  0.029385999  0.029636621            5 
 1017000    1.0859844   -6.9045429    357.97844  0.029332878  0.029628141            2 
 1018000    1.0881412   -6.8467854    359.10419  0.029396217   0.02961956            2 
 1019000    1.1079213   -6.8750692    359.45627  0.029396162  0.029611232            3 
 1020000     1.076407    -6.874699    359.52588   0.02937303  0.029602966            2 
 1021000    1.0830654   -6.8899596    360.82046  0.029449923  0.029594465            5 
 1022000    1.1092827    -6.911729     360.3763  0.029384891   0.02958613            4 
 1023000    1.0874551    -6.901206    359.66315  0.029298073   0.02957753            2 
 1024000     1.095985   -6.8623659    360.69481  0.029353418   0.02956903            2 
 1025000    1.1136563   -6.9162509    359.99551  0.029267928   0.02956034            4 
 1026000     1.091674   -6.8926379    360.55293  0.029284676  0.029551723            3 
 1027000    1.0871305   -6.8750058    361.83609   0.02936028  0.029543489            3 
 1028000    1.0896143   -6.8968062    362.28982    0.0293685  0.029535264            6 
 1029000    1.0823669    -6.847831    362.70145  0.029373296  0.029526677            3 
 1030000    1.1167869   -6.9112173    361.94931  0.029283925  0.029518471            6 
 1031000    1.0607536   -6.8956423    363.44997  0.029376816  0.029510372            5 
 1032000    1.0910473   -6.9161093    362.74961  0.029291797  0.029502071            5 
 1033000    1.1060634   -6.9084126    362.67091  0.029257092  0.029493836            5 
 1034000    1.0893992   -6.9089371    362.90778  0.029247887  0.029485597            3 
 1035000    1.0995103    -6.834707    364.34274  0.029335164  0.029477222            2 
 1036000    1.1027939   -6.8840341    364.37196  0.029309199  0.029468914            9 
 1037000    1.1083733   -6.8585247    363.60966  0.029219677  0.029460591            2 
 1038000    1.0652838   -6.9233771    364.26313  0.029243989  0.029452272            3 
 1039000    1.0911282   -6.8662669    364.45427  0.029231173  0.029444028            4 
 1040000    1.0908129   -6.8490777     365.5105    0.0292877  0.029435973            3 
 1041000    1.0865729   -6.9305619      363.447   0.02909438  0.029427796            3 
 1042000    1.0780553   -6.8848221    364.83994  0.029177858  0.029419398            5 
 1043000    1.1011247   -6.9224141    364.13432  0.029093506  0.029410869            3 
 1044000    1.0850323   -6.8648584    365.68434  0.029189363  0.029402279            5 
 1045000    1.1154611   -6.8730669    365.47637  0.029144846  0.029393608            3 
 1046000    1.0903587   -6.8670061    364.56856  0.029044659  0.029385042            3 
 1047000    1.0796871   -6.8961083    365.04419  0.029054775  0.029376383            3 
 1048000    1.0498124   -6.8704682    366.23092  0.029121415  0.029367616            3 
 1049000    1.0807317    -6.870628    367.03333  0.029157398  0.029358961            5 
 1050000    1.0867525   -6.8729946    366.23312  0.029066121  0.029350459            5 
 1051000    1.0853787   -6.9183435    366.10656   0.02902843  0.029341592            3 
 1052000    1.0903111   -6.8998145    367.08395   0.02907826  0.029332564            5 
 1053000    1.0957289   -6.8923112    367.02232  0.029045767  0.029323727            5 
 1054000    1.0924144   -6.9342356    365.97438  0.028935356  0.029314898            6 
 1055000    1.0597972   -6.9098546    367.19023  0.029003968  0.029306163            2 
 1056000    1.0810016    -6.910899    366.44278  0.028917517  0.029297325            3 
 1057000    1.0964922   -6.8959194    367.90275  0.029005262  0.029288408            3 
 1058000    1.0734423   -6.8691192    368.79703  0.029048285  0.029279452            3 
 1059000    1.0862981   -6.8825338    368.91518  0.029030152  0.029270486            2 
 1060000    1.0735559    -6.900774     367.3459  0.028879395  0.029261407            3 
 1061000    1.1000692   -6.9057814    367.63329  0.028874748    0.0292522            4 
 1062000    1.0838561   -6.8989922    368.42062  0.028909339  0.029243126            3 
 1063000    1.0683249   -6.9429096    368.75675  0.028908494  0.029233999            4 
 1064000    1.1015824    -6.907765    368.50313   0.02886146   0.02922464            3 
 1065000    1.0834695   -6.9058118    368.33235  0.028820998  0.029215278            3 
 1066000    1.0668124   -6.8405087    371.23709  0.029021036  0.029206356            9 
 1067000    1.0619166   -6.8538311    371.10366  0.028983416  0.029197659            3 
 1068000    1.0911952    -6.867058    368.86792  0.028781829  0.029188654            2 
 1069000    1.0764922   -6.9162265    369.79574  0.028827233  0.029179584            3 
 1070000    1.0770232   -6.9268852    369.67098  0.028790575  0.029170234            7 
 1071000     1.099647   -6.9395025    369.29346  0.028734318  0.029160726            4 
 1072000    1.0949876    -6.899108    370.32042  0.028787346   0.02915112            3 
 1073000    1.0883626    -6.955434    369.83061  0.028722477  0.029141723            3 
 1074000     1.080517   -6.8731542    371.18206  0.028800595  0.029132296            3 
 1075000    1.0734535   -6.8747898    371.34398  0.028786355  0.029123111            7 
 1076000     1.085679   -6.8878646    371.52299  0.028773466  0.029113828            3 
 1077000    1.0792408   -6.9401708    371.01077  0.028707116  0.029104503            3 
 1078000     1.060569   -6.8614508     371.6365  0.028728857  0.029095184            3 
 1079000    1.0845704   -6.9141409    372.21684  0.028747053  0.029086151            2 
 1080000    1.0792352   -6.9162435    372.77042   0.02876315  0.029077059            4 
 1081000    1.0718524   -6.9384653    371.86436  0.028666694  0.029067706            4 
 1082000    1.0683874   -6.9386727    373.90169  0.028797111  0.029058439            5 
 1083000    1.1144738    -6.860107     374.6591  0.028828801  0.029049551            4 
 1084000     1.085952   -6.8893071    374.28755  0.028773643  0.029040792            4 
 1085000    1.0916014   -6.9067561     374.2202  0.028741951  0.029031695            2 
 1086000     1.071886   -6.9236862    372.87165  0.028612005  0.029022615            4 
 1087000    1.0547338   -6.9183125    374.77077  0.028731277  0.029013574            5 
 1088000    1.0799446   -6.9023482    374.98691  0.028721423  0.029004345           12 
 1089000    1.0714841   -6.9265626    374.75872  0.028677588  0.028995117            2 
 1090000    1.0608092   -6.9430269    374.51152  0.028632379  0.028985781            2 
 1091000    1.0581329   -6.9492872    374.71375  0.028621582  0.028976536            3 
 1092000    1.0734383   -6.9144886    375.54576  0.028658864  0.028967256            3 
 1093000    1.0715964   -6.9057154    375.78072  0.028650558  0.028958107            7 
 1094000    1.0620545   -6.9469035    375.02231  0.028566599  0.028948686            2 
 1095000    1.0816863   -6.9090769    375.53587  0.028579594  0.028939244            7 
 1096000    1.0606013   -6.8796223    377.07155  0.028670282  0.028930061            7 
 1097000     1.052528   -6.9296629    375.78278  0.028546246  0.028920996            3 
 1098000    1.1008708   -6.9425605     375.6433  0.028509661  0.028911657            4 
 1099000    1.0765917   -6.8969197    376.12174  0.028519998  0.028902206            4 
 1100000    1.0650098   -6.9242223    376.99787  0.028560444  0.028892785            2 
 1101000    1.0796123   -6.9173877    377.00505  0.028535047  0.028883437            4 
 1102000     1.083807   -6.9390611    377.66098  0.028558755  0.028874029            5 
 1103000    1.0631003   -6.9166419      377.708  0.028536416  0.028864781            4 
 1104000    1.0898861   -6.9349947    377.44599   0.02849079  0.028855465            4 
 1105000    1.0836543    -6.907324    378.89752  0.028574473  0.028846378            6 
 1106000    1.0693143   -6.9404364    378.56958  0.028523928  0.028837226            4 
 1107000    1.0545873   -6.9372918    377.75903  0.028437145  0.028827997            4 
 1108000     1.081734   -6.9406799    377.77298  0.028412529  0.028818812            4 
 1109000    1.0590733   -6.8952836    378.55651  0.028445786  0.028809705            4 
 1110000    1.0654454   -6.9592543    378.40483  0.028408771  0.028800495            2 
 1111000      1.06632   -6.9192733    379.15976  0.028439826   0.02879127            4 
 1112000    1.0736209   -6.9189878    380.72565  0.028531599  0.028782046            3 
 1113000    1.0767206    -6.937704    379.04403  0.028380056  0.028772662            6 
 1114000    1.0488265   -6.9166799    379.62954   0.02839838  0.028763359            2 
 1115000    1.0651257    -6.917199    380.41406  0.028431544  0.028754019            5 
 1116000    1.0720573   -6.9365125    380.75619  0.028431615  0.028744875            3 
 1117000    1.1031154   -6.8966468    381.39396  0.028453742  0.028735702            4 
 1118000    1.0679186    -6.929925    381.31035   0.02842206  0.028726642            4 
 1119000    1.0814661   -6.9302192    381.89456  0.028440167  0.028717511            4 
 1120000      1.07005   -6.9268976    382.32344  0.028446685  0.028708601            4 
 1121000    1.1019622   -6.9380852    382.33175  0.028421926  0.028699733            2 
 1122000    1.0702398   -6.9247651    382.63939  0.028419444  0.028690794            5 
 1123000    1.0760652   -6.9041766    382.94507   0.02841682  0.028681793            3 
 1124000    1.0868475   -6.9113778    383.09024  0.028402301  0.028672731            7 
 1125000    1.0694766   -6.9548783    381.75335  0.028278026  0.028663565            6 
 1126000    1.0560379   -6.9640221    383.66598  0.028394462  0.028654422            4 
 1127000       1.0832   -6.9139871    384.15212  0.028405214  0.028645639            4 
 1128000    1.0853703   -6.9047057    384.69722  0.028420303  0.028636698            3 
 1129000    1.0831536   -6.9294387    384.52451  0.028382382  0.028627808            2 
 1130000    1.0668357   -6.9225907     384.0709  0.028323812  0.028618995            3 
 1131000    1.0740089   -6.9439405     384.9544  0.028363866  0.028610101            4 
 1132000      1.07544   -6.9299234    384.58148  0.028311358  0.028601171            4 
 1133000    1.0601254   -6.9306776    384.43028  0.028275249   0.02859212            2 
 1134000    1.0813272   -6.9446719     383.9187  0.028212721   0.02858308            2 
 1135000    1.0756928   -6.9356453    385.88618  0.028332319  0.028574152            4 
 1136000    1.0804307   -6.9140749    386.41125  0.028345896  0.028565358            3 
 1137000    1.0744495   -6.8858122    387.31567  0.028387252  0.028556628            3 
 1138000      1.05024   -6.9354267     386.0936  0.028272818  0.028547983            4 
 1139000    1.1055181   -6.9434824    386.72657  0.028294306   0.02853907           10 
 1140000    1.0737567   -6.9435246    387.26523  0.028308862  0.028530179            4 
 1141000    1.0827862   -6.9544817    387.56138  0.028305681  0.028521234            4 
 1142000    1.0643736   -6.9594382     385.7884  0.028151518  0.028512406            6 
 1143000    1.0736693   -6.9511793    387.31369  0.028238094  0.028503638            4 
 1144000    1.0778711   -6.9184673    387.89124   0.02825548  0.028495005            4 
 1145000    1.0853338   -6.9120031    388.53899  0.028277947  0.028486419            4 
 1146000     1.078365   -6.8989092    388.52705  0.028252403  0.028477784            3 
 1147000    1.0717976   -6.9462876    388.80898  0.028248255   0.02846929            7 
 1148000    1.0561003   -6.9477934    388.24315  0.028182575  0.028460576            2 
 1149000     1.036937   -6.9570137    389.21906  0.028228827  0.028451814            3 
 1150000    1.0414336   -6.9131098    389.74957  0.028242723  0.028443213            3 
 1151000    1.0774454   -6.9434046    389.15856  0.028175395  0.028434653            4 
 1152000    1.0565895   -6.9692646    388.87923  0.028130732  0.028425675            3 
 1153000    1.0801548   -6.9466943    389.38654  0.028142999  0.028416551            4 
 1154000    1.0546632   -6.9449418    390.05972  0.028167224  0.028407563            5 
 1155000    1.0799214   -6.8956095    390.32762  0.028162166  0.028398879            3 
 1156000    1.0454903   -6.9189115    391.27149  0.028205845  0.028390298            3 
 1157000    1.0762008   -6.9574775    390.70966  0.028141001  0.028381603            4 
 1158000    1.0779164   -6.9088109     391.5067  0.028174057  0.028373013            2 
 1159000     1.075191   -6.9288627    392.44716  0.028217368   0.02836442            4 
 1160000    1.0719405   -6.9604381    391.29225  0.028110075  0.028355824            5 
 1161000    1.0300745   -6.8997688    392.84193  0.028197095  0.028347304            2 
 1162000    1.0792117   -6.9307862    391.84705  0.028101481  0.028338874            6 
 1163000    1.0760552   -6.9531449     391.9633  0.028085648  0.028330119            5 
 1164000    1.0617363   -6.9729609      392.051  0.028067798  0.028321399            5 
 1165000    1.0563376   -6.9417806    392.58885  0.028082178  0.028312797           10 
 1166000    1.0703094   -6.9261927    394.06858  0.028163849  0.028304283            1 
 1167000    1.0594158   -6.9293173    393.35305  0.028088621  0.028295633            4 
 1168000    1.0855583   -6.9090175    394.94611  0.028178233  0.028286996            3 
 1169000    1.0455309   -6.9281825    392.78552  0.028000108  0.028278375            2 
 1170000    1.0384368   -6.9799432      393.274  0.028010969  0.028269568            2 
 1171000    1.1080326   -6.9635103    391.84403  0.027885285  0.028260457            2 
 1172000    1.0749542   -6.9386711    393.72721  0.027995394  0.028251433            5 
 1173000    1.0520901   -6.9699678    394.63399  0.028035947  0.028242426            4 
 1174000    1.0801832   -6.9384099    393.47445  0.027929759  0.028233301            4 
 1175000    1.0658709   -6.9418547    394.46447  0.027976204   0.02822442            4 
 1176000    1.0709477   -6.9564069    394.53464  0.027957386  0.028215363            3 
 1177000    1.0453705   -6.9834766    393.79672  0.027881388   0.02820628            6 
 1178000    1.0528848   -6.9530274    394.24166  0.027889195  0.028197115            3 
 1179000    1.0781194   -6.9284248    395.43089  0.027949597  0.028188147            3 
 1180000    1.0561228    -6.952244    397.20558  0.028051242  0.028179209            4 
 1181000    1.0681489   -6.8718474    397.16257  0.028024455  0.028170362            2 
 1182000    1.0653369   -6.9858555     395.4864  0.027882572  0.028161308            4 
 1183000    1.0826013   -6.9535523    395.46693  0.027857631  0.028152365            3 
 1184000    1.0881592   -6.9221803    396.89587  0.027934676  0.028143491            5 
 1185000    1.0631928   -6.9611641    395.52778  0.027814893  0.028134573            8 
 1186000    1.0684517   -6.9749982    395.53826  0.027792177  0.028125567            6 
 1187000    1.0785106   -6.9296001    397.06176   0.02787572  0.028116488            8 
 1188000     1.042125   -6.9437574     396.6933   0.02782641  0.028107485            4 
 1189000     1.045383   -6.9405868    397.16846  0.027836309  0.028098552            3 
 1190000    1.0611355   -6.8992229    398.04146  0.027874052  0.028089696            3 
 1191000    1.0711824   -6.9791565    396.88265  0.027769567  0.028080663            7 
 1192000    1.0501902    -6.931834    398.76983  0.027878204  0.028071706            4 
 1193000    1.0667443   -6.9588769    397.65118  0.027776696  0.028062767            5 
 1194000    1.0601748   -7.0060996     397.3999  0.027735895   0.02805369            4 
 1195000    1.0445974   -6.9469514    398.95323  0.027821006  0.028044477            5 
 1196000    1.0611882   -7.0168338    397.16696  0.027673283  0.028035463            2 
 1197000    1.0626206   -6.9871041    398.34232  0.027731991  0.028026442            3 
 1198000    1.0672069    -6.959133    398.66861  0.027731539  0.028017378            3 
 1199000     1.070898   -6.9641855    399.22172  0.027746853  0.028008341            1 
 1200000     1.066164    -6.947244    399.01417  0.027709317  0.027999312            7 
 1201000    1.0747201   -6.9762459    400.46922  0.027787207  0.027990364            6 
 1202000    1.0532951   -6.9751243    401.87751  0.027861724  0.027981574            5 
 1203000    1.0552854    -6.973587    400.41508   0.02773726  0.027972481            2 
 1204000    1.0571707   -6.9717711    400.95745  0.027751761  0.027963409            5 
 1205000    1.0820172   -6.9410791    401.43203  0.027761551  0.027954386            2 
 1206000    1.0477713   -6.9738404    400.43261  0.027669473  0.027945474            7 
 1207000    1.0442774   -6.9529538    401.07512  0.027690909  0.027936591            4 
 1208000    1.0451549   -7.0005812    401.06719  0.027667439  0.027927578            5 
 1209000     1.057886   -6.9555882    403.13242  0.027786905  0.027918404            7 
 1210000     1.049489    -6.961679    401.94513  0.027682171  0.027909318            3 
 1211000    1.0689127   -6.9532182    401.19381  0.027607611  0.027900306            7 
 1212000    1.0522137    -6.926316    401.87415  0.027631611  0.027891295            3 
 1213000    1.0811131   -6.9581624    401.95165  0.027614156  0.027882078            2 
 1214000    1.0521658   -6.9905784    401.61982  0.027568631   0.02787279            3 
 1215000    1.0772137   -7.0237528    401.19899  0.027517077  0.027863424            4 
 1216000    1.0710919    -7.001126    402.24507  0.027566137  0.027854167            5 
 1217000    1.0965773   -6.9811718    401.43079  0.027487728  0.027844927            4 
 1218000    1.0340657   -6.9393693    402.49928  0.027538265   0.02783588            3 
 1219000    1.0810616   -6.9422887    405.10848  0.027694044  0.027826813            4 
 1220000    1.0437436   -6.9584016     403.3451  0.027550895  0.027817902            2 
 1221000     1.047106   -6.9601351    402.15548  0.027447139  0.027808744            3 
 1222000    1.0572369   -6.9717645    403.84368  0.027539803  0.027799706            9 
 1223000    1.0517933   -6.9754124    404.67326  0.027573811   0.02779086            2 
 1224000    1.0385911   -6.9638376    405.17675  0.027585563  0.027781997            3 
 1225000    1.0684608   -6.9771258    404.62777  0.027525699   0.02777315            4 
 1226000    1.0585276   -7.0286607    403.94281  0.027456689  0.027764211            1 
 1227000    1.0438825   -7.0092217     404.8865  0.027498404  0.027755231            3 
 1228000    1.0483887   -6.8993804    407.73471  0.027669294  0.027746501            4 
 1229000    1.0388839    -7.004994    405.73365  0.027511096  0.027737823            4 
 1230000    1.0373134   -6.9699633    407.03141  0.027576654  0.027729284            3 
 1231000    1.0588032   -6.9786833    407.65912  0.027596745  0.027720719            4 
 1232000    1.0668657   -6.9789927    407.45488   0.02756053  0.027712057            2 
 1233000    1.0555755   -6.9546146    408.01478  0.027576019  0.027703487            5 
 1234000    1.0853591   -6.9739781    407.55763    0.0275228   0.02769489            5 
 1235000    1.0457918   -6.9932967    407.58362  0.027502269  0.027686302            2 
 1236000    1.0437829   -6.9548465    409.62532  0.027617672  0.027677703            6 
 1237000    1.0505913    -6.955342    410.28536  0.027639811    0.0276695            2 
 1238000    1.0398128   -6.9979125    409.64503  0.027574383  0.027661195            8 
 1239000    1.0676152   -6.9724775    409.67201  0.027553942  0.027652983            6 
 1240000    1.0477925   -6.9769346    410.87655  0.027612672  0.027644891           12 
 1241000    1.0519989   -7.0064719    409.93001  0.027526861  0.027636724            4 
 1242000    1.0287596   -6.9799051    411.62037  0.027618114  0.027628764            4 
 1243000    1.0405127   -6.9806234    410.30536  0.027507734  0.027620618            4 
 1244000     1.031073   -6.9924612    410.88913  0.027524727  0.027612446            5 
 1245000    1.0740627   -6.9901692    410.92067  0.027504731  0.027604371            3 
 1246000    1.0598758   -6.9963434    412.74061  0.027604375   0.02759626            2 
 1247000    1.0538101   -7.0048114    411.38577  0.027491698  0.027588379            3 
 1248000    1.0544531   -6.9517011    413.66199   0.02762166  0.027580348            2 
 1249000    1.0600616   -6.9653795    412.96475  0.027553026  0.027572407            4 
 1250000    1.0836647    -7.022075    412.64985   0.02750999  0.027564536            4 
 1251000     1.039075   -6.9626364    413.47119  0.027542712  0.027556583            4 
 1252000    1.0620776   -6.9836146    413.05525  0.027493028   0.02754878            3 
 1253000    1.0440733   -6.9980802    412.33915   0.02742346  0.027540845            6 
 1254000     1.031145   -7.0166924    414.58487  0.027550829  0.027532867            2 
 1255000    1.0630992   -6.9457662    414.40579  0.027516985  0.027525127            4 
 1256000    1.0179504   -6.9779115    414.90064  0.027527909  0.027517428            6 
 1257000    1.0423129   -6.9865087    415.34854  0.027535703  0.027509633            3 
 1258000    1.0403453   -6.9698473    415.39638  0.027516983  0.027502015            5 
 1259000    1.0494508    -7.021016    414.29308  0.027422099  0.027494264            3 
 1260000    1.0673882    -6.980088     416.2473  0.027529583  0.027486401            3 
 1261000    1.0389346   -6.9640091    415.68082  0.027470316  0.027478578            3 
 1262000    1.0611973    -6.981043    414.73042  0.027385791  0.027470666            4 
 1263000    1.0494362   -7.0150117    415.04371  0.027384779  0.027462648            2 
 1264000    1.0402639   -6.9354312    417.18965  0.027504592  0.027454798            2 
 1265000    1.0589044   -6.9949683    414.72497  0.027320486  0.027446622            3 
 1266000    1.0574346    -6.972223    414.91379  0.027311334  0.027438297            7 
 1267000    1.0322093   -6.9904341    415.88592  0.027353718   0.02743006            4 
 1268000    1.0378732    -7.008163    415.40319   0.02730042  0.027421715            7 
 1269000    1.0723936   -6.9856855    415.71138  0.027299145  0.027413452            1 
 1270000    1.0711725   -6.9797612    416.36947  0.027320831  0.027405109            6 
 1271000      1.08026   -6.9840592    416.68522  0.027320038   0.02739682            6 
 1272000     1.066172   -7.0094963    417.14089  0.027328413    0.0273886            2 
 1273000    1.0670043   -6.9836867    416.34872  0.027255088   0.02738037            2 
 1274000     1.036541   -6.9439345     417.1306  0.027284838   0.02737193            6 
 1275000    1.0445397   -6.9803559    416.94126  0.027251063  0.027363676            2 
 1276000    1.0325763   -6.9534616    418.83572   0.02735343  0.027355486            3 
 1277000    1.0456268    -6.999398    417.75953  0.027261781   0.02734736            4 
 1278000    1.0384791   -6.9575417    418.13859  0.027265166  0.027339219            5 
 1279000    1.0574176   -6.9584676    419.09242  0.027305996  0.027331341            4 
 1280000    1.0403202   -6.9460863    419.24794  0.027294788  0.027323245            7 
 1281000    1.0547593   -6.9553861    419.54355  0.027292711  0.027315189            3 
 1282000    1.0515886   -7.0086702    418.52977  0.027205523  0.027307256            4 
 1283000    1.0492876    -7.006455    418.31033  0.027170066  0.027299129            5 
 1284000    1.0479744   -7.0362426    418.56705  0.027165567  0.027290797            6 
 1285000    1.0523421   -7.0192343    418.90502  0.027166343  0.027282497            5 
 1286000    1.0427351   -7.0060106    417.76927  0.027071622  0.027274062            4 
 1287000    1.0472897   -7.0690749    418.87643  0.027122276  0.027265542            4 
 1288000    1.0370349   -6.9904334     420.9674  0.027236504  0.027257286            2 
 1289000     1.042339    -6.980065     420.7781  0.027203136  0.027249057            2 
 1290000    1.0556684   -6.9725645    420.05324  0.027135222  0.027240746            2 
 1291000    1.0512479   -6.9829262    420.72644  0.027157658  0.027232373            5 
 1292000    1.0446926   -7.0108351    420.27592   0.02710758  0.027224082            7 
 1293000    1.0340435   -7.0396851    420.20706  0.027082177   0.02721575            2 
 1294000    1.0495474   -6.9693348    422.55099  0.027212196   0.02720748            3 
 1295000    1.0389668   -7.0255476    420.62059  0.027066962   0.02719913            4 
 1296000    1.0536309    -7.001972    421.51788  0.027103773   0.02719092            7 
 1297000    1.0483194   -7.0079278    421.04289  0.027052357  0.027182683            3 
 1298000    1.0465644   -7.0459737    421.73496  0.027075947  0.027174389            4 
 1299000    1.0386937   -6.9810107    422.70709  0.027117468   0.02716627            4 
 1300000    1.0595909   -7.0161046    422.59574  0.027089471  0.027158201            3 
 1301000    1.0324781   -7.0159872    423.71572  0.027140387  0.027149911            3 
 1302000    1.0507284   -7.0419823     423.9317  0.027133365  0.027141919            5 
 1303000    1.0222782   -7.0039352    424.42054  0.027143805  0.027133965            2 
 1304000    1.0637576   -6.9697537    425.34035  0.027181771  0.027125935            2 
 1305000    1.0539977   -7.0230868    424.51929  0.027108511  0.027118033            4 
 1306000      1.03989   -7.0093784    424.76517  0.027103443  0.027110073            4 
 1307000     1.044793   -7.0066598    423.77132  0.027019339  0.027102061            3 
 1308000    1.0184706   -6.9866387    425.14111  0.027085952  0.027094072            6 
 1309000     1.068763   -6.9744267      425.083  0.027061561  0.027085971            3 
 1310000    1.0300472   -6.9876489     425.4246  0.027062633  0.027078034            3 
 1311000    1.0266439    -7.013854    424.32199  0.026971904  0.027069885            5 
 1312000    1.0536792   -7.0166043    424.65348  0.026972401  0.027061627            3 
 1313000    1.0686585   -7.0006116     425.1294  0.026982064  0.027053527            4 
 1314000    1.0122311   -7.0459932    423.84665  0.026880178  0.027045254            2 
 1315000    1.0187886    -6.978107    426.16939  0.027006932  0.027037038            4 
 1316000    1.0406373   -7.0053806      426.111  0.026982712  0.027029038            5 
 1317000    1.0325616     -7.02475    426.01322  0.026956037  0.027020957            4 
 1318000    1.0442863    -6.959401    427.36296  0.027020925  0.027012801            2 
 1319000    1.0356575   -7.0033781    426.87096  0.026969356  0.027004695            6 
 1320000    1.0315216   -7.0141315    427.20526  0.026970029  0.026996532            6 
 1321000    1.0298341    -7.037547    427.08687  0.026942144  0.026988282            6 
 1322000    1.0559586   -7.0735117    427.50631  0.026948204   0.02697993            4 
 1323000    1.0662091   -7.0775802    424.77114  0.026755552  0.026971527            4 
 1324000     1.053998   -7.0306642    426.52923  0.026845999  0.026963054            3 
 1325000    1.0451921   -7.0127894    426.34712  0.026814284  0.026954778            3 
 1326000     1.028935   -7.0060187    427.71448  0.026879995   0.02694642            3 
 1327000    1.0241862   -7.0359672    425.37988   0.02671313  0.026938064            4 
 1328000    1.0623868   -7.0094209    427.53243  0.026828089  0.026929684            3 
 1329000    1.0477487   -7.0231576    426.80416  0.026762237  0.026921444            3 
 1330000    1.0548394   -7.0054488     428.4112  0.026842807   0.02691312            7 
 1331000     1.045373   -6.9877299     427.6497  0.026774963  0.026904868           10 
 1332000    1.0337756   -7.0295965    427.98794  0.026776022  0.026896423            2 
 1333000    1.0406858   -7.0602901      428.429  0.026783508  0.026888007            6 
 1334000    1.0457348   -6.9968534    428.54488  0.026770669  0.026879576            5 
 1335000    1.0294612   -7.0525713    428.23915  0.026731533  0.026871238            5 
 1336000    1.0473279     -7.02298     429.0985  0.026765126  0.026862943            5 
 1337000    1.0245065   -7.0438205    429.78953  0.026788178  0.026854709            8 
 1338000    1.0309941   -7.0437446    428.81885  0.026707701  0.026846339            4 
 1339000    1.0428211   -7.0052516    430.12604  0.026769109   0.02683805            3 
 1340000    1.0342288   -6.9934731     430.4348  0.026768333  0.026829809            3 
 1341000    1.0401247   -7.0569614    429.20478  0.026671935  0.026821448            3 
 1342000    1.0394242   -7.0220504    430.43423  0.026728405  0.026813026            6 
 1343000    1.0099766   -7.0102226    429.30111  0.026638192  0.026804597            2 
 1344000    1.0584006   -7.0195984    429.97802  0.026660344  0.026796258            3 
 1345000    1.0313769    -7.000284    431.75598   0.02675068  0.026787987           14 
 1346000     1.019184   -7.0417982    430.08136  0.026627127  0.026779666            6 
 1347000    1.0432349   -6.9876059    432.10283   0.02673242  0.026771258            3 
 1348000    1.0479395   -7.0241957    430.62888  0.026621469   0.02676291            7 
 1349000    1.0347311   -7.0704146    430.09159  0.026568544    0.0267545            4 
 1350000    1.0247941   -7.0517765    432.24944  0.026682064  0.026745929            7 
 1351000    1.0297724   -7.0518318    432.54384  0.026680473  0.026737521            2 
 1352000    1.0158518   -7.0335741    431.86637  0.026618982  0.026729181            8 
 1353000    1.0208745   -7.0609991    432.47225  0.026636625  0.026720784            2 
 1354000    1.0171698   -6.9912168     433.2685  0.026665959  0.026712392            3 
 1355000    1.0340745   -7.0007117    433.10719  0.026636359  0.026704143            1 
 1356000    1.0491379   -7.0751388    432.70743  0.026592148  0.026695862            2 
 1357000    1.0189619   -7.0491647     432.1181  0.026536361  0.026687666            4 
 1358000    1.0570782   -7.0219908    433.88443  0.026625211  0.026679315            4 
 1359000    1.0278511   -7.0437496     433.0021  0.026551514  0.026670986            4 
 1360000    1.0582141   -7.0464824    434.86298  0.026646016  0.026662642            4 
 1361000    1.0256929   -7.0351005    434.54094  0.026606719  0.026654469            3 
 1362000     1.036842   -7.0232103     434.0722  0.026558505  0.026646097            3 
 1363000    1.0550194    -7.011219    434.33678  0.026555195  0.026637846            2 
 1364000     1.051331   -6.9795772    434.96941  0.026574378  0.026629778            1 
 1365000    1.0317345   -7.0063418    435.34524  0.026577853  0.026621544            8 
 1366000    1.0542508   -7.0092015    435.78301  0.026585103  0.026613562            2 
 1367000    1.0209547   -7.0320061    434.87896  0.026510544  0.026605508            2 
 1368000    1.0175941   -7.0518679    435.06472  0.026502481  0.026597259            3 
 1369000    1.0366525   -6.9992373    435.87352  0.026532355  0.026589239            4 
 1370000    1.0401298   -7.0445186    435.98438  0.026519731  0.026581213            3 
 1371000    1.0428697   -7.0278459    435.73705  0.026485355  0.026573084            2 
 1372000    1.0504045   -7.0243197    437.02052  0.026544006  0.026564809            3 
 1373000    1.0384137    -7.039573    436.91404  0.026518211  0.026556722            3 
 1374000    1.0240481   -7.0449111    437.13346  0.026512218  0.026548562            6 
 1375000    1.0378149    -7.049321    438.91841  0.026601116  0.026540715            4 
 1376000    1.0292441   -7.0858857    436.96825  0.026463678  0.026532666            5 
 1377000    1.0378486   -7.0215334    438.78461  0.026554382  0.026524553            5 
 1378000    1.0171714   -7.0152477    438.02461  0.026489152  0.026516608            5 
 1379000    1.0385015   -7.0213301    439.21207  0.026541701  0.026508721            5 
 1380000    1.0233973   -7.0071769     440.2734  0.026586558  0.026500852            3 
 1381000    1.0461749   -7.0200832    438.58667  0.026465524  0.026492957            5 
 1382000    1.0244894   -7.0437727    439.53831  0.026503757  0.026484993            2 
 1383000    1.0268308   -7.0525244    438.75945  0.026437663  0.026477011            3 
 1384000    1.0310143   -7.0180064    439.47123  0.026461418  0.026469136            3 
 1385000      1.04983   -7.0710346    439.88234  0.026467048  0.026461307            4 
 1386000    1.0333303   -7.0388914    440.07527  0.026459552  0.026453543            4 
 1387000    1.0472804   -7.0294217    441.28396  0.026513095  0.026445737            5 
 1388000    1.0161973   -7.0515815    440.62174  0.026454235  0.026437902            9 
 1389000    1.0503071   -7.0666775    439.01267  0.026338653  0.026430118            4 
 1390000    1.0267311   -7.0746438     440.9936  0.026438465  0.026422234            4 
 1391000    1.0248903   -7.0500759    441.63594   0.02645794  0.026414323            2 
 1392000    1.0416388    -7.035281    442.48763   0.02648992  0.026406492            9 
 1393000    1.0053442   -7.0368821    442.29813  0.026459568  0.026398725            5 
 1394000    1.0138827   -7.0484095    441.68882  0.026404162  0.026390922            4 
 1395000    1.0405666   -7.0634698    442.01506  0.026404723  0.026383037            3 
 1396000    1.0285383   -7.0429886    444.06139  0.026507962  0.026375091            5 
 1397000     1.017625   -7.0830917    442.02153  0.026367307  0.026367238            8 
 1398000    1.0493941    -7.055619    442.54253  0.026379502  0.026359375            7 
 1399000    1.0275865   -7.0438396    442.89736  0.026381782  0.026351608            7 
 1400000    1.0389638   -7.0536266    442.05198  0.026312618  0.026343989            5 
 1401000    1.0190432   -7.0310511    444.50365  0.026439665  0.026336333            3 
 1402000    1.0429008   -7.0597053    443.45335  0.026358378  0.026328607            5 
 1403000    1.0365672   -7.0386614    443.28251  0.026329444  0.026320901            2 
 1404000    1.0351359   -7.0662035    443.65612  0.026332865  0.026313054            4 
 1405000    1.0034793   -7.0540318    443.31493  0.026293887  0.026305176            5 
 1406000    1.0237766   -7.0585537    444.22336  0.026329028  0.026297321            4 
 1407000    1.0467744   -7.0406022    444.65187  0.026335695  0.026289464           10 
 1408000    1.0149065   -7.0565615    443.47842  0.026247539  0.026281639            2 
 1409000    1.0115144   -7.0584918    444.61569  0.026296173  0.026273843            4 
 1410000    1.0382511   -7.0932375     444.7219    0.0262838  0.026265964            7 
 1411000    1.0309086   -7.0721247    444.65661  0.026261316  0.026258041            3 
 1412000    1.0288996   -7.0985752    445.26155   0.02627842  0.026250259            4 
 1413000    1.0508217   -7.0192202    445.77144  0.026289894  0.026242535            3 
 1414000    1.0434438   -7.0435236    446.41315   0.02630912  0.026234984            2 
 1415000     1.036997   -7.0715355     446.8888  0.026318539  0.026227237            3 
 1416000    1.0424789   -7.0808138    445.75886  0.026233455  0.026219519            4 
 1417000    1.0227189    -7.075609    444.75841  0.026156105  0.026211685           15 
 1418000    1.0197316   -7.0615237    447.15892  0.026278733  0.026203778            9 
 1419000    1.0160329   -6.9968732      447.745  0.026294632   0.02619607            5 
 1420000    1.0230588   -7.0478252    447.70538   0.02627379  0.026188346            3 
 1421000    1.0287694   -7.0724592    446.31547   0.02617379  0.026180593            2 
 1422000    1.0202408     -7.05502    447.85035  0.026245332  0.026172922            2 
 1423000    1.0144387   -7.0662322    448.42894  0.026260772  0.026165259            6 
 1424000    1.0335653   -7.0622216    449.04863  0.026278595  0.026157657            2 
 1425000    1.0352218   -7.0626105    447.28688  0.026157127  0.026150116            6 
 1426000    1.0449298   -7.0280757    449.92768  0.026293109  0.026142511            3 
 1427000    1.0475634   -7.0883857    447.76512  0.026148395  0.026134792            3 
 1428000    1.0139185   -7.0725849    448.00402  0.026144025  0.026127011            5 
 1429000    1.0181925   -7.0228591    449.98155  0.026241052  0.026119313            7 
 1430000    1.0166188   -7.0935248    447.82503   0.02609703  0.026111623            2 
 1431000    1.0131599   -7.0345875    448.70581  0.026130084  0.026103969            4 
 1432000    1.0276746   -7.0886258     447.9992  0.026070717  0.026096287            4 
 1433000     1.032244   -7.0228068    451.14257  0.026235321  0.026088627            5 
 1434000    1.0168222   -7.0715845    448.44018  0.026059982  0.026080876            3 
 1435000    1.0160818   -7.0539636    449.72224  0.026116274   0.02607308            3 
 1436000    1.0259586   -7.0856867    449.79982  0.026102589  0.026065329            5 
 1437000    1.0119982   -7.0524557    450.70723  0.026137046  0.026057609            4 
 1438000    1.0325347   -7.1001944    449.82509   0.02606775  0.026049833            5 
 1439000    1.0214069   -7.0563126    450.09753  0.026065412  0.026041826            3 
 1440000    1.0213016   -7.0546549    450.39363  0.026064446  0.026033822            7 
 1441000    1.0050269   -7.0413342    450.50864   0.02605301  0.026025924            5 
 1442000    1.0266424   -7.0379833    450.89715  0.026057394  0.026018112            5 
 1443000   0.99580141   -7.0618939    450.69569  0.026027702  0.026010294           11 
 1444000     1.036793    -7.051844    450.12983  0.025977021  0.026002505            3 
 1445000    1.0428389   -7.0879335    450.34539  0.025971476  0.025994725            3 
 1446000    1.0135843   -7.0923335     450.5884   0.02596752  0.025986864            4 
 1447000    1.0041397   -7.0838509    451.93058   0.02602687  0.025979016            3 
 1448000    1.0337268   -7.0443028    451.87573   0.02600574  0.025971091            3 
 1449000    1.0485676   -7.0591414    450.86748  0.025929807  0.025963258            4 
 1450000    1.0174961   -7.0554997    451.15114  0.025928227  0.025955423            5 
 1451000    1.0377515   -7.1000618     449.7777  0.025831478  0.025947492            3 
 1452000    1.0207571   -7.0736232    451.84963    0.0259326  0.025939583            4 
 1453000    1.0357341    -7.062595    451.20708  0.025877901  0.025931673            4 
 1454000    1.0366028   -7.0419371    453.72363  0.026004335  0.025923833            7 
 1455000    1.0199178   -7.0810898    451.60474  0.025865105  0.025915907            4 
 1456000    1.0171553   -7.0684886    451.41626  0.025836553  0.025907905            4 
 1457000    1.0086432    -7.060143    452.74149  0.025894617  0.025899796            2 
 1458000    1.0129795   -7.0632597    452.10111  0.025840255  0.025891555            8 
 1459000   0.99337594     -7.07209    452.98135  0.025872821  0.025883405            6 
 1460000    0.9913033   -7.0844018    454.27749   0.02592908  0.025875259           11 
 1461000    1.0177169   -7.0752414    453.35561   0.02585875  0.025867222            5 
 1462000    1.0296665   -7.0824447    452.87748   0.02581381  0.025859254            3 
 1463000    1.0001718   -7.0355285    455.83441  0.025964594  0.025851328            5 
 1464000    1.0272461   -7.0954352    453.89328  0.025836366  0.025843449            3 
 1465000    1.0257684   -7.1087104    453.53935  0.025798598  0.025835528            4 
 1466000    1.0327546   -7.0556949    454.75485  0.025850094  0.025827567           11 
 1467000    1.0199523   -7.0714883    454.59425   0.02582335  0.025819693            4 
 1468000    1.0207178   -7.0433382    454.84204  0.025819825  0.025811726            3 
 1469000    1.0333551   -7.0860254    454.35816  0.025774799  0.025803904            4 
 1470000    1.0206132   -7.1121967    455.76659  0.025837109  0.025796109            4 
 1471000    1.0083202   -7.0849981    455.39924  0.025798733  0.025788227            3 
 1472000     1.026263   -7.1036692    455.91088  0.025810172  0.025780316            3 
 1473000    1.0327532   -7.0579612    455.74893  0.025783488  0.025772491            5 
 1474000    1.0136605   -7.0710478    456.92748  0.025832625  0.025764765           13 
 1475000    1.0134395   -7.0612426    455.79751  0.025751272  0.025756886            7 
 1476000    1.0124185   -7.0811899    455.81273  0.025734684  0.025749172            2 
 1477000    1.0106909   -7.0623733    458.40569  0.025863557  0.025741353            2 
 1478000    1.0227363   -7.0516672    457.84268  0.025814315   0.02573377            5 
 1479000     1.006128   -7.0747011    458.10542  0.025811664  0.025726253            3 
 1480000    1.0294352   -7.0926266     457.4687  0.025758373  0.025718665            3 
 1481000    1.0151121   -7.1017289    458.28934  0.025787156  0.025710931            5 
 1482000   0.99384414   -7.1180082    457.23503  0.025710472  0.025703172            6 
 1483000    1.0254199   -7.0783136    458.55318  0.025767205  0.025695435            3 
 1484000    1.0063404   -7.1033735    457.18232  0.025672862   0.02568776            6 
 1485000    1.0253519    -7.105538    458.90391  0.025752184  0.025679976            6 
 1486000    1.0068939   -7.1411146     457.9976  0.025684029  0.025672285            3 
 1487000     1.024962   -7.1091452    457.88129  0.025660238  0.025664573            2 
 1488000     0.997951   -7.1372632    457.25808  0.025608091  0.025656693            4 
 1489000    1.0109167   -7.1032328    459.78544  0.025732339  0.025648825            3 
 1490000    1.0031277   -7.0794289    458.80995  0.025660512  0.025641082            4 
 1491000    1.0172789   -7.0718443    459.77589  0.025697289  0.025633242            2 
 1492000    1.0123582   -7.0990706    458.88074  0.025630068  0.025625513            5 
 1493000    1.0010678   -7.1161971    460.07348  0.025679475  0.025617752            3 
 1494000   0.98150265   -7.0991478    459.50558   0.02563061  0.025610028            7 
 1495000    1.0027929   -7.0970785    460.58481  0.025673624  0.025602303            8 
 1496000    1.0212159   -7.1136169    459.31792  0.025585891  0.025594601            2 
 1497000   0.98720815   -7.1096592    461.12167  0.025669209   0.02558695            7 
 1498000    1.0155676   -7.0863808    461.35971  0.025665316  0.025579179            5 
 1499000    1.0140612   -7.0697899    461.81436  0.025673469   0.02557157            3 
 1500000    1.0030821   -7.0827443    461.42904  0.025634947  0.025563929            9 
 1501000    1.0118851   -7.0900187    461.10291  0.025599762  0.025556292            6 
 1502000    1.0130722   -7.0882671    462.06537  0.025636117  0.025548583            6 
 1503000    1.0010364   -7.1000114    461.51215  0.025588387  0.025540886            3 
 1504000     1.003838    -7.108045    461.16192  0.025551968   0.02553318            3 
 1505000    1.0033532   -7.0983589    461.90815   0.02557631  0.025525544            4 
 1506000   0.98819853   -7.0895858    463.17959  0.025629681  0.025517919            3 
 1507000    1.0098784   -7.0810128    462.51829  0.025576105  0.025510267            3 
 1508000     1.002451   -7.1332199    461.58841  0.025507759  0.025502579            4 
 1509000     0.999965   -7.1043109     463.0426  0.025571162  0.025494818            3 
 1510000      1.01743   -7.1333084    462.98196  0.025550881  0.025487008            5 
 1511000    1.0210278   -7.1504061    461.54996  0.025454994  0.025479192            4 
 1512000   0.99961499   -7.1231395    461.88559  0.025456657  0.025471559            7 
 1513000   0.98971612   -7.0955421    464.61513   0.02559017   0.02546395            5 
 1514000    1.0324535   -7.0859827    463.21376  0.025496134  0.025456308            3 
 1515000    1.0222422   -7.1118181    464.16476  0.025531615  0.025448751            5 
 1516000   0.97667744   -7.1463997    463.40868  0.025473212  0.025441133            5 
 1517000    1.0024088   -7.0637514    464.77161   0.02553129  0.025433505            5 
 1518000    1.0082163   -7.1117003    464.73101  0.025512243  0.025425978            4 
 1519000    1.0284055   -7.1218755    464.35515  0.025474827  0.025418364            3 
 1520000    1.0258329   -7.1142518    464.34053  0.025457266   0.02541069            7 
 1521000    1.0143965   -7.1211818    466.02317  0.025532718   0.02540315            5 
 1522000    1.0059527   -7.1041078    465.18223  0.025469899  0.025395635           10 
 1523000    1.0078478   -7.0951794    464.83062  0.025433936     0.025388            1 
 1524000    1.0005119   -7.0909053    466.36549  0.025501175  0.025380589            5 
 1525000   0.99676803   -7.1118174     466.0936  0.025469596  0.025373075            5 
 1526000    1.0057711   -7.0825403    467.50447  0.025529951  0.025365542            3 
 1527000    1.0179629   -7.1066565    467.42368  0.025508823  0.025358046            6 
 1528000    1.0211721    -7.097917    466.96081  0.025466885   0.02535056            5 
 1529000    1.0003092   -7.1100554    465.96987  0.025396221  0.025343061            4 
 1530000    1.0474629   -7.1602756    466.11136  0.025387329  0.025335414            4 
 1531000   0.99698823   -7.1399109    465.92681  0.025360702  0.025327832            2 
 1532000    1.0177452   -7.1445166    466.47722  0.025374087  0.025320155            9 
 1533000     1.029551   -7.1310461    466.91872  0.025381535  0.025312667            9 
 1534000    1.0009935   -7.1251174    468.09795   0.02542905  0.025305281            5 
 1535000    0.9836619   -7.1255281    467.58953  0.025384882  0.025297861            4 
 1536000   0.98628884   -7.1189926    468.71989  0.025429681  0.025290362            3 
 1537000    1.0268381   -7.1115722    469.07664  0.025432479  0.025282924            4 
 1538000    1.0225559   -7.1075516    468.94667  0.025408901  0.025275608            5 
 1539000   0.99761842   -7.1206308    470.12879    0.0254564  0.025268197            3 
 1540000   0.99075392   -7.1088559    469.38274  0.025399499  0.025260748            8 
 1541000    1.0305625    -7.089011     470.4782  0.025442256  0.025253394            6 
 1542000    1.0026859   -7.1150838    468.93833  0.025342538  0.025246062            4 
 1543000    1.0251643   -7.1363844    469.65283  0.025364703  0.025238619            7 
 1544000   0.99545686    -7.122189    468.12816  0.025265985  0.025231163            4 
 1545000      1.01763   -7.1507825    468.35081   0.02526164  0.025223726            4 
 1546000    1.0013167   -7.0891949    470.56558  0.025364682  0.025216255            3 
 1547000    1.0246006   -7.1439776    470.11185  0.025323845  0.025208857            9 
 1548000   0.99099636   -7.1454301    469.79612  0.025290489  0.025201479            5 
 1549000   0.99454981   -7.1422395    470.05684  0.025288188  0.025194109            6 
 1550000    1.0018734   -7.1178252     470.9147  0.025317994  0.025186667           14 
 1551000    1.0078348   -7.0982722    471.83556  0.025351148  0.025179252            4 
 1552000    0.9847993   -7.1393353    469.97044  0.025234667  0.025171872            8 
 1553000    1.0147961   -7.1489562    470.06057  0.025223255  0.025164351            6 
 1554000    1.0060474   -7.1270402    470.25325  0.025217356  0.025156854            2 
 1555000    1.0008791   -7.1112474    471.49642  0.025267761  0.025149347            3 
 1556000    1.0083247   -7.1436571    470.64057  0.025205686  0.025141736            4 
 1557000    1.0135532   -7.1597844    470.74803  0.025195249  0.025134103            8 
 1558000    1.0240645   -7.1016627    472.99419  0.025299218  0.025126585            4 
 1559000    1.0098933   -7.1448642    469.75151  0.025109659  0.025118993           12 
 1560000   0.99695933   -7.1675943    470.30995  0.025123395   0.02511135            7 
 1561000    1.0163186   -7.0958627    471.78653  0.025186127  0.025103677            2 
 1562000   0.99441594   -7.1699425    469.40456  0.025042923   0.02509598            7 
 1563000   0.98409953   -7.1453975    470.56607  0.025088829  0.025088203            3 
 1564000   0.99596164   -7.1310285    472.31892  0.025166183  0.025080448            5 
 1565000    1.0212246   -7.1224228    472.20755  0.025144172  0.025072764            7 
 1566000   0.98125063   -7.1292978    471.89253  0.025111352  0.025065073            8 
 1567000   0.99386428   -7.1660647     471.5903  0.025079255   0.02505738            5 
 1568000   0.98010407   -7.1211488      472.826  0.025128933  0.025049613            7 
 1569000    1.0175767   -7.1218453     474.3702  0.025194933  0.025041921            6 
 1570000   0.99922192   -7.1653163    471.58367   0.02503098  0.025034179            3 
 1571000   0.99631079   -7.1459211    471.90724  0.025032211  0.025026414            7 
 1572000   0.99152451     -7.11053    473.53085  0.025102357  0.025018879            4 
 1573000    1.0156156   -7.0746556    473.26665  0.025072401  0.025011451            4 
 1574000    0.9986849   -7.1279377     473.5552  0.025071749  0.025003969            9 
 1575000    1.0125285   -7.1166704    472.56419  0.025003396  0.024996418            5 
 1576000    1.0284141   -7.1629206    473.25302  0.025023954  0.024988854            6 
 1577000    1.0005888   -7.1111783    474.80131  0.025089902  0.024981392            6 
 1578000   0.98590599   -7.1485565     474.3657  0.025050998  0.024973919           12 
 1579000    1.0049658   -7.1302043    475.23442  0.025080981  0.024966541            3 
 1580000   0.97842817   -7.1358283    476.64681    0.0251396  0.024959156            4 
 1581000    1.0049676    -7.154904    475.83833  0.025081084  0.024951802            4 
 1582000    1.0124294   -7.1303863    475.26128  0.025034834  0.024944367            2 
 1583000   0.99770138   -7.0994572    476.37687  0.025077746  0.024937022            5 
 1584000   0.98741748   -7.1619918    475.33584  0.025007147   0.02492956            5 
 1585000    1.0016578   -7.1676731    474.68744  0.024957279  0.024922075           11 
 1586000   0.98718777   -7.1820296    474.90791  0.024953127  0.024914523            4 
 1587000     1.003604   -7.0784261    478.37662  0.025119545  0.024907155            3 
 1588000    1.0012964   -7.1281208    478.43633   0.02510686  0.024899999           10 
 1589000   0.99589063   -7.1276342    478.34202  0.025086114  0.024892859            5 
 1590000   0.99888767   -7.1570958    476.49894  0.024973739  0.024885492            5 
 1591000   0.98045974   -7.1408812    477.01422  0.024985031  0.024878243            4 
 1592000    1.0011679   -7.1461253    479.25964  0.025086874  0.024870916            4 
 1593000   0.98088597   -7.1517029    477.25317  0.024966163  0.024863519            3 
 1594000    1.0001781   -7.1649418    478.00006  0.024989547  0.024856133            3 
 1595000    0.9924481   -7.1315462    478.30856  0.024989998  0.024848828            2 
 1596000   0.97213293   -7.1399952    477.88025  0.024951977  0.024841467            4 
 1597000    1.0051444   -7.1488166    478.51938  0.024969702  0.024834024            3 
 1598000    1.0028256   -7.1460044     477.3386  0.024892501  0.024826632            4 
 1599000   0.99549931   -7.1221947    478.61952   0.02494369    0.0248192            2 
 1600000    1.0086425   -7.1463894    478.01784  0.024896762  0.024811671            6 
 1601000   0.98942335   -7.1658853    478.30516  0.024896167  0.024804094            4 
 1602000    1.0478613   -7.1765843    476.72859  0.024798616  0.024796461            6 
 1603000   0.97423486   -7.1655075    477.98287   0.02484835  0.024788918            6 
 1604000   0.99367014   -7.1816609    477.86171  0.024826565  0.024781372            3 
 1605000   0.98141857    -7.156498    479.25945  0.024883668   0.02477382            4 
 1606000   0.98559045    -7.147017     479.8687  0.024899787  0.024766364            3 
 1607000   0.99466782   -7.1200239    479.41045   0.02486053  0.024758881            2 
 1608000   0.97551523   -7.1533344    479.42073  0.024845602   0.02475142            3 
 1609000    0.9696979   -7.1008612    480.92458  0.024908048  0.024744095            6 
 1610000   0.99018548   -7.1537525    479.18648  0.024802613  0.024736682            7 
 1611000   0.97434198   -7.1404355    479.79498  0.024818693  0.024729232            4 
 1612000    1.0190787   -7.1402126    479.74113  0.024800514  0.024721778            8 
 1613000   0.98806986   -7.1408501     479.2002  0.024757192  0.024714252            6 
 1614000    0.9762444   -7.1399035    479.71412  0.024768387  0.024706705            4 
 1615000   0.97731508   -7.1120004    482.08302  0.024875285  0.024699213            6 
 1616000   0.99851391   -7.1437792    481.15982  0.024812284  0.024691739            6 
 1617000   0.98976596   -7.1493434    480.40723  0.024758155  0.024684049            4 
 1618000   0.99780515   -7.1341501    481.01784  0.024774302  0.024676388            3 
 1619000   0.98284328   -7.1460326    482.28801  0.024824377  0.024668916            3 
 1620000   0.98167231   -7.1448552    482.34099  0.024811779  0.024661313            5 
 1621000   0.99296437   -7.1874432    481.01757  0.024728438  0.024653732            8 
 1622000   0.98373193   -7.1935636    480.25332  0.024673927  0.024646044            6 
 1623000   0.97270198   -7.1784126    480.61566  0.024677329  0.024638472            7 
 1624000   0.97673797   -7.1603465    480.46707  0.024654509  0.024630875            7 
 1625000   0.98140797   -7.1112573     482.0026  0.024718082  0.024623304            5 
 1626000    1.0005533   -7.1328649     480.9741  0.024650169  0.024615735            3 
 1627000    1.0062567   -7.2024278    479.48866  0.024558936  0.024607998            4 
 1628000   0.99268163   -7.1490663    481.96987  0.024670857   0.02460031            4 
 1629000    1.0051171   -7.1374189    481.99127  0.024656807   0.02459257            3 
 1630000    1.0136581   -7.1763615    481.55695  0.024619476  0.024584767            3 
 1631000    1.0006506   -7.1891275    481.55543  0.024604303  0.024576978            4 
 1632000    1.0106409   -7.1523397    481.79783  0.024601605  0.024569282            3 
 1633000    1.0013678   -7.1658167    482.09573  0.024601742  0.024561555            9 
 1634000    1.0066816   -7.1590444    482.24748  0.024594425  0.024553732            7 
 1635000   0.96223252   -7.1709375    481.53545  0.024543091  0.024546101            8 
 1636000   0.98866065   -7.1732885    482.57686  0.024581136  0.024538412            5 
 1637000   0.99308137   -7.1476722    484.11211  0.024644273  0.024530839            4 
 1638000   0.97752886    -7.142376    482.34506  0.024539329  0.024523183            7 
 1639000   0.99975135   -7.1583026    484.71723  0.024644968  0.024515451            4 
 1640000   0.99831467    -7.140645    483.16082  0.024550855  0.024507766            3 
 1641000   0.99478286   -7.1416029    483.85903   0.02457135  0.024500112           13 
 1642000   0.98925757   -7.1375162    484.08588  0.024567899  0.024492412            4 
 1643000   0.99063945   -7.1688031     484.2838  0.024562984  0.024484836            6 
 1644000   0.97508036   -7.1497246    484.15683  0.024541607  0.024477142           11 
 1645000   0.98889061   -7.1516643    484.57545  0.024547895  0.024469518            5 
 1646000    1.0071692   -7.1484182    484.98914  0.024553926  0.024461958            7 
 1647000   0.97736259   -7.1786882    486.13826   0.02459716  0.024454419            5 
 1648000     0.987984   -7.1585708    484.87038  0.024518122  0.024446865            6 
 1649000   0.99614491   -7.1854543    484.89465   0.02450448  0.024439282            5 
 1650000   0.97908116   -7.1773586    484.93505  0.024491669  0.024431624            5 
 1651000   0.99337472   -7.1881253    485.40152   0.02450038  0.024423941            5 
 1652000    1.0086745   -7.1900537    483.88883  0.024409243  0.024416301            8 
 1653000   0.99260609   -7.1897433    485.34167  0.024467719  0.024408664            3 
 1654000   0.98723926   -7.2003345    484.91931  0.024431646  0.024400979            4 
 1655000   0.98265916   -7.2243274    485.17338  0.024429677   0.02439331            4 
 1656000   0.98373196   -7.2073003    485.17818  0.024415166  0.024385703            3 
 1657000   0.98660475   -7.1881049    486.25562  0.024454618   0.02437806            7 
 1658000    0.9922422      -7.1544    485.73215  0.024413558   0.02437051            6 
 1659000    0.9867951   -7.1571835    486.23891  0.024424297  0.024362913            8 
 1660000    1.0008246   -7.1998753     485.7631  0.024385698  0.024355291            4 
 1661000     1.002478   -7.1535951    487.07469   0.02443682  0.024347748            2 
 1662000   0.97856576   -7.1863805     485.6406  0.024350211  0.024340316            3 
 1663000   0.99665948   -7.1637807    487.96138  0.024451863  0.024332859            7 
 1664000    0.9800857   -7.1302294    488.99829  0.024489097  0.024325334            5 
 1665000   0.99044362   -7.1617769    488.02249   0.02442555  0.024317808            3 
 1666000   0.97313598   -7.1599539      488.526  0.024436075  0.024310316            6 
 1667000   0.98042207   -7.1600001    489.01102  0.024445662  0.024302793            4 
 1668000   0.97128254   -7.1524625    489.40352  0.024450615  0.024295376            4 
 1669000   0.98569583   -7.1060342    489.86561  0.024459038  0.024287925            4 
 1670000   0.97537307   -7.1698987    488.75376   0.02438891  0.024280442            8 
 1671000   0.97817431   -7.1606718    489.61248  0.024417139  0.024272934            3 
 1672000   0.98835555   -7.1694159    488.56106  0.024350132  0.024265407            3 
 1673000   0.97216378   -7.1709035    487.50604  0.024283026   0.02425783            3 
 1674000   0.98440188   -7.2046334    488.95434  0.024340618  0.024250148            6 
 1675000   0.98616602   -7.1547958     488.4305  0.024300025  0.024242584            4 
 1676000   0.98990547   -7.1604502     489.5377  0.024340578  0.024235056            3 
 1677000   0.98653471   -7.1429978    489.83772  0.024340972  0.024227531            3 
 1678000   0.99155934   -7.1703758    490.39669  0.024354226   0.02422003            5 
 1679000    0.9833791   -7.1925877    489.66428  0.024303369  0.024212407            3 
 1680000   0.97183833   -7.1578933    490.88009  0.024349211  0.024204802            4 
 1681000   0.97858736   -7.2236264    487.96555  0.024190241  0.024197195            4 
 1682000   0.96573491   -7.1769288     490.8761   0.02432006  0.024189575            3 
 1683000    0.9869562   -7.1557628    488.98646  0.024212045  0.024182046            5 
 1684000   0.97894021   -7.1912457    489.20071  0.024208269  0.024174579            5 
 1685000   0.98641447   -7.2320623    491.01979  0.024283867  0.024167014            5 
 1686000   0.99916106   -7.1752271    490.21728  0.024229799   0.02415936            3 
 1687000   0.98344612   -7.2016356    490.06211  0.024207771  0.024151666            5 
 1688000   0.97954465   -7.1755628    490.32648  0.024206481  0.024144185            4 
 1689000   0.98566521   -7.1949005    492.01883  0.024275648  0.024136652            4 
 1690000   0.97743956   -7.1942352     491.2618  0.024223955  0.024129145           10 
 1691000   0.98671634   -7.1566352    492.32377  0.024261964  0.024121707            4 
 1692000   0.97932927     -7.17109    492.34657  0.024248747  0.024114294            2 
 1693000   0.97780989   -7.2170021    490.98763  0.024167534  0.024106853            5 
 1694000   0.96825011   -7.1923802     492.1331  0.024209617  0.024099431            7 
 1695000   0.99009059   -7.1566657    492.69809  0.024223112  0.024092077            9 
 1696000   0.96527245   -7.1962941    492.57558   0.02420281  0.024084701            6 
 1697000   0.98351999   -7.1596096    492.98424  0.024208615   0.02407737            4 
 1698000   0.97457848   -7.1794101    493.40937  0.024215222  0.024070066            4 
 1699000   0.97550107   -7.2132792    492.66297   0.02416436  0.024062724            4 
 1700000    0.9675013    -7.219335    492.70513  0.024152212  0.024055278            8 
 1701000   0.97391422   -7.1961645    493.30406  0.024167355    0.0240478            5 
 1702000   0.95782411   -7.2215983    492.89616  0.024133184  0.024040259            5 
 1703000   0.99085498   -7.1962723    492.75501  0.024112107  0.024032655            5 
 1704000   0.98427603   -7.2018958    491.38957   0.02403118  0.024025063            3 
 1705000   0.96657665   -7.1605864    492.72836   0.02408252  0.024017583            4 
 1706000   0.95141397   -7.2119115    494.33141  0.024146708  0.024009996            7 
 1707000   0.97237261   -7.2017901    494.06045  0.024119334   0.02400244            4 
 1708000   0.96008692   -7.1841068    494.37852  0.024120732  0.023994905            5 
 1709000   0.97355677    -7.233772     492.2831  0.024004442  0.023987288           20 
 1710000   0.99079799   -7.2032629    494.39259  0.024093206  0.023979637            8 
 1711000   0.97329491   -7.2254852    493.53266  0.024037242  0.023972024            6 
 1712000   0.97396238   -7.1698017    494.97051  0.024093191  0.023964517            3 
 1713000   0.97450377   -7.1776159    495.00953  0.024081024  0.023957092            4 
 1714000   0.94857236   -7.1758855    494.01099  0.024018426  0.023949608            7 
 1715000   0.97626676   -7.1892983    494.74275  0.024039978  0.023941995            4 
 1716000   0.97078495   -7.1720242    495.30669  0.024053355  0.023934579           11 
 1717000   0.99454003   -7.1447359    496.82444  0.024113009   0.02392712            4 
 1718000   0.95629071   -7.1817881    495.36591  0.024028226  0.023919709            2 
 1719000   0.97873598   -7.1821547    495.89205  0.024039754   0.02391225            5 
 1720000   0.98499574   -7.1893357    496.66903  0.024063422  0.023904808            7 
 1721000   0.96663364   -7.2323522    495.64351  0.023999783  0.023897283            6 
 1722000   0.98556533   -7.2528921     494.5927  0.023934993  0.023889682            9 
 1723000   0.97532583   -7.2011074    495.35738  0.023958085  0.023882019            4 
 1724000   0.97286836   -7.2076232    495.65047  0.023958356  0.023874401            3 
 1725000   0.96390477   -7.2093728    495.17582  0.023921537    0.0238669            4 
 1726000   0.96037886   -7.1834907    495.94519  0.023944824  0.023859504            6 
 1727000   0.95934518   -7.2241519    496.34725   0.02395036  0.023852073            4 
 1728000   0.97724383   -7.1733896     496.3735  0.023937765  0.023844577            7 
 1729000    1.0095099   -7.2237128    496.54349  0.023932113  0.023836999            8 
 1730000   0.98048676   -7.2222267    495.88502  0.023886562  0.023829389            8 
 1731000   0.97665821   -7.2070851    496.64628  0.023909411  0.023821745            8 
 1732000   0.96540469   -7.1897382    496.27726  0.023877851  0.023814195           11 
 1733000   0.98572946   -7.2108591     498.2975  0.023961219  0.023806714            9 
 1734000   0.96217114   -7.1677414    497.69781   0.02391858  0.023799264            3 
 1735000   0.97046397   -7.2438441       496.82  0.023862632  0.023791788            3 
 1736000   0.95354284   -7.1700661    496.84651  0.023850159  0.023784296            7 
 1737000   0.97331798   -7.2362672     497.8563  0.023884873   0.02377669            3 
 1738000   0.98560851   -7.1842554     498.5183  0.023902872  0.023769128            3 
 1739000   0.96868153   -7.1883911    497.45623  0.023838232  0.023761655            8 
 1740000    0.9708888   -7.1873088    497.29785  0.023816947  0.023754193            5 
 1741000   0.97395964   -7.2097944    498.04336  0.023838951  0.023746685            3 
 1742000    0.9932702   -7.2006145    498.47191  0.023845767   0.02373921            5 
 1743000   0.93887498   -7.2249263    498.25404  0.023821669  0.023731777            3 
 1744000    0.9933776   -7.2108759    498.28666  0.023809569  0.023724249            5 
 1745000    1.0045559    -7.208893    497.85121  0.023775129  0.023716683            6 
 1746000   0.98853307   -7.2346568    499.09402  0.023820829  0.023709109            5 
 1747000   0.97740258   -7.1924986    499.11569  0.023808228   0.02370163            7 
 1748000   0.96479278    -7.214424    498.24944   0.02375331  0.023694117            6 
 1749000   0.96038483   -7.2469536    499.74472  0.023810974  0.023686585            9 
 1750000   0.94949496   -7.2307445    500.60375  0.023838274  0.023679191            5 
 1751000   0.97439703   -7.2372764     499.3678  0.023765838  0.023671688            4 
 1752000   0.94580515   -7.2128634    501.00474  0.023830134  0.023664245            3 
 1753000   0.97845608   -7.2509354    498.81228  0.023712316   0.02365678            3 
 1754000   0.97612536   -7.2014694    500.99505  0.023802501   0.02364932            2 
 1755000   0.96305709   -7.2425167    501.32594   0.02380465  0.023641796            2 
 1756000   0.98241131   -7.2132838    500.82187  0.023767173  0.023634373            4 
 1757000   0.97486713   -7.2061011    500.64394  0.023745207  0.023626931            4 
 1758000   0.96887862    -7.213361    500.16757  0.023709119  0.023619414           11 
 1759000    0.9594971   -7.1837154    501.16504  0.023742896  0.023612002           13 
 1760000   0.95992117   -7.1737583    501.00566  0.023721859  0.023604558            5 
 1761000   0.97288051   -7.1756151    503.22398  0.023813363  0.023597192            5 
 1762000   0.95772694   -7.2377493    500.81526  0.023685928  0.023589822            8 
 1763000   0.97786457   -7.1882851    501.88192  0.023722912  0.023582455            3 
 1764000   0.98947124   -7.1840062    501.90273  0.023710446   0.02357515            4 
 1765000   0.95647306   -7.2278731    501.59195  0.023682339  0.023567747            4 
 1766000   0.98896935   -7.1863176    502.54725  0.023714008  0.023560327            3 
 1767000   0.94953687   -7.2080382    502.78631  0.023711861  0.023552978            8 
 1768000   0.95813503   -7.2326452    502.76442  0.023697418  0.023545616            4 
 1769000   0.96062095   -7.2482368    502.23587  0.023659123  0.023538185            2 
 1770000   0.96702791   -7.2390776    503.88715    0.0237235  0.023530738            7 
 1771000   0.97901715   -7.2365599    502.23354  0.023632295   0.02352326            8 
 1772000   0.97589134   -7.2062808    502.37619  0.023625667  0.023515855            3 
 1773000   0.96699186   -7.2178729    503.52772  0.023666466  0.023508425            5 
 1774000   0.94518906   -7.1773813    503.09963  0.023633015  0.023500943            2 
 1775000   0.97291071   -7.2432555    502.32478  0.023583323  0.023493414            5 
 1776000   0.97725106   -7.2420817    502.65486  0.023585532  0.023485944            3 
 1777000   0.94187109   -7.2153291    504.03477  0.023636971  0.023478518            4 
 1778000   0.95683882   -7.2430065    501.59171  0.023509173  0.023470986            3 
 1779000   0.96441727   -7.2213693    504.50568  0.023632457  0.023463513           10 
 1780000   0.95667477   -7.2581618    502.94472  0.023546101  0.023456036           10 
 1781000    0.9611247   -7.2437994    504.30399  0.023596481  0.023448621            2 
 1782000    0.9531534    -7.256781    502.43562  0.023495867  0.023441163            6 
 1783000   0.95567986   -7.2798106    504.15804  0.023563191  0.023433744            6 
 1784000   0.95983325   -7.2438652    503.39739  0.023514452  0.023426294           10 
 1785000   0.92742409   -7.2308038     504.7508  0.023564463  0.023418873           10 
 1786000    0.9652407   -7.2738247    503.56501  0.023495941  0.023411393            8 
 1787000   0.95633602   -7.2382626     503.7493  0.023491387  0.023403888            7 
 1788000   0.97574468   -7.2472934    503.60287  0.023471424  0.023396369            4 
 1789000   0.96090964   -7.2714301    504.34513  0.023492879  0.023388766            4 
 1790000   0.95571366   -7.2594886    504.06017  0.023466488  0.023381282            5 
 1791000   0.96341238   -7.1972287    505.99528  0.023543425  0.023373812            4 
 1792000   0.97504314   -7.2222116    505.87834  0.023524849  0.023366448            6 
 1793000    0.9592309    -7.189901    506.65821  0.023547974   0.02335911            8 
 1794000   0.95332461   -7.2151362    506.11787  0.023509749  0.023351787            5 
 1795000   0.96148949   -7.1531028    506.03376  0.023492747  0.023344464            4 
 1796000   0.96112707   -7.2354617    506.56195  0.023504174  0.023337051            4 
 1797000   0.96042449   -7.2480994    504.29541  0.023385986  0.023329542            9 
 1798000   0.95942594   -7.2660689    505.20258  0.023415025  0.023322039            6 
 1799000   0.93971561   -7.2382515    506.08218  0.023442755  0.023314516            5 
 1800000   0.98346445   -7.2424401    505.76491  0.023415042  0.023306987            7 
 1801000   0.97513162   -7.2214077    506.07861  0.023416556  0.023299521            3 
 1802000   0.96576673   -7.2057426    505.99906  0.023399883  0.023292048            6 
 1803000    0.9549134   -7.1726703    508.25185  0.023491027  0.023284587            2 
 1804000   0.98880387   -7.2296603    507.21888  0.023430288  0.023277155            4 
 1805000   0.95957182   -7.2211821    506.33104  0.023376318  0.023269759            3 
 1806000   0.96035417   -7.2518563    505.76699  0.023337347  0.023262294            3 
 1807000   0.95620705   -7.2222492    507.01718  0.023382087  0.023254876            2 
 1808000   0.98441313   -7.2732833    506.91732  0.023364552  0.023247408           11 
 1809000   0.98355638   -7.2641775     506.1234  0.023315064  0.023239876            8 
 1810000   0.96253595   -7.2349024    507.03757  0.023344271  0.023232335            3 
 1811000   0.98953082   -7.2277485    506.97511  0.023328507  0.023224796            5 
 1812000   0.95982326   -7.2526637    507.26481  0.023328956  0.023217247            7 
 1813000   0.97167905    -7.291754    505.77383  0.023247556  0.023209586           25 
 1814000   0.96304503   -7.2933169    506.04653  0.023247268  0.023201943            9 
 1815000   0.95213997   -7.2702976    506.29224  0.023245741  0.023194294           11 
 1816000   0.98091208   -7.2650706    506.33342   0.02323483  0.023186619            7 
 1817000    0.9331237   -7.3082332    505.07157   0.02316417   0.02317885            8 
 1818000   0.95168754   -7.2869164     507.5693  0.023265919  0.023171123            8 
 1819000   0.94994683   -7.2554578    506.11541  0.023186522  0.023163416           15 
 1820000   0.98136094   -7.2413972    508.10556  0.023264906  0.023155711            8 
 1821000   0.96428253   -7.2809894    506.87971  0.023196033  0.023148013            7 
 1822000   0.96559191   -7.2500606    507.42794  0.023208376  0.023140273            6 
 1823000   0.97189098   -7.2569926    508.39763  0.023239972  0.023132611            4 
 1824000   0.96598244   -7.2551934    508.63182   0.02323793  0.023124925            7 
 1825000   0.94954571   -7.2801983    507.64358  0.023180072   0.02311732            4 
 1826000   0.96330846   -7.2889262    506.77321  0.023127656  0.023109761            5 
 1827000   0.96367525   -7.2374508    508.18617  0.023179446  0.023102149            7 
 1828000   0.95913316   -7.2611077    507.69628  0.023144433  0.023094526            6 
 1829000   0.95499451   -7.3006356    508.74663  0.023179635  0.023086917           10 
 1830000    0.9649154   -7.2553181    508.77728  0.023168364  0.023079347            2 
 1831000   0.96895708   -7.2287647    509.91406  0.023207449  0.023071878            7 
 1832000   0.93522466   -7.2203691    509.17278  0.023161062  0.023064359            3 
 1833000   0.95015492   -7.2607071    508.58531  0.023121718  0.023056912            4 
 1834000   0.97981772   -7.2554341    509.23275  0.023138529   0.02304947            9 
 1835000   0.97196292   -7.2324558    509.11944  0.023120774  0.023041998            3 
 1836000   0.95236303   -7.2742871    509.40111  0.023120966  0.023034471            4 
 1837000   0.96520021   -7.2393699    509.67178  0.023120658  0.023026965            4 
 1838000   0.96860183   -7.2926699    508.95041  0.023075372  0.023019472            8 
 1839000   0.95086083   -7.2632123    509.49463  0.023087486  0.023011956            6 
 1840000   0.94512589   -7.2415092    510.30269  0.023111535  0.023004443            5 
 1841000   0.95227946   -7.2129571    509.57335  0.023065967  0.022996965            5 
 1842000   0.96971929   -7.2579603    510.35536  0.023088824  0.022989451            3 
 1843000   0.95526864   -7.2573031    509.59249  0.023041802  0.022981925            3 
 1844000   0.95115064    -7.245216    510.49718  0.023070191  0.022974388            4 
 1845000   0.97002272   -7.2612279    510.64174  0.023064216  0.022966852            6 
 1846000   0.95759994   -7.2822685    511.32117  0.023082393  0.022959293            8 
 1847000   0.95225661    -7.284179    510.54434  0.023034847  0.022951714           12 
 1848000   0.94755518   -7.2842208    509.61214  0.022980346  0.022944046            9 
 1849000   0.95725644   -7.3050822    511.07214  0.023033718  0.022936399            9 
 1850000   0.99796827   -7.2365885    512.00015   0.02306307  0.022928823            7 
 1851000   0.93400178   -7.2524003    511.43945  0.023025367  0.022921248            3 
 1852000   0.95763517   -7.2851067    510.81014  0.022984618  0.022913686            3 
 1853000   0.94901975    -7.278979    510.75828  0.022969881  0.022906051            5 
 1854000   0.94961731   -7.2663526     511.3266  0.022983037  0.022898445            6 
 1855000   0.95507822   -7.2491255      511.786  0.022991285   0.02289087            5 
 1856000   0.95985448   -7.2370789    512.33448  0.023003524  0.022883393           16 
 1857000   0.97211988    -7.262364    510.86896  0.022925371  0.022875895            5 
 1858000   0.96606293   -7.2278472    512.69709  0.022995026  0.022868449            6 
 1859000   0.95691133   -7.2758518    512.08881  0.022955389  0.022860997            5 
 1860000   0.94169641   -7.2743323    511.25832  0.022905839  0.022853358            5 
 1861000   0.96656288   -7.2641445    511.64568  0.022910876  0.022845826           10 
 1862000   0.95731203   -7.2343445    512.69062  0.022945338  0.022838256           16 
 1863000   0.97135061   -7.2456879    513.82619  0.022983816  0.022830826            7 
 1864000   0.95312484   -7.2752033    511.99274  0.022889518  0.022823373            4 
 1865000   0.95474345   -7.2398345     513.3594  0.022938311  0.022815917            2 
 1866000   0.93678639   -7.2899913    512.80236  0.022901141   0.02280844            3 
 1867000   0.95385391   -7.2730191    513.41859  0.022916381  0.022801015            3 
 1868000   0.97134706   -7.2849852    511.68415  0.022826737   0.02279358            6 
 1869000   0.96310716   -7.2704012    513.36196  0.022889333  0.022786097            4 
 1870000    0.9464827   -7.2815331    513.34513  0.022876343  0.022778629            7 
 1871000   0.94365188   -7.2891737     512.1731  0.022811914  0.022771126            5 
 1872000   0.95867369   -7.2441798    514.34342  0.022896342  0.022763619            7 
 1873000   0.96572159    -7.265234    513.26992  0.022836355  0.022756083            7 
 1874000   0.93800292   -7.2346041    514.32795  0.022871218  0.022748617            7 
 1875000    0.9451972   -7.2784984    514.03673  0.022846077  0.022741143            8 
 1876000   0.95862951   -7.2845743    513.08958  0.022791826  0.022733611            3 
 1877000   0.94985762   -7.2659226    514.65501  0.022849184  0.022726123            5 
 1878000   0.92944069    -7.296017    512.70837  0.022750638  0.022718599            3 
 1879000   0.95754056   -7.2987909    514.11592  0.022800954    0.0227111            3 
 1880000   0.94811833   -7.2754209    514.45691  0.022803941  0.022703608            5 
 1881000    0.9367795   -7.3013426    514.47592   0.02279266  0.022696121            8 
 1882000   0.97638353    -7.279206    515.92581  0.022844749  0.022688714            9 
 1883000   0.94492189   -7.2820589    515.08235  0.022795289   0.02268125            5 
 1884000   0.94333429   -7.3050279    514.76951  0.022769352  0.022673828            5 
 1885000   0.93625656   -7.2295158    517.12953  0.022861606  0.022666381            7 
 1886000   0.95105395   -7.2846239    515.77175  0.022789491  0.022659004            6 
 1887000   0.95502315   -7.2872417    516.12455  0.022792994  0.022651559            6 
 1888000   0.96148559   -7.2556041    516.96476  0.022818007   0.02264411            4 
 1889000    0.9449117   -7.3232841    515.19394  0.022727808  0.022636727            8 
 1890000   0.95397918   -7.2880174    517.05471  0.022797827  0.022629295           14 
 1891000   0.94517008   -7.2621498    516.96579  0.022781852  0.022621933            8 
 1892000   0.94491592   -7.2898455    516.32126  0.022741423  0.022614524            6 
 1893000   0.94308583   -7.2650716    517.90048  0.022798929  0.022607104           11 
 1894000   0.94338037   -7.2873014    516.20604  0.022712339  0.022599703            6 
 1895000   0.96247423   -7.2684756    517.51354  0.022757851  0.022592247            5 
 1896000   0.94545755   -7.2536252    516.86224  0.022717222  0.022584827            6 
 1897000   0.96566426    -7.304006    517.07471  0.022714581  0.022577407            7 
 1898000       0.9638   -7.2932531    516.82016  0.022691437  0.022569958            2 
 1899000   0.95350437   -7.2957471    518.33858   0.02274612   0.02256257            7 
 1900000   0.94150856   -7.3118228    517.19711  0.022684084  0.022555252           12 
 1901000   0.95577715   -7.3008371    517.55862  0.022687998  0.022547935            4 
 1902000   0.93732014     -7.28432    518.66078   0.02272436  0.022540685            3 
 1903000   0.96470953   -7.2720925    518.51435  0.022706006  0.022533441            4 
 1904000   0.95408255   -7.3482708    516.77062  0.022617762  0.022526129            7 
 1905000    0.9502631   -7.2940033    519.48854  0.022724783  0.022518817            2 
 1906000   0.94536111   -7.2711384    520.11615    0.0227403   0.02251159            4 
 1907000   0.96429379   -7.3128526    518.57233  0.022660913  0.022504428            3 
 1908000   0.95366476   -7.2817251     519.4343  0.022686683  0.022497197            6 
 1909000   0.94147985   -7.2867439    518.40427  0.022629835  0.022489913            4 
 1910000   0.93231397   -7.3452764    517.38441  0.022573491  0.022482583           14 
 1911000   0.94213869   -7.3297342     518.6961  0.022618878  0.022475243            6 
 1912000   0.95911951   -7.2715282    522.13646  0.022756993  0.022468077            5 
 1913000   0.95089032   -7.2527295    520.31891  0.022665922   0.02246097            4 
 1914000   0.95378014    -7.270907    520.45666  0.022660077  0.022453913            7 
 1915000   0.93030189   -7.2434265    520.62687  0.022655652  0.022446867            7 
 1916000   0.93365834   -7.2577535    520.78904   0.02265088  0.022439828            8 
 1917000    0.9365964   -7.2670962    521.46796  0.022668577   0.02243268            2 
 1918000   0.95325315   -7.2842311    520.69518  0.022623183  0.022425563            5 
 1919000   0.95544373   -7.2615911    520.59859    0.0226072  0.022418421            5 
 1920000   0.94966457   -7.2712138    520.82448  0.022605229  0.022411263           12 
 1921000   0.94318318   -7.3062373     521.1412  0.022607201   0.02240414            7 
 1922000   0.95456456   -7.3469151    522.15537  0.022639411  0.022396958            5 
 1923000   0.94129299   -7.2894487    521.50685  0.022599534  0.022389799           10 
 1924000   0.95031432    -7.282732     520.5548  0.022546552  0.022382677            6 
 1925000   0.94424457    -7.320412    520.79505   0.02254524  0.022375429           11 
 1926000   0.94923663    -7.291599    521.15889  0.022549277   0.02236818            5 
 1927000   0.94648585   -7.2664802    522.67215  0.022603016   0.02236103            3 
 1928000   0.93220571   -7.3058053    521.13288  0.022524762  0.022353827           10 
 1929000   0.93264561   -7.2889274    521.75582  0.022539996  0.022346579            5 
 1930000   0.94353593   -7.2929014    521.18274  0.022503573  0.022339411            4 
 1931000   0.94999379   -7.3043467    521.56297  0.022508328  0.022332155            5 
 1932000   0.95593558   -7.2843058    521.76452  0.022505371  0.022324857            3 
 1933000   0.93117734   -7.3329923    520.98258  0.022460018  0.022317619            5 
 1934000   0.94853318   -7.2829367    523.71404  0.022566099  0.022310425            9 
 1935000   0.95119491   -7.2816808    523.61741  0.022550276  0.022303322            6 
 1936000   0.92449904   -7.2631815    523.36313  0.022527683  0.022296213            8 
 1937000   0.94245412   -7.2656324    523.30102  0.022513381  0.022289093            3 
 1938000   0.93277586   -7.2632479    524.65334  0.022559913  0.022282043           18 
 1939000   0.93776105   -7.2856559     523.1488  0.022483617  0.022275065            5 
 1940000   0.94101777   -7.2700161    523.02946  0.022466901  0.022268079            6 
 1941000   0.96205861   -7.2971572    524.46197  0.022516829  0.022261049            9 
 1942000   0.96691495   -7.3117497    523.58823  0.022467741  0.022254099            3 
 1943000   0.93528185   -7.3069827    523.52842  0.022453612  0.022247058            4 
 1944000   0.94130571   -7.2961896    522.82969   0.02241211  0.022239896            8 
 1945000   0.93521074   -7.2757238     523.9944  0.022450489  0.022232755            4 
 1946000   0.93999318   -7.2938091    524.94067  0.022479474  0.022225594            5 
 1947000   0.94073263   -7.2842855    523.98977  0.022427229  0.022218472            3 
 1948000   0.91797909   -7.3237453    523.28548  0.022385587  0.022211374            7 
 1949000   0.96440555   -7.2740425       525.09  0.022451257  0.022204225            6 
 1950000   0.95020034   -7.3181462    523.13968  0.022356397  0.022197062            5 
 1951000    0.9320408   -7.3252542    521.87444  0.022290895  0.022189867            5 
 1952000    0.9259256   -7.3109259    523.75189  0.022359627  0.022182604            6 
 1953000   0.94037928   -7.3027154    524.46166  0.022378463  0.022175277           15 
 1954000   0.92758507   -7.3650482    522.53541  0.022284861  0.022167949            9 
 1955000   0.92545707   -7.3258885    523.99538  0.022335694  0.022160654            5 
 1956000   0.92068162    -7.283643    524.72656  0.022355426  0.022153359            5 
 1957000   0.93457897   -7.3140887    524.79612  0.022346965  0.022146178            7 
 1958000   0.93012511   -7.3297524    524.71678  0.022332175  0.022138972            8 
 1959000   0.95044098   -7.3080428    524.45672  0.022309713  0.022131712            6 
 1960000     0.949317   -7.2960109    524.52538  0.022301249  0.022124486            4 
 1961000     0.944641   -7.2881713    525.50013  0.022331299  0.022117254            6 
 1962000   0.92420254   -7.3002324    524.86459  0.022292923  0.022110039            6 
 1963000   0.95546619   -7.3264249    522.51607  0.022181867  0.022102799            7 
 1964000   0.92967833   -7.3047083    525.05131  0.022278145  0.022095578            7 
 1965000   0.94330332   -7.3035476    526.47531  0.022327197  0.022088395            8 
 1966000   0.93975628   -7.3385278    525.81982  0.022288056   0.02208114            5 
 1967000   0.94555147   -7.3079323    525.98253  0.022283619  0.022073987            3 
 1968000   0.93828435   -7.2699589    527.69234  0.022344696  0.022066858            9 
 1969000    0.9423183   -7.3259987    525.12674  0.022224765  0.022059577            6 
 1970000   0.93176247   -7.3249654     524.9668  0.022206717  0.022052312            5 
 1971000   0.94903647   -7.3305776    525.74319  0.022228276  0.022045137            5 
 1972000   0.94952745   -7.2965531    526.48244  0.022248244  0.022037984            4 
 1973000   0.95858752   -7.3043753    528.57948   0.02232554  0.022030896            8 
 1974000   0.92250586   -7.3007973    527.21419  0.022256593  0.022023842            4 
 1975000   0.93101305   -7.3323199    526.83027  0.022229125  0.022016698            4 
 1976000   0.94721791   -7.3145372    526.32244  0.022196459  0.022009473           12 
 1977000   0.91143572   -7.3322935    525.99215  0.022171309  0.022002308            9 
 1978000   0.91510346   -7.3063307    527.09563   0.02220659  0.021995096            4 
 1979000   0.93592157    -7.273014    528.13173  0.022238998  0.021987936            6 
 1980000   0.92516749   -7.3220636    526.83496  0.022173189  0.021980843            4 
 1981000   0.94012023   -7.2829654    527.95772  0.022209226  0.021973686            7 
 1982000    0.9345846   -7.2815623    529.47819  0.022261949  0.021966542            9 
 1983000   0.93973675   -7.3072378    527.64252   0.02217358  0.021959424            7 
 1984000   0.93401835   -7.3130592    527.15744   0.02214203   0.02195227           13 
 1985000    0.9439287   -7.3322572    525.99393  0.022082029  0.021945038            5 
 1986000   0.94262506   -7.3454892    526.35434  0.022086033  0.021937809            3 
 1987000   0.92375343   -7.2673401    528.54793  0.022166916  0.021930703            7 
 1988000   0.94645865   -7.2851483    529.32485  0.022188332  0.021923643            6 
 1989000   0.92382044    -7.330394    527.40752  0.022096846  0.021916441            5 
 1990000   0.95103775    -7.352414    527.17972  0.022076203  0.021909196           10 
 1991000   0.93607891   -7.3334491    527.16025    0.0220643  0.021901917           10 
 1992000   0.93507575   -7.3479451    527.98385  0.022087678  0.021894633            4 
 1993000   0.93949265   -7.3130635    528.51221  0.022098688  0.021887449            7 
 1994000   0.91896661   -7.3098114    528.91363  0.022104381  0.021880206            3 
 1995000   0.92452762   -7.3311914    529.08158  0.022100317   0.02187303           10 
 1996000   0.95038877   -7.2836187    529.49551  0.022106526  0.021865898            5 
 1997000   0.92998282   -7.3352323    528.39446   0.02204951  0.021858664            9 
 1998000   0.94259685   -7.3301619    528.59545  0.022046857  0.021851548            6 
 1999000   0.94644107   -7.3261248    529.42983  0.022070612  0.021844352            5 
 2000000   0.96361659   -7.3391109    529.42607   0.02205942   0.02183721            5 
 2001000   0.91465199   -7.3053663     529.7247  0.022060832  0.021830105           11 
 2002000   0.92944449   -7.3267086    528.21798  0.021987095  0.021822996            5 
 2003000    0.9220175   -7.3374291      529.426  0.022026377  0.021815933            6 
 2004000   0.92069526   -7.3218269    530.31705  0.022052439  0.021808865            9 
 2005000   0.93769442   -7.3243011    530.03531   0.02202973  0.021801752            7 
 2006000   0.92107537    -7.343147    529.65549   0.02200297  0.021794631            3 
 2007000    0.9410682   -7.3360436    529.00973  0.021965194  0.021787502            5 
 2008000   0.93674699    -7.329468    529.51245  0.021975118  0.021780396            9 
 2009000   0.93091806   -7.3599081    529.71009  0.021972378  0.021773289            5 
 2010000   0.95413358   -7.3675079     530.6374  0.021999892  0.021766189            5 
 2011000   0.92945189   -7.2913655    531.80682  0.022037412  0.021759072            5 
 2012000   0.90002043   -7.3349994    530.73166  0.021981927  0.021752059            7 
 2013000   0.93897323   -7.3420562    530.80986  0.021974245  0.021744942            8 
 2014000   0.91914841   -7.3664592    529.79105  0.021921179  0.021737844            3 
 2015000   0.92529276   -7.3296686    531.20098   0.02196861  0.021730716            9 
 2016000   0.93973972   -7.3302735    531.34651  0.021963728  0.021723578            8 
 2017000    0.9315106   -7.3390811    532.00401  0.021980004  0.021716434            8 
 2018000   0.93895836   -7.3329125    532.43112  0.021986749  0.021709352            8 
 2019000    0.9276396   -7.3465739    531.57131  0.021940371  0.021702272           10 
 2020000   0.90671392   -7.3251097     530.7694  0.021896427  0.021695213            7 
 2021000   0.93436559   -7.3183704     533.7076  0.022006746  0.021688166           10 
 2022000   0.93249591   -7.3597541     532.4839  0.021945429  0.021681114            9 
 2023000    0.9467766   -7.3695552     531.1483  0.021879564   0.02167401           10 
 2024000   0.92203773   -7.3665099    531.79387  0.021895334   0.02166692            6 
 2025000   0.91726526   -7.3547183    531.20574  0.021860319  0.021659863            8 
 2026000   0.94150581   -7.3165129    532.71928  0.021911783  0.021652814            3 
 2027000   0.91851534   -7.3743146    529.89232  0.021784752  0.021645755            5 
 2028000   0.92232758   -7.3690887    532.28236  0.021872221   0.02163866            7 
 2029000   0.93833815   -7.3615946    532.36371  0.021864782  0.021631527            7 
 2030000   0.93887769   -7.3546449    532.95594  0.021878323  0.021624401            3 
 2031000    0.9245698   -7.3846152    531.59404  0.021811671  0.021617253            6 
 2032000   0.91513266    -7.349866     532.2064   0.02182605   0.02161007            8 
 2033000   0.93201961   -7.3453703     532.8389   0.02184124  0.021602894            2 
 2034000   0.93076155   -7.3605486    532.09417   0.02179999  0.021595692            5 
 2035000   0.93211995   -7.3522898    533.36133  0.021841168   0.02158852            4 
 2036000   0.92729832    -7.379165    532.01005  0.021775133  0.021581317            5 
 2037000   0.92481675   -7.3601471    533.45465  0.021823541  0.021574129            4 
 2038000    0.9374644   -7.3915178    530.78555  0.021703694  0.021566889            5 
 2039000   0.94502525   -7.3818751    533.17204  0.021790585  0.021559739            3 
 2040000   0.90955525   -7.3650598    532.60279   0.02175665  0.021552653            8 
 2041000   0.92519524   -7.3695814    533.50407  0.021782789   0.02154552            6 
 2042000   0.93347039   -7.3238135    534.64279  0.021818592  0.021538422            5 
 2043000   0.94142731   -7.3207295    534.58727  0.021805648  0.021531446           13 
 2044000   0.92535484   -7.3215536    534.16755  0.021777868  0.021524435            7 
 2045000   0.93693204   -7.3793387    532.85998  0.021713935  0.021517388            3 
 2046000   0.92509225   -7.3236347    533.87286  0.021744577  0.021510365            6 
 2047000   0.92843669   -7.3252344    534.78556  0.021771111  0.021503394            5 
 2048000   0.92101487   -7.3547438    534.01624  0.021729176  0.021496379           11 
 2049000   0.92373688   -7.3958683    533.74419  0.021707507  0.021489344            7 
 2050000   0.92421421   -7.3867603      533.344   0.02168065  0.021482284            4 
 2051000   0.91261088   -7.3512278    535.06256  0.021739906  0.021475292            5 
 2052000   0.91548088   -7.3880434    534.37635  0.021701444  0.021468251            5 
 2053000   0.91068908   -7.3717436    535.64198  0.021742246  0.021461229            6 
 2054000   0.92093671   -7.3689287    534.47498  0.021684314  0.021454192            7 
 2055000   0.95127298    -7.349858    533.93527  0.021651876  0.021447219            3 
 2056000   0.92971484   -7.3940604    534.43064  0.021661424  0.021440228            9 
 2057000   0.92614022   -7.3673178     533.9944   0.02163322  0.021433147            5 
 2058000   0.92399359   -7.3664454    534.98333  0.021662752  0.021426079            5 
 2059000   0.90744621   -7.3602542    535.83593  0.021686738  0.021419009            5 
 2060000   0.92843769   -7.3540338    535.41658  0.021659247  0.021412024            7 
 2061000   0.92105213   -7.3469587    536.82668  0.021705753  0.021405011            7 
 2062000   0.90789579   -7.3832016    535.17435  0.021628449  0.021397999            6 
 2063000    0.9357924   -7.3567956    537.90682  0.021728342   0.02139105            7 
 2064000   0.92724229   -7.3702286    535.92722  0.021637889  0.021384134           12 
 2065000   0.92782469   -7.3428826    537.14996  0.021676754  0.021377178            5 
 2066000   0.93008839   -7.3802366    536.90928  0.021656554  0.021370193            7 
 2067000   0.92911101   -7.3820127    537.22548  0.021658824  0.021363203            7 
 2068000   0.91890305   -7.3695781    535.94877  0.021596904  0.021356231            5 
 2069000   0.93054606   -7.3931202    536.55639  0.021610939  0.021349245            5 
 2070000   0.91381087   -7.3781299    537.26998  0.021629226  0.021342261            4 
 2071000   0.93565602   -7.3429423    538.82408  0.021681317  0.021335311           14 
 2072000   0.91101284   -7.3797458    536.84678  0.021591328  0.021328417           10 
 2073000   0.91345338    -7.379374    536.69209  0.021574694  0.021321443            3 
 2074000   0.91989239   -7.3391287    538.18305  0.021624198  0.021314424            5 
 2075000   0.93049502   -7.3520095    537.68743  0.021593873  0.021307443            6 
 2076000   0.91815303   -7.3848482    538.52615  0.021617138  0.021300411            5 
 2077000   0.91302948   -7.3598211    537.58745  0.021569068  0.021293506            5 
 2078000   0.92667082   -7.3386421     538.1078  0.021579556  0.021286643            8 
 2079000   0.89154691     -7.37337    538.28021  0.021576087  0.021279741            3 
 2080000   0.89533342   -7.3419168    539.38446  0.021609954  0.021272839            4 
 2081000   0.94419941    -7.368437     539.7683  0.021614941  0.021266017            9 
 2082000   0.91429656   -7.3437335    538.76683  0.021564474  0.021259191            7 
 2083000   0.92232677   -7.3602119    538.85938  0.021557824  0.021252295            4 
 2084000   0.91069454   -7.3494222     539.7446  0.021582878  0.021245432            8 
 2085000   0.91629338   -7.3396235     538.1259   0.02150783  0.021238448            9 
 2086000   0.92544908   -7.3531045    538.39331  0.021508202  0.021231512            4 
 2087000   0.91594594   -7.3831537    537.49741  0.021462123  0.021224606            4 
 2088000   0.91785878   -7.3820677    537.18192  0.021439253  0.021217612            4 
 2089000   0.91311082   -7.3614303    538.71899  0.021490306   0.02121067           12 
 2090000    0.9137357   -7.3769483    539.25574  0.021501425  0.021203713            8 
 2091000   0.95181478    -7.350412    538.92059  0.021477785  0.021196806            9 
 2092000   0.91886211   -7.3730112    539.83272  0.021503853  0.021189905            4 
 2093000   0.93481958   -7.3703005     538.1719  0.021427453  0.021182933            8 
 2094000   0.91963403   -7.3948243    538.32924  0.021423481  0.021176041            5 
 2095000   0.90266289    -7.394289    539.47724   0.02145892  0.021169139           13 
 2096000   0.91208572   -7.3978345    538.17179  0.021396779   0.02116225            3 
 2097000   0.91932284   -7.3600534    540.80224  0.021491108  0.021155397            4 
 2098000   0.92757735   -7.3492214    540.31097  0.021461351  0.021148562            8 
 2099000   0.90013859   -7.3399079    540.50639  0.021458885  0.021141786            4 
 2100000   0.91050181   -7.3690235    540.82939  0.021461484  0.021134996           13 
 2101000   0.91131935   -7.3917423    539.15949  0.021385035  0.021128148            7 
 2102000   0.90835893    -7.379243    539.99673  0.021408053  0.021121259            6 
 2103000    0.9081904   -7.4043323    540.21994  0.021406718  0.021114378            2 
 2104000   0.91743488   -7.3892454    541.20099    0.0214354  0.021107501            7 
 2105000   0.90909142   -7.4042098    541.03372  0.021418595  0.021100725            3 
 2106000   0.93229636   -7.3913065    541.10057   0.02141107  0.021093915            3 
 2107000   0.92537239   -7.3791034    540.76115  0.021387484  0.021087068            2 
 2108000   0.91976418   -7.3772375    540.52531  0.021368015  0.021080193            5 
 2109000   0.92355293   -7.3888229    539.70244  0.021325369  0.021073328            6 
 2110000   0.93198638   -7.4068205    541.11634  0.021371104  0.021066484            3 
 2111000   0.91958141   -7.3899189    541.36429  0.021370768  0.021059637            7 
 2112000   0.90101533   -7.3748149    541.95408   0.02138392  0.021052763            3 
 2113000   0.90745355   -7.4032329    540.36392  0.021311087  0.021045913           11 
 2114000   0.91555209   -7.4094041    540.81736   0.02131888  0.021039007            6 
 2115000   0.90653245    -7.333887    543.10531  0.021398948  0.021032234            8 
 2116000    0.8925955   -7.3910404    542.87444  0.021379743  0.021025414            4 
 2117000   0.90561106   -7.4218384    541.19291  0.021303453  0.021018471            2 
 2118000   0.92632932   -7.3796105    541.47803  0.021304612  0.021011558            6 
 2119000   0.91042012   -7.3655695    541.89122  0.021310808   0.02100466           11 
 2120000    0.8959847   -7.4235119    540.69794   0.02125385   0.02099773            6 
 2121000   0.89633918   -7.3889508    541.41748    0.0212721  0.020990833            2 
 2122000   0.92714652   -7.3966799    540.44757  0.021223986  0.020983967            3 
 2123000   0.91247615   -7.3878944    541.56881     0.021258  0.020977074            6 
 2124000   0.90933826    -7.386547    542.94586  0.021302019  0.020970278           11 
 2125000   0.89455335   -7.4243664    541.61203  0.021239688  0.020963414           11 
 2126000   0.91488475   -7.3569646    543.32764  0.021296944  0.020956623            3 
 2127000   0.89997377   -7.3873767    541.30295  0.021207607  0.020949843            5 
 2128000   0.92135009   -7.3411463    545.11163   0.02134679  0.020943004            6 
 2129000   0.91150875   -7.3790673    543.74471  0.021283259   0.02093621           20 
 2130000   0.92655325   -7.3762182    543.27991  0.021255082  0.020929356            8 
 2131000    0.9203282   -7.3729071    545.36856  0.021326785  0.020922554            8 
 2132000   0.91914619   -7.3933507    543.10786  0.021228418  0.020915788           22 
 2133000   0.93620496   -7.4080109    543.13575  0.021219556  0.020909034            3 
 2134000   0.91703514   -7.4042203     543.2807  0.021215273  0.020902207            4 
 2135000   0.90314818   -7.3634005    543.13426   0.02119962  0.020895379            6 
 2136000   0.91818263   -7.4281521    542.52087  0.021165764  0.020888576            5 
 2137000   0.88813499   -7.3930493    542.63244  0.021160211  0.020881753            8 
 2138000   0.89775619   -7.4136354    542.82924  0.021157984  0.020874926           15 
 2139000   0.91060807    -7.387128    544.41197  0.021209754  0.020868058            4 
 2140000   0.91087404   -7.4412236    542.23379  0.021115023  0.020861186            4 
 2141000   0.89658005   -7.4196356    543.48186  0.021153739  0.020854284            4 
 2142000   0.90764013    -7.409767    542.90128  0.021121276  0.020847439            5 
 2143000   0.90880421   -7.4279091    543.70175  0.021142548  0.020840663            4 
 2144000   0.93489679   -7.3956453    544.44917  0.021161737   0.02083382            7 
 2145000   0.91208768   -7.4410873    543.44331  0.021112794  0.020826964            7 
 2146000   0.89647557   -7.4482771    543.40267  0.021101377  0.020820093            8 
 2147000   0.90160861   -7.4480041     542.1906  0.021044504  0.020813238            5 
 2148000   0.92177039    -7.412705    544.07879  0.021107961  0.020806409           10 
 2149000   0.89983793   -7.4481538    543.61636  0.021080206  0.020799598           14 
 2150000   0.91404959   -7.4718694    544.26802   0.02109566  0.020792743            5 
 2151000   0.90675349   -7.4482341    544.50547  0.021095051  0.020785884            7 
 2152000   0.90490002   -7.4694503    543.19705  0.021034582  0.020779014            9 
 2153000   0.89651198   -7.4483628    543.39537  0.021032488  0.020772078            8 
 2154000   0.90841638   -7.4319112    543.05813  0.021009677  0.020765169            9 
 2155000   0.90487966   -7.4447238    544.16178  0.021042606  0.020758286            6 
 2156000   0.90682053   -7.4264947    544.91487  0.021061954  0.020751425            6 
 2157000   0.89245295   -7.4070373    545.92357   0.02109116  0.020744587            5 
 2158000   0.89230964   -7.4088444    545.23551  0.021054816  0.020737798           10 
 2159000   0.91281694   -7.4265468    545.81952  0.021067605  0.020731005            6 
 2160000   0.90571536   -7.4154918    546.14679  0.021070478  0.020724242            8 
 2161000   0.89474054   -7.4136111    545.36659  0.021030641  0.020717508           10 
 2162000   0.90323522   -7.3884668    546.90563  0.021080235  0.020710834           11 
 2163000   0.90334234   -7.4010256    545.93271  0.021033006  0.020704127            5 
 2164000   0.90112185   -7.4209552    546.87839  0.021059704  0.020697483            5 
 2165000   0.90248926   -7.4188206    546.25871  0.021026124   0.02069076            6 
 2166000   0.91246589   -7.4657616    543.87798  0.020924822  0.020683983           12 
 2167000   0.89330765   -7.4262731    547.01239  0.021035702  0.020677108            8 
 2168000   0.91208934   -7.4008292    545.50725  0.020968144  0.020670331           15 
 2169000   0.91212604   -7.3850392    545.45527   0.02095648  0.020663608            7 
 2170000   0.90717286   -7.4015646    546.90933  0.021002663  0.020656901            5 
 2171000   0.90111912   -7.3933048    546.58325  0.020980472  0.020650185            7 
 2172000   0.91163381   -7.3656017    548.74778  0.021053859  0.020643455           10 
 2173000   0.90007878   -7.4249508    545.91146  0.020935399  0.020636682            4 
 2174000   0.91087909   -7.4380003     546.6369  0.020953576  0.020629842            6 
 2175000   0.89923445   -7.4157575    547.76547  0.020987183  0.020622986            7 
 2176000   0.92977565   -7.4053696    546.91332  0.020944903  0.020616167            7 
 2177000   0.90353484   -7.4157218    546.72331  0.020928009  0.020609404            4 
 2178000   0.92062123   -7.4226323    545.27677  0.020863054  0.020602614            5 
 2179000   0.91226042   -7.4204916    545.75244  0.020871671   0.02059579            4 
 2180000   0.91350753   -7.4275772    546.53926  0.020892174  0.020588925            7 
 2181000   0.91392982   -7.4372608    544.81818  0.020816834    0.0205821            5 
 2182000   0.90840775   -7.4040977    547.30577  0.020902298  0.020575306            4 
 2183000   0.89736405    -7.405527    547.67058  0.020906649  0.020568484            5 
 2184000   0.90369234   -7.4207885    547.92817  0.020906905   0.02056162            7 
 2185000   0.91392244   -7.4064889    546.01897  0.020824522  0.020554793            6 
 2186000   0.89602229   -7.4153153    547.82546  0.020883862  0.020547938            8 
 2187000   0.89552544   -7.4350879     546.1028  0.020808672   0.02054106            3 
 2188000   0.90708692   -7.4453559    545.24273  0.020766405  0.020534161            5 
 2189000   0.90752022   -7.4282589    546.50468   0.02080496  0.020527315           12 
 2190000    0.8960411   -7.4254006    546.96477  0.020812967   0.02052048            5 
 2191000   0.92065475   -7.4159518    546.64351  0.020791249  0.020513585            8 
 2192000   0.90317184   -7.4058094     547.8351  0.020827064  0.020506709           22 
 2193000   0.92160715   -7.4430881    545.06291  0.020712225  0.020499807            9 
 2194000   0.90846553   -7.4327697    545.95364  0.020736617  0.020492911           12 
 2195000   0.91528687   -7.3994192     547.4743  0.020784901  0.020486075            8 
 2196000   0.89392972   -7.4172836    546.80661  0.020750099  0.020479195            8 
 2197000   0.88968526   -7.4080319    547.56993  0.020769607  0.020472307            8 
 2198000   0.88804122    -7.394565    548.25138  0.020785994  0.020465407            4 
 2199000   0.90952404   -7.3645245    547.62276  0.020752719  0.020458561            8 
 2200000   0.91243646   -7.3990607    547.62264  0.020743282  0.020451768            4 
 2201000   0.91034361   -7.4560383      546.693   0.02069866  0.020444911           11 
 2202000   0.91435422   -7.4167955    548.35927  0.020752319  0.020438025            9 
 2203000   0.89208456    -7.382383    547.61281  0.020714662  0.020431173            3 
 2204000   0.88720596   -7.4339565    547.28642  0.020692923   0.02042429            8 
 2205000   0.90541442   -7.4276558    547.74419  0.020700839  0.020417444            8 
 2206000   0.89721703   -7.4169479    547.05731  0.020665507  0.020410503            7 
 2207000   0.89945264   -7.4616263    548.00369  0.020691878  0.020403612            4 
 2208000   0.90782461   -7.4704881    546.59413  0.020629307  0.020396739            5 
 2209000   0.89326429   -7.4556263     548.0573  0.020675166  0.020389817            6 
 2210000   0.90843789   -7.4314731    549.00888  0.020701692  0.020382884            8 
 2211000   0.90721418   -7.4251922    547.60521  0.020639425  0.020375987            4 
 2212000    0.9082272    -7.454987    547.54862  0.020627962  0.020369069            7 
 2213000    0.8730322   -7.4483734    547.15603  0.020603857  0.020362113            9 
 2214000   0.89566882   -7.4761427    547.01332   0.02058918  0.020355156            8 
 2215000   0.91175361   -7.4075984    549.63654  0.020678576  0.020348265            8 
 2216000   0.90613767   -7.4490463    547.30937   0.02058173  0.020341405           12 
 2217000    0.8996829   -7.4444145    548.39825  0.020613376  0.020334479           12 
 2218000   0.90333463    -7.433252    549.74918  0.020654838  0.020327623            5 
 2219000   0.89153107   -7.4568795    548.85616  0.020611993  0.020320749            6 
 2220000   0.90546396   -7.4436816    548.16564  0.020576788  0.020313872           13 
 2221000   0.90486204   -7.4452144    548.85215  0.020593282  0.020307006            6 
 2222000   0.91490802   -7.4820158    546.56681  0.020498305  0.020300108           13 
 2223000   0.90485324    -7.426353    549.39896  0.020595253   0.02029322           10 
 2224000   0.88417479   -7.4573739    548.26407  0.020543468  0.020286363            7 
 2225000   0.89082711   -7.5065501    548.61944  0.020547545  0.020279484            9 
 2226000   0.87488239    -7.430931    548.88785  0.020548362  0.020272558            7 
 2227000   0.87946464   -7.4523947    549.32133  0.020555356  0.020265642            4 
 2228000   0.88950896   -7.4579043    548.62065  0.020519923  0.020258842            7 
 2229000   0.89364875   -7.4615806    548.99728  0.020524798  0.020251972           12 
 2230000   0.87477407   -7.4711052    547.95363  0.020476593  0.020245061            7 
 2231000   0.90187524   -7.4424373    549.99061  0.020543501  0.020238236            7 
 2232000   0.89745091   -7.4653607    549.02119  0.020498103  0.020231437           11 
 2233000   0.88885852   -7.4413315    549.15319   0.02049385  0.020224635           10 
 2234000   0.90241656   -7.4379277    548.88641  0.020474724  0.020217811            4 
 2235000   0.90377236   -7.4939167    549.42512  0.020485649   0.02021095           12 
 2236000   0.89544438   -7.4342482    550.40582  0.020513038  0.020204088            6 
 2237000   0.88565035   -7.4596559    551.15328  0.020531712  0.020197253           10 
 2238000   0.88945526   -7.4490321    550.73993  0.020507146    0.0201904           18 
 2239000   0.88446602   -7.4774456    550.53947  0.020490527  0.020183576           12 
 2240000    0.8751473   -7.4534078    549.43142  0.020440157  0.020176746            7 
 2241000   0.88860584   -7.4468965    549.16094  0.020420978  0.020169962            5 
 2242000   0.90306563   -7.4382265    549.76253   0.02043423  0.020163126            8 
 2243000   0.87926092   -7.4571633    549.04035  0.020398289  0.020156312           10 
 2244000   0.88566291   -7.4596057    549.58851  0.020409556  0.020149452            6 
 2245000   0.88547081   -7.4581536    550.70638  0.020441959  0.020142651            5 
 2246000   0.90290017    -7.470796    549.91684  0.020403563    0.0201358            5 
 2247000   0.87273421   -7.4917486    550.44756  0.020414166  0.020128957            7 
 2248000   0.87824674   -7.4548906    551.89536  0.020458755  0.020122096            6 
 2249000   0.88815681   -7.4563707    551.22169  0.020424696  0.020115289           27 
 2250000   0.91107509   -7.4853571    550.79915  0.020399968   0.02010843            6 
 2251000   0.91136305   -7.5003396    549.90808  0.020357918  0.020101609           10 
 2252000   0.88356959   -7.4673944    551.57623  0.020410606  0.020094792           13 
 2253000   0.89966097   -7.4393563    552.37042  0.020430922   0.02008794            5 
 2254000   0.88080486   -7.4396827    551.82068  0.020401533  0.020081098            2 
 2255000   0.88373498   -7.4363063    552.01476  0.020399659  0.020074288            7 
 2256000   0.87829393   -7.4242742    553.24562  0.020436082  0.020067553            7 
 2257000   0.89263115   -7.4541741    550.88897  0.020340015  0.020060804            5 
 2258000   0.87405871   -7.4162987    552.35906  0.020385262  0.020054038            4 
 2259000   0.88913547   -7.4774254    551.77571  0.020354718  0.020047325           10 
 2260000   0.90011044   -7.4441434     552.1307  0.020358802  0.020040584           17 
 2261000   0.87614188   -7.4570252    552.44097  0.020361233  0.020033892            7 
 2262000   0.90054287   -7.4252024    553.43742  0.020388941  0.020027205           10 
 2263000    0.8809347   -7.4766584    552.00985  0.020327362  0.020020492            3 
 2264000   0.89161681   -7.4782855    553.60212  0.020376992  0.020013717            7 
 2265000   0.89088084   -7.4676998    551.40667  0.020287221  0.020006965            7 
 2266000   0.87635819   -7.4605643    552.49417  0.020318261   0.02000018            6 
 2267000   0.89763259   -7.4930945    552.75063  0.020318726  0.019993396            3 
 2268000   0.90296927   -7.4649509    552.53386  0.020301802   0.01998664            9 
 2269000   0.87882231    -7.507699    553.56808  0.020330839  0.019979882            6 
 2270000   0.87496124   -7.4624847    553.16943  0.020307248  0.019973137            8 
 2271000   0.88142363   -7.4339828    553.48817  0.020310002  0.019966433            6 
 2272000   0.88300032    -7.449725    553.74559  0.020310504  0.019959734            9 
 2273000   0.87894761   -7.4557345    554.20546  0.020318428  0.019953049            5 
 2274000   0.88484719   -7.4495149    553.04165  0.020266844  0.019946338            7 
 2275000   0.89671527   -7.4860122    553.64267  0.020279951  0.019939617           10 
 2276000   0.87355127   -7.4575435    553.88134   0.02027978  0.019932877            6 
 2277000   0.89777421   -7.4830668    552.70745  0.020227911  0.019926173           19 
 2278000   0.88680797   -7.4708814    556.20595  0.020347013  0.019919522           10 
 2279000   0.88264101   -7.4666988    553.17401   0.02022722  0.019912903            8 
 2280000   0.89651303    -7.452838    554.70815  0.020274421  0.019906211            5 
 2281000   0.88914794   -7.4642427    554.23052  0.020248083  0.019899556            7 
 2282000    0.8881808   -7.4914088    552.49116  0.020175692  0.019892862           11 
 2283000   0.86676566    -7.465682    555.77656  0.020286777  0.019886188            6 
 2284000   0.90118384   -7.4658063    554.97775   0.02024875  0.019879526           18 
 2285000   0.91234385   -7.4758539    556.19074  0.020284126  0.019872885           10 
 2286000   0.89502831   -7.4780225    552.86346  0.020153961   0.01986617           13 
 2287000   0.88126914   -7.5017975    553.75563  0.020177657  0.019859478           23 
 2288000   0.89493931   -7.4435654    556.05282  0.020252507  0.019852787            6 
 2289000   0.86692206   -7.4901869    553.75378   0.02015996  0.019846088            3 
 2290000   0.90204428   -7.4935798    554.09869  0.020163708   0.01983935            4 
 2291000   0.88962978   -7.5021289    555.27891  0.020197836  0.019832613           14 
 2292000   0.90872268   -7.4785167    554.60518  0.020164528  0.019825929            9 
 2293000   0.88825174   -7.4610859    554.20413  0.020141159  0.019819242            7 
 2294000   0.89122215   -7.4769584    555.41124  0.020176229  0.019812622            8 
 2295000   0.87416295   -7.4564529    554.56342  0.020136653  0.019805983            4 
 2296000    0.8782056   -7.4584217    555.27621  0.020153753  0.019799364            3 
 2297000   0.89250036   -7.4856182    553.71727  0.020088422  0.019792674            7 
 2298000   0.87872134   -7.4708839    555.18211  0.020132801  0.019785955           17 
 2299000   0.88875847   -7.4967129    554.13755  0.020086181  0.019779181           10 
 2300000   0.87419405   -7.5022487    555.36551  0.020121939  0.019772399            5 
 2301000   0.88098721   -7.4921273    554.77468  0.020091796  0.019765669            8 
 2302000   0.87726619   -7.5138279    553.31078  0.020030074  0.019758887            5 
 2303000   0.87346359   -7.4789381    554.66309   0.02007031  0.019752091            5 
 2304000   0.89120693   -7.4953108    554.60906  0.020059645  0.019745358            9 
 2305000   0.90716662   -7.4843469    555.99413  0.020101017  0.019738692            7 
 2306000   0.85890941   -7.4961712    555.06989    0.0200589  0.019731998            7 
 2307000   0.88036987   -7.4780206    555.77716  0.020075754  0.019725326            5 
 2308000   0.87943252   -7.4964864    555.83273  0.020069061  0.019718681           10 
 2309000   0.86996263    -7.463745    556.07109  0.020068972   0.01971202            8 
 2310000   0.88357865   -7.4817723    556.11877  0.020062005  0.019705372            7 
 2311000   0.86856356   -7.5367036    555.07262    0.0200156  0.019698673            8 
 2312000   0.89892892   -7.5330299    555.07663  0.020007087  0.019691946            5 
 2313000   0.89474974   -7.5169674    553.19408  0.019930612  0.019685226            7 
 2314000   0.87552343   -7.4624558    558.44406  0.020111065  0.019678565            9 
 2315000   0.88869317   -7.4644734    557.22158  0.020058372  0.019671925            6 
 2316000   0.87429103   -7.4751505    556.91263  0.020038595  0.019665289            5 
 2317000   0.88704662   -7.4418252    556.97208  0.020032085  0.019658673           12 
 2318000    0.8812545   -7.4724278    558.13484  0.020065245  0.019652033            5 
 2319000   0.87414462   -7.4876326    556.42872  0.019995283  0.019645412           14 
 2320000   0.88228768   -7.4601504    557.48675  0.020024668  0.019638815           11 
 2321000   0.88930171    -7.484725     557.3911  0.020012606  0.019632259            9 
 2322000   0.88219266   -7.4943082    557.90966  0.020022598  0.019625638            9 
 2323000   0.88011999   -7.5070674    556.11852  0.019949724  0.019619027           10 
 2324000   0.88179211   -7.4947546    555.68572  0.019925621  0.019612399           10 
 2325000   0.88952894   -7.4883357    557.40276  0.019978593  0.019605805            5 
 2326000   0.87844566   -7.4841796    557.53078  0.019974591  0.019599225           11 
 2327000   0.87340507   -7.4659364    557.07454  0.019949669  0.019592625            6 
 2328000    0.8864602   -7.4776592    558.63704   0.01999703  0.019586086            4 
 2329000   0.85871413    -7.473587    557.87456  0.019961162  0.019579553            7 
 2330000   0.88069341   -7.4501347    558.53733  0.019976299  0.019573024            6 
 2331000   0.86770161   -7.4600732    558.61091   0.01997036  0.019566488            6 
 2332000   0.86240711   -7.4729601    559.22677  0.019983804  0.019559925            6 
 2333000   0.87455699   -7.4683597    558.93519  0.019964823  0.019553378            6 
 2334000   0.87652054   -7.4784638    557.67872  0.019911408   0.01954685            5 
 2335000   0.86833689   -7.5026925    557.40948  0.019893272  0.019540289            5 
 2336000   0.89046558   -7.4972735    558.25273  0.019914838  0.019533705            4 
 2337000   0.90179775   -7.5087916    557.13488  0.019866456  0.019527069            8 
 2338000   0.88291273    -7.520575     557.0409  0.019854609  0.019520429            8 
 2339000    0.8761118   -7.5194225    556.19905  0.019816127  0.019513802           12 
 2340000   0.89288613   -7.4812967    557.35651  0.019848879  0.019507165            9 
 2341000   0.87383152   -7.4984865    556.94923  0.019825902  0.019500598            6 
 2342000   0.85237195   -7.4697345    558.57911  0.019875431  0.019494075           12 
 2343000   0.88725636     -7.52053    557.20895  0.019818216  0.019487512            4 
 2344000   0.87384408   -7.4909548    557.82362  0.019831613  0.019480911            7 
 2345000   0.86800325   -7.5046456    558.89573  0.019861255  0.019474313            7 
 2346000   0.86634205   -7.5139601    558.28517  0.019831102  0.019467742            6 
 2347000   0.86819176   -7.5125379    556.33165  0.019753289  0.019461161            5 
 2348000   0.87715543   -7.4724101     559.1932  0.019846437  0.019454658            6 
 2349000   0.88049702   -7.4554548     558.0703  0.019798152  0.019448167            8 
 2350000   0.87931349   -7.4765107     559.5733  0.019843025  0.019441708            9 
 2351000   0.89024628   -7.4929841     560.6919  0.019874234  0.019435216            8 
 2352000   0.87074753   -7.4989657    560.74641  0.019867716  0.019428707            9 
 2353000   0.88090618   -7.4794467    560.34731  0.019845138  0.019422198           11 
 2354000   0.84670348   -7.5066597    559.07481   0.01979166  0.019415681            7 
 2355000   0.87148639   -7.5180568    558.88796  0.019776644  0.019409126            8 
 2356000   0.89419286   -7.5033435    558.91458  0.019769191  0.019402548           10 
 2357000   0.86405223   -7.4944995    559.40516  0.019778149  0.019395924            8 
 2358000   0.86965853   -7.5402503     558.1889  0.019726778  0.019389314            8 
 2359000    0.8843399   -7.5406494    558.16297  0.019717499  0.019382706           12 
 2360000   0.87242423   -7.5320206    560.58979  0.019794837  0.019376074            7 
 2361000   0.87999844   -7.4955553    559.15753    0.0197359  0.019369462           11 
 2362000   0.88893372   -7.4916282    561.33966  0.019804532   0.01936293            7 
 2363000   0.86653287   -7.5185933    559.88005  0.019744676  0.019356383            4 
 2364000   0.86672897   -7.5037727     559.6695  0.019728902  0.019349801            8 
 2365000   0.85627735   -7.5862161    557.52627  0.019645041   0.01934316            9 
 2366000   0.87198537    -7.536879    558.09134  0.019656641  0.019336566           13 
 2367000   0.85100868   -7.5517418    559.34581  0.019692501  0.019330021            5 
 2368000   0.85895993    -7.498502    561.23529  0.019750679  0.019323501           18 
 2369000   0.86517968   -7.5032378    560.54925  0.019718209  0.019316979           10 
 2370000   0.87842262    -7.518224    560.86096   0.01972085  0.019310441           11 
 2371000   0.86585495    -7.512118    559.63276  0.019669364  0.019303887           18 
 2372000   0.88622239   -7.5704646    559.71101  0.019663821   0.01929731           18 
 2373000   0.86476304    -7.510325    561.60713  0.019722121  0.019290772            7 
 2374000   0.86840935   -7.5332245    561.74725  0.019718732  0.019284253           10 
 2375000   0.87136378   -7.5099539    559.70992  0.019638945  0.019277677           18 
 2376000    0.8391661   -7.5030448    559.63363  0.019628003  0.019271084            8 
 2377000    0.8709214   -7.5714853    559.52134  0.019615809  0.019264486           15 
 2378000   0.86072579   -7.5455831      559.529  0.019607829  0.019257866           16 
 2379000   0.86356643   -7.5433758    559.80903  0.019609396  0.019251227            6 
 2380000   0.87204835   -7.5298831    560.76191  0.019634521  0.019244621           14 
 2381000    0.8719887   -7.5375869    559.97108  0.019598596  0.019238002           15 
 2382000    0.8653731   -7.5471175    559.88241  0.019587266  0.019231308           13 
 2383000   0.86316502   -7.5392538    560.27171   0.01959266  0.019224667           10 
 2384000   0.87731483   -7.5107199    560.97477  0.019609017  0.019218054            7 
 2385000   0.86170082   -7.5213397    559.91358  0.019563717  0.019211439            5 
 2386000   0.86427449   -7.5503236    560.44271  0.019573998  0.019204791           11 
 2387000   0.87743762   -7.5537834    559.11422  0.019519419  0.019198084           10 
 2388000   0.86371385     -7.54725     558.2747  0.019481948  0.019191431           12 
 2389000   0.87359734   -7.5527224    560.25936  0.019543022  0.019184724           14 
 2390000   0.84840469   -7.5545814    560.07698  0.019528486  0.019178046            9 
 2391000   0.86031462   -7.5877458    558.31344  0.019458854  0.019171334           16 
 2392000   0.86011348   -7.5728271    558.98423  0.019474088   0.01916457           20 
 2393000   0.86718358   -7.5089023    559.52678  0.019484844  0.019157882           15 
 2394000   0.86059433   -7.5729109    560.87002  0.019523462  0.019151235            9 
 2395000   0.88363486   -7.5380408    561.36246  0.019532445  0.019144596            7 
 2396000   0.85703301   -7.4989397     561.1115  0.019515564  0.019137966            5 
 2397000   0.88151041   -7.5280494    559.69522  0.019458184  0.019131326            2 
 2398000   0.86864476   -7.4897413    560.40563  0.019474758  0.019124696            7 
 2399000   0.87695096   -7.5206144    560.35586  0.019464911  0.019118107            5 
 2400000   0.87733016   -7.5041874    561.30289  0.019489684  0.019111506            4 
 2401000   0.85099959   -7.5249223    559.96557  0.019435151  0.019104833            6 
 2402000   0.86744386   -7.5280473    560.63779  0.019450381  0.019098205           17 
 2403000   0.88557255   -7.5369648    561.27733  0.019464466  0.019091619            7 
 2404000   0.87062023   -7.5195034    561.75827   0.01947304  0.019085035            5 
 2405000   0.86253396   -7.5245788    561.69914  0.019462895  0.019078415            7 
 2406000   0.86611574   -7.5067827    561.74879  0.019456525  0.019071847            5 
 2407000   0.85371359   -7.5398863    561.16486  0.019428225  0.019065287           10 
 2408000   0.87487814   -7.5318226    561.46036  0.019430383  0.019058701            6 
 2409000   0.87475876   -7.5190187    561.78876  0.019433678  0.019052104           12 
 2410000   0.87686135   -7.5270599    560.67713  0.019387176  0.019045495           12 
 2411000   0.86365663   -7.5510845      561.707  0.019414731  0.019038926            7 
 2412000   0.86620132   -7.5568025    561.40647  0.019396299  0.019032322           10 
 2413000   0.86637696   -7.5598145    560.87959  0.019370065  0.019025738            7 
 2414000   0.85717991   -7.5305001    561.62661  0.019387828  0.019019108            9 
 2415000   0.86119264   -7.5115493    561.88383  0.019388676  0.019012463           12 
 2416000    0.8726516   -7.5788011    560.79061  0.019342943  0.019005823            7 
 2417000   0.85853369    -7.533698    561.36339  0.019354689  0.018999176            7 
 2418000   0.87841379   -7.5599756    562.42081  0.019383127  0.018992623            8 
 2419000   0.87895769   -7.5423488    561.50879  0.019343696  0.018986038            6 
 2420000   0.86909017   -7.5467232    561.77908   0.01934501  0.018979453           10 
 2421000   0.87763023   -7.5576316    561.45512  0.019325868  0.018972843           13 
 2422000   0.87059999    -7.545822    562.26375  0.019345711  0.018966206            6 
 2423000   0.86978787   -7.5630658    561.50562  0.019311653  0.018959549           14 
 2424000   0.85540537   -7.5369679    562.22642  0.019328466  0.018952924            6 
 2425000   0.85339392   -7.5294573    563.65705  0.019369658  0.018946336           13 
 2426000   0.87023262   -7.5438138    562.10032    0.0193082  0.018939753           31 
 2427000   0.87229236   -7.5528002    561.84891  0.019291612  0.018933133            8 
 2428000   0.87532256   -7.5288142    562.28581  0.019298662  0.018926571           24 
 2429000   0.87458783   -7.5240637    562.96516  0.019314024  0.018920023            6 
 2430000    0.8710877   -7.5270845    562.88022  0.019303162  0.018913481            7 
 2431000   0.85049904   -7.5308439    562.76159  0.019291156  0.018906961            8 
 2432000   0.87685328   -7.5133759    561.72371   0.01924766  0.018900439           10 
 2433000   0.83922057   -7.5405939       561.74  0.019240307  0.018893872           16 
 2434000   0.86685236   -7.5121533     564.2686  0.019318974  0.018887295            6 
 2435000   0.85281392   -7.5566389    561.81223  0.019226976  0.018880723           11 
 2436000   0.85598957    -7.553483    560.93382  0.019189033  0.018874101            9 
 2437000   0.86168787   -7.5514118     562.1896  0.019224101  0.018867493           10 
 2438000    0.8640028   -7.5227466    561.70316  0.019199588  0.018860899           11 
 2439000   0.87170067   -7.5690762    560.65421  0.019155877  0.018854287            9 
 2440000   0.86171098   -7.5204995    562.77552  0.019220475  0.018847677           10 
 2441000   0.86440583   -7.5658767    561.95584  0.019184618  0.018841087            9 
 2442000   0.86107935   -7.5418514    562.09902  0.019181648  0.018834488            7 
 2443000   0.87120803   -7.5556279    562.34765  0.019182278  0.018827882            3 
 2444000    0.8609958   -7.5934222     561.6299  0.019149956  0.018821255            9 
 2445000   0.86683546   -7.5841616    561.53261  0.019138807   0.01881462            9 
 2446000   0.87784259   -7.5735622    563.17583  0.019186966  0.018807988            5 
 2447000   0.85446144   -7.5451606    563.44711  0.019188364  0.018801351            5 
 2448000   0.84652243   -7.5408468    562.66215  0.019153804  0.018794769           14 
 2449000   0.87602351   -7.5365212    562.95577  0.019155974  0.018788227           13 
 2450000   0.84398075   -7.5554015    561.30703  0.019092076  0.018781684            9 
 2451000   0.85114292   -7.5341193    563.71086  0.019166016  0.018775102            9 
 2452000   0.85925907    -7.545636    563.74775  0.019159453  0.018768541            7 
 2453000    0.8720928   -7.5645589    562.60507  0.019112824  0.018761961            4 
 2454000   0.85742364   -7.5603884    563.82722  0.019146537  0.018755378            9 
 2455000   0.84654117   -7.5614694    562.74937  0.019102151  0.018748828            9 
 2456000   0.87162977   -7.5886527    562.31877  0.019079763  0.018742292            6 
 2457000   0.85425529   -7.5749933    563.66935  0.019117805   0.01873567            4 
 2458000   0.85813376   -7.5906486     563.2767  0.019096715   0.01872907           14 
 2459000   0.86494821   -7.6073179    563.17119  0.019085373  0.018722511           15 
 2460000   0.86279827   -7.5391884    562.66524  0.019060476  0.018715937           16 
 2461000   0.87633019   -7.5611174    564.29322  0.019107856  0.018709396           12 
 2462000   0.84241003   -7.5871939    562.81771  0.019050153  0.018702849            8 
 2463000   0.83616297    -7.576561    563.14631  0.019053536  0.018696292            5 
 2464000   0.85413473   -7.5857078     561.7252  0.018997741  0.018689713            7 
 2465000   0.84757774   -7.5831279    562.56941  0.019018574  0.018683128            7 
 2466000   0.86412213   -7.5352149    565.35033  0.019104837  0.018676581            8 
 2467000   0.85722296   -7.5491341    564.18174  0.019057619  0.018670041           13 
 2468000   0.83822731   -7.5304595    564.47277  0.019059723  0.018663534            6 
 2469000   0.84362517   -7.5397018    563.93128  0.019033727  0.018657004            5 
 2470000    0.8513824   -7.5761946    564.58801  0.019048178  0.018650441           11 
 2471000   0.83850597   -7.5715889    564.86801  0.019049913  0.018643926            6 
 2472000   0.84188743    -7.587069     562.7845  0.018971969  0.018637374            5 
 2473000   0.84865723   -7.5606968    564.87673    0.0190348  0.018630824           10 
 2474000   0.83674548   -7.5547926    564.13206  0.019002023  0.018624292            8 
 2475000   0.84487584   -7.5665214    562.37811   0.01893529  0.018617742           10 
 2476000   0.87536822   -7.5538593    564.39047  0.018995371   0.01861123            9 
 2477000   0.85910873   -7.5441886    565.60071  0.019028419  0.018604721            8 
 2478000   0.84161665   -7.5570927    564.19038  0.018973311  0.018598186            8 
 2479000   0.85575916   -7.5754579    562.63994  0.018913539  0.018591618            7 
 2480000    0.8518665   -7.5790938    564.61456  0.018972263  0.018585078           11 
 2481000   0.85239019   -7.5756279    564.82222  0.018971591  0.018578554           10 
 2482000    0.8444179   -7.5604473    564.56242  0.018955225  0.018572058           14 
 2483000   0.84057595   -7.5506818    563.85881  0.018923977   0.01856551           17 
 2484000   0.85449281   -7.5445686    563.95717  0.018919658  0.018558996           11 
 2485000    0.8665289   -7.5309453    565.67401  0.018969618   0.01855251           16 
 2486000   0.85900078   -7.5674951    565.38188  0.018952195  0.018546024           11 
 2487000    0.8506091   -7.5864286      565.011  0.018932147  0.018539499           12 
 2488000   0.84255507   -7.6142404    564.10224    0.0188941   0.01853294           12 
 2489000   0.84503107   -7.5945168    562.62684  0.018837111   0.01852636            7 
 2490000     0.845357   -7.5819582    563.12981  0.018846379  0.018519759            5 
 2491000    0.8632345   -7.6011134    563.78208  0.018860634  0.018513168           17 
 2492000   0.87694803   -7.6256703     563.9539  0.018858811  0.018506599            8 
 2493000   0.85185588   -7.5796327    565.01335  0.018886661  0.018500031            5 
 2494000   0.85288056   -7.6007848     565.2237  0.018886117  0.018493461           10 
 2495000   0.84339723   -7.5915297    562.56901   0.01878988  0.018486862            6 
 2496000   0.85968496   -7.5691459    564.99987  0.018863511  0.018480318            8 
 2497000    0.8485228   -7.5638305    565.76732  0.018881569  0.018473782           12 
 2498000   0.84092492   -7.5570527     565.7923  0.018874843  0.018467265           26 
 2499000   0.86117722     -7.61899    563.97131  0.018806566  0.018460734           11 
 2500000    0.8694186   -7.5797656    564.70963  0.018823654  0.018454203           12 
 2501000   0.82819828   -7.6110679    564.74675  0.018817365  0.018447578           32 
 2502000   0.85952672   -7.5730076    565.22484  0.018825767  0.018441004           19 
 2503000   0.84784175   -7.5889978    565.52712   0.01882831  0.018434438           15 
 2504000   0.85476496   -7.5859895    566.02718  0.018837433  0.018427856            3 
 2505000   0.86379554   -7.6186655    564.00808  0.018762744  0.018421264           24 
 2506000   0.85447488    -7.596908    564.47698  0.018770849  0.018414668           10 
 2507000   0.85018455   -7.5978088    565.34766  0.018792303  0.018408064            9 
 2508000   0.86106809   -7.5582986    565.83906  0.018801138  0.018401528           48 
 2509000    0.8449402   -7.5951179    564.85811  0.018761064  0.018394986           22 
 2510000    0.8446166   -7.5690258    564.87069  0.018754007  0.018388415            9 
 2511000   0.85328377   -7.5789517    566.34419   0.01879544  0.018381859           11 
 2512000   0.84476817    -7.594275    565.28943  0.018752967   0.01837528           11 
 2513000   0.85450572   -7.5908926    564.75222   0.01872769  0.018368703            6 
 2514000   0.83479936     -7.56852    566.01107  0.018761969  0.018362218            9 
 2515000    0.8235164   -7.5217971    565.99155  0.018753862  0.018355748           15 
 2516000   0.83541264   -7.5962784    565.65118  0.018735135  0.018349234            5 
 2517000   0.85033097   -7.5552102    566.14916  0.018744178  0.018342749            8 
 2518000   0.85753712    -7.601246    565.74187  0.018723255  0.018336287            8 
 2519000   0.82962824   -7.6094865    565.25967   0.01869987  0.018329772           10 
 2520000    0.8395596   -7.6063847     565.6839  0.018706478  0.018323236           17 
 2521000   0.84470696   -7.5969721    565.19118  0.018682771  0.018316762            9 
 2522000   0.85535065   -7.6037748    566.19866  0.018708652  0.018310261           11 
 2523000   0.85926822    -7.609403    565.31641  0.018672097  0.018303719           20 
 2524000   0.85455951   -7.6048229    565.19698  0.018660756  0.018297211           22 
 2525000   0.83187157    -7.589688    566.03128    0.0186809   0.01829073            7 
 2526000   0.84437362   -7.5750026    567.64718  0.018726814  0.018284287            6 
 2527000   0.84047586   -7.5598704    566.83269  0.018692543  0.018277808           16 
 2528000   0.83591867   -7.6119609    565.69512   0.01864765  0.018271365           10 
 2529000   0.84567533   -7.5894725     564.8004  0.018610795  0.018264879           16 
 2530000   0.85089654   -7.5917716    567.30903  0.018686068  0.018258417            9 
 2531000   0.86230706   -7.6053215    565.54843  0.018620717  0.018251976            7 
 2532000   0.85617951   -7.5878469     566.0247  0.018629038  0.018245529           15 
 2533000   0.84978444   -7.6267753    565.10042  0.018591276  0.018239016            4 
 2534000   0.83616894   -7.5743757    567.24885  0.018654593  0.018232496           12 
 2535000   0.85120865   -7.6069477    564.75847  0.018565367   0.01822599           16 
 2536000   0.85295504   -7.5827588    566.44812  0.018613569  0.018219473           19 
 2537000   0.83257306    -7.555805    566.75419  0.018616285  0.018212988           10 
 2538000   0.84514662   -7.5697637    567.45136  0.018631841  0.018206492           10 
 2539000   0.85499103   -7.6009429    567.34502  0.018621013  0.018199996           12 
 2540000   0.83970875   -7.6021206     566.4089  0.018582969  0.018193487           14 
 2541000   0.85539202   -7.6462944    565.21648   0.01853655  0.018186911           22 
 2542000   0.85144395   -7.6064804    565.88188  0.018551071   0.01818039           13 
 2543000   0.84178316   -7.6627749    563.82815  0.018476476  0.018173836           12 
 2544000   0.83683031   -7.5752966     566.5009  0.018556764  0.018167271            8 
 2545000   0.85520746   -7.6249351    565.42104  0.018514114  0.018160724           10 
 2546000   0.85576811   -7.6331004    563.78089  0.018453158  0.018154187            9 
 2547000   0.84036714   -7.6417072    565.06381  0.018487888  0.018147651           13 
 2548000   0.84576151   -7.6268497    566.75934  0.018536085  0.018141101           12 
 2549000   0.84408728    -7.605689    567.41288  0.018550179  0.018134541            5 
 2550000   0.83824408   -7.5886091    566.57873  0.018515645  0.018128005            7 
 2551000   0.85850846   -7.6281582    565.86434   0.01848505   0.01812149            8 
 2552000   0.86203122   -7.6243638    567.32095  0.018525371  0.018114974            6 
 2553000   0.86378058   -7.6238451    566.16639  0.018480428  0.018108466           10 
 2554000   0.86215974   -7.6083517    566.18121  0.018473676  0.018101921           11 
 2555000   0.84455453   -7.6503508    565.42909  0.018441914  0.018095374            9 
 2556000   0.83286068   -7.6020227    566.40595  0.018466548  0.018088845            8 
 2557000    0.8387857   -7.6459318    567.59366  0.018498033   0.01808232            7 
 2558000   0.83570823   -7.6351502    565.69749   0.01842903   0.01807576           14 
 2559000   0.84827583   -7.6354797    567.70807  0.018487302  0.018069217           13 
 2560000   0.84483952   -7.6281654    566.58061  0.018443379  0.018062662           18 
 2561000   0.85329978   -7.6272535    565.08726  0.018387585  0.018056133           17 
 2562000    0.8400723   -7.6158377    565.40539  0.018390756  0.018049617           10 
 2563000   0.82591191   -7.6391371    566.30869   0.01841295  0.018043133           13 
 2564000    0.8343249   -7.6267548    565.47754  0.018378755  0.018036616           10 
 2565000   0.83790035   -7.6183615    566.35176  0.018399992  0.018030059            9 
 2566000     0.847288   -7.6018231    564.83775  0.018343653  0.018023506           10 
 2567000   0.84055696   -7.6254665     567.8233  0.018433428  0.018016979           13 
 2568000   0.82475817   -7.6067629    566.00666  0.018367298  0.018010473           11 
 2569000   0.83327807   -7.6350634    566.12055  0.018363843  0.018003997           19 
 2570000   0.84181884   -7.6081377    567.91471  0.018414874  0.017997517            7 
 2571000   0.83724128   -7.6369901    566.75663  0.018370175  0.017991004            8 
 2572000   0.84899378   -7.6345062    566.28544  0.018347766  0.017984505            9 
 2573000   0.84525785   -7.6546348    566.56299  0.018349624  0.017978029           28 
 2574000   0.86423537   -7.6433579    566.18077  0.018330121  0.017971522           12 
 2575000   0.83856063    -7.623895    566.88659  0.018345844  0.017965019           13 
 2576000   0.83881992    -7.615192    566.70003  0.018332687  0.017958531           13 
 2577000    0.8580603   -7.6065592    566.93012  0.018333014  0.017952032           11 
 2578000    0.8359156   -7.6225758    567.85325  0.018355743  0.017945581            8 
 2579000   0.81549174   -7.6301507    567.72129  0.018344361  0.017939138           15 
 2580000   0.84001003   -7.6412288    567.72804  0.018337469  0.017932652            9 
 2581000   0.83535481    -7.638683    565.26532   0.01825085  0.017926177           10 
 2582000   0.83090518   -7.6262765    568.49367  0.018347976  0.017919735           16 
 2583000   0.85088083   -7.6608127    568.84563  0.018352227  0.017913322           11 
 2584000   0.83893831   -7.6294826    568.33581  0.018328683  0.017906904            9 
 2585000   0.82743706   -7.6328531     569.4529  0.018357605  0.017900455           14 
 2586000   0.83088286   -7.6139137    567.91046  0.018300801   0.01789403            9 
 2587000   0.85500225   -7.6406875    567.45036  0.018278906  0.017887599           18 
 2588000   0.83124397   -7.6210977    566.65158  0.018246123  0.017881198            8 
 2589000   0.84141703   -7.6119854    568.00877   0.01828276  0.017874781            9 
 2590000   0.85798187   -7.6387315    569.13397  0.018311904  0.017868322           12 
 2591000   0.82915998   -7.6155406    567.50595  0.018252475  0.017861938           20 
 2592000   0.83744428    -7.606648    568.64317  0.018281995  0.017855539            6 
 2593000   0.80787454   -7.6182627    568.77265  0.018279106  0.017849164           13 
 2594000   0.83511793    -7.641519    568.65624  0.018268319  0.017842805            8 
 2595000   0.83389704   -7.6491842    567.93567   0.01823814  0.017836391            9 
 2596000   0.83703189   -7.6474167    569.23405  0.018272793  0.017829976           26 
 2597000   0.83235016   -7.6307922    568.45488  0.018240755  0.017823581           16 
 2598000   0.82884754   -7.6595025     568.2782  0.018228067  0.017817179           21 
 2599000   0.82234268   -7.6437602    567.96593   0.01821104  0.017810748           28 
 2600000   0.84569803   -7.6131421    569.44803  0.018251539   0.01780434           24 
 2601000   0.83338642   -7.6347504    568.30977  0.018208053  0.017797933           11 
 2602000   0.83571592   -7.5835895     570.3911  0.018267714   0.01779153           17 
 2603000   0.84014431   -7.6564928    567.33314  0.018162797  0.017785121           18 
 2604000   0.83240682   -7.6435456    567.15198  0.018150025  0.017778701            9 
 2605000   0.83153142   -7.6523468     567.6615  0.018159357  0.017772269           12 
 2606000   0.82064391   -7.6369033    569.08082  0.018197775  0.017765832           10 
 2607000   0.84664913   -7.6626762    567.16386  0.018129519   0.01775939           13 
 2608000   0.83376813   -7.6443459    567.68789  0.018139311  0.017752943           19 
 2609000   0.82449243   -7.6787778    567.78692  0.018135522  0.017746501            8 
 2610000   0.82431078   -7.6220204    567.32277  0.018113754  0.017740068           17 
 2611000    0.8505083    -7.659717    567.68793  0.018118471  0.017733587           17 
 2612000   0.83811919    -7.648177    566.89051  0.018086093  0.017727182           12 
 2613000   0.83746474   -7.6296248    568.75403  0.018138603  0.017720757           14 
 2614000   0.83918967   -7.6408061    568.46242  0.018122368  0.017714327           11 
 2615000    0.8301296    -7.623956    568.16462  0.018105947  0.017707894           20 
 2616000   0.84533333   -7.6405884    567.87244  0.018089718  0.017701507            8 
 2617000   0.83486342   -7.6481506     568.2735  0.018095577  0.017695055           10 
 2618000   0.82109594   -7.6768853     568.3686  0.018091692  0.017688633           16 
 2619000   0.82502132   -7.6475188    569.17415  0.018110416  0.017682192           13 
 2620000   0.83093358   -7.6468737    569.26181  0.018106292  0.017675771            6 
 2621000   0.83277376   -7.6596435    568.59692  0.018078244  0.017669401            6 
 2622000   0.82369477   -7.6566311    567.97935  0.018051721  0.017663005            7 
 2623000   0.84268336   -7.6315688    569.81427  0.018103135  0.017656618            7 
 2624000   0.81282886   -7.6635782    567.32283  0.018017112  0.017650254           12 
 2625000   0.83659862   -7.6353855    570.55464  0.018112846  0.017643898           10 
 2626000   0.83484661   -7.6191191      570.595  0.018107229  0.017637621            7 
 2627000   0.83412822   -7.6627763    569.17443  0.018055273  0.017631277            6 
 2628000    0.8498165   -7.6761684    568.89755  0.018039623  0.017624842           13 
 2629000     0.844406   -7.6752574    569.67163  0.018057298  0.017618438            5 
 2630000   0.83495274   -7.6781129    569.16356  0.018034333  0.017612047           16 
 2631000   0.82078275   -7.6477948    569.98109  0.018053373  0.017605718            3 
 2632000   0.82279179   -7.6708659    569.25199  0.018023429  0.017599371            9 
 2633000   0.81126089   -7.6307099    571.25931  0.018080115  0.017593024            9 
 2634000    0.8455649   -7.6890724    569.50197  0.018017653  0.017586643           11 
 2635000   0.84693864   -7.6655285    570.65016  0.018047127  0.017580268            4 
 2636000    0.8235374   -7.6708997    569.51399  0.018004362  0.017573935           12 
 2637000   0.82473832   -7.6551848    570.60078  0.018031879  0.017567601            7 
 2638000   0.82632961   -7.6344088    569.54197  0.017991596   0.01756132           12 
 2639000   0.84821071   -7.6396747    570.82269  0.018025221  0.017555041           11 
 2640000   0.85212122   -7.6481187    569.77632  0.017985364  0.017548755           18 
 2641000   0.82425835   -7.6405903    570.57214  0.018003665  0.017542442           10 
 2642000   0.83162781   -7.6596731    570.22354  0.017985855  0.017536162           12 
 2643000   0.84455305   -7.6495785    570.05251  0.017973657  0.017529887           12 
 2644000   0.83463653   -7.6171256    570.95321  0.017995247  0.017523582            8 
 2645000   0.81866644   -7.6463086    570.39477   0.01797085  0.017517276           14 
 2646000   0.83409386   -7.6700865    570.83543  0.017977936  0.017511028           11 
 2647000   0.82029058   -7.6330205    571.77215  0.018000634  0.017504787           20 
 2648000   0.83299979   -7.6478257    571.57435  0.017987612   0.01749853            6 
 2649000   0.84496954   -7.6471624    570.90427  0.017959742  0.017492283           11 
 2650000   0.84008548   -7.6622177    570.99498  0.017955817   0.01748603            5 
 2651000   0.84608293    -7.634022    571.14423  0.017953735  0.017479785           13 
 2652000   0.84953416   -7.6481384    572.14661  0.017978463  0.017473516            4 
 2653000   0.82313548   -7.6667675     569.8204  0.017898618  0.017467278           12 
 2654000   0.83677969   -7.6748746     571.9229  0.017957891  0.017461032           10 
 2655000   0.83017722   -7.6502573    572.32894  0.017963871  0.017454796           16 
 2656000   0.83460282   -7.6683525     572.1327  0.017950951  0.017448575           10 
 2657000   0.83094904   -7.6734201    571.24139   0.01791624  0.017442332           11 
 2658000   0.82249404   -7.6743532    570.22325  0.017877579  0.017436073           17 
 2659000   0.83040126   -7.6750612    570.90004  0.017892066  0.017429802            7 
 2660000   0.81721342   -7.6828762    571.20388  0.017894858  0.017423527           13 
 2661000    0.8332863   -7.6350155    572.58946  0.017931525  0.017417266           17 
 2662000   0.83064802   -7.6790347     571.5564  0.017892449   0.01741108            7 
 2663000   0.82118079   -7.6574106    571.47629  0.017883223  0.017404847            6 
 2664000   0.83072611   -7.6772348    571.21886  0.017868458  0.017398614            7 
 2665000   0.81457393   -7.6758689    572.43961  0.017899925  0.017392383           16 
 2666000   0.82851146   -7.6599037    572.83072  0.017905436  0.017386204           14 
 2667000   0.83304817   -7.6589326    574.10529  0.017938548  0.017379998            8 
 2668000   0.81711748   -7.6450847    574.87223  0.017955779  0.017373807           29 
 2669000   0.80751876    -7.680058    571.39547  0.017840498    0.0173676            7 
 2670000   0.81659723   -7.6681572    571.08271  0.017824055  0.017361381           13 
 2671000   0.83188988   -7.6745513    571.44554  0.017828702  0.017355129           20 
 2672000    0.8361591   -7.6425925    573.68049  0.017891732  0.017348904           12 
 2673000   0.84104987   -7.6664221    572.05927  0.017834495  0.017342693           11 
 2674000    0.8463084   -7.6566644    573.06637  0.017859211   0.01733649           33 
 2675000   0.83011042   -7.6603565    571.82408  0.017813834  0.017330261           43 
 2676000   0.81864217   -7.6348974    572.02506  0.017813436  0.017324056           19 
 2677000   0.83659616   -7.6624316    572.12148  0.017809783  0.017317842           16 
 2678000   0.81545803   -7.6853488    570.56206  0.017754607  0.017311579           24 
 2679000   0.81779117   -7.6688926    571.62176  0.017780943  0.017305309           17 
 2680000   0.81924302   -7.6827742     570.9534  0.017753526  0.017299039           21 
 2681000   0.81859102   -7.6653794    570.88536  0.017744789  0.017292776           15 
 2682000   0.83468714   -7.6778483    572.16159  0.017777827  0.017286523            5 
 2683000   0.83479972    -7.689271    570.96375  0.017733996  0.017280287           21 
 2684000    0.8360375   -7.6922959    571.48684   0.01774363  0.017274055           15 
 2685000   0.77694135   -7.6935143    571.45883  0.017736152  0.017267803           11 
 2686000   0.82604854   -7.6683112    572.78003   0.01777054  0.017261551           24 
 2687000    0.8345079   -7.7091339    571.46704  0.017723205  0.017255302            7 
 2688000   0.82431734   -7.6941695     571.2344    0.0177094   0.01724904           18 
 2689000      0.81102   -7.6759438    572.26538  0.017734764  0.017242792           15 
 2690000   0.81140748   -7.7079363    571.93524  0.017717944  0.017236531            7 
 2691000   0.83349012   -7.7236261    570.00403  0.017651555  0.017230244           18 
 2692000   0.81224495   -7.6865619    572.04738  0.017708252  0.017223969           15 
 2693000    0.8302238   -7.7045904    570.26757  0.017646601  0.017217707            9 
 2694000   0.80106091   -7.7422432    571.48092  0.017677583  0.017211419           16 
 2695000   0.81979121   -7.7612031     571.1887  0.017661988   0.01720514           29 
 2696000   0.81568744   -7.7453918     572.1793  0.017686057  0.017198838           50 
 2697000    0.8167798   -7.7260472    570.69451  0.017633621  0.017192544           13 
 2698000   0.82105914   -7.6959782    571.94558  0.017665727  0.017186273           31 
 2699000   0.80537633   -7.6964851    572.56027  0.017678161   0.01718002            7 
 2700000   0.84389565   -7.6724004    572.99623  0.017685069  0.017173795           20 
 2701000   0.82257095    -7.654666    572.78876   0.01767212  0.017167593           16 
 2702000   0.82144939   -7.6889856    571.75749  0.017633774  0.017161433           10 
 2703000   0.81119567   -7.7059727    572.07243   0.01763696  0.017155248           25 
 2704000   0.82692816   -7.7113607    572.12951  0.017632197  0.017149038           15 
 2705000    0.8197541   -7.6899502     570.5676   0.01757756  0.017142815           21 
 2706000   0.80946614   -7.6791139    573.43363  0.017659326  0.017136593           13 
 2707000   0.81308794   -7.7276897    570.37313  0.017558587  0.017130379           14 
 2708000   0.81262376   -7.7226343    572.41341  0.017614888  0.017124152           21 
 2709000   0.81736933   -7.6989469    571.33343  0.017575164  0.017117924           14 
 2710000   0.81482969    -7.728784    570.81872  0.017552851  0.017111652           19 
 2711000   0.81099836   -7.7346263    571.64988  0.017571925  0.017105377           19 
 2712000   0.80841164   -7.7110899    573.04383  0.017608279  0.017099136           28 
 2713000   0.82452255   -7.7436804    572.34942  0.017580459  0.017092917           49 
 2714000   0.81640244   -7.7316939    570.89945   0.01752946  0.017086642           21 
 2715000   0.83501379   -7.7069154    572.47856  0.017571472  0.017080411           25 
 2716000   0.80830981   -7.7188575    572.41616  0.017563088  0.017074184            9 
 2717000   0.81389111   -7.6920926    572.65068  0.017563817  0.017067952           14 
 2718000   0.82928282   -7.6956213    572.02905  0.017538295  0.017061752           14 
 2719000   0.81199684   -7.6822394    573.48883  0.017576586  0.017055543            8 
 2720000    0.8495516   -7.7019795    572.82198  0.017549693  0.017049337           15 
 2721000   0.81143563   -7.6963078    573.41628  0.017561444   0.01704314           13 
 2722000   0.80149653   -7.7077433    573.49708  0.017557466  0.017036947           10 
 2723000   0.84274225   -7.7097065    573.99963  0.017566398   0.01703077           22 
 2724000   0.81879338   -7.6875861    570.61706  0.017456469  0.017024618           11 
 2725000   0.78898677   -7.7230826    572.30158  0.017501577  0.017018467           33 
 2726000   0.81570686   -7.7006096    574.99666  0.017577545   0.01701231            9 
 2727000   0.81569989   -7.7249026    572.26355   0.01748758  0.017006162           21 
 2728000   0.80801883   -7.6675856    573.51119  0.017519281  0.017000004            9 
 2729000   0.79758543   -7.7230075    571.43063  0.017449329  0.016993831           11 
 2730000   0.81258389   -7.7284273    571.24204  0.017437181  0.016987632            7 
 2731000   0.81669024   -7.7087404    571.70128  0.017444809  0.016981451           27 
 2732000   0.80511846     -7.73819    573.17344  0.017483328  0.016975292           14 
 2733000   0.82065287   -7.6944855    573.21359  0.017478155    0.0169691            7 
 2734000   0.80932567   -7.6724141    572.68469  0.017455642  0.016962921           20 
 2735000   0.82212807    -7.707996    572.63501  0.017447746  0.016956753           13 
 2736000   0.83025665   -7.7233263    571.86364  0.017417874   0.01695057           22 
 2737000   0.80686331   -7.7113411    573.19716  0.017452112  0.016944381           13 
 2738000   0.81462686   -7.6996616    573.20494  0.017445974  0.016938221           24 
 2739000   0.82946057   -7.7099229    572.80316  0.017427381  0.016932062            8 
 2740000   0.80852235   -7.7243617    572.69144  0.017417623  0.016925898           15 
 2741000   0.82353863   -7.7191233    572.80071  0.017414591  0.016919726            8 
 2742000   0.80854311   -7.7161335    573.91742  0.017442178  0.016913529           15 
 2743000   0.80888079   -7.7185086    573.04454  0.017409301  0.016907358           10 
 2744000   0.81300405   -7.7221871    572.20808  0.017377553  0.016901187            8 
 2745000   0.83064366   -7.7092792    573.14584  0.017399691  0.016894979           10 
 2746000   0.82607884   -7.7364785    571.01761  0.017328769  0.016888764            9 
 2747000   0.82539612   -7.7202181    572.90996  0.017379868   0.01688253           11 
 2748000   0.80720555   -7.7183341       572.21  0.017352317  0.016876282            9 
 2749000   0.81237602    -7.698299    574.31351   0.01740977  0.016870069            9 
 2750000   0.79776062   -7.7533707    571.64642  0.017322619  0.016863861            6 
 2751000   0.81366805   -7.6966723    572.05844  0.017328803  0.016857647           12 
 2752000    0.7911208    -7.708031    572.86633   0.01734697  0.016851432           13 
 2753000   0.81059273   -7.7248465    572.28621  0.017323108  0.016845246           28 
 2754000   0.78658024   -7.7374558    572.22753  0.017315043  0.016839078           18 
 2755000   0.78832889   -7.6897096    571.88051  0.017298261  0.016832938           16 
 2756000    0.7992313   -7.7058352    573.94848  0.017354514   0.01682677           21 
 2757000   0.81288433   -7.7073872    572.66942  0.017309558  0.016820615           16 
 2758000   0.80562229   -7.7186498    572.83702  0.017308346   0.01681443           10 
 2759000   0.80415149    -7.753703    571.95669  0.017275483  0.016808247           22 
 2760000   0.80039697   -7.7185058    572.92764   0.01729854  0.016802046           15 
 2761000   0.81515561    -7.738186     573.3202  0.017304123  0.016795904           21 
 2762000   0.81939596   -7.7260298    572.32655  0.017267878  0.016789734           14 
 2763000   0.81689209   -7.7103015    573.85579  0.017307751  0.016783564            8 
 2764000   0.81414595   -7.6890369    573.06984  0.017277793  0.016777398           15 
 2765000   0.81746836   -7.6810709    573.13038  0.017273369  0.016771245            7 
 2766000   0.83169483   -7.7107996    572.25702  0.017240812  0.016765063           17 
 2767000   0.82148406   -7.7179125    574.07394  0.017289301  0.016758913           15 
 2768000   0.80488702   -7.7148959    572.95553  0.017249384  0.016752744            6 
 2769000   0.83135088    -7.726435    572.65011  0.017233963  0.016746553            9 
 2770000   0.82086774   -7.7646676    573.03976  0.017239463  0.016740364           12 
 2771000   0.79882617   -7.7584879    573.38466  0.017243614  0.016734158           17 
 2772000   0.79823367   -7.7451295    572.72771  0.017217644  0.016727955           11 
 2773000   0.81995136    -7.737967    572.32855   0.01719944  0.016721752           11 
 2774000   0.80522372   -7.7505224    571.70277   0.01717444  0.016715523           12 
 2775000   0.80698294   -7.7166065     572.7816  0.017200649  0.016709316           16 
 2776000   0.79244034   -7.7702398    570.50778  0.017126194   0.01670308           36 
 2777000   0.80201219   -7.7498956    572.98319   0.01719431  0.016696836           31 
 2778000   0.81136028   -7.7545126    570.62506  0.017117382  0.016690613           23 
 2779000   0.79047993   -7.7522139    573.15613  0.017187122  0.016684381            9 
 2780000   0.82413603   -7.7708963    571.94402  0.017144605  0.016678136           50 
 2781000   0.79528814   -7.7715822    572.78088  0.017163517  0.016671927           10 
 2782000   0.81322552   -7.7394657    572.15764  0.017138678  0.016665698           19 
 2783000   0.81599284   -7.7728876    572.07367  0.017130006   0.01665946           13 
 2784000   0.81694666   -7.7473288    572.67191   0.01714176   0.01665323           15 
 2785000   0.79729582   -7.7701308    571.90805  0.017112748  0.016647027           12 
 2786000   0.79606884   -7.7940999    571.96208  0.017108222  0.016640867           14 
 2787000   0.82118793   -7.7394276    571.88578  0.017099802  0.016634675           19 
 2788000   0.80863213   -7.7455521    573.08943  0.017129646    0.0166285           10 
 2789000   0.81705815   -7.7756315    571.50483  0.017076157  0.016622348           16 
 2790000   0.80632858   -7.7657118     571.0131  0.017055349  0.016616153           15 
 2791000   0.82464381   -7.7550873    573.36424  0.017119439  0.016609972           20 
 2792000   0.79610029   -7.7432663    572.23952  0.017079737  0.016603794           63 
 2793000   0.80257297   -7.7417716    572.75104  0.017088884  0.016597617           33 
 2794000   0.78929082   -7.7603652     572.2252  0.017067084  0.016591443           15 
 2795000   0.79133467    -7.763355    572.86249  0.017079979  0.016585266           19 
 2796000   0.81268153   -7.7669078    572.14328  0.017052434  0.016579089           20 
 2797000   0.80185773   -7.7356963    573.96508  0.017100616  0.016572933           14 
 2798000   0.81588475   -7.7752132    573.46079  0.017079485  0.016566774           26 
 2799000   0.81085809   -7.7663147    573.76851  0.017082545  0.016560603           11 
 2800000   0.82014821   -7.7803243    572.63657  0.017042755   0.01655443           19 
 2801000    0.7956717   -7.7913904    572.07112  0.017019848  0.016548236           45 
 2802000   0.81914705   -7.7671018    572.49133  0.017026271  0.016542048           28 
 2803000    0.8023316   -7.7956423    573.05143  0.017036848  0.016535886           29 
 2804000   0.78948758   -7.7751886    572.09771  0.017002429  0.016529709           21 
 2805000   0.80738106   -7.7955326    572.12837  0.016997278  0.016523513           32 
 2806000   0.80224248   -7.7856088    573.54798   0.01703338  0.016517327           27 
 2807000   0.79881075   -7.7860719     572.3191  0.016990829  0.016511136           11 
 2808000   0.79304143   -7.7674822    571.31514  0.016954984   0.01650497            9 
 2809000   0.79564543   -7.7942048     571.0536  0.016941189  0.016498759           22 
 2810000   0.79789357   -7.8055861     571.1545  0.016938153   0.01649255           23 
 2811000   0.81615209   -7.7574086     572.5915  0.016974727  0.016486346           19 
 2812000   0.79940258   -7.7929978    571.21231  0.016927818  0.016480169           19 
 2813000   0.79127965   -7.7897222    571.93745  0.016943283  0.016473996           13 
 2814000   0.80073314       -7.763    572.55771   0.01695563  0.016467818           21 
 2815000   0.81097442   -7.7385202    573.60863  0.016980717  0.016461682            9 
 2816000   0.79627628   -7.7471695    572.69012  0.016947506   0.01645555           10 
 2817000   0.81147106   -7.7699235    573.78165   0.01697378  0.016449416           13 
 2818000   0.79804302   -7.7660522     572.4392  0.016928058  0.016443249           20 
 2819000   0.80512338   -7.7556807    574.02339  0.016968883  0.016437105            9 
 2820000   0.80824207    -7.755844    572.86909  0.016928756  0.016430957           10 
 2821000   0.79081757   -7.7398557    573.42231  0.016939097  0.016424811           16 
 2822000   0.81768889   -7.7243474    573.46096  0.016934236   0.01641864            8 
 2823000   0.78376957   -7.7746667    571.60653  0.016873495  0.016412502            8 
 2824000    0.7968052   -7.7298467    573.86447   0.01693415  0.016406363            7 
 2825000    0.7927179   -7.7706156    572.16351   0.01687798  0.016400237            8 
 2826000    0.8179521   -7.7604564       573.25  0.016904046   0.01639411           14 
 2827000    0.8038307   -7.7534369    573.83999  0.016915458  0.016387979           14 
 2828000   0.80768606   -7.7582609    573.78644  0.016907898   0.01638185            8 
 2829000   0.79734988   -7.7964237    572.59526  0.016866833  0.016375729           12 
 2830000   0.80913957   -7.7860623    572.84742  0.016868299  0.016369589           14 
 2831000    0.8114136    -7.784717    572.50993  0.016852406  0.016363463           17 
 2832000    0.8118543   -7.7774954    573.62139   0.01687916  0.016357328           28 
 2833000    0.8087342   -7.8075002    572.22654  0.016832173  0.016351142           13 
 2834000   0.79927213   -7.7966366    573.52513  0.016864418  0.016344982            7 
 2835000   0.79881571    -7.766815    573.47117  0.016856883   0.01633881            8 
 2836000    0.8006547   -7.7725848    572.73786  0.016829392  0.016332663           21 
 2837000   0.80308395   -7.7815193    574.56927  0.016877255  0.016326522           28 
 2838000    0.7893812   -7.7794875     574.4121  0.016866693  0.016320387           61 
 2839000   0.79655801   -7.7924196    572.87506  0.016815635  0.016314257           26 
 2840000    0.7792848   -7.7887228    575.04105   0.01687327  0.016308124           21 
 2841000   0.78070285   -7.7979163    572.53478  0.016793816  0.016301995           16 
 2842000   0.79834485    -7.779095    573.78382  0.016824531  0.016295871           21 
 2843000   0.81143916   -7.7982894    572.19552  0.016772058  0.016289724           16 
 2844000   0.79764901   -7.8088817    572.51678  0.016775574  0.016283563           16 
 2845000   0.80003852   -7.8040158    572.96235  0.016782729  0.016277392           23 
 2846000   0.80102478    -7.822745    573.60562  0.016795667  0.016271247           15 
 2847000   0.78771083   -7.8155687    571.91934  0.016740409  0.016265092           29 
 2848000   0.81615229   -7.7997907    570.81095  0.016702099  0.016258954           17 
 2849000   0.79276977    -7.828501    572.40726  0.016742929  0.016252809           31 
 2850000   0.77366799   -7.7921555    572.90229  0.016751529  0.016246674           29 
 2851000   0.78954528   -7.8048448    572.34031  0.016729227  0.016240531           54 
 2852000   0.78718637   -7.8235114    571.75617  0.016706293  0.016234373           38 
 2853000   0.79856009   -7.8285277    571.13457  0.016682281  0.016228237           19 
 2854000   0.79270388   -7.8390788    570.49545  0.016657774  0.016222098           46 
 2855000   0.79924143   -7.8466554     572.4195    0.0167081  0.016215962           24 
 2856000   0.80210517   -7.8085453    573.11839  0.016722642  0.016209839           68 
 2857000   0.80331224   -7.8111645    572.78006  0.016706921  0.016203696           33 
 2858000   0.78981601    -7.833993     572.2184  0.016684698  0.016197575           24 
 2859000   0.79811629   -7.8049671    573.14071  0.016705745  0.016191466           23 
 2860000    0.7780122   -7.8197439    572.54152  0.016682445  0.016185356           37 
 2861000   0.77798785   -7.8151918    572.52578  0.016676156  0.016179248           40 
 2862000   0.80908162   -7.7927173    574.52231  0.016728462   0.01617315           30 
 2863000   0.79960545   -7.7873821    573.99558  0.016707288   0.01616709           30 
 2864000   0.78774336   -7.7989833    573.48054  0.016686468  0.016161023           45 
 2865000   0.79453091   -7.8045562    572.93229  0.016664697  0.016154969           30 
 2866000   0.80142345   -7.7659082    575.38199  0.016730111  0.016148922           35 
 2867000   0.78479547   -7.8288411    573.01593  0.016655503  0.016142846           46 
 2868000   0.79738836    -7.785051    574.24661  0.016685455  0.016136791           32 
 2869000   0.80519455   -7.7973657    574.13225  0.016676317  0.016130768           47 
 2870000   0.77266699   -7.7740855    575.33881   0.01670554  0.016124744           21 
 2871000   0.81551769   -7.7683206    574.37299  0.016671688  0.016118739           24 
 2872000   0.80618222   -7.7717479     574.9383  0.016682286  0.016112734           18 
 2873000   0.79065274    -7.810522    573.60499  0.016637806  0.016106694           19 
 2874000   0.79947305   -7.8069825    573.72216  0.016635414   0.01610066           18 
 2875000    0.7910951   -7.7886745    574.37036  0.016648416  0.016094627           21 
 2876000   0.77907261   -7.7899647     574.8687  0.016657067   0.01608861           27 
 2877000   0.80256299   -7.7935804    573.62514  0.016615257  0.016082609           27 
 2878000   0.80526745   -7.7932431    575.92182  0.016675985  0.016076612           17 
 2879000    0.7838076   -7.7877611     574.6965  0.016634726  0.016070607           31 
 2880000   0.78879241   -7.8072097    573.17524  0.016584932    0.0160646           52 
 2881000   0.79804622   -7.8111372    573.49438  0.016588406  0.016058577           46 
 2882000   0.81240724   -7.8191601    574.75557  0.016619118  0.016052553           58 
 2883000   0.79794131   -7.8244243    573.94212   0.01658984  0.016046527           27 
 2884000   0.79539414   -7.7955003     572.5998  0.016545302  0.016040509           18 
 2885000   0.78042722   -7.7988854    574.17912  0.016585186  0.016034499           31 
 2886000   0.78791078   -7.8092168    573.79376  0.016568311  0.016028464           47 
 2887000   0.78860177   -7.8366006    573.77293  0.016561971  0.016022413           44 
 2888000   0.80121107   -7.7881801    575.17487  0.016596689  0.016016384           55 
 2889000   0.80521754   -7.8325352    572.30979  0.016508301  0.016010336           28 
 2890000   0.78010203   -7.8068231    573.56892  0.016538896  0.016004292           41 
 2891000   0.79246981   -7.8282882    571.72268  0.016479957   0.01599825           50 
 2892000   0.79554211   -7.7730614    573.55189  0.016526968  0.015992211           44 
 2893000   0.78933197   -7.8199178     573.1623  0.016510033  0.015986184           34 
 2894000   0.77503867    -7.833934    573.41583  0.016511628  0.015980142           54 
 2895000   0.79985247   -7.8313268    573.49513  0.016508208  0.015974088           47 
 2896000   0.78701873   -7.8078246    572.45686  0.016472631  0.015968026           51 
 2897000    0.7973151   -7.8440457    573.16441  0.016487297  0.015961987           55 
 2898000   0.78182619   -7.8196736    572.62489  0.016466094  0.015955948           46 
 2899000   0.79177278   -7.8270041    574.10906  0.016503077  0.015949906           47 
 2900000   0.78435428    -7.819807     573.5172  0.016480379  0.015943853           40 
 2901000   0.77720674   -7.8161969    574.19946  0.016494297  0.015937813           74 
 2902000   0.77891643   -7.8135663    573.57708  0.016470741  0.015931795           70 
 2903000   0.78901882     -7.82586    573.11434  0.016451784  0.015925763           70 
 2904000   0.78739803   -7.7981927    574.55051  0.016487331  0.015919715           61 
 2905000   0.78268278   -7.8139786    573.98198  0.016465347  0.015913658           60 
 2906000   0.77735963   -7.8307879    573.32977  0.016440978  0.015907619           52 
 2907000   0.79779426   -7.8189926    572.93766  0.016424082  0.015901575           63 
 2908000   0.80531219   -7.7891657    575.18632  0.016482872  0.015895546           47 
 2909000   0.78074132   -7.7958427    574.28015  0.016451248   0.01588954           57 
 2910000   0.79407001   -7.8096008    573.66021  0.016427841  0.015883548           39 
 2911000   0.79014997   -7.8155977    572.03267  0.016375606  0.015877508           71 
 2912000   0.79013222    -7.796211    573.73088  0.016418581   0.01587151           47 
 2913000    0.8075793   -7.8022878    575.47671  0.016462888  0.015865522           30 
 2914000   0.77528784   -7.8281983    574.54829  0.016430688  0.015859556           36 
 2915000   0.80206358   -7.7918974    575.46722  0.016451321  0.015853566           46 
 2916000   0.78970427   -7.7968775     575.2604  0.016439769   0.01584759           34 
 2917000   0.77483783   -7.8054584    573.50407  0.016383958  0.015841614           46 
 2918000   0.78900986   -7.7806095    575.51267  0.016435706   0.01583564           37 
 2919000   0.79696649   -7.8052109    573.80719  0.016381386  0.015829668           36 
 2920000   0.79464274   -7.8154497    574.13431  0.016385112  0.015823685           28 
 2921000   0.78534957   -7.7948396    573.83411  0.016370938  0.015817736           18 
 2922000   0.80069408   -7.7959588    574.55605  0.016385924  0.015811771           19 
 2923000   0.78825509   -7.8282023    574.14359  0.016368559  0.015805779           28 
 2924000   0.78083506   -7.8462898     573.8136  0.016353557  0.015799806           36 
 2925000   0.78961444   -7.8118572    573.97817  0.016352655  0.015793828           16 
 2926000   0.78037659   -7.8183854    575.44204  0.016388757  0.015787828           12 
 2927000   0.78506485   -7.8124754    573.93425   0.01634023  0.015781845           26 
 2928000   0.77622588   -7.8155318    573.62184  0.016325758  0.015775859           24 
 2929000   0.77959885   -7.8461901    573.58276  0.016319073  0.015769886            9 
 2930000   0.77817247   -7.7800567    574.30016  0.016333907  0.015763903           22 
 2931000   0.78331995   -7.8690228    572.94104  0.016289692   0.01575792           16 
 2932000   0.78096788   -7.8251776     574.2356   0.01632093  0.015751917           15 
 2933000   0.78550488   -7.7909258    574.82325  0.016332062  0.015745953           17 
 2934000   0.75836954   -7.8141147    574.09791  0.016305894  0.015739966           11 
 2935000   0.79351066   -7.8171548    574.67367  0.016316686  0.015733973           29 
 2936000   0.79351172   -7.8259595    572.40187  0.016246647  0.015727984           27 
 2937000   0.77731428   -7.8426664    574.23588  0.016293153  0.015722002           15 
 2938000   0.77845458   -7.8457029    575.38589  0.016320226  0.015716003           11 
 2939000   0.79172554   -7.8286297    572.89829  0.016244139  0.015710019           18 
 2940000   0.79611421   -7.8069195    574.34512  0.016279624   0.01570405           55 
 2941000   0.77569374   -7.8121939    575.02406  0.016293326  0.015698085           25 
 2942000   0.76471329   -7.8364812    572.99004  0.016230173  0.015692109           24 
 2943000   0.78953679   -7.8674141    572.63456  0.016214593  0.015686129           34 
 2944000   0.78677673   -7.8378654    573.65903  0.016238084  0.015680141           24 
 2945000    0.7681688   -7.8482253    572.74649  0.016206748  0.015674151           52 
 2946000   0.77494937   -7.8436169    573.07121  0.016210432  0.015668174           53 
 2947000   0.78489791   -7.8152556    574.48511  0.016244913  0.015662213           50 
 2948000   0.77839027   -7.8179311    573.17453  0.016202356  0.015656261           20 
 2949000   0.79120125    -7.835147    574.03949  0.016221304  0.015650297           28 
 2950000   0.77015579   -7.8696516    573.14246  0.016190465  0.015644312           23 
 2951000   0.78235804    -7.834243    574.18829  0.016214512  0.015638339           24 
 2952000   0.77195411   -7.8590242    572.81801  0.016170337  0.015632367           22 
 2953000   0.78815964   -7.8500793      574.207  0.016204058   0.01562638           32 
 2954000   0.78871043   -7.8721885    572.52095  0.016151008  0.015620401           31 
 2955000   0.78873029   -7.8752067    571.91107  0.016128344  0.015614406           29 
 2956000   0.78920263   -7.8596023    573.45298  0.016166356   0.01560841           52 
 2957000   0.77753669   -7.8635595    573.06454  0.016149942  0.015602426           34 
 2958000   0.75891027   -7.8513102    573.24542  0.016149578  0.015596435           47 
 2959000   0.78117275   -7.8650782    574.22335  0.016171661  0.015590449           17 
 2960000   0.78070984   -7.8527856    572.81339  0.016126503  0.015584483           49 
 2961000   0.78752971   -7.8810319    572.74388  0.016119101  0.015578479           39 
 2962000   0.76630219   -7.8773667    574.37238  0.016159475  0.015572478           26 
 2963000    0.7816207   -7.8715585    571.76586  0.016080714  0.015566478           30 
 2964000   0.77264614   -7.8769883     572.3863  0.016092732  0.015560473           32 
 2965000   0.76919573   -7.8652907    572.55993  0.016092185  0.015554472           34 
 2966000   0.76378055   -7.8823354    573.63025  0.016116831  0.015548469           45 
 2967000   0.78964926   -7.8840404    572.11047  0.016068713  0.015542514           43 
 2968000   0.78371865   -7.8649646    572.87078  0.016084647  0.015536524           93 
 2969000    0.7817942   -7.8365197    573.07268  0.016084896  0.015530563           90 
 2970000   0.77069558   -7.8977598    570.73018  0.016013754  0.015524589           61 
 2971000   0.77719335    -7.859838    572.72171  0.016064224  0.015518622           32 
 2972000   0.79378913   -7.9067118     572.6629   0.01605717  0.015512651           31 
 2973000   0.76890572   -7.8667678     573.6049  0.016078173  0.015506696           24 
 2974000   0.78158676   -7.8598999    574.48875  0.016097533  0.015500756           25 
 2975000   0.78426419   -7.8660531    573.38388  0.016061173  0.015494815           25 
 2976000   0.77812665   -7.8742474    573.63216  0.016062729  0.015488851           59 
 2977000   0.79022475   -7.8862687    571.45174  0.015996298  0.015482853           39 
 2978000   0.77855507   -7.8953996    573.03807  0.016035317   0.01547689           36 
 2979000   0.78385365   -7.8625676    571.71376  0.015992888  0.015470922           31 
 2980000   0.76408651   -7.8508252    574.07111  0.016053443  0.015464967           30 
 2981000   0.77165209   -7.8500028    574.27822  0.016053847  0.015459012           29 
 2982000    0.7790233    -7.876151    572.34038   0.01599431  0.015453028           24 
 2983000   0.79545364   -7.8758469    572.48172  0.015992896  0.015447063           19 
 2984000   0.77093438   -7.8680968    573.86212  0.016026087  0.015441109           38 
 2985000   0.76568311   -7.8586014    573.76639  0.016018046  0.015435181           69 
 2986000   0.76830037   -7.8706005    573.92274  0.016017045  0.015429242           27 
 2987000   0.77988116    -7.852232    573.93157  0.016011929  0.015423304           20 
 2988000   0.77144101    -7.865442    573.49053   0.01599427  0.015417363           41 
 2989000   0.76375058   -7.8359179    574.04199  0.016004293  0.015411426           22 
 2990000   0.77499917   -7.8559791     574.2559  0.016004902  0.015405509           35 
 2991000    0.7755226   -7.8954464    572.28327  0.015944591  0.015399568           19 
 2992000   0.76099802   -7.8583223    573.09078  0.015961753  0.015393626           43 
 2993000   0.77620355   -7.8647367     574.1944  0.015987148  0.015387707           17 
 2994000   0.76996436   -7.8650739    572.90188  0.015945833  0.015381797           22 
 2995000    0.7951976   -7.8708448    573.69738  0.015962643  0.015375904           23 
 2996000   0.78265807   -7.8503227    573.99159  0.015965498  0.015369996           26 
 2997000   0.77536173   -7.8930531    572.72124  0.015924848  0.015364079           22 
 2998000   0.76519755   -7.8948368    573.39826  0.015938355  0.015358167           44 
 2999000   0.76348732   -7.8661074    574.31594   0.01595854  0.015352223           21 
 3000000   0.76546666   -7.8798799    573.11655  0.015919904  0.015346292           18 
 3001000   0.75951218   -7.8863775    573.06052  0.015913044  0.015340384           14 
 3002000    0.7610807   -7.8683396     573.9569  0.015932625  0.015334477           10 
 3003000   0.78181352   -7.8593996    573.20337   0.01590641  0.015328584           22 
 3004000   0.76773687   -7.8643561    574.34309  0.015932731  0.015322679           57 
 3005000   0.76777116   -7.8655891    574.84692  0.015941401  0.015316784           15 
 3006000   0.76507124   -7.8841722    573.26581  0.015892266  0.015310902           21 
 3007000    0.7675012   -7.8828013    573.13824  0.015883445  0.015304979           20 
 3008000    0.7791992   -7.8886328    573.13637  0.015878113  0.015299047           24 
 3009000   0.77332664    -7.917099    572.97844  0.015868462  0.015293114           33 
 3010000   0.76945695   -7.9031305     572.0665  0.015837943  0.015287188           14 
 3011000   0.77577138   -7.9011179    571.80707  0.015825503  0.015281265           16 
 3012000   0.77903275   -7.8966295    573.01456  0.015853657  0.015275347           24 
 3013000     0.750379    -7.902347    572.96131  0.015846922  0.015269447           25 
 3014000   0.78118867   -7.8975391    573.08773   0.01584516  0.015263535           24 
 3015000   0.77459957   -7.8952682    572.60588  0.015826586  0.015257604           25 
 3016000   0.77325098   -7.8875836    573.49229   0.01584583  0.015251692           29 
 3017000   0.76921503   -7.8981431    572.04468  0.015800593  0.015245779           28 
 3018000   0.76197699   -7.9015926    574.25576   0.01585641  0.015239856           41 
 3019000   0.75556885   -7.8982288    571.59595   0.01577774  0.015233938           45 
 3020000   0.76360059   -7.8728002    573.65304  0.015829278  0.015228057           19 
 3021000   0.75885008   -7.8734307    573.81078   0.01582839  0.015222189           17 
 3022000   0.76670366   -7.8682369    574.77079  0.015849625  0.015216324           36 
 3023000   0.76626942   -7.8996835     572.8783  0.015792212  0.015210435           58 
 3024000   0.74759431   -7.8807611    573.97737  0.015817278  0.015204556           55 
 3025000   0.75402737   -7.9117858    573.48345  0.015798442  0.015198676           40 
 3026000   0.77457389   -7.9147058    572.75914  0.015773274  0.015192805           28 
 3027000   0.77485713   -7.8919581    572.92199  0.015772547  0.015186928           48 
 3028000   0.75906898   -7.9082135    574.35447  0.015806761  0.015181061           52 
 3029000   0.77109133   -7.8884245    573.84415  0.015787503  0.015175207           52 
 3030000   0.76918498   -7.8970031    575.08516  0.015816424  0.015169353           58 
 3031000   0.76601879   -7.9157679    572.61001  0.015743154  0.015163484           37 
 3032000   0.75718163   -7.9327569    573.80071  0.015770688  0.015157617           36 
 3033000   0.78771371   -7.8948155    573.30852  0.015751965   0.01515174           28 
 3034000   0.75616771   -7.9212849    573.43242  0.015750176  0.015145879           39 
 3035000   0.76842631    -7.944646    572.10041  0.015708413  0.015140018           33 
 3036000   0.77789137   -7.8894885    573.31248  0.015736508  0.015134172           46 
 3037000   0.75959858   -7.9092041    572.98359  0.015722302   0.01512832           46 
 3038000   0.75180683   -7.9061783    572.21175  0.015695955  0.015122467           54 
 3039000   0.75037387   -7.9177374    573.09735  0.015715075  0.015116618           42 
 3040000   0.76314793   -7.8788054     574.0842  0.015736957  0.015110769           52 
 3041000   0.77468482   -7.8937867    572.86445  0.015698357  0.015104932           40 
 3042000   0.78240937   -7.8862809    573.68038  0.015715548  0.015099085           24 
 3043000   0.76550499   -7.9013893    573.42066  0.015703271  0.015093244           51 
 3044000   0.76587852   -7.8870803    574.10798  0.015716929  0.015087411           43 
 3045000   0.77661906   -7.8845859    575.46526  0.015748912  0.015081585           58 
 3046000   0.77185421   -7.9059382    573.19567   0.01568165  0.015075749           54 
 3047000   0.75823833    -7.891887    573.94281  0.015696937  0.015069914           59 
 3048000   0.76398688   -7.9160852    573.38929  0.015676654  0.015064077           55 
 3049000   0.76410853   -7.9063413    573.11028  0.015663887  0.015058233           60 
 3050000   0.75215626   -7.9395169     572.4522  0.015640771  0.015052379           80 
 3051000   0.77356359   -7.9264763    574.41563  0.015689272  0.015046525           75 
 3052000   0.78382782    -7.909468    573.63411  0.015662792  0.015040695           62 
 3053000    0.7762251   -7.9075107    572.35821  0.015622836  0.015034857           65 
 3054000   0.75543811   -7.9148935    573.96397  0.015661536  0.015029032           89 
 3055000   0.75659821   -7.9330795    574.14014  0.015661215  0.015023209          142 
 3056000   0.78076246   -7.9127498    573.63667  0.015642361  0.015017381           86 
 3057000   0.75869899   -7.9143879    573.13886  0.015623674  0.015011541           66 
 3058000   0.75904533   -7.9401339    571.99606  0.015587423  0.015005713           85 
 3059000   0.77164996   -7.9378623    573.26774   0.01561697  0.014999894          108 
 3060000   0.75953716   -7.9186735    573.03902  0.015605638  0.014994064          126 
 3061000   0.75109731    -7.940887    572.48275  0.015585396  0.014988243          102 
 3062000   0.77061517   -7.9019294    573.62201  0.015611311  0.014982412          146 
 3063000   0.75641866   -7.9010285    573.26486  0.015596498  0.014976574          187 
 3064000     0.773004   -7.9123853    573.48775  0.015597469  0.014970751           99 
 3065000   0.77332656   -7.9404242    573.82042  0.015601425   0.01496492          129 
 3066000   0.76337896    -7.932371    573.06378  0.015575771  0.014959082          122 
 3067000   0.76289888   -7.9196103    573.39621  0.015579725  0.014953254           97 
 3068000   0.75902602   -7.9142611    572.20075  0.015542176  0.014947426           73 
 3069000   0.76452806    -7.954064    573.12726  0.015562269  0.014941593           89 
 3070000   0.76259283   -7.9081753    575.17219  0.015612709  0.014935786           90 
 3071000   0.75183281   -7.9092729    573.77351  0.015569671  0.014929989          106 
 3072000   0.75870643   -7.8915766    572.16079  0.015520855  0.014924195          129 
 3073000   0.77357638   -7.9320978    573.09107  0.015541031  0.014918383           73 
 3074000   0.75316715   -7.9108902    573.41224  0.015544682   0.01491257          101 
 3075000   0.76341498     -7.94395    573.41155  0.015539608  0.014906777          124 
 3076000   0.75921201   -7.9404093    571.94366  0.015494789  0.014900979          104 
 3077000   0.75263528   -7.9390499    573.83682  0.015541025   0.01489516           98 
 3078000   0.75572452    -7.926136    573.36801  0.015523284  0.014889368          103 
 3079000   0.75687158   -7.9304583    572.43134  0.015492891  0.014883561          119 
 3080000   0.75601838   -7.9187848    574.47835  0.015543245  0.014877763          102 
 3081000   0.75582987   -7.8986109     573.9256   0.01552325  0.014871977           80 
 3082000   0.74870067   -7.9118989    573.43519  0.015504953  0.014866213          127 
 3083000   0.76399624   -7.9214652    573.17118  0.015492788  0.014860441           95 
 3084000   0.77014073   -7.8931759    572.58538  0.015471935  0.014854668          110 
 3085000   0.75862491   -7.9093821    572.19436  0.015456358  0.014848892          118 
 3086000   0.75154068    -7.922374    574.37764  0.015510306  0.014843121          102 
 3087000   0.76271407   -7.9124374     574.5721  0.015510531  0.014837353          103 
 3088000   0.76291057   -7.9300611    572.90526  0.015460526   0.01483159          129 
 3089000   0.75855852   -7.9101403    574.45834  0.015497419  0.014825829          144 
 3090000   0.75045618    -7.923034    573.58113  0.015468747  0.014820072          162 
 3091000   0.75568366   -7.8966099    573.84354  0.015470817  0.014814311          120 
 3092000   0.74652581   -7.9293043    574.38123  0.015480305  0.014808574          192 
 3093000    0.7721257   -7.9366179    573.68158   0.01545645  0.014802822          189 
 3094000   0.75068741   -7.9298275    572.55575  0.015421131  0.014797058          198 
 3095000   0.76023448   -7.9297166    572.95781  0.015426974  0.014791292          213 
 3096000   0.76762309   -7.9379955    573.55849  0.015438159  0.014785541          233 
 3097000   0.74879021   -7.9317715    573.49527  0.015431473  0.014779797          227 
 3098000   0.74599029   -7.9209611    572.76138  0.015406751  0.014774052          227 
 3099000   0.74912606   -7.9362587    572.59775   0.01539738   0.01476832          235 
 3100000   0.76411918   -7.9231261    573.75254  0.015423456  0.014762574          231 
 3101000   0.75857966   -7.9459049    572.59972  0.015387502  0.014756816          322 
 3102000   0.75561207   -7.9234379     574.2177  0.015426007  0.014751064          313 
 3103000   0.75562043   -7.9438577    574.14814  0.015419168  0.014745319          304 
 3104000   0.76485876   -7.9660804    572.68568  0.015374938  0.014739562          334 
 3105000    0.7628758   -7.9279855    573.68235  0.015396735  0.014733815          246 
 3106000   0.75035749   -7.9382147    573.64875  0.015390877  0.014728081          317 
 3107000    0.7557381   -7.9368057    573.94905  0.015393977   0.01472236          294 
 3108000   0.76276998   -7.9408917    572.60824  0.015353074  0.014716633          398 
 3109000   0.76292174   -7.9581292    572.85149  0.015354656  0.014710891          365 
 3110000   0.75984353   -7.9327813    573.02904  0.015354476  0.014705141          337 
 3111000   0.75192193   -7.9626309    572.48622     0.015335   0.01469939          282 
 3112000   0.75225395   -7.9646832    573.80349  0.015365346  0.014693666          323 
 3113000   0.75268242   -7.9629215     573.6637  0.015356668  0.014687943          382 
 3114000   0.77976775   -7.9520929    573.11694  0.015337105  0.014682206          343 
 3115000   0.73590864   -7.9468837      572.513  0.015316025  0.014676472          324 
 3116000   0.76235013   -7.9475141    572.45878  0.015309659   0.01467074          370 
 3117000   0.76456073   -7.9845644    571.54983  0.015280447  0.014664985          471 
 3118000   0.75744411    -7.965291    574.11632  0.015344139  0.014659214          367 
 3119000   0.75081816   -7.9612828    572.55963  0.015297628  0.014653474          436 
 3120000     0.746661     -7.96537    573.25278  0.015311239  0.014647704          549 
 3121000   0.75038517   -7.9804821    571.44933  0.015258179  0.014641934          461 
 3122000   0.76353261   -7.9988869     571.7082  0.015260202  0.014636177          584 
 3123000   0.75155291   -7.9980103    572.15432  0.015267219  0.014630416          480 
 3124000   0.75119198   -7.9748087     571.6967  0.015250125  0.014624651          458 
 3125000   0.76257199    -7.979063    573.37877  0.015290101  0.014618906          515 
 3126000   0.75433667   -7.9783352    572.99304  0.015274926  0.014613153          452 
 3127000   0.75808419    -7.984981    571.66109  0.015234546  0.014607392          477 
 3128000   0.75182543   -7.9954466    571.34076  0.015221141  0.014601627          506 
 3129000   0.76004428    -7.993712    571.26806   0.01521434  0.014595873          468 
 3130000   0.74538338   -7.9906937    571.48471  0.015215248  0.014590122          465 
 3131000   0.75717762   -7.9794625    573.06868  0.015252546  0.014584369          574 
 3132000   0.75529521    -8.007083    572.23733  0.015225557  0.014578616          490 
 3133000    0.7468568   -7.9935043    572.62964  0.015231132   0.01457287          518 
 3134000   0.76861173   -7.9911319    571.97834  0.015208954  0.014567104          548 
 3135000   0.74004102   -7.9664743     572.9549  0.015230061  0.014561355          596 
 3136000    0.7486873   -7.9893485    573.40586  0.015237188    0.0145556          545 
 3137000   0.75217741   -8.0062746    571.56546  0.015183441  0.014549855          642 
 3138000   0.71617838    -7.994252    570.57498  0.015152299  0.014544093          542 
 3139000   0.75039677   -7.9900393    571.82408  0.015180633  0.014538316          597 
 3140000    0.7314018   -7.9939866    572.73903   0.01520008  0.014532562          625 
 3141000   0.75048264   -7.9957829    571.42716  0.015160436  0.014526796          577 
 3142000   0.74586287   -8.0306545    571.34565  0.015153449  0.014521029          633 
 3143000   0.73696766   -8.0049436    570.20714  0.015118441  0.014515236          707 
 3144000   0.77030658   -8.0053163    570.81175  0.015129658  0.014509452          674 
 3145000   0.74429018   -8.0262807     571.0759  0.015131847  0.014503686          711 
 3146000   0.73635708   -8.0016619    570.73065  0.015117892  0.014497908          725 
 3147000   0.73766398   -8.0232338    571.67975   0.01513822   0.01449213          676 
 3148000   0.74825869   -8.0181981    569.12853  0.015065876  0.014486346          768 
 3149000   0.74191035   -8.0123311    570.27156   0.01509134  0.014480558          721 
 3150000     0.740196   -8.0023276    571.60983  0.015121953  0.014474784          668 
 3151000   0.74621087   -8.0370256    570.76824  0.015094897  0.014469013          720 
 3152000   0.74832775   -8.0229773    571.07998   0.01509835  0.014463219          706 
 3153000   0.74716448   -8.0257045    571.34448  0.015100552  0.014457451          678 
 3154000   0.74765352    -8.037299    570.74457  0.015079914  0.014451664          757 
 3155000    0.7599025   -8.0349183     570.1496  0.015059419  0.014445888          721 
 3156000   0.74415043   -8.0364046    570.53283  0.015064766  0.014440114          659 
 3157000   0.76198323    -8.029691    569.53249  0.015033589  0.014434349          714 
 3158000   0.74658418   -8.0282344    571.60635  0.015083554  0.014428615          787 
 3159000   0.75080522   -8.0151564    572.78438  0.015109855  0.014422875          756 
 3160000   0.74764526   -8.0256578     571.9328  0.015082616   0.01441713          767 
 3161000   0.75415795   -8.0553608    570.06286  0.015028547  0.014411383          843 
 3162000    0.7276173   -8.0364292      571.649  0.015065597  0.014405642          758 
 3163000   0.74920136    -8.024667    570.29168  0.015025073  0.014399885          904 
 3164000   0.74436967   -8.0667619     569.4946  0.014999331   0.01439411          854 
 3165000   0.76748252    -8.048292    570.10466  0.015010655  0.014388345          952 
 3166000   0.74932265     -8.02391    571.63381  0.015046163  0.014382582          822 
 3167000    0.7510543   -8.0635382    570.60442  0.015014325  0.014376823          927 
 3168000   0.74266399   -8.0439224    570.29167  0.015001359  0.014371062          916 
 3169000   0.74513854   -8.0440684    570.41887   0.01499997  0.014365299          920 
 3170000   0.74059268   -8.0376247    571.27344  0.015017704  0.014359557          845 
 3171000   0.73139174    -8.065742    569.52705  0.014967073  0.014353804          893 
 3172000   0.76300326   -8.0307251     570.8468  0.014997026  0.014348068          998 
 3173000   0.77122299   -8.0400455    570.37561  0.014979925   0.01434233         1025 
 3174000   0.74297913   -8.0488782    569.93822  0.014963721  0.014336574          925 
 3175000   0.75047411   -8.0602418     570.2953   0.01496838  0.014330799          996 
 3176000   0.76006564   -8.0895493    569.41591  0.014940594  0.014325045          990 
 3177000   0.75760353   -8.0615817    569.11174  0.014927913  0.014319289         1062 
 3178000    0.7449302   -8.0889307    569.33637  0.014929106  0.014313528         1070 
 3179000   0.73313388   -8.0613904    571.27096  0.014975122  0.014307753         1136 
 3180000   0.74873157   -8.0902195    569.94424  0.014935646  0.014301984         1024 
 3181000   0.74065411   -8.0704443    569.40768  0.014916894  0.014296218          998 
 3182000   0.74277867   -8.0599791    570.51688  0.014941255  0.014290447         1008 
 3183000   0.75509014   -8.0432844    569.06203  0.014898472  0.014284685         1108 
 3184000   0.74310362   -8.0497356    570.04607  0.014919547  0.014278919         1092 
 3185000   0.73018261   -8.0748706    568.94409   0.01488603   0.01427315         1091 
 3186000   0.73780839   -8.0705561    568.17442  0.014861227  0.014267387         1134 
 3187000   0.73804486   -8.0864931    569.54131  0.014892305  0.014261621         1137 
 3188000   0.73242673   -8.0655492    570.17746  0.014904262  0.014255865         1071 
 3189000   0.74871344   -8.0782907    569.64183  0.014885592  0.014250123         1076 
 3190000   0.76959433   -8.1074115    569.06754  0.014865923   0.01424437         1097 
 3191000   0.74000487   -8.1021461    569.47566  0.014871923  0.014238624         1165 
 3192000   0.72704312   -8.1012688    569.81971  0.014876245  0.014232857         1074 
 3193000    0.7475198   -8.1034668    569.01652  0.014850624  0.014227088         1098 
 3194000   0.74346844   -8.0895323    569.64459  0.014862362  0.014221334         1084 
 3195000   0.72727282   -8.0792165    568.79936  0.014835664  0.014215569         1180 
 3196000   0.74931989   -8.1010372     569.3754  0.014846042  0.014209806         1175 
 3197000   0.73706159   -8.0789262    568.79058  0.014826154  0.014204045         1153 
 3198000   0.73380106   -8.0806165     568.2979   0.01480868  0.014198273         1165 
 3199000   0.75197511   -8.1279064    567.28321  0.014777618  0.014192502         1245 
 3200000   0.73403496   -8.1202797    568.87217   0.01481438  0.014186755         1210 
 3201000   0.73629201   -8.1152584    568.09112  0.014789418  0.014180996         1275 
 3202000   0.73460129   -8.1135365    567.92235  0.014780407  0.014175228         1232 
 3203000   0.74761851   -8.0886749    568.50306  0.014790901  0.014169467         1285 
 3204000   0.73512423   -8.1295242    567.12396  0.014750415  0.014163708         1310 
 3205000   0.74302832   -8.1154526    568.90603  0.014792148  0.014157956         1346 
 3206000   0.73699434   -8.1021991    568.13292  0.014767439  0.014152206         1278 
 3207000   0.74158696    -8.110455    569.45171  0.014797103  0.014146463         1239 
 3208000   0.73080059   -8.0997974    570.01888  0.014807224  0.014140718         1291 
 3209000   0.72927402    -8.114277    568.63643  0.014766709  0.014134973         1356 
 3210000    0.7269083   -8.1342752    567.61657  0.014735633  0.014129221         1314 
 3211000    0.7459971   -8.1222173     568.1914  0.014745962  0.014123469         1419 
 3212000   0.73904291   -8.1241935    567.79348  0.014731047  0.014117716         1415 
 3213000    0.7308412   -8.1240604    569.49835   0.01477068  0.014111958         1414 
 3214000   0.74129109   -8.1327987    567.53277   0.01471512  0.014106202         1504 
 3215000   0.74415145   -8.1130372    568.74778  0.014742037  0.014100454         1440 
 3216000   0.73857339   -8.1196898    569.18867  0.014748877  0.014094711         1448 
 3217000   0.74166391   -8.1233177    567.85967  0.014709866  0.014088966         1574 
 3218000   0.74529274    -8.129129    568.12744  0.014712229  0.014083222         1500 
 3219000   0.73463454   -8.1365478    568.87089  0.014726905  0.014077454         1581 
 3220000   0.73015662   -8.1453023    568.51244  0.014713055  0.014071702         1524 
 3221000   0.73700204   -8.1650802    567.77032  0.014689287  0.014065952         1627 
 3222000   0.74535836   -8.1434449    569.04868  0.014717791  0.014060191         1674 
 3223000   0.73576346   -8.1578367    566.63675  0.014650862  0.014054435         1758 
 3224000   0.72591398   -8.1683883    567.23527  0.014661788  0.014048659         1764 
 3225000   0.73725909   -8.1464557    567.44595  0.014662686  0.014042887         1765 
 3226000   0.74372107    -8.185558    568.05103  0.014673771  0.014037125         1868 
 3227000   0.74014128   -8.1562809    566.58314  0.014631317  0.014031355         1756 
 3228000    0.7390908   -8.1768685    567.14724  0.014641348  0.014025585         1772 
 3229000    0.7395042   -8.1719649    568.03709  0.014659778  0.014019823         1878 
 3230000   0.74642914   -8.1988071    566.19578  0.014607734  0.014014038         1905 
 3231000   0.73231072   -8.1826219    567.35836  0.014633198  0.014008257         1826 
 3232000   0.73645113   -8.1946797    567.53124  0.014633128  0.014002487         1933 
 3233000   0.73138932   -8.1705149    566.46624  0.014601151  0.013996703         1952 
 3234000   0.73036905   -8.1801135    566.59022  0.014599831  0.013990916         2034 
 3235000   0.73209022   -8.1649767     566.4432   0.01459153  0.013985137         2040 
 3236000    0.7314035   -8.1935234    567.19554  0.014606395  0.013979359         2043 
 3237000   0.74559866   -8.1912348    566.23355  0.014577117   0.01397357         2074 
 3238000   0.73611463   -8.2035494    566.21625   0.01457217  0.013967793         2092 
 3239000   0.73314314   -8.2025436    566.68575  0.014579751  0.013962022         2143 
 3240000   0.75673168   -8.2107472    565.52868  0.014545491  0.013956238         2204 
 3241000   0.74766496   -8.1937457    566.20185  0.014558311  0.013950457         2259 
 3242000   0.73623732   -8.2313585    564.77507  0.014517147  0.013944661         2152 
 3243000    0.7097925   -8.2084311    566.22997  0.014550056  0.013938872         2319 
 3244000    0.7308033   -8.1982747    565.68561  0.014531587  0.013933075         2260 
 3245000   0.71694013   -8.2221003    565.76063  0.014529035  0.013927273         2343 
 3246000   0.73338832   -8.2297322    565.59296  0.014520255  0.013921474         2364 
 3247000   0.72303595   -8.1915007    565.94431    0.0145248  0.013915679         2357 
 3248000   0.72783501   -8.2271571    565.87423   0.01451853  0.013909877         2468 
 3249000   0.74255387   -8.2186535    564.95872   0.01449058   0.01390408         2377 
 3250000   0.72392896   -8.2661699    564.95697  0.014486076   0.01389827         2438 
 3251000   0.72327981   -8.2385574    565.09204  0.014485083  0.013892463         2462 
 3252000   0.71169473   -8.2269391    564.70814  0.014470791  0.013886649         2622 
 3253000   0.72907459   -8.2350105    566.56635  0.014513945  0.013880842         2580 
 3254000    0.7196162   -8.2423927    564.81046  0.014464517  0.013875025         2559 
 3255000   0.71127056   -8.2357915    564.80581  0.014459954  0.013869216         2546 
 3256000   0.73544771   -8.2554662     564.5045  0.014447802  0.013863396         2676 
 3257000   0.74183595   -8.2671655    565.67409  0.014473291  0.013857572         2722 
 3258000   0.75489501   -8.2719254    564.48886  0.014438532  0.013851749         2599 
 3259000   0.72305001   -8.2854698    563.14025  0.014399618  0.013845919         2665 
 3260000   0.74156378   -8.2542528    563.58633  0.014406603  0.013840084         2695 
 3261000   0.72505391   -8.2915894    563.96256    0.0144118  0.013834254         2757 
 3262000   0.72328215   -8.2878695    564.14626  0.014412075  0.013828415         2604 
 3263000   0.74175028   -8.2562406     564.8323  0.014425179  0.013822581         2675 
 3264000   0.73316149   -8.2775946    565.04873  0.014426285  0.013816758         2699 
 3265000   0.73161889   -8.2931161    562.85364  0.014365841  0.013810929         2760 
 3266000   0.73482114   -8.2878121    564.03891  0.014391685  0.013805097         2792 
 3267000   0.72392722   -8.2997716    563.21527  0.014366271  0.013799268         2868 
 3268000   0.71678217   -8.2668232    563.99316  0.014381711  0.013793436         2857 
 3269000   0.72719657   -8.2709353    563.52988  0.014365501  0.013787608         2825 
 3270000   0.71363686   -8.2750923    563.93523  0.014371438  0.013781766         2908 
 3271000   0.73950474    -8.303147     561.8769  0.014314606  0.013775926         2918 
 3272000   0.73868463   -8.3098856    563.74758  0.014357874   0.01377008         2853 
 3273000   0.72793057   -8.2944588    562.91691  0.014332338   0.01376424         2796 
 3274000   0.72190721   -8.2995154    562.94752   0.01432874  0.013758401         2824 
 3275000   0.74076628   -8.3079651    563.03612  0.014326619  0.013752565         2937 
 3276000   0.74363652   -8.2960958    562.72047  0.014314216  0.013746725         2976 
 3277000   0.71929973   -8.2915485    561.99915  0.014291505  0.013740887         3099 
 3278000   0.70873313   -8.3048752     563.3464  0.014321395  0.013735049         2981 
 3279000   0.73569768   -8.3025036    562.61887  0.014298538  0.013729208         2925 
 3280000   0.72144696   -8.3253614      561.244  0.014259248  0.013723369         3070 
 3281000   0.71889949   -8.3364113    561.68398  0.014266077  0.013717527         3093 
 3282000    0.7322511   -8.3043457    562.59791  0.014284936  0.013711699         3097 
 3283000   0.72584964   -8.3105473    562.27632  0.014272421   0.01370586         3064 
 3284000   0.71664808   -8.3274206    561.58766    0.0142506  0.013700018         3084 
 3285000   0.72965514   -8.3133023    561.45742  0.014242958  0.013694182         3033 
 3286000   0.74069265   -8.3069375    562.68995  0.014269881  0.013688357         3063 
 3287000   0.70832028   -8.2750682    563.95327  0.014297568  0.013682533         3058 
 3288000   0.72307278   -8.3203346    563.10795  0.014271795  0.013676706         3181 
 3289000   0.72258052   -8.3433454    562.40834   0.01424973  0.013670873         3178 
 3290000    0.7291659   -8.3451456    561.40251  0.014219922  0.013665032         3167 
 3291000   0.71154229   -8.3341648      562.408  0.014241062  0.013659209         3070 
 3292000   0.71737544   -8.3521079    560.94923  0.014199808  0.013653369         3173 
 3293000   0.72736695   -8.3320541    561.65618  0.014213386  0.013647535         3182 
 3294000   0.71816017   -8.3670172    561.78083  0.014212225    0.0136417         3183 
 3295000   0.73442833   -8.3190549    561.28546  0.014195383  0.013635863         3219 
 3296000   0.71645628   -8.3360794    562.25329  0.014215546  0.013630031         3095 
 3297000    0.7173111   -8.3553662    561.20484  0.014184735  0.013624209         3201 
 3298000   0.71370803   -8.3369236    563.21041   0.01423111  0.013618382         3233 
 3299000   0.73866044   -8.3525307    561.19215  0.014175815  0.013612549         3317 
 3300000   0.72321874   -8.3711159    561.21381  0.014172066  0.013606717         3274 
 3301000   0.71910226   -8.3707468    561.18709  0.014167098  0.013600879         3220 
 3302000   0.71113254   -8.3572042    562.30862  0.014191112  0.013595046         3306 
 3303000   0.71907685   -8.3524596    560.67506  0.014145602  0.013589212         3275 
 3304000   0.72372687   -8.3705366    561.26309  0.014156151  0.013583382         3339 
 3305000    0.7273925   -8.3468992    561.62972  0.014161113  0.013577551         3321 
 3306000   0.72715456   -8.3584566     561.3422  0.014149581  0.013571726         3332 
 3307000   0.71481915   -8.3822587    561.21417  0.014142077  0.013565893         3296 
 3308000   0.74373564   -8.3564213    561.17482   0.01413681   0.01356007         3385 
 3309000   0.70843044   -8.3638183    562.18669  0.014158021  0.013554248         3276 
 3310000   0.73707147   -8.3676004    561.31701  0.014131848  0.013548428         3265 
 3311000   0.71819266    -8.340803    562.48889  0.014157075  0.013542608         3341 
 3312000   0.71225221   -8.3582527    561.65955  0.014131933  0.013536795         3276 
 3313000   0.72082108   -8.3553887    561.58927    0.0141259   0.01353098         3308 
 3314000   0.72906457   -8.3741122    560.44652  0.014092902  0.013525175         3426 
 3315000   0.72180573   -8.3922606    561.14679  0.014106254  0.013519364         3342 
 3316000   0.72447468   -8.3726485    561.31484  0.014106223  0.013513547         3363 
 3317000   0.73487535   -8.3759225    560.17598  0.014073359  0.013507745         3315 
 3318000   0.71883375   -8.3662141    559.85986  0.014061178   0.01350194         3244 
 3319000   0.72841924   -8.3928906    560.29521  0.014067872  0.013496142         3390 
 3320000   0.71336484   -8.3692138    561.14675  0.014085009  0.013490333         3388 
 3321000   0.71952625   -8.3801683    560.75189  0.014070859   0.01348454         3337 
 3322000   0.72159142   -8.3540651    560.61287  0.014063136  0.013478744         3321 
 3323000   0.70468082   -8.3646175     561.0286   0.01406933  0.013472953         3280 
 3324000   0.71487979   -8.3836904     560.8686  0.014061086  0.013467164         3379 
 3325000   0.72339051   -8.3789006    559.95631  0.014033993  0.013461372         3464 
 3326000   0.73823396   -8.4076478    560.41115  0.014041169  0.013455575         3348 
 3327000   0.71052751   -8.3723437    561.40241  0.014061778  0.013449784         3387 
 3328000   0.72596783   -8.3823503    560.53791  0.014035905  0.013443993         3450 
 3329000   0.73497226   -8.3851711    560.40686  0.014028408  0.013438209         3354 
 3330000   0.71510084    -8.400457    561.12043  0.014042053   0.01343243         3414 
 3331000   0.72848355   -8.3672572    560.76346  0.014028907  0.013426656         3360 
 3332000   0.70717703   -8.3661556     560.1226  0.014008669  0.013420888         3356 
 3333000    0.7001874   -8.3738111    560.21377  0.014006745  0.013415125         3399 
 3334000   0.71548389   -8.3895251    559.04811  0.013973408  0.013409356         3420 
 3335000   0.70714479   -8.3958216    560.34747  0.014001686   0.01340359         3422 
 3336000   0.70993492   -8.3754231    559.79993  0.013983811  0.013397816         3450 
 3337000   0.72635222   -8.3831785    560.00554  0.013984755  0.013392044         3490 
 3338000   0.71564717   -8.3751392    560.25702  0.013986844  0.013386277         3389 
 3339000   0.73038626   -8.3953867    559.55964   0.01396525  0.013380517         3378 
 3340000   0.71960236   -8.3850612    559.57687  0.013961499  0.013374758         3392 
 3341000   0.70445783   -8.3809008    560.76446  0.013986941  0.013369008         3396 
 3342000   0.71454518   -8.3835213    560.76254  0.013982708  0.013363248         3524 
 3343000   0.70123863   -8.3778203    560.01463  0.013959882  0.013357492         3414 
 3344000   0.70535718   -8.3789346    560.32361  0.013963407  0.013351737         3423 
 3345000   0.72272356   -8.3987792    560.64436  0.013967224  0.013345993         3432 
 3346000   0.71065116   -8.3824696    560.76021  0.013965935  0.013340248         3468 
 3347000   0.71883675   -8.3836099    560.42523  0.013953422  0.013334517         3319 
 3348000   0.71636626   -8.3717368    559.86945   0.01393542  0.013328779         3330 
 3349000   0.72454937   -8.3995243    559.43787   0.01392052  0.013323046         3391 
 3350000   0.71289075   -8.3855997    560.09837  0.013932795  0.013317314         3464 
 3351000   0.72957013   -8.3848816    561.26058   0.01395754   0.01331159         3428 
 3352000   0.71477712   -8.3946292    560.74631  0.013940591  0.013305872         3376 
 3353000   0.71839133    -8.398924    560.21364  0.013923194   0.01330015         3428 
 3354000   0.71343851   -8.4038014    559.53752  0.013902244  0.013294433         3389 
 3355000    0.7204605    -8.381176    560.93909  0.013932913  0.013288714         3417 
 3356000   0.71070221   -8.3908972    560.30489  0.013913014  0.013283002         3444 
 3357000   0.71156783   -8.4056072    559.82651  0.013896994  0.013277294         3425 
 3358000   0.72012667   -8.3840788    561.57128  0.013936154  0.013271585         3465 
 3359000   0.71588803   -8.4029198     560.6723  0.013909703  0.013265888         3415 
 3360000   0.73064647   -8.4222582    559.72205  0.013881995  0.013260183         3509 
 3361000   0.71414568   -8.3774138    559.78668  0.013879468  0.013254473         3497 
 3362000   0.71647542   -8.4028092    559.66525  0.013872329  0.013248771         3424 
 3363000   0.71143628   -8.4099623    559.35295  0.013860466  0.013243072         3476 
 3364000    0.7097417    -8.398953    560.60854  0.013887449  0.013237376         3489 
 3365000   0.70727824   -8.4100141    560.07321  0.013870065  0.013231679         3515 
 3366000    0.7088168   -8.3905076    559.78495  0.013858807  0.013225986         3463 
 3367000   0.70442173     -8.40599    559.10208   0.01383779  0.013220299         3503 
 3368000   0.72437541   -8.4067373    558.66291  0.013822816  0.013214618         3545 
 3369000   0.70361891   -8.4020412    559.47382  0.013838771  0.013208933         3486 
 3370000   0.70986404   -8.4000061    559.77623  0.013842142  0.013203243         3500 
 3371000   0.71831277   -8.4309007    559.66021  0.013835168   0.01319756         3413 
 3372000   0.72155991   -8.4055668    560.05886  0.013840917  0.013191881         3456 
 3373000   0.69755322   -8.4160302    559.17176  0.013814897  0.013186208         3525 
 3374000   0.71204221   -8.4136363    558.92943  0.013804817  0.013180528         3536 
 3375000   0.71335685   -8.3989647    560.54373  0.013840586  0.013174842         3543 
 3376000   0.71649475    -8.410986    559.36016  0.013807271  0.013169165         3572 
 3377000   0.69642043   -8.4016859    561.24057  0.013849585  0.013163494         3530 
 3378000   0.70231551   -8.3855546    559.37151  0.013799376  0.013157831         3488 
 3379000   0.70940711   -8.3988157    559.76678  0.013805041  0.013152159         3487 
 3380000   0.71589965   -8.4059651    558.69594  0.013774555  0.013146502         3508 
 3381000   0.71979782   -8.4052271    559.80347  0.013797778  0.013140848         3486 
 3382000   0.70459207   -8.4020239    560.16012  0.013802487  0.013135189         3491 
 3383000   0.71074156   -8.4322249    559.03892  0.013770788  0.013129535         3491 
 3384000   0.70953996   -8.3949473    559.51174  0.013778362  0.013123882         3457 
 3385000   0.71427707   -8.4276313    559.46299  0.013773092  0.013118229         3540 
 3386000   0.71240091    -8.427656    559.88304  0.013779362  0.013112586         3534 
 3387000   0.70508517   -8.4049953    558.49678  0.013741186  0.013106941         3513 
 3388000   0.71762551   -8.4275019    559.62782   0.01376495  0.013101294         3586 
 3389000   0.72505799   -8.4003789    559.64999  0.013761434  0.013095651         3531 
 3390000   0.70550106   -8.4052137    560.06839  0.013767659  0.013090007         3529 
 3391000   0.70144971   -8.4222657    560.01009  0.013762167  0.013084373         3551 
 3392000   0.71134401   -8.3897581    560.07466  0.013759696  0.013078741         3489 
 3393000   0.69921096   -8.4192955    559.74031  0.013747429  0.013073119         3535 
 3394000   0.70856733   -8.4035447    560.77252  0.013768722  0.013067491         3529 
 3395000   0.71338511   -8.4443866    560.45159  0.013756789  0.013061875         3545 
 3396000   0.71957561   -8.4236295    559.53929  0.013730352  0.013056247         3563 
 3397000   0.71784635   -8.4324166    560.10672   0.01374023  0.013050629         3506 
 3398000   0.71048289   -8.4223532    558.58848  0.013698952   0.01304501         3548 
 3399000   0.71634276   -8.4265777    559.29909  0.013712344  0.013039399         3477 
 3400000   0.70874496     -8.40957    558.82544  0.013696702   0.01303379         3429 
 3401000   0.68831174   -8.3969683    559.24978  0.013703072  0.013028181         3500 
 3402000   0.71383381   -8.4315555    558.95404    0.0136918  0.013022573         3526 
 3403000   0.70794012   -8.4034156    559.09782  0.013691297  0.013016972         3466 
 3404000   0.71697465   -8.4082522    560.53396  0.013722433  0.013011382         3409 
 3405000   0.70050373   -8.4167241     559.2395  0.013686723  0.013005791         3481 
 3406000   0.70256347    -8.419668    557.97015  0.013651648  0.013000192         3543 
 3407000   0.69980807   -8.4027086    560.40854  0.013707283  0.012994605         3481 
 3408000   0.70410434   -8.4257042    559.28516  0.013675791  0.012989019         3480 
 3409000   0.69639464   -8.4268309    559.41311  0.013674907   0.01298344         3445 
 3410000   0.71583992    -8.421536    559.89102  0.013682576  0.012977855         3470 
 3411000   0.72391924   -8.4332255    559.62254  0.013672006  0.012972276         3578 
 3412000   0.71488865   -8.4365719    558.91397  0.013650693  0.012966696         3502 
 3413000   0.71170923   -8.4276028    557.98927  0.013624115  0.012961121         3548 
 3414000   0.70113379    -8.424539    559.69768  0.013661826  0.012955552         3504 
 3415000   0.71400154    -8.430794    558.81964  0.013636399  0.012949972         3570 
 3416000   0.70603749    -8.417636    559.43167  0.013647338  0.012944397         3517 
 3417000   0.70184367   -8.4138668    558.80731  0.013628117   0.01293882         3530 
 3418000   0.70495808   -8.3878369    560.24211  0.013659111  0.012933261         3529 
 3419000   0.71263365   -8.4374274    558.54483  0.013613748  0.012927696         3519 
 3420000   0.70187238   -8.4154707    560.09795  0.013647611  0.012922134         3572 
 3421000   0.70393415   -8.4029802    558.82024  0.013612497  0.012916579         3433 
 3422000   0.70500205   -8.4430149    558.80401  0.013608124  0.012911031         3534 
 3423000   0.69503942   -8.4258244    559.89717  0.013630762  0.012905485         3525 
 3424000   0.69347954   -8.4269905    560.12955  0.013632437  0.012899939         3488 
 3425000   0.69828604   -8.4242276    558.01059    0.0135769    0.0128944         3534 
 3426000    0.7126181   -8.4305936    557.92066   0.01357075   0.01288886         3551 
 3427000   0.70076455   -8.4093641    558.83619  0.013589052  0.012883325         3448 
 3428000   0.70123006   -8.4222894    560.11283  0.013616123  0.012877794         3559 
 3429000   0.71533032     -8.41738    559.53795  0.013598181  0.012872256         3571 
 3430000   0.69354343     -8.45155    559.30617  0.013588585  0.012866724         3600 
 3431000   0.70045767   -8.4278431     559.3196  0.013584951  0.012861199         3484 
 3432000   0.70101061   -8.4441807    558.39243   0.01355848  0.012855678         3550 
 3433000   0.71585857   -8.4376446    558.12696  0.013548086  0.012850161         3506 
 3434000    0.7006815   -8.4277656    559.87115  0.013586467  0.012844638         3511 
 3435000   0.71602907    -8.417462    559.93258  0.013584002  0.012839125         3543 
 3436000   0.71473151   -8.4291199     560.2737  0.013588322  0.012833614         3471 
 3437000   0.69446043   -8.4233528    559.59124  0.013567822  0.012828107         3443 
 3438000   0.70355703   -8.4198904    559.86884  0.013570604  0.012822601         3573 
 3439000   0.70187636   -8.4352328      558.883  0.013542769  0.012817095         3516 
 3440000   0.69678215    -8.427659    559.28018  0.013548454  0.012811593         3579 
 3441000   0.70320701   -8.4418615    558.72618    0.0135311   0.01280609         3599 
 3442000   0.70144814   -8.4196193    559.53952   0.01354686  0.012800589         3526 
 3443000   0.69352108   -8.4533153    558.43009  0.013516073  0.012795084         3563 
 3444000   0.69695136    -8.418193    559.49777  0.013537983  0.012789586         3457 
 3445000   0.70370262    -8.447809    558.23159  0.013503425  0.012784096         3556 
 3446000   0.69284441   -8.4429697    559.22589  0.013523551  0.012778595         3611 
 3447000   0.69552815   -8.4463245    559.27714  0.013520867  0.012773104         3528 
 3448000    0.6998026   -8.4217064    558.36569  0.013494917  0.012767613         3563 
 3449000   0.71801667   -8.4284353    559.36827  0.013515228   0.01276214         3526 
 3450000   0.69628905   -8.4618379    557.79288  0.013473258   0.01275665         3586 
 3451000   0.71907823   -8.4371912    558.35783  0.013482996  0.012751166         3579 
 3452000   0.69669251   -8.4402495    559.18558  0.013499073  0.012745685         3593 
 3453000    0.7053068     -8.42767    559.74534  0.013508672  0.012740206         3578 
 3454000   0.69934614   -8.4392922    559.07392  0.013488562  0.012734731         3593 
 3455000   0.71869039   -8.4285206    558.61876   0.01347368  0.012729265         3554 
 3456000   0.70706291   -8.4397583    559.70509  0.013495975  0.012723798         3571 
 3457000   0.69488224   -8.4499703    558.56547    0.0134646   0.01271833         3577 
 3458000   0.71118377   -8.4397161    558.71396  0.013464285   0.01271287         3623 
 3459000   0.69932885   -8.4479631    558.93537  0.013465726  0.012707406         3560 
 3460000   0.69726713   -8.4599704    558.74485  0.013457246  0.012701935         3596 
 3461000   0.70585927   -8.4668975      557.791  0.013430391  0.012696465         3669 
 3462000   0.69696484    -8.453166    558.06326  0.013433065  0.012691011         3662 
 3463000   0.69390403    -8.461026    558.06909  0.013429326  0.012685553         3634 
 3464000   0.69981872   -8.4576214    557.72108  0.013417077  0.012680101         3562 
 3465000   0.70451017    -8.466469    559.16034   0.01344782  0.012674653         3634 
 3466000   0.69197677   -8.4852979    557.72515  0.013409433  0.012669205         3631 
 3467000   0.69605537   -8.4339483    558.81198  0.013431689  0.012663755         3594 
 3468000    0.7001471   -8.4487597    558.21103  0.013413376  0.012658311         3599 
 3469000   0.70146018    -8.454914    558.06303  0.013405954  0.012652873         3625 
 3470000   0.68641344   -8.4715632    557.90975  0.013398409  0.012647431         3646 
 3471000   0.68968945   -8.4591637    558.99213  0.013420535  0.012641992         3636 
 3472000   0.69711287   -8.4572617    558.49403  0.013404715  0.012636553         3665 
 3473000   0.69422575     -8.46554    559.69689  0.013429717  0.012631119         3660 
 3474000   0.68621122   -8.4809003    557.63972  0.013376505  0.012625685         3667 
 3475000   0.69647104    -8.475051    557.97693  0.013380742   0.01262025         3654 
 3476000   0.68202158   -8.4873569    558.11201  0.013380131  0.012614819         3687 
 3477000   0.70414179   -8.4628349    557.83396  0.013369619  0.012609387         3615 
 3478000   0.70297904   -8.4838919    557.24566  0.013351679  0.012603963         3618 
 3479000   0.71057621   -8.4956621    557.13144  0.013345105  0.012598546         3710 
 3480000   0.68401002   -8.4515967    558.43557  0.013372499  0.012593131         3550 
 3481000   0.67796277   -8.4697993    557.28098  0.013341017  0.012587715         3575 
 3482000   0.70538672   -8.4720784     557.0043  0.013330564  0.012582303         3582 
 3483000   0.68535625   -8.4609265    558.36149  0.013359209  0.012576895         3568 
 3484000   0.69012654   -8.4696891    558.04608   0.01334783  0.012571489         3630 
 3485000   0.70108925   -8.4841261    557.46658  0.013330143  0.012566085         3667 
 3486000    0.6960995   -8.4672548    557.53964  0.013328066  0.012560681         3624 
 3487000   0.68398821   -8.4522594    558.28275  0.013342002  0.012555275         3637 
 3488000   0.69870732   -8.4613512    558.04759  0.013332559  0.012549873         3649 
 3489000   0.70757201   -8.4727917    558.46451  0.013338696  0.012544474         3655 
 3490000   0.69574786   -8.4851349    556.90407  0.013297614  0.012539079         3626 
 3491000   0.69130156   -8.4582644    558.84477  0.013340131  0.012533691         3649 
 3492000   0.68976762   -8.4727905    558.31766  0.013323732  0.012528303         3624 
 3493000   0.69016907   -8.4702104    557.44492  0.013299096   0.01252292         3644 
 3494000   0.67953651   -8.4756113    558.22672  0.013313936  0.012517535         3663 
 3495000   0.68813409   -8.4684534    558.19289   0.01330932   0.01251216         3610 
 3496000    0.6796371   -8.4872941    557.59671  0.013291302  0.012506783         3642 
 3497000   0.68967243    -8.492889     557.9279  0.013295394  0.012501407         3608 
 3498000    0.6899246   -8.4694947    558.79763  0.013312313  0.012496033         3604 
 3499000   0.69880816   -8.4737147    558.64698   0.01330492  0.012490665         3650 
 3500000   0.68041283   -8.4598712    558.78381  0.013304376  0.012485301         3590 
 3501000   0.68340268   -8.4744732    557.18946  0.013262626  0.012479936         3626 
 3502000   0.67775852   -8.4867117    559.11436  0.013304644  0.012474572         3628 
 3503000   0.67624216   -8.4737522    557.75481  0.013268503   0.01246921         3623 
 3504000   0.68821891   -8.4621403    559.28913  0.013301206  0.012463858         3594 
 3505000   0.70067484   -8.4638584    557.69142  0.013259425  0.012458503         3667 
 3506000   0.68836058   -8.4765113    557.42775  0.013249376  0.012453155         3636 
 3507000   0.68339467   -8.4878796    557.36776  0.013244173  0.012447809         3569 
 3508000    0.6857502   -8.4672345     557.6418  0.013246907  0.012442474         3671 
 3509000   0.69813366   -8.4563197    558.61404  0.013266221  0.012437138         3606 
 3510000   0.67968354   -8.4586499    558.79461  0.013266729  0.012431802         3588 
 3511000   0.70755573   -8.4778909    557.55016  0.013233413  0.012426466         3643 
 3512000   0.68789607   -8.4804092    557.40698  0.013226248  0.012421127         3616 
 3513000     0.687166   -8.4555047    558.85515  0.013256835  0.012415802         3652 
 3514000   0.70147981   -8.4880043    556.91277     0.013207  0.012410467         3653 
 3515000   0.69064391   -8.4977629    558.02124  0.013229522  0.012405136         3651 
 3516000   0.67601397   -8.4972098    557.71908  0.013218598  0.012399814         3609 
 3517000   0.69770131    -8.460751     558.0593  0.013222901  0.012394498         3615 
 3518000   0.68153994   -8.4656706    557.42037  0.013204007  0.012389179         3612 
 3519000   0.71006194   -8.4669711     558.7974  0.013232864  0.012383868         3654 
 3520000   0.68991525   -8.4773111     556.9922  0.013186368  0.012378553         3599 
 3521000   0.69216285   -8.4698863    558.31631  0.013213962  0.012373243         3664 
 3522000   0.68571443   -8.4882309    557.22303  0.013184342  0.012367932         3665 
 3523000   0.69591217   -8.4976845    557.50362  0.013187237  0.012362623         3671 
 3524000   0.69580711   -8.4941473    556.65891  0.013163519  0.012357318         3640 
 3525000   0.68249425   -8.4727468    557.39257  0.013177129  0.012352017         3657 
 3526000   0.68902628   -8.4929986    557.21065  0.013169093  0.012346714         3645 
 3527000   0.69699408   -8.4859006    557.66706  0.013176143  0.012341414         3655 
 3528000   0.69024016   -8.4939701    557.38363  0.013165713  0.012336121         3628 
 3529000   0.68621149   -8.4880973    556.94974  0.013151737  0.012330833         3636 
 3530000   0.68607536   -8.4881022    557.51177  0.013161279  0.012325544         3649 
 3531000    0.6789501   -8.5082148    556.94645   0.01314421  0.012320255         3650 
 3532000   0.70373785    -8.491802     557.3905  0.013150965  0.012314973         3679 
 3533000   0.67219204   -8.5123673    557.61369  0.013152507  0.012309686         3685 
 3534000   0.69105076   -8.4814129    557.32388  0.013141952  0.012304401         3561 
 3535000   0.67918433   -8.4739869    558.52657  0.013166586  0.012299122         3679 
 3536000   0.68397898   -8.4861412    557.24683  0.013132703  0.012293837         3631 
 3537000   0.67728297     -8.50072    556.78764  0.013118171  0.012288565         3669 
 3538000   0.68000329   -8.4829581    558.07178  0.013144709   0.01228329         3629 
 3539000   0.68198675   -8.4779695    558.26727  0.013145598  0.012278017         3704 
 3540000   0.68134255   -8.4890859    557.70907  0.013128745  0.012272748         3651 
 3541000   0.67688655   -8.4696063    556.77679  0.013103097  0.012267474         3698 
 3542000   0.69217635   -8.4935338    557.44375  0.013115089  0.012262209         3689 
 3543000    0.6892748   -8.4978363    557.09142    0.0131031   0.01225694         3643 
 3544000   0.67528539   -8.4925742    557.57893  0.013110867   0.01225169         3657 
 3545000    0.6620295   -8.5081262    556.43631  0.013080308  0.012246428         3635 
 3546000   0.69343375    -8.479591    557.90609   0.01311116  0.012241174         3661 
 3547000   0.68788882   -8.4910412    556.94697   0.01308493  0.012235932         3686 
 3548000   0.68299055    -8.475223    557.59878  0.013096552  0.012230686         3675 
 3549000   0.68714341   -8.5144354    557.43302  0.013088969  0.012225449         3589 
 3550000   0.67804178   -8.5273413    557.84452  0.013094942   0.01222021         3665 
 3551000   0.66812492   -8.4917746    557.26494  0.013077653  0.012214972         3643 
 3552000   0.69525289   -8.5153176     557.4413  0.013078109  0.012209733         3698 
 3553000   0.68400502    -8.502746    556.84667  0.013060481  0.012204497         3668 
 3554000   0.68185726   -8.4982666    556.79665  0.013055633  0.012199266         3663 
 3555000    0.6638976   -8.4959792    558.44795  0.013090669  0.012194035         3678 
 3556000   0.68813999   -8.4939782    558.01062  0.013076739  0.012188803         3727 
 3557000   0.66934233   -8.4984322    557.26588  0.013055615   0.01218358         3700 
 3558000   0.68735003   -8.5162617    556.64563  0.013037419  0.012178352         3713 
 3559000   0.68825974   -8.5202158    555.28118  0.013001807  0.012173127         3711 
 3560000   0.69113402   -8.5015996    557.13429  0.013041533    0.0121679         3734 
 3561000   0.67818861   -8.5157104    557.14168  0.013038044  0.012162685         3709 
 3562000   0.69189844   -8.4877966    557.51558  0.013043131   0.01215747         3719 
 3563000   0.68964922   -8.5130701    556.52461  0.013016293  0.012152257         3666 
 3564000   0.68022325   -8.4921203    557.56903  0.013037061  0.012147046         3686 
 3565000   0.68038469   -8.4997326    556.79449  0.013015299  0.012141833         3708 
 3566000   0.68671855   -8.4947108    556.39383  0.013002286  0.012136626         3712 
 3567000   0.70006175   -8.5379877    556.14768   0.01299289  0.012131426         3718 
 3568000   0.66971627   -8.5240748    556.75641  0.013003466  0.012126225         3671 
 3569000   0.67188556    -8.511315    556.40196  0.012991547  0.012121028         3703 
 3570000   0.67704571   -8.4979577    557.24908  0.013007682  0.012115838         3739 
 3571000   0.69470926   -8.4983912     557.7732   0.01301627  0.012110649         3767 
 3572000   0.68827919   -8.5127166    555.44972   0.01295842  0.012105461         3738 
 3573000   0.67567876   -8.5084848    557.40903  0.013000491  0.012100269         3759 
 3574000    0.6796844    -8.518637    556.91583  0.012985353  0.012095089         3755 
 3575000   0.66974061   -8.4890743    559.05567  0.013031601  0.012089911         3707 
 3576000   0.69230253   -8.5212025    556.36415  0.012965235  0.012084734         3753 
 3577000   0.68272789   -8.5076538    557.62148  0.012990902  0.012079562         3756 
 3578000   0.67044298    -8.535763    555.85854  0.012946212  0.012074386         3750 
 3579000   0.66645959   -8.5152005    556.76265  0.012963646  0.012069212         3747 
 3580000   0.66350346   -8.5102748    556.89664  0.012963143  0.012064043         3700 
 3581000   0.68260906   -8.5005414    557.00152  0.012961964  0.012058877         3760 
 3582000   0.66841031   -8.5104883    557.71576  0.012974962  0.012053715         3728 
 3583000   0.67828971   -8.5322619    556.75429  0.012948979  0.012048549         3727 
 3584000    0.6856299   -8.5159845    556.73455  0.012944907  0.012043391         3708 
 3585000   0.67992951   -8.4976766    556.83182  0.012943557  0.012038232         3739 
 3586000   0.68809953   -8.4999443    557.96565  0.012966296  0.012033082         3683 
 3587000   0.68685225   -8.4996631    556.46727  0.012927871  0.012027936         3706 
 3588000   0.67418136   -8.5152048     556.3667  0.012921932  0.012022789         3678 
 3589000   0.66538955   -8.5106443    556.79513  0.012928279  0.012017649         3680 
 3590000   0.67637915   -8.4971786    556.70174   0.01292251  0.012012512         3662 
 3591000   0.67588007   -8.5152221    557.33095  0.012933513  0.012007381         3753 
 3592000   0.68549696   -8.5180281    556.42934  0.012908996  0.012002244         3703 
 3593000   0.69231278   -8.5085097    555.80294  0.012890874  0.011997112         3724 
 3594000   0.67126433   -8.5019851    556.39002    0.0129009  0.011991978         3711 
 3595000   0.66914014   -8.5110252    557.38278  0.012920324  0.011986852         3712 
 3596000   0.67826551   -8.5166355    556.06497  0.012886192  0.011981728         3758 
 3597000     0.675122   -8.5270049    557.34329  0.012912225  0.011976603         3634 
 3598000    0.6835415   -8.5144523    556.03855  0.012878418  0.011971482         3741 
 3599000   0.67472157   -8.5358252    555.88201  0.012871214  0.011966367         3732 
 3600000   0.68158189   -8.5154534    555.93248  0.012868808  0.011961248         3706 
 3601000   0.67239109   -8.5132267     557.0001   0.01288994  0.011956137         3749 
 3602000     0.676629   -8.5040006    555.61523  0.012854322  0.011951027         3731 
 3603000   0.67046652   -8.5038872    557.48445  0.012893988  0.011945922         3727 
 3604000   0.67975186   -8.5229372    555.94365  0.012854783  0.011940824         3708 
 3605000    0.6728498   -8.5401049    554.90124  0.012827121  0.011935716         3773 
 3606000   0.68429526   -8.5182911    556.21263  0.012853869  0.011930618         3741 
 3607000   0.67169249   -8.5069007      556.388  0.012854357   0.01192552         3711 
 3608000   0.66302558   -8.5163195    555.93277   0.01284028  0.011920431         3712 
 3609000   0.67362724   -8.5294625    556.21141  0.012843156  0.011915337         3712 
 3610000   0.67885411   -8.5154066    557.67665  0.012873422  0.011910252         3727 
 3611000   0.68075014   -8.5143859    557.26288  0.012860308  0.011905166         3701 
 3612000   0.67211564   -8.5179005    557.79227  0.012868961  0.011900088         3691 
 3613000   0.67352694   -8.4967348    556.85857  0.012843864  0.011895006         3698 
 3614000   0.68531307   -8.5256277    556.32053  0.012827904  0.011889927         3727 
 3615000   0.67516179   -8.5282206    555.95217  0.012815864  0.011884855         3736 
 3616000   0.67606842    -8.510882    556.50053  0.012824957  0.011879779         3736 
 3617000   0.67516559     -8.52201    556.32962  0.012817474  0.011874702         3682 
 3618000   0.68652082   -8.5152434    556.01855  0.012806766  0.011869632         3713 
 3619000   0.66633637   -8.5281064    556.22955  0.012808086  0.011864564         3749 
 3620000   0.67885072    -8.535116     556.0382  0.012800143  0.011859506         3739 
 3621000   0.67438026   -8.5121033    555.37602  0.012781368  0.011854444         3701 
 3622000   0.66836031   -8.4990764    556.38833   0.01280113  0.011849385         3720 
 3623000   0.67072365   -8.5254814    555.36652  0.012774094  0.011844331         3743 
 3624000   0.68485508   -8.5291972    555.64186  0.012776901  0.011839277         3673 
 3625000   0.69221071    -8.539987    557.35918  0.012812855  0.011834235         3702 
 3626000    0.6681663   -8.5203716    556.25007  0.012783831   0.01182919         3674 
 3627000   0.66520156   -8.5119524    557.14296  0.012800822  0.011824151         3698 
 3628000   0.67345638   -8.5323484    555.79341  0.012766295  0.011819108         3698 
 3629000   0.65963048   -8.5275391    556.84502  0.012786925  0.011814077         3739 
 3630000   0.67395737   -8.5031221    556.65962  0.012779147  0.011809043         3719 
 3631000   0.68374205   -8.5194401    556.31288  0.012767669  0.011804016         3709 
 3632000   0.65616744   -8.5059807    555.89133  0.012754482   0.01179899         3720 
 3633000   0.67344685   -8.5032217    556.58948  0.012766985  0.011793964         3757 
 3634000   0.67325169   -8.5242687    555.27026   0.01273322  0.011788941         3736 
 3635000   0.69844005   -8.5436959    556.35219  0.012754521  0.011783922         3721 
 3636000   0.67193728   -8.5231548    555.97655  0.012742404    0.0117789         3756 
 3637000   0.66167782   -8.5026613    556.58306  0.012752797  0.011773888         3730 
 3638000   0.66128601   -8.5321815    556.46533  0.012746595  0.011768879         3748 
 3639000   0.66490695   -8.5186889    556.36576  0.012740812  0.011763868         3702 
 3640000   0.65076343   -8.5263218    556.17613   0.01273297   0.01175886         3763 
 3641000   0.66457286    -8.509872    556.88947  0.012745799  0.011753852         3716 
 3642000   0.65692789   -8.5032272    556.67368  0.012737362  0.011748851         3712 
 3643000   0.67730924    -8.545324    556.00713  0.012718619   0.01174385         3738 
 3644000   0.66691122   -8.5042772    556.25428   0.01272078  0.011738849         3758 
 3645000   0.66841935   -8.5279909    555.78335  0.012706524  0.011733849         3712 
 3646000   0.65465026    -8.551617    556.99316   0.01273069  0.011728855         3769 
 3647000   0.66966149   -8.5224172    556.48534  0.012715596  0.011723862         3734 
 3648000   0.67182022   -8.5322407    556.89941  0.012721569  0.011718875         3737 
 3649000   0.67540245   -8.5347814     557.0244  0.012720937  0.011713891         3698 
 3650000    0.6673489   -8.5340563    555.89136  0.012691584  0.011708903         3787 
 3651000    0.6611952   -8.5450052    555.58701  0.012681161  0.011703915         3742 
 3652000   0.67021479     -8.52369    555.80191  0.012682592  0.011698936         3758 
 3653000   0.67283791   -8.5232061    557.27515  0.012712728  0.011693959         3740 
 3654000   0.67180299    -8.515481    556.42806   0.01268993  0.011688986         3743 
 3655000   0.66122857   -8.5336796    556.29954  0.012683528  0.011684016         3747 
 3656000   0.66465345   -8.5412506     555.8558  0.012669944  0.011679041         3741 
 3657000   0.66628923   -8.5325236    556.13542  0.012672852  0.011674066         3741 
 3658000   0.66953189   -8.5204325    556.23442  0.012671642  0.011669103         3769 
 3659000   0.67418016   -8.5678895    556.13326  0.012665875  0.011664139         3738 
 3660000   0.66430513   -8.5690244    555.00166   0.01263665  0.011659176         3760 
 3661000   0.64857634   -8.5433078    556.83597  0.012674952  0.011654212         3767 
 3662000   0.67323138   -8.5456986    556.53481  0.012664637   0.01164926         3805 
 3663000   0.67294778   -8.5310644    556.41747   0.01265851  0.011644303         3772 
 3664000   0.66808018   -8.5348425    555.85405  0.012642241  0.011639352         3725 
 3665000   0.67100342   -8.5396596    555.55664  0.012632029    0.0116344         3763 
 3666000   0.67695938   -8.5459018    555.70135  0.012631873  0.011629449         3761 
 3667000   0.67077385   -8.5317293    555.24836  0.012618134  0.011624503         3784 
 3668000   0.65489657   -8.5332126    556.80568  0.012650074  0.011619563         3782 
 3669000   0.65744086   -8.5319011    555.60398  0.012619333  0.011614629         3743 
 3670000   0.67923774   -8.5580305    555.78548  0.012620015  0.011609694         3751 
 3671000   0.66628191   -8.5397584    554.91763  0.012596877  0.011604759         3794 
 3672000   0.66154685   -8.5391967    556.97078  0.012640041  0.011599821         3727 
 3673000    0.6749038   -8.5568696    555.93958  0.012613204  0.011594894         3715 
 3674000   0.65817403   -8.5331774    555.99858  0.012611109  0.011589967         3765 
 3675000   0.64410271   -8.5245519    556.11481  0.012610313  0.011585044         3788 
 3676000   0.66724925   -8.5380192     556.6999  0.012620146  0.011580117         3768 
 3677000   0.66357764   -8.5392165    555.54545   0.01259055  0.011575201         3734 
 3678000   0.67326456   -8.5551642    556.36161  0.012605619  0.011570281         3754 
 3679000   0.65873209   -8.5186915    556.29958  0.012600788  0.011565367         3794 
 3680000   0.66566425   -8.5455289    555.12688  0.012570808  0.011560452         3773 
 3681000   0.67501837   -8.5552146     555.3502  0.012572449  0.011555536         3786 
 3682000   0.64318554   -8.5152428     555.6865  0.012576645  0.011550633         3735 
 3683000   0.67128319   -8.5474615    555.97848  0.012579837  0.011545723         3772 
 3684000   0.67399636   -8.5499871    555.02984  0.012554964  0.011540816         3757 
 3685000    0.6603206   -8.5294142    555.63282  0.012565193  0.011535917         3823 
 3686000   0.68132051   -8.5562392    556.25775  0.012575912  0.011531017         3774 
 3687000    0.6636214   -8.5662995    555.22105   0.01254907  0.011526121         3797 
 3688000   0.67496512   -8.5600356    555.94016  0.012561916  0.011521231         3777 
 3689000   0.65657848   -8.5411172    554.78734  0.012532469  0.011516337         3785 
 3690000   0.65346563    -8.556934    556.51739  0.012568144   0.01151145         3786 
 3691000   0.66960928   -8.5701353    555.60866  0.012544222  0.011506564         3759 
 3692000   0.66576271   -8.5477933     554.6118  0.012518323  0.011501683         3797 
 3693000   0.67135849   -8.5555564    555.02677  0.012524298    0.0114968         3781 
 3694000   0.68337887   -8.5571712     556.7872  0.012560621  0.011491923         3801 
 3695000   0.65900361   -8.5483786    556.33346  0.012546988  0.011487048         3789 
 3696000   0.64322654   -8.5569298    556.03861  0.012536946  0.011482175         3768 
 3697000   0.66018755   -8.5455254    555.79863  0.012528145  0.011477303         3772 
 3698000    0.6600595   -8.5485606    555.22137  0.012511749  0.011472436         3751 
 3699000   0.64993033   -8.5588391    555.53628  0.012515461  0.011467571         3806 
 3700000   0.67632555   -8.5336987    555.98311  0.012522142  0.011462707         3769 
 3701000   0.64747777   -8.5539541    553.86844  0.012471144  0.011457846         3771 
 3702000   0.66203418   -8.5409433    555.69201  0.012508824  0.011452988         3802 
 3703000   0.66474167   -8.5729228    555.27533  0.012496069  0.011448129         3768 
 3704000    0.6594869   -8.5777263    556.31804  0.012516155  0.011443274         3776 
 3705000   0.66826023   -8.5534838    556.21562  0.012510473  0.011438422         3781 
 3706000   0.67142429   -8.5394139    555.92457  0.012500552  0.011433572         3770 
 3707000   0.66810049   -8.5272277    555.58788  0.012489611  0.011428734         3729 
 3708000   0.66681049   -8.5654883    555.09935  0.012475264  0.011423902         3793 
 3709000    0.6576417   -8.5386338    556.13316  0.012495128  0.011419071         3737 
 3710000   0.66683374   -8.5692135    555.21987  0.012471246  0.011414239         3718 
 3711000   0.64073903   -8.5420851    555.62161  0.012476907  0.011409406         3742 
 3712000   0.65579259   -8.5607307    555.33626   0.01246714  0.011404581         3734 
 3713000    0.6522442   -8.5409486    555.94245  0.012477387  0.011399754         3755 
 3714000    0.6651274   -8.5485294    555.30085  0.012459631  0.011394933         3790 
 3715000   0.65705534   -8.5747538    555.41074  0.012458742  0.011390111         3817 
 3716000   0.65500037   -8.5551493    555.64829  0.012460717  0.011385286         3752 
 3717000   0.66129493   -8.5364529    556.44468  0.012475219  0.011380474         3779 
 3718000   0.65462911   -8.5402358    554.81382  0.012435311  0.011375664         3765 
 3719000   0.64476397   -8.5711759    555.19877  0.012440593  0.011370858         3765 
 3720000   0.65630031    -8.547609    556.18831  0.012459416  0.011366047         3752 
 3721000   0.65521796   -8.5554058    555.09372  0.012431553  0.011361237         3751 
 3722000   0.65154262   -8.5655521    554.53347   0.01241567  0.011356433         3791 
 3723000   0.65605315   -8.5535459    554.67886  0.012415589  0.011351627         3800 
 3724000   0.65655938   -8.5557496    554.49417  0.012408122  0.011346829         3756 
 3725000   0.65053743   -8.5669507     555.2994  0.012422805   0.01134203         3800 
 3726000   0.66503725   -8.5500788     555.1892  0.012417007  0.011337233         3807 
 3727000   0.66459411   -8.5543689    554.62869  0.012401142  0.011332441         3767 
 3728000   0.67003745   -8.5657596    556.16338  0.012432121  0.011327654         3779 
 3729000   0.65252022   -8.5544344       555.77  0.012419997  0.011322864         3784 
 3730000   0.66190384   -8.5391059    555.45567  0.012409644  0.011318078         3791 
 3731000   0.65639328   -8.5563162     556.3427   0.01242613  0.011313293         3811 
 3732000   0.65641899   -8.5596591    556.54049  0.012427217  0.011308512         3778 
 3733000   0.65329339   -8.5431892    555.88582  0.012409274  0.011303732         3767 
 3734000   0.64405879   -8.5653694    554.68838  0.012379227  0.011298955         3793 
 3735000   0.66000737   -8.5452365    555.80952  0.012400926  0.011294181         3779 
 3736000   0.67371654   -8.5441927     554.7057  0.012372986  0.011289407         3798 
 3737000   0.64481122   -8.5509015    554.94235  0.012374952   0.01128464         3770 
 3738000   0.65782453   -8.5594886    555.75546  0.012389769  0.011279873         3798 
 3739000   0.64471941   -8.5866013    555.25604  0.012375324  0.011275102         3816 
 3740000   0.64326498   -8.5713257    554.90836  0.012364268  0.011270337         3772 
 3741000   0.66521012   -8.5484731    555.24045  0.012368361  0.011265577         3771 
 3742000   0.66401679   -8.5530781    554.45673  0.012347602  0.011260821         3810 
 3743000   0.63657191    -8.557822    555.44546  0.012366316  0.011256069         3754 
 3744000   0.64761654   -8.5705913    555.55422  0.012365434  0.011251315         3819 
 3745000   0.63761761   -8.5447318    554.85844   0.01234665  0.011246563         3777 
 3746000   0.63685869     -8.57348    555.00385  0.012346588  0.011241811         3801 
 3747000    0.6551874   -8.5618575    554.88773  0.012340711  0.011237063         3770 
 3748000   0.66700445   -8.5956929    555.20575  0.012344489  0.011232321         3779 
 3749000   0.65409927   -8.5879438    555.44227  0.012346454  0.011227585         3783 
 3750000   0.65087969   -8.5629278    555.10423   0.01233565  0.011222848         3724 
 3751000   0.65410574   -8.5731655    554.97679   0.01232953  0.011218112         3781 
 3752000   0.64735247   -8.5790699     554.5624   0.01231704  0.011213377         3792 
 3753000   0.64855293   -8.5642848    554.21418  0.012306026  0.011208645         3724 
 3754000   0.65778953   -8.5844194    554.35215   0.01230581  0.011203919         3753 
 3755000   0.64486147   -8.5608114     555.6792  0.012331984  0.011199187         3776 
 3756000   0.65287551   -8.5702357    554.54931  0.012303632  0.011194469         3775 
 3757000   0.64211215   -8.5796459    555.09185  0.012312391  0.011189748         3777 
 3758000   0.64807135   -8.5816872    555.77352  0.012324231  0.011185031         3792 
 3759000   0.65895056   -8.5836469     554.8137  0.012299674  0.011180315         3776 
 3760000   0.66314226   -8.5841731    555.04049  0.012301429  0.011175602         3763 
 3761000     0.642426    -8.574532    554.69162  0.012290429  0.011170892         3767 
 3762000   0.65371273   -8.5529552    554.78805  0.012289297  0.011166184         3761 
 3763000   0.64975237   -8.5559507    555.55911  0.012303107  0.011161483         3791 
 3764000   0.65227994   -8.5779169     555.6108  0.012300983  0.011156778         3756 
 3765000   0.66197397   -8.5840872    555.33031  0.012291508  0.011152076         3771 
 3766000   0.66874778   -8.5741014     554.5394  0.012270743  0.011147384         3725 
 3767000   0.65034244   -8.5613731    555.28823  0.012284051  0.011142691         3744 
 3768000   0.66889483   -8.5713129    554.86068  0.012271335  0.011137998         3743 
 3769000   0.65439606   -8.5876222    555.28607  0.012277485  0.011133313         3703 
 3770000   0.64906807   -8.5806653    554.76144  0.012262631  0.011128628         3730 
 3771000   0.64584855   -8.5781249    555.05451  0.012265856  0.011123943         3757 
 3772000   0.66455609    -8.563839    555.50638  0.012272587  0.011119256         3771 
 3773000   0.65413433   -8.5805871    554.49623  0.012247023  0.011114576         3769 
 3774000   0.65490768   -8.5626921    554.55713  0.012245123  0.011109899         3709 
 3775000    0.6539744   -8.5447683    555.16576  0.012255315  0.011105225         3739 
 3776000   0.64621928   -8.5816456     555.7803  0.012265632   0.01110055         3734 
 3777000   0.64968688   -8.5821592    555.07091  0.012246733  0.011095879         3758 
 3778000   0.65285496   -8.5586568    553.75058  0.012214368  0.011091209         3729 
 3779000   0.64365347   -8.5514139    554.54771  0.012228714  0.011086544         3778 
 3780000   0.64054131   -8.5636105    555.09798   0.01223761  0.011081878         3760 
 3781000   0.66415083   -8.5657607     555.6167  0.012245806  0.011077219         3761 
 3782000   0.65289772   -8.5724207    555.12475  0.012231728  0.011072564         3750 
 3783000   0.63618997   -8.5759429    553.93095  0.012202197  0.011067913         3758 
 3784000   0.66644869     -8.55256    555.58664  0.012235435  0.011063258         3740 
 3785000   0.65270438   -8.5946761    555.78398  0.012236547  0.011058609         3747 
 3786000   0.65477799    -8.565264    556.08445  0.012239929  0.011053955         3752 
 3787000   0.64002072    -8.581493    554.93454  0.012211393  0.011049309         3772 
 3788000   0.64623799   -8.5730024    553.89403  0.012185279  0.011044665         3789 
 3789000   0.64709792   -8.5726943    555.20515  0.012210899  0.011040025         3732 
 3790000   0.65376039   -8.5840675    554.69835  0.012196534  0.011035387         3706 
 3791000   0.64429257    -8.550554    554.85819   0.01219683  0.011030748         3750 
 3792000   0.64371633   -8.5719962    555.02297  0.012197235  0.011026112         3767 
 3793000   0.64950761   -8.5772768    555.18699  0.012197623  0.011021479         3725 
 3794000   0.63904596   -8.5920211    554.12556  0.012171094  0.011016851         3776 
 3795000   0.64435166     -8.58212    554.20078  0.012169538  0.011012226         3751 
 3796000   0.65317681   -8.5919297    554.50362  0.012172981    0.0110076         3770 
 3797000   0.64864079   -8.5598343    555.44956  0.012190536  0.011002978         3752 
 3798000    0.6518536   -8.5920183    554.41244   0.01216457  0.010998358         3755 
 3799000   0.63865914   -8.5727216    555.27452  0.012180278  0.010993743         3762 
 3800000   0.64298294   -8.5889723     554.8611  0.012168006   0.01098912         3770 
 3801000   0.63889547   -8.5939088    554.13457  0.012148877  0.010984502         3755 
 3802000   0.64455595    -8.547304    555.71881  0.012180405  0.010979894         3733 
 3803000   0.65501732   -8.5852008    554.32793  0.012146725  0.010975283         3796 
 3804000   0.64769153   -8.5810826    553.40032  0.012123211  0.010970677         3754 
 3805000   0.63041249   -8.5950112    554.77419  0.012150114  0.010966074         3791 
 3806000   0.65240454   -8.5689071    554.36083  0.012137871   0.01096147         3722 
 3807000   0.63782885   -8.5936224    555.37459  0.012156873  0.010956868         3708 
 3808000   0.65098694   -8.5807016    554.68645  0.012138621  0.010952268         3723 
 3809000   0.63882302   -8.5890926    554.42606  0.012129738   0.01094768         3787 
 3810000   0.65046463   -8.5787962    554.29702  0.012123732  0.010943091         3759 
 3811000   0.63444113   -8.5733214    555.17841  0.012139824    0.0109385         3743 
 3812000     0.643703   -8.5898815    554.22644  0.012115828  0.010933918         3746 
 3813000   0.63787725   -8.5725152    554.67305  0.012122411  0.010929335         3765 
 3814000   0.65224179   -8.5790502    553.75841  0.012099249  0.010924753         3749 
 3815000   0.64107733   -8.5739643     554.6957  0.012116551  0.010920181         3757 
 3816000   0.64489514   -8.5823826    555.22956  0.012125034  0.010915604         3727 
 3817000   0.65103831   -8.5778059    554.59019  0.012107899  0.010911033         3753 
 3818000   0.64289097   -8.5854557    554.16074  0.012095354   0.01090646         3751 
 3819000   0.65468704   -8.5927944    554.36492  0.012096642  0.010901891         3769 
 3820000   0.64557115   -8.5947548    553.31519  0.012070576  0.010897323         3736 
 3821000   0.64227815   -8.5813435    554.54333  0.012094202  0.010892763         3775 
 3822000   0.63249682   -8.5895804    554.82616  0.012097204  0.010888202         3765 
 3823000   0.64888376   -8.5843083    554.53564  0.012087707  0.010883643         3760 
 3824000   0.63573595   -8.5962363    554.06548    0.0120743  0.010879085         3777 
 3825000    0.6348218   -8.5740749    554.86319  0.012088523  0.010874532         3725 
 3826000   0.64337339    -8.604467    553.77499  0.012061661  0.010869981         3736 
 3827000    0.6306637   -8.5876351    554.68853  0.012078402  0.010865432         3752 
 3828000   0.65124187   -8.5962482    554.20362   0.01206469  0.010860883         3744 
 3829000   0.63868208   -8.5733191    554.76933  0.012073851  0.010856339         3757 
 3830000   0.64419805   -8.5725555    554.08349  0.012055777  0.010851798         3779 
 3831000   0.63563452   -8.5888168    554.38037  0.012059088  0.010847261         3732 
 3832000   0.64948448   -8.5700396    554.00418   0.01204776  0.010842722         3731 
 3833000   0.63827356   -8.6026156    554.28432  0.012050707  0.010838186         3721 
 3834000   0.64111199   -8.6010698    554.25828  0.012046998  0.010833651         3763 
 3835000   0.64842813   -8.5865619    555.04014  0.012060846  0.010829121         3764 
 3836000   0.65488356   -8.5767043    554.39374   0.01204366  0.010824596         3745 
 3837000   0.64884567   -8.5800016    554.37243  0.012040058  0.010820076         3752 
 3838000   0.63616232   -8.5876045    553.92272  0.012027156  0.010815559         3778 
 3839000   0.62473653   -8.5914229    553.79341  0.012021217  0.010811041         3760 
 3840000    0.6552961   -8.5970447    554.79922  0.012039914  0.010806526         3755 
 3841000   0.64483617    -8.586954    554.12238  0.012022095  0.010802012         3777 
 3842000    0.6461918   -8.5996105    554.96398   0.01203722    0.0107975         3727 
 3843000   0.63151302   -8.5858788    554.38597  0.012021554  0.010792986         3741 
 3844000   0.63289348   -8.5869344    554.50546  0.012021017  0.010788482         3759 
 3845000   0.64507938   -8.5926947    554.09401  0.012008973  0.010783976         3755 
 3846000   0.64463744   -8.5844246    554.13484  0.012006735  0.010779468         3769 
 3847000   0.63349276    -8.607912    554.13406  0.012003597  0.010774972         3758 
 3848000   0.63775592   -8.5970084    554.17889  0.012001449  0.010770472         3718 
 3849000   0.62734149   -8.5982627    554.51633  0.012005636  0.010765977         3789 
 3850000   0.62792057   -8.6001613    554.37582  0.011999477  0.010761482         3761 
 3851000   0.62614273   -8.5947431    554.23222  0.011993253  0.010756991         3717 
 3852000   0.63350412   -8.5915154    554.80436  0.012002517  0.010752502         3782 
 3853000   0.64605244   -8.5742706    553.93199  0.011980534   0.01074801         3712 
 3854000   0.63986846   -8.6041897    554.16582  0.011982482  0.010743523         3744 
 3855000   0.62994104   -8.5634614    554.61149  0.011989008  0.010739038         3707 
 3856000    0.6348161   -8.6002905    554.34125  0.011980058  0.010734546         3751 
 3857000   0.62829632   -8.6045773     553.6503  0.011962024  0.010730067         3754 
 3858000   0.64215342   -8.6144171    553.31378  0.011951654  0.010725592         3772 
 3859000   0.63849169   -8.6162055    554.74396  0.011979441  0.010721115         3757 
 3860000   0.63923439   -8.6300483    553.24652   0.01194401   0.01071664         3747 
 3861000   0.63509761   -8.5962253    554.20782  0.011961664  0.010712171         3758 
 3862000   0.63056551    -8.590455    554.49234  0.011964706  0.010707701         3756 
 3863000   0.64744584   -8.6243023    553.78805  0.011946416  0.010703237         3720 
 3864000   0.63985447   -8.6158975    553.29999  0.011932798  0.010698773         3778 
 3865000   0.63607867   -8.5995097    554.33843  0.011952101  0.010694309         3772 
 3866000    0.6226877   -8.5976594    553.77405  0.011936844  0.010689847         3742 
 3867000   0.63555341   -8.6075652    553.70471  0.011932263  0.010685394         3743 
 3868000   0.63110389   -8.5903936    553.80612  0.011931362  0.010680936         3753 
 3869000   0.63335324   -8.6029201    553.89772  0.011930252  0.010676485         3708 
 3870000   0.62929843   -8.6164855    553.97095  0.011928746  0.010672033         3772 
 3871000   0.63537221   -8.6044847    554.84173   0.01194441  0.010667583         3780 
 3872000   0.62106797   -8.5960864    554.25319  0.011928658  0.010663139         3725 
 3873000   0.64020074   -8.6104445    553.90093  0.011917999  0.010658696         3758 
 3874000   0.62110698   -8.6004342    553.88966   0.01191468  0.010654252         3777 
 3875000   0.63855102   -8.6122487    553.43766  0.011901885  0.010649814         3737 
 3876000    0.6309294   -8.5984435    553.82586  0.011907161  0.010645383         3719 
 3877000   0.63750374    -8.583804    554.51007  0.011918796  0.010640951         3752 
 3878000   0.62802501   -8.5945318    555.77217  0.011942844   0.01063652         3744 
 3879000   0.64027945   -8.6123722    553.69236  0.011895084  0.010632091         3761 
 3880000   0.63946893    -8.606942    554.23437  0.011903659  0.010627664         3779 
 3881000   0.63501279   -8.6074726    554.23417  0.011900588  0.010623237         3712 
 3882000   0.64196145   -8.5980428    553.82705  0.011888783  0.010618811         3718 
 3883000   0.63689428   -8.5906411    554.40698  0.011898167  0.010614394         3735 
 3884000   0.63419095   -8.6111576    553.10818  0.011867237  0.010609975         3780 
 3885000   0.62475215   -8.5871059    554.37344  0.011891322  0.010605559         3806 
 3886000   0.62615822   -8.6063329    552.97345   0.01185824  0.010601149         3779 
 3887000   0.62677502   -8.5942438     554.4183  0.011886165  0.010596737         3742 
 3888000   0.62430458   -8.6161953    554.33613  0.011881347  0.010592327         3791 
 3889000   0.62237875   -8.6060313    554.28515    0.0118772  0.010587925         3732 
 3890000   0.64351725    -8.612368     553.2691   0.01185238  0.010583524         3791 
 3891000   0.62410522   -8.6059635    554.19574   0.01186918  0.010579129         3785 
 3892000   0.62215859   -8.6286356    552.92219  0.011838862   0.01057473         3796 
 3893000   0.62789948   -8.6234753    554.02548  0.011859437  0.010570334         3769 
 3894000   0.61840939    -8.602491    554.49456   0.01186643  0.010565938         3788 
 3895000   0.61098853   -8.6206394    554.45575  0.011862553  0.010561547         3782 
 3896000   0.62078473   -8.5865814    553.48867  0.011838823  0.010557156         3739 
 3897000   0.62360293   -8.6106058     554.0246  0.011847246  0.010552766         3777 
 3898000    0.6257824   -8.6277752    553.31501  0.011829036   0.01054838         3765 
 3899000   0.62466388   -8.6154171    553.72146   0.01183469  0.010544002         3787 
 3900000   0.63299364   -8.6133826    553.39178  0.011824611   0.01053962         3777 
 3901000   0.62621634   -8.5939188    554.02439  0.011835093  0.010535245         3731 
 3902000   0.63843032   -8.6206643    552.60277  0.011801699  0.010530867         3774 
 3903000   0.62390336   -8.5955758    554.00358  0.011828584  0.010526499         3778 
 3904000   0.64026365   -8.6407077    553.03192  0.011804814  0.010522128         3766 
 3905000   0.63111112   -8.6336778     553.5899  0.011813698  0.010517758         3787 
 3906000   0.62335027    -8.616206     554.8567    0.0118377  0.010513392         3766 
 3907000   0.64288346   -8.6265851     553.4949  0.011805625  0.010509031         3775 
 3908000   0.63881108   -8.6090243    553.76612  0.011808387  0.010504668         3774 
 3909000   0.62180017   -8.5930821    553.45785  0.011798794  0.010500308         3795 
 3910000   0.61028426   -8.5874633    554.77066  0.011823757  0.010495953         3745 
 3911000   0.62680506   -8.6215487    553.02348  0.011783506    0.0104916         3782 
 3912000   0.62401271   -8.6067392    554.66936  0.011815554   0.01048725         3744 
 3913000   0.62348273   -8.6067565     555.3601  0.011827245  0.010482902         3780 
 3914000   0.63120817   -8.6176666    553.21153  0.011778477  0.010478557         3781 
 3915000   0.63413115   -8.5986766    554.21457  0.011796819  0.010474214         3734 
 3916000   0.61048782   -8.6129606    553.65819  0.011781967   0.01046987         3767 
 3917000   0.62030675   -8.6162743    553.40063   0.01177348  0.010465527         3746 
 3918000   0.62748326   -8.6354368    552.41373  0.011749484  0.010461188         3771 
 3919000   0.63836579   -8.6119786    554.28256  0.011786224   0.01045685         3776 
 3920000   0.62671148   -8.6162178    553.97745  0.011776732  0.010452517         3822 
 3921000   0.62615619   -8.6148428    554.58355   0.01178661  0.010448188         3766 
 3922000   0.61799948   -8.6361024    553.96567  0.011770476  0.010443854         3811 
 3923000   0.64011139   -8.6086491    553.63302  0.011760409  0.010439523         3801 
 3924000   0.62611795   -8.6157634    553.68377   0.01175849  0.010435199         3818 
 3925000   0.63071471   -8.6238277    553.39173  0.011749294  0.010430872         3761 
 3926000   0.61560356   -8.6067563    554.12918  0.011761954  0.010426549         3751 
 3927000   0.62624188   -8.6193794    552.77726   0.01173027  0.010422229         3752 
 3928000   0.62426699   -8.5814611    553.85452  0.011750138  0.010417914         3757 
 3929000   0.61518356   -8.6208098    553.36705  0.011736809  0.010413598         3785 
 3930000   0.63145955   -8.6148541    553.45004  0.011735582  0.010409281         3780 
 3931000    0.6189001   -8.6269301    552.96606  0.011722337   0.01040497         3809 
 3932000   0.61773134   -8.6468944    553.12851  0.011722798  0.010400663         3773 
 3933000   0.62783617   -8.6242128    554.45946  0.011748018   0.01039636         3726 
 3934000    0.6146393   -8.6082614    553.82925  0.011731682   0.01039206         3752 
 3935000   0.61405533   -8.6377211    553.69776  0.011725916  0.010387758         3741 
 3936000   0.61842667   -8.6092914    554.77494  0.011745743  0.010383463         3756 
 3937000   0.61853094   -8.6397035     553.1325  0.011707995  0.010379161         3771 
 3938000   0.62835184   -8.6055904    553.90782  0.011721428  0.010374865         3794 
 3939000   0.61714791   -8.6105106    554.07418  0.011721972  0.010370577         3762 
 3940000   0.62428267   -8.6244236    554.12788  0.011720133  0.010366285         3762 
 3941000   0.60736232   -8.6330828    553.27993  0.011699229     0.010362         3779 
 3942000   0.61693223   -8.6204312    554.14527  0.011714554  0.010357717         3761 
 3943000   0.61954923   -8.6154286    553.77859  0.011703834  0.010353439         3769 
 3944000   0.63184861   -8.6229627    554.83492  0.011723185  0.010349159         3767 
 3945000   0.61482533   -8.6180461    553.90546   0.01170058  0.010344881         3790 
 3946000   0.60375057   -8.6375501    553.75072  0.011694347  0.010340605         3759 
 3947000   0.62634056   -8.6363338    553.74935  0.011691355  0.010336329         3747 
 3948000   0.62284446   -8.6118798    553.97438  0.011693144  0.010332059         3766 
 3949000   0.63024642   -8.6224272     553.8593  0.011687754  0.010327794         3750 
 3950000   0.63315868   -8.5908218      553.808  0.011683713  0.010323531         3768 
 3951000   0.60510763   -8.6198795     554.0634  0.011686143  0.010319272         3760 
 3952000   0.63019056   -8.6273479    553.37166    0.0116686  0.010315012         3741 
 3953000   0.62578781   -8.6230414    553.93664  0.011677558  0.010310755         3765 
 3954000   0.63441038   -8.6188676    554.09796  0.011678004  0.010306498         3762 
 3955000   0.59520641   -8.6091131    554.18118  0.011676805  0.010302243         3786 
 3956000   0.61755487   -8.6379777    553.04766  0.011649976  0.010297991         3787 
 3957000   0.62180742   -8.6042426    553.70258  0.011660824  0.010293742         3708 
 3958000   0.64002369   -8.6319427    553.07967  0.011644763  0.010289496         3813 
 3959000   0.61766003   -8.6007251     553.6052  0.011652884  0.010285256         3802 
 3960000   0.61858252   -8.6306589    553.19911  0.011641396  0.010281016         3743 
 3961000    0.6185526   -8.6350195    552.62898  0.011626462  0.010276771         3749 
 3962000   0.61432159   -8.6043645    553.78055  0.011647748  0.010272531         3752 
 3963000   0.62538483   -8.6156428    553.33287  0.011635395  0.010268297         3786 
 3964000   0.61616061   -8.6278889    553.16539  0.011628939  0.010264061         3755 
 3965000   0.62700713   -8.6170981    552.87816   0.01161997  0.010259827         3790 
 3966000    0.6268133   -8.6208445    553.16574  0.011623083  0.010255601         3758 
 3967000   0.61400011   -8.6266181    553.34094  0.011623833  0.010251374         3778 
 3968000   0.61534849   -8.6339031    552.59923  0.011605327  0.010247151         3788 
 3969000   0.61900118    -8.618503    552.66156  0.011603711  0.010242928         3742 
 3970000   0.61315371   -8.6081821    553.73004  0.011623217  0.010238705         3803 
 3971000   0.62247065   -8.6427547    553.86173  0.011623053  0.010234489         3773 
 3972000   0.62233561   -8.6172098     552.4581  0.011590678  0.010230272         3785 
 3973000   0.60896421   -8.6360457    552.54613  0.011589608  0.010226062         3778 
 3974000    0.6069684   -8.6263686    553.61422  0.011609089   0.01022185         3759 
 3975000   0.61701788    -8.635745    553.21274  0.011597751  0.010217641         3793 
 3976000   0.61677002   -8.6217738    552.76246  0.011585397  0.010213429         3827 
 3977000   0.60873945   -8.6440218    552.73338  0.011581874  0.010209222         3753 
 3978000   0.59923698    -8.634627    552.10268  0.011565751  0.010205017         3727 
 3979000   0.61503631   -8.6235649    552.28969  0.011566761  0.010200815         3805 
 3980000   0.61111462   -8.6420207    553.28073  0.011584605  0.010196614         3761 
 3981000   0.61008969   -8.6345555    554.13725  0.011599624  0.010192415         3752 
 3982000   0.61113118   -8.6469954     553.4422  0.011582166  0.010188222         3776 
 3983000   0.62161533   -8.6311917    553.13425  0.011572815   0.01018403         3749 
 3984000   0.61968136   -8.6174814    552.73232  0.011561503  0.010179838         3768 
 3985000   0.61532253   -8.6343864     553.8702  0.011582396  0.010175646         3762 
 3986000   0.61032889   -8.6334401    552.81922  0.011557518   0.01017146         3761 
 3987000   0.62638371     -8.63972    553.06802   0.01155982  0.010167279         3760 
 3988000   0.61953351   -8.6169157    553.34649   0.01156274  0.010163094         3777 
 3989000   0.62827628   -8.6414331     553.6664  0.011566525  0.010158917         3738 
 3990000   0.60700984   -8.6465435    552.51941   0.01153967  0.010154737         3744 
 3991000   0.60583828   -8.6373731    553.80349  0.011563591  0.010150565         3800 
 3992000    0.6159654   -8.6437084    552.85607  0.011540917   0.01014639         3768 
 3993000   0.61892104   -8.6132348    552.67984  0.011534348  0.010142224         3700 
 3994000    0.6294854     -8.63102    553.37639  0.011545994  0.010138063         3789 
 3995000   0.60212418   -8.6253625    552.61548  0.011527232  0.010133897         3797 
 3996000   0.61386225   -8.6259727    553.62257  0.011545349  0.010129735         3766 
 3997000   0.62337992   -8.6317432    553.16508  0.011532922  0.010125569         3761 
 3998000   0.62210809   -8.6250562    553.38646  0.011534652  0.010121408         3765 
 3999000   0.60669477   -8.6271252    552.53004  0.011513921  0.010117251         3781 
 4000000   0.61607768   -8.6555672    552.49213  0.011510253    0.0101131         3781 
 4001000   0.60323203   -8.6386789    553.60275  0.011530508  0.010108949         3768 
 4002000   0.61824027   -8.6493433    552.53827  0.011505461  0.010104798         3792 
 4003000   0.59997098   -8.6527202    553.18761  0.011516105   0.01010065         3741 
 4004000     0.610653   -8.6288144    553.04368  0.011510233  0.010096507         3800 
 4005000   0.60778336    -8.649441    552.20621  0.011489934  0.010092362         3809 
 4006000    0.6144862   -8.6398617    553.19294  0.011507591  0.010088221         3734 
 4007000   0.61604884   -8.6299151    552.97438  0.011500174  0.010084086         3775 
 4008000    0.6229815   -8.6380618     553.3097  0.011504277  0.010079951         3789 
 4009000   0.61036967   -8.6224682    553.69891  0.011509498   0.01007582         3770 
 4010000   0.61879608   -8.6268008    553.05087   0.01149316   0.01007169         3758 
 4011000   0.62123145   -8.6516955    553.05307   0.01149034  0.010067558         3751 
 4012000    0.5958322   -8.6461958    553.53518   0.01149749  0.010063431         3777 
 4013000   0.61298779   -8.6443394    552.59491    0.0114751  0.010059305         3779 
 4014000    0.5881885   -8.6396985    552.15984  0.011463209  0.010055184         3781 
 4015000   0.60749864   -8.6257624    552.94548   0.01147666  0.010051055         3743 
 4016000   0.60554456   -8.6266664    553.58313  0.011487034  0.010046935         3783 
 4017000   0.60347734   -8.6187641    553.65596  0.011485685  0.010042819         3758 
 4018000    0.6036928   -8.6726162    551.82657  0.011444885  0.010038703         3762 
 4019000   0.61501294   -8.6283678    552.77226  0.011461646  0.010034582         3760 
 4020000   0.62166399    -8.652832    553.16187  0.011466871  0.010030474         3758 
 4021000    0.6193795   -8.6323937    553.44331  0.011469852  0.010026366         3784 
 4022000   0.62224744   -8.6417478    552.67723  0.011451128  0.010022261         3806 
 4023000   0.62138736   -8.6453875    552.45794  0.011443739  0.010018156         3783 
 4024000   0.61024504   -8.6303996     552.4005  0.011439706  0.010014055         3784 
 4025000   0.60284202   -8.6605647    552.88678  0.011446931  0.010009952         3801 
 4026000   0.60484124    -8.663748    551.91894  0.011424055  0.010005853         3763 
 4027000   0.60243935   -8.6593049    553.00168  0.011443624  0.010001757         3789 
 4028000   0.61119191   -8.6376113    552.85785  0.011437807 0.0099976648         3710 
 4029000    0.6094001   -8.6281242     553.5954  0.011450223   0.00999358         3693 
 4030000    0.6087167   -8.6179764    552.82423  0.011431436 0.0099894927         3737 
 4031000   0.61052496    -8.636551    552.66652  0.011425339 0.0099854085         3744 
 4032000   0.61045245   -8.6546443    553.24366  0.011434434 0.0099813252         3812 
 4033000   0.60330931   -8.6644869    552.41466  0.011414469 0.0099772411         3799 
 4034000   0.61401994   -8.6454739    552.59397  0.011415344 0.0099731595         3777 
 4035000   0.60571531   -8.6457074    553.31954    0.0114275 0.0099690822         3779 
 4036000    0.6117642   -8.6557759    553.52423  0.011428895 0.0099650061         3767 
 4037000   0.59627751   -8.6312974    552.92316  0.011413656 0.0099609362         3763 
 4038000   0.58813461   -8.6438346    553.86891  0.011430347 0.0099568657         3760 
 4039000   0.61051889    -8.637269    552.55268  0.011400361 0.0099527924         3765 
 4040000   0.60179878   -8.6413456    552.74482  0.011401502 0.0099487233         3785 
 4041000   0.59405564   -8.6428782     552.6997   0.01139775 0.0099446527         3779 
 4042000   0.61157768   -8.6510837    552.75862  0.011396145 0.0099405887         3785 
 4043000   0.60261803   -8.6481606    553.26343  0.011403731 0.0099365253         3788 
 4044000   0.61016223   -8.6645654     552.4707  0.011384576 0.0099324677         3807 
 4045000   0.61716193   -8.6574915    552.49863  0.011382337 0.0099284127         3746 
 4046000   0.60694113   -8.6508152    552.73046  0.011384298 0.0099243577         3772 
 4047000   0.60436471    -8.662542    552.19675  0.011370496 0.0099203059         3793 
 4048000    0.6044011   -8.6472301    552.97601  0.011383729 0.0099162571         3811 
 4049000   0.61651271   -8.6499749     553.1461  0.011384418 0.0099122064         3797 
 4050000   0.61328544   -8.6539621     553.2172   0.01138307 0.0099081645         3787 
 4051000   0.61346762   -8.6484123    553.44981  0.011385045 0.0099041213         3766 
 4052000   0.59773031   -8.6407815    552.22606  0.011357068 0.0099000795         3772 
 4053000   0.60572637    -8.645721    552.82589  0.011366599 0.0098960406         3748 
 4054000   0.59430175   -8.6493905    552.70389  0.011361287 0.0098920021         3761 
 4055000   0.58536431   -8.6515345    552.44986  0.011353265 0.0098879673         3773 
 4056000   0.60361066   -8.6577689    551.40595  0.011329018 0.0098839349         3797 
 4057000   0.59923777   -8.6537359    552.61888  0.011351139 0.0098799064         3803 
 4058000   0.60234919   -8.6712193    552.79595  0.011351979 0.0098758744         3743 
 4059000   0.61240503   -8.6455388    552.34646  0.011339954 0.0098718471         3771 
 4060000   0.60910416   -8.6530188    552.54287  0.011341192 0.0098678235         3749 
 4061000   0.60286928   -8.6407618    551.95842  0.011326406 0.0098638016         3762 
 4062000    0.6114694   -8.6628752     552.6479  0.011337763 0.0098597802         3805 
 4063000   0.60549336    -8.660769    551.81197  0.011317827 0.0098557603         3743 
 4064000    0.6047705   -8.6649779    552.07216  0.011320377  0.009851744         3806 
 4065000   0.60240585   -8.6555758    552.97713  0.011336145 0.0098477262         3785 
 4066000   0.58929324   -8.6571005    551.86205  0.011310503 0.0098437113         3768 
 4067000   0.60743833   -8.6380399     552.3597  0.011317919 0.0098396996         3778 
 4068000   0.60020056   -8.6518969    552.57967  0.011319643 0.0098356938         3800 
 4069000   0.60250339   -8.6518019    552.65561  0.011318416 0.0098316855         3787 
 4070000   0.59263958   -8.6388282    552.49727  0.011312393 0.0098276792         3747 
 4071000   0.59567786    -8.630294    552.89964  0.011317851 0.0098236772         3780 
 4072000    0.5932673   -8.6688784    551.58808   0.01128823 0.0098196799         3802 
 4073000   0.60848325   -8.6447418    553.08828  0.011316153 0.0098156796         3784 
 4074000   0.60241844   -8.6468883    551.21981  0.011275156  0.009811685         3780 
 4075000   0.60218414     -8.65031    551.56174  0.011279381 0.0098076933         3818 
 4076000    0.5921773   -8.6693183    551.73383  0.011280132 0.0098036997         3782 
 4077000   0.60495364   -8.6577584     551.9315  0.011281406 0.0097997091         3769 
 4078000   0.61547144   -8.6641849    552.13379  0.011282773 0.0097957207         3792 
 4079000   0.60657414   -8.6647849    551.83461  0.011273895 0.0097917322         3787 
 4080000   0.58411301   -8.6564612    551.61449  0.011266636 0.0097877509         3744 
 4081000   0.59375558   -8.6317923     553.3474  0.011299261 0.0097837717         3800 
 4082000   0.60657441   -8.6571644    552.49288  0.011279048 0.0097797928         3732 
 4083000   0.60037325   -8.6507708    551.08059  0.011247461 0.0097758191         3810 
 4084000   0.59754439   -8.6640628    551.60835  0.011255476 0.0097718428         3770 
 4085000   0.58787222   -8.6687995    552.35279  0.011267907 0.0097678687         3802 
 4086000    0.5919195   -8.6588908    552.66091  0.011271433 0.0097638965         3756 
 4087000    0.5992659   -8.6396503    552.70506  0.011269575 0.0097599261         3778 
 4088000   0.60176558   -8.6540348    552.60491  0.011264777  0.009755959         3810 
 4089000   0.59349089    -8.657361    552.51791  0.011260249 0.0097519963         3776 
 4090000   0.59581604   -8.6585948    552.15103  0.011250021 0.0097480326         3819 
 4091000   0.60859203   -8.6733552    551.67101  0.011237493 0.0097440734         3795 
 4092000   0.60395213   -8.6622686    551.34469  0.011228101 0.0097401119         3813 
 4093000   0.59124283   -8.6611649    551.41291  0.011226747 0.0097361569         3785 
 4094000   0.60746309   -8.6732618    552.63989   0.01124898 0.0097322024         3801 
 4095000   0.58853562   -8.6724676    551.96198  0.011232437 0.0097282514         3775 
 4096000   0.59302293    -8.637098    552.96296   0.01125006 0.0097243034         3791 
 4097000   0.60190228   -8.6607248    552.34885  0.011234823 0.0097203503         3818 
 4098000   0.58615743   -8.6636826    552.45465  0.011234233 0.0097164022         3781 
 4099000   0.60976772   -8.6632335    552.87992  0.011240138  0.009712457         3774 
 4100000   0.58479619   -8.6622765    552.01647  0.011219847 0.0097085189         3790 
 4101000   0.60605523   -8.6555355    551.84108  0.011213547 0.0097045765         3747 
 4102000   0.59797293    -8.651557    552.24833  0.011219087 0.0097006344         3784 
 4103000   0.60290228   -8.6390911    552.36685   0.01121876 0.0096967019         3808 
 4104000      0.59324   -8.6699816    551.50448  0.011198515 0.0096927668         3760 
 4105000   0.58302598   -8.6533202    551.74409  0.011200651  0.009688833         3748 
 4106000   0.60318662   -8.6458171    552.74544  0.011218247 0.0096849021         3771 
 4107000   0.59051438   -8.6584664    552.06238  0.011201655 0.0096809768         3759 
 4108000   0.59562285   -8.6686693    553.11844  0.011220351 0.0096770506         3791 
 4109000   0.59914768   -8.6752794    551.99491  0.011194835 0.0096731285         3777 
 4110000   0.59344675   -8.6754607    552.15225  0.011195301 0.0096692108         3795 
 4111000   0.59317693   -8.6788327     551.6049  0.011181483 0.0096652894         3780 
 4112000   0.58644908   -8.6694291    552.10015    0.0111888 0.0096613694         3786 
 4113000   0.59016059   -8.6804045    552.26333  0.011189386 0.0096574555         3756 
 4114000   0.59063282   -8.6574711    552.24585  0.011186312 0.0096535405         3789 
 4115000   0.57724176   -8.6709205    552.19923  0.011182649 0.0096496281         3787 
 4116000   0.58748971    -8.664766    551.85664  0.011172996 0.0096457211         3800 
 4117000    0.5836225   -8.6507743    552.02357  0.011173661 0.0096418122         3787 
 4118000   0.60658611   -8.6543099    551.27475  0.011155795 0.0096379077         3832 
 4119000   0.59958662   -8.6693196    552.08912  0.011169562 0.0096340071         3797 
 4120000   0.58857164   -8.6619169    551.62217  0.011157406 0.0096301073         3790 
 4121000   0.59890928   -8.6612058    552.60112  0.011174495   0.00962621         3756 
 4122000   0.59280069   -8.6803117    550.93973  0.011138196 0.0096223178         3808 
 4123000   0.59086141   -8.6782737    551.82926  0.011153474 0.0096184216         3792 
 4124000   0.58432298   -8.6756464    552.33246  0.011160937 0.0096145285         3791 
 4125000   0.59283877    -8.661037    552.63373  0.011164318 0.0096106373         3783 
 4126000   0.58485599   -8.6639849    551.38354  0.011136362 0.0096067502         3821 
 4127000   0.59675339   -8.6713852    552.91302  0.011164547 0.0096028665         3799 
 4128000   0.60158349   -8.6640963    551.16296  0.011126513 0.0095989831         3772 
 4129000   0.58017151   -8.6836429    550.67653  0.011114001 0.0095951011         3779 
 4130000   0.58921883   -8.6556709    551.01753  0.011118191  0.009591218         3752 
 4131000   0.58979824   -8.6884945    551.58911   0.01112703 0.0095873374         3768 
 4132000   0.58652426   -8.6747118    552.66571  0.011146049 0.0095834589         3781 
 4133000   0.58592938   -8.6631037    552.55887  0.011141198 0.0095795848         3793 
 4134000   0.58791669   -8.6807495    551.87075  0.011124632 0.0095757108         3754 
 4135000    0.5901854   -8.6805234    553.19367  0.011148603 0.0095718401         3798 
 4136000   0.58810709   -8.6641512    552.01364  0.011122132 0.0095679691         3800 
 4137000   0.60723587   -8.6610816    551.76646  0.011114464 0.0095641044         3764 
 4138000   0.58724106   -8.6563495    552.27499  0.011122019 0.0095602403         3764 
 4139000   0.58192061   -8.6668815    552.01644  0.011114127 0.0095563766         3780 
 4140000   0.58996094   -8.6597679    551.44774  0.011099995 0.0095525154         3799 
 4141000   0.59678618   -8.6883756    550.53069   0.01107886 0.0095486578         3792 
 4142000   0.58578145   -8.6754384    551.52992  0.011096288 0.0095448034         3804 
 4143000   0.58331079    -8.679088    551.79333  0.011098908 0.0095409503         3786 
 4144000   0.59509394   -8.6744923    551.42978  0.011088919 0.0095370945         3775 
 4145000   0.58739512   -8.6569996    552.51031  0.011107968 0.0095332423         3799 
 4146000   0.57414912   -8.6747356    551.76521  0.011090312 0.0095293925         3796 
 4147000   0.58426681   -8.6736495     551.6585  0.011085493 0.0095255445         3770 
 4148000   0.59101492   -8.6709923    551.67908  0.011083234 0.0095216976         3826 
 4149000   0.60397268   -8.6834478    552.18407  0.011090706 0.0095178563         3807 
 4150000   0.58499572   -8.6792492    552.65895  0.011097569 0.0095140125         3734 
 4151000   0.58016247   -8.6910072     551.3514  0.011068646 0.0095101733         3827 
 4152000   0.59978495   -8.6582687    550.80046  0.011054923 0.0095063368         3718 
 4153000   0.59680347    -8.681204    551.30652  0.011062415 0.0095025044         3787 
 4154000   0.57941691   -8.6843474    552.29633  0.011079609 0.0094986712         3751 
 4155000   0.58707963    -8.670462    551.72466  0.011065477 0.0094948397         3786 
 4156000   0.57428786   -8.6805347    551.58315  0.011059977 0.0094910122         3818 
 4157000   0.60694324   -8.6556765    552.02286  0.011066131 0.0094871869         3793 
 4158000   0.58987026   -8.6765828    552.05068  0.011064027 0.0094833674         3768 
 4159000   0.57663132   -8.6788887    551.99891  0.011060329 0.0094795463         3738 
 4160000   0.58767442   -8.6866323    551.69544  0.011051591 0.0094757266         3850 
 4161000   0.58697331   -8.6917782    551.77724  0.011050574 0.0094719116         3755 
 4162000   0.58272658   -8.6656006    552.11126  0.011054606 0.0094680974         3825 
 4163000   0.59886078   -8.6755731     551.7342  0.011044403 0.0094642837         3765 
 4164000   0.57810641   -8.6889229    551.70168    0.0110411 0.0094604738         3819 
 4165000   0.58820303   -8.6802345    551.07401   0.01102589 0.0094566607         3816 
 4166000   0.58746173   -8.6763066    552.64173  0.011054603 0.0094528531         3776 
 4167000   0.58421596   -8.6888681    551.32798  0.011025678  0.009449044         3806 
 4168000   0.58338809   -8.6711586    551.93992  0.011035267 0.0094452373         3785 
 4169000   0.57499817   -8.7033379    551.76471  0.011029118 0.0094414325         3780 
 4170000   0.58874474   -8.6870876    552.04555  0.011032085 0.0094376356         3802 
 4171000    0.5826511   -8.6710698     551.6976  0.011022489 0.0094338381         3790 
 4172000   0.58647848   -8.6611035    552.49461  0.011035766 0.0094300444         3765 
 4173000   0.58165673   -8.6824443     551.8816   0.01102088  0.009426254         3778 
 4174000     0.587244   -8.6830302    550.99348  0.011000509 0.0094224647         3813 
 4175000   0.59717327   -8.6923026    551.46248  0.011007235 0.0094186733         3765 
 4176000   0.57710008   -8.6804928    551.67467  0.011008834  0.009414886         3762 
 4177000   0.58506403   -8.7001917    551.28748  0.010998473 0.0094111037         3774 
 4178000   0.57602546   -8.6722547    552.07689  0.011011586 0.0094073181         3778 
 4179000   0.58315501   -8.6742538    551.72842  0.011002002 0.0094035377         3789 
 4180000   0.58005397   -8.6652575    551.19978  0.010988831 0.0093997583         3796 
 4181000   0.56996783   -8.6721549    551.33925  0.010988983 0.0093959819         3751 
 4182000   0.57961933   -8.6840732    553.18658  0.011023166 0.0093922068         3780 
 4183000   0.58789578   -8.6829479    551.05199  0.010978006 0.0093884346         3795 
 4184000   0.58870125   -8.6935071    551.14962  0.010977327 0.0093846604         3798 
 4185000   0.58710584    -8.694195    550.97643  0.010971255 0.0093808903         3785 
 4186000   0.58454386   -8.6812136    552.33281  0.010995637 0.0093771257         3766 
 4187000   0.59221825   -8.6786779     550.7335  0.010961179 0.0093733614         3787 
 4188000   0.57411133   -8.6892962    552.20226  0.010987788  0.009369596         3807 
 4189000   0.57718234   -8.6749182     550.5882  0.010953056 0.0093658354         3777 
 4190000   0.58706508   -8.6956813    551.54622  0.010969495 0.0093620781         3761 
 4191000   0.57781068   -8.6913565    551.83419  0.010972604 0.0093583218         3761 
 4192000   0.58973892     -8.68361    551.12053  0.010955799 0.0093545685         3782 
 4193000   0.58941122    -8.670036     551.7513  0.010965723 0.0093508182         3770 
 4194000   0.57096213   -8.7003274    552.16738  0.010971375 0.0093470684         3781 
 4195000   0.58957608   -8.6862109    551.26533  0.010950841 0.0093433181         3777 
 4196000   0.58664126   -8.7000663    550.08398  0.010924769 0.0093395685         3799 
 4197000    0.5942441   -8.6779509    551.31741  0.010946657 0.0093358258         3773 
 4198000   0.56326832    -8.693488    550.81551  0.010934086 0.0093320786         3813 
 4199000   0.57454758   -8.6969372    551.55794  0.010946216 0.0093283356         3771 
 4200000   0.56975452   -8.7070634    551.30949   0.01093868 0.0093245935         3795 
 4201000   0.57404187   -8.6877262    552.17819  0.010953309 0.0093208568         3785 
 4202000   0.58867854   -8.6868439     551.5079  0.010937409 0.0093171164         3770 
 4203000   0.58716525   -8.6780943    551.39477  0.010932563 0.0093133802         3821 
 4204000   0.56789381    -8.674903    551.24362  0.010926967 0.0093096452         3790 
 4205000   0.57745644   -8.7001319    551.85056  0.010936396 0.0093059128         3764 
 4206000   0.58148784   -8.7071915     551.4044  0.010924956 0.0093021828         3761 
 4207000   0.58928476   -8.6837518    551.47823  0.010923822 0.0092984562         3793 
 4208000   0.57466455   -8.6679959    551.61837  0.010924001 0.0092947313         3765 
 4209000   0.58129871   -8.6758598    551.33592  0.010915814 0.0092910084         3733 
 4210000    0.5793412    -8.692186    551.91574  0.010924698 0.0092872853         3733 
 4211000   0.58626642   -8.6932058    552.31064  0.010929919 0.0092835639         3768 
 4212000    0.5775898   -8.7126082     550.9592  0.010900586 0.0092798443         3780 
 4213000   0.57182371   -8.6821636    551.16861   0.01090214 0.0092761282         3786 
 4214000    0.5777194   -8.6821564    551.19125  0.010900001 0.0092724158         3768 
 4215000   0.57517162   -8.6975661    550.53524  0.010884445 0.0092687017         3793 
 4216000   0.57671429   -8.6850852    551.69541  0.010904795 0.0092649916         3757 
 4217000   0.57851141   -8.6828616    551.55937  0.010899521 0.0092612843         3792 
 4218000   0.57164342   -8.6972837    550.96498  0.010885194 0.0092575753         3775 
 4219000   0.58602888   -8.6759949    551.55851  0.010894337 0.0092538721         3800 
 4220000   0.57984556   -8.6930033    551.35673  0.010887771 0.0092501725         3819 
 4221000   0.58572321    -8.695496    549.79091  0.010854278 0.0092464721         3766 
 4222000   0.57631896   -8.6876337    551.50761  0.010885592 0.0092427739         3777 
 4223000   0.58140909   -8.6913483    550.70896  0.010867254  0.009239078         3795 
 4224000   0.57029523   -8.7008069    550.71991  0.010864897 0.0092353843         3786 
 4225000   0.58554901   -8.7061047    551.30954  0.010873955 0.0092316922         3793 
 4226000   0.56892852   -8.7011652    552.02505  0.010885492 0.0092280039         3750 
 4227000    0.5722451    -8.699285    551.01768  0.010863057 0.0092243171         3796 
 4228000   0.58119897   -8.6879163    550.81089  0.010856411 0.0092206306         3807 
 4229000    0.5665969    -8.697629    551.83846  0.010874093 0.0092169466         3819 
 4230000   0.57908642   -8.6921991    551.62605  0.010867337 0.0092132623         3770 
 4231000   0.57360936     -8.69818    551.26358   0.01085763 0.0092095795         3815 
 4232000   0.56761293   -8.6966044    551.91562  0.010867904  0.009205898         3793 
 4233000   0.56677344     -8.70117    552.19638  0.010870863 0.0092022198         3769 
 4234000   0.58211485   -8.6943477    551.51665  0.010854918 0.0091985432         3751 
 4235000   0.57356538   -8.7196321    550.80513  0.010838354 0.0091948671         3775 
 4236000   0.56639522   -8.6944795     551.3134  0.010845794 0.0091911958         3775 
 4237000   0.58578204   -8.7085331    550.99669  0.010837005 0.0091875286         3785 
 4238000   0.57378447   -8.7015807    550.66688  0.010827963 0.0091838634         3774 
 4239000   0.57811145   -8.6995207    550.97247  0.010831416 0.0091802009         3784 
 4240000   0.58162302   -8.6824157    550.46796  0.010818946 0.0091765388         3798 
 4241000   0.57285595   -8.7006935    551.16092  0.010830011 0.0091728786         3767 
 4242000   0.57976391   -8.6990477    551.15461  0.010827334 0.0091692178         3807 
 4243000   0.56744834   -8.7015432    551.11938   0.01082409  0.009165557         3768 
 4244000   0.56259302   -8.6950514    550.59671  0.010811277 0.0091619033         3811 
 4245000   0.57388968   -8.6908138     550.8509   0.01081372 0.0091582491         3829 
 4246000   0.57666133   -8.6932387    551.86511  0.010831079 0.0091545979         3801 
 4247000   0.56311359   -8.6996039    549.96608  0.010791266 0.0091509482         3774 
 4248000   0.56368053   -8.6692736    551.94646  0.010827575 0.0091473033         3765 
 4249000   0.58987015   -8.7091719    551.80623  0.010822276 0.0091436586         3795 
 4250000   0.55850408   -8.7071303    551.56916  0.010815082 0.0091400153         3786 
 4251000   0.57396561   -8.6966573    551.61387  0.010813414 0.0091363711         3789 
 4252000   0.56553351   -8.6985456    551.38976  0.010806479 0.0091327326         3789 
 4253000   0.58050606   -8.6975188    551.43492  0.010804823 0.0091290939         3761 
 4254000   0.56376717   -8.6885341    552.73108  0.010827674 0.0091254569         3848 
 4255000   0.56310069   -8.7093853    550.91289   0.01078952 0.0091218213         3762 
 4256000   0.56171565   -8.7036101    551.04128  0.010789499 0.0091181898         3804 
 4257000   0.58075076   -8.6878606    550.55112  0.010777369 0.0091145579         3792 
 4258000   0.57909039   -8.7063234    550.33454  0.010770599 0.0091109333         3781 
 4259000    0.5730179   -8.7196281    550.95777  0.010780265 0.0091073058         3775 
 4260000   0.57310662   -8.6990695    551.44628   0.01078729  0.009103681         3822 
 4261000   0.57386995   -8.7124971     551.6361  0.010788471 0.0091000577         3802 
 4262000   0.56525412   -8.6951351    551.90712  0.010791239 0.0090964378         3768 
 4263000   0.57335757   -8.7099878    550.97212   0.01077043 0.0090928213         3770 
 4264000   0.57204363    -8.716558     550.2384  0.010753565  0.009089205         3788 
 4265000   0.56171223   -8.7175431    551.21514  0.010770128 0.0090855904         3778 
 4266000   0.57875734   -8.7076749    550.54125  0.010754439 0.0090819771         3758 
 4267000   0.56223537    -8.690284    550.61655  0.010753389 0.0090783671         3814 
 4268000   0.56971349   -8.6996593    550.08084   0.01074041 0.0090747554         3790 
 4269000   0.57194758   -8.7000507    551.00814  0.010755996 0.0090711505         3772 
 4270000   0.56128766   -8.6984061    550.63947  0.010746282 0.0090675419         3817 
 4271000   0.57120469   -8.7079406    550.62149  0.010743415  0.009063941         3750 
 4272000    0.5629362   -8.6968178    551.13916  0.010750998 0.0090603411         3788 
 4273000   0.55953396   -8.6876834    551.27933  0.010751216 0.0090567393         3767 
 4274000   0.57494984   -8.7039046    551.33154  0.010749718 0.0090531393         3784 
 4275000   0.55507246   -8.7077502    551.58158  0.010752078 0.0090495412         3809 
 4276000   0.57000416   -8.7215122    551.03963  0.010739001 0.0090459486         3802 
 4277000   0.56834053   -8.6998706    551.11827  0.010738023 0.0090423589         3800 
 4278000     0.559891   -8.6833449    551.16772  0.010736476 0.0090387689         3797 
 4279000   0.56659647   -8.7105431    551.27076  0.010735973   0.00903518         3811 
 4280000   0.56841103   -8.7168973    549.99991  0.010708721 0.0090315977         3767 
 4281000   0.56923869    -8.695591    552.30818  0.010751152 0.0090280152         3809 
 4282000   0.57574604   -8.7051593    550.07116  0.010705106 0.0090244349         3790 
 4283000   0.56701453   -8.7171983    550.44358  0.010709853 0.0090208567         3801 
 4284000     0.585542   -8.7112553    550.83002   0.01071487  0.009017276         3734 
 4285000   0.56327037   -8.7165468    549.88677  0.010694025 0.0090137006         3810 
 4286000   0.56794687   -8.7307184    550.19764  0.010697574 0.0090101269         3812 
 4287000   0.57480098   -8.7189907    550.15927  0.010694333 0.0090065556         3819 
 4288000    0.5828063   -8.7221305    550.30503  0.010694672 0.0090029863         3828 
 4289000   0.57277189   -8.7051571    551.60225  0.010717383  0.008999417         3811 
 4290000   0.56980757   -8.7074414     550.9406  0.010702032 0.0089958483         3778 
 4291000    0.5646017   -8.6861216    550.25472  0.010686218  0.008992281         3809 
 4292000   0.55671184   -8.7032088    550.42338  0.010687002 0.0089887168         3758 
 4293000   0.55520013   -8.7110418    550.88713  0.010693515 0.0089851541         3786 
 4294000   0.55494888    -8.693743    550.72802  0.010687937  0.008981596         3767 
 4295000   0.55021856   -8.7166267    551.38235  0.010698144 0.0089780362         3780 
 4296000   0.56614091   -8.7234715    550.34747  0.010675579 0.0089744779         3806 
 4297000   0.56276564   -8.7176156    550.80178  0.010681906 0.0089709196         3804 
 4298000   0.55726305   -8.6970524     550.3875  0.010671388 0.0089673656         3783 
 4299000   0.55947741    -8.698537    551.45237  0.010689547 0.0089638126         3772 
 4300000    0.5574521   -8.7204026    550.32253  0.010665165 0.0089602602         3819 
 4301000   0.54948577   -8.7133875    550.88025  0.010673492 0.0089567155         3817 
 4302000   0.55478905   -8.7070293    551.02101  0.010673737 0.0089531674         3806 
 4303000   0.56570416   -8.7152917    550.06171  0.010652679 0.0089496213         3810 
 4304000   0.57371683   -8.7083682    550.48674  0.010658433 0.0089460798         3773 
 4305000   0.55467857   -8.7132185    550.75495  0.010661149 0.0089425326         3769 
 4306000    0.5716105   -8.7211567    550.34234  0.010650688 0.0089389967         3794 
 4307000   0.57215289   -8.7100068       550.84  0.010657844  0.008935457         3800 
 4308000   0.55726884   -8.7074559    549.76444  0.010634564 0.0089319204         3792 
 4309000   0.56235566   -8.7249588    549.94241  0.010635538 0.0089283863         3820 
 4310000   0.56349262    -8.701436    550.77663    0.0106492 0.0089248553         3777 
 4311000   0.56164302   -8.7015594    551.07412  0.010652481 0.0089213251         3780 
 4312000   0.54758745    -8.719785    549.80992  0.010625578 0.0089177954         3810 
 4313000    0.5581897   -8.7003611     550.4633  0.010635739   0.00891427         3810 
 4314000   0.55879649   -8.7210179    551.30466  0.010649526 0.0089107438         3786 
 4315000   0.56090503   -8.7276622    550.29474  0.010627554 0.0089072218         3753 
 4316000   0.56431837   -8.7069917    551.08028  0.010640259 0.0089037001         3761 
 4317000   0.56722538   -8.7148729    550.77106  0.010631825 0.0089001803         3737 
 4318000   0.56572241   -8.7119533    551.23983   0.01063841 0.0088966642         3766 
 4319000   0.56955327   -8.7086214    551.35247   0.01063812 0.0088931498         3729 
 4320000   0.54787825   -8.6896676    550.66771  0.010622448 0.0088896345         3767 
 4321000   0.56706457   -8.7277085    549.81728  0.010603589 0.0088861249         3803 
 4322000   0.56339427   -8.7244134    550.17859  0.010608102  0.008882616         3806 
 4323000    0.5544343   -8.7215255    550.90202  0.010619593 0.0088791112         3797 
 4324000   0.55701119   -8.7280123    550.54902  0.010610334 0.0088756082         3781 
 4325000   0.54396009   -8.7012394    550.55359  0.010607969 0.0088721043         3769 
 4326000   0.56002968   -8.7112326    550.50968  0.010604671 0.0088686039         3774 
 4327000   0.56463445   -8.7244132     550.4911  0.010601862 0.0088651011         3798 
 4328000   0.56645881   -8.7331996    550.88784  0.010607052 0.0088616031         3804 
 4329000   0.56858893   -8.7141842    551.77344  0.010621649 0.0088581058         3776 
 4330000   0.55023751   -8.7287181    550.60873  0.010596781 0.0088546109         3777 
 4331000   0.55197634   -8.7178131    551.18637  0.010605448 0.0088511185         3822 
 4332000   0.55457416   -8.7174711    550.54885  0.010590737 0.0088476257         3777 
 4333000    0.5426572   -8.7327874    549.91979  0.010576194 0.0088441373         3789 
 4334000   0.56605882   -8.7106414    551.04809  0.010595449 0.0088406495         3804 
 4335000   0.56753591   -8.7280549    550.63875  0.010585136 0.0088371653         3828 
 4336000   0.55844181   -8.7143435    549.89133   0.01056833 0.0088336848         3788 
 4337000   0.56981023   -8.7114195    551.17523  0.010590562  0.008830204         3774 
 4338000   0.55999186    -8.726862    550.65746  0.010578175 0.0088267231         3805 
 4339000   0.55512726   -8.7055137    550.90268  0.010580446 0.0088232443         3801 
 4340000   0.56143571   -8.7427813     549.9472  0.010559662 0.0088197664         3805 
 4341000   0.55830015   -8.7225936    550.51771  0.010568181  0.008816291         3776 
 4342000   0.54704835   -8.7318294    549.94622  0.010554779 0.0088128191         3780 
 4343000    0.5554093   -8.7144408    549.89046  0.010551279 0.0088093472         3801 
 4344000   0.55530375   -8.7196137    550.63921  0.010563214 0.0088058757         3774 
 4345000   0.55834991   -8.7129605    550.21057  0.010552562  0.008802405         3775 
 4346000   0.55191034   -8.7291977    550.09318  0.010547883 0.0087989385         3821 
 4347000    0.5699735   -8.7315128    550.22431   0.01054797 0.0087954753         3789 
 4348000   0.54599889   -8.7183727    550.63649  0.010553444 0.0087920157         3824 
 4349000   0.55663708   -8.7345941    550.15895  0.010541867 0.0087885542         3784 
 4350000   0.54511594   -8.7117875    550.72556  0.010550298 0.0087850935         3801 
 4351000   0.54833687   -8.7273184    551.17557  0.010556492 0.0087816375         3799 
 4352000   0.54309089   -8.7317542    549.94937  0.010530587 0.0087781795         3819 
 4353000   0.54725539   -8.7281579    550.32475  0.010535354 0.0087747242         3777 
 4354000   0.55177884   -8.7288655    550.37308  0.010533859 0.0087712727         3794 
 4355000   0.55960364   -8.7460092    550.11794  0.010526558 0.0087678241         3801 
 4356000    0.5466897   -8.7139094      551.056  0.010542088 0.0087643751         3779 
 4357000   0.55933455   -8.7298353    550.33388  0.010525856 0.0087609292         3819 
 4358000   0.56246292   -8.7478494    550.75183  0.010531433 0.0087574859         3771 
 4359000   0.56479202   -8.7233854    550.73449  0.010528686 0.0087540427         3803 
 4360000    0.5658306   -8.6989224    550.08983  0.010513949 0.0087506043         3794 
 4361000   0.54298997   -8.7176704     550.8567  0.010526192 0.0087471666         3783 
 4362000   0.55210293   -8.7447574    550.11562  0.010509621   0.00874373         3787 
 4363000   0.55592592   -8.7412965    550.00039  0.010505012 0.0087402932         3767 
 4364000   0.54049578   -8.7200018    548.88167  0.010481242 0.0087368588         3820 
 4365000   0.55234096   -8.7215856    550.28075  0.010505551 0.0087334273         3784 
 4366000   0.54933153   -8.7356586     550.4048  0.010505512 0.0087299953         3787 
 4367000   0.55929242   -8.7513931    550.46297  0.010504217 0.0087265641         3775 
 4368000   0.56353892   -8.7274486    551.02312  0.010512498 0.0087231371         3794 
 4369000   0.54574336   -8.7353002    550.19948  0.010494382  0.008719712         3820 
 4370000   0.56077619   -8.7454279    549.56899  0.010479958 0.0087162867         3753 
 4371000   0.55317756   -8.7273171    549.92438  0.010484336 0.0087128641         3804 
 4372000   0.55185341   -8.7258338    550.22691  0.010487704 0.0087094444         3788 
 4373000   0.54578189   -8.7257625    549.78094  0.010476807 0.0087060277         3811 
 4374000   0.57160011   -8.7197629    550.43694   0.01048691 0.0087026108         3805 
 4375000   0.54874591   -8.7370703    549.80729   0.01047252 0.0086991991         3805 
 4376000   0.55277951   -8.7511216    549.69985  0.010468081 0.0086957845         3801 
 4377000   0.55693486    -8.728354     550.7095  0.010484912 0.0086923721         3810 
 4378000   0.54926839   -8.7311963     549.4127  0.010457833 0.0086889626         3833 
 4379000   0.55255976   -8.7314698    549.70443  0.010460996 0.0086855552         3775 
 4380000   0.54624279   -8.7271126    549.98904  0.010464023 0.0086821493         3775 
 4381000   0.53793413   -8.7294693    550.93198  0.010479571  0.008678744         3802 
 4382000   0.55109625   -8.7354912    550.38856  0.010466845 0.0086753407         3828 
 4383000   0.54563462   -8.7395125    550.25508  0.010461919 0.0086719416         3775 
 4384000   0.55615084   -8.7193692    550.71158   0.01046821  0.008668548         3803 
 4385000   0.55933314    -8.729023    549.52489   0.01044327 0.0086651526         3795 
 4386000   0.54447611   -8.7286802    549.28144  0.010436264 0.0086617605         3796 
 4387000    0.5391184   -8.7558126     550.3954  0.010455045 0.0086583663         3791 
 4388000   0.55597525   -8.7268528    550.88273  0.010461918 0.0086549725         3779 
 4389000   0.55539166   -8.7291436    550.89227  0.010459715 0.0086515828         3839 
 4390000   0.55826455   -8.7273607     550.1693  0.010443609 0.0086481938         3807 
 4391000   0.54369997   -8.7210808    549.35704  0.010425815   0.00864481         3804 
 4392000   0.55499857    -8.752026    549.99216  0.010435492 0.0086414299         3810 
 4393000   0.55768503   -8.7434653    550.34373  0.010439785  0.008638049         3798 
 4394000   0.54188934   -8.7467551    549.84077  0.010427871 0.0086346671         3815 
 4395000   0.54272396   -8.7408401     550.0096  0.010428699 0.0086312855         3810 
 4396000   0.53931186   -8.7299759    549.99837  0.010426114 0.0086279055         3816 
 4397000   0.54457896   -8.7291619    548.98786  0.010404591 0.0086245285         3796 
 4398000    0.5517324   -8.7449678    549.82866  0.010418157 0.0086211556         3819 
 4399000   0.55465659   -8.7638881    549.45788  0.010408765 0.0086177802         3815 
 4400000   0.55562596   -8.7081637    550.63574  0.010428707 0.0086144116         3826 
 4401000   0.54559623   -8.7445323    550.19366  0.010417967 0.0086110434         3797 
 4402000   0.54222302   -8.7199075    551.04711  0.010431757 0.0086076758         3743 
 4403000   0.55420741    -8.733169     550.0658  0.010410815 0.0086043147         3775 
 4404000   0.54688972   -8.7362363    549.96725  0.010406586 0.0086009531         3797 
 4405000   0.55219136   -8.7329011    550.03474    0.0104055 0.0085975912         3787 
 4406000   0.55920454   -8.7336599    548.55824  0.010375213 0.0085942314         3805 
 4407000   0.55093304   -8.7409302    549.24277  0.010385802 0.0085908712         3795 
 4408000    0.5573413   -8.7398002    550.64068  0.010409874 0.0085875132         3780 
 4409000    0.5369196   -8.7412648    550.18956  0.010398986 0.0085841586         3803 
 4410000   0.54639972   -8.7146687     550.9889  0.010411733  0.008580806         3773 
 4411000   0.52997065   -8.7489173    550.05881  0.010391801 0.0085774538         3809 
 4412000   0.55441207   -8.7195999    550.04165  0.010389122 0.0085741014         3765 
 4413000   0.56102271   -8.7111254    550.13978   0.01038862 0.0085707559         3778 
 4414000    0.5491293   -8.7461862    549.71269  0.010378204 0.0085674108         3825 
 4415000   0.54863017   -8.7339261     550.7481  0.010395396 0.0085640659         3787 
 4416000   0.54538174     -8.74437    550.00143  0.010378952 0.0085607267         3787 
 4417000   0.53654662   -8.7401323      550.735  0.010390442 0.0085573866         3801 
 4418000   0.55256985   -8.7479019    550.16875   0.01037741 0.0085540456         3778 
 4419000   0.53367757   -8.7277891    549.64197  0.010365127 0.0085507107         3832 
 4420000   0.55018298   -8.7373521    549.79598  0.010365686 0.0085473758         3812 
 4421000   0.55950293   -8.7368403    550.60685  0.010378626 0.0085440434         3793 
 4422000   0.54988921   -8.7552837    549.61376  0.010357564 0.0085407115         3807 
 4423000   0.53780913   -8.7437163    550.05095  0.010363459  0.008537383         3803 
 4424000   0.54204917   -8.7368699    549.68797  0.010354279 0.0085340514         3816 
 4425000   0.53858899   -8.7396425    549.27997  0.010344256 0.0085307216         3793 
 4426000   0.53824016   -8.7443269     549.4966  0.010345997 0.0085273968         3776 
 4427000    0.5402258   -8.7405389     549.4531  0.010342841 0.0085240711         3809 
 4428000   0.53946263   -8.7370108    549.80488  0.010347126  0.008520748         3793 
 4429000   0.53900489   -8.7501902    550.81728  0.010363838 0.0085174295         3802 
 4430000   0.54008256   -8.7422245    550.51316  0.010355778 0.0085141094         3785 
 4431000   0.52955343   -8.7294885    549.46425  0.010333714 0.0085107933         3787 
 4432000   0.53561757   -8.7616244    550.08589  0.010343071 0.0085074756         3789 
 4433000   0.54207644   -8.7262997    549.69067  0.010333308 0.0085041614         3775 
 4434000   0.54282804   -8.7493532    549.56288  0.010328576 0.0085008489         3792 
 4435000   0.54762237   -8.7487753    550.19167  0.010338062  0.008497537         3836 
 4436000   0.53126169    -8.718298    550.47388  0.010341033  0.008494229         3797 
 4437000   0.54144508   -8.7328074    550.47061  0.010338641  0.008490921         3782 
 4438000   0.55616935   -8.7481959    550.17247  0.010330713 0.0084876172         3782 
 4439000   0.54736249   -8.7591749    549.31474  0.010312284 0.0084843135         3810 
 4440000   0.55380798   -8.7517965    550.47245   0.01033169 0.0084810107         3822 
 4441000   0.55038142   -8.7586683    550.39941  0.010327993 0.0084777101         3770 
 4442000   0.54381245   -8.7456779    549.58483  0.010310386 0.0084744116         3818 
 4443000   0.53197144   -8.7572742     550.1193   0.01031809 0.0084711158         3757 
 4444000    0.5405571   -8.7489049     550.7534  0.010327659 0.0084678195         3814 
 4445000   0.52464176    -8.756259      549.773  0.010306955 0.0084645233         3798 
 4446000   0.54154744   -8.7644525    549.34623  0.010296638 0.0084612287         3780 
 4447000   0.53173301   -8.7448165    548.97871  0.010287436  0.008457939         3767 
 4448000    0.5419099   -8.7427469    550.24314  0.010308812 0.0084546495         3765 
 4449000   0.54984907   -8.7614819    550.04197  0.010302727 0.0084513618         3821 
 4450000   0.53577816   -8.7559239    550.65716  0.010311932 0.0084480756         3791 
 4451000   0.53332773   -8.7450532    549.44896  0.010286995 0.0084447934         3791 
 4452000   0.53652314   -8.7501985    549.42228  0.010284185 0.0084415136         3808 
 4453000    0.5499412   -8.7714217    549.35038   0.01028053 0.0084382353         3800 
 4454000   0.53090897   -8.7666804    549.44343  0.010279962 0.0084349578         3794 
 4455000   0.55224816   -8.7516306    550.19853  0.010291779 0.0084316842         3806 
 4456000   0.53926294   -8.7503341    549.76339  0.010281332 0.0084284109         3735 
 4457000   0.51779769   -8.7626474    549.65551  0.010277008 0.0084251359         3796 
 4458000   0.53799669   -8.7386833    550.22375  0.010285325 0.0084218647         3786 
 4459000   0.53029189    -8.751358    549.69501  0.010273137 0.0084185929         3782 
 4460000   0.53191082   -8.7351675    549.47338  0.010266692 0.0084153233         3832 
 4461000   0.53954201   -8.7401353    550.10169  0.010276128 0.0084120573         3758 
 4462000    0.5400224   -8.7369743    550.71948  0.010285363  0.008408795         3796 
 4463000   0.53473252   -8.7544396    549.37595  0.010257972  0.008405531         3804 
 4464000   0.53308047   -8.7669822    549.27026  0.010253701 0.0084022692         3817 
 4465000   0.53176256   -8.7551007     550.3279  0.010271144 0.0083990104         3771 
 4466000    0.5397841   -8.7466347    549.29677  0.010249604 0.0083957527         3749 
 4467000   0.54204959   -8.7356358    549.66603  0.010254198 0.0083924969         3821 
 4468000   0.53551691   -8.7434641    549.34154  0.010245851 0.0083892415         3798 
 4469000   0.54005178     -8.77003     549.2283  0.010241447 0.0083859863         3802 
 4470000   0.52538461     -8.76415    549.10966  0.010236944 0.0083827334         3768 
 4471000   0.52788279   -8.7513286    549.46366  0.010241252 0.0083794812         3811 
 4472000   0.53030794   -8.7545175    549.76483  0.010244574 0.0083762338         3758 
 4473000   0.52811833   -8.7489111    549.50716  0.010237483 0.0083729901         3787 
 4474000   0.52997455   -8.7503933    549.61676  0.010237237 0.0083697449         3803 
 4475000    0.5234126   -8.7676302    549.29137   0.01022889 0.0083665013         3798 
 4476000   0.53744935   -8.7552587    549.24372  0.010225717 0.0083632588         3778 
 4477000   0.53462474   -8.7411684    550.35201  0.010244062 0.0083600163         3786 
 4478000   0.54094302   -8.7493075    548.64208  0.010209954 0.0083567825         3790 
 4479000   0.53402566     -8.75453    548.56539  0.010206248 0.0083535483         3782 
 4480000   0.53499847   -8.7522098     549.9993  0.010230642 0.0083503119         3820 
 4481000    0.5501876   -8.7759959     549.8116  0.010224868 0.0083470765         3809 
 4482000   0.53074309   -8.7598826    549.29316  0.010212947 0.0083438418         3762 
 4483000   0.53347441   -8.7582195    549.42195  0.010213063 0.0083406106         3798 
 4484000   0.53341361   -8.7537929    549.06969  0.010204239 0.0083373813         3791 
 4485000   0.52203496    -8.761324    549.31286  0.010206482 0.0083341545         3798 
 4486000   0.53095495   -8.7570804    550.06215  0.010218126 0.0083309266         3799 
 4487000   0.53339353     -8.77044    549.98315  0.010214381 0.0083276971         3777 
 4488000   0.53103331   -8.7636287    549.65648   0.01020604 0.0083244757         3757 
 4489000   0.53470112   -8.7486716    549.79068  0.010206257 0.0083212542         3815 
 4490000    0.5292731   -8.7722324    549.31159  0.010195093  0.008318036         3795 
 4491000   0.53807633   -8.7533324    550.05939  0.010206698 0.0083148181         3772 
 4492000    0.5252713   -8.7559965    550.36387  0.010210075 0.0083116005         3805 
 4493000   0.53209349   -8.7585455    549.56389  0.010192965  0.008308386         3795 
 4494000   0.53897549   -8.7476697     550.3154  0.010204632 0.0083051764         3801 
 4495000   0.52986842   -8.7650003    549.22718  0.010182187 0.0083019659         3805 
 4496000   0.52691266   -8.7502154    549.50369  0.010185048 0.0082987552         3790 
 4497000   0.52931084   -8.7597491    549.54088  0.010183472 0.0082955472         3785 
 4498000   0.51768838   -8.7372944    549.72938    0.0101847 0.0082923397         3802 
 4499000   0.53825945   -8.7604213    549.68337  0.010181584 0.0082891341         3817 
 4500000   0.52715834   -8.7566048    550.02085  0.010185571 0.0082859326         3802 
 4501000   0.52474393   -8.7667835    548.88459  0.010162271 0.0082827304         3813 
 4502000    0.5314708   -8.7662349    548.39995  0.010151043  0.008279531         3763 
 4503000   0.53076802   -8.7444214     549.1153  0.010162027 0.0082763342         3817 
 4504000   0.52189066    -8.769813    549.62612  0.010169222 0.0082731388         3813 
 4505000   0.53119176    -8.773401    548.55279   0.01014711 0.0082699429         3803 
 4506000   0.52322911   -8.7623737    549.62303  0.010164651 0.0082667488         3787 
 4507000   0.53900558   -8.7656877    549.37793  0.010157864 0.0082635585         3808 
 4508000   0.52425503   -8.7633095    549.65874  0.010160802 0.0082603698         3816 
 4509000   0.52806493   -8.7714463    548.56981  0.010138423 0.0082571818         3840 
 4510000   0.52318086   -8.7526849    548.98657  0.010143876 0.0082539962         3815 
 4511000   0.53043026   -8.7478202    548.45962  0.010131893 0.0082508131         3799 
 4512000   0.53097599   -8.7589254    549.12486  0.010141934 0.0082476299         3796 
 4513000   0.53511783   -8.7608402    549.01337  0.010137628 0.0082444505         3830 
 4514000   0.53330682   -8.7693079    549.10171  0.010137013 0.0082412694         3791 
 4515000   0.52476246   -8.7641919    548.72928  0.010127894 0.0082380927         3780 
 4516000   0.51435142   -8.7814341    549.13329  0.010133106 0.0082349174         3787 
 4517000   0.53335065   -8.7644211    549.49233  0.010137487 0.0082317425         3800 
 4518000   0.52495132   -8.7514898    548.84547  0.010123312 0.0082285679         3795 
 4519000   0.52545837   -8.7751091    549.29685  0.010129395 0.0082253976         3799 
 4520000   0.52480189   -8.7658674    549.10138  0.010123551 0.0082222284         3786 
 4521000   0.52438789   -8.7723486    549.68939   0.01013215 0.0082190607         3796 
 4522000   0.52207587   -8.7683949    549.66668  0.010129491 0.0082158949         3840 
 4523000   0.52633315   -8.7690549    549.82878  0.010130238 0.0082127301         3790 
 4524000   0.53514059    -8.775356    549.21946  0.010116775 0.0082095691         3814 
 4525000   0.52670079   -8.7697322    550.12868  0.010131283 0.0082064102         3798 
 4526000   0.51481477   -8.7711265    549.49171  0.010117317 0.0082032485         3796 
 4527000   0.52106191   -8.7623047    548.87383  0.010103708 0.0082000897         3792 
 4528000    0.5165139   -8.7712846    548.91697   0.01010227 0.0081969311         3794 
 4529000   0.52421212   -8.7666466    549.30647  0.010107207 0.0081937766         3809 
 4530000   0.53318702   -8.7432004    549.86233  0.010115201 0.0081906255         3778 
 4531000   0.52997217   -8.7663651    549.75884  0.010111065 0.0081874753         3803 
 4532000   0.53500764    -8.776583    549.45456  0.010103239 0.0081843245         3830 
 4533000   0.52647334   -8.7557656    549.27633  0.010097734 0.0081811755         3800 
 4534000   0.51571195   -8.7662301     548.5166  0.010081543 0.0081780264         3796 
 4535000    0.5290151   -8.7485728    549.16733  0.010091278 0.0081748814         3784 
 4536000   0.54312292   -8.7638847     548.7767  0.010081876 0.0081717384         3812 
 4537000   0.53402516    -8.772487    548.88029  0.010081557 0.0081685974         3808 
 4538000   0.53057396   -8.7728802    549.19169  0.010085054 0.0081654573         3810 
 4539000   0.53987408   -8.7640231    549.52789  0.010089004 0.0081623188         3815 
 4540000   0.52841807   -8.7609662    549.28677  0.010082356 0.0081591812         3811 
 4541000    0.5195479   -8.7740262    549.88021  0.010091026 0.0081560476         3804 
 4542000   0.52308438   -8.7600699    549.93827   0.01008987 0.0081529139         3799 
 4543000   0.53818753   -8.7657045     548.5477  0.010062141 0.0081497809         3778 
 4544000   0.52993929   -8.7783033    548.60892   0.01006105 0.0081466496         3822 
 4545000   0.52626262   -8.7604966    549.32897  0.010072038 0.0081435232         3767 
 4546000   0.52508405   -8.7461528     549.5108  0.010073156 0.0081403978         3826 
 4547000   0.52312387   -8.7685564    549.54637  0.010071592 0.0081372688         3862 
 4548000   0.52262026   -8.7752603    549.56256  0.010069675 0.0081341454         3789 
 4549000   0.52490662   -8.7695353    549.17217  0.010060309 0.0081310226         3797 
 4550000   0.51790106   -8.7778587    549.02737  0.010055446 0.0081279001         3834 
 4551000   0.51888099   -8.7584546    549.88698  0.010068977 0.0081247821         3823 
 4552000   0.51191487   -8.7687166    548.69416  0.010044928 0.0081216633         3817 
 4553000   0.53154998   -8.7766871    549.10856  0.010050307 0.0081185468         3811 
 4554000    0.5356329   -8.7765612    548.68861  0.010040415 0.0081154316         3795 
 4555000   0.52333455   -8.7720568    549.22338  0.010047995 0.0081123163         3837 
 4556000   0.52441158   -8.7867605    549.09317  0.010043407 0.0081092051         3814 
 4557000   0.52171756   -8.7880369     548.6237  0.010032618 0.0081060932         3838 
 4558000   0.52925156   -8.7735112    549.68861  0.010049887 0.0081029868         3816 
 4559000    0.5315401   -8.7704745    548.95599  0.010034291 0.0080998779         3773 
 4560000   0.52395532   -8.7833172     549.4477  0.010041076 0.0080967734         3780 
 4561000    0.5144822   -8.7849312    549.59224  0.010041516 0.0080936689         3774 
 4562000   0.51991919   -8.7954863    549.28895  0.010033775 0.0080905655         3778 
 4563000   0.51367109   -8.7692791    549.12902  0.010028655 0.0080874663         3779 
 4564000   0.52725818   -8.7720727    549.13749  0.010026612 0.0080843684         3827 
 4565000   0.51515734   -8.7670402     548.9406  0.010020821 0.0080812689         3812 
 4566000   0.53433137   -8.7823987    548.57179  0.010011896 0.0080781748         3751 
 4567000   0.51475887   -8.7798071    548.44048  0.010007308 0.0080750796         3820 
 4568000   0.51578868   -8.7972026    548.46322  0.010005532 0.0080719866         3836 
 4569000   0.51203556    -8.773282    548.92731  0.010011806 0.0080688937         3805 
 4570000    0.5195926   -8.7752249    547.97361 0.0099922248 0.0080658027         3801 
 4571000   0.52413692   -8.7819228    548.60953  0.010001632 0.0080627161         3793 
 4572000   0.51908403   -8.7753053    548.42044 0.0099959981 0.0080596305         3788 
 4573000   0.52031486   -8.7794242     549.0467  0.010005225 0.0080565464         3833 
 4574000   0.52049909   -8.7645878    549.22516  0.010006288 0.0080534634         3809 
 4575000   0.51368297   -8.7720226    549.83795  0.010015263 0.0080503828         3777 
 4576000   0.52282378   -8.7679442    549.19087  0.010001291 0.0080473025         3821 
 4577000   0.52251093   -8.7874054    549.18169 0.0099989383 0.0080442246         3849 
 4578000   0.51728589   -8.7874034    549.32859 0.0099994282 0.0080411499         3795 
 4579000   0.52505209   -8.7797201    549.37128 0.0099980214 0.0080380762         3776 
 4580000   0.51811156    -8.783272    548.63964 0.0099825262 0.0080350029         3826 
 4581000   0.51961082   -8.7691918    549.26392 0.0099917034 0.0080319328         3796 
 4582000   0.52952549   -8.7790921    548.99026 0.0099845457 0.0080288627         3811 
 4583000   0.51910452   -8.7800809    549.32279 0.0099884135 0.0080257951         3827 
 4584000   0.52388688     -8.77207     549.5916 0.0099911213 0.0080227282         3778 
 4585000   0.51741403   -8.7810683    549.19816 0.0099817913  0.008019662         3807 
 4586000   0.51617952   -8.7670996     549.3177 0.0099817869 0.0080165987         3805 
 4587000   0.52284308   -8.7830644      548.652  0.009967517 0.0080135342         3804 
 4588000   0.51189723   -8.7908032    548.36817 0.0099601891 0.0080104698         3838 
 4589000   0.51009497   -8.7810397    548.74386 0.0099648408   0.00800741         3832 
 4590000   0.50323126     -8.79005    548.84371 0.0099644827 0.0080043503         3782 
 4591000   0.50222401   -8.7802513    548.68462 0.0099594247 0.0080012911         3813 
 4592000   0.51324708   -8.7761118    549.56648 0.0099732593 0.0079982357         3807 
 4593000    0.5154597   -8.7767891    549.62646 0.0099721761 0.0079951818         3830 
 4594000   0.51485992   -8.7920597    548.69467 0.0099531031 0.0079921292         3815 
 4595000    0.5112933   -8.7715057    548.29376 0.0099436662 0.0079890778         3806 
 4596000   0.53109404     -8.78354    548.90845 0.0099526481  0.007986029         3806 
 4597000   0.52397082   -8.7870074    548.26332 0.0099387883 0.0079829811         3811 
 4598000   0.51910398   -8.7739407    548.70472 0.0099446266 0.0079799341         3789 
 4599000   0.52483232   -8.7790915     548.6226 0.0099409762 0.0079768905         3787 
 4600000   0.52591557   -8.7827715    548.53891 0.0099372991 0.0079738476         3780 
 4601000   0.50349949   -8.7790963    548.91203 0.0099418973 0.0079708059         3818 
 4602000   0.51590024    -8.781238    548.96392 0.0099406766 0.0079677657         3784 
 4603000   0.51988718   -8.7920795    548.90442 0.0099374396  0.007964725         3790 
 4604000   0.51787804    -8.786102    549.31629 0.0099427362 0.0079616873         3804 
 4605000   0.49670439   -8.7900164    549.19973 0.0099384678 0.0079586498         3796 
 4606000   0.51480231   -8.7754704    548.09209 0.0099162703 0.0079556153         3785 
 4607000    0.5203106   -8.7895151    549.16315 0.0099334915 0.0079525808         3827 
 4608000   0.51375904    -8.781055     548.5348 0.0099199724 0.0079495493         3785 
 4609000   0.51380729   -8.7992056    548.71719 0.0099211179 0.0079465198         3794 
 4610000   0.50144494   -8.7889399     549.5397 0.0099338341 0.0079434913         3814 
 4611000   0.51256559   -8.7868811     549.0867 0.0099234927 0.0079404653         3797 
 4612000   0.50996136   -8.7861176    548.74217 0.0099151158 0.0079374397         3798 
 4613000   0.52013035   -8.7901764    548.56619 0.0099097873 0.0079344185         3794 
 4614000    0.5055244   -8.7773568    548.55554 0.0099074472 0.0079313972         3799 
 4615000   0.51088467   -8.7912578    547.88068 0.0098931144 0.0079283773         3790 
 4616000   0.51864079   -8.7744166    548.39209 0.0099002038 0.0079253592         3788 
 4617000    0.5166183   -8.8038278    547.92757 0.0098896753 0.0079223424         3797 
 4618000   0.51999424   -8.8115086    547.95896 0.0098881002 0.0079193244         3862 
 4619000   0.50267125   -8.7929445    548.17601 0.0098898754 0.0079163107         3791 
 4620000   0.49948267   -8.7761908     548.6756 0.0098967461 0.0079132973         3777 
 4621000   0.50715147   -8.8015934    549.42097  0.009908046 0.0079102863         3817 
 4622000     0.495709   -8.7949915    548.49418 0.0098891927 0.0079072774         3796 
 4623000   0.51293806   -8.7915551    548.84667 0.0098934074 0.0079042697         3793 
 4624000   0.50759733   -8.7905555     548.1849 0.0098793414 0.0079012648         3824 
 4625000   0.51132136   -8.7973038    547.90695 0.0098721974 0.0078982614         3781 
 4626000   0.50940827   -8.7836582    548.24714 0.0098761915 0.0078952574         3796 
 4627000   0.51210389   -8.7888528     548.4774  0.009878204 0.0078922553         3803 
 4628000   0.50773403   -8.7859332    548.86803 0.0098831034 0.0078892555         3799 
 4629000   0.51071112   -8.7843822    549.26551  0.009888124 0.0078862596         3819 
 4630000   0.50521538   -8.7881738    548.03573  0.009863854  0.007883264         3813 
 4631000   0.51055949   -8.7933839    548.11041  0.009863068 0.0078802685         3827 
 4632000   0.51347044   -8.7923794    548.14836 0.0098616213 0.0078772738         3815 
 4633000   0.51168273   -8.8007928    547.33898 0.0098449346 0.0078742829         3802 
 4634000   0.50386316   -8.7822823    548.99963 0.0098726736 0.0078712931         3830 
 4635000   0.51231881   -8.7866632    549.07405 0.0098718816  0.007868302         3807 
 4636000   0.51041437   -8.7820821    548.33409 0.0098564512 0.0078653154         3800 
 4637000   0.50797689   -8.7976447    548.14799  0.009850981 0.0078623288         3838 
 4638000    0.5004925   -8.8067272    547.83493 0.0098432322 0.0078593445         3805 
 4639000   0.51983995   -8.7933328    548.89418 0.0098601382 0.0078563601         3807 
 4640000   0.49355266   -8.8011298    548.84973 0.0098572149 0.0078533772         3782 
 4641000   0.50601069    -8.795948    548.35503 0.0098462083 0.0078503964         3777 
 4642000   0.50682966    -8.802369    548.31491 0.0098433668 0.0078474187         3777 
 4643000   0.51688702   -8.7938079    547.78042 0.0098316537 0.0078444409         3822 
 4644000   0.50737358   -8.7994169     548.4606 0.0098417421 0.0078414659         3778 
 4645000    0.4987086   -8.7992579    548.67358 0.0098434442 0.0078384924         3821 
 4646000   0.48709928   -8.8006184    548.25535 0.0098338239 0.0078355189         3807 
 4647000   0.51379467   -8.7925802    548.65736 0.0098389168 0.0078325458         3810 
 4648000   0.51588382   -8.7866429    548.90894 0.0098413107  0.007829575         3806 
 4649000   0.51102717   -8.8006477    548.67478 0.0098349963 0.0078266103         3822 
 4650000   0.50563467   -8.8042116    548.45023 0.0098288572 0.0078236442         3813 
 4651000   0.51160128   -8.8122915    547.68793 0.0098130856 0.0078206795         3807 
 4652000   0.51672621   -8.8049672    547.31717 0.0098043345 0.0078177128         3792 
 4653000   0.50045001    -8.797474    548.70881 0.0098271512  0.007814752         3803 
 4654000   0.51778351   -8.8091443     548.4955 0.0098212201 0.0078117907         3815 
 4655000   0.51033194   -8.7924349    548.16922 0.0098132692 0.0078088317         3793 
 4656000   0.51575664    -8.786391    547.63118 0.0098015318 0.0078058725         3806 
 4657000   0.50566058    -8.795302     548.4553 0.0098141739 0.0078029136         3791 
 4658000   0.50103151   -8.8127221    547.49596 0.0097949041 0.0077999596         3813 
 4659000   0.50144832   -8.7910135    548.21471 0.0098056577 0.0077970067         3798 
 4660000   0.50905908   -8.8092665    548.25913 0.0098043478 0.0077940548         3814 
 4661000   0.51811691   -8.8008714    547.90075  0.009795837 0.0077911028         3829 
 4662000   0.51071614   -8.8006414    547.96322 0.0097948524 0.0077881538         3815 
 4663000   0.50556275   -8.8186171    548.67081 0.0098053973 0.0077852043         3810 
 4664000   0.51000754   -8.7982085    547.29985 0.0097787994 0.0077822584         3846 
 4665000   0.51517107   -8.8102784    548.16697 0.0097921932 0.0077793118         3820 
 4666000   0.50927442   -8.8053188    548.10918 0.0097890623 0.0077763686         3797 
 4667000   0.50835588   -8.7849658    548.20864 0.0097887408 0.0077734264         3812 
 4668000   0.51785701    -8.798177    547.93397 0.0097817404  0.007770486         3809 
 4669000   0.51719839   -8.7854607    547.85433 0.0097782239 0.0077675469         3808 
 4670000   0.51148329    -8.798584    547.95265 0.0097778845 0.0077646086         3800 
 4671000   0.50775915   -8.8084261    547.66615   0.00977068 0.0077616726         3821 
 4672000   0.49875528   -8.8072744    547.54706 0.0097664644 0.0077587369         3818 
 4673000   0.49684549   -8.7996792    548.10219  0.009774274 0.0077558034         3821 
 4674000   0.51436344   -8.8060862     547.5484 0.0097623092 0.0077528727         3838 
 4675000   0.50044638    -8.805601    547.52263 0.0097597617 0.0077499431         3817 
 4676000   0.49803919   -8.8077376     547.8348 0.0097632378  0.007747015         3814 
 4677000   0.52411035   -8.7905753    547.87806 0.0097619211 0.0077440906         3834 
 4678000   0.50187592   -8.7975856    547.90201  0.009760261 0.0077411665         3838 
 4679000   0.50424026   -8.7852134    548.07742 0.0097612991  0.007738241         3823 
 4680000   0.50452714   -8.8023445    548.16326 0.0097607418 0.0077353193         3794 
 4681000   0.49908922   -8.7917643    547.36228 0.0097443973 0.0077323973         3802 
 4682000   0.50658004   -8.8202637     547.3173 0.0097415154 0.0077294777         3815 
 4683000   0.50122279    -8.806295    547.84314 0.0097487925 0.0077265575         3814 
 4684000   0.51118581    -8.796241    548.63738 0.0097608416 0.0077236412         3806 
 4685000   0.49160457   -8.8070415     547.9567 0.0097466507 0.0077207266         3820 
 4686000   0.50183408    -8.813958    547.81054 0.0097419715 0.0077178115         3819 
 4687000   0.49629939   -8.8085594    548.14478 0.0097458357 0.0077148998         3815 
 4688000   0.49974025   -8.8159184    548.25801 0.0097457695  0.007711989         3812 
 4689000   0.50018929    -8.814626    547.69645  0.009733711  0.007709081         3805 
 4690000   0.51003849   -8.8087284    548.12466 0.0097392442 0.0077061733         3818 
 4691000    0.4973814    -8.804442    548.87058 0.0097504189 0.0077032668         3799 
 4692000   0.51523901   -8.8192029    548.78801 0.0097468743 0.0077003627         3822 
 4693000   0.51233717   -8.8164165    548.63182 0.0097420239 0.0076974586         3811 
 4694000   0.50209717   -8.8012804    548.45057 0.0097367308  0.007694558         3822 
 4695000   0.50990571   -8.8152118    548.24616 0.0097310287 0.0076916577         3807 
 4696000   0.50340812   -8.8117765    547.14579 0.0097094299  0.007688757         3834 
 4697000   0.49411679   -8.8223923    548.24344 0.0097268371 0.0076858582         3783 
 4698000   0.50459546   -8.8013865    548.51649 0.0097296099 0.0076829644         3829 
 4699000   0.50739798   -8.8113912    547.89224 0.0097164688 0.0076800709         3837 
 4700000   0.50140552   -8.8178536     547.8497 0.0097136472 0.0076771799         3812 
 4701000    0.5149956   -8.8225912    548.63795 0.0097255539 0.0076742867         3801 
 4702000   0.49980214   -8.8153045    547.71978 0.0097072128 0.0076713956         3814 
 4703000   0.48809815   -8.8013104    547.92395 0.0097087666  0.007668505         3821 
 4704000   0.51147584   -8.8033787    547.52988 0.0096997215 0.0076656172         3777 
 4705000   0.50640301   -8.7962123    548.29457 0.0097112038 0.0076627307         3808 
 4706000     0.501681   -8.8140588    548.02303 0.0097043318 0.0076598464         3825 
 4707000   0.49778166    -8.807598    548.68065 0.0097139128 0.0076569638         3801 
 4708000   0.49734965   -8.8041085    549.09743 0.0097192267 0.0076540816         3827 
 4709000   0.50591939   -8.8052918     549.2921 0.0097206078 0.0076512003         3811 
 4710000   0.50839299   -8.8173758    547.52906 0.0096873506 0.0076483239         3800 
 4711000   0.49978408   -8.7990528    548.13567 0.0096960247 0.0076454484         3806 
 4712000   0.50679418   -8.8150431    548.71592 0.0097042289 0.0076425714         3802 
 4713000   0.48971109    -8.814323    547.37446 0.0096784507 0.0076396969         3805 
 4714000   0.49585313   -8.8075984    547.53974 0.0096793194 0.0076368239         3804 
 4715000   0.49895525   -8.8015254    547.48085 0.0096762256  0.007633952         3823 
 4716000   0.49724478   -8.8260934    547.29582 0.0096709044 0.0076310815         3791 
 4717000   0.49829107   -8.8156239    547.27061 0.0096684088 0.0076282127         3842 
 4718000   0.49594753   -8.8305432    547.57644 0.0096717614 0.0076253466         3815 
 4719000   0.49391386   -8.8147159    547.98299 0.0096768911 0.0076224798         3804 
 4720000   0.50094941   -8.8244815    547.91336 0.0096736115 0.0076196144         3826 
 4721000   0.50485342   -8.8297462    547.42437  0.009662931 0.0076167515         3792 
 4722000    0.4879088   -8.8232558    547.99585 0.0096709701 0.0076138896         3798 
 4723000   0.48126572   -8.8196792    547.83891 0.0096661533 0.0076110273         3810 
 4724000   0.48526651   -8.7992748    548.46138 0.0096750879 0.0076081683         3796 
 4725000    0.5057544    -8.818421    547.81459 0.0096616331 0.0076053101         3806 
 4726000   0.50487557   -8.8120878    547.81393 0.0096595771 0.0076024541         3808 
 4727000   0.49839751   -8.8277798    547.46903 0.0096514531 0.0075995973         3799 
 4728000   0.48509102   -8.8031346    547.05143 0.0096420515 0.0075967447         3802 
 4729000    0.4956669   -8.8069649    548.24929 0.0096611209 0.0075938934         3800 
 4730000   0.50554488   -8.8100841    548.12286  0.009656851 0.0075910409         3787 
 4731000   0.49484316   -8.8060751    548.33372 0.0096585239 0.0075881926         3816 
 4732000   0.49782547   -8.8125342    548.05991 0.0096516609 0.0075853468         3797 
 4733000    0.5058644    -8.813389    548.08108 0.0096499944 0.0075824999         3779 
 4734000   0.49303802    -8.799237    547.88702 0.0096445399 0.0075796553         3800 
 4735000   0.49799451   -8.8314608    547.46297 0.0096350399 0.0075768123         3813 
 4736000   0.48141476   -8.8090956    547.90371 0.0096407606 0.0075739695         3803 
 4737000   0.49905424   -8.8228657    548.30975 0.0096458686 0.0075711288         3834 
 4738000   0.48579288   -8.8246665    548.31791 0.0096439761 0.0075682892         3816 
 4739000   0.49358482    -8.820846    548.26372 0.0096409883 0.0075654502         3801 
 4740000   0.49489132   -8.8134194    547.95679 0.0096335582 0.0075626118         3802 
 4741000    0.4825456   -8.8283447    547.90512 0.0096306179 0.0075597771         3805 
 4742000   0.51426476   -8.8259401    547.59441 0.0096231268 0.0075569442         3812 
 4743000   0.49656402   -8.8145358     547.1214 0.0096127872 0.0075541123         3788 
 4744000   0.49769438   -8.8356712    547.45535 0.0096166272 0.0075512832         3830 
 4745000   0.50029906   -8.8239958    547.45162  0.009614535 0.0075484544         3840 
 4746000   0.50092604   -8.8181875    547.87953 0.0096200226 0.0075456257         3833 
 4747000   0.48970335   -8.8108288    547.74903 0.0096157051 0.0075427982         3807 
 4748000   0.48485494   -8.8223492    547.77172 0.0096140783 0.0075399757         3800 
 4749000   0.49885117   -8.8357223    547.85045 0.0096134352 0.0075371521         3841 
 4750000   0.48556253   -8.8162929    548.08654 0.0096155533 0.0075343302         3817 
 4751000   0.49263915   -8.8313751    547.31848 0.0096000576 0.0075315087         3829 
 4752000   0.50516718   -8.8325736    547.58817 0.0096027667 0.0075286888         3819 
 4753000   0.49547277   -8.8119272    547.38626 0.0095972063 0.0075258707         3796 
 4754000   0.49353906   -8.8185099    546.97083 0.0095879055 0.0075230532         3840 
 4755000   0.48633569   -8.8051896    547.31522 0.0095919246 0.0075202359         3777 
 4756000   0.49601423   -8.8145017     547.4751 0.0095927092 0.0075174224         3820 
 4757000   0.49872482   -8.8199401    547.91112 0.0095983309 0.0075146112         3794 
 4758000   0.49522894   -8.8216318    547.93047 0.0095966524 0.0075117989         3789 
 4759000   0.49265366   -8.8147634    546.76119 0.0095741611  0.007508991         3830 
 4760000   0.50052626   -8.8203528    547.51531 0.0095853521 0.0075061829         3814 
 4761000   0.49016095   -8.8159398    547.13236 0.0095766359 0.0075033777         3799 
 4762000   0.49964614   -8.8325993    547.39576 0.0095792342 0.0075005712         3807 
 4763000   0.50042506     -8.83268     547.7211 0.0095829152 0.0074977681         3824 
 4764000   0.49260082   -8.8028394    547.96986  0.009585255 0.0074949675         3777 
 4765000   0.49416195   -8.8089894     547.3221  0.009571915 0.0074921689         3781 
 4766000   0.48303422   -8.8156913    547.01138 0.0095644737 0.0074893694         3786 
 4767000   0.49179065   -8.8259448    546.72933 0.0095575367 0.0074865701         3809 
 4768000   0.48854311   -8.8325974    547.27708 0.0095651055 0.0074837775         3812 
 4769000   0.49372926   -8.8286086    546.76903 0.0095542222 0.0074809808         3834 
 4770000   0.48544787   -8.8287236    547.51609 0.0095652707 0.0074781856         3804 
 4771000   0.49185666   -8.8256563    547.16935 0.0095572093 0.0074753942         3822 
 4772000   0.48729797   -8.8161852    547.37256 0.0095587552 0.0074726053         3789 
 4773000   0.49451012   -8.8205015    548.82075 0.0095820371 0.0074698156         3806 
 4774000   0.48921092   -8.8200394    547.87238 0.0095634753 0.0074670275         3796 
 4775000   0.48540974   -8.8262072    546.52911 0.0095380299 0.0074642396         3806 
 4776000    0.4921013   -8.8208105    547.77257 0.0095577291 0.0074614522         3780 
 4777000   0.47886431   -8.8194029    547.82121 0.0095565768 0.0074586675         3808 
 4778000   0.47740105   -8.8311863    546.77899 0.0095363992  0.007455881         3810 
 4779000   0.48416011   -8.8343886    547.60513 0.0095488096 0.0074530997         3805 
 4780000   0.47741639   -8.8190371    546.62496 0.0095297239 0.0074503201         3821 
 4781000   0.48570481   -8.8226399    547.24073 0.0095384635 0.0074475416         3815 
 4782000   0.47561856    -8.823421    547.09019 0.0095338455 0.0074447639         3795 
 4783000   0.49150799   -8.8218884    547.14982 0.0095328912 0.0074419889         3801 
 4784000   0.47813808   -8.8172788    548.11829 0.0095477684 0.0074392158         3790 
 4785000   0.49668851   -8.8264552    548.72424  0.009556326 0.0074364431         3824 
 4786000   0.48285083    -8.829862    546.95299 0.0095234886 0.0074336704         3830 
 4787000   0.48796908   -8.8220835     547.4183 0.0095295993 0.0074309001         3823 
 4788000   0.48265777   -8.8244277    548.31098 0.0095431457 0.0074281306         3792 
 4789000   0.48656298   -8.8371205    547.35112 0.0095244505 0.0074253626         3818 
 4790000   0.48429121   -8.8263161    547.14556 0.0095188858 0.0074225962         3801 
 4791000   0.49477467   -8.8253957    548.28442 0.0095367081 0.0074198331         3770 
 4792000   0.48404264   -8.8198143    547.95694  0.009529023 0.0074170707         3796 
 4793000   0.47799964   -8.8191968    546.17607 0.0094960718 0.0074143065         3815 
 4794000   0.46933223   -8.8492745    546.73446 0.0095037974 0.0074115435         3820 
 4795000   0.48340147   -8.8350677    547.46927 0.0095145858 0.0074087843         3818 
 4796000   0.48339947   -8.8311059    546.42164 0.0094943989 0.0074060289         3781 
 4797000   0.49395344   -8.8307271    547.05745 0.0095034649 0.0074032731         3811 
 4798000   0.48398629   -8.8373005    547.15747 0.0095032213  0.007400519         3824 
 4799000   0.49381771    -8.824562    547.03281 0.0094990764 0.0073977654         3800 
 4800000   0.47638134   -8.8398753    547.57359 0.0095064859 0.0073950123         3777 
 4801000   0.48601284   -8.8206808    547.80057 0.0095084456 0.0073922615         3805 
 4802000   0.48592684   -8.8198329    547.92117 0.0095085584 0.0073895109         3816 
 4803000   0.47462238    -8.826816    547.43398 0.0094981258 0.0073867612         3796 
 4804000   0.48502581   -8.8404022    547.53503 0.0094979016 0.0073840135         3818 
 4805000   0.48650101   -8.8306903    547.90996 0.0095024274 0.0073812684         3827 
 4806000    0.4838447   -8.8375993    547.66596 0.0094962194 0.0073785226         3837 
 4807000   0.48279867    -8.835468    547.60618 0.0094932075 0.0073757799         3788 
 4808000   0.48240599   -8.8441176    546.95423 0.0094799332 0.0073730372         3809 
 4809000   0.49315583   -8.8386755    547.15096 0.0094813711 0.0073702969         3815 
 4810000   0.47844114   -8.8290191    547.07638 0.0094781078 0.0073675581         3816 
 4811000   0.47717295   -8.8341226    547.37254 0.0094812676 0.0073648208         3793 
 4812000   0.48009468   -8.8311461    547.56409 0.0094826146 0.0073620842         3808 
 4813000   0.48283414    -8.839169    548.08495 0.0094896625 0.0073593495         3809 
 4814000   0.48163182   -8.8310589    547.34813 0.0094749364  0.007356617         3806 
 4815000   0.48374757   -8.8417587    547.27779 0.0094717513 0.0073538837         3811 
 4816000   0.48051289   -8.8511507    548.24981 0.0094866038 0.0073511544         3822 
 4817000   0.48224174    -8.848427    547.01492  0.009463271 0.0073484257         3823 
 4818000   0.47750611   -8.8479924      546.685 0.0094556006 0.0073456958         3785 
 4819000   0.47415907   -8.8365594    546.68161 0.0094535797 0.0073429697         3816 
 4820000   0.47849887   -8.8229971    547.19807 0.0094605476 0.0073402422         3788 
 4821000   0.49066764   -8.8311858    547.54741 0.0094646236 0.0073375167         3839 
 4822000    0.4794827   -8.8421517    547.92769 0.0094692329 0.0073347932         3822 
 4823000   0.48143597   -8.8219014    547.63044 0.0094621335 0.0073320717         3814 
 4824000   0.48597817   -8.8228329    547.49861 0.0094578947 0.0073293521         3788 
 4825000   0.47959432   -8.8493596    546.87141 0.0094451021 0.0073266324         3839 
 4826000   0.47964271   -8.8286361    546.55076 0.0094376081 0.0073239158         3809 
 4827000    0.4840253   -8.8264582    547.24518 0.0094476414 0.0073211972         3802 
 4828000   0.48891896   -8.8355762    547.34765 0.0094474532 0.0073184818         3790 
 4829000   0.48853761   -8.8368041    547.12329  0.009441625 0.0073157674         3786 
 4830000   0.48031857   -8.8481785    546.72289 0.0094327621 0.0073130566         3827 
 4831000   0.48409565   -8.8134342    546.84118   0.00943285 0.0073103475         3801 
 4832000   0.48303578   -8.8494065    546.96759 0.0094330779 0.0073076376         3824 
 4833000    0.4773111   -8.8468562    547.64875  0.009442871 0.0073049303         3794 
 4834000   0.46542208   -8.8274807    547.27332 0.0094344455 0.0073022242         3831 
 4835000   0.47959036    -8.854554    546.69305 0.0094224932 0.0072995196         3843 
 4836000   0.47861086   -8.8358681    546.91271 0.0094243298 0.0072968148         3813 
 4837000    0.4671102   -8.8383126     546.5138  0.009415509 0.0072941113         3797 
 4838000   0.47209334   -8.8386528     546.8175 0.0094187939 0.0072914091         3780 
 4839000    0.4793902   -8.8395067    546.77721 0.0094161537 0.0072887079         3816 
 4840000   0.47670908   -8.8332389    548.11876 0.0094373065   0.00728601         3800 
 4841000   0.47485011   -8.8299185    546.86383 0.0094137546 0.0072833121         3811 
 4842000   0.48206593   -8.8425029    546.69263 0.0094088639 0.0072806162         3802 
 4843000   0.47068626   -8.8505146    546.90155 0.0094105161 0.0072779222         3824 
 4844000   0.47224934   -8.8305934     546.7056 0.0094052024 0.0072752262         3820 
 4845000   0.47598196   -8.8501462    546.85715 0.0094058678 0.0072725323         3781 
 4846000   0.47392808    -8.845421    547.00633 0.0094064922 0.0072698417         3816 
 4847000   0.48235286   -8.8308102    546.87986 0.0094023771 0.0072671536         3822 
 4848000   0.48151863   -8.8443353    546.74895 0.0093981873 0.0072644656         3798 
 4849000   0.47088928   -8.8368708    547.69919 0.0094125797   0.00726178         3810 
 4850000   0.47623259   -8.8550169    546.20106 0.0093848979 0.0072590928         3809 
 4851000   0.46969689   -8.8472474    546.81325 0.0093934798  0.007256411         3813 
 4852000   0.48225916   -8.8510482    547.04851 0.0093955844 0.0072537255         3819 
 4853000   0.47519017   -8.8404548    547.36187 0.0093990294  0.007251043         3781 
 4854000   0.47852717   -8.8426735    546.51056 0.0093824777 0.0072483622         3790 
 4855000   0.47501565   -8.8412767    547.29922  0.009394082 0.0072456846         3800 
 4856000   0.47460624   -8.8408074    546.60803 0.0093802861 0.0072430068         3790 
 4857000   0.47634507   -8.8371972    546.93875  0.009384029 0.0072403298         3822 
 4858000   0.47082206   -8.8229482    547.22657 0.0093870346  0.007237656         3789 
 4859000   0.47638191   -8.8317802    546.43733  0.009371567 0.0072349834         3848 
 4860000   0.47523754    -8.841841    547.20909  0.009382872 0.0072323114         3794 
 4861000   0.47310181   -8.8497985    547.08652 0.0093788404 0.0072296414         3816 
 4862000   0.46985352   -8.8488358    546.70409 0.0093703567 0.0072269708         3814 
 4863000   0.47091056    -8.832959    547.65997   0.00938481 0.0072243019         3817 
 4864000   0.47462157   -8.8472878    547.54603 0.0093809285 0.0072216331         3840 
 4865000   0.47019515   -8.8424091    547.10232 0.0093713999 0.0072189676         3820 
 4866000   0.47351501   -8.8382075    546.82105  0.009364657 0.0072163023         3809 
 4867000   0.47651282   -8.8364365    546.73625 0.0093612808 0.0072136383         3837 
 4868000   0.47676253   -8.8399185    546.89211  0.009362026 0.0072109761         3812 
 4869000   0.48122339   -8.8412082    547.36405 0.0093681804 0.0072083173         3815 
 4870000   0.47007214   -8.8521196    546.32869 0.0093485402 0.0072056592         3786 
 4871000   0.47378397   -8.8565544    546.21648 0.0093447013 0.0072030019         3809 
 4872000   0.47375483   -8.8544959    546.71971 0.0093513908 0.0072003443         3799 
 4873000   0.46699627   -8.8588445    546.81607 0.0093511196 0.0071976884         3781 
 4874000   0.47255945   -8.8355385    547.17575 0.0093553506 0.0071950359         3804 
 4875000   0.46764128   -8.8638609    546.63482 0.0093441849 0.0071923833         3795 
 4876000   0.47256031   -8.8555515    546.05263 0.0093323187 0.0071897323         3811 
 4877000   0.47740168   -8.8462171    547.00647 0.0093467034 0.0071870814         3846 
 4878000   0.48618829   -8.8431761     547.2527 0.0093489938 0.0071844341         3811 
 4879000   0.46617657    -8.860854    547.28977 0.0093477108 0.0071817877         3830 
 4880000   0.47475826   -8.8246905    547.28449 0.0093457051 0.0071791418         3826 
 4881000   0.48022217   -8.8445943    547.25492 0.0093432855 0.0071764992         3808 
 4882000   0.47024079   -8.8534144    546.83827 0.0093342596 0.0071738561         3817 
 4883000   0.47233356   -8.8551503    546.14545 0.0093205244 0.0071712139         3817 
 4884000   0.46460721   -8.8719091    546.48688 0.0093244417 0.0071685714         3817 
 4885000   0.45965437   -8.8533152    547.45987 0.0093391312 0.0071659323         3830 
 4886000   0.46525831    -8.862409    547.11548  0.009331346 0.0071632948         3806 
 4887000   0.47363936   -8.8428579    546.71799 0.0093226586 0.0071606573         3803 
 4888000   0.47823145   -8.8443065    546.05106 0.0093093811  0.007158022         3786 
 4889000   0.47456514   -8.8384716    546.71478 0.0093187901 0.0071553895         3824 
 4890000   0.46220037    -8.857211    545.55349 0.0092970942 0.0071527558         3805 
 4891000   0.47479605   -8.8418879    547.48444 0.0093280932 0.0071501238         3816 
 4892000   0.46460484   -8.8397388    547.87457 0.0093328321 0.0071474945         3814 
 4893000   0.47230152   -8.8361338    547.10531 0.0093178232 0.0071448652         3835 
 4894000    0.4521429   -8.8431304    547.76469  0.009327147 0.0071422365         3800 
 4895000   0.46807018   -8.8561285    546.80322 0.0093088734 0.0071396124         3834 
 4896000   0.47127023   -8.8569337    546.81237 0.0093071278 0.0071369887         3798 
 4897000   0.47597732   -8.8462801    546.61556 0.0093018779 0.0071343649         3818 
 4898000   0.47044799   -8.8504879    546.19282 0.0092927865 0.0071317418         3798 
 4899000   0.47699183    -8.848572    546.24757 0.0092918209 0.0071291189         3827 
 4900000     0.471037   -8.8465281    547.55435 0.0093121489 0.0071264986         3823 
 4901000   0.46872753   -8.8544572    546.63758 0.0092946607 0.0071238813         3833 
 4902000   0.46867173   -8.8474288    546.58563 0.0092918813 0.0071212643         3839 
 4903000   0.46730839   -8.8493609    546.64228 0.0092909491 0.0071186489         3840 
 4904000    0.4687213   -8.8544596    546.79418 0.0092916358 0.0071160324         3799 
 4905000   0.46807665   -8.8630961    546.35178 0.0092822253 0.0071134196         3816 
 4906000    0.4799921   -8.8604434     547.0881 0.0092928403 0.0071108094         3823 
 4907000   0.47020164   -8.8640391     546.9543 0.0092886744 0.0071081986         3830 
 4908000   0.47388112    -8.836098    546.21813 0.0092742824 0.0071055901         3799 
 4909000   0.46579345   -8.8628246    546.64312 0.0092796075 0.0071029833         3818 
 4910000   0.45738694   -8.8765842    546.20359 0.0092702577 0.0071003765         3827 
 4911000   0.47157245   -8.8578983    547.04671 0.0092826767  0.007097771         3819 
 4912000   0.45687307   -8.8681642    546.52075 0.0092718639 0.0070951654         3804 
 4913000   0.46756388   -8.8573142    547.07458 0.0092793707 0.0070925615         3799 
 4914000   0.46577245   -8.8613052    546.87991 0.0092741811 0.0070899599         3817 
 4915000   0.46179147   -8.8454345    546.27603 0.0092620555 0.0070873586         3802 
 4916000   0.46924813   -8.8544234    546.24226 0.0092595989 0.0070847596         3799 
 4917000   0.46238028   -8.8650804     547.3113 0.0092758338 0.0070821591         3803 
 4918000   0.45671195    -8.863254    546.51099 0.0092603868 0.0070795607         3791 
 4919000   0.46356875   -8.8650471    546.98071 0.0092664619 0.0070769662         3816 
 4920000   0.46367836   -8.8622551    546.86157 0.0092625604 0.0070743694         3796 
 4921000   0.45070912   -8.8561112    546.87454 0.0092608979 0.0070717783         3790 
 4922000    0.4559977   -8.8545771    546.79232 0.0092576243 0.0070691845         3842 
 4923000   0.46377151   -8.8694733    545.82293 0.0092393346  0.007066595         3827 
 4924000   0.46542766   -8.8596312    546.81183 0.0092541942 0.0070640061         3804 
 4925000   0.45968004   -8.8569521    546.35372 0.0092445638 0.0070614194         3821 
 4926000   0.47506565   -8.8698527    546.12877 0.0092388815 0.0070588335         3794 
 4927000   0.46381281   -8.8522303    547.05119 0.0092526079 0.0070562482         3813 
 4928000   0.47166402   -8.8597606    547.45907 0.0092576277 0.0070536653         3801 
 4929000   0.45716859   -8.8805888    546.63926 0.0092418892  0.007051083         3814 
 4930000   0.45736071   -8.8567911    546.68659 0.0092408145 0.0070484995         3839 
 4931000   0.45473834   -8.8718452    546.58971 0.0092373033 0.0070459197         3831 
 4932000   0.46134301   -8.8598985    546.77807 0.0092386129 0.0070433402         3821 
 4933000   0.45882354    -8.870073    545.98563 0.0092233535 0.0070407611         3816 
 4934000   0.46114985   -8.8639984    545.69191 0.0092165232 0.0070381837         3803 
 4935000   0.46780117   -8.8703646    546.47968 0.0092279582 0.0070356085         3770 
 4936000   0.46239455     -8.86985    545.76061 0.0092139487 0.0070330342         3814 
 4937000   0.46201378   -8.8729088    546.25716 0.0092204639 0.0070304619         3816 
 4938000   0.47478329   -8.8796089    546.23818 0.0092182763 0.0070278911         3806 
 4939000   0.46498395   -8.8572654    546.50889 0.0092209774 0.0070253212         3810 
 4940000   0.45807197   -8.8505611    545.72426 0.0092058749 0.0070227514         3814 
 4941000   0.46790003   -8.8666295    546.45592 0.0092163516 0.0070201843         3783 
 4942000   0.45406293    -8.844618    546.36049 0.0092128776 0.0070176177         3809 
 4943000   0.45835699   -8.8591719    546.09363 0.0092065148  0.007015052         3818 
 4944000   0.46073554   -8.8709464    546.46359 0.0092108884 0.0070124884         3813 
 4945000   0.47207302   -8.8630246    546.43454 0.0092085363  0.007009926         3853 
 4946000   0.45469697   -8.8765883    545.34561 0.0091883274  0.007007362         3805 
 4947000   0.46420482   -8.8715976    546.05581 0.0091984335 0.0070048008         3863 
 4948000   0.45779594   -8.8701408    546.19567   0.00919893 0.0070022423         3827 
 4949000   0.46071196   -8.8690778    546.05734  0.009194742  0.006999684         3850 
 4950000     0.466111   -8.8717371    546.18278 0.0091949963 0.0069971269         3824 
 4951000   0.46093366   -8.8711395    546.40033 0.0091968007 0.0069945715         3834 
 4952000   0.45201457   -8.8678618    546.41764 0.0091952349  0.006992016         3831 
 4953000   0.45890953   -8.8707524    546.75755 0.0091990973 0.0069894658         3790 
 4954000   0.45928957   -8.8638235    546.74634 0.0091970518 0.0069869155         3821 
 4955000   0.45387005   -8.8733516    546.11685  0.009184609 0.0069843654         3816 
 4956000   0.45964428   -8.8834455    545.96546 0.0091802103 0.0069818166         3807 
 4957000   0.45960318    -8.854796    545.78505 0.0091753253 0.0069792697         3839 
 4958000   0.45368512    -8.877673    545.22104 0.0091639949 0.0069767221         3803 
 4959000    0.4583265   -8.8680098    545.71652 0.0091704732 0.0069741751         3837 
 4960000   0.45778414   -8.8724234    546.09281 0.0091749465 0.0069716301         3838 
 4961000   0.45340992   -8.8634148    545.93408 0.0091704306  0.006969087         3804 
 4962000    0.4611711   -8.8700541    546.88225 0.0091845064 0.0069665455         3813 
 4963000   0.45926971    -8.859424    545.87123 0.0091656799 0.0069640051         3797 
 4964000   0.45203916   -8.8699473    545.72651 0.0091614039 0.0069614643         3816 
 4965000   0.45345946   -8.8613042    546.04788 0.0091649526 0.0069589276         3807 
 4966000    0.4566302   -8.8647713    546.18004 0.0091653249 0.0069563899         3826 
 4967000   0.46806654   -8.8499367    546.28742 0.0091652812 0.0069538539         3819 
 4968000   0.45859319   -8.8820528    545.58712 0.0091516895 0.0069513195         3808 
 4969000   0.45249755   -8.8683895    546.04217 0.0091574792 0.0069487871         3828 
 4970000   0.46305194   -8.8653379    545.85741 0.0091525388 0.0069462552         3804 
 4971000   0.45276284   -8.8536511     546.1622 0.0091558071 0.0069437258         3828 
 4972000   0.45091383   -8.8761367     547.1223 0.0091700573 0.0069411972         3815 
 4973000   0.45381803   -8.8665808    545.83559 0.0091466517 0.0069386694         3810 
 4974000   0.45386652   -8.8649178    546.63661  0.009158233 0.0069361409         3813 
 4975000   0.46683878   -8.8713035    546.72372 0.0091578513 0.0069336158         3813 
 4976000   0.44974407   -8.8653729    545.59158 0.0091370509 0.0069310904         3789 
 4977000   0.45079062   -8.8718442    546.21534  0.009145659 0.0069285683         3838 
 4978000   0.44937153    -8.872169    545.75664  0.009136143 0.0069260456         3796 
 4979000   0.44605392   -8.8899488    546.52155 0.0091471104 0.0069235247         3804 
 4980000   0.45683999   -8.8691791     546.4622 0.0091442804 0.0069210049         3814 
 4981000   0.44426547   -8.8637092    545.47867 0.0091259898 0.0069184863         3838 
 4982000   0.46898098    -8.877286    545.56952 0.0091256777 0.0069159687         3829 
 4983000   0.44900777   -8.8656438    545.95825 0.0091303474 0.0069134516         3817 
 4984000   0.45910114   -8.8747653    546.19463 0.0091324677 0.0069109384         3817 
 4985000   0.46041623   -8.8697066    546.29143 0.0091322539 0.0069084273         3821 
 4986000   0.46042107   -8.8809485    545.34768 0.0091146491 0.0069059146         3808 
 4987000   0.45091597   -8.8728054    547.16512  0.009143191 0.0069034052         3809 
 4988000   0.45648444   -8.8781789    546.28039  0.009126577  0.006900896         3829 
 4989000   0.44882476   -8.8660269    546.25604 0.0091243409 0.0068983899         3823 
 4990000   0.45505951   -8.8628099    545.90234 0.0091166056 0.0068958828         3824 
 4991000   0.46079687   -8.8561498    546.68099 0.0091277798 0.0068933784         3806 
 4992000   0.45730474   -8.8737895    546.23115 0.0091184421 0.0068908743         3822 
 4993000   0.44242181   -8.8759762    545.43251 0.0091032864 0.0068883722         3811 
 4994000   0.44475815   -8.8809737    545.93852 0.0091099072 0.0068858687         3811 
 4995000   0.45081641   -8.8813859     545.6051 0.0091025209 0.0068833673         3833 
 4996000    0.4487134   -8.8607266    545.87848 0.0091052589  0.006880869         3818 
 4997000   0.44884284   -8.8759933    545.11082 0.0090906347 0.0068783702         3817 
 4998000   0.44502663   -8.8616757    546.34382 0.0091093741 0.0068758734         3820 
 4999000   0.46034508    -8.884411    546.04868 0.0091026318  0.006873376         3832 
 5000000   0.45219045    -8.883323    545.72857 0.0090954762 0.0068708798         3836 
 5001000   0.44912678   -8.8750566    545.79921 0.0090948345 0.0068683875         3829 
 5002000   0.45047726   -8.8661055    545.47489 0.0090876131  0.006865894         3809 
 5003000   0.45572286   -8.8732771     546.5432 0.0091035912 0.0068634015         3831 
 5004000   0.45681175   -8.8623451    546.15833 0.0090953626 0.0068609136         3826 
 5005000   0.45134908   -8.8840487    545.96944 0.0090904002 0.0068584252         3851 
 5006000   0.44857665   -8.8834715    546.73614 0.0091013474 0.0068559395         3840 
 5007000   0.46058089   -8.8784621    546.67813 0.0090985642  0.006853451         3819 
 5008000   0.44733575   -8.8731124    546.52397 0.0090941821 0.0068509667         3809 
 5009000   0.45257788   -8.8725062    546.12581 0.0090857425 0.0068484837         3815 
 5010000   0.44736249   -8.8875713    546.23628 0.0090857664     0.006846         3831 
 5011000   0.45540589   -8.8852617     546.1828 0.0090830639  0.006843518         3825 
 5012000   0.44197682   -8.8873024    545.41504 0.0090684863  0.006841037         3819 
Loop time of 13189.2 on 48 procs for 5000000 steps with 4000 atoms

Performance: 65508.166 tau/day, 379.098 timesteps/s
99.4% CPU use with 48 MPI tasks x no OpenMP threads

MPI task timing breakdown:
Section |  min time  |  avg time  |  max time  |%varavg| %total
---------------------------------------------------------------
Pair    | 981.69     | 1068.6     | 1168.6     | 158.0 |  8.10
Neigh   | 94.136     | 97.389     | 101.29     |  17.2 |  0.74
Comm    | 832.88     | 941.38     | 1034.9     | 164.5 |  7.14
Output  | 17.786     | 17.791     | 17.898     |   0.4 |  0.13
Modify  | 10890      | 10940      | 10976      |  16.5 | 82.95
Other   |            | 124        |            |       |  0.94

Nlocal:        83.3333 ave          89 max          78 min
Histogram: 2 1 6 8 10 9 6 2 1 3
Nghost:        2468.27 ave        2493 max        2450 min
Histogram: 4 4 6 9 10 6 4 1 2 2
Neighs:        17202.9 ave       19284 max       14932 min
Histogram: 6 4 4 2 7 4 4 5 8 4
FullNghs:      34405.0 ave       37115 max       31918 min
Histogram: 2 1 6 7 11 14 2 1 1 3

Total # of neighbors = 1651439
Ave neighs/atom = 412.85975
Neighbor list builds = 266142
Dangerous builds = 0

#clear
#
#next RN
#
#jump SELF
Total wall time: 3:39:52
