
units lj                  # Use reduced LJ style units
atom_style atomic         # Uncharged point particles
atom_modify map hash      # Needed for indexing of clusters etc
                          # Used to be able to find where atoms are in relation to each other.

lattice fcc 1.0 spacing 1 1 1
Lattice spacing in x,y,z = 1.5874011 1.5874011 1.5874011
region box block 0 10 0 10 0 10 units lattice
create_box 2 box
Created orthogonal box = (0.0000000 0.0000000 0.0000000) to (15.874011 15.874011 15.874011)
  3 by 4 by 4 MPI processor grid
create_atoms 1 box
Created 4000 atoms
  using lattice units in orthogonal box = (0.0000000 0.0000000 0.0000000) to (15.874011 15.874011 15.874011)
  create_atoms CPU = 0.002 seconds
set type 1 type/fraction 2 0.44 78393
Setting atom values ...
  1760 settings made for type/fraction
mass 1 1.0
mass 2 1.0
pair_style lj/cut  3.5
pair_modify tail  yes
pair_coeff 1  1  1.0  1.0   # Intearaction between 1 and 1 set with epsilon = 1 and sigma = 1
pair_coeff 1  2  1.5  0.8
pair_coeff 2  2  0.5  0.88

write_data data.0
System init for write_data ...
Neighbor list info ...
  update every 1 steps, delay 10 steps, check yes
  max neighbors/atom: 2000, page size: 100000
  master list distance cutoff = 3.8
  ghost atom cutoff = 3.8
  binsize = 1.9, bins = 9 9 9
  1 neighbor lists, perpetual/occasional/extra = 1 0 0
  (1) pair lj/cut, perpetual
      attributes: half, newton on
      pair build: half/bin/atomonly/newton
      stencil: half/bin/3d
      bin: standard
WARNING: Not all mixed pair coeffs generated from mixing. Use write_data with 'pair ij' option to store all pair coeffs. (../write_data.cpp:312)


#############################
#   M E L T   S Y S T E M   #
#############################

velocity all create 2.4 5833274 mom yes dist gaussian # Assign velocities
                                                    # Temperature 2.4, random number seed, zero linear momentum
                                                                                # Gaussian distribution

timestep 0.002   # simulation timestep
thermo 1000       # output thermodynamic data every 1000 steps bf 100

# Define a fix  in this case with index 1 applied to all
# particles in the simulation. This fix is for simulations
# in the anisotropic NPT ensemble. Note that we use the MTK
# correction.
fix 1 all npt temp 2.4 2.4 0.1 iso 5.68 5.68 0.5 mtk yes tchain 5 pchain 5 # Use NPT ensemble
                                                                         # Set temperature and pressure and damping
                                                                         # Numbers of thermostats in chain and in barostat
run 10000          # run for 10000 steps
Per MPI rank memory allocation (min/avg/max) = 3.642 | 3.644 | 3.648 Mbytes
Step Temp E_pair E_mol TotEng Press Volume 
       0          2.4   -5.6445478            0   -2.0454478   -4.2010474         4000 
    1000    2.4107443   -5.0382796            0   -1.4230672    5.5197644    3808.5317 
    2000    2.4278729   -5.0700822            0   -1.4291833    5.5506463    3787.5485 
    3000    2.3614816    -5.018902            0   -1.4775651    5.5727279    3810.5621 
    4000    2.4357851   -4.9476986            0   -1.2949343    5.4269382    3856.3732 
    5000    2.3367761   -5.0131793            0   -1.5088914    5.5926784    3804.6851 
    6000    2.4434361   -5.0042313            0   -1.3399935    5.8057673    3798.7354 
    7000    2.3991208   -5.0105239            0   -1.4127423    5.7375017    3791.6387 
    8000    2.3899765    -4.979378            0   -1.3953095    5.7706851    3807.9297 
    9000    2.4369034   -5.0652772            0    -1.410836    5.8739902    3770.0978 
   10000    2.3930246   -4.9947699            0   -1.4061305    5.7213055    3806.5889 
Loop time of 2.54617 on 48 procs for 10000 steps with 4000 atoms

Performance: 678666.341 tau/day, 3927.467 timesteps/s
99.6% CPU use with 48 MPI tasks x no OpenMP threads

MPI task timing breakdown:
Section |  min time  |  avg time  |  max time  |%varavg| %total
---------------------------------------------------------------
Pair    | 1.115      | 1.2124     | 1.2871     |   3.0 | 47.62
Neigh   | 0.21226    | 0.21983    | 0.23068    |   0.8 |  8.63
Comm    | 0.77737    | 0.85519    | 0.94059    |   4.1 | 33.59
Output  | 0.00025002 | 0.00025467 | 0.00033092 |   0.0 |  0.01
Modify  | 0.21003    | 0.24296    | 0.27723    |   4.4 |  9.54
Other   |            | 0.01552    |            |       |  0.61

Nlocal:        83.3333 ave          91 max          75 min
Histogram: 3 3 1 7 4 9 12 4 3 2
Nghost:        1699.38 ave        1722 max        1681 min
Histogram: 3 7 3 7 7 7 8 3 2 1
Neighs:        10027.9 ave       11210 max        8490 min
Histogram: 1 1 4 1 10 9 9 8 3 2

Total # of neighbors = 481340
Ave neighs/atom = 120.33500
Neighbor list builds = 906
Dangerous builds = 212

# Equilibrate just above the melting temperature to avoid step fn in T

fix 1 all npt temp 1.25 1.25 0.1 iso 5.68 5.68 0.5 mtk yes tchain 5 pchain 5
run 2000
Per MPI rank memory allocation (min/avg/max) = 3.643 | 3.645 | 3.649 Mbytes
Step Temp E_pair E_mol TotEng Press Volume 
   10000    2.3930246   -4.9947699            0   -1.4061305    5.7213055    3806.5889 
   11000    1.2719454   -7.0833472            0   -5.1759061     5.670433     2989.709 
   12000     1.241692   -7.1261104            0   -5.2640381    5.7207208    2978.4412 
Loop time of 0.626726 on 48 procs for 2000 steps with 4000 atoms

Performance: 551437.248 tau/day, 3191.188 timesteps/s
99.6% CPU use with 48 MPI tasks x no OpenMP threads

MPI task timing breakdown:
Section |  min time  |  avg time  |  max time  |%varavg| %total
---------------------------------------------------------------
Pair    | 0.28081    | 0.3061     | 0.33383    |   2.3 | 48.84
Neigh   | 0.039973   | 0.042247   | 0.046888   |   0.7 |  6.74
Comm    | 0.19977    | 0.22775    | 0.25517    |   3.0 | 36.34
Output  | 5.358e-05  | 5.4939e-05 | 7.2645e-05 |   0.0 |  0.01
Modify  | 0.043043   | 0.045589   | 0.048557   |   0.8 |  7.27
Other   |            | 0.004977   |            |       |  0.79

Nlocal:        83.3333 ave          94 max          72 min
Histogram: 1 1 3 5 5 22 7 3 0 1
Nghost:        2000.88 ave        2025 max        1970 min
Histogram: 1 1 7 5 4 9 6 4 8 3
Neighs:        12806.2 ave       14699 max       10942 min
Histogram: 1 5 2 3 12 12 7 4 1 1

Total # of neighbors = 614700
Ave neighs/atom = 153.67500
Neighbor list builds = 142
Dangerous builds = 11

#############################
# L I N E A R  Q U E N C H  #
#############################

# Define solid atoms. This closely follows ten Wolde  Ruiz-Montero and Frenkel  Faraday Discuss  1996  104  93-110
# Compute components of the per-atom q6 vector
compute q6 all orientorder/atom degrees 1 6 components 6 nnn NULL cutoff 1.3 # compute the Q6 parameter.
                                                                             # Use all neighbours within 1.3 unit cell.

# get number of connections
compute coord_number all coord/atom orientorder q6 0.5

# An atom is solid if it has 8 or more connections (of a possible 14)
variable is_solid atom c_coord_number>=8
group solid dynamic all var is_solid    # Must be dynamic to update
dynamic group solid defined

# do clustering
compute cluster solid cluster/atom 1.3 # Create a cluster where all atoms within are solid and max 1.3 units from another member

# define chunks one chunk per cluster
compute clus_chunks solid chunk/atom c_cluster nchunk every compress yes  # Says which atoms are in which chunk

# count the size of each chunk
compute size_chunks solid property/chunk clus_chunks count


# Find the maximum entry in the vector of chunk sizes
variable max_n equal max(c_size_chunks)


# Thermo style which includes this variable
# thermo_style custom step temp pe vol v_max_n

thermo ${N}  # Print the thermo information every 100 steps
thermo 1000  

# Reset the npt fix at a lower temperature (below freezing)
fix 1  all npt temp  ${temp} ${temp}  0.1  iso  5.68  5.68  0.5  mtk yes tchain  5  pchain  5
fix 1  all npt temp  0.45 ${temp}  0.1  iso  5.68  5.68  0.5  mtk yes tchain  5  pchain  5
fix 1  all npt temp  0.45 0.45  0.1  iso  5.68  5.68  0.5  mtk yes tchain  5  pchain  5

dump dmp2 all dcd ${N} traj.dcd
dump dmp2 all dcd 1000 traj.dcd


compute msd all msd com yes
variable twopoint equal c_msd[4]/6/(step*dt+1.0e-6)
fix 9 all vector 10 c_msd[4]
variable fit equal slope(f_9)/6/(10*dt)
thermo_style custom step temp pe c_msd[4] v_twopoint v_fit v_max_n

fix 1 all npt temp 1.25 ${temp} 0.1 iso 5.68 5.68 0.5 mtk yes tchain 5 pchain 5
fix 1 all npt temp 1.25 0.45 0.1 iso 5.68 5.68 0.5 mtk yes tchain 5 pchain 5
run 2000000 # 5000000  # Run for this many steps
Neighbor list info ...
  update every 1 steps, delay 10 steps, check yes
  max neighbors/atom: 2000, page size: 100000
  master list distance cutoff = 3.8
  ghost atom cutoff = 3.8
  binsize = 1.9, bins = 8 8 8
  4 neighbor lists, perpetual/occasional/extra = 1 3 0
  (1) pair lj/cut, perpetual
      attributes: half, newton on
      pair build: half/bin/atomonly/newton
      stencil: half/bin/3d
      bin: standard
  (2) compute orientorder/atom, occasional
      attributes: full, newton on
      pair build: full/bin/atomonly
      stencil: full/bin/3d
      bin: standard
  (3) compute coord/atom, occasional
      attributes: full, newton on
      pair build: full/bin/atomonly
      stencil: full/bin/3d
      bin: standard
  (4) compute cluster/atom, occasional
      attributes: full, newton on
      pair build: full/bin/atomonly
      stencil: full/bin/3d
      bin: standard
Per MPI rank memory allocation (min/avg/max) = 9.830 | 9.836 | 9.840 Mbytes
Step Temp PotEng c_msd[4] v_twopoint v_fit v_max_n 
   12000     1.241692   -7.1261104 1.8226631e-30 1.2657382e-32 8.3333333e+20            2 
   13000     1.239125   -7.1561494   0.46333618 0.0029701036  0.037404743            1 
   14000    1.2563203   -7.1782335   0.91171992 0.0054269041  0.036852083            2 
   15000     1.249541   -7.0938471    1.2726066 0.0070700363  0.035114921            3 
   16000    1.2587251   -7.1341737     1.650351 0.0085955777  0.033883915            1 
   17000    1.2535251   -7.1457444    2.0580729  0.010088592  0.033427596            1 
   18000    1.2530008   -7.1564808      2.48187  0.011490139  0.033440141            2 
   19000    1.2406081    -7.131183    2.8629153  0.012556646  0.033486812            1 
   20000    1.2277588   -7.1379236    3.2820172  0.013675071  0.033583368            3 
   21000    1.2269209   -7.1697657    3.7424017    0.0148508  0.033822872            1 
   22000    1.2242345   -7.1509621     4.071252  0.015421409  0.033789947            1 
   23000     1.222937   -7.1973788    4.3169788  0.015641227  0.033263473            2 
   24000      1.25496   -7.2180978    4.6835794  0.016262428  0.032772364            1 
   25000    1.2393281   -7.1781199    5.0765528  0.016921842  0.032376389            2 
   26000    1.2652208   -7.1844428    5.4531667  0.017478098   0.03223418            2 
   27000     1.230376   -7.1385153    5.7963167  0.017889866  0.032052839            3 
   28000    1.2197845   -7.1794194    6.2499034  0.018600903  0.031918289            1 
   29000    1.2541951    -7.167988    6.6661743  0.019155673  0.031898129            3 
   30000    1.2404583   -7.1939346    7.0897882  0.019693856  0.031956862            1 
   31000    1.2470844   -7.1418545    7.4872623  0.020127049  0.032051843            1 
   32000    1.2360777    -7.193742    7.8231634  0.020372821  0.032056739            1 
   33000    1.2280824   -7.1471022    8.2272748  0.020775946  0.032035844            3 
   34000    1.2499435   -7.1268207    8.7784693  0.021515856  0.032143214            1 
   35000    1.2466287   -7.1831776    9.1677451  0.021827964  0.032311201            1 
   36000    1.2413825   -7.1293767    9.6135084  0.022253491  0.032463107            2 
   37000    1.2144291   -7.1512158    10.133373  0.022822911  0.032633339            2 
   38000    1.2267529    -7.159688    10.502203  0.023031146  0.032824203            3 
   39000    1.2541134   -7.1835982    10.881101  0.023250216  0.032953277            1 
   40000    1.2330588   -7.1668401    11.219122   0.02337317   0.03301544            2 
   41000    1.2338015   -7.1558011    11.765736  0.023914096  0.033105044            1 
   42000    1.2148689   -7.1807847    12.089204  0.023986515  0.033191071            1 
   43000    1.2337873   -7.1829512    12.394636  0.024020613  0.033235856            1 
   44000      1.23614   -7.2045809    12.751103  0.024149815  0.033237519            1 
   45000    1.2602558   -7.1803725    13.258688  0.024553125  0.033254189            2 
   46000    1.2298702   -7.1659311    13.548026  0.024543526  0.033275343            1 
   47000    1.2446282   -7.1709874    13.977994  0.024783676   0.03325421            3 
   48000    1.2212707   -7.1593902    14.407709  0.025013384  0.033230663            3 
   49000     1.242269   -7.1308326     14.59562  0.024822483  0.033178283            2 
   50000    1.2188424   -7.1597545    14.916653  0.024861089  0.033115409            1 
   51000    1.2515584   -7.1755177    15.294003    0.0249902  0.033044193            1 
   52000    1.2231323   -7.1743253    15.704059   0.02516676   0.03298472            1 
   53000    1.2402308    -7.176384    16.166143  0.025418464  0.032955191            2 
   54000    1.2407681    -7.214629    16.458419  0.025398794  0.032922821            3 
   55000    1.2351105    -7.208199    16.835152  0.025507806  0.032870757            1 
   56000    1.2482159   -7.1789623     17.15707  0.025531354  0.032830021            1 
   57000    1.2414848   -7.1774143    17.507187  0.025595303  0.032767152            3 
   58000    1.2098755   -7.1307722    17.912856  0.025736862  0.032706609            2 
   59000    1.2145514   -7.1523025    18.310396  0.025862141  0.032641025            4 
   60000    1.2262058   -7.2071363    18.594494  0.025825686  0.032578666            1 
   61000    1.2331543   -7.1893072    18.930306  0.025861073  0.032518464            1 
   62000    1.2745484   -7.2248071    19.136483  0.025721078  0.032440625            2 
   63000    1.2106382   -7.2210168    19.518422  0.025818018  0.032350175            2 
   64000    1.2322136    -7.211762     19.95976   0.02598927  0.032276692            3 
   65000      1.24343   -7.2328325    20.329644  0.026063646  0.032209818            2 
   66000    1.2508346   -7.1673589    20.787021  0.026246238  0.032156809            1 
   67000    1.2253351   -7.1815109    21.140657  0.026294349  0.032114651            2 
   68000    1.2191046   -7.1799215    21.493221  0.026339731  0.032066586            1 
   69000    1.2171824   -7.1803482    21.810948  0.026341724  0.032017607            2 
   70000    1.2415261   -7.1965255    22.033547  0.026230412  0.031956429            1 
   71000    1.2089547   -7.2344485    22.383241   0.02627141  0.031894417            1 
   72000    1.2055677   -7.1718315    22.816705  0.026408224    0.0318384            2 
   73000    1.2530683   -7.1673221    23.375725  0.026684617  0.031798028            2 
   74000    1.2216714   -7.2147258    23.657085  0.026640861  0.031761162            1 
   75000    1.2153746   -7.1827328    23.963176  0.026625751  0.031720782            3 
   76000    1.2308762   -7.1608982    24.443905  0.026802527  0.031689993            1 
   77000    1.2506444   -7.1706142    24.696845  0.026728187  0.031644053            1 
   78000     1.215361   -7.1731071    24.995514  0.026704609  0.031597753            1 
   79000    1.2472839   -7.2021507    25.579445  0.026982537  0.031569047            2 
   80000    1.2370762    -7.201889    26.183347  0.027274319  0.031570301            1 
   81000    1.2009072   -7.2271469    26.391787  0.027152044  0.031570916            3 
   82000    1.2217376   -7.1338679    27.067105   0.02750722  0.031577837            1 
   83000    1.2291969   -7.2213195    27.198807  0.027308039  0.031579461            2 
   84000    1.2144328   -7.2363469    27.553967  0.027335285  0.031579642            1 
   85000    1.2320797   -7.2628941    27.686582  0.027143707  0.031571097            2 
   86000    1.2270747   -7.2267062    28.258628  0.027382391  0.031556695            2 
   87000    1.2596105   -7.2753215    28.531903  0.027329409  0.031538933       -1e+20 
   88000    1.2286806   -7.2484571    28.914461  0.027381118  0.031521829            1 
   89000    1.2286669    -7.200096    29.249398  0.027387076  0.031504015            2 
   90000    1.2149751   -7.2448431    29.432913  0.027252697  0.031480571            1 
   91000    1.2229711   -7.2323084    29.780291  0.027271328  0.031448979            2 
   92000    1.2119745    -7.255089    30.085032  0.027250934  0.031412324            1 
   93000    1.2047671   -7.2336437    30.363259  0.027207221  0.031372573       -1e+20 
   94000    1.2090942    -7.185396    30.634609  0.027158341  0.031332367            1 
   95000    1.2146444   -7.1936405    31.002886  0.027195514  0.031285842            1 
   96000    1.2257758   -7.2186483    31.384879  0.027243818   0.03123844            2 
   97000    1.1942905   -7.1969524    31.716044  0.027247461  0.031195649            2 
   98000    1.2168915   -7.1652903    32.166484  0.027352452  0.031161455            2 
   99000    1.2023959   -7.2082754    32.509249  0.027364687  0.031129937            2 
  100000    1.1876366   -7.2247623    32.830431  0.027358692  0.031100365            2 
  101000    1.2077784   -7.2508032    33.155663  0.027356157  0.031065968            2 
  102000    1.2197307   -7.2283324    33.708401  0.027539543   0.03103671            3 
  103000     1.225614   -7.2523475    34.122417  0.027607133  0.031017048            2 
  104000    1.2004816   -7.2122032    34.506203  0.027649201  0.030999751            2 
  105000    1.1945208   -7.2966476    34.711101  0.027548493  0.030982108            1 
  106000    1.2175725   -7.2521686    35.268756  0.027727009  0.030966503            3 
  107000    1.1925049   -7.1849187    35.586386  0.027715253  0.030951205            2 
  108000    1.2177974   -7.2341311    35.775457  0.027604519  0.030933327            1 
  109000    1.1866604   -7.2883451    36.320293  0.027767808  0.030919653            2 
  110000    1.1955155   -7.2142615    36.733046  0.027828065  0.030911958            1 
  111000    1.2124144   -7.2287063    37.264212  0.027976135  0.030904702            2 
  112000    1.2135667   -7.2326216    37.702718  0.028052618  0.030901193            1 
  113000     1.216518   -7.2188727     37.81985  0.027890744   0.03089321            1 
  114000    1.1962161   -7.3077728    38.159484   0.02789436  0.030888171            2 
  115000    1.1932673    -7.264483    38.606421  0.027975667  0.030881042            2 
  116000    1.2134041   -7.2724684    38.907685  0.027950923  0.030871015            4 
  117000    1.2232133   -7.2666147    39.346548  0.028024606  0.030861601            4 
  118000     1.222358   -7.2417214    39.860369  0.028149978    0.0308572            1 
  119000    1.2058835   -7.2235293    39.975155  0.027993806  0.030850278            1 
  120000    1.2496493   -7.2444521    40.405768  0.028059561  0.030841336            4 
  121000    1.1903677   -7.2253572    41.029644   0.02825733  0.030837598            1 
  122000    1.2127569   -7.2567178    41.394487  0.028274923  0.030840234            2 
  123000    1.2103494   -7.2080588    41.851595  0.028354739  0.030846837            1 
  124000     1.210616   -7.2462557    42.331565  0.028448632  0.030854526            2 
  125000    1.2003245   -7.1790028     42.92969  0.028619793  0.030870018            1 
  126000    1.1730475   -7.1965566    43.398596  0.028702775  0.030887295            3 
  127000    1.2238805   -7.2051719    43.581058  0.028596495   0.03090328            1 
  128000    1.2029315   -7.2335152    43.716763  0.028461434  0.030913808            2 
  129000    1.2081031   -7.2276068    44.097546  0.028486787  0.030917571            1 
  130000    1.1976227   -7.2636794    44.280844  0.028385156  0.030916058            1 
  131000    1.2100417   -7.2666691    44.704543  0.028438004  0.030916444            1 
  132000    1.2116955   -7.2697306    45.277939  0.028584557  0.030918065            1 
  133000    1.1926365   -7.2225771    45.736168  0.028656747  0.030924841            1 
  134000    1.1970591   -7.2280887    46.052176  0.028639413  0.030930406            2 
  135000    1.2081411   -7.2883095    46.362655  0.028618923  0.030932259            2 
  136000    1.2002592   -7.2429204    46.860311  0.028713426  0.030939212            4 
  137000    1.2271209   -7.2547098    46.991198  0.028583454  0.030946104            3 
  138000    1.1940693   -7.2933146    47.479738  0.028671339  0.030952977            4 
  139000    1.2095687   -7.2745332    47.734058  0.028617541  0.030958135            1 
  140000    1.2063604   -7.3338963    48.175775  0.028676057  0.030963891            1 
  141000    1.2260965   -7.2783832    48.653226  0.028754862  0.030970252            1 
  142000     1.163364   -7.2857379    48.863683   0.02867587  0.030974271            1 
  143000    1.2131201   -7.2736717    49.310272   0.02873559  0.030975789            1 
  144000     1.194949   -7.2448383    49.886389  0.028869438  0.030981491            1 
  145000    1.2091888   -7.2882501     50.09576  0.028790667  0.030983772            2 
  146000    1.1924605   -7.2338182    50.641718   0.02890509  0.030986375            4 
  147000    1.1834293   -7.2962816    50.708585  0.028746364  0.030987158            2 
  148000     1.203965    -7.271612    51.138377  0.028794131  0.030987078            1 
  149000     1.199993   -7.2801007    51.319313  0.028702076   0.03098693            2 
  150000    1.1920642   -7.3039946    51.598186  0.028665659  0.030982236            1 
  151000    1.1687432    -7.246713    52.086397  0.028745252  0.030978579            4 
  152000    1.2216703   -7.2743888    52.446882  0.028753773   0.03097137            1 
  153000    1.1938472   -7.2543141    52.532458   0.02861245  0.030964785            3 
  154000    1.1745308   -7.2668035    53.056412   0.02871018  0.030958439            2 
  155000    1.1876414   -7.2688285    53.452934  0.028738136    0.0309536            2 
  156000    1.1869911    -7.285529    53.654154  0.028661407  0.030947242            2 
  157000    1.2040526    -7.246386    54.203349  0.028770355  0.030939671            1 
  158000    1.1986343   -7.2970069    54.205952  0.028589637  0.030929451            2 
  159000    1.1788716    -7.316331     54.45982  0.028542882  0.030913567            1 
  160000    1.1925996   -7.3146831    54.740692  0.028510777  0.030900117            1 
  161000    1.1792583   -7.3038409    55.022624  0.028479619  0.030883423            3 
  162000    1.2069215   -7.2625799    55.353144   0.02847384  0.030865051            2 
  163000    1.1868908    -7.307987    55.494084  0.028371209  0.030845178            1 
  164000    1.1801719   -7.3157347    55.958671  0.028434284  0.030824921            2 
  165000     1.185472    -7.251302    56.289224  0.028428901  0.030804982            1 
  166000    1.1811689   -7.2635501    56.781813  0.028504926  0.030788685            2 
  167000    1.1502988   -7.2761266    57.068943  0.028477516  0.030771554            3 
  168000    1.1888765   -7.2522686    57.573002  0.028558037  0.030753974            2 
  169000    1.1813641   -7.2736047    57.980381  0.028589931  0.030739108            2 
  170000    1.1797117   -7.3294584    58.226562  0.028542432  0.030724373            4 
  171000    1.1880937   -7.3123427    58.497452   0.02850753  0.030710237            1 
  172000    1.2030262   -7.2898705    59.081069  0.028624549  0.030698464            1 
  173000    1.1819433   -7.2672501    59.437296  0.028630682  0.030685116            2 
  174000     1.173727   -7.2949799    59.358433  0.028428368  0.030669152            1 
  175000    1.2077996   -7.2661863    59.462407  0.028315432  0.030649113            2 
  176000    1.2017918   -7.3167288    59.986912  0.028402894   0.03062738            2 
  177000    1.2018024   -7.2808166    60.513703  0.028490444  0.030609889            2 
  178000    1.1843721   -7.3137226    60.682529  0.028409424  0.030592323            2 
  179000    1.2009745   -7.2958427    61.278936  0.028528369  0.030575437            2 
  180000    1.1711754   -7.2951433    61.517873  0.028480496  0.030559619            3 
  181000    1.1979327   -7.3362366    61.617361  0.028368951  0.030543132            3 
  182000    1.1688278   -7.3080703     62.07403  0.028422175  0.030526983            1 
  183000    1.1648812   -7.2865063    62.236582  0.028340884  0.030510204            2 
  184000    1.1931507   -7.2756541    62.775892   0.02843111  0.030492991            3 
  185000     1.187368    -7.286513    63.083901  0.028416172  0.030475076            2 
  186000    1.1411829   -7.2827807    63.494342  0.028447286  0.030459149            1 
  187000     1.185788   -7.3322433    63.558756  0.028323866   0.03044179            1 
  188000    1.2078439   -7.2759772    64.150695  0.028435592  0.030425324            2 
  189000    1.1727941   -7.3236786    64.550453  0.028461399  0.030409434            2 
  190000    1.1974779   -7.3237141    64.918198  0.028472894  0.030395112            2 
  191000    1.1675675   -7.2971142    65.313479  0.028496282  0.030380587            2 
  192000     1.153143   -7.3196197    65.671715  0.028503348  0.030364075            4 
  193000    1.1592716   -7.3032699    66.008967  0.028501281  0.030348693            2 
  194000       1.1596   -7.3374073    66.382384   0.02851477  0.030334085            3 
  195000    1.1703374    -7.306995    66.849106  0.028567994  0.030321018            1 
  196000    1.2046825   -7.2848443    67.115598  0.028535543  0.030308714            1 
  197000    1.1561052    -7.308917    67.521297  0.028562308  0.030296487            3 
  198000    1.1817411   -7.3542398     67.67233   0.02848162  0.030284378            4 
  199000    1.1917949    -7.312139    67.924483  0.028444088   0.03026848            2 
  200000    1.1672806   -7.3470066    68.220772  0.028425322   0.03025398            1 
  201000    1.1945819   -7.3118098    68.552027  0.028421239  0.030239972            2 
  202000    1.1570048   -7.3102961    69.228038  0.028559421  0.030226431            1 
  203000    1.1712699    -7.338733    69.218434  0.028414792  0.030213011            2 
  204000    1.1619875    -7.331184    69.507143  0.028393441  0.030198358            5 
  205000    1.1882068   -7.2933686    70.104259  0.028497666  0.030185404            1 
  206000    1.1736405   -7.2981645    70.360203  0.028462865  0.030172627            2 
  207000     1.148264   -7.2607717    70.739789  0.028478176  0.030159862            3 
  208000    1.1807283   -7.3170784    70.753593  0.028346792  0.030145467            5 
  209000    1.1607776   -7.3238289    71.380681  0.028461197  0.030130432            2 
  210000    1.1639169   -7.3383914    71.666139  0.028438944  0.030115137            2 
  211000    1.1663322   -7.3345369    71.528109  0.028249648  0.030099815            2 
  212000    1.1767995   -7.3295827    72.336187  0.028434036  0.030083885            1 
  213000    1.1590578   -7.3379041    72.328231   0.02829743  0.030067357            1 
  214000    1.1991933   -7.3357138    72.492298  0.028229088  0.030050564            2 
  215000    1.1578758   -7.3407963     72.78389   0.02821081  0.030028985            1 
  216000    1.1640979   -7.3275257    72.944802  0.028142285  0.030008902            2 
  217000    1.1781175   -7.3124139    73.304546  0.028150747  0.029988854            2 
  218000    1.1576442   -7.3288328    73.381853  0.028051167  0.029967661            4 
  219000    1.1811416   -7.3118379    73.763069  0.028068139  0.029946351            1 
  220000    1.1751645    -7.326433    74.204862  0.028107902  0.029924629            2 
  221000    1.1600084   -7.3254494    74.540885  0.028107423  0.029902976            1 
  222000    1.1615823   -7.3025411    74.853824  0.028098282  0.029883587            1 
  223000    1.1384919   -7.3162505    75.561579  0.028236763  0.029864543            1 
  224000     1.186708   -7.3527081    75.899296  0.028236345  0.029847289            1 
  225000    1.1862022   -7.3536839    76.079707  0.028177669  0.029830963            2 
  226000    1.1653233   -7.3579832    75.848102  0.027967589  0.029811391            1 
  227000    1.1709118   -7.3116028    76.373587  0.028037293  0.029790605            2 
  228000    1.1793996   -7.3587081    76.609997   0.02800073  0.029769924            4 
  229000    1.1658462    -7.386429    76.855263  0.027967709   0.02974687            1 
  230000    1.1694319   -7.3556871    76.983834  0.027892693  0.029723566            4 
  231000    1.1725371   -7.3579483    77.422511  0.027930199  0.029700909            1 
  232000    1.1536273   -7.3401971    77.890781   0.02797801  0.029679183            2 
  233000    1.1710283   -7.3547165     78.06237  0.027919303  0.029658892            2 
  234000    1.1723254   -7.3941018    78.278894  0.027877099  0.029638239            1 
  235000    1.1560511    -7.384284    78.729651  0.027918316  0.029617265            2 
  236000    1.1622933   -7.3281385    79.107924  0.027933589  0.029597222            1 
  237000      1.17456   -7.3507168    79.408999  0.027921589   0.02957659            2 
  238000    1.1229192   -7.3503127    79.561845  0.027857789  0.029555671            2 
  239000    1.1603844    -7.375271    79.735127  0.027801648  0.029533236            3 
  240000    1.1791656   -7.3953731    80.042484  0.027792529  0.029511548            6 
  241000    1.1429808   -7.3671726    80.479459  0.027828305  0.029490877            3 
  242000    1.1303479   -7.3581839    81.099243  0.027926736  0.029472202            4 
  243000     1.156073   -7.4008175    81.282871  0.027874784  0.029453312            1 
  244000    1.1557206   -7.3013301    81.880239  0.027964563   0.02943561            1 
  245000    1.1600428   -7.3863996    82.024551  0.027899507  0.029418738            1 
  246000    1.1597038   -7.3246156    82.374068  0.027904495  0.029401018            1 
  247000     1.146916   -7.3377991    82.927379  0.027978198  0.029384539            3 
  248000    1.1621927   -7.3820226    83.355131  0.028009117  0.029369535            3 
  249000    1.1454253   -7.4148077    83.563016  0.027966203  0.029353229            2 
  250000    1.1573641   -7.3764206    83.611091  0.027870363  0.029336625            2 
  251000    1.1546273   -7.3792768    83.950239  0.027871925  0.029321563            1 
  252000    1.1671891   -7.3882601    84.617716  0.027982049   0.02930654            1 
  253000    1.1553815   -7.3974723    84.648069  0.027881446  0.029291701            1 
  254000    1.1478309   -7.3654484    84.835367  0.027833126  0.029275932            2 
  255000     1.167167   -7.3601957    85.205769  0.027845023   0.02925892            1 
  256000    1.1513449   -7.4009536    85.634951  0.027875961  0.029241609            3 
  257000     1.159194   -7.3925422    86.080934  0.027912106  0.029226317            1 
  258000    1.1428632   -7.3730178    86.415248  0.027911902  0.029211582            3 
  259000    1.1316319    -7.407557     86.10063  0.027702905  0.029194756            4 
  260000    1.1508309   -7.3613249    86.758765  0.027807296  0.029177085            1 
  261000    1.1399425   -7.4504143    86.632115  0.027660317    0.0291591            2 
  262000    1.1606606   -7.4133594    86.760687  0.027595638  0.029139442            1 
  263000    1.1549731   -7.3734083    87.354484  0.027678861  0.029118907            3 
  264000    1.1360071   -7.3931432    87.237938  0.027537228  0.029098672            1 
  265000     1.167109   -7.3924099    87.623742  0.027554636  0.029078419            2 
  266000    1.1380499   -7.3797268    88.150339  0.027616021  0.029058983            1 
  267000     1.130174   -7.3753122    88.326793  0.027567663  0.029039193            1 
  268000     1.171685   -7.3734149    88.969978  0.027664794  0.029019342            1 
  269000    1.1374488   -7.3802039    89.340435  0.027676715  0.029002205            2 
  270000    1.1247205   -7.4347348    89.484935  0.027618807  0.028984317            1 
  271000    1.1293678   -7.3517363    89.788123  0.027610124   0.02896627            3 
  272000    1.1209883   -7.4297807     89.88371  0.027537901  0.028947893            2 
  273000    1.1273029   -7.3799989     90.39837   0.02759413   0.02892898            1 
  274000    1.1492963   -7.4174647    90.720595  0.027591422  0.028911359            1 
  275000    1.1638522   -7.4072088     90.86125  0.027533712  0.028893194            2 
  276000    1.1613731   -7.3485606    91.402179  0.027597276  0.028875296            3 
  277000    1.1540696   -7.4047447    91.677643  0.027580518  0.028857846            1 
  278000    1.1356469    -7.388561    91.995647  0.027576633  0.028840827            2 
  279000    1.1779747   -7.3835801    92.163435  0.027527908  0.028822442            4 
  280000    1.1628015   -7.4415793    91.847636  0.027335606   0.02880461            2 
  281000    1.1349306   -7.3588873    92.732158   0.02750064  0.028786419            1 
  282000    1.1476783   -7.4157382    92.716846  0.027398595  0.028768451            4 
  283000    1.1665938   -7.3862164    92.951206  0.027370791   0.02875006            3 
  284000    1.1623742   -7.3815367    93.790802  0.027520775  0.028731578            1 
  285000    1.1515562   -7.3892125    94.054243   0.02750124  0.028713693            1 
  286000    1.1195121   -7.4481245    93.553801  0.027259266  0.028695466            4 
  287000    1.1565939   -7.3872423    94.537362  0.027449873  0.028676619            2 
  288000    1.1271863   -7.3724408    94.976388  0.027481594  0.028659068            1 
  289000    1.1309295   -7.4173903    94.808941  0.027338218  0.028641654            2 
  290000    1.1453598    -7.401963    94.888225  0.027266731  0.028623353            3 
  291000    1.1230475   -7.4039741    95.182988  0.027257442  0.028603951            2 
  292000    1.1268166   -7.3807092    95.568128  0.027274009  0.028584379            2 
  293000    1.1282734    -7.400768    95.863732  0.027264998   0.02856521            2 
  294000    1.1237092   -7.4055641    96.181327  0.027262281  0.028545381            2 
  295000    1.1305814   -7.4073341    96.223916  0.027181897  0.028525854            2 
  296000    1.1550406   -7.4164009    96.787472  0.027248725  0.028506882            1 
  297000    1.1211834   -7.4382781    97.135485  0.027254625   0.02848797            1 
  298000    1.1259363   -7.3636649    97.735782  0.027331035  0.028469162            1 
  299000    1.1401484    -7.357462    97.396032  0.027144936   0.02845096            2 
  300000    1.1141136   -7.4435357    97.489251  0.027080347  0.028431409            3 
  301000    1.1457325   -7.3958969    97.848063  0.027089718  0.028410696            5 
  302000    1.1469893   -7.4445446    97.844093  0.026998922  0.028390188            2 
  303000    1.1425688   -7.4200739    98.353965  0.027050045  0.028369319            2 
  304000    1.1261026   -7.4044099    98.724729    0.0270627  0.028348704            1 
  305000    1.1401449   -7.4397523    98.858089  0.027010407  0.028328808            2 
  306000    1.1334513   -7.4672099    99.267939  0.027033752  0.028309375            3 
  307000    1.1291084   -7.4070173    99.800818  0.027090341  0.028288528            2 
  308000    1.1304873   -7.3764328    100.13164  0.027091895  0.028269534            1 
  309000    1.1081957    -7.392743    100.27323  0.027042404  0.028250059            1 
  310000    1.1115369   -7.4524033    100.16545  0.026926196  0.028229939            1 
  311000    1.1184413   -7.4120677    100.60651  0.026957801  0.028209508            2 
  312000     1.137561   -7.4038608    101.04698  0.026989045  0.028189671            2 
  313000    1.1278747   -7.4343062    100.97122  0.026882647  0.028169582            2 
  314000    1.1265842    -7.379951    101.62381  0.026970225  0.028149244            3 
  315000     1.117547   -7.4566666    101.08907   0.02674314   0.02812776            2 
  316000    1.1388509   -7.4521171    101.79532  0.026844758  0.028107106            1 
  317000    1.1576142   -7.4287057      101.808  0.026763407  0.028085929            2 
  318000    1.1134599   -7.4224117    101.95867  0.026718728  0.028063603            2 
  319000    1.1072609   -7.4510766    101.99733  0.026645071  0.028040797            6 
  320000    1.1230968   -7.4832384    101.92887  0.026543977  0.028016477            7 
  321000    1.1242951   -7.4461757    102.72545  0.026668082  0.027992332            2 
  322000    1.1282452   -7.4052142    102.83583  0.026613827  0.027969624            4 
  323000    1.1262939   -7.4648535    103.26588  0.026642383  0.027946832            3 
  324000    1.1277404   -7.4450082    103.76315  0.026688052  0.027924653            3 
  325000    1.1324817   -7.4373119    104.01057  0.026669378   0.02790215            3 
  326000    1.1274923   -7.4643445    104.23285   0.02664439  0.027880693            2 
  327000    1.1132791    -7.436395     104.9709  0.026750993  0.027860822            1 
  328000    1.1356295   -7.5086146    104.70623  0.026602192  0.027840205            2 
  329000     1.104808   -7.4413884    105.57011  0.026740148  0.027820236            3 
  330000    1.1248488   -7.4265806     105.5508  0.026654242  0.027800364            2 
  331000    1.1413864    -7.465667    105.39916  0.026535539  0.027779932            3 
  332000     1.107141   -7.4795548     105.9933  0.026604744  0.027759106            1 
  333000    1.1287743   -7.4732328    106.43719  0.026635933  0.027739427            5 
  334000    1.1040148   -7.4304295    106.68442  0.026617869  0.027719303            3 
  335000    1.1258077   -7.4955603    106.48948  0.026489921  0.027699556            2 
  336000    1.1320343   -7.4088729    107.50155  0.026662091   0.02767953            1 
  337000    1.1046181   -7.4658889    107.16894  0.026500726  0.027660527            1 
  338000    1.1353486   -7.4422203    107.91689  0.026606728  0.027640931            2 
  339000    1.1134493   -7.4248532    107.83868  0.026509017  0.027621861            3 
  340000    1.1168486   -7.4000772    108.56304  0.026608587   0.02760283            3 
  341000    1.0960149   -7.4371349    108.55822   0.02652938  0.027582502            1 
  342000    1.1257598   -7.4598283    108.34605  0.026400109  0.027562835            2 
  343000    1.0742903   -7.4445376    109.01077  0.026484638  0.027543154            4 
  344000    1.1038922   -7.4307104    109.15173  0.026441794   0.02752383            1 
  345000    1.1166072   -7.4599059    109.69429  0.026496205   0.02750458            5 
  346000    1.1336325   -7.4254707    109.95836  0.026483228  0.027486254            2 
  347000    1.1196366   -7.4901933    110.08242  0.026436699  0.027468678            2 
  348000    1.1190166   -7.4793184    110.50919  0.026462929  0.027450381            3 
  349000    1.1347598   -7.4690321    110.53592  0.026393487   0.02743155            4 
  350000    1.1010109   -7.4569341    111.09086  0.026450204  0.027412397            1 
  351000    1.1097748   -7.4643886    111.07237  0.026370457  0.027393311            1 
  352000    1.1262533   -7.4912575    111.34028  0.026358967  0.027374415            7 
  353000     1.141621    -7.519318    111.54941  0.026333665  0.027354607            2 
  354000    1.1207441   -7.4892034    111.68593  0.026291414  0.027335342            2 
  355000    1.1226821    -7.493018    112.01975  0.026295715  0.027316428            1 
  356000    1.1017378   -7.4957623    112.45778  0.026324386  0.027297443            1 
  357000     1.109792   -7.4450526    113.09358  0.026399061  0.027278308            3 
  358000    1.1084552   -7.4327962    113.00076  0.026303716  0.027259458            2 
  359000    1.1174501   -7.4561196    113.27913  0.026295062   0.02724137            2 
  360000    1.1279475   -7.4662728    113.38237  0.026245919  0.027223198            2 
  361000    1.1220217   -7.5039432    113.75809  0.026259946  0.027204637            2 
  362000     1.124928   -7.5030562    114.02369  0.026248548  0.027186799            1 
  363000     1.123689    -7.531782     114.1986  0.026216391  0.027169104            2 
  364000    1.1280543   -7.4730349    114.73152  0.026266373  0.027151487            2 
  365000    1.1052032   -7.4976711    114.82797  0.026216431  0.027133459            3 
  366000    1.1101901   -7.4994696    115.20294  0.026230178  0.027115539            4 
  367000     1.079114   -7.4373707    115.67054  0.026264881  0.027097644            1 
  368000    1.1162781   -7.4541915    115.74516  0.026210407  0.027079717            2 
  369000    1.1136908   -7.4843014    116.29141   0.02626274  0.027062388            3 
  370000     1.136571   -7.5013793    116.06566  0.026140913  0.027044504            2 
  371000    1.1141675   -7.4790896    116.21856  0.026104799  0.027026612            1 
  372000    1.1016844   -7.4807224    116.54999  0.026108868  0.027008744            2 
  373000    1.1356421   -7.4896698    116.76004    0.0260858  0.026990836            2 
  374000    1.1252262   -7.4671489    117.35439  0.026148483  0.026972608            1 
  375000    1.0709095   -7.4923597    117.20837  0.026046304  0.026953884            1 
  376000     1.085325   -7.5191061    117.05015  0.025941965  0.026934887            1 
  377000    1.1020901    -7.512887    117.40139  0.025950794   0.02691533            3 
  378000    1.1150743   -7.4833051    118.09565  0.026035197  0.026896547            1 
  379000    1.1090718   -7.5109638    118.21051  0.025991756  0.026877374            2 
  380000     1.088453   -7.4981861    118.37906  0.025960321  0.026858517            1 
  381000    1.0980777   -7.4561177    119.03802  0.026036313  0.026839909            2 
  382000    1.1036231   -7.4907465    118.93969  0.025946705  0.026821178            3 
  383000    1.1033742   -7.5008178    118.87407   0.02586468  0.026802803            2 
  384000     1.091724   -7.4772865    119.58486  0.025951575   0.02678501            2 
  385000    1.1059269   -7.5094331     119.8577  0.025943224  0.026767126            1 
  386000    1.0901066   -7.5307448    120.09795  0.025927882  0.026749237            1 
  387000    1.0943732   -7.4906317    119.97027  0.025833392  0.026730734            2 
  388000    1.1116198   -7.5548573    120.01569  0.025776566  0.026711454            2 
  389000    1.1105168   -7.5121304    120.74885  0.025867362  0.026693212            4 
  390000    1.1362329   -7.5110748    121.26125  0.025910522  0.026675408            2 
  391000    1.0991988   -7.4997202    121.68447  0.025934457  0.026657784            2 
  392000    1.0861517   -7.5001525    121.64452  0.025859805  0.026640592            2 
  393000    1.0889824   -7.4591108    122.42297   0.02595907  0.026623787            3 
  394000    1.1125322   -7.5023075    122.79998  0.025972923  0.026607673            3 
  395000    1.0847607   -7.4995682    123.25822  0.026003845  0.026592295            3 
  396000    1.0914536   -7.5017259    123.05549  0.025895515  0.026576217            5 
  397000     1.092245   -7.4959129    123.00947  0.025820627  0.026559634            3 
  398000     1.077318   -7.4970353    122.95028  0.025743359  0.026542488            3 
  399000    1.0843251   -7.5130602    123.52385  0.025798633  0.026525358            2 
  400000    1.0954467   -7.5092775    123.17332  0.025661108   0.02650814            1 
  401000    1.0748757   -7.4852306     123.9988  0.025768661  0.026491009            2 
  402000    1.0633438   -7.4807741    124.32469  0.025772116  0.026473907            3 
  403000    1.0664641    -7.508387    123.91806  0.025624081  0.026456493            1 
  404000    1.1031126   -7.5247978    124.79428  0.025741394  0.026438845            1 
  405000    1.1038327   -7.5416365    124.70631  0.025659734  0.026421477            1 
  406000    1.0798047   -7.5365247     124.8627  0.025628633   0.02640424            4 
  407000    1.0837489   -7.5199035    125.34348  0.025664104   0.02638732            2 
  408000    1.0815401   -7.5103135    125.56212  0.025645858  0.026370663            3 
  409000     1.077177   -7.5101341    125.74347  0.025620103  0.026353985            1 
  410000    1.0864505   -7.4826858    126.26632  0.025663886   0.02633703            2 
  411000     1.053685   -7.5148142    126.55878  0.025660742  0.026320666            3 
  412000    1.0848958   -7.5032019    126.75047  0.025637231  0.026303855            2 
  413000    1.0865696   -7.5616023    126.67077  0.025559074  0.026286805            2 
  414000    1.0986007   -7.5408063    127.24088  0.025612093  0.026270261            3 
  415000    1.0923351    -7.520196    127.42171  0.025586689  0.026253747            2 
  416000    1.0916876   -7.5273734    127.23966  0.025488715  0.026237627            4 
  417000    1.0976323   -7.4946058    128.47934  0.025675328  0.026221166            1 
  418000    1.0969003   -7.5305898    128.19127  0.025556472  0.026205712            2 
  419000    1.0806662   -7.5002178     128.8104  0.025618616  0.026189971            2 
  420000    1.0744984   -7.5416931    128.46362  0.025488813  0.026174141            2 
  421000    1.0779843   -7.5560378    128.89206  0.025513076  0.026158482            2 
  422000    1.1053272   -7.5529276    129.21873  0.025517127  0.026143142            2 
  423000    1.0853444   -7.5356537    129.90798  0.025592588  0.026127858            1 
  424000    1.0976293    -7.558781    129.45912  0.025444009  0.026112079            3 
  425000    1.0812396     -7.55844    129.79872  0.025450729  0.026096273            3 
  426000    1.0834337   -7.5581425    129.99273  0.025428937  0.026080023            4 
  427000    1.0754125   -7.5537182    130.22282  0.025414289  0.026064238            4 
  428000    1.1004528   -7.5428376    130.64644  0.025437391  0.026048753            1 
  429000    1.0992673   -7.5926192    130.64461  0.025377741  0.026033232            3 
  430000    1.0724906   -7.5539613    131.17861  0.025422211  0.026017413            2 
  431000    1.0931041    -7.592683    131.13539  0.025354871  0.026001248            4 
  432000    1.0904307   -7.5526177    131.49195   0.02536496  0.025985348            1 
  433000    1.0741792   -7.5390939    131.66525  0.025339732  0.025969314            2 
  434000    1.0784717   -7.5101842    132.27228  0.025397902  0.025953604            1 
  435000    1.0857821   -7.5226174    132.06437  0.025299688  0.025937825            1 
  436000    1.0681148   -7.5117498    132.31669  0.025289886  0.025921746            3 
  437000    1.0714923   -7.5540137    131.98109  0.025168019  0.025905136            4 
  438000    1.0689883   -7.5464214    132.52876  0.025214756  0.025888368            2 
  439000    1.0927876    -7.547955    133.29726  0.025303201  0.025872313            1 
  440000    1.0783605     -7.60498    132.93763  0.025177581  0.025856463            2 
  441000    1.0956793   -7.5431065    133.51662  0.025229899  0.025840343            3 
  442000    1.0713933   -7.5737812    133.96882  0.025258072  0.025824082            2 
  443000    1.0858104   -7.5066939     133.7744  0.025164485  0.025807758            2 
  444000    1.0801012   -7.5429592    134.25819   0.02519861  0.025791199            3 
  445000    1.0753804   -7.5455127     134.5025  0.025187734  0.025774748            2 
  446000    1.0783587    -7.562735    134.28371  0.025090379  0.025758399            4 
  447000    1.0664731   -7.5511783    134.97179  0.025162525   0.02574221            3 
  448000    1.0846497   -7.5679397    135.26967  0.025161769   0.02572634            3 
  449000    1.0913033   -7.6057831    135.00239  0.025056123  0.025709845            5 
  450000    1.0659676   -7.5667579    135.54599   0.02510111  0.025693299            2 
  451000    1.0805488   -7.5562524    136.04978  0.025138539  0.025677244            5 
  452000    1.0915031   -7.5586522    136.22736  0.025115664  0.025661748            1 
  453000    1.0947667   -7.5604999    135.95208  0.025009581  0.025645676            2 
  454000    1.0476645   -7.5826692    136.07423  0.024976914  0.025629346            2 
  455000    1.0581497   -7.6148155    135.70846   0.02485503  0.025612126            1 
  456000    1.0908426   -7.5512573    136.71322   0.02498414  0.025594527            2 
  457000    1.0562033   -7.5476797    136.76832  0.024939519  0.025577201            1 
  458000    1.0845806   -7.5591014    136.81371  0.024893324  0.025560186            1 
  459000    1.0771345   -7.5671055    136.97686  0.024868712  0.025542535            2 
  460000    1.0704491     -7.57409     136.8711  0.024795488   0.02552447            3 
  461000     1.078288   -7.5884979    137.22064  0.024804887  0.025506285            7 
  462000    1.0799739   -7.6009698    136.92189  0.024697311  0.025487751            6 
  463000    1.0302638   -7.6011178    137.28116  0.024708633  0.025469172            4 
  464000    1.0849318   -7.5872667    138.01146  0.024786541  0.025450621            1 
  465000     1.066021   -7.5815164    138.11648  0.024752057  0.025432017            1 
  466000    1.0605372   -7.6114966     138.1003  0.024696049  0.025413407            2 
  467000    1.0525345   -7.5800051    138.75255  0.024759555  0.025394832            2 
  468000    1.0613154   -7.5602531    138.79977  0.024715059  0.025376869            4 
  469000    1.0730085   -7.5888276    138.82376  0.024666624  0.025359209            2 
  470000    1.0589223   -7.5875478    139.15365  0.024672633  0.025340951            2 
  471000    1.0336528   -7.5896083    139.57005  0.024693923  0.025322858            2 
  472000    1.0560949   -7.6120736    140.04289  0.024725087  0.025306032            3 
  473000    1.0737797    -7.549511    140.25898  0.024710884  0.025289029            1 
  474000    1.0456183   -7.5635648    140.20817  0.024649819  0.025271654            2 
  475000    1.0648756   -7.5932793    140.97337  0.024732171  0.025254862            4 
  476000    1.0611249   -7.6025981    140.70088  0.024632507  0.025237773            1 
  477000     1.064721   -7.6147639    141.00274  0.024633602  0.025220854            3 
  478000    1.0568832   -7.5766966      141.453  0.024660565  0.025204345            2 
  479000    1.0652734   -7.5683352    142.08065  0.024718275  0.025187856            2 
  480000    1.0725144   -7.6029402     141.5371  0.024572414  0.025171661            2 
  481000    1.0330508    -7.585899    142.08193  0.024615719  0.025155063            1 
  482000    1.0548559   -7.6543903    141.63198  0.024486857  0.025138342            1 
  483000    1.0866986   -7.6035221    142.68334  0.024617554  0.025121595            1 
  484000    1.0617819   -7.5731126    142.66209  0.024563031  0.025105053            1 
  485000    1.0275464   -7.6229664    142.43583   0.02447351  0.025088472            2 
  486000    1.0466151   -7.6105832    142.99065  0.024518286  0.025071671            2 
  487000    1.0451794   -7.6329051    143.00317  0.024470084  0.025054903            6 
  488000    1.0522723    -7.643543    142.83529  0.024391272   0.02503777            3 
  489000    1.0681899   -7.6603049    143.16738  0.024397986  0.025020307            3 
  490000    1.0479534   -7.6425299    143.35692  0.024380429  0.025003004            3 
  491000    1.0888306   -7.6439143    143.39736  0.024337638  0.024985687            2 
  492000    1.0700482   -7.6056531    144.00563  0.024391197  0.024968653            1 
  493000    1.0433908   -7.5992973    144.36185  0.024401935  0.024951554            1 
  494000    1.0295682   -7.5961266    144.89794  0.024442972  0.024934856            3 
  495000    1.0640861   -7.6291448    144.47014  0.024321573  0.024918422            2 
  496000    1.0607532   -7.6363606     145.0638  0.024372279  0.024901668            1 
  497000    1.0398094   -7.6076972    144.93408  0.024301488  0.024885153            2 
  498000    1.0917357   -7.6406063    145.76181    0.0243912  0.024868839            3 
  499000    1.0495464   -7.6373283    145.56369  0.024309233  0.024852632            2 
  500000    1.0455841   -7.5860479    146.04831  0.024341385  0.024836003            1 
  501000    1.0671478   -7.6595208    145.91664  0.024270898  0.024819607            3 
  502000    1.0596257    -7.625524    145.96591  0.024230728  0.024802834            1 
  503000    1.0610061   -7.6312238    146.35411   0.02424687  0.024785656            2 
  504000    1.0694378   -7.6345136    145.99645  0.024139624  0.024768197            1 
  505000    1.0432158    -7.627646    146.22075  0.024128837  0.024750499            1 
  506000     1.071248   -7.6459424    146.19598  0.024077072  0.024732762            3 
  507000    1.0142711   -7.6439346    147.02121  0.024165222  0.024714679            3 
  508000    1.0430466    -7.643183     146.3242  0.024003313  0.024697223            3 
  509000    1.0399148   -7.6364111    146.88099  0.024047313  0.024679242            2 
  510000    1.0374331   -7.6363605    147.12585  0.024040171  0.024661206            4 
  511000    1.0648401   -7.6343011    146.70091  0.023923827  0.024642974            1 
  512000    1.0529642   -7.6360103    147.58817  0.024021512  0.024624804            2 
  513000    1.0320142   -7.6751558    147.17944  0.023908291  0.024606762            3 
  514000    1.0387451   -7.6172845    148.11892  0.024014092  0.024588648            6 
  515000     1.049219    -7.643131    147.78543    0.0239135  0.024570595            1 
  516000    1.0329857   -7.5965887    148.87045  0.024042386  0.024553096            2 
  517000    1.0683676   -7.6507326    148.65944   0.02396187  0.024535697            4 
  518000     1.046727   -7.6504557    148.77082  0.023933529  0.024518493            2 
  519000    1.0501243    -7.630147    149.09577  0.023939591  0.024501353            1 
  520000    1.0554269   -7.6300628    149.36177  0.023936181   0.02448417            4 
  521000    1.0178877   -7.6514004    149.49394  0.023911378  0.024466547            2 
  522000    1.0605676   -7.6494901    149.36414   0.02384485  0.024449027            1 
  523000     1.034117   -7.6592356    149.57446  0.023832769   0.02443148            4 
  524000    1.0679178   -7.6818368    149.72768  0.023811654  0.024413804            1 
  525000    1.0444815   -7.6252153    150.91626  0.023954962  0.024396466            2 
  526000     1.032912   -7.6587269    150.01632  0.023766844  0.024378951            2 
  527000    1.0446832   -7.6505989    150.56002   0.02380772    0.0243616            1 
  528000    1.0281226   -7.6208989    151.01721  0.023834787  0.024344288            3 
  529000    1.0356048   -7.6487645    150.89956  0.023771197   0.02432717            2 
  530000    1.0621606   -7.6217678    151.07086  0.023753279  0.024310232            5 
  531000    1.0607588   -7.6719416    151.28081  0.023741496  0.024293236            3 
  532000    1.0304573   -7.6541295    151.48808  0.023729335  0.024275979            2 
  533000    1.0377769   -7.6549638    151.76487  0.023728091  0.024258856            2 
  534000    1.0208745   -7.6690277    152.30912  0.023768589  0.024241679            2 
  535000    1.0372215   -7.6565034    152.30279  0.023723176  0.024224488            1 
  536000    1.0329634   -7.6609828    152.39885  0.023693851  0.024207234            3 
  537000      1.01816   -7.6462336     152.5625  0.023675124  0.024189973            1 
  538000     1.052508   -7.6672746    152.97822  0.023695511  0.024173269            3 
  539000    1.0512342    -7.622047    153.02878  0.023659367  0.024156481            1 
  540000    1.0120545   -7.6815071    153.60651  0.023704709  0.024140054            5 
  541000    1.0232429   -7.6359959    153.60754  0.023661051  0.024123318            1 
  542000    1.0469071   -7.6833847    153.72627  0.023635651  0.024106651            3 
  543000    1.0458322    -7.691938    153.53349  0.023562537  0.024089714            2 
  544000    1.0473969   -7.6441565    154.24417   0.02362809  0.024072983            1 
  545000     1.064208   -7.6674493     154.3408  0.023599511   0.02405649            2 
  546000    1.0338327   -7.6330206    154.67799  0.023607752  0.024040328            2 
  547000    1.0045836   -7.6986028    154.29542   0.02350631  0.024023872            4 
  548000    1.0438567   -7.6836087     154.8167  0.023542686  0.024007563            2 
  549000    1.0076551   -7.6030605    155.91562  0.023666608  0.023991386            2 
  550000    1.0259251   -7.6519261    155.38219  0.023542755  0.023974938            3 
  551000    1.0217749   -7.6869847    155.21898  0.023475344  0.023958262            2 
  552000    1.0274137   -7.6609959    155.21394  0.023432056  0.023941823            3 
  553000    1.0291962   -7.6816084    155.85335  0.023486039  0.023925414            2 
  554000    1.0067859   -7.6805058    155.66146   0.02341478  0.023908711            1 
  555000    1.0364576   -7.6752146    156.42777  0.023487653  0.023891951            1 
  556000    1.0175337   -7.6778138    155.93304  0.023371259  0.023875379            1 
  557000    1.0444771   -7.7235784    156.23842  0.023374988  0.023858652            3 
  558000    1.0324735   -7.6708205    156.26048  0.023336392  0.023841942            1 
  559000    1.0333918   -7.6785381     156.7166  0.023362642  0.023825277            3 
  560000    1.0281498   -7.6547223    157.77364  0.023478221  0.023809044            5 
  561000    1.0061846   -7.6415179    157.56514  0.023405397  0.023793109            2 
  562000    1.0446408   -7.6440411    157.75182  0.023391432  0.023777019            1 
  563000    1.0308883   -7.6671082     157.5755  0.023323787  0.023760833            2 
  564000    1.0063429   -7.6770303    157.80125  0.023315787  0.023744424            1 
  565000    1.0255314   -7.6565227    158.02802  0.023307968  0.023727913            6 
  566000    1.0327459    -7.656727    158.44377     0.023328  0.023711585            4 
  567000    1.0247277   -7.6377319    158.69019  0.023323073  0.023695217            3 
  568000    1.0283184   -7.6319903    158.65718  0.023277168   0.02367895            2 
  569000    1.0176896    -7.688868    158.46819  0.023208581   0.02366244            1 
  570000    1.0137872   -7.7204197    158.79281  0.023215323  0.023645931            2 
  571000    1.0417331   -7.7122884    158.58116  0.023143778  0.023629449            3 
  572000    1.0338721   -7.6956273    159.40172  0.023222861  0.023612824            2 
  573000    1.0361051   -7.6848781    159.07316  0.023134549  0.023595989            3 
  574000    1.0023707   -7.6713051    159.41784  0.023144286   0.02357954            3 
  575000    1.0222355   -7.6784317    160.10614  0.023203789  0.023562979            2 
  576000    1.0300466   -7.6994792    160.47441  0.023216784  0.023546763            2 
  577000    1.0250067   -7.6943924     159.8529  0.023086785  0.023530741            3 
  578000      1.03507   -7.7369362    160.05847   0.02307648  0.023514323            3 
  579000    1.0373717   -7.7184887    160.40972  0.023087179  0.023497911            2 
  580000     1.029608   -7.6929499    160.61053  0.023076225  0.023481472            6 
  581000     1.003215   -7.7411897    160.74989  0.023056496  0.023464843            2 
  582000    1.0286523   -7.7168969    160.96079  0.023047077  0.023448194            3 
  583000    1.0336435    -7.671449    161.37364  0.023066558  0.023431703            2 
  584000    1.0194843   -7.6837848    161.60959  0.023060729  0.023415142            2 
  585000    1.0222485   -7.7382767    161.59896  0.023019794  0.023398797            2 
  586000    1.0041355   -7.7437967    161.51003  0.022967865  0.023382468            1 
  587000    1.0210291   -7.7431062    161.73602   0.02296082  0.023366172            3 
  588000    1.0060861   -7.7002447     162.0599  0.022967673  0.023349664            6 
  589000   0.99023771   -7.7358406    161.75908  0.022886117  0.023333213            2 
  590000    1.0272128   -7.7124204     162.2049  0.022910297  0.023316943            2 
  591000    1.0339986   -7.7439722    162.35901  0.022893261  0.023300417            2 
  592000    1.0061395   -7.7056237    163.13154  0.022963337  0.023283854            5 
  593000    1.0216816   -7.7088833    163.24916  0.022941141  0.023268049            2 
  594000    1.0104378   -7.7301427      163.527  0.022941498    0.0232523            1 
  595000    1.0140095     -7.73891    163.09701  0.022842719  0.023236458            1 
  596000    1.0242421    -7.722209     163.6768  0.022885458  0.023220455            2 
  597000     1.019157   -7.7268799    163.74621  0.022856813  0.023204509            2 
  598000    1.0413343   -7.6934961    164.53034  0.022927863  0.023188885            2 
  599000    1.0018818    -7.744932    164.45692  0.022879371    0.0231732            3 
  600000    1.0268224   -7.7284645    164.40706  0.022834314  0.023157465            2 
  601000    1.0078534   -7.7221575    164.53327   0.02281382   0.02314181            3 
  602000    1.0190543   -7.7533618    164.79953   0.02281278  0.023126351            3 
  603000    1.0111848   -7.7405058    164.71511  0.022763282  0.023110802            2 
  604000    1.0273807   -7.7521304    164.64345  0.022715707  0.023094771            2 
  605000    1.0072811   -7.7285206    165.32433  0.022771946  0.023078971            3 
  606000    1.0077116   -7.7601906    165.16645  0.022712658  0.023063137            2 
  607000    1.0613305   -7.7247367    165.45177  0.022714411  0.023047027            4 
  608000    1.0175773   -7.7448764    165.59876  0.022697198  0.023030889            2 
  609000    1.0312754   -7.7242926    165.44647   0.02263909  0.023014569            2 
  610000    1.0309693   -7.7227041    166.14233  0.022697039    0.0229984            2 
  611000    1.0203039   -7.7430601     165.4888  0.022570758  0.022981917            4 
  612000    1.0157992   -7.7335797     165.7111  0.022564147  0.022965276            2 
  613000    1.0226069   -7.8087675    165.62502  0.022515637  0.022948409            2 
  614000   0.99414065   -7.7026009    166.38297  0.022581837    0.0229315            3 
  615000     1.010428    -7.739236    166.30878  0.022535065  0.022914941            2 
  616000    1.0249593   -7.7448109    166.45698   0.02251853  0.022898194            3 
  617000    1.0150449    -7.728301     166.4711  0.022483942  0.022881666            1 
  618000    0.9989424   -7.6964771    167.24641  0.022552105  0.022865453            3 
  619000    1.0018963   -7.7164807    167.37421  0.022532877  0.022849606           10 
  620000    1.0046606   -7.7181568    167.12358  0.022462847  0.022833514            2 
  621000   0.99658192   -7.7581615    167.13907  0.022428754   0.02281704            5 
  622000    1.0291585   -7.7921757    167.16278   0.02239587  0.022800558            4 
  623000   0.99122303   -7.7799293     167.6879  0.022430164  0.022784053            3 
  624000   0.98818272   -7.7517546    167.76195  0.022404107  0.022767369            2 
  625000     1.010693   -7.7792806     167.3075  0.022307667  0.022750591            1 
  626000   0.99585291   -7.7632357      167.483  0.022295394  0.022733639            2 
  627000    1.0126528   -7.7737997    167.91862  0.022317733  0.022716801            1 
  628000   0.99389746   -7.7479235    168.22805  0.022323255  0.022699633            2 
  629000   0.98211619   -7.7443286    168.35547  0.022304646  0.022682648            6 
  630000   0.98710469   -7.7932259    167.96267  0.022217284  0.022665793            2 
  631000    1.0169555   -7.7380362    168.58801  0.022264661  0.022648809            6 
  632000   0.98371152   -7.8013773    168.05471  0.022159113  0.022631768            3 
  633000    1.0159361   -7.7693617    168.65053  0.022202544  0.022614724            4 
  634000    1.0038848    -7.783432    168.75871  0.022181744  0.022597734            4 
  635000    1.0103855   -7.7938798    168.75165  0.022145886  0.022580559            2 
  636000     1.002562   -7.7410686    169.22218  0.022172718  0.022563535            1 
  637000   0.99010881   -7.7334524     169.4175  0.022163461  0.022546472            4 
  638000    1.0089442    -7.744497    169.35995  0.022121206  0.022529421            3 
  639000   0.99058187   -7.7892741    169.49107  0.022103687  0.022512366            3 
  640000    1.0003819   -7.7904564    169.72812  0.022100016  0.022495365            2 
  641000   0.97836786   -7.7887322    169.85319  0.022081797  0.022478747            2 
  642000    1.0085649   -7.7703464    169.88917  0.022052073  0.022461954            2 
  643000   0.98195583   -7.7711377    169.73173  0.021997373  0.022445272            4 
  644000   0.98859359   -7.7806119    170.32401  0.022039856  0.022428478            7 
  645000   0.97806617   -7.7544422    171.12534  0.022109216  0.022411608            2 
  646000    1.0081039   -7.7987508    170.57002  0.022003356  0.022394613            3 
  647000    1.0057597   -7.7904235    170.03807  0.021900833  0.022377648            2 
  648000   0.98558305   -7.7473999    170.69853  0.021951972  0.022360581            1 
  649000   0.99356021   -7.7695142    171.06323  0.021964975  0.022343687            3 
  650000   0.98971718   -7.7472395    171.53368  0.021991497  0.022326909            3 
  651000    0.9956038   -7.7969253     171.5205  0.021956029  0.022309828            4 
  652000   0.99592386   -7.8093751    171.14253  0.021874045  0.022292788            3 
  653000   0.98428468   -7.7704458    171.05342  0.021829175  0.022275769            1 
  654000   0.99651373    -7.809788    171.28556  0.021825377  0.022258701            2 
  655000   0.99054003   -7.7559879    171.78158  0.021855162  0.022241611            3 
  656000   0.98143687   -7.8040175    171.90538  0.021837574  0.022224452            3 
  657000     1.005477   -7.7382547    171.63807   0.02177043  0.022207116            2 
  658000    1.0054393   -7.7727841     171.7704  0.021754103  0.022189537            1 
  659000    0.9753516   -7.8216685    171.47145  0.021683289  0.022171757            4 
  660000   0.99305015   -7.7506362    172.08112  0.021727414  0.022154053            6 
  661000   0.99115587   -7.7891365    171.78878  0.021657688  0.022136566            2 
  662000   0.98494721   -7.8005467    171.77317  0.021623007    0.0221189            2 
  663000   0.98055523   -7.7974404    172.13743  0.021636177  0.022101225            2 
  664000   0.99477241   -7.8023601    172.00843  0.021587403  0.022083517            6 
  665000     0.988183   -7.8153305    172.51768  0.021618756  0.022065667            4 
  666000   0.98640229   -7.7934913    172.07775   0.02153125   0.02204795            4 
  667000   0.97365864   -7.8031564    172.11959  0.021504196  0.022030312            2 
  668000    1.0029078   -7.7726674    173.16424  0.021602326   0.02201249            4 
  669000    1.0170334   -7.8210664    172.45172   0.02148128  0.021994815            9 
  670000   0.98408711   -7.8194335    172.66994  0.021476361  0.021977015            3 
  671000   0.98562957   -7.8103561     173.0791  0.021495168  0.021959566            2 
  672000   0.99697127   -7.8248623    173.19861  0.021478002  0.021941936            6 
  673000   0.96497234   -7.8120542    173.42286  0.021473856  0.021924159            2 
  674000   0.98269603   -7.8238258    173.56548  0.021459629  0.021906542            4 
  675000   0.96475357   -7.7910952    174.24278  0.021511454  0.021888919            2 
  676000   0.98989304   -7.8197332    173.55978  0.021395436  0.021871388            2 
  677000   0.97789826   -7.8164233    173.92549  0.021408849  0.021853873            3 
  678000    0.9953707   -7.8230891    174.12933  0.021402327  0.021836285            5 
  679000   0.99839263    -7.828019    173.84032  0.021335337  0.021818365            2 
  680000   0.96731278   -7.7760197    174.29835  0.021360092  0.021800583            4 
  681000    1.0042454   -7.8115833    174.39114  0.021340081  0.021782781            2 
  682000   0.97601143    -7.829573    173.67233  0.021220959  0.021764839            2 
  683000   0.97174226   -7.8437985    173.65019  0.021187188  0.021746485            4 
  684000   0.98766301    -7.838388    174.48118  0.021257454   0.02172847            2 
  685000   0.99513863   -7.7611662     175.1119  0.021303151  0.021710485            1 
  686000   0.98901743   -7.7904732    174.81713  0.021236289  0.021692807            6 
  687000   0.97737214    -7.803547    174.38836  0.021153367  0.021674959            2 
  688000   0.99331715    -7.849306    174.91323  0.021186196  0.021656971            2 
  689000   0.97764677   -7.8201317    174.60492  0.021118157  0.021638915            2 
  690000    0.9736543   -7.8171597    174.73249  0.021102958  0.021620853            5 
  691000   0.98630316   -7.8131336    175.37501  0.021149905  0.021603072            3 
  692000    0.9764956   -7.8213801    175.63814  0.021151028  0.021585474            6 
  693000   0.96988319    -7.816474    176.09012  0.021174859  0.021567947            4 
  694000   0.97496533   -7.8133526    176.17841  0.021154949  0.021550451            4 
  695000    0.9705926   -7.8125801    176.44825  0.021156864  0.021532862            2 
  696000   0.95886834   -7.8278984    176.09064  0.021083649  0.021515376            3 
  697000   0.98734029   -7.8135703    176.23876  0.021071109  0.021497751            2 
  698000   0.97588761   -7.8222094    176.55548  0.021078735  0.021480265            2 
  699000   0.98732816   -7.8139679      176.933  0.021093586  0.021462848            2 
  700000   0.96605427   -7.8575159    176.04587  0.020957842  0.021445125            2 
  701000   0.96267558   -7.8371602    177.00287   0.02104171  0.021427544            4 
  702000   0.98007601   -7.8468859     177.1678  0.021031315  0.021410048            3 
  703000   0.96739756   -7.8781394    176.87263  0.020966409  0.021392467            3 
  704000   0.97214868   -7.8387694    177.52252  0.021013556  0.021375094            3 
  705000   0.96396109   -7.8302035    177.63406  0.020996934  0.021357753            5 
  706000     0.967143   -7.8537141    177.40514  0.020940173  0.021340442            7 
  707000   0.96755764   -7.8279606    177.81864  0.020959293  0.021323067            2 
  708000   0.95549203   -7.8565148    177.93117  0.020942934  0.021305848            2 
  709000   0.98223717   -7.8331062    178.45273  0.020974697   0.02128871            2 
  710000   0.98318666   -7.8270908     178.2724  0.020923991  0.021271709            4 
  711000   0.97380029   -7.8530581    178.41088  0.020910792   0.02125446            6 
  712000   0.95958799   -7.8214619    178.70865  0.020916275  0.021237653            2 
  713000   0.96081022   -7.8789488    178.72375  0.020888704   0.02122067            3 
  714000   0.97714182   -7.8527286    179.02881  0.020895052  0.021203529            3 
  715000   0.96267441    -7.834192    178.81511  0.020840922  0.021186535            3 
  716000   0.96220326   -7.8197169    179.03202   0.02083706  0.021169656            2 
  717000   0.94661198   -7.8614676    179.47082  0.020858999  0.021152958            3 
  718000   0.96824878    -7.821677    179.83309  0.020871993  0.021136336            2 
  719000   0.94824531   -7.8391668    179.80843  0.020840106  0.021119609            2 
  720000   0.95202177   -7.8686649    179.97721  0.020830695  0.021102967            8 
  721000   0.95249116   -7.8535464    179.86546  0.020788888  0.021086247            3 
  722000   0.97025941    -7.865896    179.64985  0.020735208  0.021069674            2 
  723000   0.96157047   -7.8847244    179.90512  0.020735952  0.021053107            4 
  724000   0.94842514   -7.8408064    181.23643  0.020860546  0.021036558            2 
  725000   0.96907363   -7.9012793    180.21429  0.020714286  0.021020007            2 
  726000   0.97580083   -7.8820616    180.36576   0.02070314  0.021003212            3 
  727000   0.98437312   -7.8663534    180.76146   0.02072002  0.020986594            3 
  728000   0.97750529   -7.8526846    180.62988  0.020676498  0.020970037            3 
  729000     0.958731   -7.8322471    181.22423  0.020716075  0.020953583            4 
  730000   0.97203993   -7.8969025    181.05374  0.020668235  0.020937136            3 
  731000   0.96392406   -7.8245656    181.63495  0.020706219   0.02092087            2 
  732000   0.97555459   -7.8763748    181.24732  0.020633803  0.020904433            3 
  733000   0.96450583   -7.8731305    181.98173  0.020689146  0.020888134            4 
  734000   0.97554901    -7.871552    181.50905  0.020607294   0.02087175            6 
  735000   0.94634697    -7.841843     182.1267  0.020649285  0.020855352            2 
  736000   0.95158462   -7.8281049    181.89295  0.020594763  0.020838827            3 
  737000    0.9588071   -7.8774485    181.75741  0.020551494  0.020822441            5 
  738000   0.96287186   -7.8845043    181.67228  0.020514033  0.020805917            5 
  739000   0.94040359   -7.8454661    182.65578  0.020597179  0.020789446            2 
  740000   0.96073871   -7.8718923    181.94728  0.020489558  0.020773112            2 
  741000   0.95016192   -7.8355079    182.72769  0.020549673  0.020756653            7 
  742000   0.97125128   -7.8911543    182.63657  0.020511745  0.020740291            2 
  743000    0.9744162   -7.8848386    182.41211  0.020458962  0.020723904            5 
  744000    0.9584214   -7.9088911    182.27714  0.020416346  0.020707421            3 
  745000   0.96672224   -7.9362495    182.59024  0.020423964  0.020691009            4 
  746000    0.9417642    -7.894286    182.85618  0.020426293  0.020674721            2 
  747000   0.97994267   -7.8999856    183.05412   0.02042103   0.02065832            3 
  748000   0.94060058   -7.8879412    183.50673  0.020444155  0.020641967            3 
  749000   0.99090623   -7.8514619    183.48483  0.020414422  0.020625669            2 
  750000   0.94049467    -7.873878    184.01819  0.020446466  0.020609574            1 
  751000   0.96588801   -7.9304473    183.27513  0.020336787  0.020593161            2 
  752000   0.96300765   -7.8908632    183.92938  0.020382245  0.020576713            2 
  753000   0.95707909   -7.8747565    183.91162  0.020353211  0.020560182            1 
  754000   0.96064842   -7.9012151    183.51163  0.020282011  0.020543863            2 
  755000   0.94133673   -7.8952709    184.29718  0.020341852  0.020527834            2 
  756000   0.94633627   -7.9211934    184.01069  0.020283365  0.020511781            3 
  757000   0.95162204   -7.8543943    184.73458  0.020336259    0.0204959            7 
  758000   0.95922942    -7.907991    184.75167  0.020311309  0.020480016            1 
  759000   0.95054345   -7.8733233    184.92876  0.020303992  0.020464205            3 
  760000   0.94208464   -7.8941606    184.89486  0.020273559  0.020448378            2 
  761000   0.94265355    -7.903211    185.10925  0.020270396  0.020432386            2 
  762000   0.95168054   -7.9041456    184.92272  0.020223395  0.020416466            2 
  763000   0.94234232   -7.9273133    185.10761  0.020217082  0.020400525            5 
  764000   0.93339714   -7.9359021    185.31326  0.020213052  0.020384695            2 
  765000   0.92255665   -7.9122504    185.31639  0.020186971  0.020368796            4 
  766000    0.9371801   -7.9249409    185.11241  0.020138426  0.020352786            2 
  767000   0.95511416   -7.9336055     185.5409  0.020158725  0.020336779            3 
  768000   0.93103857   -7.9003256    185.81532  0.020162253  0.020320719            4 
  769000   0.95006293   -7.9317863    185.60622  0.020113375   0.02030474            1 
  770000   0.94071793   -7.9274869    185.23216  0.020046771  0.020288552            2 
  771000   0.93583566    -7.883302    185.47103  0.020046588   0.02027243            3 
  772000   0.94742175   -7.9108305    185.75816  0.020051615  0.020256341            3 
  773000   0.94355111    -7.937072     185.8923  0.020040136  0.020240129           11 
  774000   0.93831839   -7.9374209    185.79391  0.020003651  0.020224047            3 
  775000   0.94892983   -7.9412301    185.98627  0.019998524  0.020207875            3 
  776000     0.937517   -7.8906955    185.93505  0.019967252  0.020191781            3 
  777000    0.9388057   -7.9054628    186.38838  0.019990174  0.020175485            4 
  778000   0.94854052   -7.9083056     186.4391  0.019969912  0.020159285            4 
  779000    0.9569656   -7.9263339    185.68688  0.019863809  0.020142921            4 
  780000   0.92782696   -7.9196527     185.9289  0.019864199  0.020126486            3 
  781000   0.96926888   -7.9316406    186.57807  0.019908032  0.020110186            3 
  782000   0.93662045   -7.9100619    186.59166  0.019884022  0.020093886            3 
  783000   0.95737348   -7.9371691    186.30793   0.01982843  0.020077413            4 
  784000    0.9530307   -7.9317913    186.78821  0.019854189  0.020060922            3 
  785000    0.9376108   -7.9123933     187.3999  0.019893832  0.020044626            2 
  786000   0.94715382   -7.9553801    186.58269   0.01978188  0.020028544            4 
  787000   0.94029579   -7.9136069    187.37345  0.019840476  0.020012447            4 
  788000   0.94061192   -7.9286868    186.80058  0.019754715  0.019996288            1 
  789000   0.92780956   -7.9695168    187.10497  0.019761826  0.019979917            1 
  790000   0.93446992   -7.9461858    187.21853   0.01974879  0.019963552            4 
  791000   0.94872208   -7.9333405    187.31181   0.01973365  0.019947245            7 
  792000   0.94241162   -7.9321942    187.47282  0.019725675  0.019930705            3 
  793000   0.92643915   -7.9534283    186.74723  0.019624552  0.019914149            1 
  794000   0.93638151   -7.9355405    187.00871  0.019627279  0.019897603            3 
  795000   0.93691262    -7.945405    187.45354  0.019649218   0.01988107            4 
  796000   0.93130379   -7.9559931    187.20829  0.019598857  0.019864657            2 
  797000   0.92359244   -7.9246855    187.57125  0.019612218  0.019848258            5 
  798000   0.94077217   -7.9428898    187.58973  0.019589571   0.01983183            4 
  799000     0.925857   -7.9566331    187.70536  0.019577113  0.019815334            1 
  800000   0.94926264   -7.9718364    187.42509  0.019523447  0.019798801            4 
  801000   0.91543935   -7.9767218    187.47693  0.019504466   0.01978225            7 
  802000   0.93712298   -7.9513224    188.20357  0.019555649  0.019765661            2 
  803000   0.93236664   -7.9690599    187.74176   0.01948337  0.019749035            3 
  804000   0.93972144   -7.9431607    188.49472  0.019537181  0.019732428            3 
  805000   0.92836553   -7.9350322    187.94507  0.019456012   0.01971593            2 
  806000   0.93280969   -7.9468383    188.28426  0.019466942  0.019699168            3 
  807000   0.94781848   -7.9522392    188.28909  0.019443317  0.019682537            2 
  808000   0.93503703   -7.9872808    187.80983  0.019369826  0.019665655            2 
  809000   0.92060044   -7.9665122      188.159   0.01938185  0.019648945            3 
  810000   0.93286247   -7.9635219    188.32954  0.019375468  0.019632282            3 
  811000   0.93142781   -7.9210763    189.02588  0.019423128  0.019615842            4 
  812000   0.95826918   -7.9336991    189.14888  0.019411831  0.019599526            7 
  813000   0.90583432   -7.9793548    189.01363  0.019374091  0.019583219            4 
  814000   0.93659453   -7.9272214    189.66671  0.019417149  0.019566962            4 
  815000   0.92360248   -7.9419216    189.18662  0.019344235  0.019550705            1 
  816000   0.91986406   -7.9596969    189.31964  0.019334113  0.019534601            1 
  817000    0.9206951   -7.9340755    189.80309   0.01935976   0.01951844            1 
  818000   0.93173331   -7.9115259    190.38243  0.019395113  0.019502613            2 
  819000   0.91746734   -7.9238872    190.01491  0.019334037    0.0194868            2 
  820000   0.93858535   -7.9632515    190.58617  0.019368513  0.019470909            4 
  821000   0.94011941   -7.9320798     190.1987  0.019305593  0.019455052            2 
  822000   0.92330569   -7.9251206    190.73936  0.019336918  0.019439286            2 
  823000   0.93248918    -7.932438    190.29605  0.019268535   0.01942353            1 
  824000   0.93903441    -7.977352     190.5492  0.019270752  0.019407743            3 
  825000   0.89916045   -7.9388392    190.91297  0.019284138  0.019392114            2 
  826000   0.93077993   -7.9528281    190.93893  0.019263411  0.019376288            5 
  827000   0.91731078   -7.9772064    190.83196  0.019229339  0.019360591            1 
  828000   0.92925188   -7.9697546    191.36413  0.019259675  0.019344873            3 
  829000   0.93182788   -7.9568229     190.9706  0.019196884  0.019329144            2 
  830000   0.92514486   -7.9454051    191.66864  0.019243839  0.019313521            3 
  831000   0.92440392   -7.9920345    191.43622  0.019197375  0.019298059            5 
  832000   0.93392768   -7.9808528    191.27269  0.019157921  0.019282483            3 
  833000   0.91998407   -7.9723846    191.98169  0.019205851  0.019266981            2 
  834000   0.90026464   -7.9832269     191.7323  0.019157904  0.019251482            3 
  835000   0.89299436   -7.9799601    192.02918  0.019164589  0.019235978            3 
  836000   0.91430968   -7.9746528    191.86659  0.019125457  0.019220442            2 
  837000   0.92681465   -7.9863669    191.71509  0.019087524  0.019204844            1 
  838000    0.9167866   -7.9699395    191.89869  0.019083004  0.019189184            2 
  839000   0.91027987   -7.9923222    192.17667  0.019087869  0.019173639            2 
  840000   0.93552843   -7.9753849    192.11448  0.019058977  0.019157961            4 
  841000   0.91507833   -7.9887669    192.22188  0.019046956  0.019142354            2 
  842000   0.91303643    -7.996341    191.75026  0.018977659  0.019126667            3 
  843000    0.8801665   -8.0130747    191.97436  0.018977299  0.019110938            2 
  844000   0.91053688   -8.0157322    192.07585  0.018964835  0.019095159            2 
  845000   0.91410186   -7.9687287    192.07668  0.018942473  0.019079486            2 
  846000    0.9112582   -7.9983791    192.20274    0.0189325  0.019063728            3 
  847000    0.9122067   -8.0150772    192.16243  0.018906182  0.019047949            2 
  848000   0.90776969   -7.9894114    192.28154  0.018895592  0.019032246            1 
  849000   0.93288784   -8.0160071    192.62234  0.018906787  0.019016583            1 
  850000   0.91857882   -7.9995079    192.73918  0.018895998  0.019000926            3 
  851000   0.90667562   -7.9709717    192.62993  0.018863095  0.018985264            3 
  852000   0.90303671   -8.0051283    192.33436  0.018812046  0.018969423            3 
  853000   0.90673064   -8.0056042    192.54839  0.018810901  0.018953617            2 
  854000   0.91184508   -8.0155417    193.00848   0.01883377  0.018937968            2 
  855000   0.94428587   -7.9922053    193.17685  0.018828153  0.018922377            3 
  856000   0.91090289   -7.9971183    193.60628  0.018847963  0.018906906            3 
  857000    0.9051246   -8.0058032    193.18541  0.018785046  0.018891325            5 
  858000   0.90078391   -7.9570846    193.72107  0.018815177  0.018875967            3 
  859000   0.92194515   -7.9975128    193.60301  0.018781821  0.018860567            2 
  860000   0.90531665    -7.941605    194.22614  0.018820362  0.018845246            4 
  861000    0.9156301   -7.9855954    193.71396  0.018748932  0.018829891            4 
  862000   0.90905592   -8.0175769    193.97306  0.018752229  0.018814483            2 
  863000   0.89867361    -7.977895    194.21699  0.018754055   0.01879917            2 
  864000   0.88676955     -8.00447    194.00136  0.018711551     0.018784            1 
  865000   0.89808655   -8.0040422    194.93927  0.018780277  0.018768805            3 
  866000   0.91396338   -7.9769857    194.75179   0.01874055  0.018753635            3 
  867000   0.88928792   -8.0264694    194.88973  0.018732192   0.01873861            4 
  868000   0.91801791   -8.0031948    194.37362  0.018661062   0.01872351            8 
  869000   0.89970333    -8.031821    194.79105  0.018679618  0.018708362            3 
  870000   0.90486385   -8.0254237    195.01828  0.018679912  0.018693386            2 
  871000   0.91794695   -8.0316359    195.11908  0.018668109  0.018678461            2 
  872000   0.90143887   -8.0274632    195.41629  0.018675105   0.01866352            2 
  873000   0.91048343   -8.0013164    194.97972  0.018612039  0.018648478            7 
  874000   0.90755418   -8.0029187    195.41544  0.018632288  0.018633325            5 
  875000   0.89641035    -8.022305    195.66434  0.018634699  0.018618298            3 
  876000   0.90071302   -8.0369798    195.38245   0.01858661  0.018603282            3 
  877000   0.90223371   -8.0520572    195.57689  0.018583893  0.018588263            4 
  878000   0.90143283   -8.0104157    196.03553  0.018606258  0.018573321            2 
  879000   0.90149734   -8.0740702    195.46727  0.018531216  0.018558336            4 
  880000   0.91153369   -8.0037184    196.55637  0.018613292  0.018543572            2 
  881000   0.90328153   -8.0385439    196.00649  0.018540153  0.018528999            3 
  882000   0.89497729   -8.0091541    196.18424  0.018535926  0.018514357            8 
  883000    0.9171736   -8.0359851    196.45602  0.018540583  0.018499703            1 
  884000   0.90583888   -8.0244757    196.72443  0.018544913  0.018484984            2 
  885000   0.88961215   -8.0443129    196.47604  0.018500569  0.018470171            2 
  886000   0.88250624   -8.0380507    196.22146  0.018455743  0.018455226            4 
  887000   0.90213787   -8.0623373    196.33169  0.018445292  0.018440375            5 
  888000    0.9003075     -8.02332    196.15299  0.018407751  0.018425405            3 
  889000   0.88723187   -8.0602203    196.83303   0.01845079  0.018410512            3 
  890000    0.8889067   -8.0851301    196.00679  0.018352696  0.018395664            3 
  891000   0.90823434   -8.0315672    196.10674  0.018341446  0.018380582            1 
  892000   0.89118411   -8.0567486    196.41382  0.018349572  0.018365576            2 
  893000   0.91141835   -8.0768463    196.40958  0.018328628  0.018350537            5 
  894000   0.90095249   -8.0382017    196.60283   0.01832614  0.018335573            5 
  895000   0.90329677    -8.076529    196.45777  0.018292157  0.018320624            3 
  896000   0.89006326   -8.0459832    196.62098  0.018286921  0.018305629            3 
  897000   0.91002698   -8.0846686     196.2663  0.018233584  0.018290512            1 
  898000   0.90605499   -8.0576064    197.33416  0.018312375  0.018275446            4 
  899000   0.88060289   -8.0488603    196.73611   0.01823657  0.018260468            4 
  900000   0.88790232   -8.0433808    197.44087  0.018281562  0.018245562            3 
  901000   0.90784974    -8.054972    197.07714  0.018227631   0.01823063            3 
  902000   0.89993354   -8.0322406    197.66923  0.018262124    0.0182157            6 
  903000   0.88320603   -8.0321516    197.71886   0.01824648  0.018200877            4 
  904000   0.89469516   -8.0142637    197.50136  0.018206246  0.018186022            2 
  905000   0.90618989   -8.0273293    197.63208  0.018198165  0.018171122            1 
  906000   0.87513393   -8.0120943    197.73049  0.018187131  0.018156199            4 
  907000   0.87889766   -8.0502271    197.53367  0.018148995  0.018141311            6 
  908000   0.89613552   -8.0655993    197.68575  0.018142966  0.018126433            2 
  909000   0.91497452   -8.0734035    197.77262   0.01813097   0.01811154            6 
  910000   0.89516419   -8.0607347    197.48633  0.018084829   0.01809651            4 
  911000   0.89251871   -8.0300985    197.36071  0.018053486  0.018081539            5 
  912000   0.90267385    -8.030643    198.16254  0.018106957  0.018066684            2 
  913000   0.88800386   -8.0770355    197.67939  0.018043026  0.018051864            3 
  914000   0.89797339   -8.0364468    198.62312  0.018109329  0.018036973            4 
  915000   0.89299605   -8.0427343     198.5878  0.018086321   0.01802226            2 
  916000   0.90482219   -8.0636285    197.87517  0.018001744  0.018007367            6 
  917000   0.89135623   -8.0653973      198.406  0.018030352  0.017992541            7 
  918000   0.89946568   -8.0609542    198.93007  0.018058285  0.017977851            4 
  919000   0.89493634   -8.0902951    198.27478  0.017979214  0.017963166            3 
  920000   0.89297848   -8.1152727    198.26751  0.017959014   0.01794831            6 
  921000   0.89208248   -8.0739412    198.64679  0.017973832  0.017933463            7 
  922000   0.86930076   -8.0777755    198.92598  0.017979571  0.017918686            4 
  923000   0.89308574   -8.0836817    198.99635  0.017966445   0.01790404            2 
  924000   0.86257786   -8.0619208     199.3842   0.01798198  0.017889496            3 
  925000   0.90070918    -8.069067    199.66264  0.017987625   0.01787504            2 
  926000   0.87411308   -8.0750259    199.35444  0.017940464  0.017860557            3 
  927000   0.89259753   -8.0865664    199.25631   0.01791229  0.017845948            1 
  928000   0.87830477    -8.059313    199.61957  0.017925608  0.017831288            3 
  929000   0.90201153   -8.0841776    199.00888  0.017851532  0.017816562            4 
  930000   0.88107871   -8.0511427    199.49059  0.017875501   0.01780198            2 
  931000   0.87676681   -8.0666588    199.77332  0.017881608  0.017787451           15 
  932000   0.88008859   -8.1243934    199.37779  0.017827056   0.01777284            5 
  933000   0.90015457    -8.079592    199.79668  0.017845363  0.017758276            3 
  934000   0.89301459   -8.0789842    199.65232  0.017813376    0.0177437            1 
  935000   0.87915337   -8.0860181    199.88277  0.017814863  0.017729094            1 
  936000   0.87058871   -8.0659895    199.55853  0.017766963  0.017714548            3 
  937000   0.89240966   -8.0901709    199.93672  0.017781636  0.017699985            3 
  938000   0.88335373   -8.1295552    199.67122  0.017739092  0.017685427            2 
  939000   0.89597419   -8.1021068    199.97634  0.017747279  0.017670794            3 
  940000   0.87517671   -8.0682469    200.01482  0.017731811  0.017656192            3 
  941000    0.8939439   -8.1174111    199.41719  0.017660042  0.017641509            3 
  942000   0.87716368   -8.1329845    199.77162  0.017672648  0.017626949            6 
  943000   0.89025619   -8.0863028    200.35764  0.017705694  0.017612209            3 
  944000   0.88622045   -8.1062023    200.07312  0.017661822  0.017597639            8 
  945000   0.86714981   -8.0898338    200.36324  0.017668716  0.017583036            3 
  946000   0.85468233   -8.0903527    200.14496   0.01763081  0.017568531            2 
  947000   0.88736153   -8.1065276    200.22816  0.017619514   0.01755401            2 
  948000    0.8599492   -8.1142647    200.01149  0.017581882  0.017539547            4 
  949000   0.88745128   -8.1128745     200.4038  0.017597805  0.017525027            3 
  950000   0.86259966   -8.0616977    200.69741  0.017605036  0.017510545           11 
  951000    0.8905601   -8.0933026    200.99424  0.017612534  0.017496118           11 
  952000   0.87817406   -8.1004604     200.8329  0.017579911  0.017481593            9 
  953000   0.88153379   -8.1250366    200.37889  0.017521764  0.017467062            6 
  954000   0.87837452   -8.1467148    200.35237   0.01750108  0.017452501            3 
  955000    0.8744402   -8.1482105    200.43737  0.017490172  0.017438032            4 
  956000   0.88228701   -8.0896439    201.71409  0.017583167  0.017423577            5 
  957000   0.87289144   -8.1102982    201.01461  0.017503884  0.017409155            1 
  958000   0.86115939   -8.1217111    201.02173  0.017486233  0.017394685            5 
  959000   0.89421473   -8.1229035    201.00233  0.017466313  0.017380295            3 
  960000   0.86307706   -8.0971168    200.61288  0.017414312   0.01736583            1 
  961000   0.86927278   -8.1036426    200.95958  0.017426255  0.017351351           10 
  962000   0.86174186   -8.1259365    201.54034  0.017458449  0.017336969            2 
  963000   0.87079627   -8.1341143    201.60967  0.017446319  0.017322647            4 
  964000   0.87096705   -8.1365026    201.49929   0.01741868  0.017308284            4 
  965000    0.8515995   -8.1090693     201.2707  0.017380889  0.017293896            4 
  966000   0.86949773   -8.1028046    201.56246  0.017388066  0.017279542            6 
  967000   0.89440275   -8.1353598    201.70901  0.017382714  0.017265139            3 
  968000   0.86356976   -8.1126339    201.35303  0.017334111  0.017250725            2 
  969000   0.86367447   -8.1316215    201.80118  0.017354763  0.017236366            3 
  970000   0.85641131   -8.1141418    201.43026  0.017305005  0.017221896            5 
  971000   0.88458959   -8.1500042    201.61847  0.017303336  0.017207525            6 
  972000   0.85670515   -8.1341319     201.8002  0.017301115  0.017193243            2 
  973000   0.86564775    -8.141642    202.23592  0.017320651  0.017179126            5 
  974000   0.87128753   -8.1098067    202.43887  0.017320232  0.017164975           10 
  975000   0.86011817   -8.1430842    202.27204  0.017288209  0.017150822            3 
  976000   0.85581781   -8.1271274    201.95025   0.01724302  0.017136666            6 
  977000   0.86349466   -8.1371081    202.29063  0.017254404  0.017122522            4 
  978000   0.87227573   -8.1163592    201.81278  0.017196045  0.017108325            2 
  979000   0.86130546   -8.1659561    202.12705   0.01720523  0.017094144            1 
  980000   0.84765092    -8.120786    202.90248  0.017253613  0.017079932            4 
  981000   0.85973154   -8.1310414      202.571  0.017207866  0.017065826            6 
  982000   0.85834618   -8.1482224    202.10365  0.017150683  0.017051599            6 
  983000   0.85470576   -8.1879421    202.34338  0.017153559   0.01703735            6 
  984000   0.86231221   -8.1744892    201.96703  0.017104254  0.017023084            3 
  985000   0.87067383   -8.1832314    202.57961  0.017138715  0.017008859            1 
  986000   0.84732948   -8.1584281    202.67123  0.017129076  0.016994595            3 
  987000   0.87745106   -8.1292342    203.25181   0.01716074  0.016980378            2 
  988000   0.87746492   -8.1206405    202.75811   0.01710173  0.016966196            2 
  989000   0.84601202   -8.1440225    202.72136  0.017081341   0.01695198            3 
  990000   0.85001031   -8.1456273    202.82329  0.017072667  0.016937683            3 
  991000   0.85567748   -8.1429759    202.80077  0.017053546  0.016923419            3 
  992000   0.85918041   -8.1644555     202.1739  0.016983695  0.016909004            3 
  993000   0.88293131   -8.1505549    203.04278  0.017039508  0.016894699            5 
  994000   0.85970123   -8.1499865    202.95888  0.017015332   0.01688033            4 
  995000   0.84926499   -8.1683265    202.44414   0.01695512  0.016865974            7 
  996000   0.84983258   -8.1222384    203.12425  0.016995001  0.016851708            9 
  997000   0.83591021   -8.1339004    203.86304  0.017039706  0.016837472            3 
  998000   0.85234681   -8.1545897    203.09134  0.016958195  0.016823284            1 
  999000   0.85286758   -8.1300376    203.23816  0.016953467  0.016809071            2 
 1000000   0.85690905   -8.1220049      203.583   0.01696525  0.016794879            5 
 1001000   0.87600907   -8.1341423    203.47449  0.016939268  0.016780792            6 
 1002000   0.85131343   -8.1447547    203.85902  0.016954343  0.016766645            3 
 1003000   0.84847374   -8.1652651    203.48758  0.016906579  0.016752598            2 
 1004000   0.87556494   -8.1357987    203.85455  0.016920199  0.016738524            4 
 1005000   0.85543211   -8.1041561    203.91213  0.016908137  0.016724429            6 
 1006000    0.8441341   -8.1381242    203.36769   0.01684623  0.016710371            5 
 1007000    0.8775546   -8.1334155    203.44804   0.01683615  0.016696363            3 
 1008000   0.85193506   -8.1688056     203.6329   0.01683473  0.016682264            2 
 1009000   0.85896712   -8.1572653    203.71983  0.016825225  0.016668245            3 
 1010000   0.85425978   -8.1702317    203.42355  0.016784121   0.01665416            3 
 1011000   0.85522079   -8.1303639     204.3027  0.016839985  0.016640127            2 
 1012000   0.83923294    -8.200377    203.68789  0.016772718  0.016625984            1 
 1013000   0.83539039   -8.1167376    203.94159  0.016777031  0.016611912            6 
 1014000   0.84627334   -8.1657831    204.44137  0.016801559  0.016597995            5 
 1015000   0.85093723   -8.1438088    204.49775  0.016789635  0.016584053           13 
 1016000   0.85286057   -8.1996713    204.04044    0.0167356  0.016569994            2 
 1017000   0.84207603   -8.2058267    203.76295  0.016696407  0.016555891            3 
 1018000   0.84598591   -8.1881556    204.03705  0.016702443  0.016541811            5 
 1019000   0.83673456   -8.1951964    204.62051  0.016733768  0.016527666            4 
 1020000   0.83901569   -8.1894275     203.9685  0.016664093  0.016513602            6 
 1021000   0.83676987   -8.1880095    203.96038  0.016647109  0.016499561            5 
 1022000   0.85688088    -8.178121    204.01324  0.016635131  0.016485529            4 
 1023000   0.85425458   -8.2041732     204.1696  0.016631607  0.016471495            5 
 1024000   0.82813198   -8.2114633     204.4904  0.016641471  0.016457475            5 
 1025000   0.84715721   -8.2109101    204.17754    0.0165998  0.016443484            4 
 1026000   0.85037585   -8.1772636     204.7065  0.016626584  0.016429535            2 
 1027000    0.8560517   -8.1855179    204.50643   0.01659416  0.016415762            6 
 1028000   0.84267633   -8.1905096    204.92607  0.016612036   0.01640194            2 
 1029000   0.83445208   -8.2053196     204.9007  0.016593837  0.016388167            3 
 1030000   0.84961366   -8.1937611    204.85424  0.016573967  0.016374423            3 
 1031000   0.84645621    -8.231817    204.83225  0.016556115  0.016360686            5 
 1032000   0.84739511   -8.2280083    204.42219  0.016506959   0.01634686            5 
 1033000   0.86063533   -8.2107847    205.59496  0.016585589  0.016333125            5 
 1034000   0.85618738     -8.17141    205.47384  0.016559787  0.016319466            3 
 1035000    0.8476256   -8.2176916    204.94815  0.016501461  0.016305765            7 
 1036000   0.84663164   -8.2038686    205.85553  0.016558521  0.016291983            2 
 1037000   0.84427695   -8.2149853    205.44924  0.016509903  0.016278337            3 
 1038000   0.83299655   -8.1977374    205.51113  0.016498967  0.016264801            5 
 1039000   0.84427673   -8.2254832    205.38276  0.016472791  0.016251222            8 
 1040000   0.84480586   -8.2157265    205.54677  0.016470093  0.016237592            3 
 1041000    0.8564322   -8.2109003    205.63151  0.016461056  0.016223979            4 
 1042000   0.82966622   -8.1846514    205.75843  0.016455409  0.016210383            4 
 1043000    0.8283877   -8.2398297    205.87335  0.016448814  0.016196849            2 
 1044000   0.85903068   -8.2032803    205.89853  0.016435068  0.016183319            1 
 1045000   0.83751502   -8.2281754    206.19429  0.016442925  0.016169863            3 
 1046000   0.83818994   -8.2194531    205.51509  0.016373095  0.016156322            3 
 1047000   0.83811586   -8.1965779    205.93432  0.016390824  0.016142869            2 
 1048000   0.85477684   -8.2186622    205.66959  0.016354134   0.01612933            1 
 1049000    0.8286878   -8.2299342    205.84179  0.016352224  0.016115779            4 
 1050000   0.82753664   -8.2185405    206.16939   0.01636265  0.016102256            6 
 1051000   0.84094928   -8.2479227    206.16187  0.016346485  0.016088713            2 
 1052000   0.84769703   -8.2526922    205.84623  0.016305943  0.016075233            2 
 1053000   0.82805963    -8.199501     206.7525  0.016362179  0.016061754            1 
 1054000   0.84445215   -8.2505385    206.51443  0.016327833  0.016048288            7 
 1055000   0.83445413   -8.2605798    206.33488  0.016298174  0.016034781            4 
 1056000   0.82164289   -8.2270344    206.68152  0.016310095  0.016021316            2 
 1057000     0.828869   -8.2364771    206.45233  0.016276595   0.01600782            2 
 1058000   0.83362201   -8.2295741    206.19684  0.016241087   0.01599437            2 
 1059000   0.84290713   -8.2442352    206.31429  0.016234993   0.01598097            2 
 1060000   0.84957812   -8.2686295    206.91756  0.016267104  0.015967581            5 
 1061000    0.8416962   -8.2390199    206.56981  0.016224459  0.015954214            4 
 1062000   0.82762692   -8.2135431    207.15158  0.016254832  0.015940909            2 
 1063000   0.82728529   -8.2268273    206.82487  0.016213928  0.015927541            1 
 1064000   0.82677158   -8.2130579    206.37388  0.016163367   0.01591419            2 
 1065000    0.8540865   -8.1770909    206.60032  0.016165909  0.015900936            2 
 1066000   0.83491872   -8.2051246    206.45279  0.016139211  0.015887701            2 
 1067000   0.83295508   -8.2355928    206.83286  0.016153769  0.015874366            3 
 1068000   0.83532658   -8.2744541    206.71514  0.016129458   0.01586105            8 
 1069000   0.80931053   -8.2454408    206.81891   0.01612246  0.015847692            2 
 1070000   0.82012149   -8.2229872     206.6115  0.016091239   0.01583435            7 
 1071000   0.83118534   -8.2087675     207.3363   0.01613261  0.015821031            1 
 1072000   0.82321765   -8.2391882    206.75298  0.016072215  0.015807669            1 
 1073000   0.81378579   -8.2363178     206.5546   0.01604183  0.015794285            3 
 1074000    0.8192922   -8.2256657    206.99104  0.016060757  0.015780943            2 
 1075000   0.81000039   -8.2301572     206.7962  0.016030713  0.015767573            1 
 1076000   0.82330759   -8.2576307    206.88191  0.016022453  0.015754229            4 
 1077000   0.82390451   -8.2132959    207.34644  0.016043519  0.015740947            4 
 1078000   0.81257066   -8.2227053    207.17265  0.016015202  0.015727734            2 
 1079000   0.82636012   -8.2331851    207.17602  0.016000619  0.015714432            5 
 1080000   0.83013528   -8.2450324    207.43432  0.016005735  0.015701204            7 
 1081000   0.82209996   -8.2401628    207.54661  0.015999584  0.015687988            4 
 1082000   0.82458735   -8.2349738    207.98414  0.016018495  0.015674705            6 
 1083000   0.82765961   -8.2537691    207.56771  0.015971661  0.015661432            2 
 1084000   0.80157558   -8.2248352    207.35481   0.01594056  0.015648185            2 
 1085000    0.8362391   -8.2581759    208.04663  0.015979004  0.015635091            4 
 1086000   0.82249433   -8.2475569    207.30573  0.015907437  0.015621895            2 
 1087000   0.79354159   -8.2418999    207.56185  0.015912438  0.015608651            4 
 1088000     0.840136   -8.2586695    207.63931  0.015903746   0.01559537            2 
 1089000   0.83243678   -8.2621101    207.56946  0.015883797  0.015582221            4 
 1090000   0.81120786   -8.2480341    207.23774  0.015843864  0.015568979            4 
 1091000   0.82464118   -8.2732154    207.19718  0.015826244  0.015555637            6 
 1092000   0.82343892   -8.2924545    206.66036  0.015770784   0.01554226            3 
 1093000   0.81832762   -8.2680029    206.92173  0.015776283  0.015528879            5 
 1094000   0.82026041   -8.2631477    207.29261  0.015790113  0.015515566            2 
 1095000   0.80019043   -8.2767154    206.70534     0.015731  0.015502153            2 
 1096000   0.83911798   -8.2780153    207.23791   0.01575714  0.015488726            3 
 1097000   0.82031718   -8.2912615     207.1308   0.01573464  0.015475338            7 
 1098000   0.81001504   -8.2424917    207.73463  0.015766138  0.015461941            6 
 1099000   0.81808539    -8.286292    207.27395   0.01571686  0.015448472            8 
 1100000   0.81965982    -8.263208    206.83544  0.015669352  0.015435024            2 
 1101000   0.79614341   -8.2855554     207.7074  0.015721117  0.015421637            4 
 1102000   0.81989614   -8.2906926    206.94932  0.015649525  0.015408294            3 
 1103000    0.8049246   -8.2943751    207.57463   0.01568258  0.015394964            4 
 1104000   0.80827718    -8.270079    208.28617  0.015722084  0.015381684            2 
 1105000   0.81916594   -8.2948258    207.56322  0.015653335  0.015368428            3 
 1106000   0.82547942   -8.3143867    207.23045  0.015614109  0.015355188            2 
 1107000   0.81820298   -8.2825302    207.98082  0.015656491  0.015341963            6 
 1108000    0.8333011   -8.3058403    207.96203  0.015640947  0.015328713            3 
 1109000     0.813331   -8.2689443    208.49295  0.015666738  0.015315531            3 
 1110000   0.79795944   -8.2858234    208.13943  0.015626083   0.01530237            3 
 1111000    0.8233609   -8.2631984    208.22621  0.015618528  0.015289277           13 
 1112000   0.79350742   -8.2864156    208.28627  0.015608983  0.015276249            3 
 1113000   0.80936512   -8.2753264    208.42617  0.015605434  0.015263176            2 
 1114000   0.80729131   -8.3235144     207.2633  0.015504436  0.015250072            5 
 1115000   0.77531737   -8.2725989    207.69877  0.015523077  0.015236904            2 
 1116000   0.79131984   -8.2844182    207.67275  0.015507224  0.015223717            4 
 1117000   0.80475314   -8.2852768    208.55912  0.015559469  0.015210612            2 
 1118000   0.81350454   -8.2860669    208.40298  0.015533913  0.015197464            2 
 1119000   0.81238549   -8.2699746    207.96811  0.015487646  0.015184336            3 
 1120000    0.8154087   -8.3109338    207.28484  0.015422979  0.015171164            3 
 1121000   0.80839162   -8.2808339    208.19044  0.015476542   0.01515802            5 
 1122000   0.79321787   -8.2926892    208.15693  0.015460259  0.015144895            4 
 1123000   0.80830787   -8.2841574     208.7446  0.015490101  0.015131803            4 
 1124000   0.81137619   -8.2933241    208.16103  0.015433054  0.015118736            3 
 1125000   0.80801612   -8.3022157    207.85946  0.015396997  0.015105586            1 
 1126000   0.80721756   -8.2890338    208.07431  0.015399224  0.015092502            5 
 1127000   0.80232983   -8.3132464    208.33736  0.015405011  0.015079381            6 
 1128000    0.8068595   -8.2845028     208.2376  0.015383983  0.015066339            5 
 1129000   0.80292796   -8.2891949    208.24803  0.015371127  0.015053272            4 
 1130000   0.80153958   -8.3187395    208.56404  0.015380829  0.015040248            3 
 1131000   0.80392269   -8.3189126    208.30386  0.015348059   0.01502724            2 
 1132000   0.79109887   -8.2960291    208.30497  0.015334583  0.015014185            6 
 1133000   0.80820582   -8.3152486    208.04057  0.015301601  0.015001181            3 
 1134000   0.80744089   -8.3164755    207.97117  0.015283008  0.014988122            1 
 1135000   0.79417552   -8.3060602    208.98836  0.015344226  0.014975041            4 
 1136000   0.78750168   -8.3082242    208.98347   0.01533036  0.014962003            2 
 1137000   0.80813274   -8.3203814    208.33944  0.015269674     0.014949            3 
 1138000   0.80912629    -8.330458    208.62963  0.015277506  0.014936013            7 
 1139000   0.78299813   -8.3136333    208.98093  0.015289796  0.014923026            3 
 1140000   0.79828902   -8.3132156     208.9803  0.015276337  0.014910084            2 
 1141000   0.80550052   -8.2838683    208.57341  0.015233232  0.014897132            3 
 1142000   0.79378773   -8.3344133    208.37364  0.015205315  0.014884182            2 
 1143000    0.7914671   -8.3146463    208.68537   0.01521474  0.014871268            9 
 1144000   0.80269841   -8.3144671    208.55608  0.015192022   0.01485839           12 
 1145000   0.78828743   -8.3154517    208.99764  0.015210891  0.014845497            3 
 1146000   0.81096425   -8.3266452    208.45622  0.015158248  0.014832598            2 
 1147000   0.77901463   -8.3517445     208.9314  0.015179555  0.014819741            2 
 1148000    0.7880368   -8.3207683    209.08522  0.015177498  0.014806876            5 
 1149000   0.80938619   -8.3185489    209.08783  0.015164479  0.014793953            2 
 1150000   0.77776965    -8.293869    208.93788  0.015140426  0.014781066            2 
 1151000   0.79770812   -8.3530607    208.61528  0.015103915  0.014768207            3 
 1152000   0.78430782   -8.3395809    208.54378  0.015085632  0.014755307            6 
 1153000   0.80998473   -8.3526368    208.80685  0.015091562  0.014742438            2 
 1154000   0.78057479   -8.3448087    208.55847  0.015060548  0.014729594            6 
 1155000    0.7981398   -8.3544159    208.14279  0.015017517  0.014716717            2 
 1156000    0.7968095   -8.3612446    208.39384  0.015022624  0.014703857            6 
 1157000   0.81278878   -8.3858531    208.54919  0.015020829  0.014690999            5 
 1158000   0.81111073   -8.3454782    208.50749  0.015004857  0.014678094            4 
 1159000   0.79247406   -8.3725415    208.95229  0.015023892  0.014665243            4 
 1160000   0.78105695   -8.3420167    208.76746  0.014997662  0.014652344            4 
 1161000   0.77687885   -8.3523514    208.51208  0.014966414  0.014639424            3 
 1162000    0.8097559   -8.3553035    208.79292  0.014973675   0.01462661            9 
 1163000   0.81467989   -8.3621816    209.18634  0.014988989  0.014613809            8 
 1164000   0.78664655    -8.343076    209.15398  0.014973796  0.014600975            3 
 1165000   0.79120736   -8.3336653    209.13088  0.014959291  0.014588179            3 
 1166000   0.79757875   -8.3725098     208.6708  0.014913579  0.014575429            2 
 1167000   0.79418371   -8.3460436    209.35741  0.014949829  0.014562614            4 
 1168000   0.79593219   -8.3677151    208.94878  0.014907875  0.014549839            9 
 1169000   0.78421541    -8.333684    209.25203   0.01491674  0.014537021           10 
 1170000   0.79279611   -8.3524402    209.15814  0.014897303  0.014524267            4 
 1171000   0.77210074   -8.3940886    208.73209  0.014854262  0.014511435            7 
 1172000   0.79665022   -8.3609087    208.96569  0.014858198  0.014498677            4 
 1173000   0.77100247   -8.3992547    209.30824  0.014869867  0.014485909            4 
 1174000   0.78520269   -8.3744714    209.05334  0.014839107  0.014473116            7 
 1175000   0.78045793   -8.3760224    208.87017  0.014813487  0.014460367            2 
 1176000   0.79655187   -8.3732831    209.06576  0.014814751  0.014447642            6 
 1177000   0.77702538   -8.3591216    208.59189  0.014768613  0.014434859            6 
 1178000   0.78199221   -8.3667896    208.98163  0.014783647   0.01442207            4 
 1179000    0.7871215   -8.3745211    209.16369  0.014783976   0.01440934           13 
 1180000   0.79462407   -8.3825724    209.28187  0.014779793  0.014396596            6 
 1181000   0.78627254   -8.4046719    209.32788  0.014770525  0.014383863            9 
 1182000   0.77065135   -8.3695767    209.06148  0.014739247  0.014371173            4 
 1183000   0.77274372   -8.3973085      209.431  0.014752818  0.014358477            4 
 1184000   0.78378329   -8.3862596    209.45812  0.014742267  0.014345746            7 
 1185000   0.78789579   -8.3820258    208.42363  0.014657076  0.014333066            5 
 1186000   0.78211752   -8.3985547    209.31533  0.014707373  0.014320372            2 
 1187000   0.78162053    -8.385761    209.24372  0.014689955  0.014307651            4 
 1188000   0.78595857   -8.3642422     209.2127  0.014675414  0.014294978            3 
 1189000   0.78162819   -8.3320854    209.97923  0.014716795  0.014282386            2 
 1190000   0.77137521   -8.3784527    209.53626  0.014673408  0.014269797            4 
 1191000   0.79276817   -8.3758997     209.8874  0.014685657  0.014257194            4 
 1192000    0.7707354   -8.3913521    209.04367   0.01461435  0.014244587            2 
 1193000   0.76922193   -8.4015264    209.44146  0.014629887  0.014232001            3 
 1194000   0.76472445   -8.4007348     209.3074  0.014608278  0.014219337            4 
 1195000   0.77463825     -8.38424    209.57252  0.014614541  0.014206676            2 
 1196000   0.76591382   -8.4040963    209.55448  0.014601065   0.01419401            4 
 1197000   0.77388058   -8.4209086    209.22245  0.014565751   0.01418136            5 
 1198000   0.77438571   -8.3716622     209.3039  0.014559258  0.014168702            5 
 1199000   0.75590861   -8.4261878    209.28952  0.014546116   0.01415608            8 
 1200000    0.7800392   -8.3971254    209.16589  0.014525409  0.014143469            3 
 1201000     0.785147   -8.3621569    209.22949  0.014517728  0.014130883            5 
 1202000    0.7635354   -8.3995324    209.16198  0.014500969  0.014118329            4 
 1203000   0.76338538   -8.3743188    209.61583  0.014520354  0.014105776            4 
 1204000   0.78674234    -8.397295    209.79699  0.014520833  0.014093302            2 
 1205000   0.76950535   -8.4001408    209.83462  0.014511385  0.014080792            4 
 1206000   0.77762201   -8.3936615    209.85242  0.014500582  0.014068287            2 
 1207000   0.78496315   -8.3873133    209.07542  0.014434923   0.01405579            2 
 1208000    0.7902675   -8.3882324    210.08078  0.014492327  0.014043372            2 
 1209000   0.75829145   -8.3951317    209.62836  0.014449156   0.01403096            1 
 1210000   0.77330222   -8.3934876    210.01351   0.01446374  0.014018566            3 
 1211000   0.76609609   -8.4099419    209.99659  0.014450633  0.014006164            8 
 1212000   0.77719079   -8.4197311    209.46484  0.014402148  0.013993757           10 
 1213000   0.77445526   -8.4218424    209.09865  0.014365118  0.013981329            9 
 1214000   0.76977067    -8.429914    209.33272  0.014369352  0.013968871            2 
 1215000   0.77241125   -8.4349516    209.57753  0.014374316  0.013956444            6 
 1216000   0.73715353   -8.4100202    209.78562  0.014376756  0.013943993            2 
 1217000     0.770361   -8.4150308    210.12414  0.014388122  0.013931619            8 
 1218000   0.77313692   -8.3971047    209.52094   0.01433504  0.013919201            2 
 1219000   0.78189298   -8.4044158    209.98864  0.014355253  0.013906794            3 
 1220000   0.76807857    -8.429107    209.74509   0.01432685   0.01389441            2 
 1221000   0.75775749   -8.4154228    209.82902  0.014320845  0.013882051            4 
 1222000   0.76352215   -8.4055777     210.2595  0.014338482   0.01386973            6 
 1223000   0.75591261   -8.3887686    210.32222  0.014331032  0.013857469            5 
 1224000   0.76590909   -8.4213483    209.67299  0.014275122  0.013845169            5 
 1225000   0.74699215   -8.4099548    209.97183  0.014283798  0.013832806            2 
 1226000   0.77047385   -8.4355243     209.9641  0.014271622  0.013820509            8 
 1227000   0.74482251   -8.4061798    210.09999   0.01426922  0.013808268            5 
 1228000    0.7736588   -8.4372591    209.58851   0.01422289  0.013796008            4 
 1229000   0.76485804   -8.4405173    209.68569  0.014217907  0.013783763            1 
 1230000   0.76654013   -8.4278913    209.85653  0.014217922  0.013771507            3 
 1231000   0.77020405   -8.4338528    210.28095  0.014235103  0.013759303            2 
 1232000   0.75255149   -8.3923353    210.26741  0.014222633  0.013747068            6 
 1233000    0.7602094   -8.4286823     210.0964  0.014199541  0.013734869            6 
 1234000   0.77003044   -8.4126054    210.01179   0.01418232  0.013722703            9 
 1235000    0.7666523   -8.4118241    210.83113  0.014226122  0.013710548           10 
 1236000    0.7695918   -8.4047496     210.6335  0.014201288   0.01369841            3 
 1237000    0.7690187   -8.4526532    209.81674  0.014134785  0.013686287            2 
 1238000   0.76874011   -8.4106386    210.17995  0.014147816  0.013674153            4 
 1239000   0.77507985   -8.4309672    209.89255  0.014117067  0.013662008            5 
 1240000   0.76519274   -8.4464671    209.89272  0.014105694  0.013649844            6 
 1241000   0.78072112   -8.4586487    209.98712  0.014100666  0.013637702            3 
 1242000   0.77100584   -8.4713199    209.74642  0.014073163  0.013625554            4 
 1243000   0.76035498    -8.447896    210.18736  0.014091402  0.013613461            5 
 1244000   0.76424256   -8.4296284    210.77934  0.014119731  0.013601365            3 
 1245000   0.76050347   -8.4316219    210.65498  0.014100065  0.013589242            6 
 1246000     0.762152   -8.4640601    210.18147  0.014057081  0.013577151            4 
 1247000   0.75196443   -8.4488939    210.62703  0.014075583  0.013565068            5 
 1248000   0.76255889    -8.455587    210.25136   0.01403922   0.01355303            3 
 1249000   0.75911368    -8.460756    210.60546  0.014051606  0.013540955            3 
 1250000   0.75689709    -8.424191    210.19998  0.014013332   0.01352887            4 
 1251000   0.73841762   -8.4414209    210.03648  0.013991239   0.01351676            5 
 1252000   0.73490692   -8.4540643    210.10103  0.013984361  0.013504655            3 
 1253000   0.75914493   -8.4730218    209.77575  0.013951567  0.013492523            4 
 1254000   0.75033791   -8.4503466    209.48678  0.013921237    0.0134804            4 
 1255000   0.74785066   -8.4241631    210.32534  0.013965826  0.013468309            4 
 1256000   0.75341462   -8.4520366     210.0035  0.013933353  0.013456218            3 
 1257000   0.74208981   -8.4504811    210.01479  0.013923017  0.013444077            3 
 1258000   0.75221905   -8.4537015    210.41436  0.013938418  0.013431986            3 
 1259000   0.75958935   -8.4586413    210.23998  0.013915805  0.013419887            3 
 1260000   0.75210788   -8.4824361    210.22308  0.013903643  0.013407809            6 
 1261000   0.72172967   -8.4930456    209.88626  0.013870358   0.01339571            7 
 1262000   0.75201078   -8.4411786      210.373  0.013891508  0.013383624            3 
 1263000   0.76438808   -8.4387314     210.4116  0.013883056  0.013371652            7 
 1264000   0.75389641   -8.4848217    210.29494  0.013864382  0.013359649            3 
 1265000   0.75006169   -8.5034261    210.12731  0.013842379  0.013347657            3 
 1266000   0.74238084   -8.4849298    210.28003  0.013841498  0.013335669            2 
 1267000   0.73700332   -8.4706358    210.36713  0.013836302   0.01332366            4 
 1268000   0.75233732    -8.479686     209.6381  0.013777478  0.013311668            3 
 1269000   0.74907442   -8.4871653    209.86298  0.013781388  0.013299668            7 
 1270000   0.73372438   -8.4877009    210.29964  0.013799189  0.013287702            9 
 1271000   0.74280292   -8.4711407    210.49572  0.013801188  0.013275761            7 
 1272000   0.75310359   -8.4739183    210.72901  0.013805622  0.013263851            3 
 1273000   0.74165312   -8.4659178    210.65887  0.013790186  0.013251936            4 
 1274000   0.73470709   -8.4720053    210.44131   0.01376513  0.013240016            5 
 1275000   0.74579697   -8.4643747    210.17018  0.013736613  0.013228044            4 
 1276000   0.73950967   -8.5000665    210.02831  0.013716583  0.013216077            4 
 1277000   0.74069657     -8.48985      210.015  0.013704973  0.013204108            3 
 1278000   0.74532079   -8.4884533    210.14678  0.013702841  0.013192158            2 
 1279000   0.73778802   -8.4932842     209.8304  0.013671514  0.013180156            5 
 1280000    0.7654032   -8.5102217    210.09409  0.013678001  0.013168148            1 
 1281000   0.75466865   -8.5290848    209.94822  0.013657834  0.013156162            7 
 1282000   0.75922283   -8.4920509    210.00271  0.013650722  0.013144145           12 
 1283000    0.7554034   -8.5075862    209.16823  0.013585881  0.013132117            4 
 1284000   0.74565867   -8.5225683    209.78765  0.013615502    0.0131201            6 
 1285000   0.73490331   -8.5238775     209.3244  0.013574864  0.013108066            8 
 1286000   0.72944178   -8.5054089    210.10721  0.013615035  0.013096064           12 
 1287000   0.74674113   -8.5115457    209.99939  0.013597474  0.013084084            3 
 1288000   0.72989309   -8.5194187    209.75895   0.01357136  0.013072136            5 
 1289000   0.74399922   -8.5195981    209.78548  0.013562547  0.013060187            3 
 1290000   0.74068797   -8.5099333    210.04241  0.013568631  0.013048244            7 
 1291000   0.72334707   -8.5239229    209.72873  0.013537873  0.013036306            8 
 1292000   0.74426582   -8.5017983    209.96875  0.013542876  0.013024416            4 
 1293000   0.73074093   -8.4990633    210.27391   0.01355207  0.013012516            3 
 1294000   0.74546861   -8.5207614    209.91073  0.013518208   0.01300063           10 
 1295000    0.7501054   -8.5104378    209.59527  0.013487469  0.012988754            5 
 1296000   0.75315149   -8.5168098    210.17417  0.013514286  0.012976908            6 
 1297000   0.72317879   -8.4956679    210.26871   0.01350994  0.012965071            5 
 1298000   0.73506707   -8.5385084    209.65394  0.013460063   0.01295322            6 
 1299000   0.72047945   -8.5257455    209.90834  0.013466021  0.012941381            4 
 1300000   0.73037847   -8.5029526    210.23384  0.013476528  0.012929503            5 
 1301000   0.73311454    -8.528155     209.9215  0.013446163  0.012917634            5 
 1302000   0.72243722   -8.5331307     210.0344  0.013443062  0.012905785            8 
 1303000   0.73008739   -8.5341533    209.68713  0.013410535  0.012893976            4 
 1304000   0.72139644   -8.5312972     209.6392  0.013397188  0.012882159            7 
 1305000   0.73861339   -8.5337349      209.651  0.013387675  0.012870342           15 
 1306000   0.72393752   -8.5499875    209.32878  0.013356864  0.012858544           13 
 1307000   0.72436971   -8.5492544    209.41526  0.013352159  0.012846772            6 
 1308000   0.72655103     -8.54121    209.75314  0.013363477  0.012834995            8 
 1309000    0.7312951   -8.5329746    209.97421  0.013367342  0.012823221            9 
 1310000   0.71947308   -8.5439246    209.62157  0.013334705  0.012811431           13 
 1311000   0.73106086   -8.5522193    209.52218  0.013318216  0.012799678            8 
 1312000   0.73038266   -8.5317689    209.50525   0.01330699  0.012787905           11 
 1313000   0.73031444   -8.5352908    209.74551  0.013312104  0.012776201            7 
 1314000   0.72172819   -8.5327521    209.95445  0.013315224  0.012764464           12 
 1315000   0.72946821   -8.4903397    209.96664  0.013305871  0.012752777            3 
 1316000   0.73225536   -8.5165656    210.21802  0.013311678  0.012741079           11 
 1317000   0.72815942   -8.5217339    209.58021  0.013261213  0.012729416           10 
 1318000   0.71071242   -8.5513652    209.55268  0.013249411  0.012717695            3 
 1319000   0.73325811     -8.55423    209.86092   0.01325884  0.012705994            3 
 1320000   0.72111528   -8.5570792    209.70999  0.013239267  0.012694334            6 
 1321000   0.73172586   -8.5505573    209.67993  0.013227349  0.012682668           12 
 1322000   0.71987542   -8.5362343    209.48889  0.013205301  0.012671022            9 
 1323000    0.7335211   -8.5889932    209.42516  0.013191305  0.012659339            4 
 1324000   0.72705339   -8.5166474    209.60797  0.013192848  0.012647663            4 
 1325000    0.7129528   -8.5416151    209.93909  0.013203716  0.012636031            6 
 1326000    0.7366226   -8.5526966    209.67789  0.013177343  0.012624412            5 
 1327000   0.71915316   -8.5495478    209.22063  0.013138698  0.012612758           12 
 1328000    0.7472503   -8.5311343    209.76622  0.013163041  0.012601128           13 
 1329000   0.72005682   -8.5373257    209.64685  0.013145652   0.01258955            9 
 1330000   0.71989721   -8.5448368    210.31284  0.013177496  0.012577969            7 
 1331000   0.72689009   -8.5530458    209.67595   0.01312772  0.012566399            7 
 1332000   0.70891197   -8.5686196    209.77836  0.013124272  0.012554809           13 
 1333000   0.71104453   -8.5694916    209.61615  0.013104286  0.012543228           15 
 1334000   0.72096985    -8.535555    209.77516  0.013104395  0.012531632            9 
 1335000    0.7177852   -8.5707532    209.98307  0.013107558  0.012520059           14 
 1336000   0.74466474   -8.5308506    210.21419  0.013112163  0.012508564           17 
 1337000   0.71530953   -8.5483631    209.43997    0.0130541  0.012497082           13 
 1338000   0.71454689   -8.5319154    209.43693  0.013044154  0.012485554           10 
 1339000   0.70907299   -8.5525877    209.49911  0.013038282  0.012473995            5 
 1340000   0.72047775   -8.5629384    210.19424  0.013071781  0.012462441            5 
 1341000   0.71501467   -8.5812756    209.44428  0.013015429  0.012450904            2 
 1342000   0.72650394   -8.6035313    209.96967  0.013038355    0.0124394           13 
 1343000   0.70862622   -8.5930696    209.67325  0.013010254  0.012427857            3 
 1344000   0.71457719   -8.5720664     209.6687  0.013000291  0.012416362            6 
 1345000    0.7166268   -8.5869526       210.08  0.013016109  0.012404894            3 
 1346000   0.71264393   -8.5615306    209.65484  0.012980116  0.012393409            2 
 1347000   0.71259267   -8.5914833    209.18716  0.012941546  0.012381931            4 
 1348000   0.70537394   -8.5836007    209.40259  0.012945264  0.012370441            7 
 1349000   0.72661523   -8.5759315    209.37188   0.01293377  0.012358951            7 
 1350000    0.7239893   -8.5921854    209.30131  0.012919834  0.012347478           16 
 1351000   0.71054941   -8.6001184    209.72037   0.01293612  0.012336013           16 
 1352000   0.71306938   -8.5864602    209.53985  0.012915425   0.01232456           10 
 1353000   0.68996373   -8.5861759    210.10291  0.012940558  0.012313094            4 
 1354000   0.70492249   -8.5899817    209.44753  0.012890665   0.01230167            3 
 1355000   0.71020382   -8.5870186    209.45776  0.012881781  0.012290253            2 
 1356000   0.71568093   -8.5840973     209.7422  0.012889762  0.012278905            3 
 1357000   0.72162068    -8.551446    209.86398  0.012887741  0.012267554            5 
 1358000   0.72224671   -8.5841639     209.2314  0.012839433  0.012256238           11 
 1359000   0.71406335   -8.5653122    209.96443  0.012874934  0.012244915           15 
 1360000   0.70535061   -8.5843361    209.76018  0.012852952   0.01223358            4 
 1361000   0.70364004   -8.5754667    209.50238  0.012827723  0.012222253            5 
 1362000   0.70824025   -8.5930604    209.37779  0.012810682  0.012210934            8 
 1363000   0.71727393   -8.5696431    209.60743  0.012815323  0.012199626            9 
 1364000   0.70694268   -8.5756149    209.97185  0.012828192  0.012188348            9 
 1365000   0.71194275   -8.5786993    209.43414  0.012785967  0.012177051           21 
 1366000   0.70335989   -8.5935279    209.87367   0.01280342   0.01216575            4 
 1367000   0.70925461   -8.6097702    209.63908  0.012779754  0.012154456            9 
 1368000   0.71084668   -8.6031487    209.96386  0.012790196  0.012143165            5 
 1369000   0.67820543   -8.5849162    209.61103  0.012759376  0.012131882            8 
 1370000   0.69525713    -8.575493    209.43257  0.012739208  0.012120619            4 
 1371000   0.71711261    -8.568474    209.96416  0.012762227  0.012109366            4 
 1372000   0.69014675   -8.5595272    209.90188  0.012749143  0.012098153            5 
 1373000   0.71486307   -8.6046359    209.57813  0.012720207  0.012086927           10 
 1374000   0.70016668   -8.6109633    209.45798  0.012703662  0.012075683            6 
 1375000   0.71978738     -8.58435    209.58265  0.012701979  0.012064471            6 
 1376000   0.70562659   -8.5710064    209.52919   0.01268951  0.012053298            5 
 1377000   0.70119181   -8.5920347    209.12698  0.012655954  0.012042146            7 
 1378000     0.707023   -8.5841685    209.63534  0.012677512  0.012030974            6 
 1379000   0.70896235   -8.6040066    209.73936  0.012674605  0.012019856            2 
 1380000   0.68785929   -8.5816377    209.86456  0.012672981   0.01200872            7 
 1381000   0.70562335   -8.5875359    209.78093  0.012658758   0.01199759           17 
 1382000    0.7066953    -8.581102    209.38897  0.012625963  0.011986481            4 
 1383000   0.70925085   -8.6000258    209.51883  0.012624658  0.011975387            3 
 1384000   0.70071053   -8.5731151    209.91952  0.012639663  0.011964328            6 
 1385000   0.69375332   -8.5880656    209.76952  0.012621512   0.01195328           10 
 1386000    0.7087406   -8.6005913    209.75256  0.012611385  0.011942206            3 
 1387000   0.69193395   -8.5868788    209.72772    0.0126008  0.011931154            6 
 1388000    0.7088742   -8.5864392     209.5492  0.012581004  0.011920152            3 
 1389000   0.68855535   -8.6177492     209.3722  0.012561327  0.011909119            4 
 1390000   0.70503032    -8.580454    209.91029   0.01258455  0.011898108            7 
 1391000   0.69308085   -8.5816307    209.80239  0.012569039  0.011887136            3 
 1392000   0.69676857   -8.5953309    209.62892  0.012549624  0.011876165            8 
 1393000   0.69145499   -8.6022701    209.55038  0.012535916   0.01186522           10 
 1394000   0.70508701   -8.5828627    209.72069  0.012537105  0.011854231            8 
 1395000   0.70495136   -8.6041185    209.74286  0.012529442   0.01184326            6 
 1396000   0.69131443   -8.6224157    209.68867  0.012517232  0.011832309            7 
 1397000   0.71428417   -8.6072908    209.92034  0.012522092   0.01182135            9 
 1398000    0.6874429   -8.6164383    209.42169   0.01248341  0.011810415            7 
 1399000   0.70351536   -8.6359919    209.75133  0.012494123  0.011799488            3 
 1400000     0.687394   -8.6124048    209.86278  0.012491832  0.011788555            6 
 1401000   0.70563382   -8.6005289    209.32084   0.01245068  0.011777667            5 
 1402000   0.71082143    -8.643541    209.79583  0.012470033  0.011766745            5 
 1403000   0.68972409   -8.6332825    209.65133  0.012452562  0.011755815            4 
 1404000   0.69149991   -8.5985154    209.83072   0.01245434  0.011744911            5 
 1405000   0.68634884    -8.613775    209.90397   0.01244982     0.011734            6 
 1406000   0.67941095   -8.6423474    209.94587  0.012443449  0.011723127            2 
 1407000   0.72560897   -8.6196591    209.45965  0.012405807  0.011712267            4 
 1408000   0.69057472   -8.6368184    209.45617   0.01239679  0.011701392            3 
 1409000   0.68634019   -8.6132118    209.69753  0.012402267  0.011690549            3 
 1410000   0.68669217   -8.6178775    209.51593  0.012382738  0.011679716            4 
 1411000   0.68777962    -8.623909    209.99716  0.012402384   0.01166888            4 
 1412000    0.6817653   -8.5860762    209.84336  0.012384523   0.01165807            8 
 1413000   0.67308236    -8.615529    209.21644  0.012338785  0.011647259            6 
 1414000    0.6899486   -8.6182296    209.67344  0.012356992  0.011636475            5 
 1415000   0.68601453   -8.6383555    209.47556  0.012336605  0.011625721            4 
 1416000   0.69754879   -8.6245976    209.68169  0.012340024  0.011614961            3 
 1417000   0.68067324   -8.6067447    209.88153  0.012343068  0.011604224            4 
 1418000   0.66549972   -8.6204777    209.36314  0.012303899  0.011593491            5 
 1419000   0.70199274   -8.6183661    209.59278  0.012308714  0.011582776            4 
 1420000    0.6800318   -8.6416763    210.06419  0.012327711  0.011572083            4 
 1421000   0.69125936   -8.6311917    209.45294  0.012283189  0.011561381            3 
 1422000   0.69680312   -8.6557252     209.5091  0.012277842  0.011550709            4 
 1423000   0.68909435   -8.6327703    209.87633  0.012290719  0.011540022            4 
 1424000   0.69328128    -8.655024    209.57499  0.012264454   0.01152934            3 
 1425000   0.68260706   -8.6590046    209.78634  0.012268207  0.011518674            5 
 1426000    0.7040943    -8.652548    209.69235  0.012254111  0.011508018            3 
 1427000   0.67788522   -8.6430149    209.65721  0.012243472  0.011497334            8 
 1428000   0.67685216    -8.639286    209.62069  0.012232766  0.011486671            5 
 1429000    0.6807832   -8.6496684    209.63671  0.012225141  0.011476005            6 
 1430000   0.68616423   -8.6411541    210.01314  0.012238528  0.011465357            6 
 1431000   0.68418345   -8.6234571    209.71135  0.012212401  0.011454738            3 
 1432000   0.68293306   -8.6427656    209.38423  0.012184837  0.011444104            9 
 1433000   0.67913801   -8.6288824    209.52563  0.012184557  0.011433481            5 
 1434000   0.67975209   -8.6514077    209.39869  0.012168683  0.011422885            3 
 1435000    0.6763412   -8.6114975    209.68396  0.012176769  0.011412318            8 
 1436000   0.68517492    -8.648266    209.57487  0.012161958  0.011401751            8 
 1437000   0.68245866   -8.6525343    209.33991   0.01213987  0.011391193            3 
 1438000   0.67294568   -8.6493139    209.54655  0.012143402  0.011380634            7 
 1439000   0.68091577   -8.6501006    209.76694  0.012147727  0.011370063            6 
 1440000   0.68777591   -8.6831704    209.58595  0.012128817  0.011359502            4 
 1441000   0.65418149   -8.6525403     209.7422  0.012129435  0.011348954            5 
 1442000   0.66587194   -8.6532902    209.24042  0.012092026  0.011338393            9 
 1443000   0.67305313   -8.6626019    209.53408  0.012100605  0.011327866           10 
 1444000    0.6727934   -8.6597655    208.90035  0.012055653  0.011317355           12 
 1445000   0.66609527   -8.6551882    209.45676  0.012079398  0.011306857            5 
 1446000   0.67555816   -8.6311257    209.19162  0.012055764  0.011296371            6 
 1447000   0.68325081   -8.6480087    209.25397  0.012051023   0.01128592            9 
 1448000    0.6729682   -8.6549178    209.60547   0.01206293  0.011275482            7 
 1449000    0.6849866   -8.6829055    209.59692  0.012054113  0.011265047            5 
 1450000   0.68428509   -8.6680377    209.50998  0.012040803  0.011254619            6 
 1451000   0.67517407   -8.6645144    209.39608  0.012025964  0.011244186            5 
 1452000   0.66851221   -8.6462324    209.46924   0.01202188  0.011233764            5 
 1453000   0.67302013    -8.659711    209.61073  0.012021721  0.011223358            2 
 1454000   0.68686559   -8.6643851     209.7815   0.01202324  0.011212945            4 
 1455000   0.68399438    -8.669805    209.02823  0.011971834  0.011202558            3 
 1456000   0.66030034     -8.66656    209.85065  0.012010683  0.011192199            4 
 1457000   0.68568376   -8.6541549     209.6837  0.011992891  0.011181829            5 
 1458000   0.67022311   -8.6745885    208.94963  0.011942709  0.011171474            8 
 1459000   0.66799056   -8.6586283     209.5566  0.011969191   0.01116112            8 
 1460000   0.68952975   -8.6979309    209.44466  0.011954604  0.011150773            3 
 1461000   0.67086842   -8.6481447    210.03502  0.011980095  0.011140469            7 
 1462000   0.67829441    -8.696249    209.46669  0.011939506  0.011130156            9 
 1463000   0.68099067   -8.6619398    209.39596  0.011927316  0.011119842            5 
 1464000   0.66558392    -8.672924    209.43244  0.011921245  0.011109524            7 
 1465000   0.65639567   -8.6774836    209.13733  0.011896321  0.011099236            8 
 1466000   0.66476689   -8.6786531    209.10802  0.011886541  0.011088955           10 
 1467000   0.65985202    -8.658637    209.50208  0.011900822  0.011078687            5 
 1468000   0.64853156   -8.7048318    209.53419  0.011894538  0.011068412            9 
 1469000   0.66593211   -8.6832283     209.5313  0.011886278  0.011058153            8 
 1470000   0.65862945   -8.6694512    209.72128  0.011888961  0.011047908            8 
 1471000   0.64086918   -8.6708685     209.3285  0.011858628  0.011037659            4 
 1472000   0.65071496   -8.6902486    208.89054  0.011825778  0.011027444            3 
 1473000   0.66264974   -8.6776508    209.34216  0.011843299  0.011017232            9 
 1474000   0.66693119   -8.6948997    209.68489  0.011854641  0.011007047            2 
 1475000   0.66446669   -8.7070759    209.50002  0.011836159  0.010996869            8 
 1476000   0.64759867   -8.6794944    209.58357  0.011832858  0.010986685            5 
 1477000   0.67027452   -8.6894014    209.50383  0.011820347  0.010976507            5 
 1478000   0.65728055   -8.6928381     209.1298   0.01179126  0.010966334            4 
 1479000   0.68403023   -8.6941843    209.89867   0.01182661  0.010956174            4 
 1480000   0.62447164   -8.6981493    209.79567  0.011812819  0.010946022            2 
 1481000   0.66036222   -8.7162553    209.14337  0.011768139  0.010935893            2 
 1482000   0.66751523   -8.6994289    209.19009  0.011762826   0.01092576            4 
 1483000   0.67514141   -8.6990109    209.43488  0.011768649  0.010915645            5 
 1484000   0.65875295   -8.7072833    209.08591  0.011741122  0.010905542            3 
 1485000   0.68512379   -8.6923203    209.09107  0.011733506  0.010895443            3 
 1486000   0.68010094    -8.678435    209.43604  0.011744955  0.010885347            3 
 1487000   0.64863505   -8.7002178    208.74546  0.011698356  0.010875258            4 
 1488000   0.66251073    -8.712175    209.31317  0.011722288  0.010865206            3 
 1489000   0.65297904   -8.6967397    209.12125  0.011703674  0.010855154            4 
 1490000   0.66026513   -8.6895971    209.31014  0.011706384  0.010845099            5 
 1491000   0.65451717   -8.6958089    209.18595  0.011691591  0.010835051            4 
 1492000    0.6624501   -8.7324672    209.38283  0.011694752  0.010825021            3 
 1493000   0.65042254   -8.6834466     209.4354  0.011689853   0.01081501            2 
 1494000   0.65948221   -8.7160413    208.88196  0.011651158  0.010805006            5 
 1495000   0.65596217   -8.7059039    209.09946  0.011655488  0.010795007            4 
 1496000   0.64942973   -8.7054771    209.02525  0.011643563  0.010784999            6 
 1497000   0.65450156   -8.6979131    209.50587   0.01166254  0.010775032            4 
 1498000   0.65105565   -8.7192859    209.20708  0.011638133  0.010765084            6 
 1499000   0.63903713   -8.6902867    209.44053  0.011643347  0.010755118            4 
 1500000   0.64949967   -8.7206474    209.36616  0.011631454   0.01074516            5 
 1501000   0.65964255   -8.6993581    209.49879  0.011631068  0.010735217            5 
 1502000   0.66395304   -8.7179296    209.35215  0.011615188  0.010725302            4 
 1503000   0.65420281   -8.7071636    209.28773  0.011603888  0.010715407            5 
 1504000   0.65326328   -8.6991064    209.28795  0.011596185  0.010705507            5 
 1505000   0.65437442   -8.7051355    209.17442  0.011582194  0.010695644            4 
 1506000    0.6675873   -8.7025543    209.31214  0.011582124  0.010685745            6 
 1507000    0.6387628   -8.7156906    209.47962    0.0115837  0.010675871            4 
 1508000   0.64223041   -8.7290215    208.88169  0.011542976   0.01066601            8 
 1509000   0.64565851   -8.7171248    209.10239  0.011547514  0.010656146            7 
 1510000   0.65063951   -8.7072213    209.22617  0.011546698  0.010646297           12 
 1511000   0.64389527   -8.6991406    208.97471  0.011525188  0.010636464            7 
 1512000   0.65374422   -8.7212894     209.5311  0.011548231  0.010626649            4 
 1513000   0.64947537   -8.6925979    209.32288   0.01152913  0.010616828            5 
 1514000   0.64646986    -8.718009    209.22855  0.011516322  0.010607006            5 
 1515000   0.64888939   -8.7269798    209.12845  0.011503215  0.010597208           11 
 1516000   0.66644578    -8.707104    209.45625  0.011513646  0.010587427            2 
 1517000   0.64217839   -8.7241924    209.21308  0.011492698  0.010577665            5 
 1518000   0.64552272   -8.7387108    209.16883  0.011482698  0.010567887            5 
 1519000   0.64671176   -8.7062987    209.27631  0.011481035  0.010558106            5 
 1520000   0.65372831   -8.7478807    208.90481  0.011453114  0.010548343            4 
 1521000   0.65038883   -8.7272848    208.95315  0.011448233  0.010538588            7 
 1522000   0.63121074   -8.7257725    208.74172  0.011429135  0.010528851            4 
 1523000   0.64776979   -8.7188019    209.03217  0.011437523  0.010519126            4 
 1524000   0.65361508   -8.7230538    209.60571   0.01146138  0.010509435            6 
 1525000   0.64441504   -8.7201474    208.96113  0.011418641  0.010499721            5 
 1526000   0.64519988   -8.7526266    209.06686  0.011416932      0.01049            4 
 1527000   0.65069302   -8.7327092    209.08421  0.011410402  0.010480307            4 
 1528000   0.65627726    -8.731797    208.76153  0.011385337  0.010470618            4 
 1529000   0.64773852   -8.7524116    209.07195  0.011394809  0.010460924            4 
 1530000   0.65691257   -8.7285259    208.96167  0.011381354  0.010451239            8 
 1531000   0.65392359   -8.7569376     208.8456  0.011367603  0.010441564            4 
 1532000   0.62546867   -8.7274181    208.99285  0.011368192  0.010431902            4 
 1533000   0.64318584   -8.7418635    208.83716  0.011352313   0.01042226            4 
 1534000   0.63452261   -8.7268563    208.73855  0.011339556  0.010412622            5 
 1535000   0.65479157   -8.7527025    209.04158   0.01134862  0.010402984            3 
 1536000   0.64657619   -8.7598003    208.62279  0.011318511  0.010393367            7 
 1537000   0.64079482   -8.7498055    209.05811  0.011334749  0.010383769            7 
 1538000   0.65643833   -8.7227912    209.11113  0.011330252   0.01037418            2 
 1539000    0.6211795   -8.7526889    208.76116   0.01130394  0.010364599            4 
 1540000   0.63242668   -8.7643482    208.75562    0.0112963  0.010355026            3 
 1541000   0.62863023   -8.7433805    208.80425  0.011291599  0.010345441            8 
 1542000   0.64582271   -8.7589424    208.78789  0.011283392   0.01033586            6 
 1543000   0.63745736   -8.7429495     208.6778  0.011270134  0.010326291            6 
 1544000   0.64491051   -8.7593911    208.71983  0.011265103  0.010316729           10 
 1545000   0.65923195    -8.760783    208.70166  0.011256832  0.010307181           13 
 1546000   0.63482325   -8.7628717    208.84516  0.011257285  0.010297657            7 
 1547000   0.63139746   -8.7681067    208.67546  0.011240867  0.010288127            8 
 1548000    0.6288015   -8.7616215    208.94437  0.011248082  0.010278608            7 
 1549000   0.63702877   -8.7635018    208.85897  0.011236226   0.01026908            6 
 1550000   0.63221132   -8.7659484    208.61952  0.011216103  0.010259574            6 
 1551000   0.63788081   -8.7768186    208.73577  0.011215118  0.010250075            6 
 1552000   0.62698597   -8.7686993    208.55039  0.011197938  0.010240596            8 
 1553000   0.63184318   -8.7621015    208.76347  0.011202161   0.01023113            5 
 1554000     0.632923   -8.7602742    208.66907   0.01118989  0.010221669            8 
 1555000    0.6467768   -8.7560313    208.87742   0.01119386  0.010212232            4 
 1556000   0.62885163   -8.7583648    208.47168  0.011164936   0.01020279            5 
 1557000   0.63634758   -8.7587364    208.92853  0.011182217  0.010193347            7 
 1558000   0.62104979   -8.7368663    208.96714  0.011177104  0.010183914            6 
 1559000   0.63186943   -8.7857522     208.8821  0.011165389   0.01017449            8 
 1560000   0.63168053   -8.7544596    208.51501  0.011138622  0.010165083            8 
 1561000   0.63338496     -8.77204    208.41433  0.011126112  0.010155674            8 
 1562000   0.62496904   -8.7702744    208.37201  0.011116731  0.010146277            6 
 1563000   0.63680432   -8.7740001    208.49661  0.011116262  0.010136895            5 
 1564000   0.62661385   -8.7789476    208.32248  0.011099876  0.010127529            9 
 1565000   0.63327614   -8.7807805    209.00892  0.011129335  0.010118175            6 
 1566000   0.62515446   -8.7947118    208.52957  0.011096721  0.010108808            8 
 1567000   0.62555933   -8.7869809    208.66367   0.01109677  0.010099467            8 
 1568000   0.61554392   -8.7791611     208.6699  0.011090025  0.010090111            7 
 1569000   0.62910951   -8.7953516    208.54861  0.011076514  0.010080784            6 
 1570000   0.62235381   -8.7938218    208.16018  0.011048842  0.010071461            8 
 1571000   0.62087871   -8.7977113    208.73171  0.011072125  0.010062163            8 
 1572000   0.62551997   -8.7967547     209.0131  0.011079999  0.010052871            6 
 1573000   0.62114753   -8.8064139    208.18152    0.0110289  0.010043568            4 
 1574000   0.63566741   -8.7957452    208.31113  0.011028755  0.010034276            5 
 1575000   0.62444975   -8.7945883    208.53717  0.011033713   0.01002501           12 
 1576000   0.63379205   -8.7824456    208.72529  0.011036659  0.010015756            6 
 1577000   0.61861601   -8.7972765    208.54717  0.011020248  0.010006495            9 
 1578000   0.61986168   -8.8030904    208.76876  0.011024966 0.0099972701            5 
 1579000   0.62038367     -8.78577    208.63288  0.011010813 0.0099880404            8 
 1580000   0.63229169   -8.8146823    208.23818  0.010983027 0.0099788236            8 
 1581000   0.62545861   -8.8068254    208.69324  0.011000065 0.0099696323            7 
 1582000   0.64004192   -8.8043868    208.41523  0.010978467 0.0099604566            4 
 1583000    0.6174969    -8.823168    208.78773  0.010991142 0.0099512728            6 
 1584000   0.62671208   -8.8004162    208.47643  0.010967826 0.0099420914            6 
 1585000   0.61638781   -8.8146747    208.24434  0.010948703 0.0099329235           10 
 1586000   0.60804048   -8.8164328    208.69302  0.010965375 0.0099237587            8 
 1587000   0.60925966   -8.7999108    208.59835  0.010953495 0.0099145887            4 
 1588000   0.62710052   -8.8203688    208.34299  0.010933197 0.0099054392            7 
 1589000   0.61943369   -8.8011172    208.38007   0.01092826 0.0098963013            4 
 1590000   0.61538668   -8.8042288    208.57231  0.010931463 0.0098871843           11 
 1591000   0.62629608   -8.8387424    208.11866  0.010900831 0.0098780593            5 
 1592000   0.61210021   -8.8152774    208.42579   0.01091006 0.0098689426            9 
 1593000   0.61745735   -8.8101989    208.47257  0.010905659 0.0098598451            9 
 1594000   0.61642035    -8.807594    208.59174  0.010905047 0.0098507677            6 
 1595000   0.61760723    -8.826875    208.45152  0.010890884 0.0098416885            6 
 1596000   0.60328758   -8.8146882    208.63401  0.010893589  0.009832629           14 
 1597000   0.63631914    -8.801783    208.22338   0.01086534 0.0098235729            8 
 1598000   0.60779144   -8.7955156    208.33189    0.0108642 0.0098145278            8 
 1599000    0.6080855   -8.8196756    208.40535  0.010861234 0.0098054878            8 
 1600000   0.61658623   -8.8174618    208.43188  0.010855827 0.0097964608            5 
 1601000   0.61236805   -8.8351266    208.36738  0.010845689 0.0097874542            6 
 1602000   0.62095104   -8.8324132    208.54609  0.010848215 0.0097784539            6 
 1603000    0.6189368   -8.8087869    208.22104   0.01082455 0.0097694614            5 
 1604000   0.61478764   -8.8238674    208.65301  0.010840244 0.0097604712            6 
 1605000   0.60559844   -8.8252907    208.83858  0.010843125 0.0097514941           11 
 1606000   0.62723544    -8.831769    208.58665  0.010823301  0.009742532            8 
 1607000   0.61384233   -8.8431062    208.61936  0.010818262 0.0097335749            8 
 1608000   0.60306424   -8.8299784     208.4578  0.010803161 0.0097246323           10 
 1609000   0.62468239   -8.8227594    208.41923   0.01079445 0.0097156937           13 
 1610000   0.61307857   -8.8261323    208.52043  0.010792983  0.009706769            9 
 1611000   0.61214736   -8.8212745    208.37877  0.010778955 0.0096978579            7 
 1612000   0.60992217   -8.8202997    208.59683  0.010783542  0.009688948            8 
 1613000   0.61583478   -8.8348552    208.13496  0.010752995 0.0096800456            6 
 1614000   0.60967338   -8.8290828    207.96216   0.01073741 0.0096711544            4 
 1615000   0.62328614     -8.82421    207.99751  0.010732586 0.0096622647            8 
 1616000    0.5956583   -8.8385845    207.98713  0.010725409 0.0096533778            6 
 1617000   0.60515253   -8.8216749    208.13974  0.010726641 0.0096444964            5 
 1618000   0.60225149   -8.8416205    208.61463   0.01074447 0.0096356463            8 
 1619000   0.61286558   -8.8374365    208.15058  0.010713948 0.0096267996            6 
 1620000   0.61443717   -8.8427889    208.23282  0.010711565 0.0096179593           11 
 1621000   0.61174763   -8.8439128    208.31536    0.0107092 0.0096091121            5 
 1622000   0.61386859   -8.8383249     208.2144  0.010697411 0.0096002922            5 
 1623000   0.59197992    -8.848276    208.59072  0.010710142 0.0095914811            5 
 1624000   0.60547049   -8.8543325    208.03273  0.010674914 0.0095826668           11 
 1625000   0.60508357   -8.8382329    208.35513  0.010684879 0.0095738654           10 
 1626000   0.61079292   -8.8314082    208.23605  0.010672204 0.0095650707            8 
 1627000   0.61418438   -8.8342453    207.68928   0.01063764 0.0095562817            6 
 1628000   0.61867689   -8.8452225    208.35436  0.010665149 0.0095475191            5 
 1629000   0.61123257    -8.843814    208.00318  0.010640637  0.009538747            6 
 1630000   0.59756064   -8.8406865    208.17511  0.010642899 0.0095299904            8 
 1631000   0.61500876   -8.8471313     208.1878  0.010637022 0.0095212531            7 
 1632000   0.61150775   -8.8390437    207.95042  0.010618383 0.0095125167            6 
 1633000   0.60358727   -8.8239797    208.27146  0.010628264 0.0095038034            7 
 1634000   0.59505807   -8.8514921    208.20097  0.010618164 0.0094950999            7 
 1635000    0.5922447     -8.82348    207.77138  0.010589775 0.0094864039            6 
 1636000   0.60827534   -8.8646993    208.17864  0.010604047 0.0094777171            7 
 1637000    0.6000987    -8.835689    208.12098  0.010594634 0.0094690283           10 
 1638000    0.5982286   -8.8366746    208.33113  0.010598857 0.0094603505           10 
 1639000   0.59448997   -8.8312256    207.83847  0.010567342 0.0094516784            8 
 1640000    0.6056194   -8.8300437    208.30977  0.010584846 0.0094430174            8 
 1641000   0.60108428   -8.8511337    208.02931  0.010564154 0.0094343724            4 
 1642000   0.58370966    -8.848219    207.90598  0.010551461 0.0094257288            6 
 1643000   0.61813622   -8.8360844    208.17288  0.010558576 0.0094171127            4 
 1644000   0.59580093   -8.8518715    207.95888  0.010541306 0.0094084925            8 
 1645000   0.61433773   -8.8672476    207.92079  0.010532968 0.0093998923            5 
 1646000   0.59727574   -8.8599748     207.9255  0.010526808 0.0093912868            8 
 1647000   0.61070006   -8.8523231    208.08252  0.010528361 0.0093826891            7 
 1648000   0.58734451   -8.8510383    207.98058  0.010516818 0.0093741051            5 
 1649000    0.5951016   -8.8482903     207.9521     0.010509 0.0093655287           11 
 1650000   0.59646782   -8.8218024    208.18481  0.010514384 0.0093569678            5 
 1651000   0.58995045   -8.8477432    207.76632  0.010486893 0.0093484082            7 
 1652000    0.5841771    -8.858257    208.04998  0.010494854 0.0093398525            8 
 1653000   0.60293312    -8.877688    208.03484  0.010487742 0.0093313146            7 
 1654000    0.5880422    -8.872816    207.48461  0.010453678 0.0093227783            7 
 1655000   0.58602701   -8.8644284    208.08601  0.010477644 0.0093142492           11 
 1656000   0.59838542   -8.8524799    207.96218  0.010465085 0.0093057453            8 
 1657000   0.59396873   -8.8537473    208.30138  0.010475829 0.0092972407            8 
 1658000   0.59960045   -8.8505453    208.08706  0.010458739 0.0092887492           13 
 1659000   0.60287474   -8.8614171    208.12683  0.010454432 0.0092802746            9 
 1660000   0.59347675   -8.8500325    207.87381  0.010435432 0.0092717993           13 
 1661000   0.60208669   -8.8667141    208.00996   0.01043598  0.009263334           10 
 1662000   0.58405732   -8.8825525    208.21042  0.010439752 0.0092548773            6 
 1663000   0.58377528   -8.8779694    207.86571  0.010416201 0.0092464113            8 
 1664000   0.59258712    -8.862018    208.04201  0.010418771 0.0092379743            8 
 1665000   0.57903609    -8.853404    207.54765   0.01038777  0.009229531            8 
 1666000   0.56880887   -8.8818837    207.79952  0.010394134 0.0092211033            3 
 1667000   0.58603122   -8.8561918    208.21515  0.010408676 0.0092126749           12 
 1668000   0.58275552   -8.8943858    207.72597  0.010377996  0.009204252            6 
 1669000   0.58247214   -8.8696364    207.85535  0.010378238 0.0091958379            8 
 1670000   0.58463422    -8.887393    208.05153  0.010381813 0.0091874407            6 
 1671000    0.5849471   -8.8655918    207.77361   0.01036174 0.0091790587            9 
 1672000   0.60022422   -8.8979486    207.60889  0.010347333  0.009170689            8 
 1673000   0.59171443   -8.8894529    207.74846    0.0103481 0.0091623141            5 
 1674000   0.58442081   -8.8792334    207.65398  0.010337215 0.0091539551            5 
 1675000   0.57635003   -8.8879072    207.66486  0.010331585 0.0091455924            6 
 1676000   0.59611418   -8.8599854    207.61084  0.010322735 0.0091372403            8 
 1677000   0.58599832   -8.8769914     207.8076  0.010326357 0.0091288965            9 
 1678000   0.59395488    -8.866786    207.74842  0.010317263 0.0091205716            7 
 1679000   0.58472587   -8.8626265    207.97273  0.010322252  0.009112261            8 
 1680000   0.58005953   -8.8801452    207.61907  0.010298565 0.0091039628           10 
 1681000   0.57864565   -8.8933194    207.81408  0.010302106 0.0090956781            6 
 1682000   0.58542635   -8.8664098     207.5831  0.010284537 0.0090874048           11 
 1683000   0.58793902   -8.8500546    208.05446  0.010301766 0.0090791281            9 
 1684000   0.58162951   -8.8667306    207.36939  0.010261747 0.0090708629            9 
 1685000   0.57813936   -8.8997703    208.04815  0.010289226 0.0090626069            9 
 1686000   0.57649053   -8.8791545    207.95106  0.010278325 0.0090543546            5 
 1687000   0.57524688   -8.8935007     207.6592  0.010257815 0.0090461117            9 
 1688000   0.57095541   -8.8767391    207.80745  0.010259057 0.0090378787            8 
 1689000    0.5742974   -8.8798962    207.58079  0.010241799 0.0090296649            7 
 1690000   0.58076969   -8.8911761    207.71169  0.010242194 0.0090214542            4 
 1691000   0.58134713   -8.8868491    207.52145  0.010226762  0.009013256            4 
 1692000   0.56924353    -8.894243    207.91804   0.01024025 0.0090050554            9 
 1693000   0.57960702   -8.8982887    207.76152  0.010226497 0.0089968801            7 
 1694000   0.57025473   -8.8781901    207.72706  0.010218765  0.008988703            9 
 1695000   0.58373098   -8.8959151    207.62509  0.010207723  0.008980526            6 
 1696000   0.59235117   -8.8936556    207.68851  0.010204821 0.0089723576           11 
 1697000   0.58288452   -8.9055265    207.52928  0.010190988 0.0089641963            9 
 1698000   0.56031318   -8.8917784    207.54182  0.010185602 0.0089560423            8 
 1699000   0.56488777   -8.8947902    207.38593  0.010171961 0.0089479007           13 
 1700000   0.58656274   -8.8976259    207.67804  0.010180296 0.0089397664           10 
 1701000   0.57659584   -8.8892629    207.49535  0.010165361 0.0089316424           15 
 1702000   0.57570086   -8.8789648    208.09976  0.010188982 0.0089235474           11 
 1703000   0.58097717   -8.9010298    207.60397  0.010158738 0.0089154531           11 
 1704000   0.57673878   -8.9104586    207.43301  0.010144416 0.0089073715            9 
 1705000   0.58512492   -8.8915348    207.90834  0.010161698 0.0088992963           14 
 1706000   0.56781047   -8.8833641    207.66891  0.010144046  0.008891222           13 
 1707000   0.56530691   -8.9018134    207.34177  0.010122133 0.0088831518            8 
 1708000    0.5738858   -8.9026204    207.27788  0.010113089 0.0088750896           14 
 1709000   0.57368141   -8.9000432    207.25189  0.010105904 0.0088670431            9 
 1710000   0.57273112   -8.9018526    207.53221  0.010113655 0.0088590078            9 
 1711000   0.57405654   -8.8907729     207.6138  0.010111718 0.0088509777           12 
 1712000   0.57107648   -8.9055944    207.51145   0.01010083 0.0088429449           15 
 1713000   0.57390522   -8.8920816    208.09957  0.010123544 0.0088349394           12 
 1714000   0.54977089   -8.8935297    207.61152  0.010093909 0.0088269346           10 
 1715000   0.56883593   -8.9058358    207.66067  0.010090412 0.0088189466            9 
 1716000   0.57180068   -8.8955773     207.4262  0.010073145 0.0088109561            7 
 1717000   0.57230139   -8.9037179    207.70976   0.01008104 0.0088029832            8 
 1718000   0.55779164   -8.9007033     207.6712  0.010073303 0.0087950175           10 
 1719000   0.56343472   -8.9044603    207.57873  0.010062959 0.0087870688            7 
 1720000   0.56017228   -8.9049897    207.18038  0.010037809 0.0087791152            9 
 1721000   0.57735962   -8.9133288    207.36034  0.010040691 0.0087711771           10 
 1722000   0.56261935   -8.9094491    207.33331  0.010033551 0.0087632458           14 
 1723000   0.58058739   -8.9145667    207.76723  0.010048715  0.008755327            8 
 1724000   0.56553548   -8.8943761    207.74874  0.010041993 0.0087474089           11 
 1725000   0.56537354   -8.8910355    207.64111  0.010030972 0.0087395087           15 
 1726000   0.56134067   -8.9183518    207.53694   0.01002013 0.0087316039            9 
 1727000   0.55751084   -8.9088061    207.50121  0.010012604 0.0087237194            9 
 1728000   0.56372728   -8.9262118    207.65359  0.010014159 0.0087158354           10 
 1729000   0.56062412   -8.9094127    207.40095 0.0099961899 0.0087079575           13 
 1730000   0.55451435   -8.9059858    207.52257 0.0099962704 0.0087000917           12 
 1731000   0.57465256   -8.8906353    207.28501 0.0099790586 0.0086922397           13 
 1732000   0.55896952   -8.8948872    207.59444 0.0099881853 0.0086844035           15 
 1733000   0.55512363    -8.921702    207.85137 0.0099947763 0.0086765707            6 
 1734000   0.55980456   -8.9067735      207.402 0.0099674163 0.0086687423            8 
 1735000    0.5630446   -8.9111217    207.21431 0.0099526564 0.0086609227            5 
 1736000   0.55831801   -8.9236818    207.27989 0.0099500714 0.0086531131           17 
 1737000   0.56178627   -8.9030816    207.19341 0.0099401942 0.0086453135            9 
 1738000   0.56116272   -8.9119337    207.40542 0.0099446405  0.008637528           13 
 1739000   0.56670228   -8.8948528    207.82555 0.0099590547 0.0086297411            7 
 1740000   0.55624504   -8.9124507    207.25862 0.0099261791 0.0086219752            9 
 1741000   0.55966767   -8.9190192    207.25996 0.0099205418 0.0086142041            9 
 1742000   0.54169228   -8.9357242    207.18878  0.009911442 0.0086064447            7 
 1743000   0.55588309   -8.9058806    207.69152 0.0099297915 0.0085986882           13 
 1744000   0.55123334   -8.9296746    207.47591 0.0099137955 0.0085909377           11 
 1745000   0.54788233   -8.9198938    207.55997 0.0099121286  0.008583204           17 
 1746000   0.55078278   -8.9405609    207.00506 0.0098799668 0.0085754787           13 
 1747000   0.55299524   -8.9258553    207.40795 0.0098935294 0.0085677635           13 
 1748000   0.55068794   -8.9378404     206.8842 0.0098629006 0.0085600457           12 
 1749000   0.55222581   -8.9250274    207.21809 0.0098731698 0.0085523461            9 
 1750000   0.55203915   -8.9096279    207.26236  0.009869636 0.0085446552           16 
 1751000   0.55511627   -8.9322542    207.09665 0.0098561133 0.0085369708           10 
 1752000   0.56189613   -8.9312027    206.99077 0.0098454514 0.0085292867           13 
 1753000   0.55352116   -8.9325894    207.41405 0.0098599569 0.0085216202            8 
 1754000   0.55167171    -8.916931    207.02294 0.0098357535 0.0085139573            6 
 1755000   0.53883126   -8.9258307    207.21481 0.0098392597 0.0085063097           11 
 1756000   0.55844608   -8.9268611    207.21449 0.0098336415 0.0084986647            8 
 1757000   0.55312242   -8.9363176      207.326 0.0098333334 0.0084910346           10 
 1758000   0.54534684   -8.9329891    206.98077  0.009811375 0.0084834163            6 
 1759000   0.54619407   -8.9277854    207.19584 0.0098159865 0.0084758062           11 
 1760000   0.54458663   -8.9218011    207.15841 0.0098086368 0.0084681996           11 
 1761000   0.55552723   -8.9100022    207.73157   0.00983019 0.0084606102            5 
 1762000   0.54321492   -8.9344921    207.19325  0.009799151 0.0084530218            8 
 1763000   0.55163274   -8.9157675    206.89556 0.0097795218 0.0084454338           12 
 1764000   0.55190877    -8.928325    207.37975 0.0097968514 0.0084378643            9 
 1765000   0.53320561   -8.9416672    207.42982 0.0097936647 0.0084303137            6 
 1766000   0.54360336   -8.9336367    207.29105 0.0097815707 0.0084227628           20 
 1767000   0.54748343   -8.9389196    207.50404   0.00978608 0.0084152166           10 
 1768000   0.54158783   -8.9573986    207.07763 0.0097604462 0.0084076834           10 
 1769000   0.53827109    -8.937618    207.55617 0.0097774718 0.0084001584           11 
 1770000   0.55053976   -8.9473917    207.33955 0.0097617492 0.0083926487            7 
 1771000    0.5366774   -8.9327891     206.9946 0.0097400056  0.008385142           18 
 1772000   0.54679726   -8.9575333    207.07223 0.0097381597   0.00837764            9 
 1773000   0.55128705   -8.9352526     206.8621 0.0097227908 0.0083701552           10 
 1774000   0.54944611   -8.9352922    207.15348 0.0097309978 0.0083626674           10 
 1775000   0.54328938   -8.9401975    207.39411 0.0097368129 0.0083551803           16 
 1776000   0.55157311   -8.9474929    207.35294 0.0097293983 0.0083477178           11 
 1777000   0.53650893   -8.9344829    207.27056 0.0097200603 0.0083402636           11 
 1778000     0.541365   -8.9472152    207.21784  0.009712122 0.0083328181           15 
 1779000    0.5546182   -8.9459818    207.06381 0.0096994475 0.0083253782            9 
 1780000   0.53541461   -8.9626199    207.43288 0.0097112773 0.0083179523            5 
 1781000   0.53918484   -8.9323672     207.2088 0.0096953399 0.0083105358           16 
 1782000   0.54319469   -8.9562136    207.10432 0.0096850131 0.0083031261            8 
 1783000   0.54131711   -8.9390335    207.38066 0.0096924969 0.0082957271           10 
 1784000   0.53960912   -8.9593233    207.17608 0.0096775077 0.0082883211           11 
 1785000   0.53715162   -8.9538291    207.36437 0.0096808761 0.0082809187           11 
 1786000    0.5429554    -8.949424    207.20942 0.0096682259 0.0082735291           21 
 1787000   0.55344425   -8.9374593    207.27468 0.0096658589 0.0082661472            9 
 1788000   0.53898104   -8.9433636    207.26669 0.0096600808 0.0082587712           15 
 1789000   0.54164386    -8.950767    206.88718 0.0096370029 0.0082514056           18 
 1790000   0.53992063   -8.9510667    206.84245 0.0096295366 0.0082440454           15 
 1791000   0.53468631   -8.9713689    207.29775 0.0096453446 0.0082366939           10 
 1792000   0.53097552   -8.9537894    207.06861 0.0096293067 0.0082293518           11 
 1793000   0.53742216   -8.9567044    206.71798   0.00960764 0.0082220165            9 
 1794000   0.54101115   -8.9603129    206.78736 0.0096055074 0.0082146913            5 
 1795000   0.53437087   -8.9514885    206.80048  0.009600765 0.0082073621           16 
 1796000    0.5354915   -8.9554835    206.98145 0.0096038164 0.0082000507           12 
 1797000   0.54059767   -8.9463443    206.96121 0.0095975334  0.008192737           12 
 1798000   0.54496893   -8.9738327    207.12003 0.0095995563 0.0081854417           14 
 1799000   0.53640956   -8.9589979    206.95023  0.009586355 0.0081781538            8 
 1800000   0.53549541   -8.9484005    206.97511  0.009582181 0.0081708697           10 
 1801000   0.53193606   -8.9476607    207.13021 0.0095840373 0.0081635971           12 
 1802000   0.52591044    -8.963495    206.96804 0.0095712189 0.0081563248           10 
 1803000   0.54395581    -8.955984    206.71587 0.0095542556 0.0081490747           16 
 1804000   0.53299596   -8.9738724    206.54726 0.0095411704 0.0081418256            5 
 1805000   0.53224932   -8.9591175    206.86347 0.0095504836 0.0081345793            6 
 1806000   0.53075036   -8.9592355    206.53832 0.0095301921 0.0081273355           16 
 1807000   0.51878879   -8.9560922    206.71403 0.0095330211  0.008120108           11 
 1808000   0.51894578    -8.966484    207.06292 0.0095438293 0.0081128873           12 
 1809000   0.53633056   -8.9764482    206.83069 0.0095278555 0.0081056842            5 
 1810000   0.53813733   -8.9526268    206.85547 0.0095237323 0.0080984845            8 
 1811000   0.52509537   -8.9710644    207.14981 0.0095320177 0.0080913072           11 
 1812000    0.5345856   -8.9699924    206.94711 0.0095174353 0.0080841259           11 
 1813000   0.53460034   -8.9582365    207.17083 0.0095224689 0.0080769537           10 
 1814000   0.53342497   -8.9725904    206.72922 0.0094969324 0.0080697876            6 
 1815000    0.5309404   -8.9816695    206.89723 0.0094994135  0.008062634            7 
 1816000   0.51900148   -8.9740584    206.89778  0.009494208 0.0080554757            7 
 1817000   0.53022287   -8.9820561    206.40249  0.009466267  0.008048331            6 
 1818000   0.53394363   -8.9676389    206.74942 0.0094769627 0.0080411823            4 
 1819000   0.52185733    -8.972444    206.97039 0.0094818759  0.008034054            6 
 1820000   0.53204466   -8.9775176    206.74618    0.0094664 0.0080269181            7 
 1821000   0.53126644   -8.9816958    206.74286 0.0094610499  0.008019796            8 
 1822000   0.53473361     -8.98125    206.58004   0.00944841 0.0080126746            3 
 1823000   0.53641663   -8.9682729    206.91757 0.0094586563 0.0080055674           10 
 1824000   0.53692814    -8.968147    206.72376 0.0094446163 0.0079984784            8 
 1825000   0.52493789   -8.9675369    206.92331 0.0094485528  0.007991399            7 
 1826000   0.51814799   -8.9658758    206.62891 0.0094299428 0.0079843163            6 
 1827000   0.50943802   -8.9878899    206.83149 0.0094340215 0.0079772331            7 
 1828000   0.51235916   -8.9933337    206.76508 0.0094258335 0.0079701633            6 
 1829000   0.52186778   -8.9835604    206.81542 0.0094229735  0.007963098            4 
 1830000   0.51928558   -8.9878572    206.58571 0.0094073637 0.0079560422            8 
 1831000   0.53119198   -8.9825213    206.98134 0.0094202321 0.0079489978            8 
 1832000   0.53265165   -8.9844513    206.91822  0.009412219 0.0079419595            8 
 1833000   0.52812276   -8.9841437    206.65744 0.0093952282 0.0079349284           13 
 1834000   0.51476416   -8.9796487    206.75519 0.0093945471 0.0079279077            8 
 1835000   0.51987804   -8.9819236    206.57412 0.0093812044 0.0079208994           11 
 1836000   0.50646609   -8.9866061    206.58254 0.0093764769  0.007913903            7 
 1837000   0.52708553   -8.9999891    206.59764 0.0093720576 0.0079069097           10 
 1838000   0.52144197   -8.9896224    206.73018 0.0093729679 0.0078999153            6 
 1839000   0.51292875   -8.9751846     206.6771  0.009365466 0.0078929369            9 
 1840000   0.50840442   -8.9930052    206.92409 0.0093715621 0.0078859701            5 
 1841000   0.51175366   -8.9808192    206.74103 0.0093581853 0.0078790033           10 
 1842000   0.51603486   -8.9778727    206.75233 0.0093536163 0.0078720506            9 
 1843000   0.52171783   -8.9923331    206.92835 0.0093564999 0.0078651027            7 
 1844000   0.51136611   -8.9944302    206.49792  0.009331974 0.0078581654            4 
 1845000   0.51484154   -8.9928135    206.08571 0.0093082974 0.0078512304            7 
 1846000   0.51476504   -8.9895194    206.50267 0.0093220778 0.0078443029            6 
 1847000   0.51907099   -8.9923757    206.83828 0.0093321729 0.0078373906            6 
 1848000   0.49969845   -8.9914314     206.4348 0.0093089287 0.0078304829            9 
 1849000   0.50992173    -8.997485    206.46244 0.0093051396 0.0078235808           10 
 1850000   0.52695238   -8.9948562    206.69099  0.009310405 0.0078166942            7 
 1851000    0.5130752   -8.9919747    206.30765 0.0092881166 0.0078098154            4 
 1852000   0.51668377   -9.0015423    206.43406 0.0092887894 0.0078029374            8 
 1853000   0.50017584   -8.9867904    206.65615 0.0092937647 0.0077960751            6 
 1854000   0.50850174   -8.9976639    206.51684 0.0092824902 0.0077892159            6 
 1855000   0.52397313   -8.9917372    206.75713 0.0092882809 0.0077823585            7 
 1856000   0.50898523   -8.9992836    206.42796 0.0092684968 0.0077755062            4 
 1857000   0.51381104   -8.9929485    206.24568 0.0092553259 0.0077686758            6 
 1858000   0.52677271   -9.0067865    206.52275 0.0092627712 0.0077618431           10 
 1859000   0.51878043   -9.0022675    206.81593 0.0092709309 0.0077550189           12 
 1860000   0.50434956   -9.0148297    206.54225 0.0092536849 0.0077481956            8 
 1861000   0.51543048   -8.9962903    206.53104 0.0092482107 0.0077413808            7 
 1862000   0.51357778   -8.9899006    206.57328 0.0092451342 0.0077345835            6 
 1863000   0.50858615   -9.0141241    206.37695   0.00923139 0.0077277891            5 
 1864000   0.49181302   -8.9991185    206.22643 0.0092197079 0.0077209971            4 
 1865000   0.50446202   -8.9876748    206.56921 0.0092300809 0.0077142209            6 
 1866000   0.50176067   -8.9918757    206.23294 0.0092101169 0.0077074476            6 
 1867000   0.50934844   -8.9979118     206.4294 0.0092139528 0.0077006839            8 
 1868000   0.50036723   -8.9976725    206.34091 0.0092050728 0.0076939196            6 
 1869000   0.50431071    -9.011594    206.49793 0.0092071484 0.0076871715            6 
 1870000   0.51227874   -9.0100931    206.94693 0.0092222338 0.0076804237            6 
 1871000    0.5083189   -8.9993592    206.59418 0.0092015935 0.0076736904            6 
 1872000   0.51243691   -9.0175056    206.45102 0.0091903056 0.0076669613            8 
 1873000   0.50352925   -9.0287767    206.64775 0.0091941514 0.0076602321            8 
 1874000   0.51372006   -9.0035688    206.62691 0.0091883188 0.0076535242            5 
 1875000   0.49814462   -9.0083398    206.65389 0.0091846172 0.0076468198            7 
 1876000   0.49669762   -9.0088202    206.39869 0.0091683855 0.0076401199            7 
 1877000   0.50495146   -9.0030149    206.58439 0.0091717455 0.0076334281            8 
 1878000   0.50049121   -9.0162556    206.37305 0.0091574838 0.0076267526           14 
 1879000   0.50267099    -9.025722    206.40788 0.0091541548 0.0076200783            4 
 1880000   0.50224885   -9.0143971    206.43705 0.0091505785 0.0076134076           10 
 1881000   0.50463021   -9.0253358    206.26135 0.0091379297 0.0076067522           13 
 1882000   0.50225865   -9.0245316    206.28535 0.0091341369 0.0076001075           12 
 1883000    0.4918608   -9.0052024    206.25433 0.0091279132   0.00759346            7 
 1884000   0.50438201   -9.0151849    206.41787  0.009130302 0.0075868227           13 
 1885000   0.50817529   -9.0145772    205.93876 0.0091042777 0.0075801919            9 
 1886000   0.49130869   -9.0231505    206.30889 0.0091158045  0.007573568           10 
 1887000   0.50465432   -9.0285573    206.29013 0.0091101452 0.0075669496           17 
 1888000   0.50960955    -9.017497    206.15355 0.0090992916 0.0075603403           13 
 1889000   0.49920998   -9.0165326    206.30214 0.0091010296 0.0075537442            9 
 1890000   0.49175754   -9.0183861    206.61135 0.0091098477 0.0075471522            9 
 1891000    0.4979764   -9.0200387    206.33518 0.0090928599 0.0075405745            9 
 1892000   0.48760197   -9.0178209    206.20171 0.0090821752 0.0075339902           10 
 1893000   0.49499348    -9.044917    206.44316 0.0090880066 0.0075274192            9 
 1894000   0.49729494   -9.0105914     206.0437 0.0090656327 0.0075208539            8 
 1895000   0.49727471   -9.0296352    206.36735 0.0090750814 0.0075142919            9 
 1896000    0.5010911   -9.0208382    206.33105 0.0090686994 0.0075077452           10 
 1897000   0.49197572   -9.0111223    206.20444 0.0090583569 0.0075011965           13 
 1898000    0.4992616   -9.0340685    206.41041 0.0090626276 0.0074946611            6 
 1899000   0.49840576   -9.0154993    206.42736 0.0090585995 0.0074881288            5 
 1900000   0.49673303   -9.0405073    206.33375  0.009049726 0.0074815998           11 
 1901000   0.49229273   -9.0336713    206.36038 0.0090461329 0.0074750787            4 
 1902000   0.48904763   -9.0400285    206.41956 0.0090439695 0.0074685629            7 
 1903000   0.49090229   -9.0239684     206.3393 0.0090357022 0.0074620614            6 
 1904000   0.48871309   -9.0209532    206.48123 0.0090371687 0.0074555714            8 
 1905000   0.49330554   -9.0314227    206.07103 0.0090144806 0.0074490812           11 
 1906000   0.48966923   -9.0311668    205.97605 0.0090055986 0.0074425996            6 
 1907000    0.4854019    -9.039255    206.35121   0.00901727 0.0074361206           12 
 1908000   0.49334608   -9.0320837    206.19139  0.009005564 0.0074296594           15 
 1909000   0.47617542   -9.0080532    206.00339 0.0089926398 0.0074231939            9 
 1910000   0.48708233   -9.0491568    205.85433 0.0089814278 0.0074167364           10 
 1911000   0.48062327    -9.021743    206.29476 0.0089959341 0.0074102902            6 
 1912000   0.48523024    -9.032571    206.16043 0.0089853745 0.0074038501           11 
 1913000   0.48757166   -9.0244676    206.21922 0.0089832384 0.0073974169            9 
 1914000    0.4930122   -9.0359502    206.08772 0.0089728195 0.0073909942            7 
 1915000   0.49165624   -9.0399117    205.76517  0.008954098  0.007384575            9 
 1916000   0.49082144   -9.0444011    206.16554 0.0089668382 0.0073781613            9 
 1917000   0.48558204   -9.0300806    206.11846 0.0089601141  0.007371759           10 
 1918000   0.49568419   -9.0302012    206.02305 0.0089512968 0.0073653607           10 
 1919000   0.49172126   -9.0516102    206.12187 0.0089509236 0.0073589713            6 
 1920000   0.49894602   -9.0292628    206.28095 0.0089531663 0.0073525916           13 
 1921000   0.49355934   -9.0487808    206.13139 0.0089420176 0.0073462124            6 
 1922000   0.48873017   -9.0485239    205.82846 0.0089242307 0.0073398399            7 
 1923000   0.48857821   -9.0542664    205.62379 0.0089107206 0.0073334737            6 
 1924000   0.48813512   -9.0526672    206.10165 0.0089267869 0.0073271158            6 
 1925000   0.49438818   -9.0240107    206.14963 0.0089242262 0.0073207699            8 
 1926000   0.48032692   -9.0588299    206.06385 0.0089158813 0.0073144299            9 
 1927000   0.47654951   -9.0490973    205.70052 0.0088955425 0.0073080903            4 
 1928000   0.47814653   -9.0511673    205.61593 0.0088872721 0.0073017557           14 
 1929000   0.47480316   -9.0613724     205.9979 0.0088991663 0.0072954348            7 
 1930000   0.47967273   -9.0541432    206.02532 0.0088957394 0.0072891278           16 
 1931000   0.48761916   -9.0586971    205.72874 0.0088783332 0.0072828261            3 
 1932000   0.47865551   -9.0559828    206.10462  0.008889951 0.0072765238           13 
 1933000   0.49244425   -9.0552208    205.75918 0.0088704597  0.007270231           11 
 1934000   0.48341005   -9.0579003    206.02483 0.0088773194 0.0072639541            5 
 1935000   0.48223057   -9.0507606     205.7708 0.0088617917 0.0072576839            8 
 1936000   0.47398921   -9.0558219    206.30575 0.0088802407 0.0072514159            7 
 1937000   0.49027823   -9.0607377    206.06584 0.0088653346 0.0072451555            5 
 1938000   0.47983933   -9.0442278    206.10339 0.0088623747 0.0072388994            8 
 1939000   0.47606546   -9.0445228    205.84768 0.0088468143 0.0072326638            8 
 1940000   0.47991296   -9.0639709    205.94564 0.0088464621 0.0072264258           13 
 1941000   0.49503798   -9.0481634    206.06401 0.0088469867  0.007220199           12 
 1942000     0.471322   -9.0506369    205.89118 0.0088350145 0.0072139736            7 
 1943000   0.48456348   -9.0399714    206.17714  0.008842732 0.0072077532            9 
 1944000   0.48410299   -9.0547959    205.85005 0.0088241619 0.0072015433            9 
 1945000   0.47401316   -9.0413497    206.11283 0.0088308839 0.0071953474            8 
 1946000   0.46732057    -9.055245    206.19568 0.0088298937 0.0071891472           13 
 1947000    0.4724413   -9.0463217    205.89312 0.0088124088 0.0071829588           10 
 1948000   0.47937419   -9.0577871    206.01144 0.0088129465 0.0071767745           11 
 1949000   0.46967551   -9.0403264    205.84047 0.0088011147 0.0071705998           12 
 1950000    0.4615719   -9.0550143    205.97894 0.0088025188 0.0071644296            7 
 1951000   0.46780928   -9.0609797     206.0666 0.0088017512 0.0071582724            7 
 1952000   0.46984067   -9.0789802    205.87384 0.0087890131 0.0071521111           12 
 1953000   0.47483732    -9.056514    206.08868 0.0087936798 0.0071459604            5 
 1954000   0.47299553   -9.0736882    205.97607 0.0087843771 0.0071398216            8 
 1955000    0.4761828   -9.0550062    205.79658 0.0087722329  0.007133691            9 
 1956000   0.47510422   -9.0607801    206.16067 0.0087832596 0.0071275613           12 
 1957000   0.48182481   -9.0557666    206.11679 0.0087769031  0.007121441            6 
 1958000   0.47857993   -9.0559135    205.85503 0.0087612797 0.0071153217           14 
 1959000    0.4717534   -9.0662595    205.73911 0.0087518762 0.0071092079            6 
 1960000   0.46658037   -9.0674709    205.97854 0.0087575909 0.0071030974           10 
 1961000   0.46984942   -9.0697224     205.9516 0.0087519801 0.0070970039            6 
 1962000    0.4711514   -9.0707472    205.70841 0.0087371902 0.0070909096            9 
 1963000    0.4671836   -9.0549533    205.94342 0.0087427161 0.0070848244           12 
 1964000   0.46853988   -9.0564394    205.80442 0.0087323666 0.0070787446            8 
 1965000   0.45811103   -9.0785646    205.85584 0.0087301034 0.0070726698           10 
 1966000   0.46417338   -9.0508856    205.59617 0.0087146563 0.0070666074            7 
 1967000   0.46688502   -9.0686333    205.84139 0.0087206149 0.0070605565            9 
 1968000   0.46349109   -9.0768384    205.80658 0.0087147095 0.0070545021           11 
 1969000   0.47102667   -9.0683796    205.95312 0.0087164857 0.0070484611            7 
 1970000   0.46762653   -9.0723182    205.90946  0.008710214 0.0070424208            8 
 1971000   0.47224366   -9.0704454    205.78129 0.0087003757 0.0070363895           10 
 1972000   0.46526694   -9.0629138    205.61788 0.0086890583 0.0070303741            6 
 1973000   0.46503236   -9.0705733    205.85618 0.0086947196 0.0070243637            7 
 1974000    0.4602365   -9.0596387    205.95159 0.0086943428 0.0070183601            9 
 1975000   0.45232144   -9.0651771    205.76113 0.0086819042 0.0070123565            6 
 1976000   0.45395212   -9.0688142    205.92618 0.0086844713 0.0070063653            5 
 1977000   0.45541654   -9.0704888    205.83526 0.0086762462 0.0070003753            9 
 1978000   0.46842966   -9.0777071    205.58574 0.0086613474 0.0069943972            9 
 1979000   0.47511933   -9.0751461    205.78281 0.0086652691 0.0069884196            9 
 1980000   0.45990883   -9.0871407    205.78292 0.0086608973 0.0069824499            6 
 1981000   0.45244888   -9.0725695    206.05284 0.0086678797 0.0069764901            8 
 1982000   0.47278782   -9.0794012    205.65974 0.0086469788 0.0069705334           11 
 1983000   0.45577312   -9.0856326    205.69214 0.0086439798 0.0069645859            9 
 1984000   0.44796165   -9.0945594    205.64123 0.0086374846 0.0069586387            8 
 1985000   0.45756533   -9.0756148     205.6168 0.0086321074 0.0069527049            5 
 1986000   0.46559075   -9.0746793    205.95104 0.0086417859 0.0069467775            6 
 1987000   0.46322945   -9.0864365    205.67959 0.0086260521  0.006940851            6 
 1988000   0.46671014   -9.0782535    205.69809 0.0086224886  0.006934937           11 
 1989000   0.45398443   -9.0701099     205.9547 0.0086289046 0.0069290252            8 
 1990000   0.46281939   -9.0925774     205.9736 0.0086253602 0.0069231243            9 
 1991000   0.45913626   -9.0773837    205.74706 0.0086115463 0.0069172235            9 
 1992000   0.44841242   -9.0845274    205.92193 0.0086145387 0.0069113307            7 
 1993000   0.45991987   -9.0876448    205.75747 0.0086033397 0.0069054508            5 
 1994000   0.46595631   -9.1015944     205.8409 0.0086025115 0.0068995682            7 
 1995000   0.44490433   -9.0881569    205.51359 0.0085845275 0.0068936963            5 
 1996000    0.4626979   -9.0860513    205.65118  0.008585971 0.0068878295            5 
 1997000   0.45961089   -9.0828799    205.85837 0.0085903174 0.0068819732            4 
 1998000   0.47007481   -9.0878916    205.60725 0.0085755444  0.006876127            6 
 1999000   0.45203532   -9.0923243    205.71016 0.0085755445 0.0068702883           13 
 2000000   0.45010274     -9.09933    205.52376 0.0085634901 0.0068644543           11 
 2001000   0.44765338   -9.0917688    205.74884 0.0085685839 0.0068586233            9 
 2002000   0.44927294   -9.0885132    205.99715 0.0085746399    0.0068528            7 
 2003000   0.44883728   -9.0791198    205.49448 0.0085494458 0.0068469863           14 
 2004000   0.46002258   -9.0796136    205.39224 0.0085409279 0.0068411721            9 
 2005000   0.46407266   -9.0944783    205.55792 0.0085435545 0.0068353626           11 
 2006000   0.45295089   -9.1045535    205.60485  0.008541245 0.0068295629            7 
 2007000   0.44918681    -9.086779    205.25958 0.0085226531 0.0068237648            3 
 2008000   0.45795138   -9.0907589    205.68801 0.0085361889  0.006817982            8 
 2009000    0.4457125   -9.0948454    205.83347 0.0085379736 0.0068122059            6 
 2010000   0.44594063   -9.1013555    205.50663 0.0085201755 0.0068064321            9 
 2011000   0.45760743   -9.0898097    205.64438 0.0085216467  0.006800665            8 
 2012000   0.44690651   -9.1044009    205.78803 0.0085233611 0.0067949038            7 
Loop time of 5010 on 48 procs for 2000000 steps with 4000 atoms

Performance: 68982.000 tau/day, 399.201 timesteps/s
99.4% CPU use with 48 MPI tasks x no OpenMP threads

MPI task timing breakdown:
Section |  min time  |  avg time  |  max time  |%varavg| %total
---------------------------------------------------------------
Pair    | 335.95     | 359.17     | 386.34     |  62.5 |  7.17
Neigh   | 33.21      | 34.68      | 36.065     |  12.9 |  0.69
Comm    | 304.42     | 336.26     | 359.52     |  67.6 |  6.71
Output  | 4.1433     | 4.1471     | 4.1822     |   0.3 |  0.08
Modify  | 4217.7     | 4229.8     | 4243.7     |   8.6 | 84.43
Other   |            | 45.93      |            |       |  0.92

Nlocal:        83.3333 ave          91 max          78 min
Histogram: 2 5 8 9 10 4 6 3 0 1
Nghost:        2234.96 ave        2248 max        2217 min
Histogram: 3 2 2 2 4 11 9 5 6 4
Neighs:        15042.2 ave       16480 max       13498 min
Histogram: 2 4 3 6 8 7 6 7 3 2
FullNghs:      30083.8 ave       32825 max       27866 min
Histogram: 2 2 11 6 9 7 3 5 2 1

Total # of neighbors = 1444023
Ave neighs/atom = 361.00575
Neighbor list builds = 106623
Dangerous builds = 0

#clear
#
#next RN
#
#jump SELF
Total wall time: 1:23:33
