
units lj                  # Use reduced LJ style units
atom_style atomic         # Uncharged point particles
atom_modify map hash      # Needed for indexing of clusters etc
                          # Used to be able to find where atoms are in relation to each other.

lattice fcc 1.0 spacing 1 1 1
Lattice spacing in x,y,z = 1.5874011 1.5874011 1.5874011
region box block 0 10 0 10 0 10 units lattice
create_box 2 box
Created orthogonal box = (0.0000000 0.0000000 0.0000000) to (15.874011 15.874011 15.874011)
  3 by 4 by 4 MPI processor grid
create_atoms 1 box
Created 4000 atoms
  using lattice units in orthogonal box = (0.0000000 0.0000000 0.0000000) to (15.874011 15.874011 15.874011)
  create_atoms CPU = 0.004 seconds
set type 1 type/fraction 2 0.12 78393
Setting atom values ...
  508 settings made for type/fraction
mass 1 1.0
mass 2 1.0
pair_style lj/cut  3.5
pair_modify tail  yes
pair_coeff 1  1  1.0  1.0   # Intearaction between 1 and 1 set with epsilon = 1 and sigma = 1
pair_coeff 1  2  1.5  0.8
pair_coeff 2  2  0.5  0.88

write_data data.0
System init for write_data ...
Neighbor list info ...
  update every 1 steps, delay 10 steps, check yes
  max neighbors/atom: 2000, page size: 100000
  master list distance cutoff = 3.8
  ghost atom cutoff = 3.8
  binsize = 1.9, bins = 9 9 9
  1 neighbor lists, perpetual/occasional/extra = 1 0 0
  (1) pair lj/cut, perpetual
      attributes: half, newton on
      pair build: half/bin/atomonly/newton
      stencil: half/bin/3d
      bin: standard
WARNING: Not all mixed pair coeffs generated from mixing. Use write_data with 'pair ij' option to store all pair coeffs. (../write_data.cpp:312)


#############################
#   M E L T   S Y S T E M   #
#############################

velocity all create 2.4 8172548 mom yes dist gaussian # Assign velocities
                                                    # Temperature 2.4, random number seed, zero linear momentum
                                                                                # Gaussian distribution

timestep 0.002   # simulation timestep
thermo 1000       # output thermodynamic data every 1000 steps bf 100

# Define a fix  in this case with index 1 applied to all
# particles in the simulation. This fix is for simulations
# in the anisotropic NPT ensemble. Note that we use the MTK
# correction.
fix 1 all npt temp 2.4 2.4 0.1 iso 5.68 5.68 0.5 mtk yes tchain 5 pchain 5 # Use NPT ensemble
                                                                         # Set temperature and pressure and damping
                                                                         # Numbers of thermostats in chain and in barostat
run 10000          # run for 10000 steps
Per MPI rank memory allocation (min/avg/max) = 3.642 | 3.644 | 3.648 Mbytes
Step Temp E_pair E_mol TotEng Press Volume 
       0          2.4   -7.5560252            0   -3.9569252   -3.1663949         4000 
    1000    2.4471906   -4.6821479            0   -1.0122797     5.715207     4742.276 
    2000    2.3878018   -4.6820544            0   -1.1012472    5.3985342    4779.0122 
    3000     2.402898    -4.665172            0   -1.0617261    5.9383375    4732.9797 
    4000    2.3990555   -4.6632508            0   -1.0655672    5.5097028    4786.1843 
    5000    2.4227543   -4.7000908            0   -1.0668679    5.6084985    4750.8201 
    6000    2.4018187   -4.6786846            0   -1.0768573    5.9316819    4722.6818 
    7000    2.3551525    -4.679224            0   -1.1473784    5.3776709    4782.2126 
    8000    2.3945611   -4.7127352            0   -1.1217915    5.7135639    4721.8287 
    9000    2.3606158   -4.6292574            0   -1.0892188    5.7714858    4768.1221 
   10000    2.4282371   -4.6762877            0   -1.0348426    6.0843479     4711.461 
Loop time of 2.24446 on 48 procs for 10000 steps with 4000 atoms

Performance: 769896.900 tau/day, 4455.422 timesteps/s
99.6% CPU use with 48 MPI tasks x no OpenMP threads

MPI task timing breakdown:
Section |  min time  |  avg time  |  max time  |%varavg| %total
---------------------------------------------------------------
Pair    | 0.92124    | 0.98129    | 1.0985     |   3.4 | 43.72
Neigh   | 0.19218    | 0.2002     | 0.22244    |   1.1 |  8.92
Comm    | 0.67138    | 0.78483    | 0.87429    |   4.5 | 34.97
Output  | 0.00024574 | 0.00025095 | 0.00039536 |   0.0 |  0.01
Modify  | 0.2092     | 0.26083    | 0.30742    |   5.6 | 11.62
Other   |            | 0.01706    |            |       |  0.76

Nlocal:        83.3333 ave          95 max          74 min
Histogram: 4 2 5 6 13 10 4 2 1 1
Nghost:        1473.92 ave        1501 max        1452 min
Histogram: 3 3 9 5 11 4 6 4 2 1
Neighs:        8092.46 ave        9411 max        7210 min
Histogram: 7 4 3 9 12 3 7 0 1 2

Total # of neighbors = 388438
Ave neighs/atom = 97.109500
Neighbor list builds = 903
Dangerous builds = 186

# Equilibrate just above the melting temperature to avoid step fn in T

fix 1 all npt temp 1.25 1.25 0.1 iso 5.68 5.68 0.5 mtk yes tchain 5 pchain 5
run 2000
Per MPI rank memory allocation (min/avg/max) = 3.642 | 3.644 | 3.648 Mbytes
Step Temp E_pair E_mol TotEng Press Volume 
   10000    2.4282371   -4.6762877            0   -1.0348426    6.0843479     4711.461 
   11000    1.2592197   -6.2607564            0   -4.3723991    5.9688647    3900.5686 
   12000    1.2387274   -6.3473196            0    -4.489693    5.2768266    3913.8253 
Loop time of 0.49018 on 48 procs for 2000 steps with 4000 atoms

Performance: 705047.691 tau/day, 4080.137 timesteps/s
99.6% CPU use with 48 MPI tasks x no OpenMP threads

MPI task timing breakdown:
Section |  min time  |  avg time  |  max time  |%varavg| %total
---------------------------------------------------------------
Pair    | 0.21298    | 0.2334     | 0.26875    |   2.2 | 47.61
Neigh   | 0.032316   | 0.034092   | 0.039242   |   0.7 |  6.95
Comm    | 0.12564    | 0.16837    | 0.19024    |   3.1 | 34.35
Output  | 5.0543e-05 | 5.1869e-05 | 6.4981e-05 |   0.0 |  0.01
Modify  | 0.043277   | 0.049622   | 0.061451   |   1.8 | 10.12
Other   |            | 0.00465    |            |       |  0.95

Nlocal:        83.3333 ave          93 max          73 min
Histogram: 1 0 4 5 9 10 12 5 1 1
Nghost:        1674.48 ave        1698 max        1648 min
Histogram: 2 1 5 6 6 7 8 5 4 4
Neighs:        9759.65 ave       11155 max        8460 min
Histogram: 1 3 4 6 10 11 10 1 1 1

Total # of neighbors = 468463
Ave neighs/atom = 117.11575
Neighbor list builds = 142
Dangerous builds = 8

#############################
# L I N E A R  Q U E N C H  #
#############################

# Define solid atoms. This closely follows ten Wolde  Ruiz-Montero and Frenkel  Faraday Discuss  1996  104  93-110
# Compute components of the per-atom q6 vector
compute q6 all orientorder/atom degrees 1 6 components 6 nnn NULL cutoff 1.3 # compute the Q6 parameter.
                                                                             # Use all neighbours within 1.3 unit cell.

# get number of connections
compute coord_number all coord/atom orientorder q6 0.5

# An atom is solid if it has 8 or more connections (of a possible 14)
variable is_solid atom c_coord_number>=8
group solid dynamic all var is_solid    # Must be dynamic to update
dynamic group solid defined

# do clustering
compute cluster solid cluster/atom 1.3 # Create a cluster where all atoms within are solid and max 1.3 units from another member

# define chunks one chunk per cluster
compute clus_chunks solid chunk/atom c_cluster nchunk every compress yes  # Says which atoms are in which chunk

# count the size of each chunk
compute size_chunks solid property/chunk clus_chunks count


# Find the maximum entry in the vector of chunk sizes
variable max_n equal max(c_size_chunks)


# Thermo style which includes this variable
# thermo_style custom step temp pe vol v_max_n

thermo ${N}  # Print the thermo information every 100 steps
thermo 1000  

# Reset the npt fix at a lower temperature (below freezing)
fix 1  all npt temp  ${temp} ${temp}  0.1  iso  5.68  5.68  0.5  mtk yes tchain  5  pchain  5
fix 1  all npt temp  0.45 ${temp}  0.1  iso  5.68  5.68  0.5  mtk yes tchain  5  pchain  5
fix 1  all npt temp  0.45 0.45  0.1  iso  5.68  5.68  0.5  mtk yes tchain  5  pchain  5

dump dmp2 all dcd ${N} traj.dcd
dump dmp2 all dcd 1000 traj.dcd


compute msd all msd com yes
variable twopoint equal c_msd[4]/6/(step*dt+1.0e-6)
fix 9 all vector 10 c_msd[4]
variable fit equal slope(f_9)/6/(10*dt)
thermo_style custom step temp pe c_msd[4] v_twopoint v_fit v_max_n

fix 1 all npt temp 1.25 ${temp} 0.1 iso 5.68 5.68 0.5 mtk yes tchain 5 pchain 5
fix 1 all npt temp 1.25 0.45 0.1 iso 5.68 5.68 0.5 mtk yes tchain 5 pchain 5
run 2000000 # 5000000  # Run for this many steps
Neighbor list info ...
  update every 1 steps, delay 10 steps, check yes
  max neighbors/atom: 2000, page size: 100000
  master list distance cutoff = 3.8
  ghost atom cutoff = 3.8
  binsize = 1.9, bins = 9 9 9
  4 neighbor lists, perpetual/occasional/extra = 1 3 0
  (1) pair lj/cut, perpetual
      attributes: half, newton on
      pair build: half/bin/atomonly/newton
      stencil: half/bin/3d
      bin: standard
  (2) compute orientorder/atom, occasional
      attributes: full, newton on
      pair build: full/bin/atomonly
      stencil: full/bin/3d
      bin: standard
  (3) compute coord/atom, occasional
      attributes: full, newton on
      pair build: full/bin/atomonly
      stencil: full/bin/3d
      bin: standard
  (4) compute cluster/atom, occasional
      attributes: full, newton on
      pair build: full/bin/atomonly
      stencil: full/bin/3d
      bin: standard
Per MPI rank memory allocation (min/avg/max) = 9.756 | 9.761 | 9.766 Mbytes
Step Temp PotEng c_msd[4] v_twopoint v_fit v_max_n 
   12000    1.2387274   -6.3473196 1.8938578e-30 1.315179e-32 8.3333333e+20            3 
   13000    1.2695672   -6.2840463   0.56050188 0.0035929606  0.046433997            3 
   14000    1.2722133   -6.2962372    1.0646846 0.0063374083  0.043951963            2 
   15000     1.264166   -6.3098567    1.5957715 0.0088653969  0.044076878            3 
   16000    1.2538423   -6.2806862    2.1566564  0.011232585  0.044357845            3 
   17000    1.2690601   -6.3021879    2.6783095  0.013128968  0.044314032            3 
   18000    1.2584669   -6.2432309     3.242818  0.015013046  0.044529022            1 
   19000    1.2286717   -6.3111135    3.8093838  0.016707823  0.044745572            3 
   20000     1.255211   -6.2821903    4.3176336  0.017990139  0.044857637            3 
   21000     1.234252   -6.2679291    4.8742156  0.019342125  0.044847507            3 
   22000    1.2165455   -6.2674675    5.4360082   0.02059094  0.045039024            3 
   23000    1.2636659   -6.3206363    5.9171928  0.021439104  0.045009165            2 
   24000    1.2334928   -6.2864357    6.4742597  0.022480068  0.044941661            3 
   25000    1.2435673    -6.277491    7.0215798  0.023405266  0.044992128            3 
   26000    1.2652247   -6.2684381    7.6291139  0.024452288  0.045072917            2 
   27000    1.2546363   -6.2924817    8.2856511  0.025572997  0.045320756            2 
   28000    1.2331923   -6.3153124    8.9089076  0.026514606  0.045656899            2 
   29000    1.2599461   -6.2774633     9.400872     0.027014  0.045847101            2 
   30000    1.2713486   -6.2796226     9.949569  0.027637691  0.045963523            2 
   31000    1.2190874   -6.2782287    10.509931  0.028252503  0.046077888            2 
   32000    1.2186603    -6.261354    10.923624  0.028446936  0.046061318            1 
   33000     1.251294   -6.3349318    11.249666  0.028408246  0.045875155            3 
   34000    1.2194968   -6.2964463    11.836437  0.029010875  0.045641696            2 
   35000     1.222476   -6.3025611    12.276271  0.029229215  0.045429496            1 
   36000    1.2429312   -6.2644551    12.717028  0.029437565  0.045170949            2 
   37000    1.2293913   -6.3381744    13.353081  0.030074506  0.044967727            2 
   38000    1.2403179   -6.3286559    14.094081  0.030908073  0.044892037            3 
   39000    1.2025685     -6.27201    14.720332  0.031453701   0.04496056            2 
   40000    1.2185625    -6.293463    15.299135  0.031873198  0.045045491            2 
   41000     1.213191   -6.3427953    15.790208  0.032093918  0.045113449            2 
   42000     1.248748   -6.3003162     16.36819  0.032476566  0.045177318            4 
   43000    1.2526671   -6.3229003    16.888236  0.032729139  0.045227307            2 
   44000    1.2769627   -6.3176263    17.445755  0.033041202  0.045254985            1 
   45000    1.2424169   -6.3066131    17.880127  0.033111346  0.045228835            3 
   46000    1.2293925   -6.2798659    18.422116  0.033373397  0.045201437            3 
   47000    1.2417058   -6.2970317    19.064968  0.033803134  0.045196838            3 
   48000    1.2382163   -6.3156627    19.437092  0.033744952  0.045221273            1 
   49000    1.2601918   -6.3233923     20.04983   0.03409835  0.045190057            4 
   50000    1.2423421   -6.3326637    20.593522  0.034322536  0.045192255            2 
   51000    1.2448215   -6.3067294    21.022864  0.034351084  0.045162302            2 
   52000    1.2499832   -6.2915261    21.505073  0.034463258  0.045095492            2 
   53000    1.2489551   -6.3516907    22.084032  0.034723321  0.045061516            3 
   54000    1.2386031   -6.2911606    22.466278  0.034670182  0.045010794            2 
   55000     1.235502   -6.3176903    22.879321  0.034665637  0.044914939            2 
   56000    1.1972929   -6.2987937    23.547862  0.035041461  0.044847446            2 
   57000    1.2624881   -6.3194615    24.091276  0.035221163  0.044813292            2 
   58000    1.1971251   -6.2958465    24.633403   0.03539282  0.044784931            1 
   59000    1.2555592   -6.2964565    25.156938  0.035532398  0.044737595            4 
   60000    1.2088719   -6.3295815    25.625098  0.035590413  0.044691206            2 
   61000    1.2318496   -6.3138189    26.012668  0.035536432  0.044632233            1 
   62000    1.2182684   -6.2705315    26.334754  0.035396174  0.044554734            5 
   63000    1.2349816   -6.3380439     26.78264  0.035426772  0.044441825            2 
   64000    1.2122923   -6.2785946    27.261197   0.03549635  0.044329064            3 
   65000    1.2096556   -6.3215435    27.737698  0.035561151  0.044226647            1 
   66000    1.2070024   -6.3136034    28.148537  0.035541082  0.044111801            2 
   67000    1.2185389   -6.3336202     28.75715  0.035767599  0.044009787            1 
   68000    1.2253361   -6.3488535    29.459864  0.036102775  0.043944479            2 
   69000    1.2135755   -6.3274699    29.801343  0.035991959  0.043883442            2 
   70000    1.2366429   -6.3601953    30.291146  0.036060888   0.04381878            2 
   71000    1.2366167    -6.327018    30.951144  0.036327633  0.043763515            2 
   72000      1.24551   -6.3437978    31.578083  0.036548707  0.043728425            3 
   73000    1.2054052   -6.3375359    32.229611  0.036791793  0.043724252            2 
   74000    1.2346281   -6.3304314    32.767478  0.036900313  0.043724166            2 
   75000    1.2436289   -6.2875264    33.425288  0.037139208  0.043721373            1 
   76000    1.2450198   -6.3116502    33.796416  0.037057473  0.043722842            2 
   77000     1.200343   -6.3252996    34.341524  0.037166151  0.043715663            2 
   78000    1.2090503   -6.3356217    34.908155  0.037295037  0.043710236            3 
   79000    1.2155742   -6.3139778    35.412524  0.037354983  0.043713146            3 
   80000    1.2113811   -6.3268707    35.988851  0.037488386  0.043712281            5 
   81000    1.2197455   -6.2642024    36.271114  0.037315961  0.043700891            2 
   82000    1.2069389   -6.3422595    36.761517  0.037359265  0.043676891            3 
   83000    1.2034966   -6.3263714    37.333332  0.037483265  0.043651954            1 
   84000    1.2133348   -6.3706661    37.859914  0.037559439  0.043637745            2 
   85000    1.1972709   -6.3288096    38.195959  0.037447019  0.043613506            3 
   86000    1.2163815   -6.3208588    38.922848  0.037715938  0.043590913            5 
   87000    1.2100597   -6.3446467    39.215947  0.037563168  0.043570505            6 
   88000    1.2206833   -6.3123402    39.863093  0.037749141  0.043546486            2 
   89000    1.2180469   -6.3582561    40.310296  0.037743722   0.04352465            2 
   90000    1.2227846   -6.3208648    40.738083  0.037720447   0.04349797            2 
   91000    1.1769674   -6.3570601    41.266737  0.037790052  0.043471508            2 
   92000    1.2255472   -6.3035017    41.772292  0.037837221  0.043438719            2 
   93000    1.2258702   -6.3488446    42.173959  0.037790286  0.043408558            3 
   94000    1.2075763   -6.3141773    42.610663   0.03777541  0.043377919            3 
   95000    1.1997451   -6.3602272    43.392869   0.03806392  0.043354619            4 
   96000     1.203987   -6.3257747    43.703717  0.037937254  0.043335866            4 
   97000    1.1758559   -6.3502747     44.20126  0.037973591  0.043314822            2 
   98000    1.2010564   -6.3279986    44.650317  0.037967956  0.043292017            1 
   99000     1.213517   -6.3386894    45.490377  0.038291563  0.043281249            2 
  100000    1.2176467   -6.3376584    45.849045  0.038207537  0.043261621            6 
  101000    1.2239871   -6.3398666    46.241355  0.038152933   0.04323893            2 
  102000    1.2043274   -6.3489585    46.683846  0.038140397  0.043209248            2 
  103000    1.2031799   -6.3214554    47.106279  0.038111876  0.043173176            2 
  104000    1.2201327   -6.3724226    47.753112  0.038263712  0.043148645            2 
  105000    1.2048257   -6.3187371    48.041748  0.038128371  0.043125532            3 
  106000    1.2066054   -6.3534148    48.652592  0.038248893  0.043092759            5 
  107000    1.2299988   -6.3624955    49.219796  0.038333175  0.043069751            1 
  108000    1.2230172   -6.4009437    49.756726  0.038392535  0.043047586            3 
  109000    1.2051496   -6.3464228    50.092904  0.038297327  0.043022634            4 
  110000    1.2044504   -6.3776674    50.516149  0.038269809   0.04298839            1 
  111000     1.217756   -6.3411583    51.027806  0.038309164  0.042958605            4 
  112000    1.2251211   -6.3642361    51.342015  0.038200904  0.042932056            2 
  113000    1.1855608   -6.3575004    51.969194  0.038325364   0.04290227            2 
  114000    1.2085469    -6.329605    52.481486  0.038363659  0.042875902            5 
  115000     1.203211   -6.3379797    53.112231  0.038487124   0.04284735            3 
  116000    1.1792464   -6.3481748     53.62655   0.03852482  0.042826369            1 
  117000     1.229317   -6.3338355    54.384613  0.038735479  0.042811197            2 
  118000    1.2024935   -6.3572541    54.633448  0.038582944  0.042794682            8 
  119000    1.1852433   -6.3191928    55.397067  0.038793464  0.042776679            2 
  120000     1.218508   -6.3976169    55.705155  0.038684135  0.042765192            1 
  121000    1.2180141   -6.3719876    56.289238  0.038766693  0.042755623            4 
  122000    1.2143852   -6.3752326     56.79371  0.038793517  0.042743993            2 
  123000    1.1995922   -6.3487288    57.326389  0.038839017  0.042731308            3 
  124000    1.2269273   -6.3485489     57.73883  0.038802977  0.042719249            5 
  125000    1.1784178   -6.3374131    58.423829  0.038949219  0.042703816            2 
  126000    1.2019752   -6.3455752    58.606365  0.038760823  0.042686798            2 
  127000    1.2082437   -6.3653625    59.082263  0.038767889  0.042672889            5 
  128000    1.1892408   -6.3608128    59.628314  0.038820517  0.042657811            3 
  129000    1.2110302    -6.391514    60.244091  0.038917372  0.042639793            2 
  130000    1.2091665   -6.3596545    60.596732  0.038844059  0.042624668            3 
  131000    1.2200084   -6.4342289    61.127786   0.03888536  0.042605954            3 
  132000    1.2047505   -6.3770483    61.488565  0.038818538  0.042590032            2 
  133000    1.2015211   -6.4028454    61.748413  0.038689482  0.042572244            2 
  134000     1.222286   -6.3415771    62.253167  0.038714656  0.042547635            1 
  135000    1.2111729    -6.356975     63.01489   0.03889808  0.042521552            5 
  136000    1.2080357   -6.3476555    63.187522  0.038717844  0.042495972            1 
  137000    1.1704231   -6.3601782    63.215287  0.038452121  0.042465442            2 
  138000    1.2041341   -6.3888651    63.793254  0.038522496  0.042427339            1 
  139000    1.2008476   -6.3565579    64.324613  0.038563917  0.042387745            1 
  140000    1.1946273   -6.3648035    64.687049  0.038504196  0.042349189            1 
  141000    1.2041346   -6.3652764    65.115096  0.038484099  0.042315159            1 
  142000    1.1908645   -6.4214491    65.542097  0.038463672  0.042277545            5 
  143000    1.1859052   -6.3307618    66.073696  0.038504485  0.042238081            3 
  144000    1.1918732   -6.3820576    66.693197    0.0385956   0.04220236            4 
  145000    1.1972598   -6.3921438    67.154711  0.038594661   0.04217075            2 
  146000    1.2133803    -6.402451    67.838191  0.038720428  0.042145075            3 
  147000    1.2028067   -6.4206062    68.356339  0.038750759  0.042120388            4 
  148000    1.2085956   -6.3355501    68.714809  0.038690771  0.042093076            2 
  149000    1.1713779     -6.39277    68.801895  0.038479807   0.04206095            2 
  150000    1.1805941   -6.4024249    69.462834  0.038590463  0.042026233            7 
  151000    1.2061487   -6.4157738    69.561596  0.038389402  0.041991754            2 
  152000     1.222465    -6.364022    70.570864  0.038690167  0.041959685            2 
  153000    1.2051792   -6.3529048    70.794035  0.038558843  0.041931987            3 
  154000     1.203676   -6.3703873    71.337196  0.038602379  0.041905352            6 
  155000    1.1911619   -6.3859825    71.732632  0.038565931  0.041876898            1 
  156000    1.1884738   -6.3929802    72.386879  0.038668205  0.041850779            2 
  157000    1.1897624   -6.3712425    72.908063  0.038698547   0.04182504            2 
  158000    1.2194983   -6.4320569    73.117057  0.038563848  0.041798355            5 
  159000    1.1662057   -6.3908003    73.576212  0.038561956  0.041767125            3 
  160000    1.1825494   -6.3713485    74.070533  0.038578402  0.041732633            5 
  161000    1.1729434   -6.3923456    74.178969  0.038394911  0.041701365            4 
  162000    1.1748827   -6.3868032    74.552213  0.038349904  0.041667528            3 
  163000    1.1960811   -6.3960824     75.01901  0.038353277  0.041632152            4 
  164000    1.1925192   -6.3857534    75.493994  0.038360769  0.041594627            2 
  165000    1.2141083   -6.3602602    75.776403  0.038270911  0.041557514            3 
  166000    1.1769645   -6.3844416    76.391148   0.03834897  0.041521522            2 
  167000    1.2034746   -6.3742449    76.591602  0.038219362  0.041484203            2 
  168000    1.1886393   -6.3626875     77.10483  0.038246443  0.041447496            2 
  169000    1.2210552    -6.396275    77.634147  0.038281137   0.04141196            4 
  170000    1.1935682   -6.4295658    77.988683  0.038229746  0.041375581            3 
  171000    1.1722217   -6.4346622    78.699668  0.038352665  0.041342166            2 
  172000    1.1611611   -6.3763268    79.466509  0.038501215  0.041313138            4 
  173000    1.1755041   -6.3942285    80.285934  0.038673379  0.041289459            2 
  174000    1.2035819   -6.3795293    80.260715  0.038439039  0.041265526            4 
  175000    1.1381634   -6.3799997    81.057064  0.038598602  0.041240287            2 
  176000    1.1865434   -6.3654832     81.69514  0.038681411  0.041219814            3 
  177000    1.1820058   -6.3724566    81.902541  0.038560518  0.041198016            3 
  178000    1.2147417   -6.4040727    81.973341  0.038377032   0.04117597            2 
  179000    1.1944242     -6.40983    82.751055    0.0385247  0.041153838            3 
  180000    1.1887322   -6.3630991    82.757913  0.038313849  0.041128857            2 
  181000    1.1820352   -6.3888052    83.554264  0.038468814  0.041103509            3 
  182000    1.1832326   -6.4017443    83.816558  0.038377545  0.041077912            3 
  183000    1.1918189    -6.371295    84.286781  0.038381958  0.041052241            2 
  184000    1.1887893   -6.3686831    84.604406  0.038317213  0.041028079            1 
  185000    1.1720183   -6.3706858    84.995024  0.038286047  0.041001435            2 
  186000      1.17491   -6.4045677    85.696874  0.038394657  0.040976719            2 
  187000    1.1645929   -6.3970045    86.340671  0.038476235  0.040951435            4 
  188000    1.1770528   -6.3910256    86.639597  0.038404077  0.040923525            3 
  189000     1.166599   -6.4255119    87.220459  0.038456992  0.040900382            2 
  190000     1.153034    -6.407048    87.632027    0.0384351  0.040876058            2 
  191000    1.1739449   -6.4280775    87.896501  0.038349259  0.040852214            2 
  192000    1.2021779   -6.4269723    88.252204  0.038303908  0.040826463            1 
  193000    1.1776741   -6.4183313    88.415382  0.038175899  0.040798847            6 
  194000    1.1939699   -6.3948347    88.823263  0.038154323  0.040768666            2 
  195000    1.1973872   -6.4109662    89.340668  0.038179773  0.040739725            3 
  196000    1.1589068   -6.4524252    90.016071  0.038272139  0.040714051            4 
  197000    1.1515622   -6.4660269    90.868464  0.038438437  0.040692145            2 
  198000    1.1562087   -6.3874708    91.067566    0.0383281  0.040671863            2 
  199000    1.1524523   -6.4082897    91.424492  0.038284963  0.040649303            2 
  200000    1.1757271    -6.421124    91.847255  0.038269689  0.040625192            6 
  201000    1.1682364   -6.4864383    92.032246  0.038155989   0.04060176            3 
  202000    1.1531484   -6.4270745    93.060515  0.038391301  0.040579664            3 
  203000    1.1838979   -6.4119356     93.42544  0.038351987  0.040561402            1 
  204000    1.1633164   -6.4324945    93.666136   0.03826231  0.040541181            2 
  205000    1.1778554   -6.4164905    94.568352  0.038442419  0.040518016            3 
  206000    1.1767999   -6.4246305    94.648511  0.038288233   0.04049656            2 
  207000    1.1680965   -6.4087453    94.937363   0.03821955  0.040472752            1 
  208000    1.1825436   -6.4143176    95.227925  0.038152214  0.040447811            3 
  209000    1.1491576    -6.419448    95.943978  0.038255175  0.040425311            5 
  210000    1.1494077   -6.4115225    96.677787  0.038364201   0.04040338            4 
  211000    1.1841037   -6.4425074    96.879406  0.038262009  0.040382505            3 
  212000    1.1712339   -6.4339842    97.057274  0.038151444  0.040362001            2 
  213000    1.1811246   -6.4237173    97.836062  0.038277019  0.040339595            2 
  214000    1.1669532   -6.4470623    98.170103  0.038228233  0.040318205            2 
  215000    1.1812618   -6.4304866    98.971665   0.03836111  0.040297822            6 
  216000    1.1762446   -6.3785036    99.656544  0.038447741    0.0402793            4 
  217000    1.1871081   -6.3708974    99.571398  0.038237864   0.04026251            2 
  218000    1.1934476   -6.4262169    100.31778  0.038347776  0.040244774            3 
  219000    1.1734741   -6.4437015    100.18021  0.038120323  0.040226947            4 
  220000     1.184111   -6.4211944    100.90953  0.038223306  0.040207098            3 
  221000    1.1918149   -6.4377568    101.03237  0.038096669  0.040185202            2 
  222000    1.1930413   -6.4403825    101.45645  0.038084255  0.040164342            2 
  223000    1.1544244   -6.4497704    102.36209  0.038251904  0.040144912            2 
  224000    1.1452764   -6.4232771    103.12099  0.038363463  0.040129233            7 
  225000    1.1592139   -6.4632117    103.53676  0.038346948  0.040116606            3 
  226000    1.1706014   -6.4637112    103.92474  0.038320333  0.040102472            6 
  227000    1.1783696    -6.426875    104.93635  0.038522888  0.040091989            2 
  228000    1.1576002   -6.4328058     104.8556  0.038324416  0.040080133            3 
  229000    1.1352196   -6.4511252     105.4946  0.038389594  0.040067194            1 
  230000    1.1612065   -6.4634032    105.57193  0.038250699  0.040053341            3 
  231000    1.1537212   -6.4509951    106.09985  0.038275558  0.040039016            2 
  232000    1.1732622   -6.4262387    106.53816  0.038268016  0.040024718            3 
  233000    1.1396928   -6.4639528    106.82285  0.038205599  0.040008044            4 
  234000    1.1617252   -6.4460032    107.29551  0.038210651  0.039992098            2 
  235000    1.1633097   -6.4260473    108.17316  0.038359278  0.039976842            6 
  236000    1.1677803   -6.4437765    107.78357  0.038059171  0.039959615            2 
  237000    1.1641121   -6.4554722    108.48444  0.038145022  0.039942967            3 
  238000    1.1647909   -6.4728689    108.84275  0.038110207  0.039924959            1 
  239000    1.1573818   -6.4192626     109.5304  0.038190517  0.039906725            2 
  240000     1.151259   -6.4129502    109.99659   0.03819326  0.039889375            2 
  241000    1.1505599    -6.470356    110.07065  0.038060389  0.039870624            5 
  242000    1.1791983   -6.4179023    110.52173  0.038058448  0.039851001            2 
  243000    1.1422052   -6.4136828     110.8797  0.038024589  0.039834209            4 
  244000    1.1704604   -6.4459562    111.64269  0.038129336  0.039816586            2 
  245000    1.1572208   -6.4531365    112.26081  0.038183948  0.039799598            3 
  246000    1.1544323   -6.4700633    112.41567   0.03808119  0.039782767            3 
  247000    1.1554945   -6.4633389    113.11897  0.038164293  0.039765112            2 
  248000    1.1834272   -6.4715085    113.28795  0.038067189  0.039746781            2 
  249000    1.1626528   -6.4322472    113.88906  0.038115483  0.039729589            2 
  250000    1.1580641   -6.4688385    114.14176  0.038047253  0.039712942            2 
  251000    1.1367769   -6.4971409    114.81056  0.038117716  0.039696801            4 
  252000    1.1759072   -6.4320318    115.11534  0.038067241  0.039682447            7 
  253000     1.148293   -6.4761451    115.27398   0.03796903  0.039664896            5 
  254000    1.1645177    -6.455016    115.35376  0.037845723  0.039646192            2 
  255000    1.1692621   -6.4438557    116.43658  0.038051171  0.039627641            9 
  256000    1.1571738   -6.4969596    116.55189  0.037940067  0.039609569            2 
  257000    1.1396845   -6.4202541    116.87636  0.037897651  0.039589945            6 
  258000    1.1776113   -6.4584473    117.25048  0.037871601  0.039570149            3 
  259000     1.151338   -6.4639431     117.7167  0.037875386   0.03955007            4 
  260000    1.1477886   -6.4543209    118.73159  0.038054998  0.039529961            4 
  261000    1.1434872   -6.4974314    119.01136  0.037998517  0.039511119            2 
  262000    1.1393426   -6.3688783    119.25081  0.037929647  0.039493825            2 
  263000    1.1240205    -6.453031    119.79335  0.037957335  0.039477558            3 
  264000    1.1207238    -6.434854    120.04912  0.037894293  0.039459426            2 
  265000    1.1478746   -6.4658613    119.92859  0.037713394  0.039439081            3 
  266000    1.1455592   -6.4901704    120.13581  0.037636533  0.039419798            2 
  267000    1.1377661   -6.4132799    121.61677  0.037957795  0.039400322            4 
  268000    1.1425455   -6.4220835    121.64711  0.037825595  0.039382004            3 
  269000    1.1131766    -6.469542    122.23876  0.037868266  0.039363707            2 
  270000    1.1312848   -6.4757338    122.56005  0.037827175  0.039344289            5 
  271000    1.1313802   -6.4956438     122.9297  0.037801261  0.039326022            1 
  272000    1.1383407   -6.4605234    123.14081  0.037726963  0.039308774            5 
  273000    1.1389345   -6.5089424    123.40071  0.037668105  0.039291252            2 
  274000    1.1533967   -6.4793411    124.31364  0.037808285  0.039275088            3 
  275000    1.1212049   -6.4679361    125.29881  0.037969336  0.039259011            2 
  276000    1.1228673   -6.4670259    125.47409   0.03788469  0.039244387            2 
  277000    1.1700697   -6.4624309    126.03311  0.037916099  0.039230687            2 
  278000    1.1365104   -6.5033162    126.44037  0.037901789  0.039214737            2 
  279000    1.1590907   -6.4424079    126.97087  0.037924394  0.039200876            2 
  280000    1.1614028   -6.4777167    127.15305   0.03784317  0.039187934            3 
  281000    1.1751563   -6.4691965    127.45288  0.037797415   0.03917728            3 
  282000    1.1200995   -6.4228127    128.92748  0.038099136  0.039164406            7 
  283000    1.1272428   -6.4707189     128.4909  0.037835953  0.039152179            2 
  284000    1.1575972    -6.447277    129.22366  0.037917739  0.039139132            3 
  285000    1.1462934   -6.4691847    129.36323  0.037825507  0.039125784            2 
  286000    1.1395393   -6.4839194    129.49184  0.037730724  0.039109748            3 
  287000     1.135588   -6.4537352    129.86813  0.037708516  0.039093943            2 
  288000    1.1459869   -6.5111631    130.00265  0.037616507  0.039077664            3 
  289000    1.1627906   -6.5321096    130.48493  0.037625413  0.039060589            4 
  290000     1.157069   -6.5107079    131.25743  0.037717653  0.039044832            2 
  291000    1.1801604   -6.4854081    131.54633  0.037670771  0.039028619            5 
  292000    1.1563975   -6.5044984    131.52777  0.037536464  0.039012837            2 
  293000    1.1443735   -6.4744967    132.22763  0.037607404  0.038996737            3 
  294000     1.118785   -6.4665194    132.18919  0.037468591  0.038979992            5 
  295000    1.1431998   -6.4860991    132.82144   0.03752018  0.038963125            2 
  296000    1.1259943    -6.465184    133.22913    0.0375082  0.038945633            5 
  297000    1.1223789    -6.481769    133.50184  0.037458429  0.038927498            3 
  298000    1.1201908   -6.5082906    133.51321  0.037335908  0.038905731            3 
  299000    1.1302718   -6.4896824    133.67199  0.037255293  0.038883051            1 
  300000     1.118755   -6.4691213    134.16434  0.037267873  0.038859997            2 
  301000    1.1209311     -6.49058    133.88655  0.037067151  0.038836381            6 
  302000    1.0980374     -6.49971    134.34653  0.037071337  0.038810508            2 
  303000     1.134848   -6.5029938    134.68521  0.037042138  0.038784453            5 
  304000    1.1061828   -6.4726269    135.16492  0.037051787  0.038758637            5 
  305000    1.1203214   -6.4845658    135.19815  0.036939386  0.038731676            3 
  306000    1.1203704    -6.495616    136.35764  0.037134434  0.038706684            4 
  307000    1.1253418   -6.5294357    136.36197  0.037014651  0.038682177            2 
  308000    1.0988592   -6.5208911    137.06782  0.037085448  0.038657731            3 
  309000    1.1514038    -6.493481    137.20765  0.037003141  0.038632552            2 
  310000    1.1343879   -6.4903492    137.30634  0.036910306  0.038607426            3 
  311000    1.1367961   -6.4922035    137.94917  0.036963871    0.0385829            3 
  312000    1.1141176   -6.4713726    138.79559  0.037071472  0.038558826            2 
  313000    1.1589116   -6.4814272    139.31055  0.037090137  0.038535092            2 
  314000    1.1176391   -6.5011836    139.06044  0.036905637   0.03851172            3 
  315000    1.1206366   -6.4779795    139.63093  0.036939401  0.038488548            2 
  316000    1.1191486    -6.489642     139.8458  0.036879167  0.038465761            2 
  317000    1.1246926   -6.5061751    140.49849  0.036934408  0.038442874            3 
  318000     1.096741   -6.5453701    140.84284  0.036908501  0.038419219            2 
  319000    1.1256822   -6.4867715    141.10716  0.036861851  0.038394979            3 
  320000    1.1263712   -6.5212778    141.44203  0.036833862   0.03837073            3 
  321000    1.1461898   -6.5203267    142.19625  0.036914913  0.038346876            2 
  322000    1.1325228   -6.5565304    141.92101   0.03672904  0.038322659            2 
  323000    1.1324514   -6.4817523    142.95482  0.036882048  0.038298909            5 
  324000    1.1472991   -6.5007318    143.21793  0.036835887  0.038275815            3 
  325000    1.1272339   -6.5238035    143.43186    0.0367774  0.038252181            3 
  326000    1.1238547   -6.5026013    143.51171  0.036684997  0.038229103            2 
  327000    1.1180665   -6.4722813    144.84641  0.036912947  0.038205975            2 
  328000    1.1354278   -6.5270963    144.63072   0.03674561  0.038181906            2 
  329000       1.1259   -6.4837382    144.83452  0.036685542  0.038157886            7 
  330000    1.1067817   -6.4918176    145.04192  0.036626747   0.03813361            1 
  331000    1.1142338   -6.5227559    145.10793  0.036532711  0.038108566            4 
  332000    1.1199298    -6.504542    145.37326  0.036489272  0.038083064            2 
  333000    1.1222509   -6.4658229    146.13653  0.036570703  0.038058087            3 
  334000    1.1399439   -6.4987121    146.44792  0.036538902  0.038033527            5 
  335000    1.1228319   -6.4987755    146.48136  0.036438148  0.038007014            3 
  336000    1.1055416   -6.4905533    147.10805  0.036485132  0.037980775            2 
  337000    1.1128181    -6.516399    147.27461  0.036418053  0.037954986            3 
  338000    1.1046374   -6.5242783    147.70138  0.036415528   0.03792915            2 
  339000    1.1504822   -6.5710193     147.8405  0.036342306  0.037903181            4 
  340000    1.1009536   -6.5443004     148.7457  0.036457281  0.037877753            4 
  341000    1.1139059     -6.53168    149.02063  0.036417554  0.037852429            1 
  342000    1.1325929   -6.5230408    149.24131  0.036364841  0.037827993            2 
  343000    1.1119564   -6.5088789    149.49555  0.036320591  0.037804348            2 
  344000    1.1210107   -6.5469604    149.36226  0.036182718  0.037779238            5 
  345000    1.1242274   -6.5479941    150.20663  0.036281795  0.037753851            2 
  346000    1.1305523   -6.5376129    149.92739   0.03610968  0.037727367            2 
  347000    1.1151633   -6.5264863     150.6521  0.036179658   0.03770052            2 
  348000    1.1053712   -6.4869627     151.5312  0.036286206  0.037673967            2 
  349000    1.0955791   -6.5111949    151.32794    0.0361337  0.037647044            3 
  350000    1.0804996   -6.5348529    151.68246  0.036114872  0.037620016            4 
  351000    1.1314614   -6.4938628    151.99145   0.03608534  0.037593321            2 
  352000     1.142457   -6.5310389    152.27441  0.036049813  0.037566722            1 
  353000    1.1231627   -6.5077379    152.77558  0.036066002  0.037540834            2 
  354000    1.1164288   -6.5465983    153.01689  0.036020925  0.037515547            3 
  355000    1.1117419   -6.5206979    154.08499  0.036170186  0.037491372            2 
  356000    1.1051004   -6.5633424    154.06056  0.036062865  0.037467192            4 
  357000    1.0814281   -6.5369366    154.66261  0.036102384  0.037442612            4 
  358000    1.1137107   -6.5641618    154.80825   0.03603544  0.037418123            2 
  359000    1.0772784   -6.5345917    155.62465   0.03612457  0.037394531            2 
  360000    1.1177082    -6.531856    155.68396  0.036037954  0.037370783            2 
  361000    1.1013646   -6.5617544    156.10712  0.036035807  0.037346304            2 
  362000    1.1155791     -6.57994    156.25193  0.035969596  0.037322769            2 
  363000    1.1097989   -6.5552794    156.52344  0.035932837  0.037299528            2 
  364000     1.131348   -6.4999742    157.16234   0.03598039  0.037276477            2 
  365000    1.1093407   -6.5058318    157.22825   0.03589686  0.037252613            3 
  366000    1.0964916    -6.518926    157.61206   0.03588617  0.037229062            2 
  367000    1.1251098    -6.558495    157.62365   0.03579102   0.03720356            7 
  368000    1.1133236   -6.5388424    158.08848  0.035799022  0.037177609            2 
  369000    1.1063497   -6.5249413    158.15981  0.035718114  0.037151757            3 
  370000     1.113514   -6.5498411    158.53563  0.035706224  0.037124749            4 
  371000     1.104093   -6.5409379    158.60823  0.035626287  0.037098423            2 
  372000    1.0978081   -6.5253361    159.50136   0.03573059  0.037072129            2 
  373000    1.1130986   -6.5350852     159.9857  0.035743007  0.037046336            4 
  374000    1.1216273   -6.5075611    160.19217  0.035693443  0.037021524            2 
  375000    1.1298401   -6.5443207    160.92897  0.035761994  0.036996453            2 
  376000    1.1115708   -6.5511057    160.62878  0.035600349  0.036971235            4 
  377000    1.1223401   -6.5445563    161.34081  0.035663308   0.03694618            4 
  378000    1.0860479   -6.5711399    161.35889  0.035572948  0.036921243            3 
  379000    1.1046812   -6.5359072    161.82257  0.035581041  0.036895228            2 
  380000     1.127256   -6.5153798     162.7497  0.035690723  0.036870595            3 
  381000    1.0825633   -6.5738276    162.07267  0.035448966  0.036845974            3 
  382000    1.1039526   -6.5709248    163.01751  0.035562284  0.036820712            3 
  383000    1.0930848   -6.5586958    163.18622  0.035506141  0.036795402            3 
  384000    1.0852173   -6.5204253    163.59333  0.035502025  0.036770516            2 
  385000     1.101587   -6.5282782    164.01915   0.03550198   0.03674605            5 
  386000    1.1028026   -6.5356957    164.90745   0.03560178    0.0367221            3 
  387000    1.0952488    -6.507533    165.59433  0.035657694  0.036699599            2 
  388000    1.1080676   -6.5475378     164.9575  0.035429016  0.036676611            4 
  389000    1.0627645   -6.5541705    165.70896   0.03549892  0.036653011            3 
  390000    1.0834272   -6.5760737    166.06093  0.035483104  0.036629194            3 
  391000    1.0919846   -6.5708617    166.77383  0.035544294  0.036606632            2 
  392000    1.1081359   -6.5607552    166.81865  0.035463149  0.036584057            2 
  393000    1.1005369   -6.5663721    167.23063  0.035460269  0.036560949            4 
  394000    1.1131319   -6.5809509     166.7265  0.035263642  0.036537912            3 
  395000    1.0925305   -6.5560277    167.84384  0.035410092  0.036515231            3 
  396000    1.1079008   -6.5753824    168.35789   0.03542885  0.036492338            5 
  397000    1.0986833   -6.5669137    168.91388  0.035456314  0.036469492            4 
  398000    1.1040376   -6.5450704    168.85535  0.035354972  0.036447509            2 
  399000    1.0671505   -6.5915252    168.49186  0.035190448  0.036424349            2 
  400000    1.0981466   -6.5534863    170.02776  0.035422451  0.036401294            1 
  401000    1.1051756   -6.5915727    170.16669  0.035362985  0.036378863            3 
  402000    1.1111341   -6.6144391    170.68452  0.035382363  0.036356849            3 
  403000    1.1022537   -6.5726794    171.43375  0.035449494   0.03633592            5 
  404000    1.0899157    -6.568284    171.11555  0.035296112  0.036314946            4 
  405000    1.0686399   -6.5810843    171.83103  0.035356178   0.03629362            2 
  406000     1.104962   -6.6260715    171.25538  0.035150941  0.036271569            3 
  407000    1.0922213   -6.5581797     171.9612  0.035209092  0.036249697            5 
  408000    1.0907576   -6.5603933    172.57556  0.035248277  0.036228245            3 
  409000     1.112695   -6.5877144    172.88209  0.035224549  0.036206922            4 
  410000    1.0762991   -6.6051209    173.16434  0.035196004  0.036185562            3 
  411000    1.1134132   -6.5938243    173.86628  0.035252693  0.036164149            2 
  412000    1.0810181   -6.5847162    173.12936  0.035018075  0.036142816            4 
  413000    1.1093002   -6.5372985    174.50567  0.035210991  0.036121031            2 
  414000    1.1052688   -6.5456586     174.5862   0.03514215  0.036099926            2 
  415000     1.086973   -6.5806868    175.21273  0.035183278  0.036077844            2 
  416000    1.0689646    -6.565968    174.74822  0.035005653  0.036054972            3 
  417000    1.0971936   -6.5685262    174.73413  0.034918891  0.036032532            3 
  418000    1.1000964   -6.5602765    175.47103  0.034982263  0.036008969            4 
  419000    1.0959811   -6.6096547    175.08195  0.034821391  0.035984516            4 
  420000    1.1256522   -6.6091743     174.8251  0.034687521   0.03595967            3 
  421000    1.0597286   -6.5685272    175.45783  0.034730371  0.035934419            8 
  422000    1.0763434   -6.5709349    176.33672  0.034821627  0.035909734            6 
  423000     1.098819   -6.5793586    176.96076  0.034862246  0.035885193            3 
  424000    1.0741906   -6.6130863    176.69081  0.034726968  0.035861331            2 
  425000     1.098834   -6.5765441    176.80194  0.034667048  0.035837763            5 
  426000    1.0725752   -6.5541008    177.76141  0.034773358  0.035815211            3 
  427000    1.0823224    -6.563558    178.54974  0.034845774  0.035792596            4 
  428000    1.0774221   -6.5935355    179.14435  0.034880131  0.035770046            4 
  429000    1.0905128   -6.6030348    179.04351  0.034779236  0.035747991            6 
  430000    1.0896719   -6.5655236    179.82018  0.034848872  0.035726177            1 
  431000    1.0708346   -6.5781128     179.9661   0.03479623  0.035704579            3 
  432000    1.0705975   -6.5993791    180.51722  0.034821994  0.035683385            6 
  433000    1.0858855   -6.5964995    180.71771  0.034780161   0.03566138            6 
  434000    1.0542574   -6.5899075    181.47249  0.034844948  0.035640643            2 
  435000     1.057581   -6.6067698    181.12663  0.034698587  0.035620519            3 
  436000    1.0725123   -6.5951404    182.12096  0.034809052  0.035600335            5 
  437000    1.0699808   -6.6272848    181.69458  0.034648088  0.035580025            3 
  438000    1.0654738   -6.5656227    182.89018  0.034796457  0.035559395            5 
  439000    1.0803207   -6.5663478    183.28038  0.034791264  0.035539592            2 
  440000    1.0567158    -6.588008    183.23957  0.034704464  0.035519943            7 
  441000    1.0794992   -6.6248414    183.59431  0.034692801  0.035500226            2 
  442000    1.0735687   -6.5986321    183.73316  0.034640491  0.035480621            2 
  443000    1.0695086   -6.5640058    185.53508  0.034901257  0.035462392            5 
  444000    1.0860529   -6.5972017    185.80133  0.034872623  0.035444882            2 
  445000    1.0583153   -6.6012811    185.98624  0.034828884  0.035427625            6 
  446000    1.0711585   -6.5963998    186.58454  0.034862583  0.035410263            3 
  447000    1.0677672    -6.628529     185.9399  0.034664411  0.035393227            4 
  448000    1.0657552   -6.5988017    186.79362  0.034745836  0.035374566            2 
  449000    1.0697556   -6.5924207    186.54479   0.03462227  0.035355878            2 
  450000    1.0693452   -6.5930623    187.48549  0.034719536  0.035337407            4 
  451000    1.0596606   -6.5874847    187.46894  0.034639493  0.035318615            7 
  452000    1.0718867   -6.5860081    187.86107  0.034635152  0.035300555            3 
  453000    1.0590099   -6.6129044    187.85829  0.034558184  0.035281698            9 
  454000    1.0879182   -6.5702044    189.14558  0.034718352  0.035263081            3 
  455000    1.0499672   -6.6131511    190.08583  0.034814254  0.035245821            1 
  456000    1.0741691   -6.5975062    189.93786  0.034710867  0.035229127            2 
  457000    1.0527398   -6.6084861    190.46508   0.03473105   0.03521213            2 
  458000    1.0653174   -6.6158995    190.86032  0.034727133  0.035195432            2 
  459000    1.0824734   -6.5894991    190.99308  0.034675577  0.035178674            4 
  460000    1.0734996   -6.6178078    191.19338  0.034636482  0.035161847            2 
  461000    1.0607198    -6.604183    191.54209  0.034624384  0.035144748            3 
  462000    1.0718038   -6.6402843    192.33791  0.034692984  0.035128058            5 
  463000    1.0538495   -6.5907197    193.02609  0.034741916   0.03511204            3 
  464000    1.0622386   -6.6420125    192.16999  0.034513289  0.035095905            2 
  465000    1.0566921   -6.6023083    192.52915  0.034503431  0.035078654            2 
  466000    1.0654716   -6.5758449    193.21079  0.034551286  0.035060782            3 
  467000    1.0540512   -6.5766964    193.33255  0.034499027  0.035042856            3 
  468000    1.0792204   -6.6592323    192.90846  0.034349797   0.03502543            3 
  469000     1.060659   -6.6266893    193.52347  0.034385834  0.035006708            5 
  470000    1.0630516   -6.6349364    193.77558  0.034357372  0.034988145            5 
  471000    1.0509377   -6.6519966    193.39215  0.034216587  0.034968605            4 
  472000    1.0576893   -6.5896586    194.20009   0.03428674  0.034949019            2 
  473000    1.0745606   -6.6177367    194.87205  0.034332638  0.034930063            6 
  474000    1.0659601   -6.5985117    194.75012   0.03423877  0.034911212            6 
  475000    1.0339633    -6.583233    196.08652  0.034401144  0.034892982            4 
  476000    1.0712672   -6.6123062    195.60985  0.034245422  0.034874866            4 
  477000    1.0745699   -6.6096122    196.14031  0.034266302  0.034856189            6 
  478000    1.0553675   -6.6393259    196.15463  0.034197112  0.034837283            7 
  479000    1.0507496   -6.6047085    196.36406  0.034162153   0.03481839            4 
  480000    1.0435442    -6.606627    197.09798  0.034218398  0.034798719            3 
  481000    1.0656249   -6.6242746    197.34432  0.034189938  0.034779758            2 
  482000    1.0638896   -6.6251107    196.93497  0.034048231  0.034760342            1 
  483000    1.0729761   -6.6263849    197.57129  0.034087523  0.034741297            2 
  484000    1.0528965   -6.5809936    198.24214    0.0341326  0.034722418            2 
  485000     1.059349   -6.6324952    197.97271   0.03401593  0.034703889            4 
  486000    1.0717141   -6.6269724    199.20451  0.034157152   0.03468504            4 
  487000    1.0615699   -6.6529036     198.7646  0.034011739  0.034666808            4 
  488000    1.0422719   -6.6576224    199.87496  0.034131652  0.034649233            4 
  489000    1.0810759   -6.6658821    200.19509  0.034116409  0.034631533            7 
  490000    1.0592898    -6.598774    201.84351  0.034327127   0.03461435            2 
  491000    1.0463206   -6.5800778    201.32605   0.03416939  0.034597412            5 
  492000    1.0387564    -6.613242     201.5135  0.034131691  0.034580394            3 
  493000    1.0537016   -6.6212571    201.79178  0.034109496  0.034563789            3 
  494000    1.0575787    -6.656536    202.14765  0.034100481  0.034547164            2 
  495000    1.0581026   -6.6110755    202.45084  0.034082633  0.034530595            4 
  496000    1.0538069   -6.6349642     202.4762   0.03401818  0.034513678            3 
  497000    1.0303129   -6.5938783     203.5491  0.034129628  0.034496824            3 
  498000    1.0529208   -6.6408563    203.43235  0.034041557  0.034479642           10 
  499000    1.0741593   -6.6381133    203.33057  0.033956341  0.034462626            2 
  500000    1.0671079   -6.6845404    204.50043  0.034083404  0.034445773            3 
  501000    1.0546563   -6.6479366    204.20675  0.033966525  0.034428972            1 
  502000    1.0719387   -6.6238549    204.91092  0.034015757  0.034412198            2 
  503000    1.0369524   -6.6935377    204.73065  0.033918265  0.034395666            4 
  504000    1.0625227   -6.6690372    205.29595  0.033944436  0.034378453            2 
  505000    1.0341343   -6.6420869    205.48446  0.033908327  0.034361241            5 
  506000    1.0333299   -6.6805038    205.84513  0.033900713  0.034344235            5 
  507000    1.0445013   -6.6649866    206.20651  0.033893246  0.034327566            3 
  508000    1.0514339   -6.6416181    206.55505  0.033883703  0.034311338            2 
  509000    1.0377462   -6.6564713    208.39668  0.034118644  0.034295871            3 
  510000    1.0572297   -6.6466738    207.87861  0.033967093  0.034280348            3 
  511000    1.0682879   -6.6287474    208.50989   0.03400357  0.034265473            6 
  512000    1.0630646   -6.6295762    208.83804  0.033990566  0.034250527            5 
  513000    1.0435743   -6.6529011    209.25717  0.033992393  0.034235447            3 
  514000    1.0456112   -6.6593516    209.03583  0.033890375  0.034220036            3 
  515000    1.0381106   -6.6359723    209.16347  0.033845221  0.034204149            5 
  516000    1.0498306    -6.682411    209.78676  0.033880291    0.0341886            3 
  517000    1.0455556   -6.6670502    209.84853  0.033824714   0.03417317            2 
  518000    1.0849867   -6.6927643    210.39794  0.033847802  0.034157968            4 
  519000    1.0294579   -6.6375893     211.2332  0.033916698   0.03414287            2 
  520000    1.0434112   -6.6377388    211.22211  0.033849697  0.034127463            1 
  521000    1.0493388   -6.6705836    211.31875  0.033800184  0.034112296            2 
  522000    1.0694901    -6.665794    211.43097  0.033753347  0.034096805            5 
  523000    1.0299204   -6.6651438    211.72441  0.033735566  0.034080721            8 
  524000    1.0485114   -6.6693824    211.92317  0.033702795  0.034063824            3 
  525000    1.0345793   -6.6946314    212.25976  0.033692025  0.034047406            5 
  526000    1.0443931   -6.6530061    212.87917  0.033726104  0.034031026            2 
  527000    1.0559737   -6.6396282    212.62507  0.033621928   0.03401493            3 
  528000    1.0347185   -6.6396995    213.01887  0.033620403  0.033998267            3 
  529000     1.024942   -6.6767133    212.55044  0.033483056  0.033980993            2 
  530000       1.0303   -6.6704319    213.38307  0.033550796  0.033964458            4 
  531000     1.058507   -6.6673421    213.34438  0.033481541  0.033947294            3 
  532000    1.0590706   -6.6939018    213.26914  0.033406819  0.033930315            3 
  533000    1.0406028   -6.6541237    214.66763  0.033562794  0.033913301            1 
  534000    1.0218528    -6.667873    214.67695  0.033501397  0.033896709            6 
  535000    1.0182749   -6.6621371     215.2256  0.033524237  0.033880188            6 
  536000    1.0562176   -6.6404459    215.37242  0.033484517  0.033863723            6 
  537000     1.024774   -6.6837798    216.14108  0.033541447  0.033847727            3 
  538000    1.0393687   -6.6888946    216.38105  0.033516272  0.033831636            2 
  539000    1.0204954   -6.6747802    216.60338  0.033488463  0.033815335            5 
  540000    1.0367313   -6.6802546    216.47588  0.033406772  0.033798774            3 
  541000    1.0609891   -6.6584955     216.5731  0.033359996  0.033782531            3 
  542000    1.0738979   -6.6829659    217.00603  0.033365011  0.033765184            3 
  543000    1.0218244   -6.6404342    217.76164  0.033419528  0.033748534            3 
  544000    1.0185071   -6.6797303    216.84785  0.033218115  0.033731593            3 
  545000     1.029506   -6.7049296    217.23687  0.033216647  0.033714148            3 
  546000     1.036396   -6.6602918    217.71516   0.03322881    0.0336969            5 
  547000     1.037264   -6.6824598    218.56181  0.033297047  0.033679597            5 
  548000    1.0400384   -6.7052734    218.85725  0.033281211   0.03366246            3 
  549000    1.0113488   -6.6840069    217.92932  0.033079739  0.033644774            2 
  550000    1.0541078   -6.7332311    218.89939  0.033166575  0.033627042            1 
  551000    1.0512725   -6.6939077    218.95559  0.033114881  0.033609343            3 
  552000    1.0121238   -6.6919031    219.80947  0.033183797  0.033591928            4 
  553000     1.019184    -6.657878    219.52287  0.033080602  0.033574341            2 
  554000    1.0254068     -6.69404    220.22451   0.03312643   0.03355656            4 
  555000    1.0079163   -6.7064377    220.26801  0.033073275  0.033538457            5 
  556000    1.0363421   -6.6894688     220.8347  0.033098727  0.033521258            3 
  557000    1.0308058   -6.6761156    221.02783  0.033068198  0.033503407            2 
  558000     1.043825   -6.6615841    221.01261  0.033006662    0.0334859            9 
  559000    1.0131083    -6.668287    221.70487  0.033050815  0.033468045            3 
  560000    1.0291763   -6.6680106     222.4197  0.033098169  0.033450325            1 
  561000    1.0414097   -6.6935585    221.32869  0.032877108  0.033432771            3 
  562000    1.0551416   -6.6988447    222.63176  0.033011827  0.033415258            5 
  563000    1.0227378   -6.6919836    222.02806  0.032863834  0.033397533            9 
  564000    1.0324074   -6.7146869    222.99942  0.032949088  0.033380318            5 
  565000    1.0324372   -6.6880053    223.40646  0.032950806  0.033362863            4 
  566000    1.0265855   -6.7059274    223.36957  0.032887157  0.033344912            3 
  567000    1.0321805   -6.6826044    222.96432  0.032769595  0.033326401            3 
  568000     1.031687   -6.6699216    223.69468  0.032819055  0.033308178            4 
  569000    1.0261216   -6.6964256    223.67218  0.032758082  0.033289406            5 
  570000    1.0078293   -6.6840903    223.57064  0.032685766   0.03327006            3 
  571000    1.0294707   -6.6961283    223.73645  0.032652722  0.033250967            3 
  572000    1.0132456   -6.6953815    224.31572   0.03268003  0.033232227            2 
  573000    1.0398523   -6.6893792    224.54215  0.032655926   0.03321359            6 
  574000     1.015625   -6.6895318    225.49342  0.032737141  0.033195345            3 
  575000    1.0207642   -6.7064837    225.67605  0.032706674   0.03317697            4 
  576000    1.0253356   -6.7059737    225.90803  0.032683453  0.033158935            4 
  577000    1.0514073    -6.688882    226.27791   0.03268023  0.033140894            2 
  578000    1.0232154   -6.7158695    226.31264  0.032628696  0.033122476            3 
  579000    1.0404592    -6.717493    226.15481  0.032549627  0.033104258            4 
  580000    1.0142681   -6.6903546    227.02823  0.032618999  0.033086121            3 
  581000    1.0099575   -6.6788104    227.78212  0.032670986  0.033068536            4 
  582000    1.0427239   -6.6936282    227.98979  0.032644586  0.033050463            4 
  583000   0.99810123   -6.7214658    227.71922  0.032549917  0.033032623            3 
  584000    1.0133082   -6.6827445    228.01334   0.03253615  0.033015088            3 
  585000    1.0159879   -6.7161524    228.54944    0.0325569  0.032997837            7 
  586000    1.0293735   -6.7290164    228.55904  0.032502707  0.032980027            4 
  587000    1.0030801   -6.6919832    229.44261  0.032572773  0.032962318            2 
  588000    1.0133151   -6.7103755    229.32363  0.032500515  0.032945088            5 
  589000    1.0240801   -6.7349865    229.85151  0.032520021  0.032927288            3 
  590000    1.0226512   -6.7247127    230.03552  0.032490893  0.032909426            5 
  591000     1.001141   -6.6813959    230.03217  0.032435445  0.032891705            4 
  592000   0.99926082   -6.7313427    230.43314  0.032437098  0.032873549            4 
  593000    1.0223336   -6.6887209    230.91436  0.032450022   0.03285556            3 
  594000    1.0055991   -6.7275988    230.66345  0.032360192  0.032837454            4 
  595000    1.0245693   -6.7126601    231.01767  0.032355416  0.032818779            5 
  596000    1.0202457   -6.7033792    231.31877  0.032343229  0.032800405            5 
  597000    1.0279357   -6.7155346    230.66632  0.032197978  0.032781826            5 
  598000    1.0278744   -6.7107676    232.32876  0.032375802  0.032763472            4 
  599000    1.0032856   -6.7211327    231.56633  0.032215683  0.032745154            6 
  600000    1.0059873   -6.7205179    231.92808  0.032212233  0.032726988            3 
  601000    1.0365935   -6.7127991    232.07527  0.032179045  0.032708662            2 
  602000   0.98675662   -6.7482162    232.71223  0.032213763  0.032690335            4 
  603000    1.0119873   -6.6909967    233.29869  0.032241388  0.032671937            8 
  604000    1.0033181   -6.7620523    233.04845  0.032153483  0.032653259            4 
  605000    1.0277664   -6.7403008    233.21256  0.032122942  0.032634043            5 
  606000    1.0259873   -6.7001384    233.06016  0.032048977  0.032615156            3 
  607000    1.0005861   -6.7031682    233.74581  0.032090308  0.032596082            5 
  608000   0.99144273   -6.7365774     234.1357  0.032090968  0.032577226            3 
  609000     1.010728   -6.7326168    233.58197  0.031962503  0.032558171            3 
  610000    1.0331129   -6.7183792     234.0071  0.031968183  0.032538474            2 
  611000    1.0036596   -6.7488622    233.94368  0.031907212  0.032518769            2 
  612000    1.0059331   -6.7373143    234.64215  0.031950184  0.032498986            6 
  613000    1.0258621   -6.7326678    235.14184  0.031965992  0.032479719            6 
  614000   0.99818415   -6.6916433    235.49419  0.031961753  0.032460205            8 
  615000   0.99738234   -6.7594726    234.43704  0.031766536  0.032440109            6 
  616000    1.0085355   -6.7017222    234.91377  0.031779461  0.032419637            2 
  617000    1.0151982   -6.7344006    234.99518  0.031738949  0.032399016            4 
  618000   0.99499163   -6.7465311    235.48868  0.031754137  0.032378786            4 
  619000   0.99165191   -6.7620677    235.03462   0.03164171  0.032358093            2 
  620000    1.0121287   -6.7286902    236.44227  0.031779875   0.03233768            5 
  621000   0.97991431   -6.7350628    236.49723  0.031736074  0.032317259            6 
  622000    1.0056371    -6.721249    236.20609  0.031646046  0.032297253            7 
  623000    1.0101941   -6.7199741    236.63352  0.031652424  0.032277201            5 
  624000    1.0024491   -6.7495157    236.22069  0.031546567  0.032257094            3 
  625000    1.0052476   -6.7673581    236.57547  0.031543396  0.032236717            2 
  626000    1.0062345   -6.7357138    237.00159  0.031549733   0.03221653            3 
  627000   0.98328178    -6.746605    237.26816  0.031534843  0.032196118            4 
  628000   0.98829723   -6.7362361    237.86766   0.03156418  0.032175714            6 
  629000    1.0144751   -6.7362896    238.23154  0.031562208  0.032155337            3 
  630000   0.98159417   -6.7566576    237.59453  0.031427848  0.032135019            3 
  631000    1.0043417   -6.7049429    238.67751  0.031521066  0.032114898            4 
  632000    1.0406532   -6.7386754    239.35844  0.031560976  0.032094656            6 
  633000   0.98754504   -6.7543816    239.19568  0.031489689  0.032074214            3 
  634000    1.0307801   -6.7438458    238.87743  0.031398189  0.032053861            3 
  635000     1.007565   -6.7378858     239.4249   0.03142059  0.032033773            7 
  636000   0.98563794   -6.7398194     240.5754  0.031521934  0.032013724            5 
  637000   0.98796859   -6.7424532     240.3377  0.031441353   0.03199369            3 
  638000    1.0004336   -6.8007678    239.83118  0.031325912  0.031973639            4 
  639000    0.9975513   -6.7730232    240.35179  0.031344782  0.031953513            5 
  640000    1.0093573   -6.7552407    240.87396  0.031363797  0.031933447            4 
  641000    1.0039055   -6.7487642    240.87874  0.031315489  0.031913319            5 
  642000    1.0027414   -6.7614279    241.17497  0.031305163  0.031892948            5 
  643000   0.98821689   -6.7501083    241.23666  0.031264471  0.031872565            3 
  644000    1.0137619   -6.7526764    241.34941  0.031230514  0.031852269            7 
  645000    1.0050661   -6.7754025    241.35443  0.031182743  0.031831899           13 
  646000   0.99278219   -6.7656024    241.15675  0.031108971   0.03181112            2 
  647000   0.98271973   -6.7585398    241.78005  0.031141171  0.031790125            6 
  648000    1.0115211   -6.7359697    242.12052  0.031136899  0.031768951            9 
  649000   0.98064041   -6.7697733    241.51824  0.031011587  0.031747181            4 
  650000    1.0113955   -6.7178826    241.70773   0.03098817  0.031725689            4 
  651000     0.994189     -6.74538    242.80555    0.0310811  0.031704629            5 
  652000    1.0202189   -6.7281223    242.76533  0.031028289  0.031683936            8 
  653000   0.98313272   -6.7355025    243.50316  0.031074931  0.031663207            5 
  654000   0.98900127   -6.7575263    244.33689   0.03113365  0.031642424            2 
  655000    1.0093454   -6.7745568    244.33642  0.031086058   0.03162202            4 
  656000   0.97634847   -6.7601399    244.86517   0.03110584  0.031601686            2 
  657000   0.99458217   -6.7649197    245.19712  0.031100599  0.031582096            2 
  658000   0.97442635   -6.7994963    244.60508  0.030978354  0.031562196            6 
  659000   0.98920785   -6.7754102    245.34242  0.031024585  0.031542082            8 
  660000   0.99659638   -6.7279832     245.8576  0.031042626  0.031522358            6 
  661000   0.98218913   -6.7571951    246.08468  0.031024291   0.03150281            6 
  662000   0.99900399   -6.7074109    246.93825  0.031084875  0.031483131            3 
  663000   0.97412106   -6.7612178    246.10255  0.030932949  0.031463605            4 
  664000   0.98905904   -6.7845716    246.44199  0.030928965   0.03144362            4 
  665000   0.98702651   -6.7512254    246.52002  0.030892232  0.031423444            6 
  666000   0.99622712   -6.7658084     246.9328  0.030897498  0.031403863            8 
  667000   0.98225514   -6.7306731    247.12494   0.03087518  0.031384083            3 
  668000   0.99501612   -6.7683561    247.57289  0.030884841  0.031364816            5 
  669000   0.97991676   -6.7862736    248.56427  0.030962166  0.031345892            4 
  670000   0.96962161   -6.7817371    248.57189  0.030916902  0.031326885            4 
  671000   0.97296077   -6.7976864    248.13068  0.030816031  0.031307721            4 
  672000   0.99824732   -6.7958672    249.70774  0.030965742  0.031288749           11 
  673000    1.0010675   -6.7833368    249.53266  0.030898051  0.031270187            3 
  674000   0.98110924   -6.7784614    249.75536  0.030879742  0.031251671            3 
  675000    0.9689084   -6.8012868    249.99373  0.030863424  0.031233404            5 
  676000   0.96939299   -6.7598211    250.79968  0.030917121  0.031215033            5 
  677000   0.98320111   -6.7492758    250.08401  0.030783359  0.031196358            6 
  678000   0.97258344   -6.8084042    250.48556  0.030787311  0.031177791            4 
  679000    0.9673613   -6.7720705    251.31089  0.030843261  0.031159464            7 
  680000   0.99709908   -6.7667061    252.01728  0.030884471   0.03114098            2 
  681000   0.97492348   -6.7846937    251.18411  0.030737165  0.031122474            2 
  682000   0.96475255   -6.7705386    250.97041  0.030665984  0.031103798            4 
  683000   0.97019944   -6.8147799    250.34656  0.030544968  0.031084844            3 
  684000   0.96395645   -6.7883383    251.43393  0.030632788  0.031065991            4 
  685000    1.0024811    -6.752235    252.85735  0.030761235  0.031047559            4 
  686000   0.99176857   -6.7610734     252.5176  0.030675121  0.031029208            3 
  687000   0.98993114   -6.7937725    252.50874  0.030629396  0.031011102            3 
  688000   0.96908182   -6.7670487     252.5451  0.030589281  0.030992847            3 
  689000   0.97186576   -6.7844405    253.37892  0.030645733  0.030974108            3 
  690000   0.97020393   -6.7835963    252.89972  0.030543445  0.030955321            6 
  691000   0.95829576   -6.7702568    254.42461  0.030683142  0.030936784            4 
  692000   0.98208249   -6.8186925    253.13705  0.030483749  0.030918541            6 
  693000   0.99514961   -6.8008741    254.74093  0.030632628  0.030900253            3 
  694000   0.99044658   -6.8064883    254.74615  0.030589115  0.030882139            7 
  695000   0.96603459   -6.7525075    255.20123  0.030599668  0.030864525            6 
  696000   0.95902287   -6.7650101     255.9316  0.030643151  0.030846909            5 
  697000   0.98644634   -6.8145474    255.74299  0.030576637  0.030829402            8 
  698000   0.98981282   -6.8109331     254.4445  0.030377806  0.030811649            3 
  699000   0.98348956   -6.8295476    255.69972  0.030483992  0.030793654            6 
  700000    0.9796522   -6.7967948    256.21609  0.030501916  0.030775713            3 
  701000   0.96921971   -6.7980607    256.28705  0.030466839  0.030758249            3 
  702000   0.97505577   -6.7995266    257.06111  0.030515326  0.030740773            8 
  703000    0.9888682   -6.7938154     256.8481  0.030446669  0.030723349            7 
  704000   0.98595683   -6.8187594    256.84036  0.030402505  0.030705759            3 
  705000   0.96925638   -6.8312765     258.0468  0.030501986  0.030687671            6 
  706000   0.95827995   -6.8082158    256.94848  0.030329141  0.030669745            5 
  707000    0.9640846   -6.7751608    257.59005  0.030361864  0.030651932            2 
  708000   0.98967201   -6.7948621    258.04847  0.030372937  0.030634003            4 
  709000   0.97590068   -6.8017396    259.04399  0.030447107  0.030616336            3 
  710000   0.96846437    -6.799602    259.24198  0.030427463  0.030598881            2 
  711000    0.9690871   -6.8178167     258.9644  0.030352134  0.030581567            3 
  712000   0.98307681   -6.8336439    259.00635  0.030314414  0.030564084            3 
  713000   0.95511132   -6.8130923    259.12323  0.030285557  0.030546668            4 
  714000   0.97468901   -6.8222617    259.84143  0.030326964   0.03052948            3 
  715000    0.9740864   -6.7977658      260.959  0.030414802  0.030512391            2 
  716000    0.9619231   -6.7877772    260.08874  0.030271036   0.03049512            2 
  717000   0.97616711   -6.7951357    260.58936  0.030287001  0.030477676            3 
  718000   0.97225202   -6.8094285    260.01906  0.030178628  0.030460047            5 
  719000   0.99256301   -6.7992717    261.17391  0.030270504  0.030442344            6 
  720000   0.98090493   -6.8314717    260.62481  0.030164909  0.030424637            3 
  721000   0.96124764   -6.7940606    261.02806  0.030169679  0.030407213            6 
  722000   0.96925986   -6.8320747    261.50625  0.030183085  0.030389705            5 
  723000   0.95595592   -6.8051047    260.68481  0.030046659  0.030371766            5 
  724000   0.95432872   -6.7889975    261.93795  0.030149396  0.030354054            5 
  725000   0.98193297   -6.7949065    260.68128  0.029963365  0.030336192            7 
  726000   0.97213822   -6.8328012    261.21715  0.029983604  0.030318064            2 
  727000   0.97561882   -6.8269066     261.7672   0.03000541  0.030300209            3 
  728000   0.97482645   -6.8307951    262.70909  0.030072012  0.030282584            5 
  729000    0.9799787   -6.8051851    262.67869  0.030027285  0.030264752            3 
  730000   0.93754097   -6.8347812    262.80593  0.030000677  0.030246987            4 
  731000   0.96196089    -6.822961    262.88918  0.029969127  0.030229193           11 
  732000   0.97517494   -6.8191637    263.27334  0.029971919  0.030211646            8 
  733000   0.95323612    -6.805671    264.17088   0.03003307  0.030194177            2 
  734000   0.96307701   -6.8160823    263.19127  0.029880934  0.030176735            3 
  735000   0.97702978    -6.828814    263.68961  0.029896781   0.03015892            4 
  736000   0.95784911   -6.8546298    263.74107  0.029861987  0.030140867            2 
  737000   0.96376693    -6.845123    264.37304  0.029892926  0.030122964            3 
  738000   0.94416586   -6.7932032    264.33911   0.02984859  0.030105282            6 
  739000   0.96973014   -6.8293669    264.95134  0.029877237  0.030087718            4 
  740000   0.95742811   -6.8169621    264.99862  0.029842187  0.030070357            4 
  741000   0.95556298   -6.8334963    265.19448  0.029823941  0.030053124           10 
  742000   0.94548578   -6.8346159     265.9144  0.029864601   0.03003585            4 
  743000   0.96105427   -6.8504354    266.38078  0.029876714  0.030018618            4 
  744000   0.96919366    -6.846907    265.14571   0.02969822    0.0300014            5 
  745000   0.95377014   -6.8238086     265.8514  0.029737293  0.029983827            4 
  746000   0.93372935   -6.8202445    266.07639  0.029722564  0.029966392            5 
  747000   0.95558144   -6.8134821    267.28355  0.029817442  0.029949195            3 
  748000   0.92970343   -6.8430037    268.00599  0.029858064  0.029932032            3 
  749000   0.95169391   -6.8343535    267.56373  0.029768995  0.029915118            3 
  750000   0.95798678   -6.8424016    268.02389  0.029780433  0.029898209            3 
  751000   0.95589232   -6.8120737    269.32861  0.029885553  0.029881502            4 
  752000   0.96694806   -6.7919656    268.92077  0.029800617  0.029864902            4 
  753000   0.93384307   -6.7894481    269.33785  0.029807199  0.029848581           11 
  754000   0.94455185   -6.8187092    269.03772  0.029734495  0.029832247            5 
  755000   0.95001783   -6.8420306    269.75792  0.029774605  0.029815618            7 
  756000   0.95711266   -6.8589783    268.99984  0.029651658  0.029798988            2 
  757000   0.96919136   -6.8443105    270.47533  0.029774916  0.029782596            4 
  758000   0.94846081   -6.8424155    269.18683  0.029593978  0.029766133            5 
  759000   0.96172324   -6.8475823    270.25317  0.029672066  0.029749847            6 
  760000   0.93729123   -6.8019611    271.44199  0.029763377  0.029733786            4 
  761000   0.94957257     -6.88463    271.13338  0.029690471  0.029717793            4 
  762000   0.95781038   -6.8653907    271.65188  0.029708211  0.029701801            9 
  763000   0.96887246   -6.8593244    271.90244  0.029696641  0.029685994            3 
  764000    0.9595472   -6.8430214    272.66785  0.029741257  0.029670276            3 
  765000   0.96320284   -6.8374556    272.38612   0.02967169  0.029654757            4 
  766000   0.94470717   -6.8062844    273.00771  0.029700577  0.029639517            3 
  767000   0.97303104   -6.8693425     272.9977  0.029660767  0.029624047            3 
  768000   0.95155618    -6.851335    273.43446  0.029669537  0.029608283            2 
  769000    0.9633948   -6.8547225    273.66082  0.029655485  0.029592516            4 
  770000   0.94085834   -6.8651551    272.73335  0.029516596  0.029576794            6 
  771000   0.92717606   -6.8514924    273.18793  0.029527446  0.029561008            6 
  772000   0.94279579   -6.8859184    273.50748  0.029523691  0.029544944            5 
  773000   0.97123314   -6.8645621    273.79991  0.029517023   0.02952904            7 
  774000   0.95792128   -6.8641371    274.10144  0.029511352  0.029513207            3 
  775000   0.93162661   -6.8781736    274.75397  0.029543437   0.02949743            4 
  776000   0.95909342    -6.855049    274.84119  0.029514733  0.029481568            3 
  777000    0.9559889   -6.8738007    274.97814  0.029491435  0.029465477            4 
  778000   0.93594439   -6.8452397    274.82976  0.029437634  0.029449572            3 
  779000   0.93633768   -6.8485009    274.92332  0.029409855  0.029433503            7 
  780000   0.92845881   -6.8745618     274.9255  0.029372383  0.029417603            8 
  781000   0.94093719   -6.8871954    275.85163  0.029433593  0.029401923            7 
  782000   0.92308954    -6.889334    276.12531  0.029425118  0.029386425            9 
  783000   0.94125251    -6.885763    275.98555  0.029372664  0.029370766            8 
  784000   0.94244429   -6.8892864    276.76419  0.029417963  0.029355012            2 
  785000    0.9500698   -6.8790416    276.91577  0.029396579  0.029339466            3 
  786000   0.95857323   -6.8680263    277.65447  0.029437497  0.029323994            5 
  787000     0.940696   -6.8937436    277.24846  0.029357101  0.029308347            6 
  788000   0.94329652   -6.8851235    276.81146  0.029273631  0.029292546            5 
  789000   0.94125559   -6.8586628      277.006  0.029257076  0.029276874            6 
  790000   0.92973785   -6.8531315    277.77335  0.029300986  0.029261013            6 
  791000   0.94604496   -6.8807553     277.8735  0.029274495  0.029245223            8 
  792000   0.93225886   -6.8691625    278.14692  0.029266301  0.029229518            4 
  793000   0.92512756   -6.8953514    277.45591  0.029156779  0.029213705            4 
  794000   0.94554655   -6.8771278     277.5935  0.029134498  0.029197503            4 
  795000   0.93863292   -6.8745686    278.26826  0.029168581  0.029181591            5 
  796000   0.95608831   -6.9043336    278.55317  0.029161764  0.029165702            5 
  797000   0.93223593   -6.8919621    278.44282  0.029113637  0.029149639            3 
  798000    0.9339366   -6.8873563    278.86565  0.029121308   0.02913359            5 
  799000   0.91847765   -6.8794687    279.18849  0.029118532  0.029117694            6 
  800000   0.93991711   -6.8990788    279.41042  0.029105253  0.029101635            4 
  801000   0.91869681    -6.903618    278.88438  0.029014188  0.029085691            5 
  802000   0.92740248   -6.8845679    279.66264  0.029058877  0.029069636            4 
  803000   0.93657516   -6.9120518    279.34165  0.028989379  0.029053573            5 
  804000   0.91255578   -6.9037644    279.62731   0.02898293  0.029037363            6 
  805000   0.94551214   -6.8829178    280.63116  0.029050845  0.029021401            4 
  806000   0.95569606   -6.8924739    280.99029  0.029051932  0.029005266            5 
  807000     0.935604   -6.8834553    280.74562  0.028990667  0.028989425            3 
  808000   0.94150901   -6.8950502    280.64943  0.028944867  0.028973268            5 
  809000   0.92712344   -6.9036144    281.34138  0.028980365  0.028957276           12 
  810000   0.94111293   -6.9006695    281.31139  0.028941501  0.028941621            7 
  811000   0.92715883   -6.8880226    281.71351  0.028947134  0.028925557            2 
  812000   0.91281928   -6.8794904    281.72082  0.028912235  0.028909494            5 
  813000   0.92783594   -6.8647083    281.74535  0.028879187  0.028893483            2 
  814000    0.9092788   -6.8710698    281.71673  0.028840779  0.028877599            3 
  815000   0.91204705   -6.9052069    281.84092   0.02881809  0.028861618            2 
  816000   0.92784796   -6.8713374    282.66865  0.028867305  0.028845644            2 
  817000   0.92603548   -6.9178168    282.48712  0.028813456  0.028829501            4 
  818000   0.93647517   -6.8672185    282.57034   0.02878671  0.028813463            8 
  819000   0.92960617    -6.914851    282.65667  0.028760345  0.028797457            6 
  820000   0.90054743   -6.9000487    283.92138  0.028853798  0.028781424            4 
  821000   0.94816113   -6.9108582    283.60711  0.028786755  0.028765484            3 
  822000   0.91157798   -6.9025814    283.40764  0.028731512  0.028749389            3 
  823000   0.91996076   -6.9081124    283.23312  0.028678931  0.028733192            5 
  824000   0.92607329   -6.9224465    282.99457  0.028620001  0.028716761            5 
  825000   0.91661705   -6.9014091    283.11983  0.028597963  0.028700457            5 
  826000   0.94535809   -6.8784322    283.23849  0.028575312  0.028683991            3 
  827000   0.92501051    -6.890251    284.08899   0.02862646  0.028667519            5 
  828000   0.91594435    -6.908227    283.78837  0.028561632  0.028651048            4 
  829000   0.91466408   -6.9121068    283.98926  0.028547372   0.02863444            5 
  830000   0.91559334    -6.905268    285.04554   0.02861903  0.028617974            2 
  831000    0.9172874   -6.9296628    284.50287  0.028530172  0.028601749            7 
  832000   0.94375619   -6.8978832    284.91744  0.028537403   0.02858517            7 
  833000    0.9226652   -6.9197183    284.84845  0.028496244  0.028568934            8 
  834000   0.92489099   -6.9180123    284.37089  0.028414357  0.028552377            3 
  835000   0.89585204   -6.9122722    284.96413  0.028439534  0.028535811            3 
  836000   0.92308382   -6.9248753    284.89225   0.02839835  0.028519171            2 
  837000   0.92320751   -6.9145408    284.98035  0.028373193   0.02850249            3 
  838000   0.92825547   -6.9230879    285.63045  0.028403983  0.028485832            3 
  839000   0.91976277   -6.8907246    285.83901  0.028390843  0.028469149            4 
  840000   0.93109616   -6.9111178    286.14932  0.028387829  0.028452705            5 
  841000   0.92258407   -6.9076437    286.14278  0.028353426  0.028436026            7 
  842000   0.89830307   -6.8932469    286.55447  0.028360497  0.028419546            6 
  843000   0.91829482   -6.9293482    286.46096  0.028317612  0.028403144            6 
  844000   0.93263526   -6.9012083    286.38616  0.028276675  0.028386276            4 
  845000   0.93441963   -6.8899869    286.43613  0.028248139  0.028369558            6 
  846000   0.92096383   -6.9149009    286.94799  0.028265169  0.028352947            7 
  847000   0.92283174   -6.9002505    286.67398  0.028204839  0.028336352           10 
  848000   0.92146464   -6.9315578    287.32477  0.028235532  0.028319699            3 
  849000   0.87934447   -6.9379283    287.26276  0.028196187  0.028303147            3 
  850000   0.90928529    -6.890074    288.25563  0.028260356  0.028286628            4 
  851000   0.91930967   -6.8947499    288.11872  0.028213741  0.028270181            5 
  852000   0.88926301   -6.9129562    288.06978  0.028175839  0.028253625            4 
  853000   0.89218278   -6.9180055    288.38459  0.028173563  0.028237037            8 
  854000   0.94148594   -6.9324095    288.19261   0.02812184   0.02822023            3 
  855000   0.90480233   -6.8967287    288.03756  0.028073836  0.028203664            3 
  856000   0.90333788   -6.8823784    288.71096  0.028106597  0.028187063            3 
  857000   0.90097081   -6.9247392    288.48851   0.02805217  0.028170333            4 
  858000    0.9216393     -6.90469    288.79125  0.028048878  0.028153545            2 
  859000   0.91591985   -6.9111849    289.45437  0.028080555  0.028136747            7 
  860000   0.91320621   -6.9423963    289.54792  0.028056969  0.028119932            4 
  861000   0.91976476   -6.9544022    288.51164  0.027924084  0.028102817            7 
  862000   0.90030811   -6.9369764    289.36859  0.027974535  0.028085631            6 
  863000   0.92058157   -6.9448182      289.998  0.028002897  0.028068455           11 
  864000   0.90777774   -6.9405248    289.69378  0.027941144  0.028051509            6 
  865000   0.91021445   -6.9529593    289.63623  0.027903297  0.028034547            6 
  866000   0.89506898   -6.9361486    290.52508  0.027956609  0.028017837           10 
  867000   0.89812261   -6.9488533    290.33579   0.02790617  0.028001099           10 
  868000   0.90797136   -6.9337607    289.64041  0.027807259   0.02798448            3 
  869000   0.91346403   -6.9289745    290.55538  0.027863002  0.027967556           10 
  870000   0.91562719   -6.9361524    290.41637   0.02781766  0.027950678            6 
  871000   0.89704383   -6.9566074    290.98012   0.02783966  0.027933978            6 
  872000   0.91563378   -6.9409705     291.7057  0.027877074  0.027917279            5 
  873000   0.89555772   -6.9569507    291.64155  0.027839018  0.027900584            3 
  874000   0.92498941   -6.9288291    292.02647  0.027843867  0.027884106            6 
  875000   0.90892097   -6.9666072    291.34306  0.027746958  0.027867344            3 
  876000   0.90641552   -6.9279346     292.0822  0.027785598  0.027850492            4 
  877000   0.90758167   -6.9334212    291.24916  0.027674758  0.027833615            5 
  878000   0.90776903   -6.9552447     291.6239  0.027678806   0.02781665            6 
  879000   0.90635669   -6.9280496    292.16858  0.027698956  0.027799978            4 
  880000   0.88836705   -6.9346035    292.34802  0.027684472  0.027783346            3 
  881000   0.90292104   -6.9087957    292.39533  0.027657523  0.027766762            4 
  882000   0.90981577   -6.9535814    293.01461  0.027684676  0.027750333            9 
  883000   0.90113162   -6.9439978    293.83448  0.027730698  0.027734087            6 
  884000   0.90749047   -6.9443713    294.35792  0.027748672   0.02771787            3 
  885000   0.90510259   -6.9602165    293.68672  0.027654117  0.027701557            6 
  886000   0.89619191   -6.9265709    294.37447  0.027687592  0.027685033            3 
  887000   0.89051986   -6.9623903    294.75834  0.027692441  0.027668699            6 
  888000   0.90962044   -6.9490777    293.78341  0.027569765  0.027652465            3 
  889000   0.89491877   -6.9707077    293.96711  0.027555972  0.027635865            8 
  890000   0.88792453   -6.9752388     294.4285  0.027568212  0.027619167           14 
  891000   0.89758328   -6.9614069    294.34585  0.027529541  0.027602519            4 
  892000    0.9098421   -6.9521325    294.99068   0.02755892   0.02758603            4 
  893000   0.89082528   -6.9332374     295.6907  0.027593384   0.02756974            3 
  894000   0.90285038   -6.9375201    296.00677  0.027591981  0.027553492            6 
  895000   0.90422079   -6.9327505     295.3187  0.027497086  0.027537171            3 
  896000   0.88844648   -6.9398412    295.30914  0.027465508  0.027520751           10 
  897000   0.89556613   -6.9635103    295.89771  0.027489568  0.027504431           11 
  898000   0.89415177   -6.9717031    296.12692  0.027480226   0.02748807            3 
  899000   0.88670994   -6.9788496    295.41898  0.027384036  0.027471618            4 
  900000   0.90364034   -6.9596839    296.51979  0.027455536   0.02745544            4 
  901000   0.89837917   -6.9757257     296.1574  0.027391546  0.027439129            3 
  902000   0.89130892   -6.9578676    296.51386  0.027394112  0.027423028            4 
  903000     0.893992   -6.9260286    297.49349   0.02745418  0.027407241            3 
  904000    0.8991063   -6.9435118    297.59092  0.027432791  0.027391489            4 
  905000   0.90927337   -6.9697719    297.79799  0.027421546  0.027375731            5 
  906000   0.88229914   -6.9761065    298.14505  0.027423202  0.027359803            3 
  907000   0.91239216   -6.9603078    297.63212   0.02734584  0.027343867            6 
  908000   0.88332219   -6.9709235    297.93583  0.027343597  0.027328054            7 
  909000    0.8915525   -6.9765136    298.93601  0.027405208  0.027312211           11 
  910000   0.87801836   -6.9714898    298.67078  0.027350804  0.027296313            2 
  911000   0.88827591   -6.9416328    299.78864  0.027423037  0.027280714            4 
  912000   0.89282284   -6.9403985    300.74683  0.027480522  0.027265439            6 
  913000   0.87826878   -6.9728597    300.02952  0.027384951  0.027250266            5 
  914000   0.90408869   -6.9839197    300.01811  0.027353949  0.027234901            6 
  915000   0.89976103    -6.990185    299.77458  0.027301874  0.027219515            7 
  916000   0.88578203    -6.981624    301.29867  0.027410723  0.027204098            4 
  917000   0.88371316   -7.0039359    299.60723   0.02722712  0.027188502            6 
  918000   0.90229584   -6.9255763    300.93867  0.027318325   0.02717308            5 
  919000   0.87514372   -6.9850566    300.40691   0.02724038  0.027157601            9 
  920000   0.89022377   -6.9788815    300.23639  0.027195325  0.027141911            7 
  921000   0.88885161   -6.9761428    301.06063  0.027240375  0.027126389           10 
  922000   0.88363129   -7.0148379    300.42532  0.027153409   0.02711077            5 
  923000   0.89614414   -6.9881864    300.11189  0.027095693  0.027094985            5 
  924000   0.89248099   -6.9409058    301.96665  0.027233644  0.027079387            3 
  925000   0.88954079   -6.9927247    300.69836  0.027089942  0.027063685           11 
  926000   0.86987281   -6.9799387    301.21522  0.027107201  0.027047973            6 
  927000   0.87898002   -6.9730722    301.52738  0.027106021  0.027032054            4 
  928000   0.87806784   -6.9976247    301.73792  0.027095718  0.027016136            7 
  929000   0.88681365   -7.0089075    301.30953  0.027028124  0.027000069           17 
  930000   0.87835266   -6.9618056    301.91838  0.027053618  0.026984097            9 
  931000   0.89372295   -7.0055753    301.41335  0.026979355  0.026968158            5 
  932000     0.871514   -7.0100969    301.84827  0.026989294  0.026952135            4 
  933000   0.87195012   -7.0125166    302.44958  0.027014075  0.026936229            3 
  934000   0.87797534   -7.0037622    302.77371  0.027014072  0.026920598            4 
  935000   0.86520815   -6.9665198    302.79651  0.026987211  0.026904995            7 
  936000    0.8700998   -6.9981241    303.41543  0.027013482  0.026889411            6 
  937000   0.88019853    -6.991162    303.39667  0.026982984  0.026873714           27 
  938000   0.88859144   -6.9860713    303.12827  0.026930372  0.026857879           12 
  939000   0.88235777   -6.9880924    303.58945   0.02694262   0.02684208            6 
  940000   0.86838194   -6.9597138    303.97576  0.026948206  0.026826235            9 
  941000   0.88152337   -6.9782943    303.10433  0.026842395  0.026810463            2 
  942000   0.85296503   -7.0206964    302.85482  0.026791828  0.026794716            6 
  943000   0.87425113   -6.9694407    303.89541  0.026855374  0.026778903            4 
  944000   0.88846634   -6.9961653    304.14844  0.026849262  0.026763179            5 
  945000   0.86857893    -6.993772    304.07755  0.026814599  0.026747673            7 
  946000   0.85960035   -7.0168952    303.80946  0.026762637   0.02673211            6 
  947000   0.88797867   -7.0044344    304.18309  0.026767255  0.026716248            7 
  948000   0.88228247   -7.0139329     304.2074  0.026741157  0.026700421           10 
  949000   0.86995274   -7.0168274    305.08729  0.026790244  0.026684782            7 
  950000   0.87884707   -7.0093056     305.5102   0.02679914  0.026669137            5 
  951000   0.88639513   -7.0167739    304.58098  0.026689536  0.026653364            3 
  952000   0.86711124   -7.0140891     305.2227  0.026717673  0.026637336            3 
  953000    0.8815936   -6.9886687     305.8606  0.026745418  0.026621414            8 
  954000   0.85340866   -7.0278848    304.74101  0.026619585  0.026605475            4 
  955000   0.87784529   -7.0050751     305.7666  0.026681204  0.026589505            7 
  956000    0.8692754   -6.9947779    305.52361  0.026632113  0.026573657            7 
  957000   0.87772222   -7.0153344     305.9863  0.026644575  0.026557816            5 
  958000   0.86683842   -6.9943497    305.65607  0.026588037  0.026541787            5 
  959000   0.87007537   -7.0122014    306.22657  0.026609886  0.026525777            9 
  960000    0.8573885   -7.0134709    306.41809  0.026598792  0.026509983            7 
  961000   0.86305034    -6.973745     307.1862  0.026637721  0.026494175            4 
  962000    0.8822387   -6.9985169    306.61033  0.026560146  0.026478407            2 
  963000   0.87565143    -7.016201    306.58553   0.02653042  0.026462561            3 
  964000   0.88038769   -7.0011809    305.80396  0.026435335  0.026446703            3 
  965000   0.89529468    -7.005867    306.84659  0.026497979  0.026430881            7 
  966000   0.85866344    -7.036905    306.58493  0.026447975  0.026414813            6 
  967000   0.85758782   -6.9967726    306.33629  0.026399198  0.026398948            5 
  968000   0.85341918   -6.9941574    306.96852  0.026426354  0.026383069            5 
  969000   0.85405708   -7.0388699    307.28919  0.026426659  0.026367024            5 
  970000   0.85234177   -7.0189551    306.96408  0.026371485  0.026350985           10 
  971000   0.86336114   -6.9959198    307.92691  0.026426957  0.026335017            6 
  972000   0.86263827   -7.0328828    307.81129  0.026389857  0.026319019           10 
  973000   0.85350423   -7.0070804    307.96853  0.026376201   0.02630309            9 
  974000   0.85467478   -7.0158568    307.59379  0.026317059  0.026287209            7 
  975000   0.85016799   -7.0316135    308.29774  0.026350234  0.026271418            6 
  976000   0.86594394   -7.0151061    307.76662  0.026277887  0.026255736           10 
  977000   0.85307564   -6.9941272    308.60475  0.026322479  0.026240047            3 
  978000   0.86997248   -7.0261327     308.1454  0.026256425   0.02622436            5 
  979000   0.85885742   -7.0409914    308.02948  0.026219738  0.026208629            5 
  980000   0.84917221   -7.0351193    308.77818  0.026256648  0.026192901            9 
  981000   0.85240439   -7.0451279    308.64359   0.02621845  0.026177103            5 
  982000   0.84049803   -7.0230335    309.39336  0.026255376  0.026161519            9 
  983000   0.86376443   -7.0217527    310.19166  0.026296343  0.026146049            4 
  984000   0.86404321   -7.0285834    310.43493  0.026290221  0.026130639            8 
  985000   0.85623961   -7.0524066    309.02509  0.026144255  0.026115086            6 
  986000   0.86773538   -7.0159125    309.02407  0.026117653  0.026099363            8 
  987000   0.88275909   -7.0551688    308.74956  0.026068014  0.026083614            4 
  988000   0.87394014    -7.030358     310.3235  0.026174384  0.026068004           11 
  989000   0.85553577   -7.0153469    310.55438  0.026167373  0.026052365            6 
  990000   0.86846972   -7.0360223     310.4658  0.026133485  0.026036772            7 
  991000   0.85177494   -7.0106959    310.35464  0.026097766  0.026021011            7 
  992000   0.85075614   -7.0146992     310.8417  0.026112374  0.026005163            2 
  993000   0.85616946   -7.0233962    310.64831  0.026069848    0.0259894            5 
  994000   0.86646943   -7.0247016    310.96161  0.026069887   0.02597373            2 
  995000   0.84947256   -7.0518426    310.53642  0.026008075  0.025958034            3 
  996000   0.85629212   -7.0166639    311.50944  0.026063374  0.025942376            4 
  997000    0.8552167   -7.0371424    311.43329  0.026030867  0.025926803            6 
  998000   0.86604363   -7.0075855    312.01608  0.026053447  0.025911349            7 
  999000   0.86824364   -7.0515803    312.11611  0.026035711  0.025895831            8 
 1000000    0.8504515    -7.032596    311.56591  0.025963826  0.025880206            4 
 1001000    0.8652638   -7.0377157      311.617  0.025942141  0.025864571            4 
 1002000   0.83803414   -7.0433188    311.37973  0.025896518  0.025848748            7 
 1003000    0.8719351   -7.0245099    312.30371  0.025947467  0.025832855            4 
 1004000   0.86873652   -7.0530313    312.06005  0.025901398  0.025817123            8 
 1005000   0.83664616   -7.0405537    311.53976  0.025832484  0.025801329           12 
 1006000    0.8463975   -7.0676494    311.98787  0.025843926  0.025785559            5 
 1007000   0.86001413   -7.0357721    313.24978   0.02592269  0.025769756            4 
 1008000   0.86110073   -7.0949044    310.93763  0.025705822   0.02575392            8 
 1009000   0.83718629   -7.0337196    312.56902  0.025815083  0.025737899           10 
 1010000   0.84625072   -7.0693429    312.36606  0.025772777  0.025721882            8 
 1011000   0.84923425   -7.0305017    312.64891  0.025770599  0.025705968            7 
 1012000    0.8553166   -7.0999436    312.98682   0.02577296  0.025689934            4 
 1013000   0.84396186   -7.0435183    312.53677  0.025710495   0.02567378            7 
 1014000   0.84684343   -7.0385369    312.96922  0.025720679  0.025657529           13 
 1015000   0.85418035   -7.0388675    312.22675   0.02563438  0.025641446            5 
 1016000   0.84284546   -7.0440056    312.89023  0.025663569  0.025625516            5 
 1017000   0.84049512   -7.0486189    312.12772  0.025575854  0.025609383            6 
 1018000   0.86150961    -7.076509    313.27252  0.025644443  0.025593261            3 
 1019000   0.82532647   -7.0707573    312.34308  0.025543268  0.025577178            3 
 1020000   0.84799941   -7.0568431    312.48369  0.025529713     0.025561            4 
 1021000   0.84844311   -7.0582835    312.55946  0.025510893  0.025544921            4 
 1022000   0.84013693   -7.0617906     312.7478  0.025501288  0.025528986            6 
 1023000   0.83118604   -7.0445773     313.5741   0.02554367  0.025512901            4 
 1024000   0.82732376   -7.0895806    313.15259  0.025484423  0.025496728           10 
 1025000   0.84905603   -7.0792044    314.03002  0.025530896   0.02548071            9 
 1026000   0.84462094   -7.0721369    313.38662  0.025453754  0.025464614            8 
 1027000   0.84339581   -7.0854442    313.47908  0.025436472   0.02544838            6 
 1028000   0.83412211   -7.0638159    313.91518   0.02544708  0.025432224            7 
 1029000   0.85545462   -7.0544207    313.98077  0.025427662  0.025416217            9 
 1030000   0.85767198   -7.1054632    314.30322  0.025429063  0.025400156            5 
 1031000   0.84473084   -7.0912824    314.39457  0.025411782  0.025384199            4 
 1032000   0.85150762   -7.0574915    314.27311  0.025377351  0.025368241            6 
 1033000   0.84375606   -7.0510454    315.28695  0.025434572  0.025352379           10 
 1034000   0.85135284   -7.0823502    314.77382  0.025368619  0.025336514            4 
 1035000   0.83466731   -7.0591318    315.07143   0.02536807  0.025320649            5 
 1036000   0.83500577   -7.0603602    315.58486  0.025384883  0.025304833            4 
 1037000   0.82366875   -7.0669373    315.27787  0.025335733  0.025289096            6 
 1038000    0.8466867    -7.080772    316.56837  0.025414931  0.025273342            3 
 1039000   0.86716393   -7.0745507     316.7244  0.025402983  0.025257676            5 
 1040000   0.83550511   -7.0888809    315.28059  0.025262868  0.025241892            7 
 1041000    0.8573395   -7.0623883    316.24527  0.025315824  0.025226058            4 
 1042000   0.82987197   -7.1368215    315.10059  0.025199983  0.025210199            3 
 1043000   0.84700469   -7.0772238     316.4927  0.025287049  0.025194244            9 
 1044000   0.83910492   -7.0704084    316.87137  0.025293053  0.025178453            5 
 1045000   0.82971471   -7.1224748    316.09585  0.025207006  0.025162564            4 
 1046000   0.81501652   -7.0808613    316.50545  0.025215539  0.025146688            4 
 1047000   0.85051089    -7.107736    316.33872  0.025178185  0.025130866           12 
 1048000   0.84608588   -7.1013413    317.04755  0.025210524  0.025115172            8 
 1049000   0.82192061   -7.0945539    317.05051  0.025186726  0.025099461            7 
 1050000   0.84303014   -7.0801049    317.23878  0.025177681  0.025083677            7 
 1051000   0.84192942   -7.0860307    316.42048  0.025088842  0.025067827            6 
 1052000   0.82643337   -7.0848881    318.03649  0.025193005  0.025052102            4 
 1053000   0.83198273   -7.0715562    317.81518  0.025151565  0.025036475            7 
 1054000   0.86520282   -7.1181536    317.39286  0.025094312  0.025020742            7 
 1055000   0.83608397   -7.0718022    317.96196  0.025115479  0.025005086            5 
 1056000   0.81685818   -7.0724891    317.28422  0.025038212  0.024989403            4 
 1057000   0.83132835   -7.0608848    317.33836  0.025018792  0.024973592            7 
 1058000   0.84275435   -7.0899681    317.99494   0.02504686  0.024957762            7 
 1059000   0.81031204   -7.0843312    317.70839   0.02500066  0.024941851            8 
 1060000   0.82994125   -7.0865691    317.84526  0.024987835  0.024925979            7 
 1061000   0.86012988   -7.0835817    318.44082   0.02501106  0.024910055           13 
 1062000   0.82316509   -7.0680074    317.92289  0.024946868  0.024894292            7 
 1063000   0.83215984   -7.0847688    318.02839   0.02493167  0.024878455            3 
 1064000   0.83618782   -7.0788557    318.39895  0.024937261  0.024862616           11 
 1065000   0.84274107    -7.048425    318.98601  0.024959782  0.024846878            9 
 1066000   0.83181008   -7.0902874    318.36333   0.02488769  0.024831242            8 
 1067000   0.83305357   -7.1082023    319.11068  0.024922734  0.024815602            7 
 1068000    0.8332877   -7.1092572    319.47923  0.024928155  0.024799944            4 
 1069000   0.82578863   -7.0944882    319.65133  0.024918252  0.024784327            9 
 1070000   0.82198395    -7.068406    319.06547  0.024849336  0.024768712            7 
 1071000   0.82837677   -7.1211697    319.90009  0.024891075  0.024753158            7 
 1072000   0.83408231    -7.127803    318.97729   0.02479612  0.024737606            4 
 1073000    0.8312736   -7.0718208      320.171  0.024865719  0.024722026            4 
 1074000    0.8026865   -7.1130465    319.56099  0.024795235   0.02470654            4 
 1075000   0.83198596    -7.104425    320.22634  0.024823747  0.024691014            7 
 1076000   0.84739679   -7.0735788     319.6111  0.024753028  0.024675464           10 
 1077000   0.82611991   -7.0922181    320.07923  0.024766266  0.024659888            4 
 1078000   0.82882243   -7.1210056    319.44814  0.024694507  0.024644304            6 
 1079000    0.8264193   -7.0971546    320.36538   0.02474246   0.02462873            9 
 1080000   0.82065295   -7.1195584    320.89446  0.024760375  0.024613153            5 
 1081000   0.83395161   -7.1344352    320.16943  0.024681578   0.02459761            7 
 1082000   0.83283772   -7.0865148    321.71085  0.024777484  0.024582093            6 
 1083000   0.82251864    -7.116391    320.60647  0.024669626  0.024566646            8 
 1084000   0.79966267   -7.1006884    320.94416  0.024672829  0.024551249           16 
 1085000   0.81173808   -7.1271472    321.69386   0.02470767   0.02453576            8 
 1086000   0.80509073   -7.1138966    320.78945   0.02461552  0.024520299           12 
 1087000   0.82546782   -7.1414731    321.43938    0.0246427  0.024504795            4 
 1088000    0.8256366   -7.1185188    321.44746  0.024620669  0.024489389            6 
 1089000   0.82449344   -7.0993514    321.69266  0.024616825  0.024474062            4 
 1090000   0.81498053   -7.1073797    322.07732  0.024623648  0.024458744            7 
 1091000   0.81802357   -7.1085494    321.65684  0.024568961  0.024443282           11 
 1092000   0.82431005   -7.1062252    322.15037  0.024584125  0.024427856            7 
 1093000   0.81846093   -7.1216562    322.53063  0.024590624  0.024412462            3 
 1094000   0.82157464   -7.1070329    322.58328  0.024572157  0.024397063            5 
 1095000   0.82410194   -7.1145422    322.20878  0.024521216   0.02438159            6 
 1096000   0.80948037   -7.1367557    322.40769  0.024513966  0.024366023            4 
 1097000    0.8129914    -7.147751    322.60115  0.024506317  0.024350487           15 
 1098000   0.79793807   -7.1231063     322.9796   0.02451272  0.024334963            5 
 1099000   0.80926736   -7.1452967    322.69376  0.024468741  0.024319428            9 
 1100000   0.82955099   -7.1228863    323.38094  0.024498556   0.02430411            5 
 1101000   0.80135559   -7.1258499    323.16112  0.024459667  0.024288702            9 
 1102000   0.81669205   -7.1166258    322.51748  0.024388799  0.024273251           17 
 1103000   0.82571517   -7.1305342    322.38049  0.024356338  0.024257784           14 
 1104000   0.83731721   -7.1039613    323.94035  0.024452019   0.02424246            7 
 1105000   0.79770757   -7.1112814    322.25294  0.024302635  0.024227152            8 
 1106000   0.81995589   -7.1215075    323.63987  0.024385162   0.02421174            3 
 1107000   0.81795194   -7.1488142    323.06961  0.024320205  0.024196259           13 
 1108000   0.81220823   -7.1484131    323.54278  0.024333843  0.024180746            6 
 1109000   0.80952714   -7.1441633    323.20428  0.024286465  0.024165076            8 
 1110000   0.81347465   -7.1604047    323.69222  0.024301218  0.024149565            6 
 1111000   0.80853176   -7.1330682    323.16036  0.024239451   0.02413418            9 
 1112000   0.81274384   -7.1532731    323.94558  0.024276497  0.024118677            4 
 1113000   0.80106542   -7.1419591    323.43639  0.024216561  0.024103156            8 
 1114000   0.80421617   -7.1370494    323.01091  0.024162994  0.024087532           12 
 1115000   0.80132859   -7.1409743    323.59315   0.02418484  0.024071983           13 
 1116000    0.8285483   -7.1526934    324.07976  0.024199504  0.024056456           18 
 1117000    0.8173554   -7.1589262     323.6638  0.024146807  0.024040778           12 
 1118000   0.80614213   -7.1714129    323.98538  0.024149178  0.024025002           13 
 1119000   0.79772307   -7.1593932    324.08506  0.024135021  0.024009333            9 
 1120000     0.805759    -7.162833    322.81202  0.024018751  0.023993575            8 
 1121000   0.81322843   -7.1254288    323.85582  0.024074919  0.023977801            4 
 1122000    0.8016811   -7.1407695    323.36072  0.024016691   0.02396201           11 
 1123000   0.79014589   -7.1348558    323.93509  0.024037926  0.023946119            7 
 1124000   0.80554762   -7.1385826    323.36887  0.023974561  0.023930309            9 
 1125000   0.81137038   -7.1534229    324.08969  0.024006644  0.023914451            7 
 1126000   0.82220375   -7.1688911    324.49965  0.024015664  0.023898681            8 
 1127000   0.79935274   -7.1516801    323.52397   0.02392221  0.023882839            6 
 1128000   0.83338981   -7.1443273    324.01316  0.023937142  0.023867028            7 
 1129000   0.79931462   -7.1487541    324.09234  0.023921785  0.023851084           13 
 1130000   0.81437985   -7.1636694     323.4621  0.023854137  0.023835186            4 
 1131000   0.80775569   -7.1578298    324.15899  0.023884393  0.023819227            5 
 1132000   0.79633874   -7.1744154    324.03607  0.023854246  0.023803257            6 
 1133000   0.79655955   -7.1484312     323.6819  0.023807142  0.023787276            5 
 1134000   0.79093823   -7.1777839    324.36234  0.023836151  0.023771482            5 
 1135000   0.77927941   -7.1396868    324.46275  0.023822522  0.023755529            4 
 1136000   0.79575638   -7.1671007    323.83277  0.023755338  0.023739608            8 
 1137000   0.80798284   -7.1598803    324.62421  0.023792452   0.02372375            6 
 1138000   0.80911344   -7.1548285    324.47102  0.023760326  0.023707852            8 
 1139000    0.8027553    -7.129285    324.36645  0.023731816  0.023692031            4 
 1140000   0.79917869   -7.1601991    324.77145  0.023740603  0.023676216           12 
 1141000   0.81234258   -7.1541914    325.32194  0.023760001  0.023660339            7 
 1142000   0.79734488   -7.1593573    325.00539  0.023716097  0.023644496            6 
 1143000   0.81615227   -7.1619772    324.13124  0.023631616  0.023628583           16 
 1144000   0.78843854   -7.1598127    324.80989  0.023660394  0.023612689            9 
 1145000   0.80945469   -7.1577576     325.6962  0.023704236  0.023596781            7 
 1146000   0.78551123     -7.19109    324.48651  0.023595587  0.023580932            6 
 1147000   0.80219091    -7.172053    325.24034  0.023629783  0.023564961            4 
 1148000    0.8052521   -7.1674299    325.22783  0.023608292  0.023548896            7 
 1149000   0.79128424   -7.1460387    324.88615  0.023562964  0.023532937            6 
 1150000   0.79469398   -7.1759237    325.39875   0.02357962  0.023517058           10 
 1151000   0.78357017   -7.1664473    324.89523  0.023522678  0.023501191            8 
 1152000   0.79731671   -7.1559719    325.17738  0.023522669  0.023485335            7 
 1153000   0.79718475   -7.1793257    325.92342  0.023556188  0.023469433           10 
 1154000   0.80719684   -7.1580367    324.79298  0.023454143  0.023453547            7 
 1155000   0.78569891   -7.1933201    326.13594  0.023530732  0.023437601            5 
 1156000    0.7912458   -7.1974938    325.67672  0.023477272  0.023421599           12 
 1157000   0.78881284   -7.1633636    326.22846   0.02349672  0.023405643            4 
 1158000   0.80787639   -7.1980158    325.71113    0.0234392  0.023389733           16 
 1159000   0.79035851   -7.1599914    326.05865  0.023443964  0.023373863            7 
 1160000    0.7808656   -7.1631009    325.78594  0.023404162  0.023357959            3 
 1161000   0.79837669   -7.1709286    326.37273  0.023426122  0.023342086            6 
 1162000   0.80808961   -7.1865427     326.7142   0.02343045  0.023326268            8 
 1163000   0.77678672   -7.1732333    326.12654  0.023368196  0.023310346           15 
 1164000   0.78808319   -7.1510343    326.56367  0.023379415  0.023294519            5 
 1165000   0.80676414   -7.1617675    325.50803  0.023283836  0.023278657            5 
 1166000   0.76542703   -7.1568124    326.16864  0.023311081   0.02326273            3 
 1167000   0.78409201   -7.1891496    326.85888  0.023340394  0.023246807            4 
 1168000   0.78727375   -7.1773614     326.6843  0.023307955  0.023230904            3 
 1169000   0.79736845   -7.1988377      325.867  0.023229755  0.023214908           13 
 1170000   0.78517187   -7.1761929    326.85157  0.023280027  0.023198893            6 
 1171000   0.78327292    -7.195882    326.59861  0.023242144  0.023182939           10 
 1172000   0.80661281   -7.1485002    326.25146  0.023197629  0.023167057            8 
 1173000   0.79773616   -7.2230747    326.89594  0.023223639  0.023151177            5 
 1174000   0.77872327   -7.2098827    327.17806  0.023223883  0.023135308           18 
 1175000   0.77495497   -7.2006279    326.93758  0.023187063  0.023119547            6 
 1176000   0.77550116    -7.182205    326.42754  0.023131203  0.023103664            5 
 1177000   0.77064153   -7.1669327    327.33996  0.023176151  0.023087757            4 
 1178000   0.77680134   -7.1781318    327.03548  0.023134938  0.023071866            5 
 1179000   0.78606582   -7.1679206    327.18872  0.023126146  0.023055925            6 
 1180000   0.76949053   -7.1748293    326.94591  0.023089401  0.023040023            6 
 1181000   0.78655166    -7.203664    327.17302  0.023085875  0.023024071           13 
 1182000   0.78983447   -7.2158191    326.55647  0.023022876  0.023008067            9 
 1183000   0.76618646   -7.2061289    326.65333  0.023010237  0.022992088            5 
 1184000   0.79916693   -7.1899329     327.1028  0.023022438  0.022976217            6 
 1185000   0.76652302   -7.1781363    328.02668   0.02306798  0.022960361            5 
 1186000   0.76580067   -7.2009808    327.52159   0.02301304   0.02294445            7 
 1187000   0.77402118   -7.1831825     327.6135  0.023000105  0.022928543            7 
 1188000   0.79591104   -7.1636312    327.53119  0.022974971  0.022912556            6 
 1189000   0.78014316   -7.2241629    326.89657   0.02291117  0.022896628           13 
 1190000    0.7894911    -7.198378    327.68343  0.022947019  0.022880727            8 
 1191000   0.78656364   -7.1592287    328.40281  0.022978086  0.022864927            6 
 1192000   0.77724494    -7.189988     327.2718   0.02287974  0.022849214            5 
 1193000   0.78697604   -7.2183647    327.93426  0.022906836  0.022833349            4 
 1194000    0.7794715   -7.1973303    328.33259  0.022915452  0.022817549            7 
 1195000   0.78541491   -7.2037106    328.02142  0.022874576  0.022801614            7 
 1196000   0.77549585   -7.1941762    327.75371  0.022836797   0.02278564           22 
 1197000   0.76737016   -7.1879618    328.70975  0.022884277  0.022769644            9 
 1198000   0.75987563   -7.1674314    328.28437  0.022835585  0.022753847            9 
 1199000   0.76514633   -7.1995811    328.37189  0.022822622  0.022738038           10 
 1200000   0.78111543   -7.2207581    328.34486  0.022801726  0.022722146            4 
 1201000   0.75919859   -7.2090336    328.67013   0.02280531  0.022706207            6 
 1202000    0.7827803   -7.2221155    328.36695  0.022765318  0.022690262            8 
 1203000   0.77763465   -7.1876894    328.93518  0.022785757  0.022674409            6 
 1204000   0.76794237   -7.2380518    328.65181  0.022747218  0.022658607            8 
 1205000   0.75435164   -7.1896203    328.48377   0.02271672  0.022642823            3 
 1206000   0.78661006   -7.2044725    329.26516  0.022751877  0.022627088            5 
 1207000   0.77119285   -7.2137057    328.24193  0.022662381  0.022611517            8 
 1208000   0.75021122   -7.2167842    328.68258  0.022674019  0.022595745            9 
 1209000   0.76854108   -7.2240686    329.55796  0.022715602  0.022579926            6 
 1210000   0.74043763   -7.2414675    328.60181  0.022630979  0.022564109            7 
 1211000    0.7791717   -7.2249713     329.3057  0.022660728  0.022548365            9 
 1212000   0.76498511   -7.2460228    329.39806  0.022648382  0.022532622           12 
 1213000   0.78522022   -7.2281317    329.11323  0.022610142  0.022516889            7 
 1214000   0.76794626   -7.2202958    328.97126  0.022581772  0.022501162           13 
 1215000   0.78049046   -7.2305302    329.03325  0.022567438  0.022485363            6 
 1216000   0.77532738   -7.2584788    329.70198  0.022594708  0.022469588           13 
 1217000   0.77092725   -7.2346303    329.51869  0.022563591  0.022453872            8 
 1218000   0.76580682   -7.2119943     329.5247  0.022545478  0.022438258            7 
 1219000   0.77038022   -7.2254914    329.71695  0.022540125  0.022422622           19 
 1220000   0.78727928   -7.2274794    329.16349  0.022483845  0.022406934           20 
 1221000   0.77863377   -7.2418306    329.68519  0.022501037  0.022391255            6 
 1222000   0.76147314   -7.2197718    330.28203  0.022523324  0.022375615           13 
 1223000   0.75136643   -7.2304541    329.57516  0.022456743  0.022359868           17 
 1224000   0.78116889   -7.2272512    330.01687  0.022468469   0.02234424            8 
 1225000   0.76136606   -7.2231019    330.28857   0.02246861   0.02232868            6 
 1226000   0.75422212   -7.2214428    330.96525  0.022496279  0.022313151            6 
 1227000   0.74075148   -7.2015483    330.89415  0.022473116  0.022297682            3 
 1228000   0.74300951   -7.2384563    330.12731  0.022402776  0.022282214            8 
 1229000   0.75981772   -7.2375458    330.32328  0.022397835  0.022266654           19 
 1230000    0.7730228    -7.237334    330.30388  0.022378312  0.022251104           12 
 1231000   0.77254446   -7.2472245    330.27611  0.022358253  0.022235476            9 
 1232000   0.76313593   -7.2190255    330.09619  0.022327935  0.022219822            6 
 1233000   0.77452925   -7.2406208    330.13192  0.022312241  0.022204066            4 
 1234000   0.74513078   -7.2219207    330.16644  0.022296491  0.022188348           10 
 1235000   0.75253982   -7.2541949    329.84203  0.022256547  0.022172692            5 
 1236000   0.76986374   -7.2275378    330.54229  0.022285753  0.022157033           12 
 1237000   0.76706909   -7.2244638    330.05279  0.022234761  0.022141431            4 
 1238000   0.73821474   -7.2555417     330.3421  0.022236275  0.022125794            6 
 1239000   0.77106911   -7.2511019    330.20629  0.022209194  0.022110081           12 
 1240000   0.76653049   -7.2727486     330.8464  0.022234301  0.022094445            8 
 1241000   0.76518951   -7.2400732    331.31846  0.022248084   0.02207885            8 
 1242000   0.76297292   -7.2511825    331.13472  0.022217842  0.022063237           21 
 1243000   0.74899251    -7.259049    330.89471  0.022183877  0.022047613            8 
 1244000   0.77139431   -7.2496348    331.38969  0.022199202  0.022032041           10 
 1245000   0.76568939   -7.2478887    331.40046  0.022182092  0.022016531            6 
 1246000   0.75957303   -7.2525794    330.96622  0.022135247  0.022000986           17 
 1247000   0.75290531    -7.251403    331.24793  0.022136323  0.021985478            7 
 1248000   0.75677056   -7.2417097    331.19059  0.022114756  0.021969992           10 
 1249000   0.74190794   -7.2709557    331.04934  0.022087626  0.021954527            5 
 1250000   0.75201034   -7.2635821    331.50354  0.022100236   0.02193899            4 
 1251000   0.75143147   -7.2643716    331.09149  0.022055122    0.0219235            9 
 1252000   0.74652196   -7.2684782    330.75946  0.022015406  0.021907882           14 
 1253000    0.7732998   -7.2441744    332.11756  0.022088159  0.021892359           18 
 1254000    0.7563058   -7.2483292    331.43258  0.022025026  0.021876849            6 
 1255000   0.72833415   -7.2649097    331.36873  0.022003236  0.021861425            8 
 1256000   0.73555487     -7.26448    331.58553  0.022000102  0.021846108           10 
 1257000   0.75142558   -7.2709984    331.08022    0.0219491  0.021830706            4 
 1258000   0.75672211    -7.270847     332.1576  0.022003021  0.021815326           11 
 1259000   0.74061731   -7.2844613    331.64439  0.021951574  0.021799874            7 
 1260000    0.7499465   -7.2733108    331.63084  0.021933256  0.021784536            9 
 1261000   0.75071605   -7.2829874    331.75638   0.02192416  0.021769173            6 
 1262000   0.76023363   -7.3164962    332.70976  0.021969741  0.021753835            7 
 1263000   0.75127708   -7.2413759    332.77086  0.021956378   0.02173856            8 
 1264000   0.76131758   -7.2810842    332.46398  0.021918775  0.021723281            6 
 1265000   0.74987492   -7.2706805    332.49544   0.02190352   0.02170795            3 
 1266000   0.75030988   -7.2565258    331.64926   0.02183052  0.021692602            8 
 1267000    0.7451521   -7.2738178    332.19978  0.021849499  0.021677283           21 
 1268000    0.7591819   -7.2926921    332.51682  0.021853103  0.021662002            5 
 1269000   0.73129071   -7.2892038    332.21285  0.021815921  0.021646702            5 
 1270000    0.7530726   -7.2870097    332.65559  0.021827794  0.021631364           11 
 1271000   0.75072246   -7.2702058    332.81915  0.021821345  0.021616037            6 
 1272000   0.75041707   -7.2715178    332.92616    0.0218112  0.021600702           15 
 1273000   0.74660519   -7.2824427    331.72334  0.021715327  0.021585409           14 
 1274000   0.74778724   -7.2680559    332.27431  0.021734322   0.02157011            4 
 1275000   0.75844142   -7.3117142    332.51875  0.021733252   0.02155468            7 
 1276000   0.74125293    -7.279135    332.69485   0.02172772  0.021539262           11 
 1277000   0.74449045   -7.2771246    331.63577  0.021641593  0.021523793            6 
 1278000   0.74152672   -7.2546625    332.87237  0.021705293  0.021508381            6 
 1279000   0.74996715   -7.2772472    332.88182  0.021688938  0.021493048            7 
 1280000    0.7514693    -7.268837    333.06878  0.021684165  0.021477782            9 
 1281000   0.76860711   -7.2929636    333.30792  0.021682794   0.02146259            7 
 1282000   0.75547289   -7.2712183    333.06962  0.021650392  0.021447355            8 
 1283000   0.72189134    -7.279748     332.2892  0.021582826  0.021432049           11 
 1284000    0.7368482   -7.2827592    333.25435  0.021628657  0.021416788            8 
 1285000   0.75639302   -7.2891539    333.25897  0.021612125  0.021401501           20 
 1286000   0.72956264   -7.2698046    333.36988  0.021602506   0.02138617            6 
 1287000   0.72933904   -7.2996886    333.03972  0.021564344  0.021370873           13 
 1288000   0.74622464   -7.2834863    333.50224  0.021577526   0.02135561           21 
 1289000    0.7574492   -7.2934307    333.66825  0.021571519  0.021340429            7 
 1290000   0.74864251   -7.3159203    332.27173  0.021464582   0.02132522            5 
 1291000   0.73098394   -7.3260281     333.0671  0.021499296   0.02131001            8 
 1292000   0.73139204   -7.2936346     333.3156  0.021498684  0.021294794           18 
 1293000   0.74575976   -7.2808402    333.50465  0.021494241  0.021279624            7 
 1294000   0.73338163   -7.3063006    334.17087  0.021520535  0.021264407           24 
 1295000   0.73288386   -7.3202259     333.2766  0.021446371  0.021249279            9 
 1296000   0.76010689   -7.2815787    333.92153  0.021471292  0.021234195            8 
 1297000   0.73928055   -7.2943476    333.65775  0.021437789  0.021219106           11 
 1298000   0.73031322   -7.3023164    333.66649  0.021421834  0.021204005           31 
 1299000    0.7462824   -7.3145264    333.98458  0.021425749  0.021188892           12 
 1300000   0.73909697   -7.2908153    334.69719  0.021454948  0.021173801            9 
 1301000    0.7503917   -7.2991084    334.37091  0.021417558  0.021158756           19 
 1302000   0.72720177   -7.3066818    333.51676  0.021346439  0.021143744           14 
 1303000   0.73467101   -7.2880545    334.15632  0.021370959    0.0211287           12 
 1304000   0.73503348   -7.2983981    334.16821   0.02135533  0.021113609           10 
 1305000   0.73087874    -7.294596    335.26351  0.021408909  0.021098593            9 
 1306000   0.73064502      -7.2887    335.07053  0.021380202  0.021083638            6 
 1307000   0.73298245   -7.2799643    334.97622  0.021357831  0.021068778           15 
 1308000   0.74301476   -7.2908088    334.52778  0.021312932  0.021053816            4 
 1309000   0.74115008   -7.3050504     334.8419  0.021316647  0.021038834            5 
 1310000   0.72938638   -7.2887393    334.83475   0.02129992  0.021023961            9 
 1311000   0.73217345   -7.3021718    333.94669  0.021227224   0.02100905            6 
 1312000   0.73565472    -7.312836    334.41186  0.021240591  0.020994208           11 
 1313000   0.73748263   -7.2988885     335.0327  0.021263817  0.020979346            9 
 1314000   0.73057862   -7.3094069    335.06428  0.021249637  0.020964445           15 
 1315000    0.7248505   -7.3111092    335.28107  0.021247216  0.020949546           11 
 1316000   0.72571453   -7.3118013    334.57516  0.021186371  0.020934628            6 
 1317000    0.7084137   -7.3095422    334.68769  0.021177404  0.020919722           13 
 1318000    0.7218476   -7.3134118    334.64712  0.021158771  0.020904802            7 
 1319000   0.71704721   -7.3080454    334.66364  0.021143773  0.020889966           10 
 1320000   0.73368918   -7.2871876    335.64526  0.021189726  0.020875179            7 
 1321000   0.73113666   -7.3260793    335.25601   0.02114913   0.02086041            7 
 1322000   0.72715159   -7.3019323    334.95636  0.021114243  0.020845588            4 
 1323000    0.7127632   -7.3100801     335.3106  0.021120597  0.020830773            8 
 1324000   0.72900818   -7.3215778    334.59753  0.021059764  0.020815915            6 
 1325000   0.72748149   -7.3298536    335.01647  0.021070218  0.020801028            4 
 1326000   0.72099544   -7.3111678    335.75322   0.02110063  0.020786191            8 
 1327000    0.7364901   -7.3169649    335.61628  0.021076129  0.020771399           15 
 1328000   0.72923368   -7.3196657    335.47451  0.021051363  0.020756609            9 
 1329000   0.72222611    -7.322988    334.62646  0.020982347  0.020741816           14 
 1330000   0.71115783   -7.3308197    334.82444  0.020978975  0.020727052           11 
 1331000   0.72889658   -7.3214734    335.27353   0.02099133  0.020712238           10 
 1332000   0.72189592   -7.3126391     335.3264  0.020978879  0.020697416            5 
 1333000   0.71301116   -7.3222101    336.38232  0.021029152  0.020682679           10 
 1334000   0.72164984   -7.2992171    337.38538  0.021076048  0.020668001            7 
 1335000   0.69307598   -7.3042142    336.28544    0.0209916  0.020653337           11 
 1336000   0.72102799   -7.3131274    335.97452  0.020956495  0.020638656            8 
 1337000    0.7276007   -7.3017482    336.23615  0.020957127  0.020623989            9 
 1338000   0.71955492   -7.3350351    336.86561  0.020980668  0.020609369            6 
 1339000   0.70537636   -7.3228966    335.66942  0.020890554  0.020594734            7 
 1340000   0.72325668   -7.3487154    335.30097   0.02085205  0.020580088            9 
 1341000   0.71954427   -7.3333037    336.25208  0.020895605   0.02056545            6 
 1342000   0.69798348   -7.3377418    337.04247  0.020929115  0.020550894            5 
 1343000   0.71881983   -7.3137832    336.06575  0.020852926  0.020536314            6 
 1344000   0.70871648   -7.3484315    336.46071  0.020861899  0.020521717            8 
 1345000   0.71431491   -7.3064105    336.74592   0.02086406  0.020507115            9 
 1346000    0.7194164   -7.3349178    336.49965  0.020833312  0.020492548            8 
 1347000   0.72220314    -7.289999     337.6993  0.020892062  0.020478101            8 
 1348000   0.71459841    -7.307121    336.82549  0.020822545  0.020463591            9 
 1349000    0.7155355   -7.3290015    336.33541  0.020776835  0.020449025            6 
 1350000   0.71407238   -7.3174645    336.54204    0.0207742  0.020434538            8 
 1351000    0.7252824    -7.320074    336.89596  0.020780654  0.020420038           12 
 1352000   0.72398048   -7.3251746     336.8471  0.020762272  0.020405536           16 
 1353000   0.73194072   -7.3199507    336.92137  0.020751501  0.020391039           18 
 1354000   0.72844431    -7.364451    336.98575  0.020740137  0.020376598           43 
 1355000   0.72142965   -7.3451626     336.7016  0.020707355    0.0203621            8 
 1356000   0.71417532   -7.3277311    336.56994  0.020683994  0.020347607           13 
 1357000    0.7139041   -7.3123991    337.09935  0.020701262  0.020333128           31 
 1358000    0.7179022   -7.3515422    337.00362  0.020680144  0.020318686           23 
 1359000   0.69952376   -7.3688311    336.95392  0.020661879  0.020304209           16 
 1360000    0.7053863   -7.3551594     336.8501  0.020640325  0.020289724            6 
 1361000   0.71096045   -7.3347737     337.1039  0.020640699  0.020275263            8 
 1362000   0.70963816   -7.3552863    336.58705  0.020593921  0.020260779            6 
 1363000   0.70285574   -7.3341068    336.73274   0.02058772  0.020246308           15 
 1364000   0.71351272   -7.3395532     337.4753  0.020617992  0.020231853           11 
 1365000   0.71259164   -7.3600272    336.74229  0.020558138  0.020217351            5 
 1366000   0.69994164   -7.3663077    336.93237  0.020554684  0.020202777            9 
 1367000   0.71296496   -7.3636269    337.11961  0.020551062  0.020188216           12 
 1368000   0.71162032   -7.3469642    337.12005  0.020536066  0.020173681            6 
 1369000   0.71586949   -7.3443648    337.56774  0.020548316  0.020159191            7 
 1370000   0.70391946   -7.3750941    337.10254  0.020505021  0.020144638            5 
 1371000   0.72654455   -7.3581356    336.52949  0.020455233  0.020130119           19 
 1372000   0.69300969   -7.3457366     336.8011  0.020456821  0.020115585           13 
 1373000   0.70822132    -7.390686    337.40968  0.020478859  0.020101058            7 
 1374000   0.71244314   -7.3594035     337.5597  0.020473053  0.020086518            6 
 1375000    0.7186568   -7.3589113    336.64446  0.020402695  0.020071968            7 
 1376000   0.70879288   -7.3760883    336.75431   0.02039452  0.020057489           11 
 1377000   0.70811356     -7.38938     336.4497  0.020361274  0.020042927            8 
 1378000   0.70136898   -7.3664416    336.52136  0.020350832  0.020028357           13 
 1379000   0.70172766   -7.3864108    337.47671  0.020393807  0.020013787           19 
 1380000   0.70262022   -7.3746198    337.05635  0.020353644  0.019999201           24 
 1381000   0.70372449   -7.3751151    336.74774  0.020320284   0.01998466           12 
 1382000   0.69809434   -7.3721819    337.14991  0.020329831  0.019970077            9 
 1383000   0.68448088   -7.3622715    336.76225  0.020291772  0.019955519            6 
 1384000    0.6817203   -7.3774839    335.95016  0.020228213  0.019940968            6 
 1385000   0.72169186   -7.3746477    337.35138  0.020297917  0.019926422            6 
 1386000   0.70861878   -7.3841191    336.83485  0.020252216  0.019911878            6 
 1387000   0.68909412   -7.3744824    337.21539  0.020260478  0.019897358            7 
 1388000    0.7044587   -7.3743115    337.78265  0.020279938  0.019882887            4 
 1389000   0.70482572   -7.3701225    337.21652  0.020231373  0.019868419            6 
 1390000   0.69416835   -7.3705419    337.03162  0.020205733   0.01985398            6 
 1391000    0.6989983   -7.4090773    336.93294  0.020185295  0.019839461           12 
 1392000   0.70467632   -7.3757851    337.66149  0.020214409  0.019825004           11 
 1393000   0.69274388   -7.3727811    336.90729  0.020154779  0.019810544            7 
 1394000   0.69202317   -7.3861128    337.74592  0.020190455  0.019796069           20 
 1395000   0.70862247   -7.3751745     337.6722  0.020171577  0.019781608            8 
 1396000   0.69651482   -7.3650262     337.4541  0.020144108  0.019767125            6 
 1397000   0.68363142   -7.3861515    337.26726  0.020118543  0.019752657           12 
 1398000   0.70891446   -7.3808516    337.66798  0.020128039  0.019738209           23 
 1399000   0.69768945   -7.3702162    336.67488  0.020054496  0.019723819            8 
 1400000   0.70125366    -7.382451    337.62551  0.020096757  0.019709424           12 
 1401000   0.68351149   -7.3844629    337.44091  0.020071432  0.019695002           32 
 1402000   0.68623622   -7.3919661    337.82687  0.020080056  0.019680598           16 
 1403000   0.69774835    -7.386732    336.48186  0.019985855  0.019666207           17 
 1404000   0.69532074   -7.3592256    337.44777  0.020028951  0.019651776           23 
 1405000   0.70270697   -7.3984506    337.59372  0.020023352  0.019637438           15 
 1406000   0.69601586   -7.3751016    337.26247  0.019989478  0.019623026           17 
 1407000   0.69293833   -7.4034007    337.47355  0.019987773  0.019608648           25 
 1408000   0.68651045   -7.4027671     337.1891  0.019956741   0.01959422           20 
 1409000   0.69671371   -7.4023095    337.46229  0.019958735  0.019579802           15 
 1410000   0.68840875   -7.3980609    337.40987  0.019941482  0.019565405            9 
 1411000    0.6815026    -7.372156    337.66772  0.019942577  0.019551009           13 
 1412000   0.70637851   -7.3897578    336.75666  0.019874685  0.019536642           21 
 1413000    0.6892595   -7.4188163    337.28376  0.019891705   0.01952224           10 
 1414000   0.69535733   -7.3988977    337.43967  0.019886826  0.019507845           12 
 1415000   0.68513616   -7.3940724    337.35687  0.019867896  0.019493496           19 
 1416000   0.68569642   -7.3970371    337.68918  0.019873422   0.01947918            9 
 1417000   0.69992387   -7.3986881    337.35113  0.019839516  0.019464832           14 
 1418000   0.68733172   -7.3983594    337.32745  0.019824133  0.019450534           30 
 1419000   0.68354035   -7.4160419     337.8507  0.019840892  0.019436174           16 
 1420000   0.69215841   -7.3925328    337.72501  0.019819543  0.019421801           35 
 1421000   0.68933478    -7.417548    337.10381  0.019769165  0.019407484           11 
 1422000   0.67879181   -7.4258208      337.761  0.019793777  0.019393163           21 
 1423000    0.6941343   -7.3945546    337.73607  0.019778407  0.019378865           24 
 1424000   0.68896495   -7.3972934    338.02232  0.019781268   0.01936457           10 
 1425000   0.67920443   -7.4103205    338.18439  0.019776865  0.019350294           14 
 1426000   0.67806885   -7.4563471    337.92189  0.019747656  0.019336045           25 
 1427000   0.69365139   -7.4070648    337.79585  0.019726457  0.019321826           17 
 1428000   0.67158172   -7.4023808    338.38609  0.019747087  0.019307611           20 
 1429000   0.69404505   -7.4209344    338.23163  0.019724261  0.019293428           10 
 1430000   0.68985501   -7.4218567    337.53132  0.019669657  0.019279248           16 
 1431000   0.67953364   -7.3946425    338.58045  0.019717007  0.019265074           26 
 1432000   0.69692975   -7.4036146    338.23368  0.019683059  0.019250902           20 
 1433000   0.69599633   -7.4183403    337.58223   0.01963144  0.019236753           26 
 1434000   0.66204976    -7.416214     337.3716  0.019605509  0.019222575            8 
 1435000   0.67373496    -7.413373    338.10506   0.01963444   0.01920839           10 
 1436000   0.68172306   -7.4187239    338.45548  0.019641103  0.019194211           13 
 1437000   0.70036574   -7.4480298    337.61775  0.019578854  0.019180059           16 
 1438000   0.66497021    -7.429904    337.91329  0.019582365  0.019165878           21 
 1439000   0.68142439   -7.4426515    337.38855  0.019538369  0.019151734           36 
 1440000   0.67542937   -7.4123752    338.09187  0.019565502  0.019137626           16 
 1441000    0.6535679   -7.4048681    338.91778  0.019599686  0.019123539           39 
 1442000   0.66223376   -7.4190214    338.18386  0.019543681  0.019109445           17 
 1443000    0.6701717   -7.4037417    338.75633  0.019563198  0.019095377           19 
 1444000   0.68679083   -7.4152683    338.12122  0.019512997  0.019081308           13 
 1445000   0.67173294   -7.4237394     337.8384  0.019483184  0.019067199           12 
 1446000   0.67058506   -7.4261835    338.37252  0.019500491  0.019053101            8 
 1447000   0.67043095   -7.4493877    338.08096  0.019470223  0.019039012           15 
 1448000   0.67808471   -7.4338424    338.57755  0.019485356  0.019024921            8 
 1449000   0.68153405   -7.4098666    338.53453  0.019469434  0.019010883            8 
 1450000   0.66472882   -7.4248031    338.01477  0.019426136  0.018996867            8 
 1451000   0.67272522   -7.4231299    338.26436  0.019427082  0.018982906           13 
 1452000   0.67608319   -7.4183411    338.09349  0.019403897  0.018968922            9 
 1453000   0.66771084   -7.4227817    338.45972  0.019411546  0.018954869           10 
 1454000   0.68280663   -7.4208955    338.81749  0.019418701  0.018940823           17 
 1455000    0.6723038   -7.4288482    338.26863  0.019373919  0.018926831           18 
 1456000   0.67449723    -7.425718    338.17352  0.019355169  0.018912854           29 
 1457000   0.68652669   -7.4380823    337.62253  0.019310371  0.018898812           26 
 1458000   0.65321092   -7.4201477    337.74753  0.019304271  0.018884748           32 
 1459000   0.65552327   -7.4562833    337.27573  0.019264092  0.018870637           21 
 1460000   0.65656388   -7.4327006    337.77363  0.019279317  0.018856547           21 
 1461000    0.6755964   -7.4314949    338.08882  0.019284099  0.018842539           16 
 1462000   0.67295235   -7.4517358    338.19262  0.019276825  0.018828479           15 
 1463000   0.65802353   -7.4337325    338.23167  0.019265873  0.018814446           13 
 1464000   0.66331692   -7.4458608    338.36558  0.019260336  0.018800434           21 
 1465000   0.66711659   -7.4583154    337.30301  0.019186747   0.01878638           13 
 1466000   0.67003578   -7.4567723    337.47342  0.019183346  0.018772281           10 
 1467000   0.65694481   -7.4429464    336.99084  0.019142856  0.018758162            7 
 1468000   0.66538807   -7.4361463    337.69684  0.019169893  0.018744069           10 
 1469000   0.68157694    -7.434564    337.28237  0.019133331  0.018729975           13 
 1470000   0.67645274   -7.4789155    337.72203   0.01914524  0.018715896           21 
 1471000   0.66867063   -7.4529248    337.52704  0.019121178  0.018701826           13 
 1472000   0.67307033   -7.4527538    338.21926  0.019147376  0.018687772           35 
 1473000    0.6740714   -7.4378555    338.08598  0.019126837  0.018673761           11 
 1474000   0.66545463   -7.4336336    337.79508  0.019097415   0.01865976           12 
 1475000   0.67658458   -7.4427874    338.21582  0.019108239  0.018645774           10 
 1476000   0.65838641   -7.4494032    337.71779  0.019067174  0.018631795           17 
 1477000   0.66301622   -7.4248429    338.09074  0.019075307  0.018617857            8 
 1478000   0.65061537   -7.4396885    338.93752  0.019110144  0.018603968           15 
 1479000   0.64174219   -7.4359876    338.15852  0.019053331  0.018590038           34 
 1480000   0.66017517   -7.4246238    338.29369  0.019048068   0.01857611           34 
 1481000    0.6486054   -7.4597302     338.7967   0.01906351  0.018562211           58 
 1482000   0.65241852   -7.4591444    338.50633  0.019034319  0.018548288           59 
 1483000   0.65903322    -7.457073    338.23544  0.019006262  0.018534365           39 
 1484000   0.65644342   -7.4616003    337.69563  0.018963142  0.018520438           49 
 1485000   0.66135838   -7.4689925    338.01079  0.018968058   0.01850652           53 
 1486000   0.66681691   -7.4461304    338.09405  0.018959962  0.018492586           35 
 1487000    0.6693812   -7.4630919    338.28478  0.018957901  0.018478688           44 
 1488000   0.66747253   -7.4690728    338.47507  0.018955817  0.018464834           39 
 1489000   0.64291508     -7.46056    337.63916  0.018896304  0.018450987           39 
 1490000   0.66147332   -7.4623167    337.77721  0.018891343   0.01843714           46 
 1491000   0.66659514   -7.4617844    338.47325  0.018917575  0.018423318           49 
 1492000    0.6403661   -7.4793815    338.28847  0.018894575  0.018409471           33 
 1493000   0.64487345   -7.4820373     338.2723  0.018881017  0.018395634           40 
 1494000   0.66343757   -7.4484694    338.24107  0.018866637  0.018381833           41 
 1495000   0.66696935   -7.4653509    338.26772  0.018855503  0.018368003           59 
 1496000   0.65375624   -7.4781791    338.14923  0.018836298  0.018354173           57 
 1497000   0.66035208   -7.4632889    338.82661  0.018861423  0.018340359           67 
 1498000   0.65715686    -7.476607    339.04398  0.018860925  0.018326626          100 
 1499000   0.65612414   -7.4672412    338.00808  0.018790754  0.018312862          115 
 1500000   0.65326668    -7.464923    338.63118  0.018812843  0.018299093           83 
 1501000   0.65296777   -7.4731087     338.6449  0.018801072  0.018285332           83 
 1502000   0.64197859   -7.4654327    337.76777  0.018739889  0.018271575           85 
 1503000   0.64596742    -7.487437    338.47218  0.018766477  0.018257813          101 
 1504000    0.6586705   -7.4495839    339.30189  0.018799972  0.018244064           66 
 1505000   0.64697098    -7.476002    337.82661  0.018705792   0.01823033           86 
 1506000   0.64409815   -7.4792692    338.45459   0.01872812   0.01821659           97 
 1507000   0.65693428   -7.4890172    338.27637  0.018705838  0.018202839          102 
 1508000   0.64627068   -7.4803373    339.16377  0.018742472  0.018189126           99 
 1509000   0.64458809   -7.4946816    338.53301  0.018695218  0.018175369           92 
 1510000   0.66068178    -7.483101    338.15977  0.018662239  0.018161614           80 
 1511000   0.63914986   -7.4889043    338.45038  0.018665915  0.018147862           59 
 1512000    0.6487876   -7.5018451    339.11134  0.018689999  0.018134132           48 
 1513000    0.6687655   -7.4586156    338.88788  0.018665338  0.018120457           51 
 1514000   0.64666517   -7.4779893    338.39717     0.018626  0.018106802           52 
 1515000   0.64027355    -7.492677    338.56155  0.018622748  0.018093124           51 
 1516000   0.65176253   -7.4878028    338.31069  0.018596674  0.018079457           66 
 1517000   0.64381437   -7.4897271    338.51719  0.018595759  0.018065812           41 
 1518000   0.64752419   -7.5026392    338.33369  0.018573435  0.018052199           49 
 1519000   0.64370947   -7.5039754    337.50773  0.018515895  0.018038512           55 
 1520000   0.65468668   -7.4877446    338.44806  0.018555267  0.018024883           41 
 1521000   0.65029833   -7.5128198    339.01053  0.018573884  0.018011258           58 
 1522000   0.66024747   -7.5095519    338.95356  0.018558561  0.017997645           52 
 1523000    0.6476514   -7.5205051    337.99342   0.01849384  0.017984009           62 
 1524000   0.64774947   -7.5313119    337.86029  0.018474425  0.017970364           50 
 1525000   0.65373646   -7.5120216    338.61523  0.018503564  0.017956701           53 
 1526000    0.6442461   -7.5098744    338.26308  0.018472208  0.017943097           55 
 1527000   0.64196702   -7.5008645    338.34344  0.018464497  0.017929471           76 
 1528000   0.64163075   -7.4996477    338.38494  0.018454676  0.017915881           68 
 1529000   0.64658814   -7.4949658    338.76183  0.018463147  0.017902276           46 
 1530000   0.63347373    -7.515987    338.68152  0.018446706  0.017888659           73 
 1531000   0.64710214   -7.5044653    338.58377  0.018429337  0.017875057           57 
 1532000   0.65771533   -7.4840568    338.55279  0.018415622  0.017861473           66 
 1533000   0.63544003   -7.5015647    338.75774   0.01841475  0.017847878           28 
 1534000   0.63581846   -7.4815769     337.9807  0.018360533  0.017834295           47 
 1535000   0.64656824   -7.4905336    337.99316  0.018349249  0.017820685           46 
 1536000   0.65170844   -7.5092749    338.10552  0.018343399   0.01780715           18 
 1537000   0.64097567   -7.5071039    338.20052  0.018336615  0.017793596           41 
 1538000   0.64963058   -7.5026595    338.71817   0.01835274  0.017780049           28 
 1539000   0.64641224   -7.5138889    338.44581  0.018326067  0.017766536           10 
 1540000   0.64929264   -7.5193859    338.29534  0.018306025  0.017753053           25 
 1541000    0.6418325   -7.4854547    338.60759  0.018311031  0.017739571           19 
 1542000   0.64214843   -7.5121322    339.09855  0.018325689  0.017726136           36 
 1543000   0.63243607   -7.5076917    338.81683  0.018298598  0.017712694           10 
 1544000   0.65547083   -7.5042449    339.66901   0.01833274  0.017699287           10 
 1545000   0.63116312   -7.4980601    339.03077  0.018286449  0.017685912           11 
 1546000   0.63471471    -7.515947    339.43259   0.01829628  0.017672462           12 
 1547000   0.63339332   -7.4960776    337.93918  0.018204007   0.01765902           12 
 1548000   0.63762063   -7.4939912    339.20099  0.018260174  0.017645604           15 
 1549000   0.63652332   -7.5060434    338.56117  0.018213964  0.017632165            8 
 1550000   0.63362525   -7.5093075    338.76403   0.01821312  0.017618685           15 
 1551000   0.63700931   -7.5147177    338.64134  0.018194785  0.017605244           17 
 1552000   0.62821735   -7.4925263    338.62758  0.018182323   0.01759185           11 
 1553000   0.63784273    -7.511156    339.21687  0.018202236   0.01757846            9 
 1554000   0.62091924   -7.5115091    338.56599  0.018155619  0.017565074           23 
 1555000   0.63654493    -7.493915    338.22479  0.018125658   0.01755166           12 
 1556000   0.63901793   -7.5204822    338.56446  0.018132201   0.01753827           18 
 1557000   0.62209959   -7.5408537    337.98597  0.018089594   0.01752484           17 
 1558000   0.63553155   -7.5007695    337.51268  0.018052668   0.01751143           16 
 1559000   0.63589503   -7.4966031    338.74768  0.018107103  0.017498074           15 
 1560000   0.64570297   -7.5264276    338.25773  0.018069323  0.017484731            9 
 1561000   0.62472101   -7.5440088     338.6362  0.018077952  0.017471367           23 
 1562000   0.62463586   -7.5281091    338.12621  0.018039171  0.017458001           12 
 1563000    0.6200074   -7.5290339    338.17954  0.018030472   0.01744463           17 
 1564000    0.6281658   -7.5193632    338.81581  0.018052846  0.017431258           16 
 1565000   0.63299623   -7.5275604    338.16416  0.018006611  0.017417873           16 
 1566000   0.63810856   -7.5254756    337.81602  0.017976587  0.017404521           18 
 1567000   0.61593599     -7.50825    337.72718  0.017960391  0.017391177           16 
 1568000   0.62568779   -7.5409642    338.17034  0.017972489  0.017377837           14 
 1569000   0.62780725   -7.5327765    338.61172  0.017984476  0.017364533           12 
 1570000   0.62390012   -7.5232859    338.28479  0.017955668  0.017351256           16 
 1571000   0.62802488   -7.5437626    338.28332  0.017944161  0.017337953           16 
 1572000    0.6432259   -7.5390261    338.42186   0.01794009  0.017324619           10 
 1573000   0.60544781   -7.5466529    337.65769  0.017888201  0.017311309           12 
 1574000   0.62688195   -7.5467097    338.47597   0.01792016  0.017298029            9 
 1575000    0.6229755   -7.5384611    337.93792  0.017880313  0.017284728            7 
 1576000   0.63196989   -7.5293256    337.43647  0.017842453  0.017271425           30 
 1577000   0.62135613   -7.5278588    338.34914  0.017879367  0.017258138           31 
 1578000   0.60885927   -7.5415781    337.96243  0.017847614  0.017244889           27 
 1579000   0.62683266   -7.5438149    338.21889  0.017849847  0.017231617            8 
 1580000   0.61743467   -7.5509628    338.53114  0.017855018  0.017218379           12 
 1581000   0.60356006   -7.5642166    337.74582  0.017802331  0.017205157           16 
 1582000   0.61378165   -7.5575653    337.87545  0.017797906  0.017191911           14 
 1583000   0.61651517   -7.5481487    338.24333  0.017806029  0.017178678           29 
 1584000   0.61712028   -7.5567431    337.69681  0.017766036  0.017165406           27 
 1585000   0.63724351     -7.54385    338.71929  0.017808585  0.017152155           36 
 1586000   0.62689732   -7.5462802     338.2693  0.017773712   0.01713893           40 
 1587000   0.62032504   -7.5404379    337.03778  0.017697846  0.017125694           48 
 1588000   0.61306743   -7.5514101     338.0437  0.017739489  0.017112479           34 
 1589000   0.61692451   -7.5556899    337.96103  0.017723989  0.017099294           12 
 1590000   0.62311416   -7.5617352    338.17822  0.017724226  0.017086079           11 
 1591000   0.61959936   -7.5722437    338.12403  0.017710247  0.017072904            7 
 1592000   0.62129593   -7.5898966    337.50152  0.017666537  0.017059752           13 
 1593000   0.62022132   -7.5557192    337.91841  0.017677255  0.017046602           11 
 1594000   0.60618589   -7.5639292    338.30451   0.01768635  0.017033478           10 
 1595000   0.60716942   -7.5576817    338.12011  0.017665627  0.017020348           13 
 1596000   0.62563649   -7.5463736    337.99535  0.017648044  0.017007264            8 
 1597000    0.6165828   -7.5559753    338.77442  0.017677647   0.01699422            8 
 1598000   0.61819145   -7.5523827    338.34167  0.017644017  0.016981197           16 
 1599000   0.62106492   -7.5453505    338.53387  0.017642999  0.016968195           23 
 1600000   0.62023918   -7.5485317    338.68717  0.017639957  0.016955198           17 
 1601000   0.62626009   -7.5589325    338.77651  0.017633589   0.01694222           17 
 1602000   0.62448241   -7.5670794    338.29323  0.017597442  0.016929213           27 
 1603000   0.61238688   -7.5608437    337.96025  0.017569154  0.016916234           21 
 1604000   0.60511169   -7.5564926    338.80864  0.017602277  0.016903236           18 
 1605000   0.61143529   -7.5432524    338.63081  0.017582077  0.016890281           29 
 1606000   0.61743498   -7.5624555    338.65149  0.017572203  0.016877341           17 
 1607000   0.62482113   -7.5436672    339.31161  0.017595499  0.016864389           21 
 1608000   0.61371119   -7.5596981    338.36325  0.017535409  0.016851448           22 
 1609000   0.60822984   -7.5699361    338.71583  0.017542772    0.0168385           36 
 1610000   0.60807449   -7.5687553    338.09439   0.01749971  0.016825531           17 
 1611000   0.61790052   -7.5542599    338.75373  0.017522953  0.016812581           25 
 1612000   0.59649827   -7.5710656    337.84539  0.017465126  0.016799613           22 
 1613000   0.59131749   -7.5691414    337.66712  0.017445088   0.01678665           23 
 1614000   0.60670283   -7.5668371    337.94697  0.017448729  0.016773711           27 
 1615000   0.61221296   -7.5577335    338.11605  0.017446648  0.016760786           23 
 1616000   0.61013401   -7.5617158    338.37979  0.017449453  0.016747909           28 
 1617000   0.60924595   -7.5673544    338.37645   0.01743849  0.016735027           74 
 1618000   0.59250573   -7.5850441    337.56376  0.017385855  0.016722121           26 
 1619000   0.59622564   -7.5916015    338.23185  0.017409504  0.016709235           42 
 1620000   0.62168061   -7.5765055    337.90601  0.017381997  0.016696339           26 
 1621000   0.59391469   -7.5742269      338.173  0.017384999  0.016683475           22 
 1622000   0.61383364   -7.5724066    337.95513  0.017363087  0.016670643           68 
 1623000    0.6047095   -7.5819568    338.16711  0.017363273  0.016657794           26 
 1624000   0.59448767   -7.5813919    338.63226   0.01737645  0.016644931           42 
 1625000   0.60733076   -7.5778178    338.28088  0.017347737  0.016632062           13 
 1626000   0.60698289    -7.574568    337.87276  0.017316152  0.016619217           41 
 1627000   0.60156801   -7.5600217    337.69586  0.017296448  0.016606377           23 
 1628000   0.59494768   -7.5709264    338.35539  0.017319584  0.016593569           32 
 1629000   0.58634834    -7.579007    337.90416  0.017285869  0.016580767           29 
 1630000    0.5926491   -7.5984653    338.06026  0.017283244  0.016567965           49 
 1631000   0.59957494   -7.5898528    338.26532  0.017283125  0.016555188           31 
 1632000   0.59779946   -7.5840837     338.7992  0.017299796  0.016542447           33 
 1633000   0.59473045   -7.6039354    337.96234  0.017246496  0.016529699           49 
 1634000   0.60412437   -7.5707803     338.2756  0.017251917  0.016516966           22 
 1635000   0.62138793    -7.582763    338.04638  0.017229683  0.016504246           45 
 1636000   0.59614843   -7.5777986    338.15103  0.017224482  0.016491555           39 
 1637000   0.59011422   -7.5984571     338.3913  0.017226191  0.016478855           93 
 1638000   0.58938209   -7.5772896    338.64195  0.017228427  0.016466162           37 
 1639000   0.59607702   -7.5994853     338.2706  0.017199034  0.016453475           28 
 1640000    0.5878711   -7.6060051     338.1914  0.017184523  0.016440783           41 
 1641000   0.58384486   -7.6140565    338.11876  0.017170362  0.016428098          106 
 1642000   0.61056637   -7.5854711    337.98186  0.017152957  0.016415411           85 
 1643000   0.59947768   -7.6021414    338.27146  0.017157206   0.01640272           84 
 1644000   0.59180084   -7.5779186    338.25327  0.017145847  0.016390044           28 
 1645000   0.59259568   -7.6056867    338.01651   0.01712343  0.016377351           27 
 1646000   0.60658954   -7.6075535    338.18411  0.017121512  0.016364691           81 
 1647000   0.58936382   -7.6007716    338.28552  0.017116248  0.016352022           73 
 1648000   0.58282315   -7.6031441    338.15314  0.017099168  0.016339384          144 
 1649000   0.58492268   -7.6099937    337.76885  0.017069378  0.016326741           87 
 1650000   0.57951162   -7.6043875     338.0102  0.017071222   0.01631408          121 
 1651000   0.59913985    -7.613012    338.19095  0.017070006  0.016301433          113 
 1652000   0.60714201   -7.5921168    337.73746  0.017036797  0.016288786           84 
 1653000   0.59661682   -7.6141139    338.11152  0.017045348  0.016276176           74 
 1654000   0.61077771   -7.6080105    337.59852  0.017009196  0.016263553           74 
 1655000   0.58235036   -7.6172656    338.21637  0.017030029  0.016250959           41 
 1656000   0.59117226   -7.6184484    337.37299  0.016977304  0.016238375           43 
 1657000   0.59451868   -7.6157858    337.74093  0.016985563  0.016225777           88 
 1658000   0.59911158   -7.6199903    337.60973  0.016968724  0.016213199           87 
 1659000   0.59919157   -7.6232434    337.54924  0.016955457  0.016200648           53 
 1660000   0.58806081   -7.6065976    338.12289  0.016974041  0.016188096           89 
 1661000   0.58840736   -7.6148389    338.22994  0.016969192  0.016175532           58 
 1662000     0.592748   -7.6479587    338.18376  0.016956666  0.016162979           73 
 1663000   0.58775474   -7.6266925    337.87271  0.016930884  0.016150437           89 
 1664000   0.58904501   -7.6084453    337.83958   0.01691905  0.016137895           35 
 1665000    0.5891857   -7.6316078     338.0099  0.016917412  0.016125364           35 
 1666000   0.59272749    -7.623581    337.59029  0.016886269  0.016112836           32 
 1667000   0.58874842   -7.6284119    337.34744  0.016863999  0.016100303           39 
 1668000    0.5878402   -7.6128979    337.51958  0.016862489  0.016087781           33 
 1669000   0.58685732   -7.6165739    338.44899  0.016898791   0.01607528           89 
 1670000    0.5814817   -7.6152334    337.70106   0.01685135  0.016062788           34 
 1671000   0.58131693   -7.6109233    338.02117   0.01685723  0.016050306           54 
 1672000   0.58438311   -7.5912056    337.81841  0.016837042  0.016037834           29 
 1673000   0.58647597   -7.6109995    337.49693  0.016810965  0.016025372           68 
 1674000   0.58621554    -7.638992    337.87124  0.016819556  0.016012909          122 
 1675000   0.59091878    -7.641071     337.0519  0.016768751  0.016000452           88 
 1676000   0.58053662   -7.6301503    337.79808  0.016795847  0.015988021           75 
 1677000   0.59231893   -7.6377767    337.71188  0.016781549  0.015975599           42 
 1678000   0.58229134   -7.6417539    337.65537  0.016768741  0.015963164           25 
 1679000   0.57699151    -7.637423    337.57492  0.016754761  0.015950759           38 
 1680000   0.59959177    -7.625969    337.35459  0.016733859  0.015938364           60 
 1681000   0.58566736   -7.6092878     338.0683  0.016759285  0.015925969           58 
 1682000   0.57948094   -7.6210409    336.95268  0.016694049    0.0159136           62 
 1683000   0.59220242   -7.6447057    337.74557  0.016723389  0.015901207           49 
 1684000   0.58027797    -7.649337    337.20943  0.016686928  0.015888832           60 
 1685000   0.59017009   -7.6297551    337.00079  0.016666706  0.015876433           56 
 1686000   0.59004096   -7.6271057     337.5139  0.016682182  0.015864047           41 
 1687000   0.57977655   -7.6370357    336.90943  0.016642434  0.015851659           28 
 1688000   0.60289982   -7.6522921    337.33709  0.016653687  0.015839292           24 
 1689000   0.57068235   -7.6508075    337.44437  0.016649121  0.015826916           65 
 1690000   0.58125465   -7.6674787    337.18538  0.016626498   0.01581454           49 
 1691000    0.5740598   -7.6435778    336.99959   0.01660751  0.015802174           73 
 1692000   0.58012819   -7.6220823    337.48412  0.016621558  0.015789847           64 
 1693000    0.5851644   -7.6390509    337.11324  0.016593485  0.015777501           39 
 1694000   0.59027755   -7.6716439    336.40336  0.016548768  0.015765162           62 
 1695000   0.59287084   -7.6564485    336.90535  0.016563685  0.015752842           75 
 1696000   0.57834494   -7.6270609    337.49911  0.016583093  0.015740538          128 
 1697000   0.56761313   -7.6634799    337.01881  0.016549735  0.015728242           59 
 1698000   0.58276219   -7.6420083    336.68688  0.016523698  0.015715927           54 
 1699000   0.56002549   -7.6525017    337.10259  0.016534363  0.015703648           65 
 1700000   0.57422096   -7.6441157    337.48452  0.016543359  0.015691353           36 
 1701000   0.56374125   -7.6419848     337.5116   0.01653496  0.015679067          131 
 1702000   0.57702806   -7.6643286    337.40082  0.016519821    0.0156668           55 
 1703000   0.56419548   -7.6613551    337.00455   0.01649073  0.015654552           63 
 1704000   0.58124394   -7.6497603      337.047  0.016483128  0.015642305           75 
 1705000   0.55851553   -7.6645111    336.93517  0.016467995  0.015630063           64 
 1706000   0.58905372   -7.6521747    337.49598  0.016485736  0.015617806           57 
 1707000   0.57994038   -7.6605385    336.87034  0.016445535  0.015605596           47 
 1708000    0.5804323   -7.6460932    336.71382   0.01642827  0.015593364           47 
 1709000   0.56632498   -7.6548569    337.00783  0.016432994  0.015581143           88 
 1710000   0.56962571   -7.6599769    336.87458   0.01641689   0.01556895           69 
 1711000   0.57447002   -7.6643916    337.10822  0.016418674  0.015556759           51 
 1712000   0.59227102   -7.6547719    337.33953  0.016420343  0.015544569           57 
 1713000    0.5617955   -7.6565921    335.96467  0.016343874  0.015532382           92 
 1714000   0.57443277   -7.6542268    337.06475  0.016387823  0.015520202           59 
 1715000   0.57280489   -7.6379123    336.89063  0.016369807  0.015508058           91 
 1716000   0.55941589   -7.6670581     336.8332  0.016357479  0.015495903           59 
 1717000   0.56147257   -7.6580505    337.25316  0.016368335  0.015483764           58 
 1718000   0.56370732   -7.6632372    337.40838  0.016366336  0.015471638           68 
 1719000   0.57541314   -7.6682812    336.69939  0.016322445  0.015459503           95 
 1720000   0.57214088   -7.6700441    336.77855   0.01631679  0.015447341           39 
 1721000   0.56869353   -7.6553169    336.17585  0.016278125  0.015435212           47 
 1722000   0.56157979   -7.6740939    336.72592  0.016295292  0.015423094           52 
 1723000   0.55251763   -7.6772621    336.21425  0.016261088  0.015410964           58 
 1724000   0.57208548   -7.6837027    336.89437   0.01628453  0.015398837           40 
 1725000   0.55542951   -7.6745719    336.47407  0.016254786  0.015386718           56 
 1726000   0.56334445   -7.6768513    336.58751  0.016250845  0.015374603           90 
 1727000   0.56413969   -7.6726941    336.03601  0.016214824  0.015362519           48 
 1728000    0.5628437   -7.6600631    336.52782  0.016229158  0.015350449           96 
 1729000   0.55749565   -7.6653697    335.76478  0.016182995  0.015338372           82 
 1730000   0.54610146   -7.6768521    336.74541  0.016220877  0.015326293           66 
 1731000    0.5498375   -7.6805116    336.03124  0.016177125  0.015314216           51 
 1732000    0.5612501   -7.6745165    336.66357  0.016198209  0.015302153           63 
 1733000   0.56293822   -7.6887623     336.1744   0.01616534  0.015290104           66 
 1734000   0.55672954   -7.6795298    336.88135  0.016189992  0.015278062           66 
 1735000   0.55583928   -7.6733028    336.70646  0.016172261  0.015266022           66 
 1736000   0.54736928   -7.6813423    336.30941  0.016143885  0.015254031          107 
 1737000    0.5485979   -7.6950913    336.64814  0.016150841  0.015242036           64 
 1738000   0.56532826   -7.6808086    336.57191  0.016137894  0.015230061           42 
 1739000   0.55381366   -7.6935697    336.05933  0.016104051  0.015218094           82 
 1740000   0.56113559   -7.6803733    336.63323  0.016122281  0.015206123           51 
 1741000   0.54917732   -7.6887606    335.99404  0.016082426  0.015194153           49 
 1742000   0.57328948   -7.6611903    335.90958  0.016069153  0.015182189           58 
 1743000    0.5596172   -7.6870147    336.40108  0.016083433  0.015170241           60 
 1744000   0.54883354    -7.682414    335.71237  0.016041302  0.015158298           43 
 1745000   0.54619628   -7.6649467    336.29091  0.016059738  0.015146357           62 
 1746000   0.55744933   -7.6754303    336.28425  0.016050222  0.015134403           77 
 1747000   0.56066803   -7.6988927    335.87258  0.016021397  0.015122469           68 
 1748000   0.55279976   -7.6873945    336.02761  0.016019623  0.015110539           53 
 1749000   0.55157187   -7.6607263    336.08832  0.016013356  0.015098634           38 
 1750000   0.55046905   -7.6903473    335.96234  0.015998207  0.015086737           99 
 1751000   0.54982187   -7.7020123    336.27903  0.016004142  0.015074862           71 
 1752000   0.54495699   -7.6842419    336.23086  0.015992716  0.015062982           51 
 1753000   0.56963418   -7.6974868    336.32808  0.015988214  0.015051107           51 
 1754000   0.55211827   -7.7001429    336.13153  0.015969761  0.015039224           84 
 1755000   0.54318719   -7.6945601    336.63652   0.01598464  0.015027368           48 
 1756000    0.5540226   -7.6836269     335.9328  0.015942141  0.015015527           60 
 1757000   0.55512794   -7.6980242    336.08327  0.015940204  0.015003693           45 
 1758000   0.54904299    -7.695061    335.93666  0.015924188  0.014991859           44 
 1759000   0.55223953   -7.6943516    336.53991  0.015943714  0.014980048           46 
 1760000   0.55210756   -7.7029787    336.43033  0.015929466  0.014968235           48 
 1761000   0.54803931   -7.7026735    335.66608  0.015884255   0.01495644           47 
 1762000    0.5535081   -7.6909731    335.61017  0.015872596  0.014944638          151 
 1763000   0.54633682    -7.686751     336.4918  0.015905265  0.014932855           86 
 1764000   0.55483041   -7.6958899    335.79694  0.015863423  0.014921083           82 
 1765000   0.56049855    -7.701274    335.86565   0.01585768   0.01490931           42 
 1766000   0.55149295   -7.7061103    336.31177  0.015869751  0.014897556           97 
 1767000   0.54181637   -7.7063652     335.9336  0.015842935  0.014885805           43 
 1768000    0.5452591   -7.7153016    336.16601  0.015844929  0.014874085           42 
 1769000    0.5576468   -7.7167879    336.89926  0.015870514  0.014862354           90 
 1770000   0.54577752     -7.71552    336.04285  0.015821227  0.014850625           67 
 1771000   0.54536674   -7.7174308    335.65427  0.015794009  0.014838906           58 
 1772000   0.54695764   -7.7116681    335.90922  0.015797085  0.014827204           58 
 1773000    0.5462663    -7.700391    335.25847  0.015757589  0.014815504           77 
 1774000   0.53948822    -7.715492    336.06025   0.01578637  0.014803815           61 
 1775000   0.53382727   -7.6997879    335.77075  0.015763885  0.014792129           84 
 1776000   0.54345438   -7.7229238    335.88798  0.015760509   0.01478047           75 
 1777000   0.53572568   -7.7055417     335.9626   0.01575514  0.014768811           40 
 1778000   0.54289889   -7.7089611    335.24236  0.015712522  0.014757154           88 
 1779000   0.54519118   -7.7045944    335.94304  0.015736511  0.014745533           77 
 1780000   0.53577033   -7.7298198    335.80282  0.015721106  0.014733911           50 
 1781000   0.53395928   -7.7230954    336.11623  0.015726943  0.014722299           37 
 1782000   0.54565447    -7.716659     335.4708  0.015687935  0.014710693           52 
 1783000   0.54425503   -7.7159004    335.55483  0.015683063  0.014699087           39 
 1784000    0.5538288   -7.7127326    335.72106  0.015682038  0.014687498          100 
 1785000   0.54504424   -7.7011369    335.08058  0.015643351  0.014675913           53 
 1786000   0.54727874   -7.7161347    335.76555  0.015666552  0.014664335           41 
 1787000   0.53216056   -7.7325207    335.71552  0.015655452  0.014652759          102 
 1788000   0.53986006   -7.7249115    335.75356  0.015648469  0.014641191           32 
 1789000   0.53301893   -7.7360263    335.44835  0.015625505  0.014629639          106 
 1790000   0.54397192   -7.7225887    335.83312  0.015634689  0.014618099           38 
 1791000    0.5318267   -7.7170084    335.50792  0.015610828  0.014606577           59 
 1792000   0.54228347   -7.7320253    335.63876  0.015608201  0.014595058           56 
 1793000   0.53022856   -7.7329396    335.31603  0.015584497  0.014583539           85 
 1794000   0.52317363   -7.7072409    335.57434  0.015587808  0.014572024           98 
 1795000   0.54366153   -7.7505895    335.02794  0.015553758  0.014560533           60 
 1796000   0.53654729   -7.7325172    335.48705    0.0155664  0.014549033          128 
 1797000   0.53208944   -7.7305212    335.14552  0.015541899  0.014537547           90 
 1798000   0.53985748    -7.718671    335.34762  0.015542622  0.014526076          137 
 1799000   0.54638281   -7.7193078    335.23873  0.015528939  0.014514609           60 
 1800000   0.53300022   -7.7291991    335.38211  0.015526949  0.014503166           55 
 1801000    0.5261406   -7.7348412    336.04129  0.015548829  0.014491717           80 
 1802000   0.52820078   -7.7002334    335.58975  0.015519319  0.014480292          140 
 1803000   0.53381971   -7.7138492    335.71462  0.015516483  0.014468884          103 
 1804000   0.53286592    -7.708342    335.45994  0.015496117  0.014457483           91 
 1805000   0.52877901   -7.7271816    334.83467  0.015458664  0.014446085           61 
 1806000   0.54127908   -7.7390354    335.68413  0.015489301  0.014434683           81 
 1807000   0.51375508   -7.7409489    334.85347  0.015442422  0.014423299          100 
 1808000   0.52761357   -7.7413057    335.22776  0.015451132  0.014411917           75 
 1809000   0.52681084   -7.7274277    335.42014  0.015451453  0.014400538          104 
 1810000   0.54602036    -7.725027    335.20716  0.015433111  0.014389184           71 
 1811000   0.51994955   -7.7238012    335.18538  0.015423587  0.014377824          186 
 1812000   0.54049737   -7.7388697    335.16476  0.015414126  0.014366489           57 
 1813000   0.52906487   -7.7287173    335.85211  0.015437218  0.014355156           55 
 1814000   0.51678341   -7.7492038    335.23622  0.015400414  0.014343834           81 
 1815000   0.52829479   -7.7206552    335.05474  0.015383597   0.01433252           65 
 1816000   0.52615305   -7.7437223    335.07567  0.015376086  0.014321218          126 
 1817000    0.5319059   -7.7491953    335.77945  0.015399901  0.014309926           65 
 1818000   0.51982524   -7.7289657    335.54444  0.015380658  0.014298639          119 
 1819000   0.52911069   -7.7375806    335.35609  0.015363574  0.014287369           41 
 1820000   0.53897556   -7.7175293    335.56857  0.015364861   0.01427611           68 
 1821000   0.53214489   -7.7426283    335.51969  0.015354187   0.01426487           71 
 1822000    0.5299667   -7.7194011    335.45149   0.01534264  0.014253651           54 
 1823000   0.52603807   -7.7381964    335.24768  0.015324908  0.014242423           62 
 1824000   0.51711504   -7.7350944    334.96343  0.015303519  0.014231196          119 
 1825000   0.52792114   -7.7433198    335.78601  0.015332694  0.014219994          115 
 1826000    0.5284994   -7.7091061    335.31892  0.015302981  0.014208793           59 
 1827000   0.51980043   -7.7501139    334.93655  0.015277164  0.014197604           60 
 1828000   0.52097989   -7.7405517    335.45718  0.015292541  0.014186425          124 
 1829000   0.51687934   -7.7460594    335.41389  0.015282207  0.014175255           77 
 1830000   0.52824852    -7.748938    335.16841  0.015262678  0.014164081          124 
 1831000   0.52547789   -7.7417376    335.22106  0.015256739  0.014152934          112 
 1832000   0.51986473    -7.749757    334.92311  0.015234858  0.014141781           82 
 1833000   0.52576062   -7.7552046    335.04816  0.015232231  0.014130638           71 
 1834000   0.52371608   -7.7643611    335.15464  0.015228764  0.014119482          192 
 1835000   0.52300704   -7.7344504    334.80038  0.015204377  0.014108354          117 
 1836000   0.52373154   -7.7305279    335.35426  0.015221235  0.014097233          110 
 1837000   0.51245283   -7.7371409    335.45803  0.015217657  0.014086121           83 
 1838000   0.53277631   -7.7457205    334.81024  0.015180007  0.014075013           62 
 1839000   0.50685406   -7.7444803    335.15849  0.015187534  0.014063925           74 
 1840000   0.50594843   -7.7553381    335.27347  0.015184487  0.014052839          164 
 1841000   0.51377863   -7.7429428    334.75042  0.015152563  0.014041759           86 
 1842000   0.52523443    -7.753093    334.88247  0.015150311   0.01403069           64 
 1843000   0.51437032   -7.7446682    334.54817  0.015126974  0.014019636           57 
 1844000   0.51545248   -7.7576244    335.78925  0.015174858  0.014008587          158 
 1845000   0.51147477   -7.7667127    335.06416  0.015133883  0.013997537           88 
 1846000   0.51629603   -7.7425158    335.12707  0.015128524  0.013986496           72 
 1847000   0.51489743   -7.7475111    334.63064  0.015097935  0.013975473           57 
 1848000   0.52101745   -7.7718956    334.97045  0.015105089  0.013964475           62 
 1849000   0.51340792    -7.755294    335.14541  0.015104805  0.013953478           62 
 1850000   0.52496609   -7.7579445    334.97397  0.015088917  0.013942494           61 
 1851000   0.52136743   -7.7580049     334.8445  0.015074937  0.013931495           66 
 1852000   0.52237167   -7.7659399    334.79135  0.015064405   0.01392052           58 
 1853000    0.5165098   -7.7799001    334.46062  0.015041402  0.013909547           60 
 1854000    0.5110079   -7.7574821    334.63313  0.015041043  0.013898581           64 
 1855000    0.5114386   -7.7635501    335.10925  0.015054324  0.013887627           64 
 1856000   0.51302999   -7.7719975    334.84238   0.01503423   0.01387668           62 
 1857000   0.50496256   -7.7588788    334.34726  0.015003916  0.013865757           70 
 1858000   0.50075636   -7.7476961    334.53827  0.015004408  0.013854838           60 
 1859000   0.51571479   -7.7515631    334.68331  0.015002838  0.013843914           82 
 1860000   0.50463454   -7.7688434    334.66534  0.014993967  0.013833007           92 
 1861000   0.50667275   -7.7575595     334.6946   0.01498722  0.013822103          180 
 1862000   0.50479114   -7.7777832    334.36668  0.014964495  0.013811201          152 
 1863000   0.49951855   -7.7737138     333.9704  0.014938737    0.0138003           65 
 1864000   0.50154235   -7.7696188    334.75375  0.014965743  0.013789417           72 
 1865000   0.51112038   -7.7775102     333.9143   0.01492021  0.013778539           90 
 1866000   0.50335129   -7.7657057    334.11406  0.014921135  0.013767673          116 
 1867000   0.51300349   -7.7797405    334.43392   0.01492742  0.013756817          114 
 1868000    0.5072432   -7.7714861    334.29975  0.014913443  0.013745976           96 
 1869000   0.50991223   -7.7623414      334.001  0.014892144  0.013735147           82 
 1870000   0.50507758   -7.7880446    334.97111  0.014927411  0.013724332           82 
 1871000   0.49921771   -7.7745884    334.09262  0.014880305  0.013713516           65 
 1872000    0.5038235   -7.7725551    334.37516  0.014884934  0.013702718           72 
 1873000   0.49906992   -7.7906074    334.21161  0.014869711  0.013691935           96 
 1874000   0.50096228   -7.7704702    334.81434  0.014888578  0.013681151           70 
 1875000   0.51202478   -7.7796606     334.3754  0.014861129  0.013670384           96 
 1876000   0.49719781   -7.7693311    334.64372  0.014865126   0.01365962           63 
 1877000   0.50023984    -7.758054    334.27507  0.014840839  0.013648879           59 
 1878000   0.50577238    -7.799189    334.86684  0.014859196  0.013638135           63 
 1879000   0.51074504     -7.76813    334.28347  0.014825416  0.013627397           54 
 1880000   0.50056494   -7.7856915    334.72409  0.014837061  0.013616669          100 
 1881000   0.49663706   -7.7754815    334.66569  0.014826586  0.013605955          103 
 1882000    0.4946559   -7.7829197    334.58905  0.014815314  0.013595245           81 
 1883000   0.49024324   -7.7674336    334.36202  0.014797399  0.013584543           57 
 1884000   0.50108587    -7.769729    334.31369  0.014787407  0.013573852           86 
 1885000   0.49592301   -7.7865244    334.76839  0.014799663  0.013563168           95 
 1886000   0.50797256   -7.7906335    334.54904  0.014782125  0.013552488           55 
 1887000   0.50495179   -7.7847025    334.85025  0.014787593   0.01354183          118 
 1888000   0.49133494   -7.7858363    334.20254  0.014751171  0.013531172           65 
 1889000   0.49591524   -7.7909646    334.08009  0.014737961  0.013520523           89 
 1890000   0.49675791   -7.7978061    334.29317  0.014739558  0.013509887           77 
 1891000   0.49274494   -7.7992543    334.45737  0.014738999  0.013499257           99 
 1892000   0.51170823   -7.7890526    334.38081  0.014727837  0.013488643          118 
 1893000   0.49428382   -7.7779679     333.9833  0.014702558  0.013478033           61 
 1894000   0.50375174   -7.7918295    334.07082  0.014698646  0.013467438           94 
 1895000   0.49166997   -7.7933604     333.7659   0.01467748  0.013456844          139 
 1896000   0.48767906   -7.7880492    333.62796  0.014663676  0.013446255           61 
 1897000   0.50110376   -7.8173443    334.12497  0.014677779  0.013435672           99 
 1898000   0.49841291   -7.7954447    334.46664  0.014685048  0.013425104           83 
 1899000   0.48795556    -7.791532    334.47346  0.014677614   0.01341454           74 
 1900000   0.48338035   -7.7993917    334.38005  0.014665791  0.013403991           79 
 1901000   0.48930672   -7.7808062    334.23457    0.0146517   0.01339346           75 
 1902000   0.49323189    -7.798314    334.28036  0.014646003  0.013382943           83 
 1903000   0.49146241   -7.7922788    333.72149  0.014613833  0.013372434           64 
 1904000   0.49320118   -7.7973095    334.29915   0.01463144  0.013361929           72 
 1905000   0.49377737    -7.804377    333.95131  0.014608544  0.013351427           75 
 1906000   0.48955173   -7.7863931     333.7819  0.014593472  0.013340946          115 
 1907000   0.49052284   -7.7968625    334.45823  0.014615375  0.013330465          106 
 1908000   0.48794438   -7.7886423    333.69163  0.014574233  0.013319991           86 
 1909000   0.48328185   -7.7919904    333.89734  0.014575578  0.013309532          116 
 1910000   0.48759885   -7.7995022    333.55028  0.014552804  0.013299078           95 
 1911000     0.489738   -7.7976344    334.03734  0.014566429  0.013288641          143 
 1912000   0.48972824   -7.7924139    333.62097  0.014540663  0.013278213          104 
 1913000   0.48860911   -7.7944358    334.24496  0.014560244  0.013267791           83 
 1914000   0.48572906    -7.818653    334.06855  0.014544956  0.013257374          100 
 1915000   0.48089748   -7.8032833    334.44991  0.014553956  0.013246985           67 
 1916000   0.49428363   -7.7880823    334.12532  0.014532242  0.013236603           92 
 1917000   0.49036076   -7.8038844    334.14397  0.014525472  0.013226235           95 
 1918000   0.48759255   -7.8012755    334.34236  0.014526519  0.013215878          103 
 1919000   0.47416295   -7.8044135     334.0834  0.014507704  0.013205517           93 
 1920000   0.49390603   -7.8019549     333.9955  0.014496333  0.013195158           79 
 1921000    0.4947117   -7.8034683    334.03812  0.014490635  0.013184818           70 
 1922000   0.48494535   -7.8062071    333.68103  0.014467613  0.013174487           50 
 1923000   0.48067745   -7.8031228    333.51436  0.014452867  0.013164158           64 
 1924000   0.47829343   -7.8100316    333.25377  0.014434068  0.013153844           83 
 1925000   0.48613238   -7.8167521    333.47208  0.014436021  0.013143533           72 
 1926000   0.48445612   -7.8165405    333.60663  0.014434347  0.013133224           82 
 1927000   0.49341712   -7.7873137    333.62591   0.01442769  0.013122937           80 
 1928000   0.49190785    -7.812266    333.56765  0.014417689  0.013112644          162 
 1929000   0.47681005    -7.801237    334.34344  0.014443729  0.013102371           92 
 1930000   0.48541474   -7.8006509    333.30106  0.014391237    0.0130921          113 
 1931000   0.49136191   -7.7989861    333.40871   0.01438843  0.013081842          150 
 1932000   0.48246926    -7.804334    334.07356   0.01440966  0.013071595          105 
 1933000   0.48263958   -7.8024563     334.3181  0.014412748  0.013061348          110 
 1934000   0.47515325   -7.8110481    333.84299  0.014384824  0.013051126           76 
 1935000   0.46782893   -7.8267306    333.60432  0.014367111  0.013040902          108 
 1936000    0.4758689   -7.8189174    334.14353    0.0143829  0.013030685           96 
 1937000   0.48668052   -7.8105454    333.56579  0.014350619  0.013020483          114 
 1938000   0.47138634   -7.8020195    334.19476   0.01437026   0.01301029          160 
 1939000    0.4865947   -7.8161152    333.55834  0.014335497  0.013000094          166 
 1940000   0.48422517   -7.8149892    333.49078  0.014325205  0.012989915           86 
 1941000   0.47907905   -7.8210657    333.82493  0.014332171  0.012979746          120 
 1942000   0.47618504   -7.8198438    333.91937  0.014328844  0.012969583          111 
 1943000   0.48257241    -7.812259    333.38776  0.014298669  0.012959429          100 
 1944000   0.47090338   -7.8117226    333.42817  0.014293046   0.01294928          137 
 1945000   0.47864044   -7.8201594    333.51058  0.014289228  0.012939147          166 
 1946000   0.46762862   -7.8093902    333.92459  0.014299614   0.01292903           63 
 1947000   0.47804302   -7.8023218    333.45052  0.014271979  0.012918914           93 
 1948000   0.47908224   -7.8344883    333.75706  0.014277766   0.01290881           63 
 1949000   0.47853751   -7.8174337    332.98728  0.014237527  0.012898717           86 
 1950000   0.47429707   -7.8233179    333.36292  0.014246279  0.012888635           69 
 1951000   0.46983635   -7.8291382    333.64029  0.014250824  0.012878569           92 
 1952000    0.4669134   -7.8310758    333.36563  0.014231798  0.012868505          106 
 1953000    0.4667934   -7.8313966    333.54301  0.014232079  0.012858446           59 
 1954000   0.47399838   -7.8016616     333.5954   0.01422703   0.01284839           70 
 1955000   0.48342927   -7.8455863    333.73696  0.014225787  0.012838357           73 
 1956000    0.4722144   -7.8085216    333.34475  0.014201804  0.012828334           81 
 1957000   0.46373427   -7.8076326    333.54129  0.014202916  0.012818324          140 
 1958000   0.46450714   -7.8172397    333.40924  0.014190043  0.012808316           83 
 1959000   0.47152364   -7.8304922    333.95817   0.01420615   0.01279833           95 
 1960000   0.47748253   -7.8237721    333.33077  0.014172227  0.012788349          127 
 1961000   0.47224756   -7.8226146    333.86533  0.014187716  0.012778376           93 
 1962000    0.4775447   -7.8316981    333.00175  0.014143805    0.0127684           88 
 1963000     0.461172   -7.8206434    333.91805  0.014175499  0.012758437           85 
 1964000   0.47550106   -7.8323504    333.29886  0.014142009  0.012748495           86 
 1965000   0.47449465   -7.8250866    333.25704  0.014133038  0.012738553           74 
 1966000   0.46942759   -7.8295384    333.89352  0.014152828  0.012728626          128 
 1967000   0.46762316   -7.8209968    333.62351  0.014134194  0.012718699          142 
 1968000    0.4673122    -7.828838     333.3223  0.014114257  0.012708781           93 
 1969000   0.47154309   -7.8329279    333.34808   0.01410818   0.01269887          183 
 1970000   0.45817463   -7.8278428    333.11293  0.014091072  0.012688966          138 
 1971000   0.46804455   -7.8294467    333.22368  0.014088605  0.012679079          117 
 1972000   0.47288496   -7.8325388    333.45913   0.01409141  0.012669204           66 
 1973000   0.46424646   -7.8286927    333.31389  0.014078134  0.012659331           53 
 1974000   0.45821569    -7.833411    333.16119  0.014064556  0.012649479          108 
 1975000   0.46470669   -7.8164533     333.3421  0.014065067  0.012639633          109 
 1976000    0.4547784    -7.816863    333.34993   0.01405828  0.012629799           98 
 1977000    0.4789394   -7.8301581    333.30871  0.014049432  0.012619973           60 
 1978000   0.45617369   -7.8328201    333.04052   0.01403103   0.01261016           60 
 1979000   0.45417353   -7.8251903    333.50929  0.014043679  0.012600351          115 
 1980000   0.46216874   -7.8163976    333.59813  0.014040325  0.012590547           91 
 1981000    0.4613411   -7.8369248     332.9365  0.014005405  0.012580755          136 
 1982000   0.46177909   -7.8482686    333.20309  0.014009548  0.012570972           97 
 1983000   0.45579064   -7.8374896    333.48493  0.014014327  0.012561201          154 
 1984000   0.45460931   -7.8393521    333.58784  0.014011586  0.012551439           72 
 1985000   0.46759226   -7.8418972    333.21039  0.013988681  0.012541685          157 
 1986000   0.44925059   -7.8440754    333.45971  0.013992099  0.012531943           85 
 1987000   0.46550526   -7.8550533     333.0549   0.01396808  0.012522205           86 
 1988000   0.45783924   -7.8489532    333.28846  0.013970844  0.012512481           84 
 1989000   0.45719594   -7.8301327    333.21215  0.013960623  0.012502767           76 
 1990000   0.46946253   -7.8428806    332.74754  0.013934152  0.012493047           92 
 1991000   0.46110932   -7.8523129    333.02527  0.013938778  0.012483338          123 
 1992000   0.47202124   -7.8554852    333.15802  0.013937334  0.012473645           67 
 1993000    0.4576262   -7.8428466    333.25966   0.01393459  0.012463959          125 
 1994000    0.4566507   -7.8544959    333.56519  0.013940371  0.012454282          112 
 1995000   0.44628639   -7.8516622    332.78131   0.01390064  0.012444616           73 
 1996000   0.44923314   -7.8441468     333.2573  0.013913548  0.012434958          156 
 1997000   0.45181293   -7.8448453    332.66751  0.013881969  0.012425306           84 
 1998000    0.4562312   -7.8429804    333.19614   0.01389707  0.012415665           86 
 1999000     0.452144   -7.8398552    332.94122   0.01387949  0.012406042           97 
 2000000   0.45162577   -7.8557589    333.15134  0.013881306  0.012396421          113 
 2001000    0.4589764   -7.8491652    332.84914  0.013861783  0.012386813          209 
 2002000   0.45177366   -7.8515312    333.31656  0.013874316  0.012377206           97 
 2003000   0.45574015   -7.8494129     333.2357  0.013864025  0.012367608           78 
 2004000   0.44717467    -7.847626    333.56257  0.013870699  0.012358024          174 
 2005000   0.45211896   -7.8547214    332.71704  0.013828639  0.012348456          239 
 2006000   0.45105559    -7.851435    333.25165  0.013843954  0.012338895           85 
 2007000   0.46459766   -7.8590306    332.92859  0.013823642   0.01232934           61 
 2008000   0.45823489    -7.859225    332.74701  0.013809222  0.012319792           57 
 2009000   0.44448649   -7.8477653    332.78922  0.013804099  0.012310258          143 
 2010000   0.45059234   -7.8497813    333.03481  0.013807413   0.01230073           93 
 2011000   0.44760238   -7.8563014     332.7537  0.013788899  0.012291211           88 
 2012000   0.44699868   -7.8584157    332.83453  0.013785393  0.012281702           75 
Loop time of 4414.41 on 48 procs for 2000000 steps with 4000 atoms

Performance: 78289.122 tau/day, 453.062 timesteps/s
99.4% CPU use with 48 MPI tasks x no OpenMP threads

MPI task timing breakdown:
Section |  min time  |  avg time  |  max time  |%varavg| %total
---------------------------------------------------------------
Pair    | 273.58     | 296.01     | 313.28     |  45.3 |  6.71
Neigh   | 27.801     | 28.403     | 29.3       |   5.7 |  0.64
Comm    | 244.42     | 263.29     | 292.87     |  49.2 |  5.96
Output  | 3.9716     | 3.973      | 4.0038     |   0.2 |  0.09
Modify  | 3761.7     | 3775.9     | 3792.8     |  12.4 | 85.53
Other   |            | 46.88      |            |       |  1.06

Nlocal:        83.3333 ave          90 max          77 min
Histogram: 4 1 3 11 7 3 12 2 2 3
Nghost:        1837.62 ave        1855 max        1817 min
Histogram: 2 3 6 5 4 6 4 8 9 1
Neighs:        11363.7 ave       12896 max       10193 min
Histogram: 3 4 8 8 7 8 3 6 0 1
FullNghs:      22727.8 ave       24738 max       20641 min
Histogram: 2 2 5 8 4 10 7 5 2 3

Total # of neighbors = 1090935
Ave neighs/atom = 272.73375
Neighbor list builds = 107663
Dangerous builds = 1

#clear
#
#next RN
#
#jump SELF
Total wall time: 1:13:37
