
units lj                  # Use reduced LJ style units
atom_style atomic         # Uncharged point particles
atom_modify map hash      # Needed for indexing of clusters etc
                          # Used to be able to find where atoms are in relation to each other.

lattice fcc 1.0 spacing 1 1 1
Lattice spacing in x,y,z = 1.5874011 1.5874011 1.5874011
region box block 0 10 0 10 0 10 units lattice
create_box 2 box
Created orthogonal box = (0.0000000 0.0000000 0.0000000) to (15.874011 15.874011 15.874011)
  3 by 4 by 4 MPI processor grid
create_atoms 1 box
Created 4000 atoms
  using lattice units in orthogonal box = (0.0000000 0.0000000 0.0000000) to (15.874011 15.874011 15.874011)
  create_atoms CPU = 0.002 seconds
set type 1 type/fraction 2 0.14 78393
Setting atom values ...
  590 settings made for type/fraction
mass 1 1.0
mass 2 1.0
pair_style lj/cut  3.5
pair_modify tail  yes
pair_coeff 1  1  1.0  1.0   # Intearaction between 1 and 1 set with epsilon = 1 and sigma = 1
pair_coeff 1  2  1.5  0.8
pair_coeff 2  2  0.5  0.88

write_data data.0
System init for write_data ...
Neighbor list info ...
  update every 1 steps, delay 10 steps, check yes
  max neighbors/atom: 2000, page size: 100000
  master list distance cutoff = 3.8
  ghost atom cutoff = 3.8
  binsize = 1.9, bins = 9 9 9
  1 neighbor lists, perpetual/occasional/extra = 1 0 0
  (1) pair lj/cut, perpetual
      attributes: half, newton on
      pair build: half/bin/atomonly/newton
      stencil: half/bin/3d
      bin: standard
WARNING: Not all mixed pair coeffs generated from mixing. Use write_data with 'pair ij' option to store all pair coeffs. (../write_data.cpp:312)


#############################
#   M E L T   S Y S T E M   #
#############################

velocity all create 2.4 5300450 mom yes dist gaussian # Assign velocities
                                                    # Temperature 2.4, random number seed, zero linear momentum
                                                                                # Gaussian distribution

timestep 0.002   # simulation timestep
thermo 1000       # output thermodynamic data every 1000 steps bf 100

# Define a fix  in this case with index 1 applied to all
# particles in the simulation. This fix is for simulations
# in the anisotropic NPT ensemble. Note that we use the MTK
# correction.
fix 1 all npt temp 2.4 2.4 0.1 iso 5.68 5.68 0.5 mtk yes tchain 5 pchain 5 # Use NPT ensemble
                                                                         # Set temperature and pressure and damping
                                                                         # Numbers of thermostats in chain and in barostat
run 10000          # run for 10000 steps
Per MPI rank memory allocation (min/avg/max) = 3.642 | 3.644 | 3.648 Mbytes
Step Temp E_pair E_mol TotEng Press Volume 
       0          2.4   -7.4253508            0   -3.8262508   -3.2887046         4000 
    1000    2.3895251   -4.7004342            0   -1.1170426    5.7052364    4687.9486 
    2000    2.3992491   -4.7351349            0   -1.1371609    5.5230425    4684.7631 
    3000    2.3405374   -4.6144843            0   -1.1045559    5.8378635    4716.9691 
    4000    2.3452731   -4.6747156            0   -1.1576854    5.6669142    4696.5615 
    5000    2.3931802   -4.7080199            0   -1.1191471    5.7750234    4670.3376 
    6000    2.3613571   -4.7636298            0   -1.2224797    5.7039661    4645.9289 
    7000    2.3892607   -4.7284168            0   -1.1454218    5.5690219    4684.1376 
    8000    2.4045902   -4.7216753            0   -1.1156917    5.6266876    4685.8547 
    9000    2.4383223   -4.7161445            0   -1.0595755    5.7911163    4671.5367 
   10000    2.3570254   -4.7217403            0   -1.1870861    5.6037119    4679.0005 
Loop time of 2.199 on 48 procs for 10000 steps with 4000 atoms

Performance: 785810.096 tau/day, 4547.512 timesteps/s
99.6% CPU use with 48 MPI tasks x no OpenMP threads

MPI task timing breakdown:
Section |  min time  |  avg time  |  max time  |%varavg| %total
---------------------------------------------------------------
Pair    | 0.94533    | 0.99074    | 1.0515     |   2.6 | 45.05
Neigh   | 0.19284    | 0.20146    | 0.211      |   1.0 |  9.16
Comm    | 0.69192    | 0.76284    | 0.82616    |   3.4 | 34.69
Output  | 0.00023874 | 0.0002428  | 0.00030514 |   0.0 |  0.01
Modify  | 0.20925    | 0.2294     | 0.24618    |   2.1 | 10.43
Other   |            | 0.01433    |            |       |  0.65

Nlocal:        83.3333 ave          92 max          76 min
Histogram: 1 6 3 11 2 13 5 2 4 1
Nghost:        1481.85 ave        1512 max        1456 min
Histogram: 3 5 7 6 5 6 6 7 2 1
Neighs:        8146.42 ave        9136 max        7350 min
Histogram: 2 7 6 9 5 5 8 1 2 3

Total # of neighbors = 391028
Ave neighs/atom = 97.757000
Neighbor list builds = 911
Dangerous builds = 215

# Equilibrate just above the melting temperature to avoid step fn in T

fix 1 all npt temp 1.25 1.25 0.1 iso 5.68 5.68 0.5 mtk yes tchain 5 pchain 5
run 2000
Per MPI rank memory allocation (min/avg/max) = 3.642 | 3.644 | 3.648 Mbytes
Step Temp E_pair E_mol TotEng Press Volume 
   10000    2.3570254   -4.7217403            0   -1.1870861    5.6037119    4679.0005 
   11000    1.2481955   -6.3454377            0   -4.4736125    5.6115053    3853.5176 
   12000    1.2384706   -6.3463648            0   -4.4891233    5.7662852    3836.6959 
Loop time of 0.495239 on 48 procs for 2000 steps with 4000 atoms

Performance: 697844.442 tau/day, 4038.452 timesteps/s
99.6% CPU use with 48 MPI tasks x no OpenMP threads

MPI task timing breakdown:
Section |  min time  |  avg time  |  max time  |%varavg| %total
---------------------------------------------------------------
Pair    | 0.21683    | 0.23442    | 0.25518    |   1.9 | 47.34
Neigh   | 0.0319     | 0.034541   | 0.037296   |   0.6 |  6.97
Comm    | 0.14898    | 0.17084    | 0.19426    |   2.5 | 34.50
Output  | 5.118e-05  | 5.2206e-05 | 6.4885e-05 |   0.0 |  0.01
Modify  | 0.044924   | 0.050866   | 0.057326   |   1.4 | 10.27
Other   |            | 0.004515   |            |       |  0.91

Nlocal:        83.3333 ave          90 max          71 min
Histogram: 1 0 0 4 5 5 16 10 4 3
Nghost:        1690.69 ave        1720 max        1673 min
Histogram: 3 5 13 6 11 5 1 1 2 1
Neighs:        9950.38 ave       10721 max        8200 min
Histogram: 1 0 0 4 3 4 10 12 9 5

Total # of neighbors = 477618
Ave neighs/atom = 119.40450
Neighbor list builds = 145
Dangerous builds = 8

#############################
# L I N E A R  Q U E N C H  #
#############################

# Define solid atoms. This closely follows ten Wolde  Ruiz-Montero and Frenkel  Faraday Discuss  1996  104  93-110
# Compute components of the per-atom q6 vector
compute q6 all orientorder/atom degrees 1 6 components 6 nnn NULL cutoff 1.3 # compute the Q6 parameter.
                                                                             # Use all neighbours within 1.3 unit cell.

# get number of connections
compute coord_number all coord/atom orientorder q6 0.5

# An atom is solid if it has 8 or more connections (of a possible 14)
variable is_solid atom c_coord_number>=8
group solid dynamic all var is_solid    # Must be dynamic to update
dynamic group solid defined

# do clustering
compute cluster solid cluster/atom 1.3 # Create a cluster where all atoms within are solid and max 1.3 units from another member

# define chunks one chunk per cluster
compute clus_chunks solid chunk/atom c_cluster nchunk every compress yes  # Says which atoms are in which chunk

# count the size of each chunk
compute size_chunks solid property/chunk clus_chunks count


# Find the maximum entry in the vector of chunk sizes
variable max_n equal max(c_size_chunks)


# Thermo style which includes this variable
# thermo_style custom step temp pe vol v_max_n

thermo ${N}  # Print the thermo information every 100 steps
thermo 1000  

# Reset the npt fix at a lower temperature (below freezing)
fix 1  all npt temp  ${temp} ${temp}  0.1  iso  5.68  5.68  0.5  mtk yes tchain  5  pchain  5
fix 1  all npt temp  0.45 ${temp}  0.1  iso  5.68  5.68  0.5  mtk yes tchain  5  pchain  5
fix 1  all npt temp  0.45 0.45  0.1  iso  5.68  5.68  0.5  mtk yes tchain  5  pchain  5

dump dmp2 all dcd ${N} traj.dcd
dump dmp2 all dcd 1000 traj.dcd


compute msd all msd com yes
variable twopoint equal c_msd[4]/6/(step*dt+1.0e-6)
fix 9 all vector 10 c_msd[4]
variable fit equal slope(f_9)/6/(10*dt)
thermo_style custom step temp pe c_msd[4] v_twopoint v_fit v_max_n

fix 1 all npt temp 1.25 ${temp} 0.1 iso 5.68 5.68 0.5 mtk yes tchain 5 pchain 5
fix 1 all npt temp 1.25 0.45 0.1 iso 5.68 5.68 0.5 mtk yes tchain 5 pchain 5
run 5000000 # 5000000  # Run for this many steps
Neighbor list info ...
  update every 1 steps, delay 10 steps, check yes
  max neighbors/atom: 2000, page size: 100000
  master list distance cutoff = 3.8
  ghost atom cutoff = 3.8
  binsize = 1.9, bins = 9 9 9
  4 neighbor lists, perpetual/occasional/extra = 1 3 0
  (1) pair lj/cut, perpetual
      attributes: half, newton on
      pair build: half/bin/atomonly/newton
      stencil: half/bin/3d
      bin: standard
  (2) compute orientorder/atom, occasional
      attributes: full, newton on
      pair build: full/bin/atomonly
      stencil: full/bin/3d
      bin: standard
  (3) compute coord/atom, occasional
      attributes: full, newton on
      pair build: full/bin/atomonly
      stencil: full/bin/3d
      bin: standard
  (4) compute cluster/atom, occasional
      attributes: full, newton on
      pair build: full/bin/atomonly
      stencil: full/bin/3d
      bin: standard
Per MPI rank memory allocation (min/avg/max) = 9.760 | 9.765 | 9.772 Mbytes
Step Temp PotEng c_msd[4] v_twopoint v_fit v_max_n 
   12000    1.2384706   -6.3463648 1.9721523e-34 1.3695501e-36 8.3333333e+20            2 
   13000    1.2514988   -6.3734754   0.56976739 0.0036523549    0.0467263            1 
   14000    1.2532689   -6.3640035    1.1518246 0.0068560986  0.047906898            2 
   15000    1.2699798    -6.358766    1.6588329 0.0092157381  0.046554139            3 
   16000    1.2487004   -6.3593581    2.2057951  0.011488516  0.045760654            2 
   17000    1.2260434   -6.3502805    2.6871096  0.013172106  0.044716492            1 
   18000    1.2570565   -6.3663109    3.1803121  0.014723667  0.043830446            4 
   19000    1.2465893     -6.36563     3.651259  0.016014294  0.043291165            2 
   20000     1.232173   -6.3309337    4.2243673   0.01760153  0.042831062            2 
   21000     1.259031   -6.3567141    4.7559119  0.018872666  0.043003201            4 
   22000    1.2318095   -6.3605616    5.3797238  0.020377741  0.043359752            3 
   23000    1.2655311   -6.3345168    5.9700567   0.02163064  0.043960773            3 
   24000    1.2352904   -6.3851087    6.4232175  0.022302838  0.044133107            1 
   25000    1.2420414   -6.3899789    6.8911871  0.022970623   0.04411959            2 
   26000    1.2402256   -6.3549569    7.5269797  0.024124934  0.044136995            4 
   27000    1.2380056    -6.328771    8.0029391  0.024700429  0.044233796            2 
   28000    1.2343519   -6.3681532    8.6233798   0.02566482   0.04433992            3 
   29000    1.2826743   -6.3485925    9.2370791   0.02654333  0.044590501            3 
   30000    1.2487089   -6.3218907    9.8096098  0.027248916  0.044797494            1 
   31000    1.2331659   -6.3444243    10.380185  0.027903723  0.044992224            3 
   32000    1.2477561   -6.3308094    10.777762  0.028067089  0.045056231            2 
   33000    1.2334728   -6.3537043    11.426412  0.028854576  0.045089993            2 
   34000    1.2649101   -6.3639268    11.903411  0.029175027  0.045153847            2 
   35000    1.2399008   -6.3561124    12.432351  0.029600834  0.045121527            1 
   36000     1.253708   -6.3533043    12.970685  0.030024733  0.045107099            2 
   37000    1.2573558   -6.3899311    13.393146  0.030164742  0.045073684            3 
   38000    1.2488572   -6.3618386    14.027219  0.030761445  0.045061176            3 
   39000    1.2530048   -6.3677836     14.57241  0.031137627  0.045043331            2 
   40000    1.2333411   -6.3549474    15.123772  0.031507859  0.045069085            1 
   41000    1.2364484   -6.3506717    15.584759  0.031676338  0.045044156            2 
   42000    1.2659708    -6.339911    16.077754  0.031900305   0.04497556            1 
   43000    1.2237965   -6.3700167    16.408591  0.031799594  0.044850685            3 
   44000    1.2261308   -6.3386625    17.069313  0.032328245  0.044726262            1 
   45000    1.2141745   -6.3643262    17.575563  0.032547339  0.044657219            1 
   46000    1.2516061   -6.3614476    18.171767  0.032919868  0.044613863            3 
   47000    1.2540392   -6.3693111    18.784794  0.033306372  0.044602698            1 
   48000    1.2634075   -6.3889881    19.232768  0.033390221  0.044592979            2 
   49000    1.2623896   -6.3436364    19.759377  0.033604382  0.044548585            1 
   50000    1.2460416   -6.3648844    20.347986  0.033913309  0.044531336            2 
   51000     1.252289   -6.3315535    20.861573  0.034087537  0.044535111            2 
   52000    1.2347248   -6.4041359    21.338201  0.034195835   0.04452314            1 
   53000    1.2350073   -6.3505166    21.817016  0.034303484  0.044494694            2 
   54000    1.2804495   -6.3317439    22.425745   0.03460763  0.044471555            2 
   55000    1.2579601   -6.2967627    22.826516  0.034585631  0.044425826            1 
   56000    1.2198546   -6.3386415    23.324725  0.034709412  0.044380959            2 
   57000    1.2330928   -6.3385514    24.099958  0.035233857  0.044350044            4 
   58000    1.2549649   -6.3548601     24.51167  0.035217916  0.044341803            2 
   59000    1.2364767   -6.3842886    24.913926   0.03518916  0.044321128            4 
   60000     1.255394   -6.3620486     25.42504  0.035312556  0.044285141            3 
   61000    1.2263484   -6.3563283     25.96498  0.035471284  0.044247655            1 
   62000    1.2471464   -6.3659366    26.495235  0.035611874  0.044223262            2 
   63000    1.2482084   -6.3089696    27.081585  0.035822202  0.044228372            2 
   64000    1.2456143    -6.404664      27.3646  0.035630989   0.04419889            4 
   65000    1.2466546   -6.3772049    28.001328  0.035899138  0.044150203            3 
   66000    1.2396984   -6.3890107    28.659926  0.036186775  0.044137984            2 
   67000    1.2294347   -6.3860418     29.23475  0.036361629  0.044141666            3 
   68000    1.2600368     -6.37245    29.715779  0.036416396  0.044132924            3 
   69000    1.2639652   -6.3848314      30.1262  0.036384299  0.044113205            3 
   70000     1.222212   -6.3415666    30.773468   0.03663508  0.044096686            1 
   71000    1.2542279   -6.3778447    31.255847  0.036685267  0.044073898            2 
   72000    1.2189079   -6.3649464    31.668123   0.03665292  0.044043793            2 
   73000    1.2217262   -6.3426495    32.054243  0.036591602  0.044000003            1 
   74000     1.238781   -6.3568309    32.417246  0.036505908  0.043945574            2 
   75000    1.2341768   -6.3455167    32.912223  0.036569136  0.043889172            2 
   76000    1.2548153   -6.3237543    33.386625  0.036608142  0.043836044            3 
   77000    1.2131904   -6.3362764    34.016222  0.036814093  0.043784259            3 
   78000    1.2336441   -6.3475308     34.61967  0.036986827  0.043743563            3 
   79000    1.2377692   -6.3757472    35.085713  0.037010245  0.043714518            1 
   80000    1.2583678   -6.3558236    35.622319  0.037106582   0.04368412            3 
   81000    1.2154526    -6.369341     35.89451  0.036928508  0.043650128            1 
   82000    1.2119661    -6.362709    36.631365  0.037226997  0.043614523            3 
   83000    1.2431212   -6.3231406    37.093193  0.037242162  0.043588004            2 
   84000    1.2503047   -6.3720896    37.557818  0.037259739  0.043549292            2 
   85000    1.2552594   -6.3687429    37.848782  0.037106649   0.04350406            4 
   86000    1.2486418   -6.3875494    38.269151   0.03708251  0.043453456            2 
   87000    1.2237904   -6.3703013    38.781773  0.037147292  0.043401261            2 
   88000    1.2505688   -6.3825574    39.364738  0.037277213  0.043352585            2 
   89000    1.2672084   -6.3761748    39.886739  0.037347134  0.043312198            2 
   90000    1.2549624   -6.4112377    40.602143  0.037594577  0.043279709            3 
   91000    1.2631738   -6.4233244    41.089168  0.037627443  0.043259598            1 
   92000    1.1952233   -6.4432443    41.688304  0.037761145  0.043247999            1 
   93000    1.2320193   -6.3788124    42.414718  0.038006019  0.043243519            2 
   94000     1.243306   -6.3687604    42.630031   0.03779258  0.043228615            2 
   95000    1.2498833   -6.3912351    43.061533  0.037773275  0.043212255            1 
   96000    1.2426806   -6.4028104    43.599343  0.037846652  0.043190534            2 
   97000    1.2130437   -6.3808774    43.887271  0.037703841  0.043161186            3 
   98000    1.2174184   -6.3961045    44.463605  0.037809188  0.043127356            2 
   99000    1.2469067    -6.411477    45.115605  0.037976099  0.043099909            1 
  100000    1.2340691   -6.3638652    45.913948  0.038261623  0.043088943            1 
  101000    1.2146834   -6.3471317    46.566848  0.038421491  0.043092309            1 
  102000    1.2512701   -6.3931242    46.656297   0.03811789  0.043082247            4 
  103000    1.2446754   -6.3642717    46.917101   0.03795882  0.043060926            3 
  104000     1.235871   -6.4390146    47.201998  0.037822113  0.043031977            2 
  105000    1.2443764   -6.3865445    48.071559   0.03815203  0.042997398            3 
  106000    1.2152072   -6.3634267     48.44156  0.038082988  0.042969158            1 
  107000    1.2269165   -6.3793248     48.92716  0.038105264  0.042933444            2 
  108000    1.2319591   -6.4120476    49.190297  0.037955476  0.042907858            4 
  109000    1.2200954    -6.375777    50.006109   0.03823097  0.042883668            3 
  110000    1.2356809   -6.3634249    50.646253  0.038368373  0.042866388            1 
  111000    1.2234799   -6.4066373    51.059829  0.038333205  0.042845887            2 
  112000    1.2443242   -6.3969812    51.484845  0.038307177  0.042822491            2 
  113000    1.2114228   -6.3482954    52.293783  0.038564736  0.042804886            2 
  114000    1.2773662   -6.3843498    52.836201  0.038622954  0.042794092            4 
  115000    1.2445875   -6.3734167    53.176474  0.038533677   0.04278704            2 
  116000     1.229385   -6.3529882    53.677292  0.038561273  0.042781238            3 
  117000    1.2287191   -6.3826588     54.27527  0.038657599  0.042772179            2 
  118000    1.2117731    -6.373072     54.78054  0.038686822  0.042767935            1 
  119000    1.2336614   -6.4320625    55.228073  0.038675121    0.0427633            1 
  120000    1.2330839   -6.3907276    55.849897   0.03878465  0.042758587            2 
  121000     1.237925   -6.4023381    56.022279  0.038582837  0.042748542            3 
  122000    1.2396221   -6.3850411    56.622902  0.038676845  0.042735483            2 
  123000    1.2340175   -6.3788084    57.071647  0.038666427  0.042719518            2 
  124000    1.2228688   -6.3567935    57.669826  0.038756603  0.042701707            4 
  125000    1.2366884   -6.4730465    57.860766  0.038573844  0.042681818            3 
  126000    1.2031479     -6.42772    58.465373  0.038667574  0.042666646            3 
  127000    1.2206719   -6.3665025    59.223786  0.038860752  0.042657128            3 
  128000    1.2664088    -6.372775    59.766209  0.038910292  0.042652378            2 
  129000    1.2431324   -6.3966403    60.446412   0.03904807  0.042649422            1 
  130000    1.2456281   -6.3915751    60.607715  0.038851099  0.042646572            4 
  131000    1.2532871   -6.3694536    61.288972  0.038987895  0.042642842            2 
  132000    1.2332149   -6.3713166    62.072062  0.039186908  0.042637713            4 
  133000    1.2274505   -6.3402618    62.428467  0.039115581  0.042634275            2 
  134000    1.2365234   -6.3592497    62.844558  0.039082437  0.042627481            2 
  135000    1.2328685   -6.3557589     63.08624  0.038942123  0.042618529            3 
  136000    1.2220846   -6.3783992     63.51416   0.03891799  0.042601445            3 
  137000    1.2314172   -6.3610111    64.067162  0.038970293  0.042587686            4 
  138000    1.2567293   -6.3848027    64.467639  0.038929733  0.042570548            2 
  139000    1.2223363   -6.3949622    64.850174  0.038879001   0.04255255            3 
  140000    1.2338225   -6.3777702     65.48018  0.038976298  0.042534699            2 
  141000    1.2264318    -6.365879    66.087364  0.039058726  0.042518701            4 
  142000    1.2178354   -6.4006184    66.771906  0.039185391   0.04250576            2 
  143000     1.243555   -6.4039492    67.138892  0.039125228  0.042496607            1 
  144000    1.2422139   -6.4006426    67.308923  0.038951923   0.04248492            3 
  145000    1.2428416   -6.3544583    68.164138  0.039174792  0.042472492            5 
  146000    1.2114178   -6.3591469    68.607797  0.039159701  0.042462916            1 
  147000    1.2048262   -6.3959403    69.284574  0.039276969  0.042454652            4 
  148000    1.2092814    -6.385443    69.712692  0.039252642  0.042447148            2 
  149000    1.2103574    -6.399869    70.309676  0.039323085  0.042440558            2 
  150000    1.2131375   -6.3748722    70.824965  0.039347203  0.042436976            3 
  151000    1.1967602    -6.337261     71.38397  0.039395127  0.042434759            1 
  152000    1.2402489   -6.3983213    71.750043  0.039336646  0.042430382            3 
  153000    1.2311643   -6.4220164    72.212732  0.039331553  0.042421399            3 
  154000    1.2252843   -6.4049487    72.554804  0.039261257  0.042411795            4 
  155000    1.2214165   -6.3831582      72.9989   0.03924672   0.04240214            3 
  156000    1.2213424   -6.3810769    73.594555  0.039313331   0.04239517            2 
  157000    1.2545323   -6.4170653     74.33664  0.039456815  0.042388876            2 
  158000    1.2279148   -6.4029245    74.942521  0.039526646    0.0423836            1 
  159000    1.2250648   -6.3993973    75.244039  0.039436079  0.042381596            2 
  160000     1.217489   -6.3816231    75.591758  0.039370707  0.042378225            4 
  161000      1.21518   -6.4019235    76.452832  0.039571859  0.042371302            1 
  162000    1.2259389   -6.3953559    77.082948  0.039651722  0.042367026            1 
  163000    1.2260066   -6.4171313    77.224548  0.039480852   0.04236485            2 
  164000    1.2447646   -6.4036298    77.733613  0.039498787  0.042360219            2 
  165000    1.2157259   -6.3726874    78.417818  0.039604958  0.042355934            1 
  166000     1.234458   -6.4095846    78.838624  0.039577623  0.042352511            2 
  167000    1.2141066   -6.4048099     79.63832   0.03973968  0.042355435            2 
  168000    1.2041275   -6.4084483    79.922214  0.039643955  0.042356462            2 
  169000    1.1996065   -6.3785143    80.388035   0.03963907  0.042356577            4 
  170000     1.203968   -6.3843246    80.895982  0.039654893  0.042357168            2 
  171000    1.1848779   -6.3702414    81.334494  0.039636693  0.042354701            3 
  172000    1.2415632   -6.3939335    82.153857  0.039803225  0.042352284            2 
  173000    1.2096862   -6.4431925    82.125761  0.039559615  0.042344855            3 
  174000    1.2307318   -6.4423777     82.41438  0.039470488  0.042335416            2 
  175000    1.2437024   -6.4079859    82.881264  0.039467269  0.042322506            2 
  176000    1.2056201   -6.4108068    83.117239  0.039354753  0.042311188            2 
  177000    1.2304467   -6.3996534    83.863747  0.039483873  0.042296849            4 
  178000    1.2143848   -6.4372979     83.93573  0.039295754  0.042282133            1 
  179000    1.2143846   -6.4133003    84.966801  0.039556239  0.042268693            5 
  180000    1.1793802   -6.3965623    85.494578  0.039580823  0.042256886            2 
  181000    1.2016972   -6.4028147    85.722308  0.039466993  0.042247291            4 
  182000    1.2509948   -6.3566312    86.387366  0.039554654  0.042234794            3 
  183000    1.2389625   -6.3980714     86.88482  0.039565036  0.042225295            3 
  184000    1.2193461   -6.3987553    87.223519  0.039503405  0.042214608            1 
  185000    1.2014118   -6.3840133    87.866026  0.039579291  0.042202566            2 
  186000    1.2125871   -6.4167513    88.409382  0.039609938  0.042192488            1 
  187000    1.1944829   -6.3791786    89.302485  0.039796116   0.04218781            2 
  188000    1.2404812   -6.4009318    90.108077  0.039941523   0.04218398            2 
  189000    1.2142675   -6.3997171    90.453665  0.039882568  0.042181928            1 
  190000     1.262536    -6.417705    90.723964  0.039791212   0.04218177            4 
  191000    1.2197081   -6.3731654    91.517705  0.039929191  0.042180574            1 
  192000    1.2328227    -6.404728    92.021844  0.039940036  0.042182222            1 
  193000    1.2130118   -6.4394764    92.425651  0.039907449  0.042182132            3 
  194000    1.2246569   -6.4253403    92.772021  0.039850524  0.042182461            3 
  195000     1.221133    -6.394765    93.558555  0.039982288  0.042182456            3 
  196000    1.1983842     -6.42562    93.875315  0.039912974  0.042183425            1 
  197000    1.2234173   -6.4072927    94.266555  0.039875869  0.042183182            3 
  198000    1.2215604   -6.3388703    95.324913  0.040119913  0.042183715            3 
  199000    1.2039794   -6.3892531    94.856885  0.039722314  0.042180257            1 
  200000    1.2119129   -6.3936399    95.570048  0.039820853  0.042174944            2 
  201000    1.2101434   -6.4149735    95.809463     0.039722  0.042167314            4 
  202000    1.1956614   -6.4178462    96.631796  0.039864602  0.042162595            3 
  203000    1.2081966   -6.4097383    97.373632  0.039972755  0.042157766            2 
  204000    1.2245781   -6.4352595    97.769681  0.039938595  0.042154313            2 
  205000    1.2104283   -6.4141698    98.446476  0.040018893  0.042152717            3 
  206000    1.2281783   -6.3906074    98.881558   0.04000063  0.042150188            2 
  207000     1.220078   -6.4212498    99.419731  0.040024046  0.042149347            8 
  208000     1.238108   -6.4197151    100.06874  0.040091641  0.042148411            2 
  209000    1.2367863   -6.3876093    100.29927  0.039991732   0.04214714            3 
  210000    1.2081416   -6.4494744    100.53996  0.039896808  0.042143259            1 
  211000    1.2235429   -6.4230957    101.27789  0.039999167  0.042139605            1 
  212000    1.2397142   -6.4064069    101.70084  0.039976746  0.042139138            1 
  213000    1.2356979   -6.4054763    102.12114  0.039953496   0.04213597            2 
  214000    1.2053699   -6.4221505    103.01521  0.040114957   0.04213242            3 
  215000      1.22362   -6.4218015    103.34658  0.040056813  0.042130415            2 
  216000    1.2229336   -6.3987252    103.44111  0.039907837  0.042127604            2 
  217000    1.2115608    -6.384462    104.13572  0.039990676  0.042124998            2 
  218000    1.1968651    -6.400931    104.65434  0.040005482  0.042121758            2 
  219000    1.2132347   -6.4317334     105.4489  0.040125152  0.042118993            2 
  220000    1.2092517   -6.4302395    105.72302  0.040046597  0.042115223            1 
  221000    1.2142228   -6.4084294    106.52241  0.040166822  0.042112388            2 
  222000    1.2115694   -6.4305811    106.80201  0.040090843  0.042110899            2 
  223000    1.1784267   -6.3749645    107.41623  0.040140593  0.042109491            1 
  224000    1.2395137   -6.4333472    107.41333  0.039960315  0.042107328            2 
  225000    1.2066787   -6.4379986    108.11749  0.040043516  0.042102431            1 
  226000    1.2193414   -6.3820054    108.42164   0.03997848  0.042096588            3 
  227000    1.2259666   -6.4134932    109.08871  0.040047251   0.04209198            2 
  228000    1.1858396   -6.4319215    109.89614  0.040166716  0.042088538            4 
  229000     1.187646   -6.4637731    110.41718  0.040180925  0.042086629            2 
  230000    1.2199742   -6.4351789    110.56021  0.040058046  0.042083845            2 
  231000    1.2094007   -6.4279573    110.58976  0.039895295  0.042077325            1 
  232000    1.2299948   -6.4295905    111.41336  0.040019167  0.042070885            2 
  233000    1.2303986   -6.3921992    112.41741  0.040206513   0.04206414            1 
  234000     1.202295   -6.4160626     112.0171  0.039892131  0.042056745            2 
  235000    1.2373978   -6.4063263    112.38935  0.039854381  0.042047043            2 
  236000    1.1829188   -6.4174659    113.08384  0.039930736  0.042039222            1 
  237000    1.2252514    -6.394406    113.62871  0.039953835  0.042031719            3 
  238000    1.2344207   -6.4198416    114.11563  0.039956453  0.042022217            3 
  239000    1.2235876   -6.4342558    114.95122   0.04008062  0.042014096            1 
  240000    1.2142696    -6.413054    114.90595    0.0398979  0.042006337            1 
  241000    1.2342447    -6.430518    115.68962  0.040003326  0.041998644            2 
  242000    1.2213666   -6.4392018    115.99472  0.039943087  0.041990305            1 
  243000    1.2049039   -6.4503192    116.26179  0.039870297  0.041983255            3 
  244000     1.251666    -6.422604    116.97592  0.039950794  0.041974037            3 
  245000    1.2268457   -6.3970888    117.27188  0.039888395  0.041963639            3 
  246000    1.2272698   -6.4109083    118.27368   0.04006561  0.041954305            1 
  247000    1.2157508   -6.4192753    118.43936  0.039959298  0.041945299            5 
  248000    1.2269171   -6.4040402    118.95996  0.039973104  0.041935416            3 
  249000    1.2198168   -6.4342962    119.03852  0.039838863  0.041925321            3 
  250000    1.2231018   -6.3951493    119.83869  0.039946229  0.041918534            2 
  251000    1.1953958   -6.4180377    120.80184  0.040106851  0.041912879            1 
  252000    1.2366663   -6.3857699    121.35145  0.040129447  0.041908377            2 
  253000    1.2235734    -6.462785    121.37188  0.039977562  0.041902426            1 
  254000    1.2276207   -6.4532808    121.93878   0.04000616  0.041897254            3 
  255000    1.2106025   -6.4514865    122.31159  0.039971107  0.041890944            4 
  256000     1.210481   -6.3862104    123.20274   0.04010506  0.041885745            1 
  257000    1.2159208   -6.4039819    123.79481   0.04014099  0.041878107            3 
  258000    1.1944298   -6.4218417    123.96931  0.040041768  0.041872239            2 
  259000    1.2171475   -6.4161625     124.4359  0.040037292  0.041864374            2 
  260000    1.2151855   -6.4329806     125.0209  0.040070801  0.041858425            3 
  261000    1.2150839   -6.4100239    125.67052  0.040124687  0.041853567            2 
  262000    1.1947171   -6.4043738    126.46505  0.040224254   0.04184977            3 
  263000    1.2253547   -6.4462284    126.48945  0.040079039  0.041846463            2 
  264000    1.2271455   -6.4417676    127.16119  0.040139263  0.041841584            2 
  265000    1.1951893   -6.4440911     127.4328  0.040073208  0.041836321            2 
  266000    1.1991452   -6.4467324    128.14079  0.040144358  0.041831723            1 
  267000    1.2250953   -6.4477744    128.46599  0.040095502  0.041827861            2 
  268000    1.2188779   -6.4394836    129.16681  0.040163809  0.041823284            2 
  269000     1.196022   -6.4075887    129.65486  0.040165694  0.041819535            3 
  270000    1.2142132   -6.4148964    129.79728  0.040060888  0.041816359            1 
  271000    1.2183327   -6.4758664     130.2185  0.040042589  0.041810683            3 
  272000    1.2232862   -6.4143449    130.94366  0.040117542  0.041804735            3 
  273000     1.187332   -6.4245925    131.22165  0.040055448  0.041800678            5 
  274000    1.2064188   -6.4509439    131.91465  0.040120026  0.041796746            3 
  275000    1.2090617   -6.4568587    132.52218  0.040158236  0.041792566            1 
  276000     1.233166   -6.4238494    133.00729  0.040159207  0.041787282            2 
  277000    1.1905846   -6.4356991    133.50179  0.040162994  0.041782405            1 
  278000    1.2005947   -6.4353267     133.8361  0.040118734  0.041777932            2 
  279000    1.1999737   -6.4379173    134.16548   0.04007332  0.041771776            2 
  280000    1.1829106   -6.4344938    134.93308  0.040158655  0.041766593            2 
  281000    1.2105758   -6.4275564    135.08477  0.040060727  0.041760071            5 
  282000    1.2002491   -6.4141035     135.3734  0.040003961  0.041752537            2 
  283000     1.189028   -6.4210545    135.78043  0.039982458  0.041744916            1 
  284000    1.1922728   -6.4359825    135.63704  0.039799602  0.041734189            1 
  285000    1.2025429   -6.4494228     136.6246  0.039948712  0.041724633            3 
  286000    1.1973026   -6.4617532    136.87019  0.039880592  0.041715223            3 
  287000    1.2127344   -6.4123821    137.77988  0.040005773   0.04170824            2 
  288000    1.1777827   -6.4322138    138.52369  0.040082087  0.041701696            1 
  289000    1.2016269   -6.3996096    139.77877  0.040305297  0.041697268            3 
  290000    1.2132196   -6.4591136    140.31197  0.040319531  0.041693863            3 
  291000    1.2089304     -6.46814    140.69635   0.04029105  0.041691301            3 
  292000      1.22966   -6.4462478    140.77896  0.040176645  0.041688173            2 
  293000    1.1781799    -6.434501    142.10069  0.040415441  0.041684856            2 
  294000    1.1992666   -6.3946324    142.06724  0.040268491  0.041681547            5 
  295000    1.2205225   -6.4294977    142.52066  0.040260072  0.041678572            2 
  296000    1.2027721   -6.4217352    142.93879  0.040241777  0.041675766            2 
  297000    1.1815347   -6.4693381     143.4489  0.040249412  0.041672744            3 
  298000    1.2130162   -6.4491462     143.9723   0.04026071  0.041668242            2 
  299000    1.2276606   -6.4103734    144.21863  0.040194713  0.041663588            1 
  300000    1.2121831   -6.4219623    143.86083  0.039961342  0.041658039            2 
  301000    1.1867373   -6.4424959    144.47716  0.039999213  0.041652446            2 
  302000    1.2234468   -6.5003531    144.85345    0.0399706  0.041645182            2 
  303000    1.1890144   -6.4605088    145.60866  0.040046387  0.041638935            2 
  304000    1.1917173   -6.4473375    146.39117  0.040129159   0.04163334            2 
  305000      1.20087   -6.4388786    147.12817  0.040198953  0.041628286            2 
  306000    1.2074621   -6.4304736    147.19024  0.040084487  0.041622077            2 
  307000    1.1992525   -6.4583474    148.37031  0.040274243  0.041615135            1 
  308000    1.2113564   -6.4390951    147.71129  0.039965176  0.041609652            4 
  309000    1.1853713    -6.452149    148.14868  0.039953798  0.041603113            4 
  310000    1.1969794   -6.4781715    148.74273  0.039984606  0.041596414            5 
  311000    1.1991473   -6.4146019    149.47383  0.040051938  0.041589565            4 
  312000     1.186042   -6.4603159    149.45563  0.039918704  0.041582289            2 
  313000    1.1991775   -6.4123115    150.37457  0.040035829  0.041572902            2 
  314000    1.1852678   -6.4192756    150.19457  0.039860556  0.041564524            3 
  315000    1.1959683   -6.4200211    150.87992  0.039915323  0.041555663            4 
  316000    1.2156757   -6.4682415    151.03499  0.039829902  0.041546894            2 
  317000    1.2241561   -6.4240568     151.5725  0.039845558  0.041537215            1 
  318000    1.2074027   -6.4639679    152.54203  0.039974325  0.041528431            2 
  319000    1.2057142   -6.4089579    152.95905  0.039957955  0.041520064            2 
  320000    1.2149248   -6.4276565    153.16592  0.039886958  0.041511919            1 
  321000    1.2127316   -6.4406935    154.11028  0.040007861   0.04150342            1 
  322000    1.1972925   -6.4190348    153.95426  0.039843235  0.041494559            1 
  323000    1.1993857   -6.4537814     154.3966  0.039834003  0.041485235            7 
  324000    1.2031266   -6.4544317    155.12532  0.039898489  0.041475697            2 
  325000    1.2073281   -6.4751837    155.33136  0.039828553  0.041466783            2 
  326000    1.1818593    -6.437214    156.30145  0.039954359   0.04145839            1 
  327000    1.2016521   -6.4976924    156.66374    0.0399245  0.041451641            6 
  328000    1.2033824   -6.4179608    158.22439  0.040199287   0.04144523            4 
  329000    1.1525714   -6.4307452    158.94734  0.040260219  0.041439404            2 
  330000    1.2186276   -6.4324799    157.78143  0.039843794  0.041433275            1 
  331000    1.2016018   -6.4558831    159.24794  0.040092634  0.041426086            2 
  332000    1.2002053   -6.4190922     158.8648  0.039875702  0.041418601            2 
  333000    1.2122501   -6.4347052    159.89935  0.040014851  0.041411854            2 
  334000    1.1878117   -6.4722974    160.35525  0.040008796  0.041405858            2 
  335000    1.1905744   -6.4777502    160.76265  0.039990709  0.041400006            1 
  336000    1.2258862   -6.4158108    160.87117  0.039898603  0.041393151            3 
  337000    1.1814215    -6.456233     161.3978  0.039910436  0.041386723            3 
  338000    1.2068125   -6.4857488    161.88691  0.039912946  0.041378762            2 
  339000    1.1973217   -6.4327089    162.96036  0.040059085  0.041370485            2 
  340000    1.1966104    -6.449795    162.84872  0.039913901  0.041363349            2 
  341000    1.1989317   -6.4264901    163.17342  0.039876202  0.041355542            2 
  342000     1.195095   -6.4631685     163.5003  0.039839255  0.041346536            2 
  343000    1.2113725   -6.4293126    164.75423  0.040027752  0.041339036            4 
  344000    1.1832546   -6.4650298    164.53029  0.039857145  0.041332897            2 
  345000    1.2032573   -6.4051808    165.62377  0.040005742  0.041326288            2 
  346000    1.2265882   -6.4583619    165.87723  0.039951164  0.041319483            1 
  347000    1.2024036   -6.4308207    166.84226  0.040067785   0.04131332            3 
  348000    1.1954617   -6.4426939    166.66059  0.039909144   0.04130791            3 
  349000    1.2041905   -6.4606887    167.95877  0.040104767  0.041301636            2 
  350000    1.1988325   -6.4618689    168.14902   0.04003548  0.041294538            3 
  351000    1.1909666   -6.4454107    168.07399  0.039903606  0.041287732            1 
  352000    1.1766334   -6.4356598    167.90402  0.039750004  0.041279349            2 
  353000    1.1906428   -6.4540186    169.25392  0.039956072  0.041270251            2 
  354000    1.2010913    -6.487447    168.90373  0.039760766  0.041261366            3 
  355000    1.1829732   -6.4589165    170.22486  0.039958887  0.041253365            3 
  356000    1.2074615   -6.4386512    170.30526  0.039865464  0.041244789            2 
  357000    1.2108687   -6.4870036    170.24659    0.0397401  0.041236283            2 
  358000    1.1742621   -6.4680438    171.08572  0.039824424  0.041227753            2 
  359000      1.19067   -6.4704737    171.15728  0.039730101  0.041218719            4 
  360000     1.202859   -6.4648723    172.04988  0.039826361  0.041209869            3 
  361000     1.221129   -6.4494741    173.07328   0.03995228  0.041202139            4 
  362000    1.1748422   -6.4318427    173.77989  0.040004578  0.041194232            2 
  363000    1.1788617   -6.4717414     173.4029  0.039807828  0.041187401            3 
  364000    1.1953164    -6.471055    173.67208  0.039760092  0.041180353            1 
  365000    1.1780433   -6.4544077    174.79232  0.039906921   0.04117406            4 
  366000    1.1891877   -6.4520175    175.64395  0.039991791   0.04116841            3 
  367000    1.2116006   -6.4941054    176.14459    0.0399965  0.041163844            1 
  368000    1.1855536   -6.4664637    177.35926  0.040162876  0.041160026            6 
  369000    1.1722891     -6.49374    175.65925  0.039670111  0.041155261            2 
  370000    1.1621498   -6.4930264    177.19962  0.039909824  0.041149752            2 
  371000    1.1811547     -6.44353    177.79491  0.039935964  0.041143448            1 
  372000    1.2081751   -6.4738723    178.10716  0.039898557   0.04113654            3 
  373000     1.220916   -6.4458963    179.11531  0.040016826  0.041129938            6 
  374000    1.1897947   -6.4437192    178.63307  0.039802377  0.041123326            3 
  375000    1.2121214   -6.4835134    179.38513  0.039863362  0.041115849            5 
  376000    1.1814408    -6.433324    180.40698  0.039983817  0.041109461            2 
  377000    1.1652573   -6.4886734    180.18811  0.039829378  0.041101899            3 
  378000    1.1976147   -6.4925782    181.42443  0.039996568  0.041096119            2 
  379000     1.210247   -6.4698682    181.60743  0.039931274  0.041091132            2 
  380000    1.1915818   -6.4244106    182.60567  0.040045103  0.041087459            2 
  381000    1.1936301   -6.4780838    182.27181  0.039866976  0.041082427            7 
  382000     1.182748   -6.4372115    183.00787  0.039923182   0.04107524            2 
  383000    1.1967812   -6.4695545     183.2674  0.039875413  0.041068482            1 
  384000    1.1954212   -6.4587065     184.3868  0.040014496  0.041061884            3 
  385000    1.1744035   -6.4676055    184.51683  0.039938709  0.041055619            2 
  386000     1.169738   -6.4469638    185.13603  0.039968919  0.041049649            2 
  387000     1.181828   -6.4383148    185.31073  0.039903258  0.041044516            7 
  388000    1.1956615   -6.4531384     185.5201  0.039845382   0.04103941            1 
  389000    1.1866907   -6.4512977    186.41968  0.039935663  0.041034933            3 
  390000    1.1787823   -6.4901126    186.67991  0.039888869  0.041030213            2 
  391000    1.1691572   -6.4804377    187.41937  0.039944452  0.041025473            1 
  392000    1.1638557   -6.4404023    188.51698  0.040075888  0.041021759            3 
  393000    1.1898291   -6.4990998    189.43449  0.040168467  0.041018459            2 
  394000    1.1838505   -6.4726333    189.23805  0.040024967  0.041015674            2 
  395000    1.2190433   -6.4899558    190.38482  0.040165574  0.041013114            2 
  396000    1.1924994   -6.4759163    190.29355  0.040044939  0.041011157            1 
  397000    1.1881969   -6.4593121    190.42237   0.03997111  0.041008405            2 
  398000    1.1867048   -6.4303036    191.51115  0.040098649  0.041005836            1 
  399000    1.1946252   -6.4840725    191.63988  0.040025037  0.041002368            2 
  400000    1.1950285   -6.4841004    191.76363  0.039950756  0.040997446            2 
  401000    1.2170854   -6.4700759    192.61202  0.040027436  0.040993447            2 
  402000    1.2013064   -6.4821353    192.97251  0.040002592  0.040989281            6 
  403000    1.1808533   -6.4240501    193.68274  0.040050195  0.040984815            3 
  404000    1.1828282   -6.4764033    194.16439  0.040050411  0.040982103            2 
  405000    1.1762681   -6.4589323    194.11441  0.039941236  0.040978523            3 
  406000    1.1719812   -6.4662927    194.77433  0.039978311  0.040974484            2 
  407000    1.1685581   -6.4720353    195.14875  0.039956746  0.040969845            2 
  408000    1.1920108   -6.4778347    195.35147  0.039900217  0.040965416            3 
  409000    1.1894162   -6.4657048    196.37559  0.040011325  0.040960654            3 
  410000    1.1774315   -6.5026546    196.07701  0.039853051  0.040955725            2 
  411000    1.1840066   -6.4535773    197.53721  0.040052152  0.040951272            2 
  412000    1.1640618   -6.4573184    197.30493  0.039907955  0.040946828            7 
  413000    1.1880888   -6.4329664    197.84818  0.039920939  0.040942132            3 
  414000    1.1737589   -6.4412659    198.59471  0.039974781  0.040937579            2 
  415000    1.2034571   -6.4805713    198.45679   0.03985076  0.040932635            3 
  416000    1.1717296   -6.5033213    198.67904  0.039799488  0.040926575            2 
  417000    1.1793106   -6.4363318    199.90742  0.039949524  0.040920312            4 
  418000     1.159936   -6.4803998    199.75107  0.039822781  0.040914904            2 
  419000    1.1662069   -6.5066635    200.54754  0.039886145  0.040909686            2 
  420000     1.176232   -6.4451289    200.98929  0.039878827  0.040905152            2 
  421000    1.1636185   -6.4732593    200.92403  0.039771185  0.040900249            1 
  422000    1.1717662   -6.4775611    201.23286  0.039737927   0.04089452            3 
  423000    1.1771204   -6.4854375    201.66095  0.039728319  0.040887628            2 
  424000    1.1785754    -6.501514    202.03214  0.039707574  0.040880355            3 
  425000    1.1805421   -6.4903113    202.16911  0.039641001  0.040873749            4 
  426000    1.1686137   -6.4825949    203.04627  0.039719537  0.040867614            1 
  427000    1.1863358   -6.4632102    203.75447  0.039764728  0.040861846            4 
  428000    1.1985176   -6.5056687    204.65287  0.039846742  0.040857001            3 
  429000    1.1610695   -6.4692507    204.71314  0.039765566   0.04085171            2 
  430000    1.1808745   -6.5336975     205.0528  0.039738915  0.040845641            2 
  431000    1.2021249   -6.4910001    204.95402  0.039627615  0.040839141            2 
  432000    1.1727505   -6.4539209    205.69369  0.039678566  0.040832234            2 
  433000     1.189517   -6.5114752    206.24505  0.039693043  0.040826376            2 
  434000    1.1607989   -6.4978186    207.04516  0.039755214  0.040819787            1 
  435000    1.1832531   -6.4866652    206.65194  0.039588495  0.040813134            2 
  436000    1.1639924    -6.444427    208.57462  0.039865179  0.040807154            6 
  437000    1.1854963   -6.5027071    208.25192  0.039712419  0.040801618            3 
  438000    1.1902029   -6.5057761    208.01063  0.039575843  0.040795079            2 
  439000    1.1827088   -6.4434435    209.86728  0.039838131  0.040789022            2 
  440000    1.1949343   -6.4779367    210.03818  0.039779958    0.0407834            3 
  441000    1.1762028   -6.4655053     210.9976  0.039871051  0.040777195            3 
  442000    1.1815207    -6.480868    210.69826  0.039724408  0.040771964            2 
  443000    1.2006448   -6.5029877    211.61177  0.039806577  0.040767127            2 
  444000    1.1894341   -6.4920325    211.70635  0.039734675  0.040761656            6 
  445000    1.1859499   -6.4884255    211.99003  0.039698508  0.040756105            2 
  446000    1.1667502   -6.4805201    213.24928  0.039844784  0.040751532            1 
  447000    1.1891567   -6.4723991    213.80058  0.039858422  0.040746929            3 
  448000    1.2070248     -6.50014    213.77095  0.039763941  0.040742592            1 
  449000    1.1781734   -6.4673277     214.8307  0.039872067  0.040737497            1 
  450000    1.1940104   -6.4995793    214.35102  0.039694632  0.040733408            2 
  451000    1.1796581   -6.4988744    214.92308  0.039712321  0.040728542            3 
  452000    1.1856855   -6.4683167    215.82051  0.039789916  0.040723739            4 
  453000    1.1803767   -6.4579461    216.66973  0.039858302   0.04071889            4 
  454000    1.1910933    -6.449568     217.0083  0.039832654   0.04071291            2 
  455000    1.1893713   -6.4840001    216.07781  0.039574691  0.040707094            4 
  456000    1.1722157   -6.4440402    217.14986   0.03968382   0.04070047            4 
  457000    1.1902899   -6.5290509    216.81045  0.039535093  0.040692966            4 
  458000    1.1990018   -6.4922216    217.40586  0.039557107  0.040685374            3 
  459000    1.1720177   -6.4920637    217.98452  0.039575984  0.040677719            3 
  460000     1.202638   -6.4901896    218.71759  0.039622752  0.040670799            1 
  461000    1.1798322   -6.4824403    219.80132  0.039732704  0.040664445            4 
  462000    1.1716065   -6.4813894    220.10933   0.03970226  0.040659038            3 
  463000    1.1729807   -6.4627887    221.65273  0.039894299  0.040654073            3 
  464000    1.1717032   -6.4869064    221.65322  0.039808408  0.040649475            1 
  465000    1.1888335   -6.4999422    221.89855  0.039766766  0.040643967            3 
  466000    1.1884824   -6.4840204    221.51615  0.039613046  0.040638563            4 
  467000    1.1661762   -6.4887201    222.89407  0.039774103  0.040632833            3 
  468000    1.1744627   -6.4732547    222.83537  0.039678663  0.040627333            2 
  469000    1.1604218   -6.4560086    223.12735   0.03964594   0.04062188            2 
  470000    1.1808449   -6.4482249    223.41963   0.03961341  0.040615816            1 
  471000    1.1736863   -6.4996698    223.30892  0.039509716  0.040609463            1 
  472000    1.1932231   -6.4854343    224.00505  0.039548914  0.040601627            2 
  473000    1.1624796   -6.4936574    223.68397  0.039408734  0.040593674            2 
  474000    1.1578299   -6.4487609    224.49904  0.039468889  0.040584863            2 
  475000    1.1785714   -6.4855269     224.7457   0.03942907   0.04057581            2 
  476000    1.1700865   -6.5027669    225.27393  0.039438714  0.040566851            3 
  477000    1.1795293   -6.4536534     225.7112  0.039432425  0.040557663            2 
  478000    1.1837141   -6.4812455    225.48298  0.039310142  0.040547914            2 
  479000    1.1963304   -6.4998774    225.58818  0.039246378  0.040537739            2 
  480000    1.1615241   -6.4966646    226.69937   0.03935753   0.04052787            1 
  481000    1.1599815   -6.5268046     227.0047  0.039328604    0.0405189            3 
  482000    1.1613078   -6.5207625    227.74164  0.039374418  0.040509513            4 
  483000    1.1463377    -6.496963    228.17021  0.039366841  0.040501184            2 
  484000    1.1652211   -6.5249426    228.17985  0.039287165  0.040492168            1 
  485000    1.1840036   -6.4700962    229.42606  0.039420286  0.040483551            2 
  486000    1.1677831   -6.4661225    230.17243  0.039467153  0.040475146            2 
  487000    1.1709551   -6.4678007    229.74507  0.039312983  0.040466706            3 
  488000    1.1519144   -6.4822967    230.24466  0.039317735  0.040458638            3 
  489000    1.1950817   -6.4965175    230.70002  0.039314932  0.040449924            3 
  490000    1.2097321   -6.5156518    231.16764  0.039314224  0.040441451            2 
  491000    1.1684189   -6.4445722    232.10446  0.039393153  0.040433646            1 
  492000    1.1891402   -6.4906894    232.61214  0.039399075  0.040425887            3 
  493000    1.1636907   -6.5159002    232.79538  0.039350132  0.040418094            4 
  494000    1.1848676   -6.4780901    233.83423   0.03944572  0.040410428            2 
  495000    1.1195094   -6.5024798    234.15362  0.039419801  0.040403103            2 
  496000     1.176038   -6.4858303     233.7606  0.039274294  0.040394499            1 
  497000    1.1631351   -6.4994918    234.12029  0.039255582  0.040386512            7 
  498000     1.181791   -6.5214726    234.42103  0.039227079  0.040378257            1 
  499000    1.1889161   -6.4995057    236.06554  0.039423102  0.040369867            2 
  500000    1.1765837    -6.494268    236.21923  0.039369871  0.040361518            2 
  501000    1.1366117   -6.5234719    236.36403  0.039315374  0.040353364            2 
  502000    1.1884224     -6.53663    235.96638  0.039171045  0.040345397            2 
  503000    1.1578686   -6.5006072    237.35446  0.039323138  0.040338072            1 
  504000    1.1944393   -6.5031106     237.9279   0.03933993  0.040329924            3 
  505000    1.1704262   -6.4757654    238.05723  0.039283371  0.040322466            5 
  506000    1.1496939   -6.4781824    239.06076  0.039371008  0.040314782            2 
  507000    1.1294678   -6.5014275     237.7977   0.03908575  0.040306449            4 
  508000    1.1494868   -6.4942676    238.75724  0.039166214  0.040297137            2 
  509000    1.1998025   -6.5014819    239.73947  0.039250077  0.040287717            5 
  510000    1.2013198   -6.4729591    240.68729  0.039327989  0.040279226            1 
  511000    1.1761753   -6.4859583    240.92282  0.039289436  0.040270998            1 
  512000    1.1836989   -6.5082071    240.91507  0.039211437  0.040262213            4 
  513000    1.1820009   -6.4849324    241.45776  0.039223158  0.040254035            3 
  514000    1.1889033   -6.5250199    241.65355  0.039178591  0.040245397            3 
  515000    1.1686595    -6.496021    242.13251  0.039180018  0.040236767            4 
  516000    1.2002743   -6.4749281    243.69836   0.03935697   0.04022887            3 
  517000    1.1838374   -6.4714404    243.85845  0.039306648  0.040220783            2 
  518000    1.1785855   -6.4798589    243.71195  0.039207199    0.0402129            2 
  519000    1.1882398    -6.469786    244.59028  0.039272684  0.040205583            1 
  520000    1.1359808   -6.4808549    245.03386  0.039268248  0.040197589            1 
  521000    1.1881664   -6.4999352    245.02177  0.039190942  0.040188976            3 
  522000    1.1441649   -6.4962831    244.57368  0.039044329  0.040180062            3 
  523000    1.1616885   -6.5265712    245.02228  0.039041153  0.040171021            3 
  524000    1.1562412    -6.496389    245.67908    0.0390711  0.040162471            4 
  525000    1.1622388   -6.5260317    245.69084  0.038998547  0.040152856            2 
  526000    1.1625784   -6.5060453    246.75812  0.039093492  0.040143923            1 
  527000    1.1700673   -6.5244368    246.48835  0.038976652   0.04013536            3 
  528000    1.2026549   -6.5245252    247.44347  0.039053578   0.04012708            3 
  529000     1.174877     -6.53522     248.1454  0.039090328  0.040118877            4 
  530000     1.179425   -6.4948309    248.95821  0.039144372  0.040110159            2 
  531000     1.179306    -6.485588    248.87265  0.039057227  0.040101655            5 
  532000    1.1581529   -6.4993194    249.74353  0.039120226  0.040093605            2 
  533000    1.1680503   -6.4926263    250.57982  0.039177583  0.040085586            1 
  534000    1.1722818    -6.499344    250.47988   0.03908862  0.040078303            2 
  535000    1.1520046   -6.5269756    250.89587  0.039080354  0.040070415            2 
  536000     1.171349   -6.5009732    251.74165  0.039138939   0.04006246            3 
  537000    1.1446084   -6.5037702    252.11082  0.039123342  0.040054618            1 
  538000    1.1699439   -6.4754672    253.15352  0.039212132  0.040046787            1 
  539000    1.1740226   -6.4898308    252.64551  0.039060839  0.040038554            2 
  540000    1.1867425   -6.5042742    253.04513  0.039050174  0.040030301            2 
  541000    1.1898266   -6.4817285    253.04864  0.038978534  0.040021614            1 
  542000    1.1512467   -6.5284823    253.57145     0.038987  0.040012151            4 
  543000    1.1436885   -6.5324093     254.0584  0.038989932  0.040002303            1 
  544000    1.1551985   -6.4905024    253.85786   0.03888754  0.039993078            5 
  545000    1.1633442   -6.4886166    254.44247  0.038905576  0.039983645            1 
  546000     1.180902   -6.5150642      254.674  0.038869658  0.039973727            2 
  547000    1.1660314   -6.5154478    255.26124  0.038888062  0.039963963            2 
  548000    1.1677353   -6.5174242    255.24961  0.038815331  0.039954283            3 
  549000    1.1689246    -6.528918    255.40545  0.038768283   0.03994342            2 
  550000     1.165773   -6.5025945    255.75603  0.038750914  0.039933149            2 
  551000    1.1528785   -6.4782214    256.90223  0.038853937  0.039923333            2 
  552000    1.1702745   -6.5012219    257.12783  0.038817607  0.039913327            5 
  553000    1.1633543   -6.5333072    257.26193  0.038767621  0.039903512            4 
  554000    1.1374954   -6.5281335     258.0192  0.038811552  0.039893755            3 
  555000    1.1617345   -6.4897987    258.77674  0.038855367  0.039883952            1 
  556000     1.169955   -6.4892788    258.71811  0.038776696  0.039873882            4 
  557000    1.1692477   -6.4830185    259.69044  0.038852549   0.03986365            2 
  558000     1.153438    -6.527601    259.08364    0.0386923  0.039853559            2 
  559000    1.1589366    -6.491032    259.57724  0.038696667  0.039843307            3 
  560000    1.1540462   -6.4873636    260.17644  0.038716732  0.039833302            3 
  561000    1.1537676   -6.4983086       259.82  0.038594771  0.039822725            3 
  562000    1.1428068   -6.4744028    261.28555  0.038743409  0.039812526            5 
  563000     1.145635    -6.497236    262.37258  0.038835491  0.039802806            2 
  564000    1.1576112   -6.5010046    262.91018  0.038846067  0.039792994            5 
  565000    1.1694528   -6.5470101    262.62702  0.038735548  0.039783294            3 
  566000    1.1658376    -6.482101    263.43867  0.038786612   0.03977371            2 
  567000    1.1399564   -6.5454438    263.44189  0.038718678  0.039764521            4 
  568000    1.1733849   -6.5030551    264.12409    0.0387506  0.039755184            1 
  569000    1.1442857   -6.5070545    265.11919  0.038828235  0.039745704            3 
  570000    1.1860493   -6.4954539    265.68461  0.038842779  0.039736466            2 
  571000    1.1733742   -6.5103921    265.68564  0.038774904  0.039728047            2 
  572000    1.1211777   -6.5039477    266.05912  0.038761526  0.039719798            2 
  573000    1.1639476   -6.5474796    265.08889  0.038552777  0.039710859            2 
  574000    1.1281054   -6.5327193    266.35098  0.038668842  0.039701618            5 
  575000    1.1604534   -6.5271412    266.51746  0.038625719  0.039692213            3 
  576000    1.1410924   -6.5462809    266.44011   0.03854747  0.039681826            4 
  577000    1.1511284   -6.4975559    266.45417  0.038482693  0.039671325            3 
  578000    1.1468825   -6.5033586    268.16653  0.038662995  0.039660574            1 
  579000     1.162657   -6.4897445    268.19673  0.038600565  0.039650356            2 
  580000    1.1414912   -6.5317539    269.05706  0.038657623  0.039640096            2 
  581000    1.1540481   -6.5356222    269.45429  0.038648062  0.039629604            5 
  582000    1.1650715   -6.4890546    269.83389   0.03863601  0.039619752            3 
  583000    1.1518276   -6.5311974    269.92203  0.038582338  0.039610059            3 
  584000    1.1688396   -6.5316107    270.45424  0.038592214  0.039600009            3 
  585000    1.1575314    -6.520205    270.44629  0.038525112  0.039589875            2 
  586000    1.1695432    -6.503194    271.53627  0.038614373   0.03957989            1 
  587000    1.1563454   -6.5237767    270.95923  0.038466671  0.039569804            3 
  588000    1.1523137    -6.508079    271.63871  0.038497549  0.039559085            2 
  589000    1.1796496   -6.5027021    272.04242  0.038489306  0.039548959            2 
  590000    1.1744038   -6.4839942    273.04295  0.038565388  0.039538914            3 
  591000    1.1682287   -6.5723831    273.19126  0.038521047  0.039528987            2 
  592000    1.1595232    -6.529964     273.8893  0.038554237  0.039519122            7 
  593000    1.1457483   -6.5686956    273.49739  0.038434148  0.039509318            6 
  594000     1.148433   -6.5272832    274.34987   0.03848904  0.039499107            2 
  595000     1.146633   -6.5362758     274.4091  0.038432647  0.039489039            6 
  596000    1.1487727   -6.5226874    275.04712  0.038457371  0.039479322            3 
  597000    1.1792232   -6.5257495    276.53486  0.038600622  0.039469479            1 
  598000    1.1191725    -6.542707    275.86251  0.038442378  0.039460033            3 
  599000    1.1562887   -6.5164562    276.03955  0.038402831  0.039450175            2 
  600000    1.1384944   -6.5088136    277.23432  0.038504767  0.039441139            2 
  601000    1.1719566   -6.5475493      278.817  0.038660149  0.039431812            2 
  602000     1.149444   -6.5202462     278.3834  0.038535908  0.039423689            3 
  603000     1.144748   -6.5589279    278.90155  0.038543608  0.039415835            1 
  604000    1.1800357   -6.5105203    280.60248   0.03871447  0.039407778            4 
  605000    1.1529826   -6.4927152    280.24023  0.038600582  0.039399992            4 
  606000    1.1701983   -6.5427799    280.66812  0.038595726  0.039391931            3 
  607000    1.1575034   -6.5206813     281.5151  0.038648422  0.039384406            4 
  608000    1.1670661   -6.5162205    281.37299  0.038565378  0.039376612            1 
  609000     1.174867   -6.5637834    281.21577  0.038480538  0.039367836            2 
  610000    1.1807739   -6.5207604    282.03302  0.038529101  0.039359299            2 
  611000    1.1561377    -6.510029    281.90844   0.03844905   0.03935089            4 
  612000    1.1516877   -6.5196322    282.48647  0.038464934  0.039342045            2 
  613000    1.1423602   -6.5224062    283.05044  0.038478853  0.039333602            2 
  614000    1.1528424   -6.5561339    283.23757  0.038441581    0.0393246            2 
  615000    1.1516284    -6.522176    284.23703  0.038514503  0.039315395            3 
  616000    1.1383673   -6.4914486    284.61075  0.038502536  0.039306346            1 
  617000    1.1691021    -6.513782    283.52118  0.038292974   0.03929723            3 
  618000    1.1581476   -6.5696778    284.37534  0.038346189   0.03928814            4 
  619000    1.1332051   -6.5460435    285.17906  0.038392441  0.039279311            2 
  620000    1.1585002   -6.5491445    285.84439  0.038419944  0.039270941            2 
  621000    1.1529926   -6.5383476    285.91017  0.038366904  0.039262218            2 
  622000    1.1534269   -6.5451878    286.84695  0.038430728  0.039252965            4 
  623000    1.1371918   -6.5361548    286.79228  0.038361729  0.039243359            1 
  624000    1.1316293   -6.5023773    287.12805  0.038345092  0.039234052            4 
  625000    1.1509812   -6.5540006    287.38259  0.038317678  0.039224559            3 
  626000    1.1536212   -6.5082568    287.60392  0.038285932  0.039214585            3 
  627000    1.1198123   -6.5367492     287.9692  0.038273419  0.039205038            2 
  628000    1.1512535   -6.5097339    288.85786  0.038330395  0.039195098            3 
  629000    1.1614643   -6.5812028    287.57686  0.038099742  0.039185593            4 
  630000    1.1440393    -6.550662    289.24255  0.038259597  0.039175258            1 
  631000    1.1683657   -6.5081367    290.09377  0.038311379  0.039165289            2 
  632000    1.1637965   -6.5481257    289.36049  0.038154072  0.039155439            2 
  633000    1.1407094   -6.5549554    290.16564  0.038199794  0.039145307            3 
  634000    1.1625221   -6.5585296    290.10479  0.038131545  0.039134875            2 
  635000    1.1750991    -6.507997    291.28803  0.038226775   0.03912505            2 
  636000    1.1312819    -6.550772    290.99099   0.03812775  0.039114831            2 
  637000    1.1482272   -6.5827064    291.34647  0.038114399  0.039104463            3 
  638000    1.1688899   -6.5383698     292.1775  0.038163206  0.039094382            3 
  639000    1.1565796    -6.544357    292.66067  0.038166493  0.039084773            7 
  640000    1.1542977   -6.5257607    293.73927  0.038247301  0.039074851            1 
  641000    1.1659254   -6.5147429    294.58262  0.038297272  0.039065075            2 
  642000    1.1249538   -6.5750678    293.08811  0.038043628  0.039055042            2 
  643000    1.1572302   -6.5540769    294.20032  0.038128605   0.03904555            7 
  644000    1.1435413   -6.5500535     295.0653  0.038181327  0.039035818            4 
  645000    1.1436105   -6.5492699    295.50867  0.038179415  0.039026093            2 
  646000    1.1613294   -6.5618868    295.06184  0.038062673  0.039016541            1 
  647000    1.1283374   -6.5347397    296.41287  0.038177855  0.039006985            4 
  648000     1.144426   -6.5315709    296.17144  0.038087891  0.038997489            3 
  649000    1.1668169   -6.5069528    297.03842  0.038140527  0.038987611            2 
  650000    1.1464605   -6.5745408    296.42555  0.038003276  0.038977626            4 
  651000     1.152474   -6.5217452    297.59753  0.038094922   0.03896743            1 
  652000    1.1482552   -6.5319776    296.95507   0.03795438  0.038956926            2 
  653000    1.1753557   -6.5500787    297.25998  0.037935168  0.038946639            4 
  654000    1.1581459   -6.5176382     298.0077  0.037972439  0.038936287            4 
  655000    1.1655612   -6.5677988    298.79457  0.038014576  0.038926076            4 
  656000    1.1355706    -6.559873    297.63174   0.03780891   0.03891562            5 
  657000    1.1372035   -6.5353401    299.58019  0.037998502  0.038905445            4 
  658000    1.1583165   -6.5344834    299.99114  0.037992799   0.03889543            3 
  659000    1.1171757   -6.5766113    299.70395   0.03789883  0.038884949            4 
  660000     1.159489   -6.5525028    299.83029   0.03785736  0.038874399            2 
  661000     1.144517   -6.5300336    300.80018  0.037922363  0.038863747            4 
  662000    1.1280435   -6.5641712    300.46386  0.037822742  0.038853502            5 
  663000    1.1251714   -6.5249671    300.66546  0.037791033  0.038843306            1 
  664000    1.1485205   -6.6147095    301.96475  0.037897183  0.038832944            1 
  665000    1.1397217    -6.490875    303.28374  0.038005482  0.038823122            2 
  666000    1.1618281   -6.5314736    302.96674  0.037908751   0.03881339            4 
  667000    1.1450338   -6.5308457    303.86733  0.037964434  0.038804113            4 
  668000    1.1315768   -6.5306481    304.55199  0.037993013  0.038794623            4 
  669000    1.1285347    -6.554915    304.92865   0.03798314  0.038784699            2 
  670000    1.1469711   -6.5209291    304.30531  0.037848919  0.038774711            3 
  671000    1.1486204   -6.5494471    304.53642  0.037821215  0.038764899            4 
  672000    1.1214218   -6.5501657    305.53697  0.037889009  0.038754747           10 
  673000    1.1367482   -6.5340836    305.64837  0.037846504  0.038744667            2 
  674000    1.1343524   -6.5267153    306.45944  0.037890633  0.038735357            3 
  675000      1.15169   -6.5536777    306.28975  0.037813549  0.038726139            3 
  676000    1.1637893    -6.577295    307.03091  0.037848978  0.038716869            2 
  677000    1.1366801   -6.5290844    308.13635  0.037929142  0.038707539            1 
  678000    1.1524913   -6.5495741    308.06165  0.037864018  0.038698561            2 
  679000    1.1223815   -6.5604575     308.7936  0.037898085  0.038689528            2 
  680000     1.154847   -6.5631498    309.05531  0.037874426  0.038680664            2 
  681000     1.131267   -6.5565054    310.72527  0.038023161   0.03867221            4 
  682000    1.1332977   -6.4962801    310.07267  0.037887667  0.038663645            4 
  683000    1.1360191    -6.555922    311.25355  0.037976275  0.038655119            2 
  684000    1.1432976   -6.5470651    312.06144  0.038019182  0.038646669            4 
  685000    1.1465128   -6.5396431    310.91654  0.037824396  0.038638398            2 
  686000     1.133069   -6.5489193    312.71581  0.037987829   0.03862979            2 
  687000    1.1457776   -6.5451068     311.7625  0.037816897  0.038621417            2 
  688000    1.1543719   -6.5644635    313.19127  0.037934989   0.03861275            3 
  689000    1.1513181    -6.527022    312.49112  0.037795249   0.03860393            2 
  690000    1.1383482    -6.537107    312.10514  0.037693857  0.038594544            2 
  691000    1.1532853   -6.5430882    313.66258  0.037827132  0.038585509            4 
  692000    1.1474375   -6.5506606    312.60125  0.037644659  0.038576035            4 
  693000    1.1232659   -6.5825657    313.53141   0.03770219  0.038566375            2 
  694000    1.1116465   -6.5328695    315.50156  0.037884433  0.038556874            3 
  695000    1.1432123   -6.5426676    314.85212  0.037752053  0.038547731            3 
  696000    1.1672342   -6.5430939    315.44512  0.037768812  0.038538155            2 
  697000    1.1315942     -6.58885    315.42438  0.037712145  0.038528602            1 
  698000    1.1667316   -6.5840577    316.56858   0.03779472   0.03851957            2 
  699000    1.1325195   -6.5711933    316.06179  0.037680233  0.038510917            3 
  700000    1.1470505   -6.5441751    317.70559  0.037822094   0.03850205            4 
  701000    1.1458677   -6.5449219    318.28299  0.037836779  0.038493515            2 
  702000    1.1431161   -6.5504434     318.5476  0.037814293   0.03848494            6 
  703000    1.1336846   -6.5689365    318.60751  0.037767605  0.038476414            2 
  704000    1.1352112   -6.5158794    319.70851  0.037844284  0.038467989            4 
  705000    1.1626388   -6.5761841    318.85371  0.037689564  0.038459232            2 
  706000    1.1590374   -6.5375812    320.68281  0.037852079  0.038450801            2 
  707000    1.1468534   -6.5749342    320.45829  0.037772076  0.038442648            4 
  708000    1.1352378   -6.5574789    320.66861   0.03774348  0.038434857            3 
  709000    1.1368362   -6.5531599     321.6869  0.037809932  0.038426897            5 
  710000    1.1470542   -6.5769731    320.09942  0.037570354   0.03841833            6 
  711000    1.1519323    -6.573058    322.05649  0.037746893  0.038409502            2 
  712000    1.1248333   -6.5843636    322.69051  0.037768085   0.03840078            5 
  713000    1.1217707    -6.587068    322.11054  0.037647329  0.038391408            4 
  714000    1.1574932   -6.5833835    321.85675   0.03756498  0.038382389            1 
  715000    1.1202068   -6.5432912    323.10453  0.037657871  0.038373128            6 
  716000    1.1470818    -6.533322     324.0458  0.037714827  0.038364011            1 
  717000    1.1408209    -6.544413    324.12187  0.037671069  0.038355421            3 
  718000    1.1244846   -6.5884978    323.21866  0.037513772  0.038346024            3 
  719000    1.1425558   -6.5432812    324.48067  0.037607866  0.038337238            7 
  720000    1.1093016   -6.5846179    324.64993  0.037575223  0.038328304            1 
  721000    1.1429381   -6.5547281    325.72282  0.037647113  0.038319226            3 
  722000    1.1641163   -6.5552049    325.71047  0.037593544  0.038310483            6 
  723000     1.141752   -6.5797416    326.85956  0.037673992   0.03830157            2 
  724000    1.1484791    -6.575784    325.76436  0.037495897  0.038292257            3 
  725000     1.125907   -6.5939395    324.03805  0.037245753  0.038282687            5 
  726000    1.1246178   -6.5416449    327.28317  0.037566939  0.038272785            2 
  727000    1.1449537   -6.5732438    327.63219  0.037555271  0.038263842            4 
  728000    1.1446064   -6.5246455    328.00723  0.037546615  0.038254987            2 
  729000    1.1511848   -6.5398032    327.83562  0.037475493  0.038246245            1 
  730000    1.1172433   -6.5799818    329.08878  0.037567212  0.038237864            4 
  731000    1.1338067   -6.5461221     329.9533  0.037614375  0.038229618            3 
  732000    1.1221007   -6.5626921    330.55292  0.037631253  0.038221669            2 
  733000     1.143025   -6.5653674    330.98192  0.037628686  0.038213115            5 
  734000    1.1161664   -6.5577266    330.64168  0.037538791  0.038204771            4 
  735000    1.1541431   -6.5525205    332.46804  0.037694789  0.038196439            2 
  736000    1.1251063   -6.5585712    331.55781  0.037540513  0.038187862            1 
  737000    1.1582668   -6.5735719    332.99089  0.037651616  0.038179575            5 
  738000    1.1380553   -6.5976065    331.98624  0.037487155   0.03817067            2 
  739000    1.1296671   -6.5750576    333.20567  0.037573937  0.038162558            2 
  740000    1.1349477   -6.5378871    333.77449  0.037587218  0.038154331            1 
  741000    1.1226564    -6.610492    333.60179  0.037517071  0.038146151            3 
  742000    1.1239002   -6.5854264    334.72617  0.037592787  0.038138103            2 
  743000    1.1355242   -6.5748938    335.33168  0.037610103  0.038130209            3 
  744000    1.1288151   -6.5423489     336.0129  0.037635854  0.038121876            2 
  745000    1.1159037   -6.5649318    335.45491   0.03752292  0.038114379            6 
  746000    1.1328851   -6.5826285    334.91285   0.03741207  0.038106516            4 
  747000    1.1347298   -6.5456219    336.40581  0.037528537  0.038098439            4 
  748000    1.1245773   -6.5765796    335.95941  0.037428633  0.038090289            5 
  749000    1.1298351   -6.5803309    336.57572  0.037447232  0.038081708            2 
  750000    1.1347656   -6.5700955     336.8932  0.037432578   0.03807287            2 
  751000    1.1155729   -6.5568676    337.64256  0.037465886  0.038064555            2 
  752000     1.115222   -6.5676063    337.50214  0.037400503  0.038056136            2 
  753000    1.1345003   -6.5467123    338.21052  0.037429229  0.038047622            2 
  754000    1.1300516    -6.559739    338.14267  0.037372089  0.038039225            2 
  755000    1.1163451   -6.5721412    339.08961  0.037427109  0.038031057            2 
  756000    1.1545031   -6.5520651    337.81872  0.037237513  0.038022712            4 
  757000    1.1195706    -6.570106    339.55942  0.037379945  0.038013945            3 
  758000    1.1033189   -6.5714474    339.70707  0.037346864  0.038005722            2 
  759000    1.1238902   -6.5171238    340.43533  0.037377617   0.03799699            2 
  760000    1.1197302   -6.5837621    340.68588  0.037355908  0.037988212            2 
  761000    1.1037307   -6.5992614    340.73447  0.037312141  0.037979164            2 
  762000    1.1313682   -6.5910624    340.08339  0.037191972  0.037970137            2 
  763000    1.1329905   -6.5465264     341.9682  0.037349082  0.037961174            3 
  764000    1.1268379   -6.5797235    340.97253  0.037191593  0.037951992            3 
  765000    1.1263207   -6.5733942    342.81604  0.037343796  0.037943271            2 
  766000    1.1129515   -6.5897008    343.61971  0.037382475  0.037934648            2 
  767000    1.1285911   -6.5928074    342.18792  0.037178175  0.037926218            1 
  768000      1.13465   -6.5802901     343.5722   0.03727997  0.037917258            3 
  769000    1.1385765    -6.538034    343.58357  0.037232723  0.037908734            2 
  770000    1.1163381   -6.5695814    345.18249  0.037357413  0.037900181            2 
  771000    1.1440717   -6.6029801     346.1777  0.037416527   0.03789172            2 
  772000    1.1336685   -6.5942179    344.82854  0.037222424    0.0378832            2 
  773000    1.1180163   -6.5782152    345.95064  0.037295239  0.037874695            6 
  774000    1.1332246   -6.5701113    345.85467  0.037236722  0.037866177            4 
  775000    1.1194363   -6.5579461    345.62675  0.037164167   0.03785739            3 
  776000    1.1411519   -6.5856132    345.74889  0.037129391  0.037848288            3 
  777000    1.1090698    -6.534306    348.83983  0.037413109  0.037839648            3 
  778000    1.1442957   -6.5763229    347.56248  0.037228201  0.037831528            3 
  779000    1.1224064   -6.5795995    347.47768  0.037171339  0.037823269            9 
  780000    1.1300342   -6.5663764    348.99439  0.037285725  0.037814767            2 
  781000    1.1345083   -6.5757707    348.84704  0.037222262  0.037806522            2 
  782000    1.1047731    -6.563133    350.21119  0.037320033   0.03779811            3 
  783000    1.1109104   -6.5661709    350.28549  0.037280278   0.03778997            1 
  784000    1.0946388   -6.5603535    349.58545  0.037158317  0.037781229            4 
  785000     1.151837   -6.6017899    349.79036  0.037132735  0.037772846            2 
  786000    1.1657928    -6.607885    350.60924  0.037172312  0.037764522            2 
  787000    1.1377509    -6.601296    351.17257  0.037184727  0.037756487            2 
  788000    1.1383146   -6.5915852    351.27948  0.037148845  0.037748085            3 
  789000    1.1320281   -6.6140633    350.56348  0.037026139  0.037739584            3 
  790000    1.1252303   -6.6044105    351.70818  0.037100019  0.037731152            2 
  791000    1.1489626    -6.611576    352.00196  0.037084067  0.037723096            2 
  792000    1.1281656   -6.5633994     353.3606  0.037180198  0.037714622            2 
  793000    1.1466058   -6.5974802    354.01476  0.037202056  0.037706122            4 
  794000    1.1384744   -6.5930968    354.02597  0.037156378   0.03769768            4 
  795000    1.1216038   -6.6057521    353.49413  0.037053892  0.037688881            1 
  796000    1.1369344   -6.5535457    354.89687  0.037154195  0.037680106            1 
  797000    1.1178986   -6.5891367    353.00124  0.036909372  0.037671512            4 
  798000    1.1136241   -6.6267795    353.66952  0.036932907  0.037662321            1 
  799000    1.1165205    -6.569477    354.46567  0.036969719  0.037652877            2 
  800000    1.1186868   -6.5701389     354.5569   0.03693301  0.037643898            2 
  801000    1.1267226   -6.5920306    354.50975  0.036881997  0.037634873            2 
  802000    1.1217793   -6.5823595    354.72122  0.036857982    0.0376256            3 
  803000    1.1043978   -6.5976191    356.89831  0.037038015  0.037616923            3 
  804000    1.0863218   -6.5713596    356.95689  0.036998019  0.037608017            3 
  805000    1.1112141   -6.5731487    357.64205  0.037022986   0.03759941            3 
  806000    1.1220139   -6.5596256    358.04504  0.037018718  0.037590863            2 
  807000    1.1280139   -6.5995609    359.16448  0.037088443  0.037582551            4 
  808000    1.1324197   -6.6102992    358.70279  0.036994925  0.037574009            3 
  809000    1.1426346   -6.5883937    359.48799  0.037030077  0.037565352            5 
  810000    1.0926065   -6.5345226    360.68824  0.037107844  0.037557278            1 
  811000    1.1198735   -6.5570964    359.99905  0.036991271  0.037549364            1 
  812000    1.1287526   -6.6099267    361.07526  0.037056164  0.037541201            4 
  813000     1.136829    -6.630928    360.18097  0.036918919  0.037532643            2 
  814000    1.1422137   -6.6042921    359.61081  0.036815193  0.037523861            2 
  815000    1.1036508   -6.5987508    360.61609  0.036872811  0.037515228            3 
  816000    1.1193779   -6.5802592    362.72797  0.037043297  0.037506583            2 
  817000    1.1026752   -6.6143713    360.54602    0.0367754  0.037498219            5 
  818000       1.1219   -6.5919911    362.61358  0.036941074  0.037489952            2 
  819000    1.1077418   -6.5665826    363.92009  0.037028906  0.037482126            5 
  820000    1.1252309   -6.5897106    363.22162  0.036912766  0.037474032            4 
  821000    1.1422393   -6.6353113    363.39225  0.036885125  0.037465998            5 
  822000    1.1217175   -6.6054286    363.42421  0.036843493  0.037457622            5 
  823000    1.1359335   -6.5720503    365.80207  0.037039496  0.037449702            2 
  824000    1.1446758   -6.5441215    365.77341  0.036991648  0.037441833            2 
  825000    1.0997267   -6.5947974    365.01938  0.036870645  0.037433704            4 
  826000    1.1372281   -6.5282049    367.07951  0.037033849  0.037425526            4 
  827000    1.1181364   -6.5901364    365.21558  0.036801247  0.037417281            2 
  828000    1.1270757   -6.5625987    367.96087  0.037033098  0.037408955            1 
  829000    1.1240657    -6.612412    366.40455  0.036831982  0.037400592            4 
  830000    1.1313667   -6.6042448    366.98837  0.036846222  0.037392356            3 
  831000    1.1110115   -6.5625905    368.49019  0.036952486   0.03738445            2 
  832000    1.1250561   -6.6043368    369.21528  0.036980697  0.037376334            5 
  833000    1.1084514   -6.5957208    368.46119  0.036860863  0.037368274            2 
  834000    1.1372529   -6.5807345    368.93057  0.036863566  0.037360001            5 
  835000     1.107706   -6.6062928    368.90542  0.036816908  0.037351666            4 
  836000    1.1445438   -6.5508628    370.39194  0.036921046  0.037343621            3 
  837000     1.128951   -6.6005032    369.84589  0.036822569   0.03733568            3 
  838000    1.1219776   -6.6221677    369.89056   0.03678307  0.037327857            3 
  839000    1.1034031   -6.6058941    371.22945  0.036872214  0.037320038            3 
  840000    1.1072555   -6.5973305    371.64234  0.036869279  0.037312328            2 
  841000     1.106781   -6.6262776    372.02432   0.03686329  0.037304556            8 
  842000    1.1300382   -6.6213492     371.7232  0.036789707  0.037296653            5 
  843000    1.1307154   -6.5794471    372.16444  0.036789683  0.037288737            3 
  844000    1.1302021   -6.6024259    372.81442   0.03681027  0.037280709            3 
  845000    1.1121553   -6.6174844    372.32345  0.036718289  0.037272778            5 
  846000    1.1271302   -6.5841799    373.39018  0.036779963  0.037264417            3 
  847000    1.1284079   -6.5880281    373.18484  0.036716336   0.03725628            3 
  848000    1.1104196   -6.5888087    373.44571  0.036698675  0.037247894            1 
  849000    1.1108737   -6.6232317    373.96679  0.036706595  0.037239528            4 
  850000    1.1423744   -6.6159113    373.81833  0.036648856  0.037231233            4 
  851000    1.0903748   -6.6357839    374.33078  0.036655971  0.037223391            4 
  852000    1.0987866   -6.5930264    373.75985  0.036557106  0.037214975            2 
  853000    1.1080549   -6.6183625    376.30565  0.036762959  0.037206833            4 
  854000    1.1444784    -6.623873    375.49297   0.03664061  0.037198656            2 
  855000    1.1302853   -6.6187514    375.99258   0.03664645  0.037190608            3 
  856000    1.1214288   -6.6235455     376.6677  0.036669363  0.037182518            2 
  857000    1.1162235   -6.6142897    378.01026  0.036757123  0.037174582            2 
  858000    1.1124778   -6.6154577    376.75701  0.036592562  0.037166495            4 
  859000    1.1304161   -6.6517039     377.8674  0.036657683  0.037158334            2 
  860000    1.1205672   -6.5880518    378.55834   0.03668201  0.037150015            3 
  861000    1.1320324   -6.6191748    379.59973  0.036740198  0.037141785            2 
  862000    1.1330327   -6.6358142    378.84316  0.036624435  0.037133897            4 
  863000     1.093743   -6.5884491    379.60306  0.036655374   0.03712623            2 
  864000    1.0860787   -6.6575016    380.08287  0.036659227  0.037118132            2 
  865000    1.0895429   -6.5884978    379.68109   0.03657814  0.037110197            3 
  866000    1.1367043   -6.6494744    380.66842  0.036630911  0.037102458            1 
  867000    1.1042744   -6.5823945     382.8825  0.036801471  0.037094802            3 
  868000    1.1332746   -6.6012561    382.42303  0.036714961  0.037087194            2 
  869000    1.1450048   -6.6160226    382.28976  0.036659931  0.037079662            4 
  870000    1.1226904   -6.5871717    381.16388   0.03650995  0.037071719            2 
  871000     1.105542   -6.5792956    382.32393  0.036579021  0.037063557            2 
  872000    1.1176579   -6.6238407     382.5908  0.036562576  0.037055775            2 
  873000     1.137263   -6.6265485    383.47645  0.036605236  0.037047867            3 
  874000    1.1232944   -6.5930384    382.69423  0.036488771  0.037040018            2 
  875000    1.1127054   -6.5986029    383.99334  0.036570794  0.037032187            1 
  876000    1.1069829     -6.63656    384.19595  0.036548321  0.037024242            4 
  877000    1.1223575   -6.6000241    385.67492   0.03664718  0.037016528            4 
  878000    1.1095642   -6.5561952     384.9241  0.036534178  0.037008824            4 
  879000    1.1267828   -6.5830003    385.12346  0.036511515  0.037001007            3 
  880000     1.113567   -6.6030943    386.26995  0.036578593  0.036993104            3 
  881000    1.1129151   -6.6227603    386.32267  0.036542061  0.036984934            2 
  882000    1.1198473   -6.6390815    386.43338   0.03651109  0.036976608            3 
  883000     1.101879   -6.5883131    387.97667   0.03661539  0.036968878            3 
  884000    1.1067027    -6.641005    387.41187  0.036520726  0.036960969            1 
  885000    1.1100648   -6.6013409    388.89153  0.036618788  0.036953034            2 
  886000    1.1148364   -6.6063994    387.19819   0.03641819  0.036944919            5 
  887000    1.1150303   -6.5978823    389.09059  0.036554922  0.036936723            2 
  888000    1.0996197   -6.5993876    388.69543  0.036476673  0.036928771            3 
  889000    1.1178467   -6.5924324    388.76846  0.036442488  0.036920662            2 
  890000    1.1314909   -6.6348195    388.50587  0.036376954  0.036912725            2 
  891000     1.091767   -6.6242994    388.94661  0.036377349  0.036904684            2 
  892000    1.1053851   -6.6645278    389.28197  0.036367897  0.036896686            4 
  893000    1.1294273   -6.6026569     389.7766  0.036373329  0.036888679            6 
  894000    1.1104459   -6.6230937    390.16383  0.036368738  0.036880713            3 
  895000    1.0995597   -6.6206646    392.48021  0.036543781  0.036872752            2 
  896000     1.103058    -6.570834    392.72427  0.036525695   0.03686494            3 
  897000    1.1080832   -6.5921443    392.37746  0.036452755  0.036857007            3 
  898000    1.1151848   -6.6343264    392.95655  0.036465901  0.036848833            4 
  899000    1.1093206   -6.6327554    392.88687  0.036418879  0.036840745            3 
  900000    1.1277039   -6.6141761    392.98763  0.036387743  0.036832508            4 
  901000     1.106894    -6.593514    393.71394  0.036414534   0.03682465            4 
  902000    1.1030217   -6.6564692    393.67142  0.036370235  0.036816897            2 
  903000     1.110102   -6.5781793    394.58893   0.03641463  0.036809528            2 
  904000    1.1095817   -6.5886256    396.37867  0.036539332  0.036802126            1 
  905000    1.0942766   -6.6366718    394.87267  0.036360282  0.036794687            6 
  906000    1.0859133   -6.6014733    396.83421  0.036500571  0.036787518            2 
  907000      1.11002   -6.6261554    396.98158  0.036473868  0.036780351            3 
  908000    1.0977436   -6.6449918    396.81808  0.036418693  0.036773399            2 
  909000    1.1137236   -6.6263393    397.83995  0.036472309  0.036766589            2 
  910000     1.094944   -6.6042014    398.22797  0.036467763  0.036759549            2 
  911000    1.1034154   -6.6169004     398.7865  0.036478824  0.036752484            2 
  912000    1.1171963   -6.6446276    398.13946  0.036379702  0.036745416            3 
  913000     1.088755   -6.6189651    398.89843   0.03640913  0.036738088            3 
  914000    1.0971732   -6.6267218    398.52649  0.036335384  0.036730841            4 
  915000    1.1126427   -6.5805266    399.97291  0.036427405   0.03672362            3 
  916000    1.0831821   -6.5734587    401.76898  0.036551035  0.036716826            3 
  917000      1.10187   -6.5939949    401.36286  0.036474269  0.036710432            2 
  918000    1.0876696   -6.6036631    402.37053   0.03652601  0.036704227            2 
  919000     1.087195    -6.623774    402.30824  0.036480616  0.036697683            3 
  920000     1.117101   -6.5941402    403.01431  0.036504919  0.036691458            3 
  921000    1.1072664   -6.6230833    403.34378  0.036495094  0.036685451            1 
  922000    1.1286322   -6.6217009    403.70859  0.036488484  0.036678974            3 
  923000    1.1248162   -6.6553785    403.21648  0.036404522  0.036672522            4 
  924000    1.0912038   -6.6432927    403.84732  0.036422017  0.036666194            3 
  925000    1.1137107   -6.6505581    403.41871  0.036344028  0.036659691            4 
  926000     1.107098    -6.608746    405.72666  0.036512478  0.036653304            2 
  927000    1.1168994   -6.6742155    404.25679  0.036340956  0.036646559            3 
  928000    1.1022626   -6.6102535    406.07551  0.036465114  0.036639783            1 
  929000    1.0961477   -6.6184299    404.55521  0.036289488  0.036632969            4 
  930000    1.1179955   -6.6313368    405.62288  0.036346136  0.036626121            2 
  931000    1.0859628   -6.6165538    406.77834  0.036410521   0.03661909            5 
  932000    1.0951883   -6.6285349    405.36502  0.036245084   0.03661229            2 
  933000    1.0959884   -6.5820056    407.15893  0.036366464  0.036605346            4 
  934000    1.0796362   -6.6120867    407.89552  0.036393248  0.036598517            3 
  935000     1.110054   -6.5962337    406.93664  0.036268862  0.036591599            1 
  936000    1.0956178    -6.628783    406.76385   0.03621473  0.036584454            3 
  937000    1.1128599   -6.6224596    407.81709  0.036269752  0.036577306            3 
  938000    1.1107473   -6.6181376    408.52678  0.036294135   0.03657025            2 
  939000    1.1060406   -6.6009291    408.61476  0.036263291   0.03656335            6 
  940000    1.1302753   -6.6294077    410.02577  0.036349802   0.03655638            1 
  941000    1.0899465   -6.6486167    409.25838  0.036243214  0.036549041            3 
  942000    1.0889307   -6.6145555    409.63796  0.036238319  0.036541983            5 
  943000    1.0871027   -6.6190615    410.07124   0.03623818  0.036534756            2 
  944000    1.0872683   -6.6391204    410.39351  0.036228241  0.036527461            4 
  945000    1.1100074   -6.6205198    410.89021  0.036233705  0.036520271            4 
  946000    1.1137531   -6.6401808     410.9481  0.036200502  0.036512847            2 
  947000    1.1215129   -6.6634886    411.66882  0.036225697  0.036505893            2 
  948000    1.0928332   -6.6403105    411.92069  0.036209625  0.036499089            8 
  949000    1.0913828   -6.6174634    413.07735  0.036273037  0.036492509            4 
  950000    1.0920618     -6.63606    412.40918  0.036176244  0.036485621            1 
  951000    1.1116187   -6.6083223    413.40294  0.036225284  0.036478867            4 
  952000    1.1184488   -6.6082737    415.45966  0.036367267  0.036472343            5 
  953000    1.0937864   -6.6368277      414.976  0.036286814  0.036465892            4 
  954000    1.0978611   -6.6673113    413.27281  0.036100001  0.036459155            4 
  955000    1.0831169   -6.6348705    414.57927  0.036176202  0.036452468            3 
  956000    1.0961611   -6.6262791    414.89829  0.036166169  0.036445587            4 
  957000    1.0991489   -6.6431088    413.71666  0.036025484   0.03643868            3 
  958000    1.0871718   -6.6174523    415.98845  0.036185495  0.036431666            4 
  959000    1.0965105   -6.6056215    416.36787  0.036180733  0.036424953            2 
  960000    1.0707258   -6.6253886    416.59432  0.036162701  0.036417781            2 
  961000    1.1145255   -6.6690488      415.836  0.036059313  0.036410645            8 
  962000    1.1055295   -6.5900609    417.91178  0.036201644  0.036403792            4 
  963000     1.099937   -6.6373945    418.81522  0.036242231  0.036397116            5 
  964000    1.1020877   -6.6459831    417.85634  0.036121744  0.036390131            2 
  965000    1.1286748   -6.6695974    417.57336  0.036059875   0.03638297            4 
  966000    1.0990563   -6.6487962    417.62229  0.036026768  0.036375815            7 
  967000    1.0780421   -6.6426654    418.78384   0.03608961  0.036368535            3 
  968000    1.1245781   -6.6453193    417.40176  0.035933347  0.036361148            2 
  969000    1.0963586   -6.6186319     419.9117  0.036112117  0.036353698            3 
  970000    1.0840004   -6.6434593    418.80169  0.035979527  0.036346403            2 
  971000    1.1091245    -6.690482    419.06875  0.035965392  0.036338901            2 
  972000    1.1130252   -6.6107215     419.4697  0.035962766  0.036331655            2 
  973000    1.1096595   -6.5979783    421.13877  0.036068754  0.036324292            2 
  974000    1.0971571    -6.668817    421.27482  0.036043362    0.0363171            2 
  975000    1.0878805   -6.6373796    420.96282  0.035979728  0.036309939            3 
  976000    1.0680073   -6.6123342    422.86356  0.036105154  0.036302854            2 
  977000    1.0986577   -6.6428251    422.43179   0.03603137  0.036295768            3 
  978000    1.0821677   -6.6271356    421.70695  0.035932767   0.03628843            3 
  979000    1.0995011   -6.6306058    423.27055  0.036029158  0.036281505            8 
  980000    1.0816229   -6.6090136    423.27282  0.035992587  0.036274622            1 
  981000    1.0921161   -6.6115552    423.49334  0.035974629  0.036267347            2 
  982000    1.1132477   -6.6496885    424.18858  0.035996994  0.036260167            2 
  983000    1.0874718   -6.6395799    425.32445  0.036056667  0.036253087            2 
  984000    1.0972157    -6.643912    423.68124  0.035880864  0.036245927            4 
  985000    1.1069637   -6.6682973    424.68903  0.035929698  0.036238509            4 
  986000    1.0940973   -6.6490728    425.42429    0.0359554  0.036231277            4 
  987000    1.0986293   -6.6728068    425.70174  0.035942396  0.036224097            2 
  988000    1.0810944   -6.6393905    426.37117   0.03596248  0.036216714            2 
  989000    1.0818433   -6.6357585    424.28219    0.0357501  0.036209485            4 
  990000    1.0768686   -6.6637261    424.58118  0.035739157  0.036202061            3 
  991000    1.0944126   -6.6617769    426.73881  0.035884528  0.036194651            1 
  992000    1.1011043   -6.6020547    427.38489  0.035902629  0.036187377            4 
  993000    1.0792818   -6.6458136    427.08932  0.035841669  0.036180184            2 
  994000    1.0967305   -6.6300374    428.07071  0.035887887  0.036172982            3 
  995000    1.1014153    -6.642148    427.14217  0.035774051  0.036165733            4 
  996000     1.088856    -6.660176    428.83827  0.035880042  0.036158532            3 
  997000      1.11534   -6.6252388    428.29098   0.03579831  0.036150994            2 
  998000    1.0919347   -6.6352001     429.4676  0.035860688  0.036143749            9 
  999000    1.0963792   -6.6334251    428.93412  0.035780291  0.036136608            3 
 1000000    1.0782898   -6.6298742     429.5753  0.035797942  0.036129427            2 
 1001000    1.0817649   -6.6662517    430.88746  0.035871417  0.036122342            2 
 1002000    1.0992635   -6.5999182    431.26861  0.035867316   0.03611553            2 
 1003000    1.0819939   -6.6465269    432.09898  0.035900547  0.036108463            4 
 1004000    1.0829004   -6.6787817     430.7281  0.035751004  0.036101244            3 
 1005000    1.0991075   -6.6088099    432.69541  0.035878558  0.036094391            3 
 1006000    1.0879838    -6.651942     432.8359  0.035854531   0.03608744            3 
 1007000     1.079101   -6.6231302    433.16783  0.035846394  0.036080833            4 
 1008000    1.0874782    -6.653576    433.03554  0.035799896  0.036074134            4 
 1009000    1.0979446   -6.6628398    433.53707  0.035805837   0.03606732            2 
 1010000     1.082366   -6.6515892    434.31695  0.035834732  0.036060415            2 
 1011000    1.0625895     -6.65163    434.16585  0.035786832  0.036053546            5 
 1012000    1.0957376   -6.6675206    435.23653  0.035839635  0.036046538            5 
 1013000    1.1141444   -6.6456955     435.7754  0.035848585  0.036039623            2 
 1014000    1.0939688    -6.651168    434.17216  0.035681473  0.036032642           10 
 1015000    1.0938468   -6.6446955    436.62733  0.035847893  0.036025814            4 
 1016000    1.0933253   -6.6450206     435.5036   0.03572044  0.036018872            3 
 1017000    1.0943555   -6.6303351    436.72032  0.035785015  0.036011818            2 
 1018000    1.0823321   -6.6511353    435.99329  0.035690348  0.036004669            2 
 1019000     1.093815   -6.6479073    435.08468  0.035581017  0.035997252            3 
 1020000    1.0892295   -6.6033765    436.39639    0.0356533  0.035989803            2 
 1021000    1.0678667   -6.6454247     436.7657  0.035648523  0.035982364            3 
 1022000    1.0812666   -6.6445062    437.46694   0.03567082  0.035974544            3 
 1023000    1.0955924   -6.6578839    436.27988  0.035539254  0.035966929            4 
 1024000    1.0759602   -6.6850986    437.75228  0.035624372  0.035959252            6 
 1025000    1.0851567   -6.6752098    437.89103  0.035600897  0.035951423            3 
 1026000    1.0735146   -6.6278204    438.20473  0.035591677  0.035943644            1 
 1027000     1.078748   -6.6506609    438.07225  0.035546272  0.035936089            1 
 1028000    1.1002913   -6.6305163    439.82541  0.035653811  0.035928777            2 
 1029000    1.0837731   -6.6310601    439.14795  0.035564298  0.035921255            5 
 1030000    1.0896884   -6.6247456     440.2214  0.035616618  0.035913521            2 
 1031000    1.0955178   -6.6514523    440.09939   0.03557221  0.035906009            5 
 1032000    1.0666964   -6.6880834    440.76751  0.035591692   0.03589834            2 
 1033000    1.0950357   -6.6304509    440.99724   0.03557577  0.035890573            6 
 1034000    1.1042549   -6.6411102    442.12106  0.035631936  0.035882832            2 
 1035000     1.107333   -6.6690525    441.55434  0.035551879   0.03587515            3 
 1036000    1.0875398   -6.6656031    441.20745  0.035489659  0.035867567            4 
 1037000    1.0856973   -6.6463034    442.07739  0.035525345  0.035860038            3 
 1038000      1.08088   -6.6476831    442.74096  0.035544393  0.035852513            2 
 1039000    1.0963839     -6.64261    442.31053   0.03547566  0.035844915            3 
 1040000    1.0740664   -6.6478483    442.28866  0.035439797  0.035837445            2 
 1041000    1.0971338   -6.6263555    443.73459  0.035521501  0.035829859            3 
 1042000    1.0795233   -6.6784446    442.94035  0.035423892  0.035822439            3 
 1043000    1.0630718   -6.6695758    443.34131  0.035421964  0.035814984            4 
 1044000    1.0770424   -6.6420162    444.96791  0.035517873  0.035807507            3 
 1045000     1.076762   -6.6535402    445.10792   0.03549505  0.035800361            3 
 1046000    1.0844247   -6.6493688    445.29245  0.035475816  0.035793239            3 
 1047000    1.0992817   -6.6769588    446.02476   0.03550022  0.035786181            2 
 1048000    1.0584169   -6.6620157    446.95136  0.035540026  0.035779193            2 
 1049000    1.0927316   -6.6957642    447.88766  0.035580526  0.035771994            2 
 1050000    1.0994247   -6.6559789    447.23962  0.035495208  0.035764878            4 
 1051000    1.0881538    -6.662095    447.94599  0.035517443  0.035757908            6 
 1052000    1.0901564   -6.6762688    448.65771  0.035540059  0.035750791            3 
 1053000    1.1111972   -6.6917475    448.53826  0.035496855  0.035743693            3 
 1054000    1.0912604   -6.6649838    448.21596  0.035437695  0.035736452            9 
 1055000    1.0933187   -6.6587378    448.45122  0.035422687  0.035728891            4 
 1056000    1.0849432   -6.6824034    448.78993  0.035415872  0.035721401            2 
 1057000    1.0674054   -6.6572159    448.02762  0.035322266  0.035713818            3 
 1058000    1.0766343   -6.6484622    450.18918  0.035459135    0.0357063            1 
 1059000     1.062686   -6.6442624    450.22976  0.035428845  0.035698762            2 
 1060000    1.0515708   -6.6462076    449.75351  0.035357981  0.035691122            2 
 1061000    1.0870432    -6.670689    450.60187  0.035391287  0.035683537            4 
 1062000    1.0740824   -6.6088643    451.26298  0.035409839  0.035675974            7 
 1063000    1.0874417   -6.6890204    452.48257  0.035472136  0.035668578            3 
 1064000     1.056207   -6.6580596    451.44069  0.035357197  0.035661209            2 
 1065000    1.0634192   -6.6669912    451.85975  0.035356788  0.035653842            3 
 1066000    1.0778563    -6.712087    451.02527  0.035258386  0.035646359            2 
 1067000    1.0811283   -6.6224633    452.72133  0.035357805  0.035638822            2 
 1068000    1.0847184   -6.6632795    452.23938  0.035287093  0.035631369            2 
 1069000    1.0917308   -6.6819537    451.65926   0.03520886  0.035623503            2 
 1070000    1.0757768   -6.6657394    453.22378  0.035297802  0.035615548            2 
 1071000    1.0465728   -6.6934054    453.01592  0.035248671  0.035607828            6 
 1072000    1.0843085   -6.6496942    453.78164  0.035275314  0.035599943            3 
 1073000    1.0755159   -6.6687617    453.19842  0.035197144  0.035592048            1 
 1074000    1.0609894   -6.7218346    453.41903  0.035181489  0.035584189            3 
 1075000    1.0811652     -6.68122    453.24986  0.035135648  0.035576151            3 
 1076000    1.0809113   -6.6725001     453.7449  0.035141334  0.035568277            6 
 1077000    1.0913917   -6.6428625    456.08396  0.035289691  0.035560611            6 
 1078000    1.0775803   -6.6914183    454.27533  0.035117141  0.035552961            3 
 1079000    1.0915272    -6.715988    455.10763  0.035148875  0.035545263            3 
 1080000    1.0482685   -6.6567133    455.90702  0.035178011   0.03553754            4 
 1081000    1.1035653   -6.6528515    456.67477  0.035204654  0.035529932            3 
 1082000    1.0881438    -6.660974    457.00668   0.03519768   0.03552251            1 
 1083000    1.0597745    -6.688101    457.93597  0.035236686  0.035515122            5 
 1084000    1.1115038    -6.650582    457.93473  0.035204084  0.035507576            4 
 1085000    1.1097723   -6.6703784    458.83174  0.035240533  0.035500216            3 
 1086000    1.0563017   -6.6940946    459.78762  0.035281432  0.035492794            2 
 1087000    1.0612666   -6.6932301    459.18143  0.035202502  0.035485307            6 
 1088000    1.0935566   -6.6538828    460.47627  0.035269322  0.035477876            3 
 1089000    1.0907291   -6.6880714    458.42447  0.035079926  0.035470424            2 
 1090000    1.0664078    -6.674275     460.1071  0.035176383  0.035462927            4 
 1091000    1.0952778   -6.6589148    461.15321  0.035224046  0.035455351            1 
 1092000     1.079881   -6.6679546    459.42817  0.035060148  0.035447963            3 
 1093000     1.086991   -6.6763134    460.55099  0.035113677  0.035440483            3 
 1094000    1.0685733   -6.6437008    461.08633  0.035122359  0.035432822            3 
 1095000    1.0860039    -6.649907    460.21189  0.035023736  0.035425337            2 
 1096000    1.0565035   -6.7000045    461.17209  0.035064788  0.035417818            5 
 1097000    1.0761061   -6.6739582    462.07409  0.035101344  0.035410046            3 
 1098000    1.0835003   -6.6686926    463.28146  0.035161009  0.035402575            6 
 1099000    1.0791824   -6.6989845    461.25131  0.034975077  0.035394921            7 
 1100000     1.078637   -6.6962479    462.02299  0.035001742  0.035387117            2 
 1101000    1.0504826   -6.6857685    463.22927  0.035061252  0.035379566            1 
 1102000    1.0817746   -6.6736865    463.98064  0.035086255  0.035371886            3 
 1103000    1.0982575   -6.6780475    464.44835  0.035089782  0.035364345            2 
 1104000    1.0611201   -6.6648538     464.9988  0.035099547  0.035356889            3 
 1105000    1.0661495   -6.6776531    465.36622  0.035095491  0.035349236            3 
 1106000    1.0592958   -6.6964895    463.61701  0.034931963  0.035341573            3 
 1107000     1.069534   -6.6690635    466.05484  0.035083924  0.035334111            5 
 1108000     1.077997    -6.662458     466.7428  0.035104001  0.035327187            3 
 1109000    1.0780669   -6.7197839    465.93325  0.035011515  0.035320446            1 
 1110000    1.0720909   -6.7124918    467.40952  0.035090805  0.035313334            3 
 1111000    1.0512706   -6.6820514     469.3175  0.035202332  0.035306641            2 
 1112000    1.0701871   -6.6851897    468.17599  0.035085131  0.035300249            7 
 1113000    1.0703003   -6.6639111    469.64479  0.035163581  0.035293688            2 
 1114000    1.0632549    -6.673177    468.96899  0.035081462  0.035286973            6 
 1115000    1.0782198   -6.6543054    469.58089  0.035095731  0.035280145            3 
 1116000    1.1073491   -6.6591815    470.28622  0.035116952  0.035273529            3 
 1117000    1.0729478   -6.7140947     469.4306   0.03502168  0.035266832            6 
 1118000    1.0827642    -6.701283    471.44084  0.035140194  0.035260145            3 
 1119000    1.0661186   -6.6776652    471.48875  0.035112358  0.035253548            3 
 1120000    1.0650724   -6.6777102    470.36518  0.034997409  0.035247034            5 
 1121000    1.0299896   -6.6705157    471.35962  0.035040115  0.035240621            3 
 1122000     1.068897   -6.6427192    473.63641  0.035177987  0.035234256            3 
 1123000    1.0958966   -6.6779198    472.87129  0.035089885  0.035228049            2 
 1124000    1.0639792   -6.6925632    474.24583  0.035160574  0.035221744            2 
 1125000    1.0853772   -6.6839674    472.76731    0.0350198  0.035215281            6 
 1126000    1.0564817   -6.7092138    473.10175  0.035013451  0.035208614            2 
 1127000    1.0588423   -6.7011002    473.61263  0.035020159  0.035201864            4 
 1128000    1.0601479    -6.711331    475.62742   0.03513796  0.035195323            3 
 1129000    1.0658381    -6.675606    474.98159  0.035059167  0.035189021            4 
 1130000    1.0796036     -6.68766    476.52054  0.035141633   0.03518266            1 
 1131000    1.0846062   -6.6898349    477.06967  0.035151022  0.035176271            2 
 1132000    1.0610767   -6.6542088    478.47592  0.035223493  0.035170091            2 
 1133000    1.0410464   -6.6777207    477.48559  0.035119564  0.035163907            4 
 1134000    1.0874073   -6.6694022     477.8613  0.035116204  0.035157408            3 
 1135000    1.0571371   -6.6952668    478.24513  0.035113445  0.035151191            7 
 1136000    1.0388553   -6.6538283    479.49035  0.035173881  0.035145017            2 
 1137000    1.0585801   -6.6792934    478.15706  0.035045225  0.035138849            3 
 1138000    1.0649874   -6.7146888    478.00827  0.035003535  0.035132817            7 
 1139000    1.0898732    -6.698001    478.62452   0.03501789  0.035126546            2 
 1140000    1.0661626   -6.7010835     479.2735  0.035034613  0.035120422            5 
 1141000    1.0742789   -6.6797795    481.10436  0.035137625  0.035114527            2 
 1142000    1.0906447   -6.6961934    480.74949  0.035080961  0.035108538            4 
 1143000    1.0693647   -6.7148082    480.01146  0.034996461  0.035102469            4 
 1144000    1.0736396   -6.6811039    482.56243  0.035151692  0.035096483            2 
 1145000    1.0986409   -6.6829931    483.06065  0.035157252  0.035090586            2 
 1146000    1.0780673   -6.6902934    481.84012  0.035037821  0.035084663            7 
 1147000    1.0773786   -6.6550606    482.34531  0.035043978  0.035078818            3 
 1148000    1.0567908   -6.6576799    482.66103   0.03503637   0.03507301            3 
 1149000    1.0580952   -6.7003785    484.53095  0.035141496  0.035067133            3 
 1150000    1.0857352   -6.7285054    484.36334  0.035098793  0.035061031            2 
 1151000    1.0625187   -6.6819329    483.72817  0.035022312  0.035055099            2 
 1152000    1.0825245   -6.6931918      483.043  0.034942347  0.035049092            4 
 1153000    1.0603567   -6.7055766    483.79582  0.034966451   0.03504318            1 
 1154000    1.0729086   -6.7013005    486.19066  0.035109089   0.03503744            6 
 1155000    1.0654799   -6.7017102    484.64281  0.034967014    0.0350317            4 
 1156000     1.064985   -6.7090032    485.61506  0.035006853  0.035025728            5 
 1157000    1.0829547   -6.6697245    485.55895  0.034972554  0.035019583            2 
 1158000    1.0763217   -6.6849727    484.60309  0.034873567  0.035013702            4 
 1159000    1.0233835   -6.6975299    486.40123  0.034972766  0.035007618            2 
 1160000    1.0403399   -6.7101481    485.56503  0.034882545  0.035001319            2 
 1161000    1.0828761   -6.6708593    487.33102  0.034979258  0.034995141            3 
 1162000    1.0784212   -6.6994831    486.50634  0.034890013  0.034989068            4 
 1163000     1.063068   -6.7459567    485.72001  0.034803669  0.034982728            1 
 1164000    1.0587913   -6.7061248    487.05288  0.034869192  0.034976229            3 
 1165000    1.0744251   -6.6774765    488.54871   0.03494626  0.034970042            7 
 1166000    1.0662561     -6.69728    488.34872  0.034901995  0.034964074            1 
 1167000    1.0677303   -6.7232503     489.0256  0.034920423  0.034957919            3 
 1168000    1.0429629   -6.7157783    488.32397  0.034840466  0.034951821            3 
 1169000    1.0826086    -6.650899    489.93542  0.034925536  0.034945749            2 
 1170000    1.0416962   -6.6667038    490.69862  0.034950044  0.034939762            3 
 1171000    1.0882701   -6.6959352    492.27542   0.03503241  0.034934005            2 
 1172000    1.0673139   -6.6589685    491.01056  0.034912583  0.034928154            3 
 1173000    1.0557187   -6.6861665    491.10637  0.034889625  0.034922023            4 
 1174000    1.0615276   -6.7056049    491.13823  0.034862168     0.034916            4 
 1175000    1.0457529    -6.665014    491.77718  0.034877814   0.03490997            2 
 1176000    1.0668557   -6.7136856    490.03808   0.03472492   0.03490381            3 
 1177000    1.0544073   -6.6852053    492.12621  0.034843261  0.034897642            3 
 1178000    1.0709186   -6.7325907    491.74201  0.034786503  0.034891467            2 
 1179000    1.0633156   -6.6806216    494.62111  0.034960497  0.034885233            6 
 1180000    1.0641947   -6.7330413    492.61212  0.034788991  0.034878898            3 
 1181000    1.0475358   -6.6826214    494.00811  0.034858038   0.03487273            3 
 1182000    1.0705105   -6.7441324    492.51618  0.034723363  0.034866336            4 
 1183000    1.0729863   -6.6757366    493.46319   0.03476072  0.034860163            7 
 1184000    1.0476022   -6.6958744    495.78939  0.034895087  0.034854132            2 
 1185000    1.0696313   -6.7132428    495.52281  0.034846893  0.034847836            2 
 1186000    1.0650041   -6.7200218    494.98446  0.034779684  0.034841514            2 
 1187000    1.0938355   -6.7361538     494.9661  0.034749094  0.034835465            4 
 1188000     1.051386   -6.7187191    495.95554   0.03478925  0.034829466            3 
 1189000    1.0846976   -6.7063579    495.14641  0.034703281  0.034823241            4 
 1190000    1.0783665   -6.6851734    497.00684    0.0348044  0.034817195            3 
 1191000    1.0719444   -6.7136437    496.86862  0.034765506  0.034811233            4 
 1192000     1.070109   -6.7162886    496.77868  0.034730053  0.034805071            2 
 1193000    1.0539684   -6.6933733    496.57759  0.034686895  0.034798925            3 
 1194000    1.0697965   -6.7053798    496.26187  0.034635809  0.034792476            3 
 1195000    1.0447906   -6.7099232    497.89759  0.034720892  0.034785874            4 
 1196000    1.0485834   -6.6890716    497.18299   0.03464207  0.034779373            3 
 1197000    1.0565631   -6.7281654    497.58182  0.034640895  0.034772906            2 
 1198000    1.0576808   -6.7278539     497.3164  0.034593517  0.034766311            2 
 1199000    1.0576004   -6.7239327    498.25057  0.034629592  0.034759715            4 
 1200000    1.0730203   -6.6773056      499.833  0.034710625  0.034753254            5 
 1201000    1.0680805   -6.7193445    499.78282  0.034678242  0.034746862            3 
 1202000    1.0603021   -6.6778392    499.97667   0.03466283  0.034740476            2 
 1203000    1.0346945   -6.7421925    499.29795  0.034587001  0.034733887            3 
 1204000    1.0616372   -6.6889162    500.35012  0.034631099   0.03472736            1 
 1205000    1.0689114   -6.7104154    502.10872  0.034723978  0.034720948            6 
 1206000     1.063985   -6.7138595    500.02034   0.03455088  0.034714574            3 
 1207000    1.0512218   -6.7235754    500.34564  0.034544714  0.034708098            3 
 1208000    1.0745388   -6.6992034    501.94948  0.034626757  0.034701661            2 
 1209000    1.0599141   -6.6951638    502.10217  0.034608642  0.034695457            3 
 1210000    1.0411446    -6.725692    501.10608  0.034511438  0.034689047            2 
 1211000    1.0606912   -6.7211664    500.46737  0.034438988  0.034682365            6 
 1212000    1.0501086    -6.764252    501.66665  0.034493031  0.034675656            1 
 1213000    1.0373019   -6.7122467    502.78692  0.034541558  0.034669057            2 
 1214000    1.0524667   -6.7475061     501.4709  0.034422769  0.034662222            2 
 1215000    1.0663055   -6.7098528    502.97086  0.034497316  0.034655456            2 
 1216000    1.0538184    -6.695826    504.53444  0.034576099    0.0346487            3 
 1217000    1.0539572   -6.7100403    503.85132  0.034500912  0.034641959            4 
 1218000    1.0568805    -6.720299    503.53774  0.034451132  0.034635152            8 
 1219000    1.0495759   -6.6904209    504.59302  0.034495011  0.034628414            4 
 1220000    1.0519938   -6.6940922    504.04615  0.034429382  0.034621625            2 
 1221000    1.0662899   -6.7197278    503.99796  0.034397895  0.034614426            6 
 1222000    1.0477586   -6.7239912    504.50611  0.034404399  0.034607297            5 
 1223000    1.0662879   -6.7182766    503.49819   0.03430759  0.034600229            5 
 1224000    1.0409313   -6.7064578    504.36443  0.034338537  0.034592933            2 
 1225000    1.0599168   -6.7062854    505.01903  0.034355036  0.034585683            3 
 1226000    1.0685055   -6.7461967    504.04915   0.03426109  0.034578555            6 
 1227000    1.0511094   -6.7222598     505.1762  0.034309712  0.034571278            8 
 1228000    1.0576765   -6.7434351    504.53549  0.034238294  0.034564018            2 
 1229000    1.0613592    -6.709868    506.84081  0.034366748  0.034556971            2 
 1230000    1.0828323   -6.7197771     506.0392  0.034284498  0.034549737            2 
 1231000     1.062845   -6.7206999     506.0798  0.034259396  0.034542626            2 
 1232000    1.0502517   -6.7337487     505.4325  0.034187804  0.034535401            2 
 1233000    1.0664838   -6.6878468    509.93731  0.034464538  0.034528237            5 
 1234000    1.0646618   -6.6967439    507.76368  0.034289822  0.034521265            1 
 1235000    1.0496783   -6.6841515     508.2478  0.034294724  0.034514547            5 
 1236000     1.059047   -6.7341028    509.62574   0.03435988  0.034507786            7 
 1237000     1.041886   -6.6942201    508.51986  0.034257603   0.03450083            2 
 1238000    1.0312675   -6.7467796    507.04831  0.034130877  0.034493541            2 
 1239000     1.049418   -6.7141447    510.15182  0.034312067   0.03448638            3 
 1240000    1.0661524   -6.7193384    509.48219  0.034239394  0.034479273            2 
 1241000    1.0744235   -6.7234167    509.10791  0.034186672  0.034472087            3 
 1242000    1.0654242   -6.6963671    510.49901  0.034252483  0.034464948            2 
 1243000    1.0311689    -6.734576    510.18672   0.03420399  0.034457995            2 
 1244000       1.0322   -6.7494361    510.29796  0.034183947  0.034450869            3 
 1245000    1.0355912   -6.7415201    509.68531  0.034115482  0.034443772            6 
 1246000    1.0656267   -6.7275729    510.90353  0.034169578  0.034436518            2 
 1247000    1.0343477   -6.7021796    510.77401  0.034133521  0.034429406            2 
 1248000    1.0595392   -6.7361691    511.25225  0.034138104  0.034421978            4 
 1249000    1.0382882   -6.7222431    511.99427  0.034160279  0.034414641            2 
 1250000    1.0396461    -6.710929    512.40534  0.034160356  0.034407233            3 
 1251000    1.0548056   -6.7460752    510.66603  0.034017188  0.034399642            2 
 1252000    1.0320877   -6.7635209     511.1957  0.034025273  0.034391992            2 
 1253000    1.0802782   -6.7252241    512.17488   0.03406324  0.034384425            6 
 1254000    1.0575246   -6.7206961     511.5208   0.03399261  0.034376774            5 
 1255000    1.0432007   -6.7119119    512.07145  0.034002088  0.034368933            6 
 1256000    1.0557338   -6.7143621    513.13704  0.034045717  0.034361264            4 
 1257000    1.0492515   -6.6970468    513.82045  0.034063939  0.034353527            4 
 1258000    1.0409049   -6.7136022    513.77781  0.034034036  0.034345947            2 
 1259000    1.0870292   -6.7386893    513.79083  0.034007866  0.034338459            3 
 1260000    1.0487562     -6.74327    511.91095  0.033856545  0.034330909            2 
 1261000    1.0452212   -6.7350037    512.33053  0.033857423  0.034323241            3 
 1262000    1.0550913    -6.707658    514.61577  0.033981496  0.034315853            2 
 1263000    1.0657793   -6.6898165     515.0617  0.033984013  0.034308267            2 
 1264000    1.0529714   -6.7253904    516.38831  0.034044588  0.034300709            2 
 1265000    1.0431016   -6.7209161    515.86298  0.033983068  0.034292948            4 
 1266000    1.0507873   -6.7044636    515.96508  0.033962947  0.034285377            2 
 1267000    1.0417799   -6.7422084    514.46235  0.033837302    0.0342779            7 
 1268000    1.0570265   -6.7487858    516.94785  0.033973965  0.034270339            2 
 1269000    1.0705418   -6.7162074    517.50103  0.033983519   0.03426278            1 
 1270000     1.039441   -6.7150932    518.47828  0.034020885   0.03425525            3 
 1271000    1.0337857   -6.7191487    516.86906  0.033888609  0.034247754            2 
 1272000    1.0329586    -6.747136    518.07544  0.033941001  0.034240293            4 
 1273000    1.0364525   -6.7334937    517.50397  0.033876929  0.034232819            3 
 1274000    1.0353004   -6.7226943    518.76877   0.03393307  0.034225545            5 
 1275000    1.0272442   -6.7546114    518.74826  0.033905115   0.03421811            5 
 1276000     1.072105   -6.7024628    520.41263   0.03398724  0.034210912            5 
 1277000    1.0229467   -6.7211536    521.90276  0.034057867  0.034203934            7 
 1278000    1.0433337   -6.7027648    522.12219  0.034045526  0.034197129            4 
 1279000     1.019652   -6.6987677    523.15164  0.034085981  0.034190258            6 
 1280000    1.0528989   -6.7552832    522.95139  0.034046314  0.034183332            3 
 1281000    1.0266365    -6.712742     523.4705  0.034053507  0.034176523            4 
 1282000     1.044646   -6.7500085    524.29973  0.034080845  0.034169733            4 
 1283000    1.0296951    -6.758059     523.2699  0.033987393  0.034162959            2 
 1284000    1.0497778   -6.7098189     525.1045  0.034079991  0.034156299            7 
 1285000    1.0149566   -6.7068526    524.70129  0.034027321  0.034149629            2 
 1286000     1.056899   -6.7386908    525.58885  0.034058375  0.034142972            3 
 1287000    1.0580981   -6.7425484    524.39684  0.033954729  0.034136179            5 
 1288000    1.0443867   -6.7368366    525.39622  0.033993027  0.034129361            4 
 1289000    1.0568771     -6.71364    525.11247  0.033948311  0.034122579            3 
 1290000    1.0678192   -6.7629767    526.47244  0.034009847   0.03411582            4 
 1291000    1.0451449   -6.7341051    525.67092  0.033931766  0.034109208            2 
 1292000    1.0560323   -6.7513486    526.26795  0.033944012  0.034102485            3 
 1293000    1.0523598   -6.7334912    526.87266  0.033956733  0.034095845            3 
 1294000    1.0663209   -6.7670343    526.45817  0.033903798  0.034089116            6 
 1295000    1.0358079   -6.7197123    529.17863  0.034052679  0.034082343            5 
 1296000    1.0773583   -6.7394486     528.7511  0.033998913  0.034075597            2 
 1297000    1.0442948    -6.779018    528.15568  0.033934444  0.034068837            7 
 1298000    1.0518437   -6.6957059    529.88958  0.034019618  0.034062294            2 
 1299000    1.0488355   -6.7214827    529.05091  0.033939627   0.03405577            5 
 1300000    1.0426248   -6.7378494    529.63634  0.033951048  0.034049151            4 
 1301000    1.0418467   -6.7460653    528.59181  0.033858046  0.034042627            3 
 1302000    1.0428802   -6.7607857    530.53225  0.033956237  0.034036065            4 
 1303000    1.0392622   -6.7567164    529.88726  0.033888927  0.034029283            3 
 1304000    1.0428386   -6.7422194    528.82598  0.033795116  0.034022604            5 
 1305000    1.0562521   -6.7523475    530.59578  0.033882234  0.034016109            3 
 1306000    1.0607581   -6.7236553    531.19449  0.033894493  0.034009653            3 
 1307000     1.039455   -6.7423872    530.23431  0.033807339  0.034002988            2 
 1308000    1.0641904   -6.7288211    531.41278  0.033856574  0.033996457            5 
 1309000    1.0562211   -6.7342394    531.16755  0.033815098  0.033989623            3 
 1310000    1.0604904   -6.6969267    532.54938  0.033877187  0.033982731            4 
 1311000    1.0465579   -6.7236817    531.26131  0.033769471  0.033975867            5 
 1312000    1.0251071   -6.7669752    533.22893  0.033868707  0.033969021            2 
 1313000    1.0536193   -6.7428499    533.29939  0.033847384  0.033962314            2 
 1314000    1.0463223   -6.7476478    533.69018  0.033846409  0.033955605            2 
 1315000    1.0495996   -6.7761616    533.09319  0.033782839  0.033948877            6 
 1316000     1.056808   -6.7214087    533.70045  0.033795621  0.033941973            2 
 1317000    1.0455607   -6.7442158    533.88648  0.033781731  0.033935223            7 
 1318000    1.0320455   -6.7234046    532.80903  0.033687976  0.033928297            5 
 1319000    1.0419548      -6.7263    533.83762  0.033727421  0.033921368            3 
 1320000    1.0522105   -6.7280963    534.58284  0.033748917  0.033914277            3 
 1321000     1.039069   -6.7613062    533.66815  0.033665666   0.03390735            3 
 1322000    1.0213843   -6.7458918    537.23177  0.033864836  0.033900507            3 
 1323000    1.0190665   -6.7677491    533.80212  0.033623212  0.033893531            5 
 1324000    1.0390125    -6.738314    534.52108  0.033643069    0.0338866            3 
 1325000    1.0396175   -6.7552019    536.09768  0.033716835  0.033879768            3 
 1326000    1.0271314   -6.7408822    537.43644  0.033775543  0.033872898            4 
 1327000    1.0433278     -6.75364    536.37943  0.033683712  0.033865933            3 
 1328000    1.0525162   -6.7386813    536.60541  0.033672528  0.033859012            6 
 1329000    1.0346675   -6.7343763    538.13803  0.033743293  0.033852169            3 
 1330000    1.0352392   -6.7732073    537.82067  0.033698037  0.033845284            2 
 1331000    1.0496638     -6.72942    538.40198  0.033709115  0.033838394            2 
 1332000    1.0771358   -6.7367306    538.20872  0.033671717  0.033831729            2 
 1333000    1.0618994   -6.7187622    537.82585  0.033622521  0.033824844            8 
 1334000    1.0325531   -6.7582181    539.38552  0.033694748  0.033817927            5 
 1335000    1.0506984   -6.7484468    538.25943  0.033599215   0.03381104            4 
 1336000    1.0516954   -6.7748409    539.13868   0.03362891  0.033804271            3 
 1337000    1.0353454   -6.7490778    540.49778  0.033688468  0.033797423            1 
 1338000    1.0343048   -6.7590714    539.92301  0.033627492   0.03379053            3 
 1339000    1.0258965   -6.7746284    540.14598  0.033616255  0.033783687            2 
 1340000    1.0441383   -6.7555147    540.68902  0.033624939  0.033776751            2 
 1341000    1.0310503   -6.7584908    541.59088  0.033655908  0.033769838            3 
 1342000    1.0312274    -6.754038    540.93925  0.033590365   0.03376299            6 
 1343000    1.0342286    -6.771226    542.69377  0.033674223  0.033756103            4 
 1344000    1.0175315   -6.7467018     542.4377   0.03363329  0.033749355            3 
 1345000    1.0311833   -6.7614905       540.88  0.033511772  0.033742576            5 
 1346000     1.022934   -6.7428673    540.15785  0.033442165  0.033735573            4 
 1347000    1.0298934    -6.768267    540.79797  0.033456939  0.033728653            2 
 1348000    1.0448342   -6.7542196    542.10214  0.033512743  0.033721521            4 
 1349000    1.0245294   -6.7572362     541.7096  0.033463652  0.033714323            3 
 1350000    1.0543803   -6.7499657    541.65199  0.033435308  0.033707162            2 
 1351000    1.0118404   -6.7821367     543.3698  0.033516519  0.033699968            5 
 1352000    1.0315439   -6.7609877    544.89717  0.033585871  0.033692985            2 
 1353000    1.0383834   -6.7800374    543.05347  0.033447491  0.033685955            3 
 1354000    1.0286727   -6.7725318    544.39636  0.033505438  0.033678748            3 
 1355000      1.03014   -6.7534888    544.97324   0.03351619  0.033671727            3 
 1356000     1.024443   -6.7766558    545.23289  0.033507429  0.033664678            6 
 1357000    1.0267152   -6.7438256    543.53009  0.033378168  0.033657652            2 
 1358000    1.0236982   -6.7507184    546.12585  0.033512877  0.033650754            4 
 1359000    1.0283197   -6.7425797    546.17424  0.033491185  0.033643694            4 
 1360000    1.0468535   -6.7679778    545.06121  0.033398358  0.033636789            1 
 1361000    1.0372181   -6.7527881    547.57935  0.033528003  0.033629678            1 
 1362000     1.029769   -6.7808555    546.07362  0.033411259  0.033622885            3 
 1363000    1.0416857   -6.7894923    546.21047  0.033395113  0.033615993            6 
 1364000    1.0510457   -6.7627893    547.69355  0.033461239  0.033609092            5 
 1365000    1.0280824   -6.7445866     547.2221  0.033407943  0.033602278            3 
 1366000    1.0424399   -6.7725004    549.85456   0.03354408  0.033595537            3 
 1367000    1.0077407   -6.7674207    547.77744  0.033392919  0.033588696            4 
 1368000    1.0441561   -6.7562907    549.66292  0.033483365  0.033582033            6 
 1369000    1.0394069   -6.7361271    549.95016  0.033476392  0.033575297            2 
 1370000    1.0011854   -6.7880369    549.92456  0.033450399  0.033568395            2 
 1371000    1.0494764   -6.7863663    551.75768  0.033537423  0.033561555            6 
 1372000    1.0331142    -6.776514    550.03298  0.033408223  0.033554712            5 
 1373000    1.0256853    -6.771334    550.35905  0.033403681  0.033548064            2 
 1374000    1.0409242   -6.7661396    551.67489  0.033459176  0.033541305            4 
 1375000    1.0176187   -6.7568001    550.05206  0.033336489  0.033534571            3 
 1376000    1.0284962   -6.7682093    551.35973  0.033391456  0.033527705            3 
 1377000    1.0270537   -6.7493298    552.00839  0.033406463  0.033520751            3 
 1378000    1.0210385   -6.7339077    552.26589  0.033397792  0.033513797            3 
 1379000    1.0271932   -6.7620645    551.73942  0.033341758  0.033506953            3 
 1380000    1.0120019    -6.767593    550.85082  0.033263938  0.033499845            3 
 1381000    1.0433221   -6.7599598    551.24127  0.033263412   0.03349285            2 
 1382000    1.0369446   -6.7661975    550.68824  0.033205996  0.033485695            5 
 1383000    1.0322097    -6.755561    552.68074  0.033302045   0.03347847            4 
 1384000    1.0329013   -6.7901758    552.36529  0.033258989  0.033471325            8 
 1385000    1.0402743   -6.7636188    553.22511  0.033286709  0.033464209            4 
 1386000    1.0477588   -6.7763276    552.52347  0.033220507  0.033457144            4 
 1387000    1.0248093   -6.7464355    552.81335  0.033213972  0.033450023            3 
 1388000    1.0226236    -6.732906     555.0023  0.033321464  0.033442945            1 
 1389000    1.0239547   -6.7659451    552.69514  0.033159056  0.033435856            3 
 1390000    1.0136041    -6.764369    555.27644  0.033289955  0.033428646            4 
 1391000    1.0280949   -6.7675902      554.343    0.0332101  0.033421427            2 
 1392000    1.0400733   -6.7717655    553.83062  0.033155569  0.033413961            4 
 1393000     1.029558    -6.747491     553.7549  0.033127238   0.03340651            2 
 1394000    1.0278733    -6.781904    552.14168  0.033007035  0.033399035            3 
 1395000    1.0457209   -6.8144501     553.9787  0.033093112  0.033391506            3 
 1396000     1.016849   -6.7941488       554.94  0.033126791  0.033384214            2 
 1397000    1.0117359    -6.754853    556.28833  0.033183508  0.033376776           14 
 1398000    1.0332212   -6.7454896    554.83068  0.033072883  0.033369413            3 
 1399000    1.0342014   -6.7791861    555.11149  0.033065969  0.033362118            4 
 1400000    1.0193075   -6.7631825    556.10465  0.033101467  0.033354667            5 
 1401000     1.000447   -6.7691143    555.82294  0.033061084  0.033347358            4 
 1402000    1.0214886   -6.7626001    556.51325  0.033078534  0.033340092            3 
 1403000    1.0009437   -6.7944095     555.7081  0.033007134  0.033332816            7 
 1404000    1.0317572   -6.7805186    559.23932  0.033193217  0.033325622            4 
 1405000    1.0460669   -6.7834917    558.47901  0.033124497  0.033318565            4 
 1406000    1.0220544   -6.7890882     558.7159  0.033114977  0.033311306            2 
 1407000    1.0442591   -6.7712611     559.4966   0.03313768  0.033304131            2 
 1408000    1.0415429    -6.737747     558.9452  0.033081511  0.033297097            4 
 1409000    1.0259425   -6.7546263    559.28177  0.033077938  0.033290123            7 
 1410000    1.0079299   -6.7723949     561.0279  0.033157677  0.033283232            4 
 1411000    1.0134542   -6.8117653    560.37898  0.033095853   0.03327636            3 
 1412000    1.0078529   -6.7555543     562.5286   0.03319928  0.033269552            4 
 1413000    1.0364995   -6.7569286    561.44125  0.033111657  0.033262703            3 
 1414000    1.0274933   -6.8115326    560.98492  0.033061346  0.033255878            4 
 1415000    1.0042065   -6.7667194    562.67402  0.033137457  0.033249072            4 
 1416000    1.0180666   -6.7543551    562.49454  0.033103492  0.033242325            2 
 1417000    1.0082288   -6.7737065    562.32691  0.033070272  0.033235534            2 
 1418000    1.0323979   -6.7685282    562.47043  0.033055385  0.033228726            6 
 1419000    1.0098833   -6.7440892    564.12344  0.033129166  0.033221979            3 
 1420000    1.0175252   -6.7681266    564.87795  0.033150115  0.033215079            3 
 1421000    1.0222954   -6.7390148    565.36191  0.033155167  0.033208303            2 
 1422000    1.0241912   -6.7689572    564.88152  0.033103699    0.0332014            4 
 1423000    1.0357129   -6.7579264    566.87474  0.033197162  0.033194614            3 
 1424000    1.0365627   -6.7601556    565.83562   0.03311304  0.033187887            3 
 1425000    1.0341793   -6.7792825    564.95198  0.033038128  0.033181144            1 
 1426000      1.04035   -6.7427775     566.8445  0.033125555  0.033174529            4 
 1427000     1.031045   -6.7709899    566.27602  0.033069144  0.033167993            3 
 1428000    1.0206605   -6.7739782    566.46794  0.033057186  0.033161451            2 
 1429000     1.060527   -6.8005112    568.29952  0.033140863  0.033154877            2 
 1430000    1.0202467   -6.7431718    566.95021  0.033039056  0.033148218            3 
 1431000    1.0083408   -6.7841864    566.82433  0.033008638  0.033141534            3 
 1432000    1.0367613   -6.8143376    566.73179  0.032980202  0.033134759            3 
 1433000    1.0118757   -6.8250722    566.45718  0.032941218   0.03312795            3 
 1434000    1.0112944   -6.7597772    567.99985  0.033007895  0.033121215            6 
 1435000    1.0180822   -6.8042711    567.66862  0.032965658  0.033114437            7 
 1436000    1.0301882   -6.7932621    568.58906  0.032996115  0.033107628            3 
 1437000    1.0136374   -6.8134032    568.59064  0.032973245  0.033100834            6 
 1438000    1.0564088   -6.8172887    568.39039  0.032938711    0.0330941            3 
 1439000    1.0361432   -6.7702936    569.05609  0.032954372   0.03308739            2 
 1440000    1.0089933   -6.7462103    567.13597  0.032820369  0.033080549           10 
 1441000    1.0142415   -6.7854206    570.18326  0.032973818  0.033073819            2 
 1442000    1.0296162   -6.8193514    568.17223  0.032834734  0.033067052            2 
 1443000    1.0207068   -6.7927874    568.95748  0.032857327  0.033060221            4 
 1444000    1.0138602   -6.7722269    571.96238  0.033007986  0.033053337            4 
 1445000    1.0395003   -6.7956346    569.74415  0.032857217  0.033046618            4 
 1446000    1.0144178   -6.7709137    570.81235  0.032896055  0.033039804            2 
 1447000    1.0077891   -6.7934729    569.66442  0.032807212  0.033032942            6 
 1448000    1.0425734   -6.7397397    572.18224  0.032929457  0.033026114            2 
 1449000    1.0450037   -6.7229276    572.74162  0.032938901  0.033019354            3 
 1450000    1.0609314   -6.7374359    572.71215  0.032914492  0.033012492            8 
 1451000    1.0385506   -6.8044134    571.61485  0.032828787  0.033005624            5 
 1452000    1.0122199   -6.8035359    571.35268  0.032791132  0.032998749            6 
 1453000    1.0273127   -6.7765131    573.44312  0.032888456   0.03299175            4 
 1454000    1.0274812   -6.8000335     574.4447   0.03292324  0.032984841           10 
 1455000    1.0440592   -6.7909456    574.40351  0.032898254  0.032977909            2 
 1456000    1.0304583   -6.8133673    572.87448  0.032788145  0.032970872            3 
 1457000    1.0094538   -6.7763012    574.87395  0.032880002  0.032963817            2 
 1458000    1.0231024   -6.7820968    574.34481  0.032827207  0.032956998            5 
 1459000    1.0293321   -6.7856133    574.31514  0.032803013  0.032950039            3 
 1460000    1.0021475   -6.7810014    574.93222  0.032815766  0.032943125            3 
 1461000    1.0197068   -6.7821443    575.59209  0.032830943  0.032936111            3 
 1462000    1.0076991   -6.8089986    573.99963  0.032717717  0.032929047            2 
 1463000     1.006102   -6.7989331    572.91252  0.032633431  0.032921943            3 
 1464000     1.007863   -6.7636771    577.37535  0.032865173  0.032914787            2 
 1465000    1.0250579   -6.7777192    575.52941  0.032737737  0.032907799            5 
 1466000     1.039699    -6.742492    576.88785  0.032792624   0.03290082            3 
 1467000    1.0146974   -6.7799318    577.02898  0.032778288  0.032893899            2 
 1468000    1.0186594   -6.8122495    576.91948  0.032749743  0.032886938            3 
 1469000     1.030576   -6.7680161    576.79745  0.032720527  0.032879927            4 
 1470000    1.0082932   -6.7910962    575.47514  0.032623307  0.032872846            2 
 1471000    1.0088184   -6.7978938    577.54987  0.032718665  0.032865867            3 
 1472000    1.0101115   -6.7867439    577.44325  0.032690401  0.032858875            2 
 1473000    1.0188933   -6.7591634    577.69458  0.032682427   0.03285186            4 
 1474000    1.0246409   -6.8164772    578.21197  0.032689505  0.032844842            3 
 1475000    1.0178223   -6.7958967    578.86954  0.032704494  0.032837901            5 
 1476000    1.0142463   -6.7808279    579.14036  0.032697626  0.032830855            3 
 1477000    1.0087903   -6.7615044    581.00011  0.032780417  0.032824056            2 
 1478000      1.00953   -6.7893486    579.51639  0.032674582  0.032817118            3 
 1479000    1.0024204    -6.776293     580.3012  0.032696709  0.032810177            3 
 1480000    1.0037011   -6.7897399    579.92175  0.032653252  0.032803222            4 
 1481000    1.0133049    -6.789636    578.39089  0.032545065  0.032796162            3 
 1482000    1.0361012   -6.7678737    580.45893  0.032639391   0.03278909            3 
 1483000    1.0296735   -6.8406722     579.6718  0.032573151  0.032781813            4 
 1484000    1.0131634   -6.7655781    580.19349  0.032580497  0.032774619            7 
 1485000    1.0181641   -6.7570587    579.69857  0.032530784   0.03276747            3 
 1486000    1.0237584   -6.8098419    579.87329  0.032518691  0.032760205            5 
 1487000    1.0111748   -6.7898026    578.55319  0.032422842  0.032752868           11 
 1488000    1.0072514   -6.7957169    580.23991  0.032495515  0.032745403            1 
 1489000    1.0179442    -6.822552    578.98929  0.032403699  0.032738006            3 
 1490000    1.0255109   -6.8094746    580.37202  0.032459285  0.032730611            3 
 1491000    1.0080033   -6.8130974    580.71535  0.032456704  0.032723245            3 
 1492000    1.0156235    -6.812496    582.18285  0.032516915   0.03271578            4 
 1493000    1.0177702   -6.8344996    581.90265  0.032479496  0.032708533            2 
 1494000    1.0020746   -6.7755849    581.52127  0.032436483  0.032701181            3 
 1495000    1.0166829   -6.7927208    583.26968  0.032512245  0.032693633            5 
 1496000    1.0258589   -6.8493216    580.73563  0.032349355  0.032686052            3 
 1497000    1.0167029   -6.8206948    581.42134  0.032365918  0.032678469            2 
 1498000    1.0146119    -6.785562    581.99666  0.032376316  0.032671029            2 
 1499000    1.0165929   -6.7868683    582.28273  0.032370621  0.032663441            2 
 1500000   0.99756866    -6.763829    583.09163  0.032393979  0.032655925            3 
 1501000    1.0242136   -6.7853884    583.72292  0.032407446  0.032648454            2 
 1502000   0.99329071   -6.8135952    581.91263  0.032285432  0.032640931            2 
 1503000    1.0131295    -6.803877    583.47458  0.032350554  0.032633249            1 
 1504000    1.0152034   -6.8092278    584.11395   0.03236447  0.032625687            4 
 1505000    1.0211172   -6.8099219    583.92171  0.032332321  0.032618037            4 
 1506000    0.9850669   -6.8251622      583.335  0.032278386  0.032610456            3 
 1507000    1.0220071   -6.8068131    584.18648  0.032304052  0.032602913            3 
 1508000    1.0156817   -6.8175762    583.77899  0.032260112  0.032595318            4 
 1509000    1.0140756    -6.793561    585.66765  0.032343034  0.032587733            3 
 1510000    1.0218525   -6.7961125    586.04801  0.032342606  0.032580192            6 
 1511000    1.0192573   -6.8373098    584.49492  0.032235546   0.03257259            3 
 1512000    1.0276641   -6.7824186    587.60354  0.032385557  0.032564992            4 
 1513000     1.026718    -6.789075    586.74199  0.032316699  0.032557498            4 
 1514000    1.0121552   -6.8298015    585.58855  0.032231867  0.032549833            2 
 1515000    1.0319359   -6.8092962    588.05555   0.03234629  0.032542166            2 
 1516000    1.0021072   -6.8272101    586.71296  0.032251152  0.032534684            2 
 1517000    1.0264687   -6.8468729    586.13612  0.032198205  0.032527175            4 
 1518000    1.0090789    -6.796211    587.19765  0.032235268  0.032519672            5 
 1519000    1.0221135   -6.8181798    587.85364  0.032250035    0.0325123            3 
 1520000    1.0092022   -6.7932539    588.85259  0.032283585  0.032504874            3 
 1521000    1.0225508   -6.8121563      587.489  0.032187651  0.032497517            2 
 1522000    1.0029046   -6.8001688    588.19794  0.032205318  0.032490044            3 
 1523000   0.99442104   -6.8015587    588.27812   0.03218856  0.032482501            3 
 1524000    1.0039068   -6.7990871    589.42507  0.032230154  0.032475051            2 
 1525000   0.99155205   -6.7899186    588.44074  0.032155232  0.032467621            2 
 1526000    1.0172983   -6.8360272    588.30766  0.032126893  0.032460142            2 
 1527000    1.0316408   -6.8189839     588.9635  0.032141645  0.032452675            2 
 1528000    1.0071817   -6.8002255    589.02046  0.032123716  0.032445272            2 
 1529000    1.0218938   -6.8168745    589.92329  0.032151912  0.032437785            2 
 1530000    1.0045579    -6.792118    589.77604  0.032122878  0.032430352            1 
 1531000    1.0143091   -6.8166144    589.86505  0.032106741   0.03242284            1 
 1532000    1.0337765    -6.851867    591.04785  0.032150122  0.032415374            4 
 1533000    1.0107036   -6.8025028    590.56747  0.032103037  0.032407853            3 
 1534000    1.0016209    -6.818541    592.28145   0.03217522  0.032400455            2 
 1535000    1.0102952    -6.808907    593.25608   0.03220717  0.032393012            5 
 1536000    1.0046561   -6.8174236     593.6165  0.032205756  0.032385565            3 
 1537000    1.0200985   -6.8453977    591.43888  0.032066736  0.032378141            2 
 1538000   0.96507695   -6.8230737    592.57542  0.032107467  0.032370605            4 
 1539000   0.99135956   -6.7907475    592.62406  0.032089239  0.032363123            2 
 1540000   0.98990983   -6.8379394    592.93223  0.032085077  0.032355637            6 
 1541000    1.0126281    -6.840102    592.32454  0.032031394  0.032348147            2 
 1542000   0.99450183   -6.8275106    593.76471  0.032088452  0.032340552            3 
 1543000    1.0093834   -6.8171431    592.40078  0.031993993  0.032333026            8 
 1544000    1.0295684   -6.8018348    593.45122  0.032029966  0.032325418            5 
 1545000    1.0124806   -6.8167116    592.58604  0.031962569  0.032317756            2 
 1546000    1.0017805   -6.8249593    593.08117  0.031968584  0.032310132            3 
 1547000   0.99602325   -6.7974637     593.6344   0.03197772   0.03230263            4 
 1548000   0.99332877   -6.8292131     596.6217  0.032117878  0.032295085            3 
 1549000   0.98928507   -6.8235358    594.34921  0.031974887  0.032287548            3 
 1550000    0.9967989   -6.8130898    594.71623  0.031973991  0.032280011            8 
 1551000   0.98088253   -6.8134375    595.37254  0.031988638  0.032272515            3 
 1552000    1.0181611   -6.8353739    593.48882  0.031866882  0.032264866            3 
 1553000    1.0214857   -6.7978438    597.35527  0.032053835  0.032257288           10 
 1554000     1.000628   -6.8061815    596.81963  0.032004485  0.032249689            3 
 1555000   0.98019098   -6.8390603     594.5754  0.031863634   0.03224197            2 
 1556000    1.0063755   -6.8175026    596.89696  0.031967489   0.03223429            7 
 1557000    1.0031949    -6.794907    596.23255  0.031911398  0.032226716            3 
 1558000     1.011508   -6.8154592    595.60917  0.031857572  0.032218975            3 
 1559000    1.0217538   -6.8315741    596.57231   0.03188862  0.032211183            6 
 1560000   0.99110499   -6.8126676    596.88797  0.031885041  0.032203569            4 
 1561000    1.0052573   -6.7998117    598.27442   0.03193863  0.032196071            7 
 1562000    1.0100535   -6.8498533    596.49691  0.031823352  0.032188542            3 
 1563000   0.97293892   -6.8737572    596.99395  0.031829492  0.032180846            5 
 1564000   0.98715798   -6.8124649    598.29208  0.031878308  0.032173363            1 
 1565000   0.99674087    -6.792131    600.01649   0.03194976  0.032166022            3 
 1566000   0.99991759   -6.8150849    601.13544  0.031988902  0.032158618            2 
 1567000    1.0008563   -6.8023729    600.04042  0.031910254  0.032151283            2 
 1568000   0.99744724    -6.811833    601.34232  0.031959094  0.032143891            2 
 1569000   0.98294561   -6.8597624    599.79773  0.031856688  0.032136477            4 
 1570000   0.98815509   -6.8156647    598.98132  0.031793063  0.032128944            3 
 1571000   0.99301168    -6.821834    599.35186  0.031792482  0.032121461            5 
 1572000    1.0096326   -6.8331795    600.28941  0.031821958   0.03211393            2 
 1573000   0.99848491   -6.8181516    601.09623  0.031844471  0.032106447            8 
 1574000    1.0126542   -6.7916527    602.21119  0.031883269  0.032099111            5 
 1575000    1.0012254   -6.8082961    600.16383    0.0317547  0.032091633            2 
 1576000   0.99575075   -6.8509551    603.87973  0.031931035  0.032084304            5 
 1577000    1.0137951   -6.8186696    602.81721   0.03185464   0.03207706            3 
 1578000    1.0078091   -6.8137454    604.39173  0.031917603  0.032069673            3 
 1579000    1.0006778   -6.7952998    603.47376  0.031848943  0.032062328            3 
 1580000   0.98625292   -6.8099127    604.16651  0.031865322  0.032054883            2 
 1581000    1.0030486   -6.8354634    603.85315   0.03182865  0.032047469            4 
 1582000   0.98806653   -6.8072309    606.22399  0.031933417  0.032040272            4 
 1583000    1.0094374   -6.8103763    604.77616  0.031837027  0.032033006            3 
 1584000    1.0008376   -6.8098331    604.52878  0.031803913  0.032025684            3 
 1585000   0.99657802   -6.8301056    605.76576  0.031848883  0.032018305            6 
 1586000   0.98261889   -6.8236231    604.35613  0.031754736     0.032011            2 
 1587000   0.99306597   -6.8653544    605.78486  0.031809749  0.032003589            4 
 1588000   0.98923345   -6.8231509    605.76212  0.031788524  0.031996224            4 
 1589000   0.97633918   -6.8383032    607.17451   0.03184259  0.031988924            8 
 1590000   0.97893806   -6.8124919    606.86565  0.031806376  0.031981613            5 
 1591000   0.99184028   -6.8001507    606.79312  0.031782586  0.031974445            5 
 1592000    1.0173248   -6.8208868    607.40485  0.031794642   0.03196736            5 
 1593000    1.0047332   -6.8039932     607.2157  0.031764788  0.031960364            4 
 1594000   0.98951117   -6.8683276    608.73862  0.031824478   0.03195326            2 
 1595000   0.97812865   -6.8127871     608.3523  0.031784342  0.031946266            2 
 1596000   0.97579864   -6.8604567    608.77202  0.031786342  0.031939276            2 
 1597000   0.98667234   -6.8334918    609.05331  0.031781116  0.031932043            3 
 1598000   0.98040056   -6.8693279    607.46693    0.0316785  0.031924828            2 
 1599000   0.98096854   -6.8449256    607.19943  0.031644748  0.031917544            4 
 1600000    1.0095275   -6.8354965    608.10511  0.031672141  0.031910284            5 
 1601000   0.96388554   -6.8604932    609.67976   0.03173432   0.03190302            5 
 1602000   0.98418266   -6.8396326    609.55491  0.031708017   0.03189584            4 
 1603000    1.0055601   -6.8065812    610.21562  0.031722584  0.031888631            3 
 1604000    1.0034562   -6.8202921    610.45951  0.031715478  0.031881376            2 
 1605000    1.0012049   -6.8162046    612.45461  0.031799305  0.031874301            3 
 1606000    0.9881823   -6.8396863    609.54355  0.031628453  0.031867201            4 
 1607000    1.0031925   -6.8092385     611.5881  0.031714795  0.031860007            2 
 1608000    1.0053061   -6.8377652    612.63308  0.031749227  0.031852986            3 
 1609000    1.0062215   -6.8156717    612.92043  0.031744377  0.031845983            3 
 1610000   0.99618776   -6.8209013    613.31304  0.031744981  0.031838862            5 
 1611000   0.99382225    -6.864209    613.03221   0.03171075  0.031831757            5 
 1612000   0.98835014   -6.8546014    612.30056  0.031653255  0.031824643            2 
 1613000   0.99343784   -6.8215701    611.41642  0.031587953  0.031817516            3 
 1614000    0.9920611   -6.8454061    613.56482  0.031679307  0.031810273            3 
 1615000    1.0047784   -6.8415939    614.82381  0.031724655  0.031803114            7 
 1616000    1.0014067   -6.8577091    613.95036  0.031659982  0.031796016            3 
 1617000   0.99463299   -6.8740598    613.03301  0.031593126  0.031788716            2 
 1618000   0.98472954   -6.8896582    611.97296  0.031519003  0.031781451            2 
 1619000   0.98791658   -6.8433697    613.66315  0.031586532  0.031774062            2 
 1620000   0.99103455   -6.8254929    614.57081  0.031613725  0.031766784            5 
 1621000   0.99822127    -6.843364    615.93178  0.031664188  0.031759584            1 
 1622000   0.99052181   -6.8767338    614.37875  0.031564876  0.031752368            4 
 1623000    1.0078523   -6.8195144    615.16456  0.031585775  0.031745052            5 
 1624000   0.97814335   -6.7883862    613.27788  0.031469514  0.031737744            2 
 1625000   0.97139449   -6.8443571    615.86472  0.031582806  0.031730436            2 
 1626000    1.0060591   -6.8553827    615.59697   0.03154966   0.03172313            4 
 1627000    1.0068732   -6.8351651    616.59644  0.031581461  0.031715823            3 
 1628000   0.98745983   -6.8243536    615.39802  0.031500718   0.03170851            4 
 1629000   0.99227964   -6.8224882    617.94736  0.031611795  0.031701161            3 
 1630000    1.0017655    -6.835159    615.80918  0.031483087  0.031693834            1 
 1631000    1.0115175   -6.8634165    616.57744  0.031503037  0.031686534            4 
 1632000   0.99365746   -6.7896641    617.00155   0.03150539  0.031679226            2 
 1633000    1.0005316   -6.8476839    617.93451  0.031533707  0.031671894            4 
 1634000   0.99294873   -6.8832718    614.71311  0.031350118  0.031664465            5 
 1635000   0.99876869   -6.8411664     616.4505  0.031419495  0.031657038            4 
 1636000   0.99233495   -6.8412918    616.96696  0.031426597  0.031649595            2 
 1637000   0.97769213   -6.8393177    616.23453  0.031370115  0.031642249            5 
 1638000   0.98893364   -6.8391034    618.02306  0.031441955  0.031634892            6 
 1639000   0.97409589   -6.8532506    617.21812  0.031381845    0.0316275            2 
 1640000   0.99091451   -6.7969484    618.51703  0.031428711  0.031620048            4 
 1641000   0.97736831   -6.8581852    616.33872   0.03129894  0.031612565            2 
 1642000   0.99464044   -6.8460974    616.86366   0.03130652  0.031604884            2 
 1643000   0.99171858   -6.8557337    618.70032  0.031380621  0.031597181            3 
 1644000   0.99296551   -6.8661569     619.0952  0.031381549   0.03158961            5 
 1645000   0.99484803   -6.8635605    617.10903  0.031261855  0.031582023            4 
 1646000   0.98389895   -6.8592454     617.8063  0.031278164  0.031574458            2 
 1647000    0.9800839   -6.8277535    619.76398  0.031358226  0.031566919            2 
 1648000    0.9654621   -6.8548586    618.40941  0.031270702  0.031559362            5 
 1649000   0.98934832   -6.8618188    617.51436  0.031206507  0.031551807            4 
 1650000   0.97319101   -6.8855814    619.81254  0.031303664  0.031544304            3 
 1651000   0.98662178   -6.8528171    618.02753  0.031194606  0.031536697            2 
 1652000    0.9866022   -6.8460267    621.64721  0.031358314  0.031529167            4 
 1653000    0.9968248   -6.8442715    620.53644  0.031283346  0.031521641            3 
 1654000   0.98766878   -6.8601799    619.27089  0.031200669  0.031514056            4 
 1655000    0.9763552   -6.8494665    621.21738  0.031279828  0.031506564            4 
 1656000   0.97945118   -6.8298519    621.73599  0.031287036   0.03149912            2 
 1657000   0.96244081   -6.8650741     621.9403   0.03127843   0.03149172            4 
 1658000   0.98277995   -6.8654597    620.89521  0.031207037  0.031484252            4 
 1659000    1.0022198   -6.8325788    624.29363  0.031358933   0.03147682            7 
 1660000   0.99606365   -6.8848053    621.09479  0.031179457  0.031469433            5 
 1661000   0.98119421   -6.8672875    620.96827  0.031154338  0.031461947            5 
 1662000   0.97146897   -6.8657442    622.66709  0.031220773  0.031454477            4 
 1663000   0.98577514   -6.8694173    622.07168  0.031172163  0.031447055            4 
 1664000   0.97323771   -6.8171483    622.53492  0.031176628  0.031439472            3 
 1665000   0.96650536   -6.8841893    621.99695  0.031130978  0.031431977            5 
 1666000   0.99469488   -6.8709434    622.18108  0.031121503  0.031424506            4 
 1667000   0.97027892   -6.9040466    624.05398   0.03119646  0.031416959            3 
 1668000    0.9802968   -6.7953796    623.78794  0.031164465  0.031409516            3 
 1669000   0.99171942   -6.8149894    626.80051  0.031296211  0.031402147            3 
 1670000   0.95695001   -6.8749536    625.86309  0.031230693  0.031394799            3 
 1671000   0.99401774   -6.8652546    623.98606  0.031118395  0.031387264            2 
 1672000   0.99050424    -6.851206    624.22081  0.031111484  0.031379772            3 
 1673000   0.99966322   -6.8267513    626.48685  0.031205761  0.031372409            3 
 1674000   0.97230795   -6.8788326    625.07969   0.03111707  0.031364869            5 
 1675000    1.0056663   -6.8498576    623.28796  0.031009351   0.03135715            4 
 1676000   0.97659485   -6.8300691    623.83661  0.031018129  0.031349498            2 
 1677000   0.95228669   -6.8855491    626.20389  0.031117268  0.031341886            5 
 1678000     0.998173   -6.8852804    626.43134  0.031110019  0.031334264            7 
 1679000   0.96948127   -6.8628103     627.7307  0.031155981  0.031326816            5 
 1680000   0.97123923   -6.8724547    625.79968  0.031041651  0.031319368            4 
 1681000   0.99447781   -6.8490625    625.00851  0.030983964  0.031311822            3 
 1682000   0.95555963   -6.8250184    627.21626  0.031074924  0.031304256            2 
 1683000   0.97632346   -6.8482675    626.51843  0.031021907  0.031296732            3 
 1684000   0.97335482   -6.8435708    627.89498  0.031071604  0.031289064            3 
 1685000   0.99346935    -6.863789     627.3098  0.031024224  0.031281488            3 
 1686000    0.9723319   -6.8728715    626.72155  0.030976747  0.031273918            5 
 1687000   0.97433163   -6.8585155    626.92953  0.030968659  0.031266342            3 
 1688000    0.9916505   -6.8148823    629.33242  0.031068939  0.031258745            3 
 1689000   0.98676888   -6.8663629    628.47194  0.031008089  0.031251212            3 
 1690000   0.99307511   -6.8722266    626.85197   0.03090986  0.031243596            5 
 1691000   0.99696795   -6.8742256     626.7963  0.030888838  0.031236023            4 
 1692000   0.98566443   -6.8615428    629.17254  0.030987615  0.031228461            3 
 1693000   0.95487253   -6.8412952    629.59622  0.030990166  0.031220865            9 
 1694000   0.98009417   -6.9018015    627.25078  0.030856492  0.031213114            4 
 1695000   0.99337089   -6.8977602    626.97027  0.030824497   0.03120539            4 
 1696000    0.9862837   -6.8873949    629.41671  0.030926529  0.031197625            3 
 1697000   0.98129159    -6.868299    630.07224  0.030940495  0.031189988            4 
 1698000   0.96892208   -6.8286057     629.5887  0.030898543  0.031182498            6 
 1699000   0.98450684    -6.885171     630.0787   0.03090439  0.031174964            5 
 1700000    0.9889665    -6.848764    631.80432    0.0309708  0.031167496            4 
 1701000   0.99373387   -6.8812827     631.1366   0.03091988  0.031159989            3 
 1702000   0.98053196   -6.8555113     631.2121   0.03090541  0.031152568            4 
 1703000   0.98578174   -6.8635923    630.80506  0.030867345  0.031145124            5 
 1704000    0.9750503   -6.8923096    631.87454  0.030901532  0.031137665            3 
 1705000   0.99127823    -6.866921    634.40747  0.031007208  0.031130305            3 
 1706000   0.99663119   -6.8886209    632.06443  0.030874581  0.031122919            4 
 1707000   0.98957428   -6.8823073    632.40183  0.030872966  0.031115571            4 
 1708000   0.97538094   -6.8276623    636.63544  0.031061448   0.03110826            5 
 1709000   0.98587733    -6.867286    633.40227  0.030885619  0.031100889            4 
 1710000   0.97568398   -6.8894117    633.96118  0.030894795  0.031093534            3 
 1711000   0.99857817   -6.8634767    634.80526  0.030917848    0.0310862            4 
 1712000   0.98031554   -6.8291979    634.63827   0.03089166  0.031078891            3 
 1713000   0.97773966   -6.8520781    633.66507  0.030826283  0.031071573            2 
 1714000   0.97932184   -6.8482493    635.21934  0.030883865  0.031064195            2 
 1715000   0.97132824   -6.8582674    636.34094  0.030920357  0.031056847            9 
 1716000   0.98432862   -6.9245127    633.60002  0.030769232  0.031049431            5 
 1717000   0.96660731   -6.8772207    635.99174  0.030867392  0.031042075            4 
 1718000   0.97927029   -6.8700116    636.39627  0.030869047  0.031034716            3 
 1719000    1.0077003   -6.8799156    635.22107  0.030794118  0.031027398            1 
 1720000   0.96094429    -6.846247    635.95385  0.030811717  0.031020177            4 
 1721000   0.95878248   -6.8490049    637.21223  0.030854747  0.031012915            4 
 1722000   0.97330801   -6.8701963    637.92891  0.030871511  0.031005696            7 
 1723000   0.95942791   -6.8739283    636.53302  0.030786081  0.030998445            4 
 1724000   0.98087604   -6.8920291     638.1747  0.030847578  0.030991125            5 
 1725000    0.9491673    -6.879164     636.9264  0.030769391  0.030983824            4 
 1726000   0.97499704   -6.8687112    637.35145  0.030772086  0.030976542            3 
 1727000   0.97175896   -6.8989116    637.66707  0.030769498  0.030969346            2 
 1728000   0.97754569   -6.8648102     639.2004  0.030825637  0.030962098            5 
 1729000   0.97762787   -6.9091163    638.03424  0.030751602  0.030954792            5 
 1730000   0.96773866   -6.8666474    640.14726   0.03083561  0.030947499            6 
 1731000   0.94481972    -6.886773     639.7178  0.030797121  0.030940238            3 
 1732000   0.96724842   -6.8794346     638.8442  0.030737307  0.030932898            2 
 1733000   0.95313798   -6.9149674    638.30247  0.030693521  0.030925661            5 
 1734000   0.99763334   -6.8839116    640.53906  0.030783308  0.030918464            7 
 1735000   0.97603503   -6.8704256    640.12578  0.030745715  0.030911267            6 
 1736000   0.95369451   -6.8732875    641.14737  0.030777043  0.030904153            3 
 1737000   0.98082267   -6.8963149    640.63934  0.030734952  0.030896932            4 
 1738000   0.97918758   -6.8676113    642.43584  0.030803406  0.030889674            3 
 1739000   0.99347971    -6.899431    639.86937  0.030662707  0.030882439            4 
 1740000   0.94642187   -6.8939943    640.99805  0.030699141   0.03087505            3 
 1741000   0.98016504   -6.8815074    641.73569  0.030716815   0.03086763            2 
 1742000   0.98532209   -6.8864034    640.45286  0.030637814  0.030860299            4 
 1743000   0.99509705   -6.9008322    640.39319  0.030617383   0.03085297            4 
 1744000   0.96838401   -6.8529325    642.18226  0.030685314  0.030845555            3 
 1745000   0.95376001    -6.895787    640.81613  0.030602489  0.030838193            6 
 1746000   0.97842022   -6.8562976    641.88388  0.030635924  0.030830743            4 
 1747000   0.97101269   -6.8723725    641.09827  0.030580913  0.030823168            4 
 1748000    0.9656535    -6.872281     640.9922  0.030558362  0.030815662            2 
 1749000   0.95480629   -6.8750607    642.46611  0.030611116  0.030808078            3 
 1750000   0.97748581   -6.9067625     641.7145  0.030557833  0.030800604            3 
 1751000   0.95646459   -6.8956741    640.56391  0.030485623  0.030793016            3 
 1752000    0.9765005   -6.8703801       641.21  0.030498954  0.030785432            4 
 1753000   0.96600778   -6.8716885    642.22033  0.030529584  0.030777944            4 
 1754000   0.97626047   -6.8716751    643.34373  0.030565551  0.030770455            1 
 1755000   0.97027169    -6.889484    642.46515  0.030506418  0.030763088            5 
 1756000   0.96317832   -6.8773394    642.19509  0.030476228  0.030755717            5 
 1757000   0.97867151   -6.9022621     642.7167  0.030483623  0.030748354            2 
 1758000   0.95911218   -6.8915901    645.28826  0.030588181  0.030741017            5 
 1759000   0.98050358   -6.8996388    643.22305  0.030472951  0.030733625            4 
 1760000   0.98014818   -6.8778031    647.77287  0.030671064  0.030726345            3 
 1761000   0.95562453   -6.8938946    645.69549  0.030555342  0.030719076           10 
 1762000   0.97788747   -6.8765034     645.3896  0.030523534  0.030711857            5 
 1763000    0.9811863   -6.8848181    645.23132  0.030498739  0.030704502            3 
 1764000   0.95298757   -6.9086048    645.32413  0.030485834  0.030697181            4 
 1765000   0.96894849   -6.9003173    644.94241  0.030450539  0.030689851            3 
 1766000   0.98732859   -6.8837428    647.46115  0.030552149  0.030682652            4 
 1767000   0.98188074   -6.8953075    647.38524  0.030531279  0.030675493            5 
 1768000   0.96717171     -6.93358    646.21158  0.030458691  0.030668132            4 
 1769000   0.96278307   -6.8925479    648.41803  0.030545413  0.030660835            3 
 1770000   0.98504843   -6.9126809     647.9606   0.03050662  0.030653608            3 
 1771000   0.95626041   -6.8976461    648.30112  0.030505417  0.030646397            2 
 1772000   0.95246237   -6.8937928    647.41666  0.030446607  0.030639113            8 
 1773000   0.95367285    -6.867756    649.31085  0.030518464  0.030631896            5 
 1774000   0.95815354   -6.9129603    647.70504  0.030425829  0.030624673            5 
 1775000   0.96792429   -6.9192203    647.89781  0.030417737  0.030617472            2 
 1776000   0.97311846   -6.8963332    650.34306  0.030515346  0.030610302            5 
 1777000   0.96647309   -6.8988828    649.01838  0.030436052  0.030603088            5 
 1778000   0.97203788   -6.8973634      649.377  0.030435743  0.030595853            5 
 1779000   0.96599375   -6.9121024    650.06227  0.030450734  0.030588494            4 
 1780000   0.96900623   -6.8605175    649.88226    0.0304252  0.030581237            3 
 1781000   0.94582608   -6.8678554    651.45104   0.03048152  0.030574078            7 
 1782000   0.96993881    -6.913816    650.50186  0.030420027   0.03056689            5 
 1783000    0.9569055    -6.837452    651.12344  0.030432017  0.030559667            6 
 1784000   0.99488718   -6.8531588    652.84494  0.030495373  0.030552558            2 
 1785000   0.97383733   -6.9098053    650.03392  0.030347055  0.030545396            2 
 1786000   0.96837749   -6.9219694    649.11983  0.030287413  0.030538158            5 
 1787000   0.97338036   -6.8842167    650.77257  0.030347536  0.030530911            3 
 1788000   0.95619708   -6.9053214    652.51612  0.030411825  0.030523684            3 
 1789000   0.96926419   -6.8901986    650.67421  0.030309028   0.03051632            3 
 1790000   0.95434777   -6.8816547    651.59822  0.030335113  0.030508966            2 
 1791000   0.99898116   -6.9445768    650.32413  0.030258893  0.030501491            5 
 1792000   0.96887152   -6.8925535    652.38674  0.030337925  0.030494129            8 
 1793000   0.97928841   -6.8954849    651.47219  0.030278499  0.030486658            3 
 1794000   0.97164457   -6.9176958    651.51291  0.030263513  0.030479278            4 
 1795000   0.94640734   -6.8624094    652.29596  0.030283006   0.03047182            4 
 1796000   0.97123296   -6.9155089    652.03637    0.0302541   0.03046444            7 
 1797000   0.96358901   -6.9341332    651.10698  0.030194165  0.030456913            4 
 1798000   0.98134566   -6.8794876    650.56495   0.03015225  0.030449462            4 
 1799000   0.95741738   -6.9011898    651.25138  0.030167286  0.030441938            2 
 1800000   0.97087285    -6.903938    651.37642  0.030156316  0.030434421            3 
 1801000   0.95650819   -6.8895294      654.372  0.030278179  0.030427024            3 
 1802000   0.96377417   -6.9109436     653.1605   0.03020535  0.030419556            4 
 1803000   0.95921499   -6.8946563    653.33726  0.030196767  0.030412144            4 
 1804000   0.97355326   -6.8606971     654.5789  0.030237385  0.030404748            3 
 1805000   0.97656347   -6.8727083    654.06392  0.030196857  0.030397312            4 
 1806000    0.9554158   -6.9111117    654.48788  0.030199699   0.03038986            4 
 1807000   0.96235197   -6.9025769    655.28907  0.030219935  0.030382416            6 
 1808000    0.9606563   -6.8770477    656.59476  0.030263402  0.030374861            3 
 1809000   0.96270525   -6.9042728    655.23765  0.030184156  0.030367545            6 
 1810000   0.94878551   -6.9000423    654.77074  0.030145982  0.030360134            3 
 1811000   0.94666148   -6.9383966    655.76621  0.030175143  0.030352614            5 
 1812000   0.95920973   -6.9074251    654.34432  0.030093098   0.03034506            3 
 1813000   0.95000908   -6.9058858    653.78583  0.030050829  0.030337524           13 
 1814000   0.95867972   -6.9113384    654.73227  0.030077741  0.030329902            3 
 1815000   0.94722475   -6.9057729    655.63217  0.030102487  0.030322288            3 
 1816000   0.96306436   -6.9147734    655.30123  0.030070725  0.030314793           10 
 1817000   0.97505021   -6.9014914    656.51742  0.030109953   0.03030727            5 
 1818000   0.95004381   -6.9461848    655.40613  0.030042452  0.030299812            4 
 1819000   0.94605335   -6.9375905    654.15912  0.029968807   0.03029226            2 
 1820000   0.95648949   -6.8829546    658.35283   0.03014436  0.030284805            5 
 1821000   0.97743841   -6.9014397    655.77454  0.030009818  0.030277344            3 
 1822000    0.9803102   -6.9229419    655.49679  0.029980644  0.030269866            6 
 1823000   0.96019512   -6.8883453    658.54449  0.030103515  0.030262436            5 
 1824000   0.96245191   -6.8991026    658.87067  0.030101913  0.030255067            5 
 1825000   0.95283109   -6.9397472    657.05745  0.030002623  0.030247589            9 
 1826000     0.983246   -6.9382069    657.52341  0.030007458  0.030240086            2 
 1827000    0.9335871    -6.899164    657.33087  0.029982251  0.030232575            3 
 1828000   0.94855925   -6.9238536    656.55849  0.029930639  0.030225049            4 
 1829000   0.96603884   -6.9077821    657.49177  0.029956796  0.030217617            4 
 1830000   0.96607415   -6.8996492    658.74999  0.029997723  0.030210164            4 
 1831000   0.94197372    -6.865881    659.48779  0.030014918  0.030202754            2 
 1832000   0.97518503   -6.9104444    659.21499  0.029986126  0.030195341            3 
 1833000   0.95657389   -6.8991161    659.10632  0.029964826  0.030187976            4 
 1834000   0.96277481   -6.9190585    659.42389  0.029962918  0.030180622            6 
 1835000   0.96137593   -6.9440135    659.13706  0.029933563  0.030173154            6 
 1836000   0.97809426    -6.943322    658.35601  0.029881809  0.030165664            5 
 1837000   0.95418477   -6.8771035    661.20201  0.029994647  0.030158172            6 
 1838000   0.95934667    -6.886899    661.26713  0.029981281  0.030150759            2 
 1839000   0.93599843   -6.8983997    661.48948  0.029975053  0.030143273            2 
 1840000   0.94972241   -6.8884861    661.79369   0.02997254  0.030135901            8 
 1841000   0.95114499   -6.9188737    659.41105  0.029848409  0.030128321            2 
 1842000   0.96360098    -6.934802    661.21848  0.029913974   0.03012078            3 
 1843000   0.95697696   -6.9170696    661.82425  0.029925133  0.030113302            3 
 1844000   0.95334781    -6.908007    660.78743  0.029862049  0.030105777            2 
 1845000    0.9618923   -6.8984401    663.95866  0.029989099  0.030098284            2 
 1846000    0.9484486   -6.9331394    660.87055  0.029833449  0.030090882            4 
 1847000   0.97281833   -6.9343133    662.11947  0.029873645  0.030083273            5 
 1848000   0.94863912   -6.9046174    661.42556  0.029826189  0.030075722            4 
 1849000   0.96458969   -6.8831029    662.62609  0.029864165  0.030068155            7 
 1850000    0.9570784   -6.9387613    660.60044  0.029756777  0.030060611            4 
 1851000   0.97421875   -6.9206158    663.96328  0.029892098  0.030053048            3 
 1852000   0.94557125   -6.8756557    664.99685  0.029922464  0.030045434            2 
 1853000    0.9437954   -6.9469841    662.67515  0.029801904  0.030037805            3 
 1854000   0.93735061    -6.952473    662.24945  0.029766696  0.030030147            3 
 1855000    0.9597975   -6.9071678    661.70772  0.029726313  0.030022626            7 
 1856000   0.95674762   -6.8946638    662.63835  0.029752081  0.030015188            5 
 1857000   0.96152109   -6.9443514    663.28079  0.029764889  0.030007642            9 
 1858000     0.960216   -6.8972046    664.08594  0.029784981  0.030000099            1 
 1859000   0.94060953   -6.9199485    664.01066  0.029765584  0.029992574            4 
 1860000   0.94155626   -6.9124443    667.59227  0.029910048  0.029985161            5 
 1861000   0.94217121   -6.9173962    664.10744  0.029737929  0.029977704            5 
 1862000   0.94486113   -6.9023768    663.96567  0.029715613   0.02997012            3 
 1863000    0.9409438   -6.9265018    665.59333  0.029772469   0.02996256            3 
 1864000   0.93014274    -6.936978    662.11369  0.029600934  0.029954914            3 
 1865000   0.96265822   -6.9164362    665.89902  0.029754201  0.029947343            6 
 1866000   0.96073528   -6.9244159    666.81181   0.02977902  0.029939853            5 
 1867000   0.95896063   -6.9084855    666.34843  0.029742386  0.029932356            4 
 1868000   0.95428728   -6.9339342    664.90548  0.029662093  0.029924846            4 
 1869000   0.96690562    -6.887482    668.25999  0.029795791  0.029917435            4 
 1870000   0.94636546   -6.9135006    667.11377  0.029728778  0.029910074            3 
 1871000   0.96122819   -6.9192243    665.33433  0.029633633  0.029902654            4 
 1872000    0.9494332   -6.9185592    667.64535   0.02972068  0.029895262            5 
 1873000   0.91662719   -6.9259772    666.05591  0.029634095  0.029887786            4 
 1874000    0.9492337   -6.8836295    666.81351   0.02965197  0.029880311            2 
 1875000   0.94758866   -6.9119721    668.30123  0.029702277  0.029872838            3 
 1876000   0.96694069   -6.9192714    667.37326  0.029645223   0.02986538           10 
 1877000   0.94592299   -6.9453357    666.43231  0.029587653    0.0298579            4 
 1878000   0.96182178   -6.9128273    667.89627   0.02963686  0.029850491            5 
 1879000   0.95662888   -6.9318554    669.33657  0.029684964  0.029843094            2 
 1880000   0.94672078    -6.925223     669.9012  0.029694202  0.029835681            2 
 1881000   0.95865044    -6.917304    670.41467  0.029701164  0.029828376            3 
 1882000   0.94368935   -6.9287865    669.45807  0.029643025  0.029821044            4 
 1883000   0.94625578   -6.9183395    670.24603  0.029662154  0.029813652            9 
 1884000   0.98009576   -6.9003606    670.27881   0.02964786   0.02980622            4 
 1885000   0.93754272   -6.9144305     668.8732  0.029569991  0.029798896            6 
 1886000   0.94481439   -6.9115863    670.59743  0.029630498  0.029791497            3 
 1887000   0.93645573   -6.9197025    670.24169  0.029599085  0.029784213            2 
 1888000   0.96521899   -6.9366243    670.69548  0.029603438  0.029776787            7 
 1889000   0.95512311   -6.9497211    668.21571  0.029478371  0.029769291            3 
 1890000   0.97418483   -6.9000575    671.40149   0.02960324  0.029761756            5 
 1891000   0.93885907   -6.9417985    670.53166  0.029549254  0.029754315            5 
 1892000   0.93967118   -6.9118097    672.31199   0.02961205  0.029746784            3 
 1893000   0.96284121   -6.9271939    669.42414  0.029469279  0.029739272            4 
 1894000   0.93758821   -6.9287005     670.3366  0.029493866   0.02973179            4 
 1895000   0.96273913   -6.9618351    668.53025  0.029398868  0.029724256            6 
 1896000   0.93536747    -6.949161     668.3564  0.029375721  0.029716691            6 
 1897000   0.95892848   -6.9407497    672.50881  0.029542647  0.029709129            2 
 1898000   0.95739432   -6.9481331    670.77798  0.029451088  0.029701626            4 
 1899000   0.97175284   -6.9528671    671.46678  0.029465806   0.02969399            3 
 1900000   0.96805288   -6.9404101     671.7525  0.029462829  0.029686443            4 
 1901000   0.93764403   -6.9568527    671.99642  0.029458023  0.029678824            2 
 1902000   0.94651416   -6.9656507    670.61326  0.029381934  0.029671121            6 
 1903000   0.93125057   -6.9494342    671.72024  0.029414969    0.0296634            2 
 1904000    0.9449963   -6.9375053    671.82232  0.029403988  0.029655795            2 
 1905000   0.94414797   -6.9056375    670.62125  0.029336013  0.029648139            6 
 1906000     0.930478   -6.9536169    672.90328  0.029420395  0.029640561            2 
 1907000   0.94627154   -6.9267055    674.60231  0.029479213  0.029633024            4 
 1908000   0.93459115   -6.9163533     673.1169  0.029398886  0.029625448            4 
 1909000   0.93884961   -6.9082828    672.00573   0.02933498  0.029617895            5 
 1910000   0.93867331   -6.9410788    672.60331  0.029345694  0.029610373            3 
 1911000   0.93102557    -6.957972    673.99702  0.029391114  0.029602831            3 
 1912000   0.94603565   -6.9438308    670.88313  0.029240025  0.029595217            2 
 1913000   0.95578101   -6.9551945    673.54254  0.029340588  0.029587614            3 
 1914000   0.95484199   -6.9194085    676.49591  0.029453845  0.029580042            3 
 1915000    0.9645339   -6.9300161    674.39627  0.029347096  0.029572483            4 
 1916000   0.93890737   -6.9131887    673.64794  0.029299232  0.029564864            7 
 1917000   0.95815151   -6.9486059    674.05269  0.029301543  0.029557261            4 
 1918000   0.96541804   -6.9716512    673.15195   0.02924713  0.029549462            6 
 1919000   0.94826043   -6.9443381    672.03289  0.029183294  0.029541691            4 
 1920000   0.94981577   -6.9715691    672.99418  0.029209817  0.029533847            4 
 1921000   0.95113181   -6.9363147    673.46336  0.029214964   0.02952605            4 
 1922000   0.93404124   -6.9290108     673.1198  0.029184868  0.029518291            4 
 1923000   0.94256312   -6.9592114    672.29883  0.029134114  0.029510441            3 
 1924000   0.94457247    -6.961506     672.8549  0.029143057  0.029502595            8 
 1925000   0.94048945   -6.9616497     675.5807  0.029245918  0.029494865            6 
 1926000   0.93592571   -6.9308021    674.31348  0.029175903   0.02948718            4 
 1927000   0.94207619   -6.9176513    677.32265  0.029290895  0.029479488            3 
 1928000   0.96009299   -6.9410849     675.8942  0.029213961   0.02947184            5 
 1929000    0.9371045   -6.9316317     676.3387  0.029218019  0.029464181           10 
 1930000   0.94985181   -6.9257809    677.02724   0.02923261  0.029456504            9 
 1931000   0.94302211   -6.9229368    674.84095  0.029123121  0.029448731            6 
 1932000   0.94968012   -6.9239887    675.57604  0.029139753  0.029440975            5 
 1933000   0.93150614   -6.9542096    676.29531  0.029155687  0.029433158            5 
 1934000   0.93812329   -6.9626613    676.12143  0.029133119  0.029425274            4 
 1935000   0.94458889   -6.9443745    677.30314  0.029168955  0.029417446            5 
 1936000   0.96743752   -6.9257967    677.36739  0.029156654  0.029409619            4 
 1937000   0.93726642   -6.9467036    678.27416  0.029180613  0.029401798            3 
 1938000   0.92182246   -6.9488999    677.72092  0.029141766  0.029393959            6 
 1939000   0.94713919     -6.93828    677.05523  0.029098127  0.029386136            7 
 1940000   0.93295167   -6.9298065    677.95346  0.029121712  0.029378272            4 
 1941000   0.93384402   -6.9371466    675.89252  0.029018226  0.029370395            7 
 1942000   0.94219037   -6.9625412    676.23024  0.029017776  0.029362505            4 
 1943000    0.9153274   -6.9459126    678.57831  0.029103547  0.029354611            3 
 1944000   0.95101537   -6.9475384    675.54636  0.028958606  0.029346741            3 
 1945000   0.95923953   -6.9419014    676.71382  0.028993737   0.02933891            3 
 1946000   0.93406689   -6.9280853    678.49208  0.029054988  0.029331113            5 
 1947000   0.95257609   -6.9243453    680.88394  0.029142439  0.029323415            4 
 1948000   0.94283241   -6.9611962    679.56054  0.029070865  0.029315647            3 
 1949000   0.95126796   -6.9405126    677.99308  0.028988929  0.029307867            5 
 1950000   0.92609057   -6.9600847    678.35237  0.028989417  0.029300112            5 
 1951000   0.91977622   -6.9630241    679.15896  0.029009011  0.029292379            7 
 1952000   0.93312515   -6.9498415    679.18534  0.028995276  0.029284607            5 
 1953000   0.94116327   -6.9303954    678.75529  0.028962079  0.029276829            5 
 1954000   0.95683492   -6.9784535    676.74551  0.028861545  0.029269041            6 
 1955000   0.92340323    -6.944351    680.76423  0.029018083  0.029261255            3 
 1956000   0.92817395   -6.9635262    680.44131   0.02898949  0.029253517            5 
 1957000   0.92969663   -6.9280096    680.34897  0.028970745   0.02924577            5 
 1958000   0.94685734   -6.9399157    680.41253  0.028958654    0.0292381            5 
 1959000   0.92746076   -6.9426968    681.56213  0.028992774  0.029230343            3 
 1960000   0.93351792   -6.9424372    680.81795  0.028946341  0.029222637            9 
 1961000   0.94582595   -6.9225296    680.21597  0.028905999  0.029214941            5 
 1962000   0.94974319   -6.9679241    680.43693  0.028900651   0.02920717            3 
 1963000   0.93370143   -6.9454465    680.67355  0.028895973  0.029199402            8 
 1964000    0.9364993   -6.9625167    681.29831  0.028907769  0.029191593            3 
 1965000   0.93226363    -6.963819     680.2636  0.028849177  0.029183723            2 
 1966000   0.94409664   -6.9717442    681.51186  0.028887414  0.029175908            2 
 1967000   0.93439045   -6.9796519    682.29641  0.028905966  0.029168159            5 
 1968000   0.92782703   -6.9288952    683.14006  0.028927001  0.029160286            4 
 1969000   0.92123783   -6.9433284    682.33399  0.028878195  0.029152502            3 
 1970000   0.92572003   -6.9466205    681.38929  0.028823574  0.029144846            3 
 1971000   0.94477653   -6.9593678    681.80532   0.02882654  0.029137103            8 
 1972000   0.93651687   -6.9655132    683.01138  0.028862888  0.029129278            6 
 1973000   0.92359453   -6.9852622    682.14934  0.028811849  0.029121453            4 
 1974000   0.94554714   -6.9616976    682.14972  0.028797269  0.029113626            4 
 1975000    0.9255841   -6.9772808    680.36293  0.028707296  0.029105813            5 
 1976000   0.94907487   -6.9547264    684.24863  0.028856639  0.029098052            2 
 1977000   0.93357357   -6.9521173    685.41813  0.028891339  0.029090339            4 
 1978000   0.93487283   -6.9511145    686.62593  0.028927618  0.029082594            5 
 1979000   0.93342362    -6.959278    684.80988  0.028836529  0.029074822            5 
 1980000   0.94547469   -6.9386821    684.86047  0.028824094  0.029067067            3 
 1981000   0.94443697   -6.9471388    683.74764  0.028762731   0.02905938            3 
 1982000   0.92870048    -6.957142    684.28726  0.028770907  0.029051735            4 
 1983000   0.94675333   -6.9809105    683.36208  0.028717519  0.029044067            5 
 1984000   0.92180919    -6.940081    687.17329  0.028863125  0.029036422           13 
 1985000   0.94487247   -6.9383578    686.79274  0.028832609  0.029028879            2 
 1986000   0.96606094   -6.9471091    687.56444  0.028850471  0.029021254            6 
 1987000   0.95325467   -6.9714035    685.67776  0.028756826  0.029013652           11 
 1988000   0.94389516   -6.9499959    686.60621   0.02878128  0.029005999           12 
 1989000   0.92988609   -6.9896568    686.68948  0.028770298  0.028998372            4 
 1990000   0.95294525   -6.9700925    688.17654  0.028818113  0.028990797            4 
 1991000     0.926847   -6.9777195    687.15382  0.028760833  0.028983145            4 
 1992000   0.95437304   -6.9414908    687.56418  0.028763562  0.028975485            2 
 1993000   0.93843154   -6.9434188    686.71665  0.028713692  0.028967867            6 
 1994000   0.92821631    -6.980685    685.82222  0.028661912  0.028960198            5 
 1995000   0.93229204   -6.9816673    684.85598  0.028607184  0.028952565            6 
 1996000   0.92781868   -6.9641006    689.29073  0.028778003  0.028944967            4 
 1997000   0.92880025   -6.9871569    686.96951   0.02866673  0.028937377            2 
 1998000   0.94314176   -6.9746042    689.46736  0.028756563  0.028929708            2 
 1999000   0.93963955    -6.994007    686.77532  0.028629953  0.028922117            3 
 2000000   0.93921489   -6.9420041    687.79509  0.028658129  0.028914495            4 
 2001000   0.93645698   -6.9566905    688.61084   0.02867778  0.028906947            5 
 2002000   0.94320046   -6.9342498    689.90575  0.028717355  0.028899403            4 
 2003000   0.93905439   -6.9516135    687.84389  0.028617236  0.028891854            3 
 2004000   0.94737481   -6.9705905     689.4216  0.028668563  0.028884343            6 
 2005000   0.93221795   -6.9381527    690.10647  0.028682729  0.028876856            6 
 2006000   0.94313716    -6.963041    689.48697  0.028642696  0.028869358            2 
 2007000   0.93040628   -6.9563119    688.65405   0.02859384  0.028861811            2 
 2008000   0.95152049   -6.9541115    689.52377  0.028615694  0.028854183            2 
 2009000   0.93822988   -6.9826809    691.50822  0.028683766  0.028846587            4 
 2010000   0.93306127   -6.9613723    690.16461   0.02861379  0.028839001            3 
 2011000   0.91909318   -6.9818491    690.96942  0.028632911  0.028831438            3 
 2012000   0.93490306   -6.9608484    690.13695  0.028584201  0.028823846            4 
 2013000   0.94229275   -6.9835893    689.81432  0.028556645   0.02881623            4 
 2014000   0.93739886   -6.9730559    690.73592  0.028580599  0.028808628            4 
 2015000   0.93959128   -6.9894369    691.00429  0.028577514  0.028801146            3 
 2016000   0.92935236   -6.9827995    691.93899  0.028601976  0.028793555            5 
 2017000   0.92066399   -7.0110388      690.712  0.028537101  0.028785961            3 
 2018000   0.96326439   -6.9444315    691.67235  0.028562618  0.028778386            3 
 2019000   0.91166126   -6.9446985    692.83739  0.028596557   0.02877086            5 
 2020000   0.93591301   -6.9408185    691.58566  0.028530762  0.028763309            5 
 2021000   0.92937399   -6.9837014    691.46793   0.02851179   0.02875578            3 
 2022000   0.92941485   -6.9692372    694.63792  0.028628335  0.028748247            3 
 2023000   0.92963551   -6.9877876    694.01646  0.028588584   0.02874074            4 
 2024000    0.9508773    -6.971761    691.91978  0.028488133   0.02873313            3 
 2025000   0.93800257   -6.9794854    694.10563  0.028564018  0.028725563            8 
 2026000   0.92831436   -6.9311623    694.53653  0.028567643  0.028718017            2 
 2027000    0.9146269   -6.9691466    693.63366  0.028516431  0.028710544            4 
 2028000   0.93523687     -6.99595    692.61917  0.028460683  0.028702961            4 
 2029000    0.9362852   -6.9649157    692.15243  0.028427486  0.028695338            3 
 2030000   0.94514871   -6.9935514    693.14985  0.028454427  0.028687756            4 
 2031000   0.90471256   -6.9639034    694.89803  0.028512146  0.028680199            4 
 2032000   0.93661397   -6.9663595    693.52439  0.028441781  0.028672573            2 
 2033000   0.91517021   -6.9914772    694.86725  0.028482835  0.028665001            3 
 2034000   0.91334753   -6.9561398     692.3428  0.028365405  0.028657433            4 
 2035000   0.92463599   -6.9879254    695.24348  0.028470249    0.0286499            5 
 2036000   0.92956842   -6.9749019    694.10375  0.028409616  0.028642452           11 
 2037000   0.93115791   -6.9894764    695.41887  0.028449471  0.028634907            6 
 2038000   0.93100345   -7.0117925    696.40422  0.028475802  0.028627296            4 
 2039000   0.91927999   -6.9543002    694.49015  0.028383609  0.028619738            4 
 2040000   0.93157365   -6.9605012      694.352  0.028364052  0.028612206            2 
 2041000   0.92999981    -6.968115    695.38556  0.028392355  0.028604671            5 
 2042000   0.92995135   -6.9944332    695.21701  0.028371572  0.028597128            4 
 2043000   0.91229528   -7.0042614    696.02738   0.02839074  0.028589534           10 
 2044000   0.91798968   -6.9983705    696.58495  0.028399582  0.028581929            6 
 2045000   0.92532138   -6.9652843    697.45779  0.028421263  0.028574414            3 
 2046000   0.90975723    -6.977598    698.68796  0.028457477   0.02856692            9 
 2047000   0.92838401   -6.9661231    696.93349   0.02837215  0.028559452            4 
 2048000   0.90884246   -6.9894422    697.00658   0.02836127  0.028551988            3 
 2049000   0.91221032   -6.9659271    696.65002  0.028332927  0.028544511            7 
 2050000   0.93091106   -6.9698476    696.32103  0.028305733  0.028537008            4 
 2051000   0.90865092   -6.9873733    698.06463  0.028362775  0.028529499            6 
 2052000   0.91239891   -6.9860539    697.04025  0.028307352  0.028521968           10 
 2053000   0.91696596   -6.9807535    699.42434  0.028390337  0.028514561            5 
 2054000   0.90024356   -6.9949586    700.96012  0.028438823  0.028507107            4 
 2055000    0.9431883   -6.9539549    699.05901  0.028347892  0.028499686           10 
 2056000   0.90583879   -6.9586842    700.38137  0.028387701  0.028492217            2 
 2057000   0.92180324   -6.9811123    698.88674   0.02831335  0.028484685           16 
 2058000    0.9034886   -6.9678368    698.60894  0.028288344  0.028477168            3 
 2059000   0.91015283   -6.9870338    699.67786  0.028317867  0.028469695            4 
 2060000   0.91625537   -6.9965145    698.32103  0.028249233  0.028462133            2 
 2061000   0.93431554   -7.0011735     699.1785  0.028270197  0.028454604            5 
 2062000   0.93138196   -6.9375272    700.23393   0.02829914  0.028447192            4 
 2063000   0.91581634   -7.0296699    699.58146  0.028259067  0.028439715            3 
 2064000   0.91825381   -6.9931777    699.13974  0.028227541  0.028432172            6 
 2065000   0.92372213    -7.008256    700.28898  0.028260249  0.028424642            4 
 2066000   0.95189952   -6.9846161    700.39253  0.028250747  0.028417111            4 
 2067000   0.92116803   -7.0235426    699.84109  0.028214848  0.028409519            3 
 2068000   0.91168389   -6.9737925    700.94415  0.028245654  0.028401998            3 
 2069000    0.9295053   -6.9690019     700.0688  0.028196746  0.028394509            5 
 2070000   0.91159305   -6.9916759    699.84138  0.028173969  0.028386948            6 
 2071000   0.92653975   -6.9816324    701.93782  0.028244722  0.028379408            6 
 2072000   0.92558618    -6.991117    700.49383  0.028173014  0.028371791            2 
 2073000   0.91947595   -7.0186276    698.24305  0.028068944  0.028364201            3 
 2074000   0.91308674    -6.974721     700.9824  0.028165477  0.028356534            5 
 2075000   0.91320737   -6.9953913    699.91456  0.028109018  0.028348966            3 
 2076000   0.90952936   -6.9833312    700.05232  0.028101008  0.028341394            4 
 2077000   0.89739347   -6.9841047     703.2559  0.028216013  0.028333814            1 
 2078000   0.91917414   -6.9698769     701.7437  0.028141791  0.028326261            4 
 2079000   0.90017156   -6.9613601    702.12407  0.028143501  0.028318727            5 
 2080000   0.92247208   -7.0250945    700.79727  0.028076814  0.028311194            7 
 2081000   0.91979556    -6.965211    702.72881   0.02814067  0.028303577            4 
 2082000    0.9219638   -7.0210181    701.46814  0.028076695  0.028296016            4 
 2083000   0.92284767    -6.986936    701.76432  0.028075065   0.02828842            5 
 2084000   0.91854936   -6.9807979    703.33586  0.028124434  0.028280929            3 
 2085000   0.89595806   -6.9907072    702.37678  0.028072613  0.028273322            4 
 2086000   0.90934546   -7.0475981    700.54649  0.027986037  0.028265672            4 
 2087000   0.91818231   -6.9864967    701.64392  0.028016448  0.028257968            3 
 2088000   0.91646542   -7.0052761    702.55576  0.028039422  0.028250314            4 
 2089000   0.91020483   -6.9971725    703.38858  0.028059222  0.028242757            5 
 2090000   0.92703691   -6.9917959     702.1608  0.027996842  0.028235185            3 
 2091000   0.90828859   -6.9759626    703.49312   0.02803655  0.028227639            8 
 2092000    0.9292243   -7.0195929    705.19049  0.028090762  0.028220091            4 
 2093000   0.91070242   -6.9630244    703.54847  0.028011963  0.028212513            4 
 2094000   0.91513664   -6.9933538    700.96351  0.027895714  0.028204901            2 
 2095000   0.92509266   -7.0135312    704.12718  0.028008241  0.028197226            5 
 2096000   0.91279389   -6.9886319    703.37434  0.027964947  0.028189689            5 
 2097000   0.91569014   -6.9825151    702.96842   0.02793548  0.028182095            9 
 2098000   0.92935615    -7.017732    702.68423  0.027910877  0.028174444            3 
 2099000   0.92262531   -6.9982671    704.98635  0.027988977  0.028166894            6 
 2100000   0.92606663   -6.9821805    705.58333  0.027999339  0.028159302            6 
 2101000   0.91106702   -7.0200783    701.39452  0.027819868  0.028151667            5 
 2102000    0.9083988   -6.9859548    703.37317  0.027885076  0.028143995            4 
 2103000   0.91502007   -7.0308281    703.58878  0.027880361  0.028136311            4 
 2104000   0.90685561   -7.0043144    705.01168  0.027923466  0.028128695            4 
 2105000   0.91023136   -6.9894764     703.4587  0.027848721   0.02812105            6 
 2106000    0.9148346   -7.0110155    705.41392  0.027912865  0.028113369            3 
 2107000   0.90804496   -7.0257777     702.6165  0.027788977  0.028105638            5 
 2108000    0.9272174   -7.0008605    704.47381  0.027849218  0.028097913            2 
 2109000   0.91519329   -7.0054832    704.52346  0.027837975  0.028090212            3 
 2110000   0.89863347    -7.015271    705.96217  0.027881602  0.028082445            6 
 2111000   0.92895817   -6.9787203    704.53062  0.027811883  0.028074784            4 
 2112000   0.91680037   -7.0194468    706.02625  0.027857727  0.028067086            4 
 2113000   0.91513286   -6.9897045    705.28192  0.027815188  0.028059418            5 
 2114000   0.89591267   -6.9818457    704.81652  0.027783685  0.028051684            3 
 2115000   0.92074003   -7.0105743    705.83475  0.027810668  0.028044035            3 
 2116000   0.92518235   -6.9946571    706.21776  0.027812609  0.028036343            4 
 2117000   0.92177029   -7.0217044    705.76085  0.027781485  0.028028697            5 
 2118000   0.91362183   -6.9534017    707.29666  0.027828795  0.028021099            2 
 2119000   0.89599473   -6.9747389    708.92489  0.027879695  0.028013569            4 
 2120000   0.91778609   -6.9385502    707.03408   0.02779222  0.028006134            3 
 2121000   0.93335458   -6.9880841    706.65447  0.027764202  0.027998631            9 
 2122000   0.89259037   -6.9769021    706.32055  0.027738005  0.027991008            8 
 2123000   0.92440634   -7.0096213    708.57258  0.027813337  0.027983388            2 
 2124000   0.89915092   -6.9891524    706.15078  0.027705225  0.027975704            7 
 2125000   0.91639831   -6.9852522    707.73649  0.027754372  0.027968071            4 
 2126000   0.90327269   -6.9873943    708.22856  0.027760605  0.027960438            3 
 2127000   0.93861078   -6.9887455    708.42334  0.027755185  0.027952784            4 
 2128000   0.90197523   -7.0084174    708.11713  0.027730151  0.027945175            3 
 2129000   0.90494067   -7.0184308    707.25127  0.027683234  0.027937474            6 
 2130000   0.89610052   -7.0338383    706.83994  0.027654145  0.027929723            5 
 2131000   0.91501204   -7.0433963    708.73744   0.02771537  0.027921912            3 
 2132000   0.91297541   -7.0220415    708.40094  0.027689218  0.027914158            5 
 2133000   0.91175749   -6.9960377    707.53452  0.027642386  0.027906332            4 
 2134000    0.9193821   -7.0165767    705.46609   0.02754866   0.02789859            6 
 2135000   0.91592963   -7.0012751    708.32087  0.027647185  0.027890835            6 
 2136000   0.90412172   -6.9897834    708.05739  0.027623962  0.027883102            2 
 2137000   0.90034155   -7.0170038     706.2658  0.027541171  0.027875359            5 
 2138000    0.9276877   -7.0048662    708.53145  0.027616599  0.027867542            3 
 2139000   0.91041792    -7.023982    706.74508  0.027534092  0.027859752            4 
 2140000   0.90382514   -6.9758343    708.73139  0.027598574  0.027851921            4 
 2141000   0.91243335   -7.0160634    708.33795   0.02757037  0.027844154            5 
 2142000   0.90427802   -7.0120251    707.33933  0.027518648   0.02783635            3 
 2143000   0.92824842   -7.0053578     706.8865  0.027488198  0.027828518            4 
 2144000   0.90725293    -7.012278    711.05619  0.027637445  0.027820778            4 
 2145000   0.87771642   -6.9969923    710.96351   0.02762096  0.027813078            3 
 2146000   0.93210927   -7.0139067    709.65588  0.027557311  0.027805297            4 
 2147000   0.90339677   -7.0255452    709.17413  0.027525778   0.02779754            6 
 2148000   0.91798679   -7.0375565     710.1291  0.027550012   0.02778978           10 
 2149000   0.90420463   -7.0436557    708.84831  0.027487526  0.027781995            4 
 2150000   0.90719361   -7.0172231    710.74751  0.027548353  0.027774282            9 
 2151000   0.88647054   -6.9998459    710.43384  0.027523394  0.027766575            6 
 2152000   0.89638974   -7.0268139    711.01516  0.027533115   0.02775882            4 
 2153000   0.90673036   -7.0327857    711.35187  0.027533359  0.027751088            7 
 2154000   0.90277216   -7.0231695    709.76087  0.027459025    0.0277434            5 
 2155000   0.91304644   -6.9978114    709.69875  0.027443881  0.027735707            3 
 2156000   0.91754033   -7.0501937    710.45447  0.027460362  0.027727926            5 
 2157000   0.92061733    -7.016555    710.61884  0.027453981  0.027720197            5 
 2158000   0.90768839   -7.0216558    709.82816  0.027410726  0.027712512            4 
 2159000   0.92248659   -7.0406166     712.8153  0.027513328  0.027704834            5 
 2160000   0.93423064   -7.0249473    713.21868  0.027516153   0.02769717            4 
 2161000   0.89116405   -6.9681011    714.52531  0.027553807  0.027689462            3 
 2162000   0.90409289   -7.0299945    713.47588  0.027500612  0.027681754            3 
 2163000   0.90174308   -7.0321191    710.80119  0.027384851  0.027674025            3 
 2164000   0.90830303   -7.0075307      712.513  0.027438116  0.027666272            3 
 2165000   0.88396631   -7.0157026    713.75823  0.027473373  0.027658551            4 
 2166000   0.88878085   -7.0134664    713.49217  0.027450453  0.027650739            3 
 2167000    0.9049565   -7.0229376    712.78567  0.027410617  0.027642913            3 
 2168000    0.9059524   -7.0392976    710.65922  0.027316237  0.027635102            7 
 2169000   0.88238377   -7.0366435    711.77201  0.027346396   0.02762734            8 
 2170000   0.90103707   -7.0137874    713.70158  0.027407895    0.0276196            4 
 2171000   0.89097971   -6.9503962    713.86116  0.027401396  0.027612033            2 
 2172000   0.89235167   -6.9914844     714.8829  0.027427981  0.027604512            2 
 2173000   0.89171287   -7.0202843    714.16135  0.027387688  0.027596887            2 
 2174000   0.92713257   -7.0254225     715.2763  0.027417828  0.027589312            2 
 2175000   0.89089479   -7.0352979    715.21441  0.027402851  0.027581742            6 
 2176000   0.89824621   -7.0156838    713.70239  0.027332352  0.027574123            3 
 2177000    0.9204761   -7.0261671    716.06751  0.027410332  0.027566506            2 
 2178000   0.91516387   -7.0157629    714.64029  0.027343139  0.027558877            5 
 2179000   0.91300345   -7.0282848    715.47494  0.027362511  0.027551319            4 
 2180000   0.92163454   -7.0224557    714.21946  0.027301967  0.027543733            5 
 2181000   0.89753979   -7.0436739    714.49402   0.02729994  0.027536097            5 
 2182000   0.89511604   -7.0148449    716.99235  0.027382843  0.027528516            3 
 2183000   0.90105819   -7.0161956     716.8204  0.027363735  0.027520946            3 
 2184000   0.90826347   -7.0643679     715.2933  0.027292937  0.027513317            3 
 2185000   0.89877669   -7.0375773    715.31268  0.027281185  0.027505673            5 
 2186000   0.88765463   -7.0329953    716.06667  0.027297448  0.027498095            5 
 2187000   0.90396906   -7.0218748    718.46549  0.027376371  0.027490508            3 
 2188000   0.90821749   -7.0081177    718.35231  0.027359549  0.027482946            5 
 2189000   0.89289431     -6.99856    716.82492  0.027288904  0.027475341            3 
 2190000   0.89305983   -7.0306044    718.07866   0.02732415  0.027467744            4 
 2191000   0.91489969   -7.0085245    717.16308  0.027276855  0.027460175            3 
 2192000   0.89124667   -7.0087596    717.06674  0.027260749  0.027452633            4 
 2193000   0.88855628   -7.0368139    718.03769  0.027285214  0.027445065            5 
 2194000   0.89759626   -7.0448799    716.16331  0.027201584  0.027437449            3 
 2195000   0.88952414   -7.0384439    719.04061  0.027298429   0.02742988            5 
 2196000   0.88227125   -7.0307652     717.8825   0.02724205  0.027422255            4 
 2197000   0.89211784   -7.0402122    716.56374  0.027179629  0.027414621            4 
 2198000   0.89932827   -7.0463287    717.42657  0.027199976  0.027407016            4 
 2199000   0.90684116   -7.0149472    717.59395   0.02719395  0.027399455            4 
 2200000   0.90545211   -7.0264953    718.83635  0.027228649  0.027391986            4 
 2201000   0.90746326   -7.0153555    719.39383  0.027237386   0.02738445            6 
 2202000   0.90825239    -7.071234    718.14835  0.027177882   0.02737687            5 
 2203000   0.91027864   -7.0175065    718.50746  0.027179129  0.027369306            5 
 2204000   0.91414649   -7.0110615     720.7255  0.027250662  0.027361826            8 
 2205000   0.90685325   -7.0698576    719.36966  0.027187062  0.027354269            5 
 2206000   0.88796166   -7.0212065    720.92581  0.027233523  0.027346749            4 
 2207000   0.89126733   -7.0295096    721.23519  0.027232865  0.027339224            3 
 2208000   0.88278592   -7.0201871    722.60735  0.027272318  0.027331711           10 
 2209000   0.89718119    -7.029318    719.23513  0.027132757  0.027324216            5 
 2210000     0.888693    -7.033356    720.50627  0.027168412  0.027316605            7 
 2211000   0.93032725   -7.0196919    720.10854  0.027141133  0.027309022            4 
 2212000   0.90092221   -7.0231932    720.21089  0.027132719   0.02730147           11 
 2213000    0.8952528    -7.027397    721.35169  0.027163417  0.027293927            4 
 2214000   0.89179308   -7.0403368    721.14886  0.027143513  0.027286417            6 
 2215000   0.89898774    -7.006901    722.61892  0.027186566  0.027278943            4 
 2216000   0.89534312   -7.0146855     722.1225  0.027155629  0.027271441            5 
 2217000   0.87505784   -7.0341337     721.9122  0.027135476  0.027263944            6 
 2218000   0.89284544   -7.0077963    721.34403  0.027101895  0.027256464            5 
 2219000   0.91165701   -7.0295172      721.277  0.027087164  0.027248895            7 
 2220000    0.8909129   -7.0884893    720.32433  0.027039201  0.027241372            5 
 2221000   0.87406698   -7.0505268    721.15834   0.02705832  0.027233821            4 
 2222000    0.8928088    -7.035893    723.34849  0.027128281  0.027226347            7 
 2223000    0.8843884    -7.045659    722.94914  0.027101107  0.027218865           12 
 2224000   0.87655398    -7.025486     724.6199  0.027151525  0.027211402            3 
 2225000   0.89111866   -7.0133059    721.67163    0.0270289  0.027203955            9 
 2226000   0.88226692   -7.0090921    724.17968   0.02711065  0.027196557            2 
 2227000   0.90334179   -7.0371766    724.23805  0.027100661  0.027189194            5 
 2228000   0.87657474   -7.0001293    724.40128  0.027094602  0.027181854            4 
 2229000   0.92378652   -7.0724664    721.84773  0.026986979  0.027174468            6 
 2230000   0.90557048   -7.0615822    722.68176  0.027006045   0.02716712            5 
 2231000   0.90636603   -7.0683909    721.66593  0.026955996    0.0271597            3 
 2232000   0.88389663    -7.026205    723.95741  0.027029473  0.027152322            4 
 2233000   0.89906579   -7.0438901    724.57377  0.027040371  0.027144939            4 
 2234000    0.8898146   -7.0608001    724.90623  0.027040668  0.027137562            6 
 2235000   0.89437966   -7.0451801     723.9572  0.026993184  0.027130151            8 
 2236000   0.89669438   -7.0593728    723.97486   0.02698177  0.027122719            3 
 2237000   0.88609046   -7.0342866    725.53398   0.02702779  0.027115323            6 
 2238000   0.91616164   -7.0217915    725.23167  0.027004456  0.027107918            8 
 2239000   0.89166577   -7.0456426    723.93949  0.026944301  0.027100503            4 
 2240000   0.90629488   -7.0595045    725.08362  0.026974837  0.027093094            2 
 2241000    0.8880802   -7.0262383     724.9887   0.02695927  0.027085693            7 
 2242000   0.88319821   -7.0347508    725.63012  0.026971087  0.027078422            5 
 2243000   0.88601958   -7.0540659    724.81736  0.026928866  0.027071066            3 
 2244000    0.8833814   -7.0465307     725.6063  0.026946164   0.02706367            5 
 2245000   0.90253749   -7.0648165    724.85492   0.02690627   0.02705628            6 
 2246000   0.89100537   -7.0443242    726.58906  0.026958632  0.027048894            4 
 2247000   0.91657316   -7.0440267    727.19804   0.02696922   0.02704153            5 
 2248000   0.89059722   -7.0730657    724.70378   0.02686476  0.027034119            6 
 2249000     0.894746   -7.0389867    725.18317  0.026870578  0.027026723            5 
 2250000   0.90307465   -7.0604192    725.59754  0.026873983  0.027019312           10 
 2251000   0.87987481   -7.0630305    725.23528  0.026848633  0.027011909            3 
 2252000   0.89806382   -7.0236338    728.11456  0.026943257   0.02700452            4 
 2253000   0.89496114   -7.0618928    725.83584  0.026847013  0.026997125            3 
 2254000   0.89844478   -7.0466316     726.5412   0.02686118   0.02698973            5 
 2255000   0.88358517   -7.0308423     728.2905  0.026913913  0.026982417            4 
 2256000   0.90841438   -7.0465852    728.68993  0.026916738  0.026975077            3 
 2257000   0.88858311   -7.0534095     726.8919  0.026838425  0.026967708            5 
 2258000   0.89053259    -7.048277    728.78991  0.026896587  0.026960387            8 
 2259000   0.88483879   -7.0742053    727.94444  0.026853491  0.026953029            4 
 2260000   0.88448213   -7.0479732    726.46453   0.02678704  0.026945681            5 
 2261000   0.89590894   -7.0479251    727.19804  0.026802228  0.026938284            6 
 2262000   0.87373945   -7.0459945     727.1875  0.026789991  0.026930835            3 
 2263000   0.89424012   -7.0616448    727.37145  0.026784926  0.026923401            7 
 2264000   0.88982483   -7.0448212    727.64738  0.026783252  0.026915951            4 
 2265000   0.88629077   -7.0550153    727.03856  0.026749027    0.0269085            7 
 2266000   0.87093342   -7.0733386    727.43138  0.026751669  0.026901053           14 
 2267000   0.89172627   -7.0289313    730.36853  0.026847836  0.026893677            9 
 2268000   0.89239906   -7.0219564    728.26814  0.026758824  0.026886243            3 
 2269000   0.88608218   -7.0415534     731.8327  0.026877945  0.026878862            4 
 2270000   0.90061314   -7.0613631    728.26039  0.026734963  0.026871428            3 
 2271000    0.9000636   -7.0755906    730.69013  0.026812349  0.026863986            5 
 2272000   0.88418256   -7.0406308    730.86831  0.026807083  0.026856587            4 
 2273000   0.87722453   -7.0948471    728.25546  0.026699496  0.026849184            5 
 2274000   0.89948726   -7.0593058    729.95269  0.026749952  0.026841826            5 
 2275000   0.88118125    -7.075483    729.35296  0.026716225    0.0268345            3 
 2276000   0.89017852   -7.0672603    730.57793  0.026749338  0.026827107            3 
 2277000   0.90687091   -7.0821592    729.75358  0.026707421  0.026819726            4 
 2278000   0.90016115   -7.0664816    730.96991  0.026740193  0.026812365            3 
 2279000    0.8722053   -7.0540572    732.32535  0.026778022  0.026805089            2 
 2280000   0.87549403   -7.0557077    733.38008  0.026804828   0.02679781            5 
 2281000   0.88038503   -7.0522304    731.13056  0.026710893  0.026790611            7 
 2282000   0.87420411    -7.045598    732.23567  0.026739544  0.026783401            5 
 2283000   0.89412419   -7.0625251    732.40502  0.026734013  0.026776198            9 
 2284000   0.88829952   -7.0302068    735.48124  0.026834546  0.026768997            7 
 2285000   0.88671209   -7.0441512    733.49218  0.026750262  0.026761802            4 
 2286000   0.88803808   -7.0643544    732.59339  0.026705796  0.026754526            4 
 2287000   0.88489237   -7.0640778    732.38959  0.026686693  0.026747279            4 
 2288000   0.89098803   -7.0724487     733.2391   0.02670597  0.026740112            4 
 2289000   0.89775636   -7.0418685    732.60149   0.02667109  0.026732948            3 
 2290000    0.8869864   -7.0619934    733.07125  0.026676537   0.02672581            6 
 2291000   0.90246161   -7.0886596    733.62201  0.026684927  0.026718645            3 
 2292000   0.88512574   -7.0924911    733.73202  0.026677284  0.026711469            4 
 2293000   0.87810464   -7.0641379    734.81329  0.026704946  0.026704325            9 
 2294000   0.88926328   -7.0525017    735.24773  0.026709086  0.026697235            3 
 2295000   0.89035661   -7.0626011    736.30987  0.026736016  0.026690158            3 
 2296000   0.88752662    -7.075818    737.26908  0.026759185  0.026683103            2 
 2297000   0.87934383   -7.0877007    735.63297  0.026688179  0.026676021            3 
 2298000   0.87096295   -7.0687335      735.616   0.02667595  0.026668981            3 
 2299000   0.88393783   -7.0578386    737.30267  0.026725484  0.026661875            2 
 2300000   0.89493245    -7.071966    735.72671  0.026656765  0.026654866            2 
 2301000   0.89373732    -7.097265    735.97462  0.026654158  0.026647813            9 
 2302000   0.88299907   -7.0420959    736.36902  0.026656857  0.026640705            6 
 2303000    0.8992314   -7.0734764    735.38848  0.026609802  0.026633603            4 
 2304000   0.89167157   -7.0400294    736.82354  0.026650157  0.026626532            3 
 2305000   0.87376087   -7.0920578     734.6873  0.026561363  0.026619479            6 
 2306000   0.87506417   -7.0491183    738.09618  0.026673033   0.02661239            5 
 2307000   0.89731149   -7.0813871    737.41021  0.026636693  0.026605378            3 
 2308000   0.88893361   -7.0607108    739.13068  0.026687272  0.026598388            2 
 2309000   0.86612587     -7.07546    738.17653  0.026641278   0.02659138            4 
 2310000   0.87334907   -7.0519152    736.86176  0.026582315  0.026584354            5 
 2311000   0.87486196   -7.0549692    737.10008  0.026579406  0.026577321            5 
 2312000   0.88475078   -7.0721318    738.20281  0.026607656  0.026570315            3 
 2313000   0.90484105   -7.0520733    740.00193  0.026660972  0.026563356            6 
 2314000   0.86521525   -7.0404432    738.92324  0.026610604  0.026556478           10 
 2315000   0.87478496   -7.0694917    738.43084  0.026581384  0.026549595           12 
 2316000   0.87471862   -7.0463655    738.50016  0.026572401  0.026542643            7 
 2317000   0.87197711   -7.0366898    740.40757  0.026629534   0.02653573            4 
 2318000   0.88363625   -7.0625958    737.96957  0.026530399    0.0265288            3 
 2319000   0.88270389    -7.083344    739.19861  0.026563124  0.026521891            4 
 2320000   0.88872612   -7.0586315    739.92431  0.026577741  0.026514922            8 
 2321000   0.87924192   -7.0840806    738.01626  0.026497783  0.026507991            4 
 2322000   0.85532831   -7.0751292    740.14339  0.026562711  0.026500999            3 
 2323000    0.8782173   -7.0902627    738.77222  0.026502088  0.026494003            4 
 2324000   0.88408999   -7.0780199    738.29716   0.02647365  0.026486945           11 
 2325000   0.91301528   -7.0669025    740.36236  0.026536285  0.026479948            6 
 2326000   0.87895823   -7.1048109    739.31773  0.026487451  0.026472917            5 
 2327000   0.87312558   -7.0731652    741.65241  0.026559677  0.026465905            3 
 2328000   0.88053118    -7.043282    741.44098  0.026540699   0.02645889            5 
 2329000   0.89526947   -7.0497669    740.32737  0.026489458  0.026451923            4 
 2330000   0.89007421   -7.0613548    740.39719  0.026480586  0.026444981            3 
 2331000   0.88297667   -7.0565462    742.03346  0.026527723  0.026438027            4 
 2332000   0.88313419   -7.0448156     741.4288   0.02649474  0.026431084            4 
 2333000   0.89655918   -7.0619323    743.30469  0.026550389  0.026424132            3 
 2334000   0.86241737   -7.0822566    741.68542  0.026481199  0.026417167            4 
 2335000     0.884424   -7.0925505    739.63071  0.026396528  0.026410162            6 
 2336000   0.88812675   -7.0796565    741.95575   0.02646817  0.026403147            9 
 2337000    0.8743554   -7.0547026    742.58595  0.026479317  0.026396241            4 
 2338000   0.88070378   -7.0751049    741.01391  0.026411958  0.026389324            4 
 2339000   0.87394384   -7.0999643    742.39461  0.026449858  0.026382399            9 
 2340000   0.86380028   -7.0781001     742.9474  0.026458241  0.026375489            8 
 2341000   0.86743669   -7.0373908    745.23135  0.026528241  0.026368606            6 
 2342000   0.86589323   -7.0892914    743.52564  0.026456221  0.026361724            2 
 2343000   0.89029896   -7.1232453    741.14278  0.026360179    0.0263548            4 
 2344000   0.86535321   -7.0789441    743.02172  0.026415732  0.026347945            3 
 2345000   0.88986793   -7.1035403     741.8827  0.026363991  0.026341004            3 
 2346000   0.89263995   -7.0531329    745.10573   0.02646724  0.026334134            3 
 2347000   0.87501863   -7.0802784    743.46165  0.026397587  0.026327309            6 
 2348000   0.88713761    -7.096645    743.58229  0.026390626  0.026320445            4 
 2349000   0.87587495   -7.0642704    744.15857  0.026399836  0.026313545            4 
 2350000    0.8872427   -7.0652155    745.75711  0.026445288  0.026306697            7 
 2351000   0.88413013   -7.1071191    743.94407  0.026369774   0.02629983            7 
 2352000   0.87152602   -7.0828355    743.93583   0.02635827  0.026292952            5 
 2353000   0.88312915   -7.1091446    744.34911  0.026361705  0.026286039            5 
 2354000   0.87351974   -7.1039692     743.2273  0.026310794  0.026279161            3 
 2355000    0.8744928   -7.0473683    744.34342  0.026339116  0.026272265            4 
 2356000   0.87788788    -7.085131    745.06718  0.026353536  0.026265385            7 
 2357000   0.86622028   -7.0554819    747.79151  0.026438676  0.026258606            3 
 2358000   0.89370934   -7.0881424     746.5737  0.026384425  0.026251813            5 
 2359000   0.88965395   -7.0830981    744.99567  0.026317496  0.026244934            2 
 2360000   0.88284986   -7.0645631    746.71232   0.02636696  0.026238091            4 
 2361000   0.86657172   -7.0788936    747.78259  0.026393569  0.026231238            9 
 2362000   0.85347399   -7.0908486    747.32294  0.026366178  0.026224338            5 
 2363000   0.86657019   -7.1040291    744.67483  0.026261632  0.026217463            8 
 2364000   0.87812403   -7.0952574    745.97439  0.026296334  0.026210571            4 
 2365000   0.86281184   -7.0820629    747.27759  0.026331134  0.026203703            8 
 2366000    0.8693246   -7.0734932    747.05913  0.026312311   0.02619684            8 
 2367000   0.88287969   -7.0713534    746.71672   0.02628914  0.026189956            3 
 2368000   0.86410269   -7.0658557     745.0812  0.026220481  0.026183099            2 
 2369000   0.88814704   -7.1032577    747.69735   0.02630144  0.026176201            5 
 2370000   0.88427461   -7.1072238     746.5754  0.026250893  0.026169243           11 
 2371000   0.88183468   -7.1104676    746.25774  0.026228657  0.026162265            5 
 2372000   0.86490204    -7.081441    745.04742  0.026175078  0.026155352            9 
 2373000   0.88803163   -7.0619087    746.12595  0.026201923  0.026148438            6 
 2374000   0.87234066    -7.099879     747.6088  0.026242937  0.026141568            7 
 2375000   0.87021111   -7.0665454    747.43206  0.026225686  0.026134653            8 
 2376000    0.8856925   -7.0768513    747.77116  0.026226542  0.026127663            7 
 2377000   0.88092801    -7.097282    746.58785  0.026174024  0.026120704            5 
 2378000   0.85994399   -7.1003255    747.40798  0.026191757  0.026113791           10 
 2379000   0.87639333   -7.0883236    746.24239  0.026139918  0.026106847            2 
 2380000   0.88350439   -7.0667778    748.35185  0.026202796  0.026099933            3 
 2381000    0.8857185   -7.0913041    746.48382  0.026126411  0.026093046            6 
 2382000   0.88501588   -7.1144284    747.62768   0.02615546  0.026086131            6 
 2383000    0.8791808   -7.0831208    748.17123  0.026163493  0.026079268            6 
 2384000   0.87448469   -7.0816534    746.64771  0.026099263  0.026072337            8 
 2385000   0.86663885   -7.0761964    748.43171  0.026150654  0.026065429            3 
 2386000   0.87412496   -7.0822745    748.38141  0.026137937  0.026058492            4 
 2387000   0.87154956   -7.0938385    748.27713  0.026123346  0.026051611            5 
 2388000   0.87430317   -7.1068861    750.03224  0.026173654  0.026044775            5 
 2389000   0.86719945   -7.1111931    748.87093  0.026122189  0.026037856            3 
 2390000   0.89537672    -7.081654    751.71384  0.026210385  0.026030996            4 
 2391000   0.87254128   -7.0807742    752.37257  0.026222381  0.026024143            3 
 2392000   0.88532655   -7.1157171    747.86875  0.026054513  0.026017284            4 
 2393000   0.87938565   -7.0823522    747.78382  0.026040668  0.026010401            7 
 2394000   0.87685571   -7.0647008     748.9778  0.026071352  0.026003481            6 
 2395000   0.88268987   -7.1247728    748.17131  0.026032405  0.025996519            6 
 2396000   0.87215225   -7.1333625    748.97734  0.026049574   0.02598961            4 
 2397000   0.87828154   -7.1335475    749.97657  0.026073445  0.025982667           12 
 2398000   0.87259524   -7.0867689    748.97349  0.026027714   0.02597577            3 
 2399000   0.87344556   -7.0843343    749.88869  0.026048655  0.025968878            3 
 2400000   0.86829422   -7.0759586    751.58541  0.026096715  0.025961998            3 
 2401000   0.86467736   -7.1042244    748.24732  0.025969989  0.025955162            4 
 2402000   0.87978426   -7.0987624    752.38641  0.026102776  0.025948335            4 
 2403000   0.86729072   -7.1187676    751.72152  0.026068855  0.025941533            2 
 2404000   0.85316357   -7.1021692    750.42134  0.026012942  0.025934702            2 
 2405000   0.86296398    -7.102323    750.62814  0.026009291  0.025927835            4 
 2406000   0.86630384   -7.0850688    752.99663  0.026080515  0.025921026            9 
 2407000   0.88003777   -7.0789146    752.65409  0.026057821  0.025914213            5 
 2408000   0.85874582   -7.1021338    751.51449  0.026007561  0.025907374            9 
 2409000   0.86476314   -7.1267016    749.62613  0.025931442  0.025900481            8 
 2410000   0.85557571   -7.1117679    750.77219  0.025960311  0.025893557            6 
 2411000   0.85708229   -7.1327212    750.84551  0.025952078  0.025886641            4 
 2412000   0.86379668   -7.1089932    751.14258  0.025951582  0.025879775            6 
 2413000   0.85766462   -7.1060563    750.12565  0.025905707  0.025872888            5 
 2414000   0.85505611   -7.0932419    752.52792  0.025977904  0.025865992            5 
 2415000   0.87219541   -7.1166255    751.68102  0.025937924  0.025859088           10 
 2416000   0.87752768   -7.0857566    750.10437  0.025872805   0.02585218            5 
 2417000   0.86808235   -7.1205393    751.41274  0.025907211  0.025845289           12 
 2418000    0.8727977   -7.1211693    752.51676  0.025934545  0.025838352            7 
 2419000   0.86637099   -7.0824024    754.29905  0.025985223  0.025831445           10 
 2420000   0.87556768   -7.1008774    751.92739  0.025892817  0.025824601            3 
 2421000   0.86991152   -7.0957933    752.80836  0.025912445  0.025817739            5 
 2422000   0.85358223   -7.0738401    753.30695  0.025918901  0.025810922            5 
 2423000   0.87342909   -7.1133665    753.06728  0.025899961  0.025804084            3 
 2424000   0.87667671   -7.0919041    754.87752   0.02595151  0.025797312            5 
 2425000   0.88340295   -7.1039146    754.74066  0.025936105  0.025790515            4 
 2426000   0.86497513   -7.1139263    753.47966  0.025882099  0.025783684            5 
 2427000   0.85543458   -7.0996678    752.88868  0.025851143  0.025776894            9 
 2428000    0.8574796   -7.1252678    755.15975  0.025918443   0.02577009            4 
 2429000   0.87744307   -7.0990561    753.28737  0.025843535  0.025763287            5 
 2430000   0.84789409   -7.0978692     754.4951  0.025874318  0.025756482            3 
 2431000    0.8617775   -7.1270291    754.11543  0.025850659   0.02574967            6 
 2432000   0.87613258   -7.1040391    753.85219   0.02583101  0.025742812            8 
 2433000   0.84668488   -7.1268229    753.80489  0.025818773  0.025735943            5 
 2434000   0.86123891   -7.0886358    754.90416  0.025845801  0.025729129            4 
 2435000   0.85352617   -7.1174042    753.97973   0.02580355  0.025722266            3 
 2436000    0.8466916   -7.1222481    754.57857  0.025813443  0.025715429            8 
 2437000   0.85085714   -7.1010952    754.33432  0.025794499  0.025708605            7 
 2438000   0.86832036   -7.1255918    754.13614  0.025777144  0.025701786            5 
 2439000   0.83461172   -7.1253302    754.88077  0.025792018  0.025694946            6 
 2440000   0.87439319   -7.1292966    754.71987  0.025775952  0.025688102            3 
 2441000   0.86007165   -7.1199003    757.90153  0.025874011  0.025681293            6 
 2442000   0.87612223   -7.1230944    756.72448  0.025823249  0.025674481            3 
 2443000   0.85526236   -7.1243016    756.00657   0.02578819  0.025667682            4 
 2444000   0.85786599   -7.1175356     757.1249   0.02581577  0.025660983            5 
 2445000   0.84770197   -7.1330659    758.16094  0.025840523   0.02565425            3 
 2446000   0.84637624     -7.10048    758.16747  0.025830181  0.025647525            5 
 2447000   0.85142335   -7.1344921      756.474  0.025761953  0.025640764            4 
 2448000    0.8803084   -7.1006059     757.6831  0.025792589  0.025633994            3 
 2449000   0.86105523   -7.1086596    757.69741  0.025782544  0.025627271            8 
 2450000   0.86032708   -7.1194223    756.13062  0.025718729  0.025620526            5 
 2451000   0.86441163   -7.1120771    757.60687  0.025758427  0.025613819           13 
 2452000    0.8595484   -7.1373074    756.93891  0.025725221  0.025607044            7 
 2453000   0.85695305    -7.096416    758.84715  0.025779561  0.025600251            4 
 2454000   0.85226056   -7.1142289    759.37105  0.025786846   0.02559353            4 
 2455000   0.86911979   -7.0989704    758.71052  0.025753921  0.025586783            3 
 2456000   0.82520258   -7.1567518    757.14307  0.025690251  0.025580052            4 
 2457000   0.86957466   -7.1090707    758.08416  0.025711713  0.025573309            3 
 2458000   0.87313222   -7.1196315    759.11446  0.025736183  0.025566512            5 
 2459000   0.85534611   -7.1187517    757.51332  0.025671456  0.025559735            4 
 2460000   0.86379504   -7.1122326    758.10412  0.025681034  0.025552974            3 
 2461000   0.85093943   -7.1399196    757.13709  0.025637854  0.025546217            4 
 2462000   0.86248478   -7.0977816    758.65855  0.025678938  0.025539503            5 
 2463000   0.85743618   -7.1290784    757.65019  0.025634395  0.025532793            4 
 2464000    0.8271658   -7.1184623    761.05609   0.02573918  0.025526063            4 
 2465000   0.83194185   -7.1331436    759.14052   0.02566398  0.025519303            8 
 2466000   0.84467406    -7.150275    758.37161  0.025627589  0.025512599            2 
 2467000   0.84243621   -7.1245356    760.30615  0.025682548    0.0255059            5 
 2468000   0.86037656   -7.0941167    761.53345  0.025713582  0.025499204            7 
 2469000   0.86169858   -7.1286383    758.05908  0.025585901  0.025492496            3 
 2470000   0.85925238   -7.1270754    758.66393  0.025595949  0.025485758            6 
 2471000   0.84926486   -7.1368198    758.42896  0.025577666  0.025478988           10 
 2472000   0.85341143   -7.1482991    759.25011  0.025595001   0.02547225            7 
 2473000    0.8612163   -7.1277182    758.48224  0.025558776  0.025465489            7 
 2474000   0.84898475    -7.114319    761.63053  0.025654491  0.025458786            7 
 2475000   0.85375335   -7.1100406    761.71589     0.025647  0.025452075           14 
 2476000   0.85065559   -7.1347386    761.54739   0.02563097  0.025445381            7 
 2477000   0.86428299   -7.1322691    760.42613    0.0255829  0.025438709            4 
 2478000    0.8600904   -7.1479036    761.52504  0.025609532  0.025431979            5 
 2479000   0.86964419   -7.1260585    761.19106  0.025587974  0.025425236            2 
 2480000   0.84853631   -7.1280888    762.58998  0.025624663  0.025418489            5 
 2481000   0.82950551   -7.1410152    761.91675  0.025591722  0.025411763            8 
 2482000   0.85117492   -7.1386183    761.03034   0.02555165  0.025405056            5 
 2483000   0.86291955   -7.1535622    762.11316    0.0255777  0.025398357            6 
 2484000   0.86062037   -7.1209086    759.37947  0.025475693  0.025391684            4 
 2485000   0.86413301   -7.1129988    760.36012  0.025498327  0.025385022            4 
 2486000   0.86488015   -7.1539894    758.86156  0.025437837  0.025378324            7 
 2487000   0.86210555   -7.1427481    762.40889  0.025546471  0.025371641            3 
 2488000   0.84226204    -7.131809    761.68057  0.025511809  0.025364951           15 
 2489000   0.83986134   -7.1289306    762.63363  0.025533468    0.0253583            5 
 2490000   0.85228446   -7.1399011    762.36926  0.025514366  0.025351628            6 
 2491000   0.85009412   -7.1269138    763.47283  0.025541042  0.025344944            3 
 2492000   0.85088134      -7.1066     762.4219  0.025495649  0.025338321            6 
 2493000   0.86616288   -7.1110771    763.43463  0.025519275  0.025331703            3 
 2494000   0.84745415    -7.134547    762.27751  0.025470379  0.025325029            8 
 2495000   0.85868483   -7.1525837    762.50278  0.025467695  0.025318329            4 
 2496000   0.84593136   -7.1568808    762.95711   0.02547266  0.025311596            2 
 2497000   0.85984266   -7.1563426    763.89154  0.025493644  0.025304894            4 
 2498000   0.86665403   -7.1055789    765.20412  0.025527226  0.025298288            3 
 2499000    0.8373785   -7.1350903    762.77735  0.025436086  0.025291722            6 
 2500000   0.83480665   -7.1247451    764.54262  0.025484754  0.025285114            6 
 2501000     0.863113    -7.137638    765.35889  0.025501762  0.025278522            6 
 2502000   0.84521158    -7.115731    763.63294  0.025434084  0.025271892            4 
 2503000   0.85044172   -7.1385283    762.73141  0.025393907  0.025265231            3 
 2504000   0.84791375   -7.1153645    764.42167  0.025440018  0.025258559            4 
 2505000   0.84537756   -7.1210015    763.93428  0.025413649  0.025251883            3 
 2506000   0.85680731   -7.1084838    765.11368  0.025442727  0.025245187            3 
 2507000   0.86090035   -7.1452734    763.61021  0.025382602  0.025238516            5 
 2508000   0.83664714   -7.1488768    763.59387  0.025371939  0.025231792            4 
 2509000   0.85915669   -7.1541804    763.27226  0.025351145  0.025225036            2 
 2510000     0.841971   -7.1806155     762.7612  0.025324077  0.025218285            5 
 2511000   0.84186794   -7.1465816    764.43657  0.025369593  0.025211607           11 
 2512000   0.86068522   -7.1094825    765.31528  0.025388644   0.02520493            6 
 2513000   0.84924559   -7.1337346      765.987  0.025400816  0.025198291            7 
 2514000   0.84574533   -7.1534698    765.65771  0.025379797  0.025191599            4 
 2515000   0.84474514   -7.1706982    765.60152  0.025367844   0.02518498            4 
 2516000   0.86157511   -7.1462493    767.80139  0.025430624  0.025178406            7 
 2517000   0.85235124    -7.123728    767.99767  0.025427019  0.025171843            3 
 2518000   0.85408076   -7.1383759    765.59763  0.025337491  0.025165262            5 
 2519000   0.84308134    -7.103125    767.23841  0.025381713  0.025158701            4 
 2520000   0.83934428   -7.1221483    766.68801  0.025353439  0.025152159            4 
 2521000   0.86609604   -7.1177127    765.67114  0.025309769   0.02514557            3 
 2522000   0.84420094   -7.1156178    766.35609  0.025322366   0.02513898            6 
 2523000    0.8467435     -7.17656    766.75014  0.025325345  0.025132389            3 
 2524000   0.85596291   -7.1660986    766.01287  0.025290969  0.025125778            6 
 2525000   0.84320186    -7.133798    767.45304  0.025328483  0.025119239            5 
 2526000   0.85234433   -7.1174193    767.10641  0.025307021  0.025112703            5 
 2527000   0.85496778   -7.1230183    768.72683  0.025350443  0.025106151            4 
 2528000   0.84392489   -7.1590991    765.46747  0.025232973   0.02509952            4 
 2529000   0.83814656    -7.118128    766.72884  0.025264559  0.025092875           10 
 2530000   0.83391625   -7.1612221    767.44059  0.025278017  0.025086246            7 
 2531000   0.83721993   -7.1509128    766.85359  0.025248702  0.025079652            4 
 2532000   0.86206026   -7.1267249    769.05803  0.025311283  0.025073011            9 
 2533000   0.84239408   -7.1629777    767.30089  0.025243482  0.025066372            6 
 2534000   0.85751302   -7.1509476    767.61292  0.025243782  0.025059745            7 
 2535000   0.84168151   -7.1639461    767.04026  0.025214999  0.025053112            6 
 2536000    0.8562899   -7.1340654     767.5253  0.025220994  0.025046497            6 
 2537000   0.85455698   -7.1551758    766.63278  0.025181736  0.025039861            3 
 2538000   0.83283319   -7.1303503    769.21775   0.02525669  0.025033183            3 
 2539000   0.83463626   -7.1392389    768.89512  0.025236153  0.025026551            7 
 2540000   0.87709485   -7.1718516    768.69488  0.025219648  0.025019938            4 
 2541000   0.83799821    -7.171867    768.81419  0.025213636  0.025013305            4 
 2542000   0.83525212   -7.1432948       771.63  0.025296027  0.025006695            6 
 2543000   0.84492962   -7.1525427    768.78991  0.025193011  0.025000102            3 
 2544000   0.83720006    -7.141009    769.22845  0.025197473  0.024993513            6 
 2545000   0.83338913   -7.1556297    769.96083  0.025211553  0.024986949            4 
 2546000    0.8485149    -7.165102    771.05788  0.025237558  0.024980386            6 
 2547000   0.84474443   -7.0984215    769.28666  0.025169698  0.024973888            6 
 2548000   0.84325389   -7.1341606    769.95939  0.025181822  0.024967356            8 
 2549000   0.83192742     -7.13806    768.36046   0.02511967  0.024960816            6 
 2550000   0.85131687   -7.1726511    768.67583  0.025120125  0.024954252            5 
 2551000   0.84441968   -7.1596899    768.64777  0.025109361  0.024947691            7 
 2552000   0.83375156   -7.1641437     769.4561  0.025125918  0.024941085            6 
 2553000   0.84586342   -7.1435669    770.71216  0.025157075   0.02493447            8 
 2554000   0.85339077   -7.1592255    770.32378  0.025134553  0.024927866           14 
 2555000   0.84283222   -7.1503083    770.50791  0.025130721  0.024921275            6 
 2556000   0.84408586   -7.1463856    769.28933   0.02508116  0.024914677            2 
 2557000   0.84833908   -7.1504917    770.72501   0.02511814  0.024908087            8 
 2558000   0.84229835    -7.179557    770.86699  0.025112946  0.024901501            6 
 2559000   0.87200158   -7.1528977    770.96147  0.025106209  0.024894954            5 
 2560000   0.85516208   -7.1450801    769.32996  0.025043293  0.024888402            7 
 2561000   0.83878243    -7.169213    772.52086  0.025137344  0.024881895            4 
 2562000    0.8435476   -7.1334732    771.75708  0.025102689  0.024875381            5 
 2563000   0.84027305    -7.147122    772.29671  0.025110441  0.024868904            5 
 2564000    0.8445219   -7.1516989    771.72476  0.025082058  0.024862385           10 
 2565000   0.83956762   -7.1419808    772.44743  0.025095758   0.02485585            5 
 2566000   0.84170383    -7.151357     771.8472  0.025066485   0.02484935            6 
 2567000   0.87378263   -7.1519811    771.94814  0.025059997  0.024842794            4 
 2568000   0.81879048   -7.1317032    774.44496  0.025131262  0.024836242            4 
 2569000   0.83506221   -7.1528553    771.93039  0.025039912  0.024829718            4 
 2570000   0.83390088   -7.1424901    773.74508  0.025089011  0.024823195           13 
 2571000   0.84069393   -7.1496645    770.59389  0.024977113  0.024816668           15 
 2572000   0.85227426    -7.154753     771.4088  0.024993805  0.024810071            7 
 2573000   0.82104034   -7.1627879    770.87697  0.024966866  0.024803463            4 
 2574000   0.83908227   -7.1685726    771.25972  0.024969558  0.024796857            4 
 2575000    0.8404165   -7.2074334    771.17749    0.0249572  0.024790223            7 
 2576000   0.84466429   -7.1378452    772.21627  0.024981116  0.024783574            9 
 2577000   0.81633274   -7.1203808    772.42329  0.024978117  0.024776969            9 
 2578000   0.85975906   -7.1577998    773.06153  0.024989059  0.024770344            4 
 2579000   0.82474258   -7.1471679    772.38476  0.024957502  0.024763729            6 
 2580000   0.84708072   -7.1729937    773.00802  0.024967959  0.024757105           10 
 2581000   0.84647348   -7.1792894    771.52223  0.024910314  0.024750453            2 
 2582000   0.82701659   -7.1463253    772.55563  0.024934018  0.024743792            3 
 2583000    0.8334826   -7.1610777    772.86901  0.024934476  0.024737207            4 
 2584000   0.85435443   -7.1643031    773.64721  0.024949923  0.024730555            4 
 2585000   0.83087942   -7.1818796    771.71142  0.024877866  0.024723929            8 
 2586000   0.84304353   -7.1666773    773.36272  0.024921459  0.024717254            7 
 2587000   0.82228519   -7.2072762    772.43415  0.024881914  0.024710576            6 
 2588000   0.83509159   -7.1682445     773.6526  0.024911534  0.024703919            4 
 2589000   0.83049518   -7.1577249    772.73223  0.024872287  0.024697287            9 
 2590000   0.83550712   -7.1620099    774.57746  0.024922055  0.024690682           10 
 2591000   0.82431171   -7.1602303    774.34351  0.024904912  0.024684091           10 
 2592000   0.82580566   -7.1540783    773.84671  0.024879331    0.0246775            5 
 2593000   0.84824126   -7.1514639    775.17251  0.024912344  0.024670903            4 
 2594000     0.831613   -7.1817405    774.57846  0.024883656  0.024664297           10 
 2595000   0.83014449   -7.1566132    775.51637  0.024904187   0.02465776            7 
 2596000   0.83443011   -7.1569148     773.7038  0.024836409  0.024651209            3 
 2597000   0.85608139   -7.1372267    775.09934  0.024871626  0.024644669            4 
 2598000   0.84183609   -7.1389646    775.03991  0.024860146  0.024638122            3 
 2599000   0.83825867   -7.1708584    776.45657  0.024896004  0.024631591            6 
 2600000   0.83162551   -7.1540691    775.97772  0.024871081  0.024625067           11 
 2601000   0.83756284   -7.1861555    776.93071  0.024892051   0.02461854           10 
 2602000   0.82416322   -7.1578027    775.58266  0.024839311  0.024612009            4 
 2603000   0.83728555   -7.1674446    775.52255  0.024827845  0.024605511            5 
 2604000   0.83885368   -7.1988121    774.44505  0.024783828  0.024598953            5 
 2605000   0.86342515   -7.1590242    774.42896  0.024773799  0.024592408            2 
 2606000    0.8462581   -7.1703722    775.32211  0.024792853   0.02458586            2 
 2607000   0.81819823   -7.1764764    775.01173  0.024773422  0.024579351            5 
 2608000   0.84576481   -7.1896726    775.57462  0.024781909   0.02457277            5 
 2609000   0.83497465   -7.1515472    775.51543   0.02477052  0.024566218            5 
 2610000   0.83706849    -7.200964    775.73258  0.024767962  0.024559642            8 
 2611000   0.82805358   -7.1742504    776.84654   0.02479403  0.024553023            4 
 2612000   0.85249142   -7.2143139    774.08293  0.024696367  0.024546416            5 
 2613000   0.84112714   -7.1753785     776.6962  0.024770258  0.024539845            3 
 2614000   0.82677038   -7.1748212    776.81354  0.024764523  0.024533305            3 
 2615000   0.82316372   -7.1912519    777.31825  0.024771136  0.024526789            7 
 2616000   0.84021654   -7.1634891    777.90424  0.024780334  0.024520237            4 
 2617000   0.82897036    -7.187149    774.73864  0.024670062  0.024513676           10 
 2618000    0.8302921   -7.1630316    776.90038  0.024729449  0.024507094            5 
 2619000   0.84203653   -7.1701107    776.21911   0.02469833  0.024500488            6 
 2620000   0.83679612    -7.181623     775.0058  0.024650312   0.02449392            3 
 2621000   0.83820446   -7.2010283    774.97773  0.024640014  0.024487325            3 
 2622000   0.82368115   -7.2041091    776.55458  0.024680733  0.024480715            6 
 2623000   0.80961595   -7.1893135    775.96786  0.024652683  0.024474108            5 
 2624000   0.84720304   -7.1905539    775.63306  0.024632655  0.024467487            7 
 2625000   0.82260773   -7.1574264    776.01963  0.024635544  0.024460895            4 
 2626000   0.81274832   -7.1648775    780.53465  0.024769442  0.024454353            6 
 2627000   0.84254625   -7.1686451    777.50768  0.024663992  0.024447852            6 
 2628000   0.84182038   -7.1510227    779.21478  0.024708739  0.024441336            7 
 2629000   0.80527216   -7.1568186    779.10758  0.024695942  0.024434808            6 
 2630000   0.82177666   -7.1946174    775.95922  0.024586794  0.024428302            5 
 2631000   0.83677293   -7.1602973    776.67849  0.024600231  0.024421736            5 
 2632000   0.84046898   -7.1805113    778.17391  0.024638232  0.024415188            9 
 2633000   0.82744183   -7.2282322    776.70276  0.024582313  0.024408602            6 
 2634000   0.82233044   -7.1635482    777.57826  0.024600679  0.024401987            3 
 2635000   0.83525895    -7.185889    778.31796  0.024614736  0.024395462            6 
 2636000   0.82362922    -7.175617    777.76291  0.024587851  0.024388933            7 
 2637000   0.82935913   -7.1812861    778.19816  0.024592282  0.024382444            8 
 2638000   0.84332412   -7.1434687     782.2227  0.024710093  0.024375962            4 
 2639000   0.84303052   -7.1974363    780.06696  0.024632656  0.024369504            3 
 2640000   0.83537758   -7.1824053    780.59931   0.02464013  0.024363033            3 
 2641000   0.82534587   -7.1894236    780.08476  0.024614564  0.024356591            3 
 2642000   0.82982157   -7.2098568    778.98338  0.024570508   0.02435014            5 
 2643000   0.81819789   -7.1726956    780.43484  0.024606975   0.02434364            6 
 2644000   0.82380805   -7.2005275    780.06605  0.024586046  0.024337138            5 
 2645000   0.83054503   -7.1729523    781.36934  0.024617812    0.0243307            4 
 2646000   0.81195627   -7.1695254    781.30994  0.024606637  0.024324253            9 
 2647000    0.8394412   -7.2118437    778.87625  0.024520723  0.024317837            6 
 2648000   0.81702786   -7.1998913    779.88525  0.024543217  0.024311381            4 
 2649000   0.81661013   -7.1890478    781.20444  0.024575451  0.024304948            5 
 2650000   0.83816597   -7.1963703    780.39769  0.024540808  0.024298513            6 
 2651000   0.83648652   -7.1894175    779.25092  0.024495502  0.024292075            8 
 2652000   0.82604783   -7.1944721     779.6719  0.024499494  0.024285617            4 
 2653000   0.81952027   -7.1806584    781.02819  0.024532862  0.024279176            4 
 2654000   0.80537817   -7.1716537    781.37105  0.024534384  0.024272745            8 
 2655000   0.83877398   -7.1787421    783.06648  0.024578358  0.024266335            6 
 2656000   0.80964636   -7.1943352    782.29076  0.024544765   0.02425995            4 
 2657000   0.81056781   -7.1810315    782.22087  0.024533336  0.024253572            4 
 2658000   0.81722031   -7.2088796    779.95245  0.024452986  0.024247167            8 
 2659000   0.83877765    -7.226169    780.54996  0.024462516  0.024240705            5 
 2660000   0.83808757   -7.2058765    782.42305     0.024512  0.024234292            5 
 2661000   0.82145246   -7.1944228    782.68087  0.024510863  0.024227927            3 
 2662000   0.82387257   -7.1759597    784.09142  0.024545812  0.024221572            3 
 2663000   0.81774976   -7.1808045    781.19699  0.024446019  0.024215224            8 
 2664000   0.80939258   -7.1974186    783.54548  0.024510306  0.024208852            5 
 2665000    0.8323457   -7.1799314    783.25719  0.024492095  0.024202477            5 
 2666000   0.82243024   -7.1734681    783.42419  0.024488128  0.024196129            5 
 2667000   0.81807423   -7.1605742    784.50855  0.024512828  0.024189772            7 
 2668000   0.81459648   -7.1663274     783.3895  0.024468687  0.024183391            7 
 2669000   0.80461592   -7.2036205    782.19063  0.024422088  0.024177004           12 
 2670000   0.82954009   -7.2052353    784.12142  0.024473203  0.024170645            3 
 2671000   0.82195752    -7.196895    785.34739   0.02450229  0.024164296            9 
 2672000   0.82232396   -7.1696044    785.28348  0.024491126  0.024157937           11 
 2673000   0.84098712     -7.20793    784.05326  0.024443611  0.024151581           16 
 2674000   0.81502586   -7.2153392    784.84157  0.024459037   0.02414524            7 
 2675000   0.83032527   -7.2302125    781.79574  0.024355007  0.024138875            7 
 2676000   0.82248017   -7.1989224    785.09385  0.024448613  0.024132538            7 
 2677000   0.81109822   -7.1848363    785.16698  0.024441756  0.024126191            3 
 2678000   0.83335555   -7.1860303    786.24786  0.024466264  0.024119849            4 
 2679000   0.81148349   -7.2043964    785.29365   0.02442745  0.024113483            6 
 2680000   0.84030799   -7.2182212    784.15204  0.024382837  0.024107101            3 
 2681000   0.81200835   -7.2283413    783.73047  0.024360639  0.024100687            6 
 2682000   0.83757348   -7.2092235    784.57138  0.024377684  0.024094264            5 
 2683000   0.83109306   -7.2029202    784.34694  0.024361627  0.024087836           12 
 2684000   0.80328923    -7.189452    783.52807  0.024327126  0.024081443            8 
 2685000   0.82024879   -7.1801126    785.89406  0.024391498  0.024075052            4 
 2686000   0.82660646   -7.2121312    783.28984  0.024301621  0.024068664            6 
 2687000   0.81827055   -7.1860525    784.58649   0.02433279  0.024062269            7 
 2688000   0.82538299   -7.1718428      786.579   0.02438551  0.024055892            3 
 2689000   0.81966082   -7.2232648    785.01451  0.024327957  0.024049538           10 
 2690000   0.81148898   -7.2156772    784.99602   0.02431834  0.024043132            6 
 2691000   0.81246789   -7.1710669    786.06194  0.024342312  0.024036732            8 
 2692000   0.81473639   -7.1717536    786.50956  0.024347126  0.024030357            7 
 2693000   0.81638572   -7.1830209    784.97732  0.024290671  0.024023988            3 
 2694000   0.82522673   -7.1838273    785.83928  0.024308317  0.024017587            3 
 2695000   0.81882921   -7.2238293    786.17468  0.024309668  0.024011151            7 
 2696000   0.82751587   -7.2057577    786.37468  0.024306834  0.024004789            3 
 2697000   0.82643437   -7.1874677    785.81942  0.024280664  0.023998459            4 
 2698000   0.81197665   -7.1936354    788.25657  0.024346941  0.023992158           12 
 2699000   0.81608273   -7.1755682    787.15553  0.024303925  0.023985919            1 
 2700000   0.83568406   -7.1871917    788.55593  0.024338146  0.023979682            3 
 2701000   0.82844848   -7.1917457    788.12197  0.024315746  0.023973394            3 
 2702000   0.81310956   -7.1881972    787.26175  0.024280217  0.023967061            2 
 2703000   0.83753507   -7.2216544    784.84117  0.024196608  0.023960688            5 
 2704000   0.82778749   -7.2113664    785.96106  0.024222173  0.023954281            3 
 2705000   0.80934365   -7.1827464     783.9674  0.024151799  0.023947921            7 
 2706000   0.81464802   -7.2155813    786.59786  0.024223881  0.023941548            7 
 2707000   0.81143227   -7.2227915    787.85897  0.024253755  0.023935188            6 
 2708000   0.81869329   -7.2032848    789.39761  0.024292147  0.023928867            5 
 2709000   0.82840449   -7.2429449    787.54509  0.024226193  0.023922516            5 
 2710000    0.8103927   -7.2126182    785.62617  0.024158246  0.023916176            3 
 2711000   0.81441479   -7.2145767     788.3484  0.024233014  0.023909863            6 
 2712000   0.83449545   -7.2206225    785.46236  0.024135397  0.023903484            7 
 2713000   0.80114597   -7.2338621    787.61603  0.024192653  0.023897088            6 
 2714000   0.81801362   -7.2127121    785.64269  0.024123148  0.023890722            9 
 2715000   0.82756484    -7.208663    787.26657  0.024164106  0.023884349            3 
 2716000   0.79429602   -7.1953268    788.47112  0.024192167  0.023878047            4 
 2717000   0.81609418    -7.213241    787.28875  0.024146999   0.02387171            3 
 2718000   0.80662257   -7.2194266    786.97639  0.024128538  0.023865352            5 
 2719000   0.81789452    -7.202969    788.60412  0.024169551  0.023859029            9 
 2720000   0.82182067   -7.1722921      786.159  0.024085754   0.02385266            6 
 2721000   0.82045879    -7.180171    789.40406  0.024176285  0.023846341            7 
 2722000   0.83044453   -7.1928107    788.92488  0.024152733  0.023840003            6 
 2723000   0.80847765   -7.1925639    787.47254  0.024099417  0.023833654            5 
 2724000   0.80512325    -7.225591    789.10841  0.024140615  0.023827315            4 
 2725000   0.81601786   -7.2169445    787.51587  0.024083054  0.023820956            5 
 2726000   0.82108204   -7.2117722     786.3187  0.024037622  0.023814627            3 
 2727000   0.81562602   -7.2164692    789.00885  0.024111015  0.023808265            5 
 2728000   0.83437732   -7.2311025    789.87918  0.024128763  0.023801864           10 
 2729000   0.81335655   -7.2097801    789.39309  0.024105078  0.023795512            9 
 2730000   0.81406228   -7.1856924    790.04472  0.024116139  0.023789191           13 
 2731000   0.81952282   -7.1953707    789.41819  0.024088191  0.023782847            5 
 2732000   0.80479904   -7.2317798    789.24572  0.024074113  0.023776486            5 
 2733000   0.80017319   -7.1986368    791.15433  0.024123501  0.023770172            4 
 2734000   0.80830545   -7.2362028    790.50135  0.024094774  0.023763869            3 
 2735000   0.79953592   -7.2066082    788.30099  0.024018921  0.023757532            7 
 2736000   0.81690531   -7.2350675    790.50389  0.024077238  0.023751254            3 
 2737000   0.81567567   -7.1906579    790.39434  0.024065106  0.023744961            9 
 2738000   0.81975924   -7.2042672    791.00561  0.024074921  0.023738667            4 
 2739000   0.79875422   -7.2470819    788.67438  0.023995204  0.023732384            8 
 2740000   0.81501689   -7.2020004     792.6897  0.024108568  0.023726116            7 
 2741000   0.80623797   -7.1984533    790.14566  0.024022427  0.023719854            4 
 2742000   0.81184026   -7.1981655    791.31677  0.024049258  0.023713569            3 
 2743000    0.8254049   -7.2297401    789.81884  0.023994982  0.023707282            3 
 2744000   0.81293981   -7.1987962    791.73227  0.024044347  0.023700976            6 
 2745000   0.81173793   -7.2230424    790.45792  0.023996901   0.02369468            8 
 2746000   0.82299973   -7.2078183    791.17809  0.024010017  0.023688367            5 
 2747000   0.80520967   -7.2090995    789.02648  0.023936005  0.023682064            7 
 2748000   0.80576657    -7.197074    791.72706   0.02400919   0.02367575            6 
 2749000   0.81006208   -7.1978197    792.18559  0.024014356  0.023669418            5 
 2750000   0.83694196   -7.2374247    790.81395  0.023964059  0.023663071            3 
 2751000   0.81133367   -7.2436334    790.78374  0.023954433  0.023656757           19 
 2752000    0.8249399   -7.2140103    790.06062  0.023923832  0.023650429           11 
 2753000   0.82061604   -7.2140587    791.63551  0.023962814  0.023644113            9 
 2754000    0.8217421   -7.2183678     793.0626  0.023997295  0.023637849           12 
 2755000   0.81137965   -7.2207885    792.21775  0.023963029  0.023631591            3 
 2756000   0.80468306   -7.2027371    792.58075   0.02396531  0.023625326            6 
 2757000   0.80979941    -7.223351    792.57613  0.023956478  0.023619102            6 
 2758000   0.81238647   -7.2421128     791.9124  0.023927738  0.023612877           19 
 2759000    0.8092833    -7.225737    792.54682  0.023938227  0.023606633            4 
 2760000   0.80752126   -7.2347463    791.76004  0.023905798  0.023600363            5 
 2761000   0.81022009   -7.2123423    793.93794  0.023962874   0.02359412            4 
 2762000   0.83041452   -7.2416296    794.50758  0.023971385  0.023587892            8 
 2763000   0.80468413    -7.208139    792.35918  0.023897912  0.023581661            4 
 2764000   0.82853645   -7.2317961     793.7386  0.023930855  0.023575476            8 
 2765000   0.79631356   -7.2308284    794.63004  0.023949067  0.023569246            7 
 2766000   0.79478829   -7.2434752    792.43992  0.023874425  0.023563016            6 
 2767000   0.81099073   -7.2390217     794.6196  0.023931442  0.023556785            7 
 2768000   0.82581732   -7.2170306    793.63151  0.023893049  0.023550568            5 
 2769000   0.78617393   -7.2230351    795.05822  0.023927357  0.023544377            4 
 2770000   0.80678311   -7.2508439    792.62267  0.023845447  0.023538178            4 
 2771000   0.80002052   -7.2163513    795.03599  0.023909419   0.02353195            6 
 2772000    0.8020883   -7.2173805    794.96175  0.023898562   0.02352572           10 
 2773000   0.80514165   -7.2197556    795.16921  0.023896178  0.023519536            7 
 2774000   0.78740649   -7.2083264    793.79347  0.023846235  0.023513362            7 
 2775000   0.81282391   -7.2133322    795.21611  0.023880364  0.023507191            5 
 2776000   0.80134014   -7.2397762    795.48047  0.023879697  0.023501066            9 
 2777000   0.80172983   -7.2154896    794.67591  0.023846954   0.02349488            3 
 2778000   0.81223756    -7.175848    795.00662  0.023848291  0.023488735            5 
 2779000   0.80395317   -7.2125426    795.55209  0.023856066  0.023482552           15 
 2780000   0.80687966   -7.2486801     795.1709  0.023836058  0.023476357            5 
 2781000     0.817961   -7.2242957    793.54695  0.023778825  0.023470128            5 
 2782000   0.79352917   -7.2273108    795.51332  0.023829179  0.023463934            4 
 2783000   0.81257266   -7.2329583    795.30408  0.023814352   0.02345774            3 
 2784000   0.80819043   -7.2017753    795.85631  0.023822327  0.023451557            4 
 2785000   0.81192082   -7.2095631    795.04718  0.023789562  0.023445346            6 
 2786000   0.79277831    -7.245798    793.55987  0.023736536  0.023439121            8 
 2787000    0.8093167   -7.2498633    795.65467  0.023790655  0.023432836            6 
 2788000   0.81752173   -7.2421149    792.54025  0.023689032  0.023426555            6 
 2789000   0.80343661   -7.2290762    794.67414  0.023744297  0.023420307            3 
 2790000   0.80705738   -7.2352938    795.00969  0.023745809  0.023414047            6 
 2791000   0.81217518   -7.2332179    795.78538  0.023760462  0.023407791            2 
 2792000    0.7951183   -7.2561847    794.04653  0.023700052  0.023401533            5 
 2793000   0.81251221   -7.2436173    794.53681  0.023706194  0.023395256           10 
 2794000   0.80585167     -7.20917    796.79741  0.023765134  0.023388993           14 
 2795000   0.79957117   -7.2313922    795.19709  0.023708918  0.023382762            4 
 2796000   0.80333477    -7.252895    795.65564  0.023714105  0.023376479            5 
 2797000   0.78562919   -7.2140503     795.1316  0.023690013  0.023370213            4 
 2798000   0.79653698   -7.2785718    795.89933  0.023704412  0.023363953            3 
 2799000   0.78388309   -7.2422316    794.32399  0.023649041  0.023357708            2 
 2800000   0.79343424   -7.2514564    795.52111  0.023676224  0.023351452            3 
 2801000   0.79750954   -7.2299464    796.04814  0.023683451  0.023345209            7 
 2802000   0.82265142   -7.1893179    796.73904  0.023695546  0.023339008            7 
 2803000   0.80023683   -7.2330722    797.39883  0.023706708  0.023332817            5 
 2804000   0.81088878   -7.2553948    795.48372  0.023641337  0.023326603            3 
 2805000   0.80097755   -7.2716907    794.87745  0.023614898  0.023320383            6 
 2806000    0.8280457   -7.2531419    797.23866  0.023676606  0.023314143            6 
 2807000   0.80955848   -7.2701043    796.85778  0.023656863  0.023307934            6 
 2808000    0.8052731   -7.2709487    796.35842  0.023633619  0.023301725            6 
 2809000   0.81322375   -7.2341891    796.18504  0.023620062  0.023295498            5 
 2810000   0.81439749   -7.2550083    795.92973  0.023604085  0.023289234            5 
 2811000   0.79154938   -7.2582049    797.03163  0.023628354  0.023282984            9 
 2812000   0.79604049   -7.2605419     798.1003  0.023651621  0.023276749            5 
 2813000   0.79444123   -7.2488733    797.07041  0.023612703  0.023270496           10 
 2814000   0.80050796   -7.2624188     796.3449  0.023582827  0.023264255           16 
 2815000   0.82122238   -7.2483453    796.14566  0.023568551  0.023257997            3 
 2816000   0.80812054   -7.2410699    797.26479    0.0235933  0.023251731            9 
 2817000   0.79581974   -7.2387284    798.68799  0.023627026  0.023245509            8 
 2818000   0.77435367   -7.2536838    796.14834   0.02354354  0.023239298            6 
 2819000   0.79386278   -7.2502815    797.66689  0.023580078  0.023233098            6 
 2820000   0.79654847   -7.2109903    798.54261  0.023597595  0.023226927            5 
 2821000   0.81480309   -7.2532269    798.05065  0.023574697  0.023220765            6 
 2822000   0.79771125   -7.2091966    798.08829  0.023567455   0.02321463            5 
 2823000   0.82584185   -7.2336714    800.57876  0.023632624  0.023208509           11 
 2824000   0.81810259   -7.2220965     798.6731  0.023568021  0.023202409            4 
 2825000   0.81018323    -7.236941     798.1826  0.023545209  0.023196275            8 
 2826000   0.80759083   -7.2693809    798.64775  0.023550594  0.023190079            9 
 2827000   0.80493016   -7.2273255     799.8562  0.023577886    0.0231839           13 
 2828000   0.79111286   -7.2063543    800.20021  0.023579686  0.023177785            6 
 2829000   0.79575875   -7.2589887    799.07189  0.023538114  0.023171666            7 
 2830000   0.78842839   -7.2501005    800.16337  0.023561937  0.023165474            6 
 2831000   0.79407029   -7.2753712    798.91111  0.023516752  0.023159296            7 
 2832000   0.80100398   -7.2438219    799.52613  0.023526546  0.023153113            4 
 2833000   0.78498984   -7.2163944    799.66519  0.023522332  0.023146913            9 
 2834000   0.80299852   -7.2384658    798.39517  0.023476687  0.023140734            8 
 2835000   0.79864158   -7.2563531    799.52555  0.023501633  0.023134535            7 
 2836000   0.78768469   -7.2570614    800.62879  0.023525764  0.023128338           12 
 2837000   0.78798754   -7.2126715    800.35401    0.0235094  0.023122143            8 
 2838000   0.78757426   -7.2677428    797.72423  0.023423897  0.023115998            5 
 2839000   0.80785727   -7.2643748    800.81759  0.023506446  0.023109824            6 
 2840000   0.78204507   -7.2519244     802.3483  0.023543084  0.023103674           10 
 2841000   0.78731804    -7.231971     799.5467  0.023452619  0.023097514            8 
 2842000   0.79208438    -7.265645    802.48631  0.023530563   0.02309135            4 
 2843000   0.78692001   -7.2407327    799.70916  0.023440883  0.023085192            7 
 2844000   0.79982488   -7.2549935    799.22768  0.023418533  0.023079028            4 
 2845000   0.80904996   -7.2696726    800.62571  0.023451251  0.023072823            7 
 2846000   0.79606564   -7.2736682    798.22586  0.023372741  0.023066602            9 
 2847000    0.7965801   -7.2741415    798.75319  0.023379967  0.023060391            4 
 2848000   0.79814215   -7.2505687    800.10052  0.023411181  0.023054194            3 
 2849000    0.7819671   -7.2612486    800.05875  0.023401742   0.02304798            7 
 2850000   0.79983577   -7.2391279    800.06358  0.023393672  0.023041807            6 
 2851000   0.79274825   -7.2484899    799.69402  0.023374664  0.023035615            7 
 2852000   0.77859089   -7.2665017    799.76872  0.023368651   0.02302943            5 
 2853000   0.79655772   -7.2556167    799.63677  0.023356606  0.023023217            5 
 2854000   0.78283704   -7.2575835     801.3578  0.023398674  0.023016997            3 
 2855000   0.80329982   -7.2541656    800.51375  0.023365842   0.02301075            5 
 2856000   0.80595553   -7.2487889    802.60915  0.023418801  0.023004564            8 
 2857000   0.79624404   -7.2539831    799.70351  0.023325852  0.022998386            7 
 2858000   0.78158014   -7.2415565    800.68156  0.023346208  0.022992213            8 
 2859000   0.77779154   -7.2620701    800.39074  0.023329566   0.02298603            5 
 2860000   0.80076242   -7.2673628    799.60662  0.023298561  0.022979777            6 
 2861000   0.80426895   -7.2665776    800.30852  0.023310862   0.02297355            6 
 2862000   0.80787395   -7.2749505    800.35035  0.023303935  0.022967322            4 
 2863000   0.79224344   -7.2748074    800.32597  0.023295086  0.022961045           24 
 2864000   0.80018662   -7.2789399    799.56128  0.023264702  0.022954842           15 
 2865000   0.80435048   -7.2774825     802.0675  0.023329479  0.022948641           12 
 2866000   0.78390557   -7.2574181    801.36492  0.023300911  0.022942463           10 
 2867000   0.79285773   -7.2359799    800.41433  0.023265153  0.022936257            5 
 2868000   0.81748766   -7.2701357      800.227  0.023251598  0.022930041            4 
 2869000   0.79678648   -7.3037846    799.93319   0.02323496  0.022923824            4 
 2870000   0.79586166   -7.2656466    800.63557  0.023247258  0.022917631            8 
 2871000   0.79887671   -7.2622517    802.44454  0.023291668  0.022911442            9 
 2872000   0.79724071   -7.2488732    801.84909   0.02326628  0.022905248           10 
 2873000   0.79349603   -7.2622172    802.22285  0.023269023  0.022899085            6 
 2874000   0.78755923   -7.2497262    802.59816  0.023271809  0.022892937           10 
 2875000   0.78051126    -7.229554     803.9617  0.023303238   0.02288682            4 
 2876000   0.78567411   -7.2556887    803.60198  0.023284712  0.022880684            5 
 2877000   0.79376094   -7.2667961    803.15012   0.02326353  0.022874546            8 
 2878000   0.80802826   -7.2216347    805.10107  0.023311937  0.022868436            3 
 2879000   0.80302321   -7.2349983     802.9057  0.023240295  0.022862351            5 
 2880000   0.79036774   -7.2376464    804.12888  0.023267618  0.022856255            7 
 2881000   0.78931817   -7.2715925    803.24444  0.023233959  0.022850146            4 
 2882000   0.79850681   -7.2869261    802.91444  0.023216356  0.022844036            4 
 2883000   0.79926623   -7.2646065    803.67652  0.023230331  0.022837907            3 
 2884000   0.78148245   -7.2536412    803.61715   0.02322056   0.02283181            5 
 2885000   0.79011076   -7.2627543    802.61632  0.023183603  0.022825727            5 
 2886000   0.79666137   -7.2694716    803.51927  0.023201642  0.022819641            3 
 2887000    0.8124522   -7.2995302    803.59759  0.023195866  0.022813543           24 
 2888000   0.77907121   -7.2485007    805.14581  0.023232508  0.022807483            8 
 2889000    0.8002346    -7.271694    802.34906  0.023143794  0.022801422           12 
 2890000   0.79641568   -7.2269362    802.25047  0.023132943  0.022795346           13 
 2891000   0.79837216   -7.2551144    805.16414  0.023208928  0.022789282            7 
 2892000   0.78521285    -7.276014    804.84843  0.023191806  0.022783184            5 
 2893000   0.80555948    -7.270029    806.05816  0.023218636  0.022777102            4 
 2894000   0.77759376    -7.271729     804.8156  0.023174833  0.022771022            5 
 2895000   0.79863986   -7.2658689    804.49096  0.023157483  0.022764923            6 
 2896000   0.78765017   -7.2630423     804.2549  0.023142694  0.022758844            6 
 2897000   0.79789744   -7.2646486    804.46212  0.023140666   0.02275273            7 
 2898000   0.77632032   -7.2676061    804.79371  0.023142216  0.022746652            7 
 2899000   0.79154746   -7.2370778    805.24967   0.02314734  0.022740556            6 
 2900000   0.77995504   -7.2719074    802.60021  0.023063224  0.022734439            5 
 2901000   0.78207852   -7.2881868    804.35168  0.023105586  0.022728342            6 
 2902000   0.77058368   -7.2497623    807.57966  0.023190319  0.022722242            6 
 2903000   0.78668895   -7.2747078    804.28366  0.023087715  0.022716158            6 
 2904000   0.79054294   -7.2435792    804.58002   0.02308827  0.022710065           11 
 2905000   0.78988904   -7.2793941    805.63428  0.023110564  0.022704013           11 
 2906000   0.78418944   -7.2700073    805.48594  0.023098358    0.0226979            8 
 2907000   0.78709392   -7.3232643    803.21037   0.02302518  0.022691781            5 
 2908000   0.78202013   -7.2985759    805.32185   0.02307777   0.02268568            8 
 2909000   0.77932877   -7.2925497    803.70585  0.023023543  0.022679559            6 
 2910000   0.78457339   -7.2844012    802.95005  0.022993988  0.022673437            4 
 2911000   0.76670668   -7.2866627     804.6354  0.023034335  0.022667324            4 
 2912000   0.78542401   -7.2867804    806.32583  0.023074801   0.02266122           13 
 2913000   0.79158664   -7.2841609    807.44995  0.023099037  0.022655141            6 
 2914000   0.78826496   -7.2729946    807.50648  0.023092727  0.022649036            4 
 2915000   0.78803544   -7.2694702    807.04041  0.023071481  0.022642967            3 
 2916000   0.79602084   -7.2773139    806.15473  0.023038258  0.022636908            5 
 2917000   0.77772973   -7.2699518    808.00936  0.023083344  0.022630838            5 
 2918000   0.78611241   -7.2724438    807.38717  0.023057664  0.022624779            5 
 2919000    0.7790148   -7.2664125    807.46478  0.023051981  0.022618728            4 
 2920000    0.7730023    -7.279224    807.94988   0.02305793   0.02261267            4 
 2921000   0.78591361   -7.2503333    806.53144   0.02300957  0.022606621            3 
 2922000   0.78132122   -7.3066895    806.65683  0.023005271  0.022600555            6 
 2923000   0.78962818   -7.2738142    807.24287  0.023014108  0.022594477            5 
 2924000   0.78220611   -7.2889227    806.80814  0.022993848  0.022588402           12 
 2925000   0.78600429   -7.2862716    807.52266  0.023006343  0.022582333            7 
 2926000   0.78427734   -7.2579419    806.89235  0.022980529  0.022576314            3 
 2927000   0.78243375   -7.2827222    806.26894  0.022954929  0.022570268           11 
 2928000   0.79350136    -7.299541    808.54211  0.023011786  0.022564234            7 
 2929000   0.78253109    -7.288461    807.52614  0.022975024  0.022558184            5 
 2930000   0.78974225   -7.2935031    806.87033   0.02294853  0.022552116            3 
 2931000   0.77601639   -7.2906389    807.60788  0.022961671  0.022546071            4 
 2932000   0.78396212   -7.2839947    808.71198   0.02298522  0.022540011            5 
 2933000   0.78503781   -7.2695096    808.46668  0.022970414  0.022533985            6 
 2934000    0.7771146    -7.272079    809.14577  0.022981873   0.02252798            5 
 2935000    0.7864496   -7.2781767     808.5659  0.022957578  0.022521959            7 
 2936000   0.77395629    -7.271931    809.50536  0.022976424  0.022515921            8 
 2937000   0.78203407   -7.2788014    806.09873  0.022871942  0.022509896            9 
 2938000   0.77808622   -7.2707301    806.97132  0.022888907  0.022503855            5 
 2939000    0.7906687   -7.2632179    808.64914  0.022928693  0.022497806            9 
 2940000   0.79596064   -7.2925043    807.53626   0.02288935  0.022491771            6 
 2941000   0.77841482   -7.2967029    807.32104  0.022875469  0.022485735            4 
 2942000   0.78840199   -7.2879179    809.70086  0.022935103  0.022479695            8 
 2943000   0.77868309    -7.308844    807.68285  0.022870168  0.022473635            5 
 2944000   0.77791231   -7.2797349    806.82931  0.022838239  0.022467556            4 
 2945000   0.77983079   -7.3047081    808.46938  0.022876892  0.022461449            9 
 2946000   0.79884544   -7.2825867    809.76829  0.022905869  0.022455358            5 
 2947000   0.77844879   -7.2806854    809.48313  0.022890033  0.022449246            8 
 2948000   0.78461067   -7.2893528    808.76123  0.022861862   0.02244317            5 
 2949000   0.77179637   -7.2840348    808.16807  0.022837348  0.022437118            5 
 2950000   0.78134166   -7.2950674    807.32309  0.022805737  0.022431047            3 
 2951000   0.75929431   -7.3321701    807.41365  0.022800566  0.022424945           11 
 2952000    0.7801313   -7.2919487    809.15197  0.022841914  0.022418856            7 
 2953000   0.77757221    -7.294956    808.65032  0.022820023  0.022412801            8 
 2954000   0.77940305   -7.2790451    808.83872  0.022817612  0.022406757            6 
 2955000   0.78776026   -7.2758283    810.11535  0.022845893  0.022400732            7 
 2956000   0.78203549    -7.295012    808.75925  0.022799934  0.022394661           11 
 2957000     0.785816   -7.2849776    807.14587  0.022746756  0.022388596            8 
 2958000   0.78361612   -7.3135693    808.56769  0.022779121  0.022382563            7 
 2959000   0.76927503   -7.3125207    810.04345  0.022812985  0.022376536            4 
 2960000   0.77141569   -7.3144502    808.07479  0.022749853  0.022370479            4 
 2961000   0.78393921    -7.272879    811.42819  0.022836547  0.022364431            7 
 2962000   0.77665168   -7.3008915    809.17469  0.022765437  0.022358394            5 
 2963000   0.77341821   -7.2957209    811.10432  0.022812024  0.022352323            5 
 2964000   0.78036226    -7.293659    808.79689  0.022739454  0.022346241            7 
 2965000   0.77176674   -7.3128452    808.52397  0.022724114  0.022340175            9 
 2966000   0.77570172   -7.3066895    810.57752  0.022774149  0.022334116            6 
 2967000   0.78253235   -7.2997487    811.09603  0.022781037  0.022328054            6 
 2968000   0.78746543   -7.3113712    808.39658  0.022697568  0.022322022            4 
 2969000   0.77078427   -7.2985992    811.69244  0.022782431  0.022316001            9 
 2970000   0.78190143   -7.2886024    809.55279  0.022714725  0.022309972            9 
 2971000    0.7723471   -7.2581046    810.72716  0.022740019  0.022303964           13 
 2972000   0.78405921   -7.2986947    810.71803  0.022732112  0.022297931            8 
 2973000   0.77942097   -7.3259255    808.28668  0.022656314   0.02229188            5 
 2974000   0.77704447   -7.2932988    807.90018  0.022637867  0.022285805           10 
 2975000   0.77903939   -7.3099127    809.17892  0.022666076  0.022279744            5 
 2976000   0.76166506   -7.2848465    809.74439  0.022674294  0.022273697            5 
 2977000   0.74161054   -7.2985415    811.89729  0.022726942  0.022267658            7 
 2978000   0.77063843   -7.3003769    810.14777  0.022670354  0.022261592            7 
 2979000   0.77590819   -7.2797071    809.56491  0.022646439  0.022255556            9 
 2980000   0.77288137   -7.2927495    810.32834  0.022660188  0.022249521            6 
 2981000   0.75627327   -7.2983072    810.78952  0.022665479  0.022243483            2 
 2982000   0.78031239   -7.2762539    809.61956  0.022625183  0.022237459            6 
 2983000   0.78751538   -7.2687418    810.88163  0.022652856  0.022231455            8 
 2984000   0.79151397   -7.3049366    809.11929  0.022596048  0.022225402            5 
 2985000   0.76213843   -7.2918003    810.93071  0.022639048  0.022219376           10 
 2986000   0.76438112   -7.2955931    811.74193  0.022654106  0.022213385           13 
 2987000   0.75253574   -7.3144677    812.47416   0.02266695  0.022207393            8 
 2988000   0.78086592   -7.2857987    812.37775  0.022656675  0.022201389            9 
 2989000   0.77932998   -7.2999031    811.70286  0.022630279  0.022195393            5 
 2990000   0.77127869   -7.2699333    811.11995  0.022606465  0.022189442            5 
 2991000   0.77976916   -7.2828033    812.34462  0.022633027  0.022183526            5 
 2992000   0.78840116   -7.3125339    812.62567  0.022633291  0.022177561            5 
 2993000   0.76638653   -7.2996767    813.17611  0.022641054  0.022171636            9 
 2994000   0.76894941   -7.3314863     810.8476  0.022568682  0.022165667            7 
 2995000   0.79240821   -7.2934033    813.95963  0.022647736  0.022159687            7 
 2996000   0.77677393   -7.3255367    812.45495  0.022598324   0.02215371            5 
 2997000   0.76463849   -7.2923704    813.20421  0.022611617  0.022147741            3 
 2998000   0.75466996   -7.3091918     814.7347  0.022646617  0.022141759            6 
 2999000   0.77381948   -7.2989491    812.66806   0.02258164  0.022135823            3 
 3000000   0.75741729   -7.3018681     814.6685  0.022629681  0.022129897            5 
 3001000   0.77551872   -7.2835861    815.38302  0.022641981  0.022123975            5 
 3002000   0.76558713   -7.2928255    813.44915  0.022580756  0.022118061            4 
 3003000   0.78330489   -7.3046251    814.54919  0.022603763  0.022112186            3 
 3004000   0.76447634    -7.288077    814.91914  0.022606501  0.022106311            4 
 3005000   0.77923042    -7.302922    813.65117  0.022563815  0.022100419            4 
 3006000   0.78183548   -7.3032668    813.64729  0.022556201  0.022094505            5 
 3007000   0.78213995   -7.2893309     815.3115  0.022594821  0.022088579            3 
 3008000   0.75007133   -7.3094434    814.84894  0.022574494  0.022082645            5 
 3009000   0.76815964   -7.3166166    814.02915  0.022544288  0.022076725            6 
 3010000   0.77412487   -7.3317184     814.2887  0.022543984   0.02207079            6 
 3011000   0.78208039   -7.3288012    814.75595  0.022549428  0.022064875            7 
 3012000   0.78059815   -7.3014497    814.05137  0.022522448  0.022058925            5 
 3013000   0.75602226   -7.3069781    814.40321  0.022524704  0.022052965            5 
 3014000   0.76706524   -7.3449063    814.47065  0.022519096  0.022047027            5 
 3015000   0.77384323   -7.3314229    811.68181  0.022434544  0.022041058            5 
 3016000   0.78327934   -7.3347377    814.21769  0.022497173  0.022035083            9 
 3017000   0.77353688   -7.3230724    814.82877  0.022506595  0.022029113           15 
 3018000    0.7674329   -7.3311839    813.30591  0.022457088  0.022023128            6 
 3019000   0.76080908    -7.303826    813.92361    0.0224667  0.022017192           11 
 3020000    0.7893238   -7.3192648    815.27504  0.022496552  0.022011267            4 
 3021000   0.77716647   -7.3104383    814.80708  0.022476197  0.022005322            5 
 3022000   0.76578407   -7.3254331    815.68422  0.022492947   0.02199939           12 
 3023000   0.76544499   -7.3031756    815.38955  0.022477383  0.021993497            7 
 3024000   0.77023907    -7.330937    814.13458  0.022435367  0.021987559            5 
 3025000   0.76172819   -7.3049498    815.28599  0.022459669  0.021981616            4 
 3026000   0.77805385   -7.3369216    814.32672   0.02242583  0.021975688           10 
 3027000   0.76637073   -7.2919137    814.89763  0.022434138  0.021969767            4 
 3028000   0.75442802   -7.3194802    817.11533  0.022487762  0.021963827            4 
 3029000   0.73462425   -7.3180306    815.44894  0.022434493  0.021957888            6 
 3030000   0.77498503   -7.3160583    813.49674  0.022373398  0.021951931           11 
 3031000   0.77478207   -7.3269605    814.11554  0.022383029   0.02194594            8 
 3032000   0.76350132   -7.3202991    813.60558  0.022361631  0.021939958           19 
 3033000   0.76008189   -7.3236117    813.64936  0.022355461  0.021933977            6 
 3034000   0.77725541   -7.3428831    815.05123  0.022386597  0.021928027            9 
 3035000   0.74667121   -7.3372049    814.32395  0.022359252  0.021922059            5 
 3036000   0.77341821   -7.3434938    814.46211  0.022355679  0.021916108            6 
 3037000   0.75843538   -7.3349634    816.03162  0.022391385  0.021910197            4 
 3038000   0.75039289   -7.3516999    815.66089  0.022373845  0.021904285           14 
 3039000   0.75602953   -7.3519995    815.75619  0.022369096  0.021898379           30 
 3040000   0.77355128   -7.3340912    815.01661  0.022341464  0.021892444           18 
 3041000   0.75786871   -7.3215199    816.35809  0.022370878  0.021886536            6 
 3042000   0.75334148   -7.3071559    816.15034  0.022357833  0.021880628           10 
 3043000   0.76928886   -7.3235061    815.21776  0.022324947  0.021874745            9 
 3044000   0.76371315   -7.3382226    818.76941  0.022414844  0.021868872            5 
 3045000   0.76599967   -7.3304611    817.06479  0.022360832  0.021862996            6 
 3046000   0.77447894   -7.3187765    815.99528  0.022324231  0.021857135           18 
 3047000    0.7778397     -7.30539     818.0715  0.022373687  0.021851266            6 
 3048000   0.77673519   -7.3254691    817.29107   0.02234501  0.021845428            7 
 3049000   0.76869522   -7.3287449    818.83407  0.022379853  0.021839584            9 
 3050000   0.77313771   -7.3308865    816.87307  0.022318936  0.021833722            6 
 3051000   0.76300102   -7.3382207    819.38889  0.022380337  0.021827857            6 
 3052000   0.78051537   -7.3221628    819.04119   0.02236351  0.021822011            5 
 3053000    0.7699187   -7.3322885    817.30931  0.022308912  0.021816155            6 
 3054000   0.77304669   -7.3470893     818.4326  0.022332258  0.021810345            6 
 3055000   0.76714382   -7.3130668    817.05937   0.02228749  0.021804503           12 
 3056000   0.75465735   -7.3189878    818.60696  0.022322397  0.021798702            7 
 3057000   0.77340938   -7.3226044    817.84275  0.022294263  0.021792894            6 
 3058000   0.75743625   -7.3102434    815.99671  0.022236666  0.021787108           11 
 3059000   0.76344307   -7.3260645    817.16853   0.02226132  0.021781287            7 
 3060000   0.77930639   -7.3705692    817.95079  0.022275348   0.02177545            6 
 3061000   0.74598345   -7.3254303    817.57459  0.022257829  0.021769618            5 
 3062000   0.75425933   -7.3098922    818.36179  0.022271984   0.02176381           11 
 3063000   0.76319796   -7.3105871    818.43015  0.022266573  0.021758009            9 
 3064000   0.77787118   -7.3070644    821.13505  0.022332872  0.021752236           17 
 3065000   0.73966774    -7.314433     821.0508  0.022323295  0.021746454            7 
 3066000   0.76114503    -7.307178    820.07312  0.022289441   0.02174067            4 
 3067000   0.74718574   -7.3442169    819.73156  0.022272893  0.021734875            7 
 3068000   0.79008525   -7.3182996    821.37341   0.02231023  0.021729067            6 
 3069000   0.76507176   -7.3420253    821.45345  0.022305133  0.021723256            6 
 3070000   0.76011166   -7.3469892    817.81022  0.022198975   0.02171746           12 
 3071000   0.74949597     -7.31601    818.56171  0.022212138  0.021711642           12 
 3072000   0.76303673   -7.3266515    819.77714  0.022237878  0.021705845           11 
 3073000   0.77273249   -7.3232782    819.55587  0.022224641  0.021700054            6 
 3074000   0.75867646   -7.3306074    820.28208  0.022237098  0.021694264           16 
 3075000   0.76807569   -7.3238974    819.20148  0.022200582  0.021688449           12 
 3076000    0.7533683   -7.2879353    820.42191  0.022226428  0.021682651            4 
 3077000   0.74795537   -7.3019335    821.21074  0.022240568  0.021676861           19 
 3078000   0.75218221   -7.3363169    817.71843  0.022138792  0.021671051            6 
 3079000   0.75256652   -7.3293872    819.83296  0.022188832  0.021665257            9 
 3080000   0.74437306   -7.3375212    817.93435  0.022130258  0.021659425            7 
 3081000   0.74219502   -7.3284961    820.73586  0.022198849  0.021653585            6 
 3082000   0.76328663   -7.3314252    820.57808   0.02218738  0.021647752            4 
 3083000   0.77256963   -7.2990222     819.6658  0.022155525  0.021641927            9 
 3084000   0.76593759   -7.3225007    821.63674  0.022201598  0.021636126            9 
 3085000   0.75203276   -7.3309433    817.93233  0.022094336  0.021630329            6 
 3086000   0.77552377    -7.349897    819.10014  0.022118712  0.021624525            4 
 3087000     0.760251   -7.3370239    818.20963  0.022087507  0.021618709            6 
 3088000   0.75011844   -7.3345272    819.36017  0.022111404  0.021612893           11 
 3089000   0.75944009   -7.3513379    817.86281  0.022063851  0.021607084           11 
 3090000   0.77279521   -7.3104568    821.31267  0.022149748  0.021601263            8 
 3091000   0.75789391   -7.3422908    818.32242  0.022061965  0.021595437            7 
 3092000   0.74896812    -7.324491    819.74562  0.022093187  0.021589593            8 
 3093000   0.76438008    -7.339807     819.8256  0.022088199  0.021583739            7 
 3094000   0.76591503   -7.3374263    820.21822  0.022091635  0.021577877            9 
 3095000   0.76563673   -7.3444798    820.62232  0.022095378  0.021572039           18 
 3096000   0.74407455   -7.3628042     819.5207  0.022058589  0.021566172            7 
 3097000   0.74310119   -7.3659674    820.71086  0.022083491  0.021560329            7 
 3098000   0.73562325   -7.3626286    819.38246   0.02204063  0.021554517            8 
 3099000   0.74054449     -7.32891    818.97347   0.02202252  0.021548691            8 
 3100000   0.74710694   -7.3454235    819.40444  0.022027001  0.021542861            6 
 3101000   0.75643592   -7.3395988    821.21723  0.022068613  0.021537035            4 
 3102000   0.74720956   -7.3406938    819.53703  0.022016361  0.021531219            4 
 3103000   0.77107971   -7.3234045    820.23939  0.022028128  0.021525417           13 
 3104000    0.7440703   -7.3236876    819.77251  0.022008497  0.021519611           18 
 3105000   0.76295672   -7.3209083    819.02439  0.021981331  0.021513808           11 
 3106000   0.76296671   -7.3448812    818.72227  0.021966148  0.021507989            8 
 3107000   0.75595684   -7.3311104    822.02593  0.022047686  0.021502187            6 
 3108000   0.76907385   -7.3284979    820.09198  0.021988738  0.021496382            9 
 3109000   0.74509998   -7.3456009    820.77037  0.021999849    0.0214906            5 
 3110000   0.74359632   -7.3293378    820.41187  0.021983169  0.021484799            9 
 3111000   0.76055418   -7.3645544    819.71152  0.021957343  0.021478971            7 
 3112000   0.75287894   -7.3084353    822.21634  0.022017361  0.021473169            4 
 3113000   0.74681909   -7.3536599    820.21578  0.021956735  0.021467354            7 
 3114000   0.76182171   -7.3225839    821.07331  0.021972632   0.02146156            7 
 3115000   0.76871883   -7.3396021    822.25053  0.021997072  0.021455765           11 
 3116000   0.75125657   -7.3465958    820.35922  0.021939431  0.021449976            6 
 3117000    0.7463093   -7.3656555    820.13222  0.021926324  0.021444144            7 
 3118000   0.74757467   -7.3348204    821.59762  0.021958457  0.021438338            3 
 3119000   0.75470192   -7.3320845    819.97389  0.021908034  0.021432533            4 
 3120000   0.74752476   -7.3406591    821.60916  0.021944689  0.021426703            4 
 3121000   0.73117711   -7.3506702    822.01124  0.021948394  0.021420888            8 
 3122000   0.75713993   -7.3332167    821.45902  0.021926623  0.021415087            2 
 3123000   0.75086043    -7.345093    821.46096  0.021919654  0.021409282            4 
 3124000   0.74781377   -7.3605089    822.20984  0.021932614   0.02140344            5 
 3125000     0.747467   -7.3684786    821.41404  0.021904374  0.021397612            8 
 3126000   0.76387488   -7.3699231    819.60625  0.021849175  0.021391804            5 
 3127000   0.74426054   -7.3780981    822.29925  0.021913955  0.021385996            7 
 3128000    0.7626895   -7.3498095    821.21112   0.02187796  0.021380175            6 
 3129000   0.74399424   -7.3466616    822.91224  0.021916273  0.021374352            5 
 3130000   0.75875581   -7.3463996    822.14513  0.021888848  0.021368561            5 
 3131000    0.7511599   -7.3249506    820.58272  0.021840272  0.021362759            3 
 3132000   0.74340747   -7.3426415    822.05554  0.021872487  0.021356972            4 
 3133000   0.75676214    -7.344738    823.70563  0.021909395  0.021351153           16 
 3134000   0.75400756   -7.3541178    820.77507  0.021824481  0.021345344            6 
 3135000   0.75205946   -7.3490636    821.29662  0.021831383   0.02133953           10 
 3136000   0.76172155    -7.337439    821.31772  0.021824982  0.021333732            6 
 3137000   0.73610263   -7.3488683    821.48339  0.021822425  0.021327926            5 
 3138000   0.74815915   -7.3494031    821.10009  0.021805292  0.021322123            7 
 3139000   0.74195549    -7.320767    821.80394  0.021817031  0.021316329           10 
 3140000   0.73781486   -7.3481407     823.4221  0.021853028  0.021310557            5 
 3141000   0.74819166   -7.3770916    823.28337   0.02184239  0.021304762            8 
 3142000   0.74867471   -7.3758979    823.44307  0.021839674  0.021298973           11 
 3143000   0.75565064   -7.3664302    822.52758  0.021808452  0.021293193            8 
 3144000   0.75384161   -7.3487841    822.66904  0.021805265  0.021287409            5 
 3145000    0.7360726   -7.3595629     821.7268  0.021773365   0.02128165            8 
 3146000   0.73657232   -7.3405356    824.77074  0.021847074  0.021275917            8 
 3147000   0.74958435   -7.3555054    823.63948  0.021810176  0.021270205            6 
 3148000    0.7561405   -7.3530142    822.92317  0.021784286  0.021264453           15 
 3149000   0.74490369   -7.3467004    823.53217  0.021793484  0.021258675            5 
 3150000    0.7469202   -7.3181006    823.64887  0.021789653  0.021252927            4 
 3151000   0.74337637   -7.3228677    824.78182    0.0218127  0.021247199            4 
 3152000   0.74454551   -7.3512871    822.71173   0.02175105  0.021241469            8 
 3153000   0.74184645   -7.3453154    824.73649  0.021797666  0.021235744            6 
 3154000   0.74254782   -7.3458871    822.66248  0.021735956  0.021230019            6 
 3155000   0.74243159   -7.3709292    821.21714  0.021690891  0.021224265            8 
 3156000   0.72818212   -7.3530879    822.81658  0.021726251  0.021218507            7 
 3157000   0.74992103   -7.3470154    825.11588  0.021780062  0.021212776            4 
 3158000   0.75196571   -7.3696503    824.94293  0.021768602  0.021207027            5 
 3159000   0.75388804   -7.3462698    824.73651  0.021756265  0.021201275           10 
 3160000   0.75483387    -7.387565     823.5009  0.021716796  0.021195487            5 
 3161000    0.7387187    -7.376101    821.15607  0.021648109  0.021189693            6 
 3162000   0.75205486   -7.3637539    822.02692  0.021664214  0.021183891            5 
 3163000   0.72879251   -7.3701646    821.68353  0.021648317  0.021178078            9 
 3164000   0.72950413   -7.3702891     823.8164  0.021697651  0.021172294           17 
 3165000   0.74720687   -7.3672926    823.14285  0.021673061  0.021166498           21 
 3166000   0.74420032   -7.3624765    821.35042  0.021619036  0.021160695           14 
 3167000   0.74440236   -7.3680305    823.72711  0.021674748  0.021154898           10 
 3168000   0.74367569    -7.376227    824.35468  0.021684414   0.02114911            9 
 3169000   0.75394506   -7.3920741    824.00841  0.021668466  0.021143321            6 
 3170000   0.74535212   -7.3550111    823.27063  0.021642235  0.021137532            9 
 3171000    0.7276763   -7.3721637    822.82819  0.021623783  0.021131746           19 
 3172000   0.75000095   -7.3443971    823.25275   0.02162812  0.021125966            9 
 3173000   0.76478429   -7.3775394    823.15386  0.021618706  0.021120177           12 
 3174000   0.74258551    -7.380883    823.06473  0.021609555   0.02111438            8 
 3175000   0.74158154   -7.3680379    823.49704  0.021614096  0.021108577            9 
 3176000   0.73504053   -7.3440731    823.23375  0.021600382  0.021102789            6 
 3177000   0.74637076   -7.3638261    823.68348  0.021605379  0.021097007            8 
 3178000   0.74911392   -7.3436926     824.0388  0.021607898   0.02109121            4 
 3179000   0.74004056   -7.3344774     824.3049  0.021608076  0.021085431            5 
 3180000   0.73676235   -7.3841286    822.10036  0.021543511  0.021079682           17 
 3181000   0.74870472   -7.3913392    824.04557  0.021587697  0.021073911           13 
 3182000   0.73563567   -7.3902081    823.68112  0.021571368  0.021068097           10 
 3183000    0.7548786    -7.372543    822.04135  0.021521661   0.02106231           11 
 3184000   0.73325912   -7.3901794    822.32691  0.021522375  0.021056525            9 
 3185000   0.73639379   -7.3980406    823.82867   0.02155491   0.02105074            6 
 3186000   0.73731195   -7.3850778    826.58951  0.021620358  0.021044957           11 
 3187000   0.74134451   -7.3877554    825.74336  0.021591448  0.021039179            4 
 3188000   0.73362757   -7.3671536     824.0749  0.021541063  0.021033393            6 
 3189000   0.74411499   -7.3560767    825.43645  0.021569887  0.021027606            7 
 3190000    0.7587584   -7.3975682    823.21339  0.021505052  0.021021813           13 
 3191000   0.74780246   -7.3904552     822.3798  0.021476543   0.02101602            6 
 3192000   0.73227946   -7.3582886     824.4996  0.021525157   0.02101024            9 
 3193000   0.73441648   -7.3506941    824.05927  0.021506923  0.021004454            4 
 3194000   0.74731918   -7.3621127    825.41537  0.021535571  0.020998714            6 
 3195000   0.72880379   -7.3965217    825.11146  0.021520904  0.020992972            5 
 3196000   0.73699914   -7.3762883    825.80544  0.021532265  0.020987229            8 
 3197000   0.75002332   -7.3606436    826.24034  0.021536866   0.02098149           11 
 3198000   0.74620885   -7.3646604    824.11443  0.021474735  0.020975767            4 
 3199000   0.73922126   -7.3519434    826.98475  0.021542793  0.020970042            9 
 3200000   0.73850687   -7.3676529    826.16284  0.021514657  0.020964299            6 
 3201000   0.75513771    -7.379804    826.26733  0.021510656  0.020958555            4 
 3202000   0.73434095   -7.3513222    824.75437  0.021464563  0.020952824            9 
 3203000   0.75314334   -7.3766054    827.17341  0.021520798  0.020947098            6 
 3204000   0.74481363    -7.358556       825.38  0.021467437  0.020941373           13 
 3205000   0.75431914   -7.3908362    826.81326  0.021498005  0.020935649           17 
 3206000   0.74819306   -7.3831359    825.60542  0.021459904  0.020929902            4 
 3207000   0.73889487   -7.3666674    826.03438  0.021464359  0.020924167            7 
 3208000   0.76200196   -7.3929706    824.32449  0.021413251  0.020918416            7 
 3209000   0.74705828   -7.3921692     826.4192  0.021460974  0.020912649           10 
 3210000   0.74499789    -7.387113    823.86344   0.02138794  0.020906858            5 
 3211000   0.74284972   -7.3814266    825.10072  0.021413389  0.020901086            7 
 3212000   0.75264626   -7.3810969    824.85422  0.021400327  0.020895317           12 
 3213000   0.72957239   -7.3854943    822.86915  0.021342181  0.020889532            3 
 3214000   0.74440551   -7.3821531    825.06903   0.02139258  0.020883735            7 
 3215000    0.7453503   -7.3877195    824.89838  0.021381503  0.020877951            5 
 3216000   0.72935057   -7.3711647    823.73433  0.021344691  0.020872166            5 
 3217000   0.72936579   -7.3806221    824.76919  0.021364863  0.020866392            7 
 3218000    0.7131774   -7.3582332    827.67054  0.021433358   0.02086065            5 
 3219000    0.7317039   -7.3892313    827.93694  0.021433596  0.020854921            5 
 3220000   0.73841086      -7.3786    826.68979  0.021394663  0.020849188            7 
 3221000   0.74787184   -7.3647891    826.94875  0.021394721  0.020843457            8 
 3222000   0.72954676   -7.3586308    825.83297  0.021359222  0.020837731            8 
 3223000    0.7386413   -7.3773662    826.61942  0.021372929  0.020831993            5 
 3224000   0.73088262    -7.395123    827.29416  0.021383741   0.02082625            5 
 3225000   0.72587033   -7.3631572    825.78663  0.021338156  0.020820526            5 
 3226000   0.72522202   -7.3842507    826.58533  0.021352173  0.020814801            4 
 3227000    0.7240539   -7.3488756    827.84789  0.021378161  0.020809063            7 
 3228000   0.73796295   -7.4045098    824.30196  0.021279997  0.020803318            8 
 3229000   0.75004623   -7.3988223    826.38187  0.021327085  0.020797568            8 
 3230000   0.71913967   -7.3766646    827.24986  0.021342876  0.020791823            4 
 3231000   0.72438282   -7.3925577    828.84063  0.021377299  0.020786106            4 
 3232000   0.73627521   -7.4081738     827.5446  0.021337268  0.020780383            7 
 3233000   0.73600741   -7.4091831    827.31603  0.021324776  0.020774645            9 
 3234000   0.73233385   -7.4060698    827.48398   0.02132251  0.020768933            6 
 3235000   0.74552981   -7.3703974    826.24914   0.02128411  0.020763226           13 
 3236000   0.73215567   -7.3987496    825.86372  0.021267607  0.020757501            5 
 3237000   0.74018261     -7.38364    826.01389  0.021264903  0.020751778           10 
 3238000   0.73637227   -7.3819093    826.03237  0.021258811  0.020746042           10 
 3239000   0.73400953    -7.399396    827.16689  0.021281437  0.020740302           14 
 3240000   0.74406264   -7.3868405    826.02859  0.021245591  0.020734541           19 
 3241000   0.73700997   -7.3674441    827.49478  0.021276735  0.020728793            7 
 3242000   0.73247433   -7.4038689     825.8304  0.021227391  0.020723065           11 
 3243000   0.72520036    -7.352461    827.00977   0.02125115  0.020717341            9 
 3244000   0.72388505   -7.3760025    827.83693  0.021265848  0.020711636            8 
 3245000   0.73115135   -7.3547358    826.54891  0.021226217  0.020705959            8 
 3246000   0.73083547   -7.3536671    830.23204  0.021314234  0.020700287            8 
 3247000   0.74601834   -7.4026262    828.57504  0.021265143  0.020694601            7 
 3248000   0.73781302   -7.4020638    826.50378  0.021205454  0.020688887           13 
 3249000   0.73092643   -7.3904538    826.28141  0.021193224  0.020683194            5 
 3250000    0.7457638   -7.3906515    827.75294  0.021224434  0.020677517           11 
 3251000   0.72031244   -7.3897763     828.3028     0.021232  0.020671835           10 
 3252000   0.73481142    -7.419148    828.42104  0.021228501  0.020666152            9 
 3253000   0.74401699    -7.364714    829.64592  0.021253354  0.020660485            9 
 3254000   0.72071119   -7.3792242     828.3134  0.021212697  0.020654817           10 
 3255000   0.73039163   -7.3923283    828.11838  0.021201187  0.020649144            5 
 3256000   0.73500091    -7.410324     829.2437  0.021223477  0.020643474            6 
 3257000   0.72355877    -7.387548    830.68885  0.021253936  0.020637813            8 
 3258000   0.72362385   -7.3827447    828.37118  0.021188131  0.020632173            8 
 3259000    0.7178632   -7.3969057    830.04743  0.021224492  0.020626516            5 
 3260000   0.73419586   -7.3853758    827.80994  0.021160786   0.02062086           13 
 3261000   0.73310142   -7.3967857    827.88456  0.021156204  0.020615225            8 
 3262000   0.73621891   -7.3800995     830.5486  0.021217775  0.020609578            6 
 3263000   0.72446594   -7.4222207    827.89458  0.021143492  0.020603918            7 
 3264000   0.74078656   -7.4159934    829.13727  0.021168742   0.02059824            9 
 3265000   0.72627163   -7.4100309    828.97687  0.021158164  0.020592546            8 
 3266000   0.71929009   -7.4210631    829.05076  0.021153571  0.020586852            6 
 3267000   0.74031386   -7.3998778    827.70118  0.021112672  0.020581181            5 
 3268000   0.73645789    -7.392455    827.79891  0.021108703  0.020575508           17 
 3269000   0.74275973   -7.3854048    830.19532  0.021163335  0.020569847           17 
 3270000   0.73011592   -7.3979434    829.03108  0.021127194  0.020564192           24 
 3271000   0.73363921   -7.4074469    830.54752  0.021159368  0.020558526           18 
 3272000   0.73342589   -7.4046522     830.0935  0.021141338  0.020552837            6 
 3273000   0.73589441   -7.3828749    830.24726  0.021138794  0.020547186           20 
 3274000   0.73357499   -7.4433605    831.00575  0.021151643  0.020541515           19 
 3275000   0.73156377   -7.3921617    828.83892  0.021090049  0.020535856           10 
 3276000   0.73213164   -7.3940852    829.23644  0.021093723  0.020530179            9 
 3277000   0.71802427   -7.4184699    829.00939  0.021081512  0.020524489           14 
 3278000   0.73233966   -7.3954256    829.27909  0.021081937  0.020518807            6 
 3279000   0.72071583   -7.3771381    828.83499  0.021064221  0.020513134           13 
 3280000   0.73075044   -7.3947701    827.63467  0.021027304  0.020507452           19 
 3281000    0.7317731   -7.4084105    830.74577  0.021099913  0.020501778           28 
 3282000   0.73728976   -7.3890481    829.39587  0.021059209  0.020496136           16 
 3283000    0.7163033   -7.3764486     829.3985  0.021052861  0.020490486           11 
 3284000   0.70794827   -7.4008536    831.55758  0.021101238  0.020484847            6 
 3285000   0.72536644   -7.4030656    828.45778  0.021016179  0.020479178           10 
 3286000    0.7324415   -7.4368707    827.26835  0.020979619  0.020473483            6 
 3287000   0.72568921    -7.402937    829.81994  0.021037926  0.020467805            7 
 3288000   0.71149527   -7.3915294    829.80077  0.021031041  0.020462131            7 
 3289000   0.72990279   -7.4079536    830.18881  0.021034479  0.020456463            5 
 3290000   0.71282195   -7.4102423    827.95878    0.0209716  0.020450795            3 
 3291000    0.7282389   -7.4119268    829.65293  0.021008127  0.020445144           11 
 3292000   0.72189556   -7.4085661    830.71666  0.021028672  0.020439498            9 
 3293000   0.71453548   -7.4138295    829.95964  0.021003129  0.020433857            6 
 3294000   0.72775602   -7.4266435    830.83709  0.021018951  0.020428218            9 
 3295000   0.71604099   -7.4000256    832.54076  0.021055659  0.020422574           10 
 3296000   0.74275572   -7.4015691    831.35703  0.021019342  0.020416961            9 
 3297000   0.72296679   -7.3911458     831.5466  0.021017759  0.020411331            8 
 3298000   0.72116009    -7.413623    828.46551  0.020933533  0.020405693            7 
 3299000   0.72029433    -7.398684    831.17363  0.020995596  0.020400081            8 
 3300000   0.73282166   -7.4057021    831.19931  0.020989882   0.02039444            4 
 3301000   0.73029111   -7.4134396    830.33662  0.020961744   0.02038882            8 
 3302000   0.72264054   -7.4201267    831.16237  0.020976236  0.020383204            7 
 3303000   0.72800173   -7.3949297    832.25393  0.020997425  0.020377587            6 
 3304000    0.7214804   -7.4153771    831.02632  0.020960107  0.020371966            9 
 3305000    0.7535034   -7.4122366    830.43573  0.020938874  0.020366336            8 
 3306000   0.72632558   -7.4046553    830.75912  0.020940692  0.020360726            6 
 3307000    0.7309513   -7.4274346    831.91987  0.020963609  0.020355098            8 
 3308000   0.73454482   -7.4259538    830.28533  0.020916096  0.020349477            7 
 3309000   0.73231276   -7.4067984    831.18254   0.02093237  0.020343884           11 
 3310000    0.7300047   -7.4091177    830.57671  0.020910793  0.020338275           15 
 3311000   0.73375356   -7.4366052    830.54709  0.020903732   0.02033267            6 
 3312000   0.72769722   -7.3938941     832.2293  0.020939747  0.020327054            8 
 3313000   0.71285376   -7.4192078    831.76563  0.020921763  0.020321463            7 
 3314000   0.73120257   -7.4368207    831.64932  0.020912526  0.020315857           11 
 3315000   0.70737683    -7.405536    832.06371  0.020916634  0.020310251            8 
 3316000   0.70499926   -7.4011132    831.85336   0.02090504  0.020304669            6 
 3317000   0.72046342   -7.4361113    830.06737  0.020853868  0.020299073            7 
 3318000   0.70469541   -7.4294629    830.30761  0.020853617  0.020293447            7 
 3319000   0.71957625   -7.4248266    832.27476  0.020896725  0.020287843           10 
 3320000   0.71945444   -7.4220206    830.80204  0.020853465  0.020282248            6 
 3321000   0.70440075   -7.4272192    832.32981  0.020885522   0.02027664            3 
 3322000   0.71693656   -7.4098504    832.28834  0.020878194  0.020271051            9 
 3323000     0.712661   -7.4188163     832.5331   0.02087805  0.020265462            5 
 3324000   0.71005576   -7.4009586    830.57532  0.020822687  0.020259871            9 
 3325000   0.70645425   -7.4073684    831.27592  0.020833983  0.020254286            6 
 3326000   0.70483461    -7.388552    831.70387  0.020838441  0.020248723            8 
 3327000   0.71747351   -7.4062453    832.60287  0.020854696  0.020243139           11 
 3328000   0.72764499   -7.4079168    832.04011  0.020834338  0.020237558            6 
 3329000   0.71996174    -7.416308    832.67497  0.020843972  0.020231989           14 
 3330000   0.73016754   -7.4110513    833.12193  0.020848897  0.020226415            4 
 3331000   0.69896813   -7.4402239    832.64459  0.020830696  0.020220849           10 
 3332000   0.71310721   -7.4118521    831.24024  0.020789322  0.020215264            6 
 3333000   0.72600185   -7.4088776     833.2654  0.020833718  0.020209687            5 
 3334000   0.72250631   -7.4120284     831.8416  0.020791882  0.020204105            6 
 3335000   0.72646281   -7.4206068    831.87869  0.020786574  0.020198534            5 
 3336000   0.70447176   -7.4335587    833.32611    0.0208165  0.020192953           15 
 3337000   0.71457227   -7.4047963    833.73225  0.020820404  0.020187378           11 
 3338000   0.73752516    -7.430878    831.10117  0.020748481  0.020181797           11 
 3339000   0.72102332   -7.4097098    831.20324  0.020744815  0.020176215            6 
 3340000   0.72208234    -7.419994    832.08205   0.02076053  0.020170628           12 
 3341000   0.70286098   -7.4051656    831.13699  0.020730744   0.02016504            9 
 3342000   0.71665304    -7.408567    833.37037  0.020780231  0.020159458            8 
 3343000   0.71863773   -7.4176749    833.84836   0.02078593  0.020153885            9 
 3344000   0.71150025   -7.4190723    833.48249  0.020770596  0.020148303           13 
 3345000   0.69417097   -7.4286103     832.2936  0.020734768  0.020142699           12 
 3346000   0.72163697   -7.4304587    832.30979  0.020728975  0.020137089           15 
 3347000    0.7035338   -7.4184161    834.37814  0.020774279  0.020131497            8 
 3348000   0.69864388   -7.4142674     832.8867  0.020730951  0.020125926           19 
 3349000   0.71446383   -7.4009632    832.32596  0.020710808  0.020120332           11 
 3350000   0.71726139   -7.4321374    831.07872    0.0206736  0.020114727           16 
 3351000   0.71016804   -7.4342523    831.66544  0.020682021  0.020109112           10 
 3352000   0.72814096   -7.4189504    832.75713  0.020702991  0.020103512            6 
 3353000   0.71825961    -7.406728    832.35611   0.02068685  0.020097923            6 
 3354000   0.71156921     -7.40053    834.78821   0.02074111  0.020092332           12 
 3355000    0.7271256   -7.3997679    833.91139  0.020713149  0.020086779            5 
 3356000   0.71945976   -7.4167591    833.08451  0.020686445    0.0200812            6 
 3357000   0.70342836   -7.4249483    832.74546  0.020671866  0.020075606            7 
 3358000   0.71732273   -7.4214775     833.1474  0.020675685  0.020070006            6 
 3359000   0.69878147   -7.4176865    832.95758   0.02066482  0.020064405            7 
 3360000   0.71423487   -7.4413846    832.66439  0.020651399  0.020058816           14 
 3361000   0.71936927   -7.4473568    831.14565  0.020607598  0.020053204            5 
 3362000   0.71379115   -7.4469108    832.52655  0.020635697  0.020047578            6 
 3363000    0.7135613   -7.4312107    831.84317  0.020612627  0.020041963            9 
 3364000   0.71819262   -7.4413878    831.73942  0.020603929  0.020036357           10 
 3365000   0.71848963    -7.442475    832.33442  0.020612541  0.020030734           15 
 3366000   0.71489501   -7.4499262    833.26289  0.020629404  0.020025117           15 
 3367000   0.70778553   -7.4627034    830.99089  0.020567045  0.020019514            9 
 3368000   0.71006778   -7.4124922    832.33018  0.020594076  0.020013923           13 
 3369000    0.7044508    -7.451486    832.84586  0.020600719  0.020008341            7 
 3370000   0.71050315   -7.4298704    833.55435  0.020612125   0.02000276           13 
 3371000   0.70760067    -7.445629    831.83623  0.020563538  0.019997168           11 
 3372000   0.73130384   -7.4252197    831.71121   0.02055435  0.019991581            9 
 3373000   0.72208422   -7.4378165    832.79721  0.020575087     0.019986           21 
 3374000   0.73152732   -7.4182852    832.38316  0.020558762  0.019980411            9 
 3375000   0.71252391   -7.4433071    832.75652  0.020561889   0.01997481            6 
 3376000   0.70900011   -7.4289936    832.72901   0.02055512    0.0199692            5 
 3377000   0.69741179   -7.4343787    830.45393  0.020492891    0.0199636            9 
 3378000   0.69234038   -7.4388227    832.22803  0.020530591  0.019957995           18 
 3379000   0.70239894   -7.4290065    833.17639  0.020547904  0.019952411           21 
 3380000   0.70714182   -7.4377047    832.70809  0.020530278  0.019946815           21 
 3381000   0.71885723   -7.4333374    834.17448  0.020560349   0.01994122           24 
 3382000   0.71820248    -7.456096      832.863  0.020521955  0.019935616           10 
 3383000   0.71411807   -7.4401552     831.4792  0.020481801  0.019930038           12 
 3384000   0.71345013   -7.4603473     834.0017  0.020537867  0.019924428            6 
 3385000   0.71511474   -7.4434952    833.36879  0.020516218  0.019918819            6 
 3386000   0.70269297   -7.4199627    833.10171  0.020503586  0.019913219            8 
 3387000   0.71576856   -7.4467703    833.70715  0.020512429   0.01990765            9 
 3388000   0.72546962   -7.4260901    835.18942  0.020542833  0.019902075           14 
 3389000   0.69122184   -7.4089653    833.71397  0.020500491  0.019896513            4 
 3390000   0.71535316    -7.452977    833.53352  0.020490008  0.019890949           17 
 3391000   0.70964163   -7.4428333    831.54871  0.020435189   0.01988535           12 
 3392000   0.72148756   -7.4554304    833.14731  0.020468438   0.01987976            9 
 3393000    0.6925511   -7.4471493    833.97181  0.020482656  0.019874192           13 
 3394000   0.70445054   -7.4206009    833.32775  0.020460807   0.01986862            9 
 3395000    0.7150305   -7.4319105    834.72172  0.020488996   0.01986306           10 
 3396000   0.70175786   -7.4353227    831.49663  0.020403824  0.019857491            7 
 3397000   0.71199325   -7.4432519    833.29375  0.020441903  0.019851924            6 
 3398000   0.70870919   -7.4418005    834.19484  0.020457986  0.019846361           25 
 3399000   0.70155141   -7.4500113    833.79914  0.020442266  0.019840792           14 
 3400000   0.72217898   -7.4535339    834.08944  0.020443369  0.019835226           13 
 3401000   0.70358456    -7.446052    832.34523   0.02039462  0.019829651           11 
 3402000   0.71732357   -7.4370635    833.17941  0.020409059   0.01982409            7 
 3403000   0.69175106   -7.4272659    833.00411  0.020398769  0.019818544           19 
 3404000   0.69717249   -7.4292203    834.96502  0.020440781  0.019812974            6 
 3405000   0.70693438   -7.4479161    834.07843  0.020413079  0.019807396            7 
 3406000   0.71646012   -7.4718698    833.85155  0.020401535  0.019801814            8 
 3407000   0.71862662   -7.4455525    833.49548  0.020386838  0.019796237            5 
 3408000   0.70114588   -7.4479858    834.19486  0.020397957  0.019790664            5 
 3409000   0.71097649   -7.4554108    831.86859  0.020335108  0.019785081            7 
 3410000   0.70632042   -7.4591589    832.16419  0.020336368  0.019779494           15 
 3411000   0.72021929   -7.4669778    833.47621   0.02036246  0.019773924            9 
 3412000   0.70566196   -7.4539701    834.45125  0.020380306  0.019768334           10 
 3413000   0.69846398   -7.4390239    834.55686  0.020376913  0.019762758            4 
 3414000   0.70216377   -7.4389878    832.79476  0.020327933  0.019757181           11 
 3415000   0.69333589   -7.4523051    833.17841  0.020331342  0.019751607            6 
 3416000   0.69185168   -7.4637826    833.46152  0.020332297  0.019746031            8 
 3417000   0.69904078   -7.4764392    833.58337  0.020329318   0.01974046            9 
 3418000   0.71839286   -7.4800423    831.44855  0.020271322   0.01973489            6 
 3419000   0.70237364   -7.4646113    834.76633  0.020346259  0.019729327           11 
 3420000   0.70506835   -7.4371648    834.70068  0.020338711  0.019723764           14 
 3421000    0.7194261    -7.438672    833.32515  0.020299258  0.019718197            9 
 3422000   0.71016675   -7.4513391    833.10467  0.020287957  0.019712631           16 
 3423000   0.69795763   -7.4364802    834.64992  0.020319649  0.019707066           11 
 3424000   0.70568514   -7.4401179    834.99145  0.020322027   0.01970151           10 
 3425000   0.70562301    -7.463145    834.29319  0.020299104   0.01969593            6 
 3426000   0.69340313    -7.471059    834.83935  0.020306464  0.019690374            7 
 3427000   0.71944583   -7.4609629    836.76866  0.020347453  0.019684818           10 
 3428000   0.69521581   -7.4663093    833.51297  0.020262373  0.019679274            9 
 3429000   0.69257126   -7.4552806    833.61651   0.02025898  0.019673714            8 
 3430000    0.7199282   -7.4563216    834.51769  0.020274968   0.01966814           10 
 3431000   0.69581904   -7.4658483    834.08873   0.02025864  0.019662563            6 
 3432000   0.71103952   -7.4563839     833.6725  0.020242631  0.019656976            7 
 3433000   0.72163576   -7.4654926    834.63212  0.020260028  0.019651435            8 
 3434000   0.71566986   -7.4737949    835.18354   0.02026751   0.01964588           26 
 3435000   0.71008655   -7.4665757    832.48484  0.020196139  0.019640305           21 
 3436000   0.68757389   -7.4670604    832.57432  0.020192431  0.019634723           12 
 3437000   0.68709458   -7.4299836    834.49017  0.020233008  0.019629155            9 
 3438000   0.69811119   -7.4504257    835.52972   0.02025232  0.019623597           12 
 3439000   0.70189338   -7.4764046    834.67438  0.020225705  0.019618047            4 
 3440000   0.69356672   -7.4723303    834.67076  0.020219737  0.019612487            8 
 3441000   0.69921588   -7.4492672    835.73238  0.020239571  0.019606937            5 
 3442000   0.69291077   -7.4516221    835.74805  0.020234071  0.019601398            8 
 3443000   0.69710109   -7.5074739    832.77173  0.020156156  0.019595843            8 
 3444000   0.69735344   -7.4666389    834.62619  0.020195175  0.019590294           12 
 3445000   0.69521908   -7.4564751    834.13602  0.020177456  0.019584739            7 
 3446000   0.71891685   -7.4812639    835.96182  0.020215753  0.019579168            8 
 3447000   0.68812878   -7.4588346    833.75053  0.020156429  0.019573597            8 
 3448000   0.71454214   -7.4934729    835.83196  0.020200888  0.019568039            6 
 3449000    0.6988656   -7.4870338    834.47761  0.020162308   0.01956249            9 
 3450000   0.68541783   -7.4802736    834.21135  0.020150032  0.019556951           11 
 3451000   0.69556027   -7.4658428    835.05713  0.020164617  0.019551402            9 
 3452000   0.69841191    -7.464748    834.79027  0.020152334  0.019545847           10 
 3453000   0.71141404   -7.4361188    836.60144  0.020190208   0.01954032            8 
 3454000   0.70478897   -7.4623641    834.41118  0.020131519  0.019534801           17 
 3455000     0.704561   -7.4592012    836.17693  0.020168281  0.019529277           22 
 3456000   0.68198984   -7.4407789    834.55305  0.020123289  0.019523753           10 
 3457000    0.7056218   -7.4497073    836.42837  0.020162674  0.019518251            8 
 3458000     0.695533   -7.4618816    835.14589  0.020125937   0.01951276           11 
 3459000   0.69049958    -7.477254    836.21261  0.020145818   0.01950727           10 
 3460000   0.70303968   -7.4612133    835.08467  0.020112829  0.019501773           10 
 3461000   0.70109734   -7.4785991    837.20411  0.020158049  0.019496282            8 
 3462000   0.69668757   -7.4492837    835.73512  0.020116867  0.019490809            6 
 3463000   0.69852195   -7.4419671    834.72738  0.020086808  0.019485313            9 
 3464000   0.69333952   -7.4498381     836.2225  0.020116977  0.019479822            8 
 3465000   0.69786837   -7.4669841    836.04571  0.020106919  0.019474326            9 
 3466000   0.68288836   -7.4596112    836.44346  0.020110681   0.01946885            5 
 3467000   0.69697378   -7.4505778    835.83848  0.020090339  0.019463337            5 
 3468000   0.70244671   -7.4689775    834.63536  0.020055636  0.019457842            8 
 3469000   0.68592012    -7.454753    836.43034  0.020092974  0.019452343           10 
 3470000   0.69491685   -7.4671828    835.85697  0.020073414  0.019446848           30 
 3471000   0.70014649   -7.4431359    837.04016  0.020096038  0.019441366            8 
 3472000   0.67833335   -7.4659451     834.5086  0.020029488  0.019435883            9 
 3473000   0.69353739   -7.4399012    836.67207  0.020075633  0.019430401            6 
 3474000   0.70931678   -7.4636095    836.19035  0.020058299  0.019424928           12 
 3475000   0.69353558   -7.4764012    836.19299   0.02005259  0.019419437           25 
 3476000   0.70809315   -7.4578134    836.81765  0.020061796  0.019413938           10 
 3477000   0.68710426   -7.4714219    836.97599  0.020059821  0.019408456            8 
 3478000   0.70238109   -7.4821267    838.95691  0.020101517  0.019402982            7 
 3479000   0.69371216   -7.4809939    836.69614  0.020041586  0.019397509            9 
 3480000   0.69600373   -7.4809741    836.99333  0.020042944  0.019392051           10 
 3481000   0.68688115   -7.4598684    836.34488  0.020021662  0.019386583            7 
 3482000   0.69391324   -7.4833885    837.24199  0.020037382  0.019381097            6 
 3483000    0.6838651   -7.4711496    839.22345  0.020079037  0.019375635           15 
 3484000   0.71470587    -7.448194    837.42529  0.020030264  0.019370194            6 
 3485000   0.69486166   -7.4742784    836.04442  0.019991497  0.019364754            6 
 3486000   0.69161627   -7.4723496     837.5671  0.020022162  0.019359295            7 
 3487000   0.69611816   -7.4902943     836.4202  0.019989012  0.019353839            4 
 3488000     0.710267   -7.4718325     837.7522  0.020015104  0.019348389            9 
 3489000   0.71204484   -7.4534874    835.36561  0.019952365  0.019342951            6 
 3490000   0.69274995   -7.4547015    837.41005  0.019995465  0.019337511            3 
 3491000   0.68279448   -7.4596357    838.17545  0.020008008  0.019332063           18 
 3492000   0.70337318   -7.4707699    836.06074  0.019951812  0.019326598           10 
 3493000   0.69906615   -7.4593222    837.21609  0.019973664  0.019321134            9 
 3494000   0.69228433   -7.4874554    836.97606  0.019962222  0.019315688            8 
 3495000   0.68806918   -7.4801929    837.57016  0.019970676  0.019310238           14 
 3496000   0.70487927   -7.4860606    838.22733  0.019980629  0.019304792            9 
 3497000   0.69463235   -7.4784722    836.57567  0.019935556  0.019299345           11 
 3498000   0.69575515   -7.4969499    838.34484  0.019972004  0.019293921           12 
 3499000    0.6940267   -7.4546603    839.41207  0.019991713  0.019288512            8 
 3500000   0.67781907   -7.4444635    838.10037  0.019954771  0.019283099            7 
 3501000   0.69872717   -7.4890715    837.32691  0.019930661  0.019277683            9 
 3502000   0.67798499   -7.4473043    838.29626  0.019948036  0.019272283            9 
 3503000   0.70320166    -7.452941    837.44004  0.019921973  0.019266867            8 
 3504000   0.70053767   -7.4580987    837.64369   0.01992113  0.019261461            6 
 3505000   0.71010471   -7.4733017    838.96155   0.01994678  0.019256042            9 
 3506000   0.68165523   -7.4729813    837.56975  0.019908009  0.019250634           14 
 3507000   0.69897214   -7.4818545    835.90808  0.019862848  0.019245192           15 
 3508000   0.69524034    -7.502606    836.39562  0.019868767  0.019239768           18 
 3509000   0.69317005   -7.4814511    836.87299  0.019874442  0.019234325            9 
 3510000   0.68946299   -7.5132751    835.84328  0.019844332  0.019228888            7 
 3511000   0.67479896   -7.4660997    838.95365  0.019912505  0.019223444            5 
 3512000   0.69783175   -7.4697329    837.39661  0.019869889  0.019218003           11 
 3513000   0.67373396    -7.492543      836.689  0.019847448  0.019212552            9 
 3514000   0.70476027   -7.4871077    836.12934  0.019828527  0.019207091            6 
 3515000    0.6739641   -7.4685645    836.97675  0.019842976  0.019201651            6 
 3516000    0.6833579   -7.4692079    837.05847   0.01983927  0.019196223            8 
 3517000   0.67929678   -7.4675759    837.89328  0.019853409  0.019190803           11 
 3518000   0.69759692   -7.4640846    836.19084  0.019807439  0.019185359           13 
 3519000   0.70290929   -7.4725483    837.92288  0.019842827  0.019179917            5 
 3520000   0.69679609   -7.4854402    838.69303  0.019855422   0.01917447           11 
 3521000   0.69564408   -7.4985844     836.2712  0.019792464  0.019169016            9 
 3522000   0.68257436   -7.4716044    836.25916   0.01978656  0.019163586            6 
 3523000   0.68319063   -7.4837483    837.90652   0.01981991  0.019158165            7 
 3524000   0.69176924   -7.4732386    837.08774  0.019794924  0.019152757            6 
 3525000   0.68092958   -7.4880709    837.38156  0.019796254  0.019147336            9 
 3526000   0.68241934    -7.484303    839.12869  0.019831932  0.019141922            9 
 3527000   0.67729556   -7.4815613    837.75378  0.019793823  0.019136532            6 
 3528000   0.68883623   -7.4672289    838.37271  0.019802832  0.019131124            7 
 3529000   0.69510678   -7.4857337    836.34595  0.019749361   0.01912572           10 
 3530000   0.68444318   -7.4553777     839.2036  0.019811227  0.019120321           12 
 3531000   0.69296004   -7.4846031     838.9098  0.019798683  0.019114937            9 
 3532000   0.68521648   -7.4729635    838.49521  0.019783296  0.019109551            7 
 3533000   0.68089203   -7.4793564    837.16955  0.019746428  0.019104139            8 
 3534000   0.69420246     -7.47475    837.25645  0.019742889  0.019098731           10 
 3535000   0.69383396   -7.4964656    838.51895  0.019767066  0.019093337           10 
 3536000   0.66946687   -7.4776334    838.36838  0.019757927   0.01908794            9 
 3537000   0.66497035   -7.4786068    838.63635  0.019758655  0.019082532            6 
 3538000   0.69418068   -7.4847252    839.09522  0.019763878  0.019077122            4 
 3539000   0.68490384   -7.4763856    840.93919  0.019801714  0.019071742           11 
 3540000   0.67930032    -7.503517    837.88367  0.019724192  0.019066374            8 
 3541000   0.68473952   -7.4861562    838.02891   0.01972204  0.019060979            8 
 3542000   0.69277643   -7.4690412    838.75212  0.019733487   0.01905559           12 
 3543000   0.69765713   -7.4866411    837.54154  0.019699444  0.019050215            5 
 3544000   0.69060723    -7.474176     840.4394  0.019762025  0.019044814            4 
 3545000   0.66830066   -7.5120984    836.83564  0.019671736  0.019039397            9 
 3546000   0.67619246   -7.5142065    836.44191  0.019656935  0.019033961           15 
 3547000   0.68935403   -7.5262885    836.26865  0.019647323  0.019028518            8 
 3548000   0.69334038   -7.5121428    837.81751  0.019678164  0.019023076           13 
 3549000    0.6793531   -7.5001479    836.68134  0.019645941  0.019017645           11 
 3550000   0.67709351   -7.5103394    836.86974   0.01964483  0.019012209           13 
 3551000   0.68990412   -7.5001523    837.05935  0.019643747  0.019006755           11 
 3552000   0.67433784   -7.4983787    835.68654  0.019606009  0.019001302           10 
 3553000   0.67387869   -7.5041822    837.21302  0.019636294  0.018995838            7 
 3554000   0.68221232   -7.5032194    836.97589  0.019625208  0.018990392            7 
 3555000   0.68053941    -7.525152    836.05325   0.01959806  0.018984945           10 
 3556000   0.67986187   -7.4871715    837.36897  0.019623382  0.018979494           11 
 3557000   0.68567333   -7.4960276    838.03467  0.019633461  0.018974049           18 
 3558000   0.67249233    -7.523147     836.8038  0.019599115  0.018968594           18 
 3559000   0.66680209   -7.5124906    837.85016  0.019618108  0.018963143            6 
 3560000   0.68673274   -7.5162032    836.01345  0.019569603  0.018957699           20 
 3561000   0.67181519   -7.5042635    836.75532  0.019581469  0.018952246           16 
 3562000   0.68495768   -7.5079848     838.7003  0.019621474  0.018946803            7 
 3563000   0.68099734   -7.5296442    836.84815  0.019572648  0.018941356           10 
 3564000   0.66945248    -7.512612    837.48074  0.019581948  0.018935921           11 
 3565000   0.68305882   -7.4995788    837.28883  0.019571969  0.018930483            8 
 3566000   0.67412204   -7.4673998    838.98154  0.019606037  0.018925036            7 
 3567000   0.67518437   -7.4816367     837.9691  0.019576888  0.018919602            3 
 3568000   0.68684243   -7.4869908     837.0392  0.019549682   0.01891418           14 
 3569000   0.66619268   -7.5074076    835.83221  0.019516023  0.018908748            6 
 3570000   0.65526439   -7.4919493    835.99981  0.019514468  0.018903318           10 
 3571000   0.68703252   -7.5129847    836.58264  0.019522604  0.018897888           11 
 3572000   0.67453034   -7.4961983    837.78327  0.019545149  0.018892451           16 
 3573000   0.68283851   -7.4872328    837.05187   0.01952262  0.018887025           11 
 3574000   0.68192271   -7.5101431    837.22095    0.0195211   0.01888159           12 
 3575000   0.68601157   -7.5312349    835.83956   0.01948344  0.018876146           19 
 3576000    0.6801657   -7.5191861    837.47033  0.019515994    0.0188707           16 
 3577000   0.67496175   -7.5105449    837.05597  0.019500885  0.018865261           19 
 3578000   0.67615622   -7.5101013    835.55882  0.019460565  0.018859818           20 
 3579000    0.6730603    -7.497085    836.87532  0.019485781  0.018854369           11 
 3580000   0.66610075   -7.5206282    835.51958   0.01944878  0.018848905           20 
 3581000   0.68071207   -7.5312586    836.70092   0.01947084  0.018843445            7 
 3582000   0.66986167   -7.5172157    837.55623  0.019485302  0.018838004           11 
 3583000   0.68612893   -7.5301802    837.13456  0.019470057  0.018832557            8 
 3584000   0.67445888   -7.5217956    837.54175  0.019474092  0.018827106            5 
 3585000   0.68894433   -7.5443252     835.5513  0.019422392  0.018821647            9 
 3586000   0.68773137   -7.5252536    836.28999  0.019434142    0.0188162            9 
 3587000   0.67774685   -7.5115748    836.73101   0.01943897   0.01881077           15 
 3588000   0.69491014   -7.5744705    836.67744  0.019432308  0.018805311            7 
 3589000   0.68724801   -7.5181173    836.44523  0.019421502   0.01879986           11 
 3590000   0.66996012   -7.5387199    836.00438  0.019405858  0.018794416            7 
 3591000   0.67681198   -7.5150409    836.48148  0.019411526  0.018788963           15 
 3592000   0.68934333   -7.5154739    835.79252  0.019390138  0.018783506           13 
 3593000   0.68404787   -7.5296371    837.59498  0.019426547  0.018778045            5 
 3594000   0.67496454   -7.5393248    838.87912  0.019450916   0.01877259           11 
 3595000   0.67955915   -7.4947308    835.81965  0.019374586  0.018767134            9 
 3596000   0.67665767    -7.517721    837.08149   0.01939844  0.018761676           16 
 3597000   0.67894442   -7.5203921    836.22919  0.019373302  0.018756229           15 
 3598000   0.67513305   -7.5122149    836.42372  0.019372423   0.01875078           14 
 3599000   0.67549696   -7.5274473     837.3707  0.019388967  0.018745341           14 
 3600000   0.68399998    -7.510693    837.46719  0.019385815  0.018739893           11 
 3601000   0.67476363    -7.527454    836.05188  0.019347678  0.018734449            7 
 3602000   0.69581755   -7.5183599    836.67653  0.019356759  0.018729007            8 
 3603000    0.6774659   -7.5059222    836.75783  0.019353266  0.018723567            8 
 3604000   0.68061171    -7.525751    838.49275  0.019388012  0.018718127           12 
 3605000      0.68602   -7.5092916    837.96852  0.019370516   0.01871268           11 
 3606000   0.67973532   -7.5234095    838.00899   0.01936608  0.018707245            7 
 3607000   0.68466676   -7.5322318    836.80475  0.019332889  0.018701805            9 
 3608000   0.66199543   -7.5192268    835.80779  0.019304504  0.018696362            8 
 3609000    0.6770775   -7.5323996    836.67658  0.019319215  0.018690915            7 
 3610000   0.68466818   -7.5235931    836.16456  0.019302044  0.018685479           10 
 3611000   0.66813722   -7.5157205    835.12821  0.019272782  0.018680031            4 
 3612000    0.6861797   -7.5294451    836.44074  0.019297728   0.01867461            8 
 3613000   0.67981077   -7.4934543    837.84365  0.019324745  0.018669166            7 
 3614000   0.68009382   -7.5453691    835.57964  0.019267193   0.01866373            6 
 3615000    0.6613312   -7.5339635    837.73872  0.019311635  0.018658278           11 
 3616000   0.67720542   -7.5256326    836.16498  0.019270026  0.018652826            9 
 3617000   0.66876168    -7.510263    834.93942  0.019236462  0.018647384            8 
 3618000   0.68543293   -7.5285267    836.27572  0.019261925  0.018641955           10 
 3619000   0.66119225    -7.516956    837.52528  0.019285375  0.018636516            7 
 3620000    0.6665926   -7.5179571      835.897  0.019242564  0.018631078           14 
 3621000   0.67162211   -7.5416554    835.65871  0.019231766  0.018625614            9 
 3622000   0.66881984   -7.5250876      836.353   0.01924243  0.018620154           12 
 3623000   0.66136618   -7.5350787    837.75477  0.019269362  0.018614693            9 
 3624000   0.66691638   -7.5332211    836.16225  0.019227425  0.018609226            9 
 3625000   0.66666386   -7.5545903    835.96006  0.019217473  0.018603761           10 
 3626000   0.66845679    -7.543929    835.43793  0.019200173  0.018598312           17 
 3627000   0.67475431    -7.526817    837.33441  0.019238453  0.018592849            6 
 3628000   0.67389902   -7.5229672    834.92714  0.019177856  0.018587391            5 
 3629000   0.66873165   -7.5274393    835.83236  0.019193358  0.018581924           21 
 3630000   0.66876233   -7.5120024    835.53591  0.019181265  0.018576464           16 
 3631000   0.67901042   -7.5429662    837.11329  0.019212184  0.018571002           11 
 3632000   0.66826983    -7.510495    836.82149  0.019200199  0.018565557           11 
 3633000   0.67918088   -7.5135167    836.48162  0.019187119  0.018560116            6 
 3634000   0.66489609   -7.5402575     835.4111   0.01915729  0.018554657           10 
 3635000   0.68219475   -7.5422547    836.29932  0.019172382  0.018549202           13 
 3636000   0.67268574   -7.5490217    834.78369  0.019132373  0.018543743            8 
 3637000   0.68173481    -7.545392    835.65508  0.019147078  0.018538278           12 
 3638000   0.65140165   -7.5154614    837.07298  0.019174294  0.018532811           16 
 3639000    0.6813196   -7.5446512    835.51245  0.019133289  0.018527347           20 
 3640000   0.67305752   -7.5589249    835.36376  0.019124628   0.01852188           12 
 3641000   0.67594438    -7.549736    837.05886  0.019158172  0.018516428           23 
 3642000    0.6535304    -7.545511    836.44679  0.019138907  0.018510982           15 
 3643000   0.65940028   -7.5421225    835.57783  0.019113776  0.018505524           12 
 3644000   0.67884076   -7.5510999    835.10712  0.019097766   0.01850008            9 
 3645000   0.67072803   -7.5205156    835.81777  0.019108774  0.018494625            6 
 3646000   0.69814086   -7.5041003    837.14869  0.019133952  0.018489186            9 
 3647000    0.6582651   -7.5424778     835.5727  0.019092695  0.018483755           15 
 3648000   0.68170527   -7.5241218    835.83673  0.019093493  0.018478319            7 
 3649000   0.67108881   -7.5407287    835.31846  0.019076424   0.01847288            6 
 3650000   0.66486331   -7.5313341    835.50129  0.019075372  0.018467452            7 
 3651000   0.66758829   -7.5184787     837.1436  0.019107633   0.01846203           15 
 3652000   0.66323706   -7.5193535    837.64675  0.019113882   0.01845661           16 
 3653000   0.65612613   -7.5426783    838.47956  0.019127648  0.018451193           11 
 3654000   0.66943014   -7.5480672    838.72639  0.019128042  0.018445781           25 
 3655000    0.6644551   -7.5254041    836.69626  0.019076522  0.018440371           14 
 3656000   0.66147539   -7.5414206     837.4979  0.019089576  0.018434966           21 
 3657000   0.67014316   -7.5633643    835.65693  0.019042406  0.018429548           19 
 3658000    0.6614223   -7.5328123     837.1227  0.019070592  0.018424127           32 
 3659000   0.67712112   -7.5341973    836.02152  0.019040301  0.018418706           29 
 3660000   0.65951943   -7.5689266    838.78787  0.019098084  0.018413288           13 
 3661000   0.67048069   -7.5384608    836.79091  0.019047412   0.01840787           21 
 3662000   0.65846714    -7.529874    836.60491  0.019037978  0.018402459            8 
 3663000   0.66559828    -7.525701    837.08458  0.019043693  0.018397053           13 
 3664000   0.67983996    -7.540523    838.34863  0.019067245  0.018391663           24 
 3665000   0.67815924   -7.5533081     836.2315  0.019013904  0.018386265           13 
 3666000   0.67012584   -7.5423694    835.82446  0.018999465  0.018380865           24 
 3667000   0.65362063   -7.5425348    837.78469   0.01903883  0.018375473           12 
 3668000   0.66398611   -7.5278316    838.05439  0.019039767  0.018370082           10 
 3669000   0.67775099   -7.5501719     837.5039  0.019022075    0.0183647           11 
 3670000   0.65916082   -7.5540294    835.95176  0.018981648  0.018359307            8 
 3671000   0.66046491   -7.5272569    838.32209  0.019030284  0.018353934           12 
 3672000   0.68291335   -7.5291119     838.6672  0.019032934  0.018348568            7 
 3673000    0.6656058   -7.5415926     838.3052  0.019019539    0.0183432           11 
 3674000   0.66922278   -7.5636401    837.45481  0.018995074  0.018337821           14 
 3675000   0.65910038   -7.5684362    838.08644  0.019004228  0.018332443           18 
 3676000   0.66576539    -7.514884    836.20966  0.018956512  0.018327075            5 
 3677000   0.65708832   -7.5457471    836.97492    0.0189687  0.018321705           14 
 3678000   0.65714959   -7.5367542    838.16356  0.018990474  0.018316348           18 
 3679000   0.66945506   -7.5319316    837.51019  0.018970513   0.01831099           21 
 3680000   0.65114128   -7.5263141    836.15062   0.01893457  0.018305622            8 
 3681000   0.65465291   -7.5443309    839.50483  0.019005361  0.018300257           10 
 3682000   0.66530279   -7.5304316    838.37107   0.01897454  0.018294889            4 
 3683000   0.66299682   -7.5375105    837.16516  0.018942102  0.018289515            9 
 3684000   0.65439094   -7.5680833    836.81434  0.018929025  0.018284152            9 
 3685000   0.66281072   -7.5609526    835.69005  0.018898463  0.018278758            8 
 3686000   0.66967102   -7.5427618    837.54543  0.018935283  0.018273357           12 
 3687000   0.65475161   -7.5506784    837.59505  0.018931269  0.018267962           10 
 3688000   0.67172585   -7.5487473    838.40055  0.018944336  0.018262575           13 
 3689000   0.65340147   -7.5626538    838.89714  0.018950419  0.018257192            9 
 3690000   0.65892748     -7.56763     838.7736  0.018942493  0.018251817           14 
 3691000   0.66648873   -7.5493672    836.32607  0.018882102  0.018246436           22 
 3692000   0.65545535   -7.5455564    836.83206  0.018888409  0.018241054            6 
 3693000   0.65256894    -7.528467    836.89812  0.018884785  0.018235688            9 
 3694000   0.64808384   -7.5497933    837.92407  0.018902817  0.018230325            7 
 3695000   0.65852656   -7.5730592    838.34978  0.018907302  0.018224958           14 
 3696000   0.67020273   -7.5597703    838.38372  0.018902952  0.018219575            8 
 3697000    0.6524085    -7.544907    836.50628   0.01885552  0.018214201            9 
 3698000   0.65477409   -7.5676186    837.10011  0.018863803   0.01820883           17 
 3699000   0.64818699   -7.5482284    836.81308  0.018852237  0.018203453           15 
 3700000   0.66847431   -7.5598201    837.36124  0.018859487  0.018198071           26 
 3701000   0.67345681   -7.5192197    837.82801  0.018864902  0.018192701            9 
 3702000   0.67197636   -7.5480721    836.44955  0.018828776  0.018187327            7 
 3703000   0.65999326   -7.5756694     839.0995  0.018883326  0.018181967            8 
 3704000   0.66672307   -7.5656595    837.90407  0.018851333  0.018176609            7 
 3705000   0.66538317   -7.5641529     838.2015  0.018852935  0.018171255            6 
 3706000   0.66897454   -7.5557804    838.50126  0.018854588  0.018165901           11 
 3707000   0.65758159   -7.5454067    838.02128  0.018838712  0.018160552           24 
 3708000   0.65791698   -7.5499621    839.80646  0.018873752  0.018155213            9 
 3709000   0.66997357   -7.5630202    837.99684  0.018828005  0.018149881           10 
 3710000   0.66295351   -7.5229606    837.36304  0.018808694  0.018144544           11 
 3711000    0.6551423    -7.561398    837.63727  0.018809783  0.018139195           13 
 3712000   0.65644625   -7.5255755    838.63493  0.018827113  0.018133848           15 
 3713000   0.65702594    -7.540889    838.71806  0.018823908  0.018128527           12 
 3714000   0.64440467   -7.5146079     838.1789  0.018806742  0.018123214           12 
 3715000   0.66438538   -7.5452972    839.68107  0.018835376    0.0181179           15 
 3716000   0.65983075   -7.5338123    839.23656  0.018820339  0.018112582           12 
 3717000   0.65055065   -7.5397979    838.89977  0.018807725  0.018107277            5 
 3718000   0.66152121    -7.533478     838.7406  0.018799099  0.018101962           12 
 3719000   0.65526888   -7.5423832    837.18854  0.018759266  0.018096645           14 
 3720000   0.65053363   -7.5230422    838.50403  0.018783692  0.018091333            8 
 3721000   0.65870409    -7.528998    838.75265  0.018784212  0.018086021           13 
 3722000   0.65876839    -7.559196    836.98754  0.018739646  0.018080697           14 
 3723000   0.63765607   -7.5358016    838.23436   0.01876252  0.018075379            7 
 3724000   0.66139308   -7.5428119     838.5116  0.018763686  0.018070065            8 
 3725000   0.66224071   -7.5723837    836.06607  0.018703939  0.018064741            8 
 3726000    0.6475035   -7.5810959    837.95554  0.018741178  0.018059389           24 
 3727000   0.67495242   -7.5518177    837.17459  0.018718688  0.018054048           18 
 3728000   0.65100656   -7.5598362    838.57352  0.018744937  0.018048697           16 
 3729000   0.66718884     -7.55267    838.29967  0.018733791  0.018043365           11 
 3730000   0.67003255   -7.5791359    839.01869  0.018744832  0.018038025            6 
 3731000   0.66262003    -7.571523     836.8147  0.018690581  0.018032679            6 
 3732000   0.64935507   -7.5523568    835.74389  0.018661662  0.018027335            8 
 3733000   0.65978178   -7.5605464    838.37198  0.018715331  0.018021994           13 
 3734000     0.653009    -7.565528    837.20259  0.018684221  0.018016654           16 
 3735000   0.66188383   -7.5579658     838.2637  0.018702894  0.018011314           20 
 3736000   0.64542657    -7.593944     836.9602  0.018668812  0.018005978           11 
 3737000   0.66250094   -7.5652512    836.43964  0.018652208  0.018000636           10 
 3738000   0.66814935   -7.5699939    836.21077  0.018642116  0.017995305            7 
 3739000   0.65893742   -7.5638227    838.28508  0.018683362  0.017989983            7 
 3740000   0.65448712   -7.5791148    837.63829  0.018663955  0.017984665            8 
 3741000   0.65099462    -7.582243    837.05663  0.018646009   0.01797934           15 
 3742000   0.64262353   -7.5678135    837.43031  0.018649348  0.017974022            3 
 3743000   0.66143091   -7.5873564    838.75001  0.018673747  0.017968698            7 
 3744000   0.66121597   -7.5879487    837.31284  0.018636771  0.017963363            4 
 3745000   0.65110414   -7.5758553    838.54284  0.018659164  0.017958039            7 
 3746000   0.65338889   -7.5522723    837.42948  0.018629415   0.01795273            4 
 3747000   0.65883018   -7.5780879     837.7797  0.018632233  0.017947414            6 
 3748000   0.67036882   -7.5802176    837.52353  0.018621566  0.017942104           15 
 3749000   0.63781487   -7.5996704    839.10996  0.018651862  0.017936793           18 
 3750000   0.66716503   -7.5584423    840.22112  0.018671581  0.017931485           19 
 3751000   0.64104911    -7.559346    839.29521  0.018646032  0.017926189            8 
 3752000   0.64030057   -7.5670683    839.32737  0.018641777  0.017920882            8 
 3753000   0.65344663    -7.581045    838.25003  0.018612888   0.01791558            7 
 3754000   0.65261783   -7.5823492    838.59169  0.018615514  0.017910286           11 
 3755000   0.64217681    -7.551576    839.14385  0.018622811  0.017905001            6 
 3756000   0.64435678   -7.5408565    840.51375  0.018648246  0.017899717           10 
 3757000   0.64712553   -7.5687764    838.73184  0.018603758  0.017894434           10 
 3758000   0.66280543   -7.5791191    838.12208  0.018585287  0.017889152           18 
 3759000    0.6449857   -7.5833035    838.43653  0.018587313  0.017883864            8 
 3760000    0.6510299     -7.55516    838.55336  0.018584959  0.017878558           10 
 3761000   0.64972317   -7.5780696    838.27686  0.018573891  0.017873259            5 
 3762000   0.65057767   -7.5769316     839.1785  0.018588926  0.017867951            8 
 3763000   0.65051783   -7.5770958    838.28367   0.01856417  0.017862655           10 
 3764000   0.64958048   -7.5629155    836.71677  0.018524548  0.017857361           17 
 3765000   0.65695881   -7.5933845    838.76672     0.018565  0.017852045            5 
 3766000   0.64749052   -7.5812277    837.83898  0.018539542  0.017846736           11 
 3767000   0.65586438   -7.5882398    836.60896   0.01850741  0.017841426            9 
 3768000      0.64567   -7.5822873    837.39885  0.018519967  0.017836125           21 
 3769000   0.65098005   -7.5879289    839.32066  0.018557545  0.017830808            9 
 3770000   0.65059508   -7.5806644    836.83837  0.018497753  0.017825484           11 
 3771000   0.63786193   -7.5752933    837.70452  0.018511989  0.017820187            8 
 3772000   0.65395316   -7.5931297    836.07926  0.018471175  0.017814887           17 
 3773000   0.64895452   -7.5945004    837.30891  0.018493438  0.017809584           13 
 3774000   0.64418789   -7.6062771    836.23556  0.018464838  0.017804271            6 
 3775000   0.64896213    -7.554985    837.68105  0.018491855  0.017798962           18 
 3776000   0.63741882   -7.5733036    837.18347  0.018475977  0.017793648           12 
 3777000   0.65380675   -7.5648404    837.09887  0.018469219  0.017788344            7 
 3778000   0.65322313   -7.5739327    837.35204  0.018469914   0.01778305           10 
 3779000   0.64574057   -7.5772217    837.95873  0.018478405  0.017777751           15 
 3780000   0.64703027   -7.5816898    836.81139  0.018448223  0.017772458           15 
 3781000   0.64608666   -7.5751702    838.23232  0.018474661  0.017767155           12 
 3782000   0.65226946   -7.6074446    837.91552  0.018462796  0.017761838           14 
 3783000   0.64753157   -7.5653832    838.03539  0.018460556  0.017756532            8 
 3784000   0.64160314    -7.599801    835.85694  0.018407702  0.017751225           12 
 3785000   0.63882419   -7.5935278    837.12487  0.018430754  0.017745915           17 
 3786000    0.6509877   -7.5905784    836.16893  0.018404845  0.017740611           17 
 3787000   0.64739932   -7.5834672     837.7175  0.018434062  0.017735304            8 
 3788000   0.64561614   -7.6053483    838.24181   0.01844073  0.017730008           11 
 3789000   0.64078009   -7.5819208    835.72242  0.018380453  0.017724708           32 
 3790000   0.64356683   -7.5672182       837.09  0.018405673  0.017719408           20 
 3791000   0.65472986   -7.5886538    837.59612  0.018411943  0.017714106           24 
 3792000   0.64346774   -7.6080831    836.94512  0.018392781  0.017708804            9 
 3793000   0.64560572   -7.6076998    836.61458   0.01838067  0.017703503           27 
 3794000   0.65013406   -7.5949932    838.92917  0.018426664  0.017698202            9 
 3795000    0.6311349   -7.6137925     837.6851   0.01839449  0.017692893            8 
 3796000    0.6332908   -7.6035306    837.01929  0.018375028  0.017687596            9 
 3797000   0.64728219   -7.6151359    838.75524  0.018408288  0.017682308            9 
 3798000   0.64617235   -7.6190882    836.86404  0.018361946  0.017677017            6 
 3799000   0.62600457   -7.5999454    837.14779  0.018363337  0.017671725           14 
 3800000   0.64609565   -7.5678005     836.8426  0.018351811  0.017666432           11 
 3801000   0.64930374   -7.5763881    836.21947  0.018333322  0.017661145            9 
 3802000   0.64317675   -7.5838643    837.77594  0.018362615  0.017655867           23 
 3803000   0.64796889   -7.6015464    836.86984  0.018337931  0.017650589           12 
 3804000   0.64403758   -7.5928254    837.87182  0.018355061  0.017645309           35 
 3805000   0.64810725   -7.6064779    837.46267  0.018341276  0.017640022           23 
 3806000   0.62970581   -7.5894319    838.04533  0.018349215  0.017634743           21 
 3807000   0.63293971   -7.5870022    837.76017  0.018338153  0.017629462           20 
 3808000   0.64997379   -7.5831998    836.52572  0.018306323  0.017624184           16 
 3809000   0.64196766   -7.5932694    837.17835  0.018315795  0.017618898           15 
 3810000   0.64289325   -7.5907487    837.49214  0.018317851  0.017613608           20 
 3811000   0.63553494   -7.5918494    837.27469  0.018308289  0.017608323           13 
 3812000   0.65185129   -7.6386057    834.75053  0.018248306  0.017603032           29 
 3813000    0.6423877   -7.5949656    836.16595  0.018274455  0.017597733           28 
 3814000   0.63408372   -7.6002028    837.37039   0.01829598  0.017592436           41 
 3815000   0.63480551   -7.6058451    836.43649  0.018270784  0.017587147           32 
 3816000   0.64183061   -7.5961835    836.89119  0.018275926  0.017581856           20 
 3817000   0.65152734   -7.5842691    837.61659  0.018286975  0.017576577           17 
 3818000   0.64700873    -7.611259    837.11559   0.01827125  0.017571316           21 
 3819000   0.64471451   -7.5928522     837.1874  0.018268033  0.017566034           21 
 3820000   0.63742726   -7.6159386     837.3763  0.018267371  0.017560775           21 
 3821000   0.64527739   -7.5804585    838.75425  0.018292643  0.017555527           18 
 3822000   0.64176117   -7.5969213    836.87345  0.018246848  0.017550281           31 
 3823000   0.64951114   -7.5790683    839.49784  0.018299281  0.017545041           13 
 3824000   0.65534778   -7.5948198    837.97455    0.0182613  0.017539802           12 
 3825000   0.63759682   -7.5996818    838.32129   0.01826408  0.017534565           22 
 3826000   0.65696993   -7.6147686    839.55981  0.018286283  0.017529321           12 
 3827000   0.64026005   -7.5983349    837.65335  0.018239991  0.017524078           12 
 3828000   0.64394476   -7.5752839    838.22728   0.01824772  0.017518836           17 
 3829000   0.64758489   -7.5816606    837.28554  0.018222459  0.017513598           13 
 3830000    0.6280977   -7.5874305    836.87503  0.018208769  0.017508359           10 
 3831000   0.63643538   -7.5897802    836.77546   0.01820185  0.017503115           17 
 3832000   0.64351638   -7.5839348    838.46431  0.018233827  0.017497855           34 
 3833000   0.64566283   -7.5718586    837.07311  0.018198824  0.017492599           31 
 3834000   0.65132483   -7.5852445    838.48715  0.018224812  0.017487349           30 
 3835000   0.65297308   -7.6024339    835.52389  0.018155669   0.01748209           16 
 3836000   0.63264298   -7.6082846      836.983  0.018182634  0.017476825           49 
 3837000     0.646372   -7.6286022    838.60278  0.018213074  0.017471572           16 
 3838000   0.63298759    -7.607526    836.67137  0.018166392  0.017466319           30 
 3839000   0.64126703   -7.6191814     837.7991   0.01818614  0.017461068           14 
 3840000   0.63444113   -7.5993098    837.53522  0.018175677  0.017455836           15 
 3841000   0.61754235    -7.622986    837.58618  0.018172051  0.017450598           16 
 3842000   0.63972081   -7.5878722    837.86263  0.018173318  0.017445353           19 
 3843000   0.65597404   -7.6155805    836.99741  0.018149827  0.017440118           13 
 3844000    0.6375869   -7.5932703    837.66536  0.018159585  0.017434884           20 
 3845000   0.65007666   -7.6076381    837.81686  0.018158146  0.017429641           17 
 3846000   0.63624954   -7.6174786    838.90654  0.018177035  0.017424393           16 
 3847000   0.63520816   -7.5952594    836.74962  0.018125588  0.017419131           18 
 3848000    0.6336419   -7.6197514    837.72252  0.018141946  0.017413868           12 
 3849000   0.63129886   -7.6233418    836.45274  0.018109742  0.017408614           24 
 3850000   0.62786928   -7.6097863    835.53172  0.018085102  0.017403372            8 
 3851000   0.64205927   -7.6302637    837.04022  0.018113049  0.017398128           11 
 3852000   0.65402391   -7.5808079    837.18934  0.018111573  0.017392899            7 
 3853000   0.63811416   -7.6272523     838.7675  0.018141005  0.017387668           10 
 3854000   0.62203754   -7.6253094    838.08783  0.018121601  0.017382425           26 
 3855000   0.62319051   -7.6011273    837.71806  0.018108908  0.017377194           11 
 3856000   0.61812673   -7.6208279    838.62137  0.018123733  0.017371961           12 
 3857000   0.63404082   -7.6370591    837.74724  0.018100148  0.017366734            9 
 3858000    0.6322282   -7.5840833    838.25684  0.018106464  0.017361514            9 
 3859000   0.63542286   -7.6096155    838.76664  0.018112781  0.017356312            9 
 3860000   0.62823031   -7.5913577    838.18073  0.018095439  0.017351111           11 
 3861000   0.63528566   -7.6007203    836.08168  0.018045448  0.017345907           10 
 3862000   0.62366751   -7.6003718    838.44769  0.018091828  0.017340693            6 
 3863000   0.62861229   -7.6232814    837.61045  0.018069084  0.017335472            7 
 3864000   0.62548887   -7.6072735    836.84167  0.018047828  0.017330239            5 
 3865000    0.6265672    -7.600516    836.80939  0.018042462  0.017325008            6 
 3866000   0.64385648   -7.6179631     837.1733  0.018045639   0.01731978            8 
 3867000   0.63322423   -7.5977541    837.44694   0.01804687   0.01731454            8 
 3868000   0.64368413   -7.6204655    837.45608  0.018042401  0.017309301            7 
 3869000   0.63374543   -7.6083149    836.38574  0.018014684  0.017304068           10 
 3870000   0.62488865   -7.6111584    837.19927  0.018027547   0.01729883           10 
 3871000   0.63075534   -7.6072653    835.79177   0.01799259  0.017293591            4 
 3872000    0.6284793   -7.6381977    836.16836  0.017996048  0.017288364            5 
 3873000    0.6586617   -7.6110435    836.54783  0.017999566  0.017283142            8 
 3874000   0.63730444   -7.6098209    838.01826   0.01802655  0.017277927            7 
 3875000    0.6412485   -7.6261447    839.04245  0.018043924  0.017272714            5 
 3876000    0.6343601   -7.6091469    836.88766  0.017992941  0.017267504           10 
 3877000   0.64928026    -7.600876    836.75724  0.017985496  0.017262294           13 
 3878000   0.63153928   -7.6065463    836.43466  0.017973927  0.017257073           12 
 3879000   0.62536258   -7.6245724    836.50764  0.017970861  0.017251853           10 
 3880000   0.64382926   -7.6211884    837.24814  0.017982134  0.017246628           10 
 3881000   0.63736888   -7.6365105    836.96196  0.017971355  0.017241415           10 
 3882000   0.61717349   -7.6127433     836.3314   0.01795319  0.017236207            8 
 3883000   0.62181094   -7.6214816    836.96815  0.017962232     0.017231            6 
 3884000   0.62563094   -7.6326074    836.66489  0.017951101  0.017225788           11 
 3885000   0.63348315   -7.6291531    837.67217  0.017968086   0.01722059           10 
 3886000   0.64708611   -7.6528945    836.80091  0.017944778  0.017215385           18 
 3887000   0.63700392   -7.6094286    836.43646  0.017932348  0.017210187           16 
 3888000   0.62505361   -7.5830934    837.32188  0.017946714  0.017204977           21 
 3889000     0.627644   -7.6211229    837.58868  0.017947816  0.017199782           24 
 3890000   0.63802865   -7.6313497    836.57861  0.017921564  0.017194576           22 
 3891000   0.62220322    -7.631405    837.16092   0.01792943  0.017189369           30 
 3892000   0.63332378    -7.639956    834.98205   0.01787817   0.01718416           10 
 3893000   0.63207915   -7.6414778    836.52254  0.017906553  0.017178963           19 
 3894000   0.62829558   -7.6129954    837.24308  0.017917375  0.017173768           31 
 3895000   0.61328545   -7.6290121    837.24487  0.017912813   0.01716858           19 
 3896000   0.62759896   -7.6310406    837.79485  0.017919979  0.017163389           23 
 3897000   0.61458767   -7.6197286    835.73863   0.01787141   0.01715819           27 
 3898000   0.62014812   -7.6224449    836.47421  0.017882551  0.017152997           13 
 3899000   0.62448917   -7.6388409     837.1389  0.017892171  0.017147805           13 
 3900000   0.63426392   -7.6000441    836.40614  0.017871926  0.017142627           24 
 3901000   0.61783783   -7.6315474    838.22592  0.017906219  0.017137454           14 
 3902000   0.62192382    -7.650999    839.27757   0.01792409  0.017132276           31 
 3903000   0.64046136    -7.600415     837.3816  0.017879016  0.017127102           17 
 3904000   0.62760042   -7.6442292    837.37701  0.017874338  0.017121928           42 
 3905000   0.62291665   -7.6235022    837.73902  0.017877487  0.017116753           12 
 3906000   0.64186628   -7.6450325    837.50331  0.017867881  0.017111587           14 
 3907000   0.62990494   -7.6182661    837.76062  0.017868796  0.017106424           13 
 3908000   0.62640514   -7.6420663    839.27089  0.017896428  0.017101257           18 
 3909000   0.63526497   -7.6205582    837.86096  0.017861793  0.017096085           15 
 3910000   0.61659022   -7.5854661     839.4028  0.017890085  0.017090936           23 
 3911000   0.62905688   -7.6158118    839.93752  0.017896904  0.017085789           20 
 3912000   0.62706509   -7.5975183    838.05198  0.017852164  0.017080645           16 
 3913000   0.64731144   -7.6245057    838.02081  0.017846938  0.017075498           17 
 3914000   0.64066666   -7.6132345    839.28593  0.017869314  0.017070352           20 
 3915000   0.61854589   -7.6470732     837.2797  0.017822046  0.017065187           12 
 3916000   0.63761491   -7.6272747    836.34643  0.017797634  0.017060024           10 
 3917000   0.60359458   -7.6378381    837.23843  0.017812068  0.017054854           15 
 3918000   0.62430664   -7.6164474    836.53839  0.017792632  0.017049691           19 
 3919000   0.61964451    -7.610946    835.95226  0.017775629   0.01704453           14 
 3920000   0.62122775   -7.6447484    836.53089  0.017783395  0.017039365           12 
 3921000   0.62882534   -7.6156818    837.56268  0.017800788  0.017034206           13 
 3922000   0.61301015   -7.6189605     836.4353  0.017772295  0.017029051           17 
 3923000   0.63399045   -7.5979481    838.81707  0.017818359  0.017023901           14 
 3924000   0.62476661   -7.6145563    837.61838  0.017788362   0.01701876            6 
 3925000   0.63215961   -7.6456901    838.34893   0.01779934  0.017013614           10 
 3926000   0.61633574   -7.6228214    837.01306  0.017766451  0.017008459           17 
 3927000   0.62802172   -7.6441138    836.97643   0.01776115  0.017003313           16 
 3928000   0.61278925   -7.6387097    837.64804  0.017770877  0.016998169           19 
 3929000   0.62202016   -7.6384459    837.48757   0.01776295  0.016993021           21 
 3930000   0.62722609   -7.6135801    837.40788   0.01775674  0.016987878           21 
 3931000   0.60743054   -7.6371097     836.6495  0.017736147  0.016982733           15 
 3932000    0.6300356   -7.6415027    834.89553  0.017694463  0.016977591           13 
 3933000   0.63787807   -7.6455971    836.77077  0.017729697  0.016972449           17 
 3934000   0.63529425   -7.6398311    836.88744  0.017727661  0.016967306           13 
 3935000   0.63073148   -7.6470643    837.81449  0.017742789  0.016962152           19 
 3936000   0.61890519   -7.6236858    836.69703  0.017714622  0.016957009           13 
 3937000   0.61376751   -7.6495602    837.69239  0.017731191  0.016951872           16 
 3938000   0.60025768   -7.6427729    838.28048  0.017739133  0.016946739           10 
 3939000   0.62531579   -7.6304899    837.55021   0.01771918   0.01694161           12 
 3940000   0.61675859   -7.6169079    838.22205  0.017728893  0.016936479           19 
 3941000   0.61302384   -7.6317534    837.43738  0.017707802  0.016931344           11 
 3942000   0.63320101   -7.6387757    837.35465  0.017701561  0.016926208           11 
 3943000   0.62173309   -7.6398599    837.85468   0.01770764  0.016921074           25 
 3944000   0.62823157   -7.6528047    838.72744  0.017721591  0.016915941           14 
 3945000   0.61204498   -7.6457037    837.46602  0.017690452  0.016910807           17 
 3946000   0.60945109   -7.6319458    835.21915  0.017638519   0.01690567           12 
 3947000   0.62834286   -7.6385569    836.77365   0.01766687  0.016900546            8 
 3948000   0.60374339   -7.6267304    836.91934  0.017665471  0.016895419            9 
 3949000   0.62148469   -7.6421899    837.54888  0.017674282  0.016890294           23 
 3950000   0.61870136   -7.6168338    837.58343  0.017670537  0.016885173           13 
 3951000   0.61897006   -7.6320983     836.5359   0.01764397  0.016880059           11 
 3952000   0.62180935   -7.6363923    837.09243  0.017651241  0.016874937            8 
 3953000   0.61644589   -7.6292893    836.80099  0.017640631  0.016869822           17 
 3954000   0.61843099   -7.6341306    836.50943  0.017630025  0.016864707            6 
 3955000    0.6121593   -7.6371419    837.81898   0.01765316  0.016859589           13 
 3956000   0.61113737   -7.6408378    838.17833  0.017656267   0.01685448           14 
 3957000   0.62326728   -7.6545735    838.75605  0.017663972  0.016849369           12 
 3958000   0.61418319   -7.6223606    838.00698  0.017643738  0.016844263           11 
 3959000   0.60924441   -7.6393595    838.43225  0.017648233  0.016839153           16 
 3960000   0.61864878   -7.6497977    836.32009  0.017599328  0.016834038           16 
 3961000   0.62029115   -7.6614328    836.66764  0.017602197  0.016828922           15 
 3962000   0.61185634   -7.6363123    838.49379  0.017636164  0.016823807           22 
 3963000   0.61535939   -7.6346201     836.0319  0.017579946  0.016818695           22 
 3964000   0.62833738   -7.6229788    838.28185   0.01762281  0.016813582           18 
 3965000   0.62342258   -7.6381174    836.75439  0.017586263  0.016808472           17 
 3966000   0.60921194   -7.6523248    835.92673  0.017564438   0.01680337           11 
 3967000   0.61113653   -7.6439444    835.94059  0.017560301  0.016798246           24 
 3968000   0.61827536   -7.6552854    837.91524  0.017597346  0.016793137           17 
 3969000   0.60714945   -7.6657894    835.72811  0.017546992  0.016788032           21 
 3970000   0.62288852   -7.6512608    836.24529  0.017553428  0.016782928           17 
 3971000   0.61825084   -7.6736387     837.0172  0.017565206  0.016777826           17 
 3972000   0.61229801   -7.6437636    837.48179  0.017570531  0.016772713           11 
 3973000   0.62315082   -7.6523424    836.92877  0.017554509  0.016767615           15 
 3974000   0.61543491   -7.6605497    836.11676  0.017533064  0.016762513           13 
 3975000   0.60298466   -7.6631102    838.33179   0.01757509  0.016757413            9 
 3976000   0.62248457    -7.634518    838.23649  0.017568672  0.016752312           12 
 3977000   0.61006615    -7.667766    837.51561  0.017549149  0.016747206           11 
 3978000   0.62212304   -7.6632965    835.32407  0.017498828  0.016742104           17 
 3979000   0.62256629   -7.6804265    836.57766  0.017520685  0.016736996           13 
 3980000    0.6218158   -7.6708822    837.35411   0.01753254  0.016731885           14 
 3981000   0.61590042   -7.6629486     837.2398  0.017525743  0.016726777            9 
 3982000   0.60483687   -7.6756762    834.96357  0.017473706  0.016721669           16 
 3983000   0.62264686   -7.6503282    836.34022  0.017498122   0.01671656           10 
 3984000   0.60825786   -7.6739681    835.94606  0.017485485  0.016711455           13 
 3985000   0.63226152   -7.6701097    837.51903  0.017513991  0.016706354            8 
 3986000   0.61039509   -7.6479009    835.21119  0.017461348  0.016701259           17 
 3987000   0.60839808   -7.6493356     835.8007   0.01746929  0.016696161           17 
 3988000   0.61194843   -7.6719067     837.0337  0.017490674   0.01669107           14 
 3989000   0.60783129   -7.6603557    838.30313  0.017512809  0.016685967           10 
 3990000    0.6069644   -7.6649934    836.11255  0.017462668  0.016680867            8 
 3991000   0.61971942   -7.6851637    837.24782  0.017481997  0.016675771           12 
 3992000   0.61666184     -7.66188    836.98416  0.017472114  0.016670672           10 
 3993000   0.61338329   -7.6840118    837.00252  0.017468122  0.016665581           12 
 3994000   0.61327882   -7.6394583    835.76283  0.017437882  0.016660486           16 
 3995000   0.61337488   -7.6596568    836.98231  0.017458955  0.016655401           11 
 3996000   0.60149988   -7.6834219    836.96731  0.017454273  0.016650312           16 
 3997000   0.61139714   -7.6631883    836.23652   0.01743467  0.016645229           22 
 3998000   0.60570556   -7.6652128     836.6999  0.017439968  0.016640144           20 
 3999000   0.62426909    -7.645863    835.99142  0.017420843  0.016635075           15 
 4000000   0.62287227   -7.6633156    835.62712  0.017408898  0.016630007           14 
 4001000   0.60529542   -7.6703668    836.47266  0.017422158  0.016624945           14 
 4002000   0.59933662   -7.6603445    836.15779  0.017411248  0.016619877           13 
 4003000   0.60197536   -7.6646006    836.87368  0.017421802  0.016614813            9 
 4004000   0.61209013   -7.6657664    837.16887  0.017423595  0.016609741            8 
 4005000   0.58777413   -7.6752461    836.11948  0.017397409  0.016604674           10 
 4006000   0.61439409   -7.6669922    837.89953  0.017430095  0.016599604            9 
 4007000   0.61188186   -7.6827876    836.89642  0.017404884  0.016594545           15 
 4008000   0.61225618    -7.649184    835.63214  0.017374254  0.016589481           17 
 4009000   0.61398182   -7.6841186    835.39498  0.017364991  0.016584413           21 
 4010000   0.60900688   -7.6748437    836.10001  0.017375312  0.016579346            8 
 4011000   0.59982474   -7.6673445    837.53252  0.017400742  0.016574288           16 
 4012000   0.59896322   -7.6573428    837.49988  0.017395727  0.016569237            7 
 4013000   0.60539288   -7.6791523    836.37656  0.017368066  0.016564176            8 
 4014000   0.60384413   -7.6644803    836.20884  0.017360257  0.016559124            9 
 4015000   0.59727292   -7.6659132    836.34862  0.017358834   0.01655407            8 
 4016000   0.60835838   -7.6574217    837.64684   0.01738145  0.016549021            8 
 4017000   0.59624159    -7.664627    836.67198    0.0173569  0.016543965            7 
 4018000   0.60536193   -7.6530213    836.64492  0.017352019  0.016538916            9 
 4019000   0.60508116   -7.6723726    835.89755  0.017332204  0.016533863           12 
 4020000   0.61316469   -7.6528143    835.49574  0.017319563  0.016528823            9 
 4021000   0.62217266   -7.6444698    836.77082  0.017341682  0.016523786            8 
 4022000   0.61031445   -7.6592219    836.74039  0.017336739   0.01651875           19 
 4023000   0.61248815   -7.6484531    835.98155  0.017316711  0.016513718            8 
 4024000   0.60915164   -7.6638713    837.48392  0.017343521   0.01650868            8 
 4025000   0.60788259   -7.6756198    837.58403  0.017341284  0.016503626            6 
 4026000   0.61152052   -7.6834083    835.41894  0.017292162  0.016498571           13 
 4027000    0.6062234   -7.6633274    837.88116   0.01733882  0.016493515           17 
 4028000   0.60689056   -7.6769764    836.17923  0.017299306  0.016488465            8 
 4029000   0.60964281   -7.6833686    837.26547  0.017317479  0.016483425            8 
 4030000   0.60803696   -7.6837699    836.26039  0.017292398  0.016478382           16 
 4031000   0.59949829   -7.6654215    836.58144  0.017294746  0.016473342           12 
 4032000   0.61026546    -7.677895     835.8774  0.017275905  0.016468301           16 
 4033000   0.61040713   -7.6632463    836.69277   0.01728847  0.016463281            7 
 4034000   0.60104823    -7.662082    837.38872  0.017298561   0.01645825           13 
 4035000   0.61340188   -7.6611248    836.82533  0.017282638  0.016453215           11 
 4036000     0.608922    -7.673816    836.26968  0.017266883  0.016448183           15 
 4037000   0.59951453   -7.6711531    835.98313  0.017256691  0.016443161           11 
 4038000   0.59799915   -7.6678074    836.25894  0.017258109  0.016438139           13 
 4039000   0.59443187   -7.6781533    835.74985  0.017243333  0.016433106           16 
 4040000   0.60022258   -7.6568718    835.57646  0.017235488   0.01642808           14 
 4041000    0.6152769   -7.6744745    835.89301  0.017237751  0.016423066            6 
 4042000    0.6179825   -7.6923952    835.95247  0.017234712  0.016418037           14 
 4043000   0.60505773   -7.6591951     835.2612  0.017216201  0.016413009           13 
 4044000    0.5987612   -7.6802862    837.26967  0.017253332  0.016407985           39 
 4045000   0.61035602   -7.6671721     836.3726  0.017230585  0.016402972           23 
 4046000   0.60538487   -7.6749185    836.08151  0.017220331  0.016397951           12 
 4047000   0.60584384   -7.6678327    837.03046  0.017235616  0.016392937           12 
 4048000   0.59312409   -7.6668153    835.66056  0.017203157  0.016387926           10 
 4049000   0.59471636   -7.6673176    836.90291  0.017224478  0.016382915           11 
 4050000   0.61101414   -7.6912861    835.25003  0.017186215  0.016377901           11 
 4051000   0.60555082   -7.6866636    835.59078  0.017188982  0.016372887           24 
 4052000   0.60081084   -7.6796828    835.92995  0.017191715  0.016367871           13 
 4053000    0.6068776   -7.6688741    836.00236  0.017188962  0.016362861            9 
 4054000   0.60705381   -7.6803061    836.48334  0.017194609  0.016357841           25 
 4055000   0.59937805   -7.6760342    833.71092  0.017133393  0.016352817           14 
 4056000   0.59178348   -7.6895906    836.85827  0.017193834    0.0163478           25 
 4057000   0.60969108   -7.6678863      836.107  0.017174164  0.016342783           17 
 4058000     0.603555   -7.6730116     835.1283  0.017149834  0.016337754           17 
 4059000   0.60655679   -7.6808468    835.14234  0.017145897  0.016332726           22 
 4060000    0.6121408   -7.6647161    835.40578  0.017147081  0.016327699           15 
 4061000   0.58805781   -7.6991844    836.08435  0.017156783  0.016322678           11 
 4062000   0.60359364   -7.7010909    836.03268  0.017151499  0.016317654           13 
 4063000   0.59833699   -7.7037438    834.77025  0.017121385  0.016312623           14 
 4064000   0.60347984   -7.6754468    834.48215  0.017111265  0.016307585           16 
 4065000    0.6105597    -7.687688    835.29905  0.017123802  0.016302562           14 
 4066000   0.60026235   -7.6943426    835.20131  0.017117587  0.016297536           15 
 4067000   0.57234823   -7.6862526    835.22999  0.017113966  0.016292506           28 
 4068000   0.60480102   -7.6898074    835.87164  0.017122903  0.016287476           17 
 4069000   0.60488755   -7.7077349    834.51826  0.017090978  0.016282453           21 
 4070000   0.60719678   -7.6927851    835.42873   0.01710542  0.016277432           14 
 4071000   0.60976864   -7.6855012    833.73863  0.017066622  0.016272412           14 
 4072000    0.5998605    -7.676575    836.15878  0.017111959  0.016267392           12 
 4073000   0.59513981   -7.6950741    836.14384  0.017107452  0.016262372           28 
 4074000   0.58716157   -7.7015824    835.56772  0.017091469  0.016257362            9 
 4075000   0.58956473   -7.7008886    835.49218   0.01708573  0.016252358            6 
 4076000   0.60989451   -7.6865972    835.58905  0.017083518  0.016247355           14 
 4077000   0.61252057   -7.6775265    835.69442  0.017081482  0.016242357            9 
 4078000   0.59336945   -7.6896272    836.56402  0.017095063  0.016237348           13 
 4079000   0.59530573   -7.6767578    835.11337  0.017061236  0.016232338           13 
 4080000   0.60458611   -7.6904266     834.0646  0.017035633  0.016227337           36 
 4081000   0.60351171   -7.6914255    834.88792  0.017048271  0.016222332           12 
 4082000   0.59874492   -7.7001681     836.8856  0.017084877  0.016217333           14 
 4083000   0.59102879   -7.7009223     836.3304  0.017069361  0.016212337           21 
 4084000   0.60171789   -7.6842279    835.92014   0.01705681  0.016207346           18 
 4085000   0.58641076   -7.6817182    836.06803  0.017055651  0.016202361            9 
 4086000   0.59789639   -7.6913352    836.18348  0.017053832  0.016197364           14 
 4087000   0.59605758   -7.6672524    834.80582  0.017021569  0.016192377           13 
 4088000   0.59990354   -7.7040488    835.17423  0.017024915   0.01618739           17 
 4089000   0.59057367   -7.6995112    836.03254  0.017038244  0.016182391           24 
 4090000   0.59011073   -7.7000512    833.32277  0.016978867  0.016177395           10 
 4091000   0.59382141   -7.6886268    833.27105  0.016973663  0.016172407           10 
 4092000   0.59720399   -7.6813274     836.0902  0.017026927  0.016167423            9 
 4093000   0.61036488   -7.6776575    836.28859  0.017026806  0.016162438           18 
 4094000   0.59003013   -7.6857538    834.05949  0.016977273  0.016157462           11 
 4095000   0.59208034   -7.6857946    835.45009  0.017001426  0.016152484           16 
 4096000   0.59359262   -7.7009668    834.52628  0.016978481  0.016147503           23 
 4097000   0.58869715    -7.699314    835.83493  0.017000955  0.016142518           11 
 4098000   0.60292128   -7.6967749      835.468  0.016989344  0.016137531           13 
 4099000    0.5961773   -7.6999428    833.58456  0.016946909  0.016132539           26 
 4100000    0.5955846   -7.7081651    834.89942    0.0169695  0.016127555           15 
 4101000   0.59142582   -7.6803666    834.93295  0.016966044  0.016122568           19 
 4102000   0.59532162    -7.710978     835.1085  0.016965474  0.016117577           22 
 4103000   0.58313303   -7.7142936    836.09282  0.016981331  0.016112594           16 
 4104000   0.59120483   -7.6879557    834.78335  0.016950604  0.016107606           20 
 4105000   0.58983944   -7.7013741    835.30912  0.016957148  0.016102621           29 
 4106000   0.59043234   -7.6992339    834.98332  0.016946406  0.016097641           20 
 4107000   0.59199887   -7.7022938    835.88525  0.016960581  0.016092662           22 
 4108000   0.59755208   -7.7088782    832.88462  0.016895582  0.016087682           26 
 4109000   0.59797207   -7.7084579    835.69978  0.016948564  0.016082712           10 
 4110000   0.58472291    -7.695531    834.94766   0.01692919  0.016077735           10 
 4111000    0.5995593   -7.7078423    834.98269  0.016925782  0.016072753           31 
 4112000   0.59254509   -7.7039553    833.87486  0.016899215  0.016067769           18 
 4113000   0.59278727   -7.7065408    833.94195  0.016896465  0.016062792           10 
 4114000   0.58657788   -7.7023724     834.4953  0.016903567  0.016057815           15 
 4115000   0.55829871   -7.7103871    834.50782  0.016899713  0.016052842           19 
 4116000   0.58639224    -7.695114    835.91948  0.016924188  0.016047865           13 
 4117000   0.59106649   -7.7063525    835.74246  0.016916494  0.016042893           13 
 4118000   0.60358253   -7.6986583    835.80075  0.016913565  0.016037918           16 
 4119000   0.59272131   -7.7147412    833.24428  0.016857738  0.016032938           13 
 4120000   0.58658721   -7.7143932    834.58851  0.016880836  0.016027968           12 
 4121000   0.58038039   -7.6953072    835.29613  0.016891049  0.016022998           30 
 4122000   0.60744564   -7.6998211    835.39053  0.016888859  0.016018029           24 
 4123000   0.59859973   -7.7251145    835.23048  0.016881528  0.016013062           20 
 4124000   0.58328531   -7.7295866    834.92111  0.016871183  0.016008091           15 
 4125000   0.60077725   -7.7187667     834.3711  0.016855982  0.016003121           19 
 4126000   0.58460796   -7.7106808    833.51681  0.016834642  0.015998149           25 
 4127000   0.60611261   -7.7129858    834.17406  0.016843834  0.015993173           30 
 4128000   0.59765645   -7.7188403    834.52391  0.016846817  0.015988199           31 
 4129000   0.60307082   -7.7233558    833.33493   0.01681874  0.015983229           45 
 4130000   0.59311118   -7.7247972    833.66103  0.016821247  0.015978264           30 
 4131000   0.59083297   -7.7270031    834.05258  0.016825074    0.0159733           32 
 4132000   0.59529278   -7.7298217    834.36069  0.016827216  0.015968335           28 
 4133000   0.58174694   -7.7164193    833.78467  0.016811531  0.015963368           31 
 4134000   0.58748167   -7.7263348    833.83375  0.016808453  0.015958408           20 
 4135000    0.5900294   -7.7215891    834.06788  0.016809107   0.01595345           26 
 4136000    0.5778316   -7.7283704    834.43109  0.016812361  0.015948495           19 
 4137000   0.57710541   -7.7030566    835.06786  0.016821124  0.015943545           32 
 4138000   0.59886339   -7.7017687    833.73095  0.016790135    0.0159386           53 
 4139000   0.58445465   -7.6981545    834.23529  0.016796233   0.01593365           30 
 4140000   0.59030634   -7.7072351    834.23255  0.016792121   0.01592871           27 
 4141000   0.59219579   -7.7080558    834.86301  0.016800753  0.015923766           26 
 4142000     0.580755   -7.7053392    832.96998  0.016758611   0.01591883           27 
 4143000   0.59684564   -7.7394362    834.50203  0.016785382  0.015913886           45 
 4144000   0.59607051   -7.7400438    834.45282  0.016780342  0.015908952           24 
 4145000   0.58313933     -7.73306    834.69685  0.016781199  0.015904014           22 
 4146000   0.58963509   -7.7393827    834.46234  0.016772438  0.015899067           23 
 4147000   0.58763948   -7.7242781    832.27254   0.01672439  0.015894131           16 
 4148000   0.59170745   -7.7109495    832.60929  0.016727123  0.015889188           18 
 4149000   0.58814935   -7.7183165     833.4315  0.016739606  0.015884244           24 
 4150000   0.58162107   -7.7328878    834.93311  0.016765725  0.015879308           20 
 4151000    0.5986129   -7.7239243    833.21584  0.016727211  0.015874368           31 
 4152000   0.59170159    -7.689812     833.5152  0.016729191  0.015869431           29 
 4153000   0.57598599   -7.7081976    833.93327  0.016733551  0.015864505           28 
 4154000   0.57640716   -7.7236777    834.35634   0.01673801   0.01585957           31 
 4155000   0.58823794   -7.7313928    833.68978  0.016720613  0.015854643           23 
 4156000   0.59535376   -7.7385305     833.5925  0.016714639  0.015849716           24 
 4157000   0.57232506   -7.7411332    833.14178  0.016701583  0.015844785           29 
 4158000   0.59178822   -7.7402574    832.57637  0.016686235  0.015839861           18 
 4159000   0.58148654   -7.7113643    834.65987  0.016723969   0.01583494           18 
 4160000   0.58150488   -7.7251511    833.63125  0.016699344  0.015830026           28 
 4161000   0.60175238   -7.7169944     834.0705  0.016704128  0.015825118           12 
 4162000   0.59065707   -7.7100696    833.72856  0.016693268    0.0158202           15 
 4163000   0.58572134   -7.7051294    834.73484  0.016709401  0.015815286           14 
 4164000    0.5950546   -7.7329319    834.19693  0.016694623  0.015810366           25 
 4165000   0.58301854    -7.731934    833.36141  0.016673898  0.015805454           24 
 4166000    0.5849067   -7.7171013    833.36307  0.016669929  0.015800531           21 
 4167000   0.58949765   -7.7141123    833.51639  0.016668994   0.01579562           16 
 4168000   0.57992474    -7.735677    834.90114  0.016692681   0.01579071           12 
 4169000   0.57825756   -7.7249965    834.42796  0.016679219  0.015785809           13 
 4170000   0.59260523   -7.7101266    833.30287  0.016652735   0.01578091           18 
 4171000   0.57583148   -7.7305008    834.38112  0.016670285  0.015776007           21 
 4172000   0.58721325   -7.7268913    834.27322  0.016664134  0.015771112           19 
 4173000   0.58548357   -7.7135828    834.91964   0.01667305  0.015766214           45 
 4174000   0.58658616    -7.696801    834.40928  0.016658866   0.01576132           18 
 4175000   0.58221415   -7.7274671    833.91057  0.016644922  0.015756429           30 
 4176000   0.57426979   -7.7227346    832.76615  0.016618098  0.015751531           14 
 4177000    0.5792175   -7.7246556    832.45008  0.016607814  0.015746636           20 
 4178000   0.56404651   -7.7268215    833.88925  0.016632545  0.015741741           21 
 4179000   0.59178176   -7.7452912    833.20496  0.016614919  0.015736843           16 
 4180000   0.58401315   -7.7442065    833.83925  0.016623589  0.015731948           19 
 4181000   0.59345041   -7.7226838    831.99516  0.016582858  0.015727055           21 
 4182000   0.56606072   -7.7344627    833.29957  0.016604885   0.01572216           29 
 4183000   0.57522532   -7.7392853    833.20451  0.016599022  0.015717269           21 
 4184000    0.5724101   -7.7213542    832.50443  0.016581111  0.015712376           20 
 4185000   0.59097455   -7.7056064    833.47359  0.016596447  0.015707485           29 
 4186000   0.57603475   -7.7258032    833.66729  0.016596339  0.015702599           36 
 4187000   0.59927233   -7.7499127    832.71546  0.016573431  0.015697715           31 
 4188000   0.57666723   -7.7183294    832.91826  0.016573509  0.015692831           26 
 4189000   0.57792139    -7.748721    833.09387  0.016573046  0.015687948           30 
 4190000   0.58853775   -7.7050113    833.34077  0.016574001  0.015683068           33 
 4191000   0.57357073   -7.7311502    832.48835  0.016553097  0.015678185           25 
 4192000   0.58436508   -7.7199275    833.94977    0.0165782  0.015673312           18 
 4193000   0.58165578   -7.7168328    834.05051  0.016576248  0.015668436           26 
 4194000   0.57736759   -7.7279902    833.05318  0.016552479  0.015663569           36 
 4195000   0.57420403   -7.7136371    833.73048  0.016561988  0.015658699           26 
 4196000   0.57561391   -7.7294986    832.17106  0.016527071  0.015653828           24 
 4197000   0.57500895   -7.7218878    834.50672  0.016569508  0.015648958           19 
 4198000   0.57022321   -7.7239687     834.3497  0.016562444  0.015644095           21 
 4199000    0.5790131   -7.7105358    833.75199  0.016546638  0.015639239           23 
 4200000   0.58641841   -7.7476477    833.80236  0.016543698  0.015634378           15 
 4201000   0.57873451   -7.7383744    833.74318  0.016538586  0.015629513           14 
 4202000   0.57908683   -7.7424593    833.59013  0.016531614  0.015624653           16 
 4203000   0.58588866   -7.7236283    833.46024  0.016525106  0.015619787           16 
 4204000   0.58740227   -7.7235756    833.60664  0.016524077  0.015614929           28 
 4205000   0.57871932   -7.7098819    833.44378   0.01651692  0.015610072           28 
 4206000   0.58237239   -7.7264264    833.87325  0.016521502  0.015605216           17 
 4207000   0.58639403   -7.7221609    833.24488  0.016505128  0.015600368           24 
 4208000   0.58275554   -7.7222806    834.57809  0.016527608  0.015595517           19 
 4209000   0.58592526   -7.7369014    833.70246  0.016506345  0.015590663           13 
 4210000   0.58040083   -7.7355677    833.08177  0.016490138  0.015585816           14 
 4211000   0.58176785   -7.7246532    833.88678  0.016502153  0.015580969           55 
 4212000   0.56994247   -7.7171272    835.17831  0.016523787  0.015576113           46 
 4213000   0.57000394   -7.7397725    833.57166  0.016488086  0.015571261           30 
 4214000   0.57201978   -7.7309932    831.70846  0.016447328  0.015566422           18 
 4215000     0.583747   -7.7338551    833.66458  0.016482099  0.015561578           38 
 4216000   0.57494422   -7.7209102    834.26074  0.016489973   0.01555674           31 
 4217000   0.56029473    -7.738315    832.18487  0.016445041  0.015551903           29 
 4218000   0.57915394   -7.7321009    833.25965  0.016462377  0.015547068           30 
 4219000   0.58136146   -7.7467317    833.44447  0.016462125  0.015542235           20 
 4220000   0.58481359   -7.7069552    834.10367  0.016471241  0.015537407           19 
 4221000   0.57179594   -7.7288332    832.29083  0.016431549  0.015532578           25 
 4222000   0.58726591   -7.7384175    833.11302  0.016443886  0.015527747           25 
 4223000   0.57338767   -7.7248502    835.18136  0.016480807  0.015522919           24 
 4224000   0.57636881    -7.730037     833.7372  0.016448414  0.015518095           37 
 4225000   0.57096289    -7.722384    832.21737  0.016414544  0.015513271           46 
 4226000   0.57166315   -7.7304059    833.57003  0.016437333  0.015508454           23 
 4227000   0.57323992   -7.7379401     833.9322  0.016440584  0.015503637           27 
 4228000   0.58819288   -7.7336684    831.02637  0.016379422  0.015498819           24 
 4229000   0.57257184   -7.7291438    833.08346  0.016416084     0.015494           26 
 4230000   0.56920926   -7.7111271    833.15779  0.016413668   0.01548918           32 
 4231000   0.57240332   -7.7101389    833.34963  0.016413567  0.015484365           35 
 4232000    0.5673884   -7.7321482    831.91373  0.016381414  0.015479554           50 
 4233000   0.57075815   -7.7453167    834.77209  0.016433816  0.015474742           26 
 4234000   0.56266296   -7.7317574    833.35904  0.016402123  0.015469928           44 
 4235000   0.56396105   -7.7110668    833.81685  0.016407258  0.015465114           89 
 4236000   0.57641427   -7.7479472    833.25938  0.016392418  0.015460302           29 
 4237000   0.58746137   -7.7367167    833.12241  0.016385855   0.01545549           29 
 4238000   0.58645083   -7.7157725    832.25939  0.016365019  0.015450678           22 
 4239000   0.56236981    -7.734815    832.27053  0.016361377  0.015445866           21 
 4240000   0.57504822   -7.7596593    833.85209  0.016388602  0.015441053           21 
 4241000   0.57179342    -7.729631    835.43922  0.016415924  0.015436241           32 
 4242000   0.57064989    -7.729979    832.79446  0.016360099  0.015431434           33 
 4243000    0.5813305   -7.7465961     831.3379  0.016327636  0.015426622           63 
 4244000   0.56648724   -7.7399613     832.7409  0.016351337  0.015421813           26 
 4245000   0.57147012   -7.7496258    832.62162  0.016345144   0.01541701           25 
 4246000   0.56995663   -7.7459297     831.3631  0.016316594  0.015412199           46 
 4247000   0.58773713   -7.7335319    832.43645  0.016333813  0.015407396           32 
 4248000   0.56576636   -7.7195645    833.34046  0.016347702  0.015402601           22 
 4249000   0.57165481   -7.7433661    832.30677  0.016323581  0.015397803           15 
 4250000   0.58026727   -7.7711724     834.4838  0.016362427  0.015393009           33 
 4251000   0.57337644   -7.7418975    832.15219  0.016312871  0.015388212           26 
 4252000   0.56401896    -7.758969    832.99342  0.016325522  0.015383413           36 
 4253000    0.5757875   -7.7538155    832.59609  0.016313898  0.015378613           48 
 4254000   0.57581758     -7.74775    832.27679  0.016303808  0.015373819           59 
 4255000   0.56246444   -7.7497045    832.78661  0.016309961  0.015369018           21 
 4256000   0.57520347   -7.7583645    833.06745  0.016311628  0.015364228           32 
 4257000   0.57962331   -7.7513469    833.73841   0.01632093  0.015359436           21 
 4258000   0.58130589   -7.7509373    832.45788  0.016292036  0.015354638           23 
 4259000   0.55879663   -7.7456703    833.39669   0.01630658  0.015349846           29 
 4260000   0.57078218   -7.7387429    832.07385  0.016276875  0.015345052           27 
 4261000   0.56146116   -7.7387836      833.183  0.016294747   0.01534026           21 
 4262000   0.56104536   -7.7329249    831.64679  0.016260887  0.015335467           29 
 4263000   0.57500658   -7.7519251    831.34817  0.016251235  0.015330687           45 
 4264000   0.57639119    -7.754444    833.57489  0.016290941  0.015325901           37 
 4265000   0.56718141   -7.7482902    832.72597  0.016270535  0.015321117           19 
 4266000    0.5741187   -7.7447596    831.95797  0.016251718  0.015316329           34 
 4267000   0.57739559   -7.7548482    832.59927  0.016260434  0.015311539           22 
 4268000   0.56849065   -7.7546899    833.58216  0.016275815  0.015306755           24 
 4269000   0.58602944   -7.7475254    833.79297  0.016276118  0.015301974           30 
 4270000   0.55902225   -7.7505899    832.16962  0.016240625  0.015297194           42 
 4271000    0.5692183   -7.7630366     832.3449  0.016240242  0.015292409           38 
 4272000   0.56113853   -7.7611557    832.51485  0.016239756  0.015287633           31 
 4273000   0.56223023   -7.7586998    832.64641  0.016238521  0.015282854           30 
 4274000   0.56316792   -7.7628226    832.89412  0.016239551  0.015278077           34 
 4275000   0.56617984    -7.762659    831.66833  0.016211858    0.0152733           41 
 4276000   0.56425348   -7.7650245    831.46567  0.016204117  0.015268531           38 
 4277000   0.56799607   -7.7558059    831.35724  0.016198216  0.015263754           37 
 4278000   0.56795566   -7.7579634    831.11252  0.016189663  0.015258981           40 
 4279000   0.55864928   -7.7611326    833.26535  0.016227805  0.015254211           28 
 4280000   0.56708906   -7.7646222    832.40353  0.016207234  0.015249435           24 
 4281000   0.58310696   -7.7675848    831.96622  0.016194935  0.015244663           26 
 4282000   0.57312713   -7.7497203    832.26795  0.016197025  0.015239889           31 
 4283000   0.57900541    -7.765933    832.39568  0.016195729  0.015235119           44 
 4284000   0.57450878   -7.7698718    832.43459  0.016192705   0.01523035           72 
 4285000   0.57287549   -7.7588754    831.30524  0.016166963  0.015225583           40 
 4286000   0.56907294   -7.7655832     832.7252    0.0161908  0.015220814           29 
 4287000   0.54959944   -7.7624827     831.3415  0.016160126  0.015216048           32 
 4288000   0.56751861   -7.7597513    832.68647  0.016182495  0.015211284           28 
 4289000   0.55895239   -7.7567505    832.36237  0.016172425  0.015206524           31 
 4290000   0.58124818   -7.7631169     832.0713  0.016163001  0.015201769           55 
 4291000   0.55831131   -7.7694647    831.85619  0.016155057  0.015197017           55 
 4292000   0.56631552   -7.7719938    830.99412  0.016134555  0.015192254           39 
 4293000   0.56985117    -7.774472    832.83374  0.016166506  0.015187504           47 
 4294000   0.54559741   -7.7640723    832.87423  0.016163527  0.015182757           28 
 4295000   0.56652729   -7.7629968    832.25137  0.016147679  0.015178011           48 
 4296000   0.56603331   -7.7704685    831.78002  0.016134777   0.01517326           31 
 4297000    0.5674457   -7.7621099    831.05907   0.01611704  0.015168514           36 
 4298000   0.56568116   -7.7468453    831.64174  0.016124588  0.015163773           35 
 4299000    0.5698073    -7.778764    831.76797  0.016123284  0.015159028           37 
 4300000   0.55891345   -7.7380379    832.68454  0.016137297  0.015154289           36 
 4301000   0.56332657   -7.7553913    832.49241  0.016129823  0.015149556           30 
 4302000   0.56396069   -7.7713389    833.56343   0.01614682  0.015144816           38 
 4303000   0.57067277   -7.7816619    830.80381  0.016089624  0.015140079           32 
 4304000   0.56967069     -7.76507    829.59364  0.016062454  0.015135345           33 
 4305000    0.5585467   -7.7664644    831.60718    0.0160977  0.015130611           32 
 4306000    0.5636802   -7.7695291    832.61604  0.016113486  0.015125891           70 
 4307000   0.58317744   -7.7683911    831.89872  0.016095866  0.015121172           62 
 4308000   0.56339738   -7.7652513    833.09769  0.016115322  0.015116444           30 
 4309000   0.54743236   -7.7584882    832.10319  0.016092349   0.01511172           31 
 4310000   0.56474175   -7.7585188    831.80311  0.016082813  0.015106995           31 
 4311000   0.56250974   -7.7606129    831.56742  0.016074527  0.015102261           32 
 4312000   0.55741735   -7.7657973     831.9807  0.016078786  0.015097532           36 
 4313000   0.55936339   -7.7680471    832.21831  0.016079649  0.015092801           31 
 4314000   0.57073782   -7.7689033    833.68828  0.016104317   0.01508808           30 
 4315000   0.56227245   -7.7559695    831.31614  0.016054773  0.015083356           28 
 4316000   0.55596312   -7.7691969    831.49182  0.016054445  0.015078638           23 
 4317000   0.56705276   -7.7654771    831.91749  0.016058943   0.01507392           39 
 4318000   0.56163142   -7.7812461    832.54406  0.016067316  0.015069198           42 
 4319000   0.54376953   -7.7805728    832.45984  0.016061971  0.015064481           32 
 4320000   0.56399083   -7.7490787    831.22454  0.016034424  0.015059767           26 
 4321000   0.56795111   -7.7733144    831.16553  0.016029575  0.015055055           33 
 4322000    0.5720201    -7.761448    832.27985  0.016047352  0.015050349           51 
 4323000   0.56576043   -7.7841538    831.43884  0.016027428  0.015045639           29 
 4324000   0.57286209   -7.7803322    831.25331  0.016020145  0.015040934           45 
 4325000   0.56597969   -7.7785701    831.48911  0.016020985  0.015036229           32 
 4326000   0.56783905    -7.796074    832.20322  0.016031038  0.015031528           31 
 4327000     0.563536   -7.7842326    831.76427  0.016018879  0.015026827           73 
 4328000   0.56312439   -7.7745345    831.79889  0.016015844  0.015022126           35 
 4329000   0.56224707   -7.7684067    833.38492  0.016042676  0.015017433           36 
 4330000   0.55071272   -7.7570624    832.31592  0.016018397  0.015012737           33 
 4331000   0.56542196   -7.7725123    832.79889  0.016023992  0.015008044           40 
 4332000   0.56124785   -7.7771217    831.83979  0.016001843  0.015003357           48 
 4333000    0.5563893    -7.759329    831.83646  0.015998086  0.014998668           39 
 4334000   0.57866511   -7.7685516    830.71997  0.015972927  0.014993978           21 
 4335000    0.5607201    -7.764776    830.82655  0.015971291  0.014989292           32 
 4336000   0.56526055   -7.7955515    832.97144   0.01600883    0.0149846           31 
 4337000   0.55684256   -7.7763373    830.71943  0.015961867  0.014979908           24 
 4338000    0.5634039   -7.7878814    832.11284  0.015984955  0.014975217           30 
 4339000   0.55183557   -7.7724171    831.61786  0.015971765  0.014970524           53 
 4340000   0.55420468   -7.7706681      831.938  0.015974232   0.01496584           39 
 4341000   0.55936773   -7.7801078    832.95598  0.015990094  0.014961161           42 
 4342000   0.54510036   -7.7919509    830.77374  0.015944529  0.014956478           26 
 4343000   0.55655357   -7.7749831    833.28624  0.015989067  0.014951798           32 
 4344000     0.554117   -7.7725901    830.27305  0.015927583   0.01494711           29 
 4345000   0.57883864   -7.7886072    831.53862   0.01594819  0.014942427           32 
 4346000    0.5530796   -7.7898365    832.14594  0.015956165  0.014937744           60 
 4347000    0.5543019   -7.7799139    831.61475  0.015942312  0.014933069           30 
 4348000   0.55971977   -7.7756102    830.33741  0.015914164  0.014928389           24 
 4349000   0.56940011   -7.7865206    831.97489  0.015941881  0.014923716           29 
 4350000   0.55165645   -7.7875517    831.17239  0.015922843  0.014919037           44 
 4351000   0.57860351   -7.7903573    830.28462   0.01590218  0.014914357           37 
 4352000   0.55711068   -7.7932686     831.1984  0.015916023  0.014909674           41 
 4353000   0.56802819   -7.7804393    831.40942  0.015916407  0.014904996           35 
 4354000   0.56319859   -7.7731638    831.62203   0.01591682  0.014900323           32 
 4355000   0.54948222   -7.7855629    830.85482  0.015898485  0.014895651           49 
 4356000    0.5509133   -7.7924279    831.30653  0.015903477   0.01489098           58 
 4357000   0.56086043   -7.7803412    829.28843  0.015861228  0.014886309           38 
 4358000   0.56984374   -7.7987148    830.59937  0.015882656  0.014881638           38 
 4359000   0.56680101   -7.7805834     831.0744  0.015888094   0.01487697           24 
 4360000   0.56391128   -7.7976092    830.94344  0.015881946  0.014872304           70 
 4361000   0.54207035   -7.7964953    829.44047  0.015849585  0.014867635           59 
 4362000   0.55311508   -7.7977746    831.15457  0.015878698  0.014862975           36 
 4363000   0.55388057   -7.7902653    830.54783   0.01586347  0.014858312           22 
 4364000    0.5480979   -7.7774789    832.28094   0.01589293  0.014853661           34 
 4365000   0.56676486   -7.7749799    830.67039  0.015858541  0.014849012           60 
 4366000   0.54482629   -7.7874645      830.997  0.015861143  0.014844357           72 
 4367000   0.55102708   -7.7867011     829.6713  0.015832213  0.014839706           39 
 4368000   0.55711097   -7.7905067    832.12846  0.015875467  0.014835051           33 
 4369000   0.55783657   -7.8065585    830.30582  0.015837068  0.014830395           32 
 4370000   0.54245081   -7.8075817    831.37073  0.015853752  0.014825743           61 
 4371000   0.53278936   -7.8094235    831.04966  0.015844003  0.014821094           32 
 4372000   0.55544998   -7.8048117    830.29984  0.015826087  0.014816449           55 
 4373000   0.55105187   -7.8020778    830.45172  0.015825362  0.014811799           99 
 4374000   0.54806647   -7.7808162    830.19941  0.015816937  0.014807151           27 
 4375000   0.55906339   -7.7903309    831.59087  0.015839826  0.014802512           45 
 4376000   0.54855182   -7.8112576    830.31894  0.015811985  0.014797869           32 
 4377000   0.55279292   -7.8190874    830.07905  0.015803805  0.014793225           45 
 4378000    0.5588088   -7.7898584    830.44435  0.015807148  0.014788582           57 
 4379000   0.55846146   -7.8037748    832.19319  0.015836819  0.014783944           35 
 4380000   0.53859151   -7.7817545    830.66102  0.015804053  0.014779306           30 
 4381000   0.55544102   -7.7876978    830.95591  0.015806055   0.01477467           70 
 4382000   0.55537116   -7.7950133    830.81293  0.015799729  0.014770038           38 
 4383000   0.54295711   -7.7878018    830.35991  0.015787511  0.014765412           67 
 4384000   0.54821428   -7.7912991    830.24458  0.015781717  0.014760789           48 
 4385000   0.55755124   -7.7939572     829.8069    0.0157698  0.014756165           99 
 4386000   0.56020476   -7.8019928     830.9439  0.015787808  0.014751537           64 
 4387000   0.55327997   -7.7717971    829.96685  0.015765649  0.014746917          103 
 4388000   0.53275141   -7.7821284    831.15597  0.015784639  0.014742296           47 
 4389000    0.5429877   -7.8000544    831.96021  0.015796313  0.014737681          152 
 4390000    0.5477676   -7.7932066    830.10135  0.015757429  0.014733064           32 
 4391000   0.54306984   -7.7943925    830.41667  0.015759824  0.014728451           76 
 4392000   0.54278823   -7.7955474    830.35128  0.015754995  0.014723835           55 
 4393000   0.55132264   -7.7860809     829.2418  0.015730363  0.014719222           69 
 4394000   0.55659807   -7.7986103    830.69183  0.015754283  0.014714607           60 
 4395000   0.55787945   -7.7854262    831.13292  0.015759062  0.014710001           38 
 4396000   0.53770989   -7.7748957    830.94033  0.015751826  0.014705401          104 
 4397000   0.53579236   -7.7891795    831.79896  0.015764517  0.014700799           64 
 4398000   0.53844412   -7.8002487      829.864  0.015724269  0.014696194           62 
 4399000   0.54623231   -7.8052854    831.25564  0.015747057   0.01469159           32 
 4400000   0.54987151    -7.797548    831.50434  0.015748188  0.014686982           85 
 4401000   0.54430804   -7.8206734    830.60458  0.015727573  0.014682379          116 
 4402000   0.55459967   -7.7862868    832.45891  0.015759104  0.014677776          116 
 4403000    0.5436572   -7.7937868    831.37179   0.01573495  0.014673179           70 
 4404000   0.55243023   -7.8143677    829.96829  0.015704819  0.014668577          108 
 4405000   0.55642777   -7.8004771     832.1674  0.015742857  0.014663984           87 
 4406000   0.54415339   -7.8088465    830.69169  0.015711373  0.014659389           84 
 4407000   0.55855208   -7.8017833    831.47362  0.015722593  0.014654794           36 
 4408000   0.52396764    -7.801428    831.59491  0.015721319  0.014650203          113 
 4409000   0.52526227   -7.8055325    831.01548  0.015706802  0.014645614           45 
 4410000    0.5546193   -7.8189863    831.52692  0.015712905  0.014641024          144 
 4411000   0.54563343   -7.8112759     832.1447  0.015721014  0.014636433          107 
 4412000   0.53924653   -7.8201551    831.37038  0.015702825  0.014631846           59 
 4413000   0.53127728   -7.8112222    829.68753  0.015667489  0.014627255           89 
 4414000   0.55071998   -7.8139897    830.11391  0.015671989  0.014622675          104 
 4415000   0.54374771   -7.7997191    831.36455  0.015692045  0.014618093           46 
 4416000    0.5410624     -7.78677    830.68154  0.015675603  0.014613511          116 
 4417000   0.55394395   -7.8195468    830.47923  0.015668237  0.014608932          118 
 4418000   0.54834598    -7.814446     828.3462  0.015624457  0.014604352          105 
 4419000   0.54679574   -7.8073958    831.33144  0.015677217   0.01459978           41 
 4420000    0.5436548   -7.8011347    830.75625  0.015662825  0.014595206          120 
 4421000    0.5336606    -7.798088    830.13389  0.015647551  0.014590627           54 
 4422000   0.55593192   -7.8120937    830.92111  0.015658848  0.014586049           60 
 4423000   0.55276156   -7.8068411    829.86845  0.015635475  0.014581478           71 
 4424000   0.54684783   -7.8049848    829.86921  0.015631955  0.014576902           52 
 4425000     0.544227   -7.7965198    832.09372  0.015670315  0.014572335           74 
 4426000   0.54387326   -7.8097394    831.54164   0.01565638  0.014567765           36 
 4427000   0.54029253   -7.8125152    831.05164  0.015643619  0.014563194           89 
 4428000   0.53119332   -7.8035672    829.92982  0.015618974  0.014558629           69 
 4429000    0.5302772   -7.8022431    832.26552  0.015659395  0.014554073           86 
 4430000   0.54293621   -7.8276618    828.79101  0.015590501  0.014549509           38 
 4431000   0.55041075   -7.8183987     830.7997  0.015624759  0.014544947           44 
 4432000   0.53587364   -7.8327454    831.04305  0.015625809  0.014540383           34 
 4433000   0.52994692    -7.811068    831.44457  0.015629833  0.014535822           49 
 4434000    0.5385375   -7.8125939    829.83361  0.015596031  0.014531264           72 
 4435000   0.54619599    -7.811542    828.83588  0.015573767  0.014526708           52 
 4436000   0.53849006   -7.7975847     830.1561  0.015595058   0.01452215           45 
 4437000   0.53973626   -7.8065463    829.39794  0.015577303  0.014517598           69 
 4438000   0.54222163   -7.8100989    828.91371  0.015564701  0.014513042           43 
 4439000    0.5407597   -7.8070763    831.05111   0.01560132   0.01450849           69 
 4440000   0.54066465   -7.8133672    828.92938  0.015557984  0.014503941           83 
 4441000   0.53723343   -7.8059463    831.08625  0.015594953  0.014499398           51 
 4442000   0.54486527   -7.8278905    830.29901  0.015576674   0.01449485           36 
 4443000   0.53504075    -7.808973    831.05906  0.015587423  0.014490301           55 
 4444000   0.53705076   -7.8022506     829.9723  0.015563537  0.014485755           49 
 4445000   0.53843183   -7.8171765    829.75192  0.015555904  0.014481212           39 
 4446000   0.52532487   -7.8193532    830.55452  0.015567449  0.014476663           30 
 4447000    0.5462285   -7.7893897     830.0555  0.015554597  0.014472121           55 
 4448000   0.54427498   -7.8110907    830.12348  0.015552373  0.014467581           33 
 4449000   0.54710317   -7.7955439    829.90872  0.015544855   0.01446304           33 
 4450000   0.54083777    -7.805394    830.37811  0.015550152  0.014458503           38 
 4451000   0.53449039   -7.7914575    830.07717  0.015541024  0.014453968           44 
 4452000   0.51562905   -7.7904293    831.53581  0.015564836  0.014449437           36 
 4453000   0.54063082   -7.7970936    829.19813  0.015517594  0.014444904           56 
 4454000   0.54502736   -7.8136588    830.25542  0.015533891  0.014440374           31 
 4455000   0.54748754   -7.8098227    830.12357  0.015527938  0.014435851           60 
 4456000   0.52323591   -7.8210107    830.40789  0.015529771  0.014431329           52 
 4457000   0.54871443   -7.8089293    830.32486  0.015524734  0.014426808           42 
 4458000   0.53383544   -7.7927968    831.10787  0.015535888  0.014422286           60 
 4459000   0.54050384   -7.8123769    828.52072  0.015484053  0.014417772           53 
 4460000   0.53832248   -7.8152159    830.47489  0.015517094  0.014413255           34 
 4461000   0.53079479   -7.8184443    831.24164  0.015527939  0.014408742           60 
 4462000   0.53943217   -7.8012379    829.79775  0.015497493  0.014404224           52 
 4463000   0.54944562   -7.8056603    830.04747  0.015498683  0.014399708           99 
 4464000   0.53691043   -7.8115492    830.67324  0.015506893  0.014395193           66 
 4465000   0.53221404   -7.8336857    830.19623  0.015494517  0.014390677           45 
 4466000   0.52621579   -7.8080393    830.56572  0.015497942  0.014386166           40 
 4467000   0.54356866   -7.8088295    830.50275  0.015493298  0.014381656           50 
 4468000   0.54742727   -7.8050035    829.59863  0.015472968  0.014377145           96 
 4469000   0.53567782   -7.8136389    829.92997  0.015475684  0.014372639           52 
 4470000    0.5388363   -7.8036252    830.56925   0.01548414  0.014368137          111 
 4471000   0.53403304   -7.8174915     831.1111  0.015490776  0.014363635          109 
 4472000     0.541777    -7.808714    829.46823  0.015456698  0.014359134           66 
 4473000   0.53955361   -7.8201351    829.23526  0.015448902  0.014354635           73 
 4474000   0.53498682   -7.8185226    830.97758  0.015477902  0.014350134           32 
 4475000   0.53891168   -7.8251453    830.16457  0.015459303  0.014345638           61 
 4476000    0.5283532     -7.82593    829.22091   0.01543828  0.014341143           69 
 4477000   0.53381914   -7.8217968    830.33379  0.015455547  0.014336645          113 
 4478000   0.53868469   -7.8302987    830.40358  0.015453394  0.014332146           68 
 4479000   0.54032127   -7.8146607      831.075  0.015462436  0.014327648           40 
 4480000   0.52380734   -7.8185784    830.21486  0.015442985  0.014323155           99 
 4481000   0.52369551   -7.8169175    829.60401  0.015428178  0.014318664           60 
 4482000   0.52459094   -7.8101502    828.94232  0.015412434  0.014314176           81 
 4483000   0.53815371   -7.8290521    829.32778  0.015416161  0.014309684           61 
 4484000   0.53395464   -7.8232841    828.11927  0.015390263  0.014305198           48 
 4485000   0.54137377   -7.8305574    830.46152  0.015430352  0.014300715           66 
 4486000    0.5358157   -7.8263442    829.86598  0.015415849  0.014296231           52 
 4487000    0.5334336   -7.8052201    828.17514  0.015381011  0.014291746           55 
 4488000   0.53931946   -7.8325554    829.60025  0.015404045  0.014287259           40 
 4489000   0.54631243   -7.8322549    830.88954  0.015424548  0.014282779           39 
 4490000    0.5406051   -7.8258315     829.1804  0.015389391  0.014278304           35 
 4491000   0.54239655   -7.8307392    829.46476  0.015391241   0.01427383           65 
 4492000   0.52524807   -7.8222843    829.77922  0.015393648  0.014269357           54 
 4493000   0.52476898   -7.8268549    829.20341  0.015379542  0.014264888           93 
 4494000   0.53199706   -7.8332061     829.5284  0.015382146  0.014260418          120 
 4495000   0.53291496   -7.8215265    829.28343  0.015374183  0.014255949           56 
 4496000   0.53031298   -7.8108282    829.62582   0.01537711  0.014251487           52 
 4497000   0.54440428   -7.8109355    829.93199  0.015379364  0.014247019           44 
 4498000   0.52413845   -7.8267303    830.78076   0.01539167  0.014242559           86 
 4499000   0.52798453   -7.8231838    830.19413  0.015377383  0.014238099           34 
 4500000   0.54086012   -7.8366471    830.17566  0.015373623  0.014233638           48 
 4501000   0.53544193   -7.8300541    829.18109  0.015351794  0.014229175           53 
 4502000   0.51676812   -7.8267139    829.01266  0.015345266   0.01422471           59 
 4503000   0.54806783   -7.8335009    830.11747  0.015362304  0.014220253           46 
 4504000   0.51872634   -7.8166989    829.54118  0.015348231  0.014215797           70 
 4505000   0.53348618   -7.8251646    829.40404  0.015342287   0.01421135           79 
 4506000   0.52164776   -7.8157268    828.97883  0.015331018  0.014206901           65 
 4507000   0.52508016   -7.8046401    829.60192  0.015339138  0.014202455           72 
 4508000   0.53954094   -7.8228626    831.53279  0.015371428  0.014198008           56 
 4509000   0.52328861   -7.8114437     828.1422  0.015305356  0.014193566           48 
 4510000   0.52831109   -7.8224974    830.12053  0.015338517  0.014189125          103 
 4511000   0.52865953   -7.8228216    830.62897  0.015344509  0.014184685           74 
 4512000   0.51852461   -7.8248824    828.86894  0.015308602  0.014180248           90 
 4513000   0.53288437   -7.7952668    830.17702  0.015329364  0.014175809           35 
 4514000   0.52919955    -7.829129    831.31211  0.015346923  0.014171376           83 
 4515000   0.52888002   -7.8025962    829.86419  0.015316799  0.014166944           63 
 4516000   0.52621519   -7.8365417     829.7159  0.015310671  0.014162516           40 
 4517000   0.51999825   -7.8202526    829.13427  0.015296551  0.014158087           53 
 4518000   0.51815171   -7.8286697    829.35224  0.015297186   0.01415366           47 
 4519000   0.51444886   -7.8424795    828.01142  0.015269075  0.014149227           56 
 4520000   0.53023767   -7.8123364    829.91251  0.015300747  0.014144798           42 
 4521000   0.52939718   -7.8223561    828.20968  0.015265975  0.014140375           47 
 4522000   0.51714512   -7.8177217    830.23557  0.015299933   0.01413595           53 
 4523000   0.51851031   -7.8133803    830.65668  0.015304309  0.014131532           41 
 4524000   0.51924358   -7.8152627    828.94991  0.015269487  0.014127107           34 
 4525000   0.53757556   -7.8347284    829.18729  0.015270484  0.014122686           76 
 4526000   0.53712658   -7.8475659    829.38212  0.015270697  0.014118266           53 
 4527000   0.52989576   -7.8233868    829.54657  0.015270351  0.014113847           68 
 4528000   0.52642325   -7.8016072    828.97348  0.015256432  0.014109433           59 
 4529000   0.53431489   -7.8260777    830.08678  0.015273548  0.014105021           74 
 4530000   0.52609667   -7.8184482    829.77648  0.015264468  0.014100613           90 
 4531000   0.52300926   -7.8117275    830.11347  0.015267297  0.014096203           66 
 4532000   0.53670555   -7.8407826    829.57345  0.015253998  0.014091795           83 
 4533000   0.52760017   -7.8464339    829.17764  0.015243357  0.014087389           54 
 4534000   0.52290653   -7.8415519    829.86683  0.015252662  0.014082983           41 
 4535000   0.51726308   -7.8099385    831.00619  0.015270235  0.014078581           47 
 4536000   0.53074497   -7.8234516    830.88856  0.015264708  0.014074181           63 
 4537000   0.51683107   -7.8130702    829.45762   0.01523506  0.014069784           70 
 4538000   0.52179436   -7.8075823    829.86496  0.015239183   0.01406539           44 
 4539000   0.52520953   -7.8256502    830.35732  0.015244865  0.014060991           84 
 4540000   0.53901127    -7.829905    828.53659  0.015208087  0.014056594           59 
 4541000   0.51985106   -7.8191994    828.55082  0.015204999  0.014052195           53 
 4542000   0.52893405   -7.8347154    828.13666  0.015194053  0.014047799           88 
 4543000   0.53104622   -7.8264605    828.53403  0.015197997    0.0140434           42 
 4544000   0.52486001   -7.8189006    828.80325   0.01519959  0.014039006           71 
 4545000   0.52541249   -7.8284024    829.69866  0.015212663  0.014034614           46 
 4546000   0.51029335   -7.8266513    828.73374  0.015191629  0.014030219           49 
 4547000   0.51956776   -7.8261247      830.205  0.015215252  0.014025829           95 
 4548000   0.53415051   -7.8286327    828.94662  0.015188849  0.014021435           36 
 4549000   0.53337997   -7.8296378    829.52824  0.015196165  0.014017047           61 
 4550000   0.51677986    -7.831067    829.40009  0.015190478  0.014012661           79 
 4551000   0.52439711    -7.836234    829.77258  0.015193961  0.014008276           61 
 4552000    0.5249476   -7.8484569    828.32625  0.015164145  0.014003889           87 
 4553000   0.52778238   -7.8328874    830.11516  0.015193557  0.013999507           83 
 4554000   0.53895078   -7.8250217    829.47944  0.015178587  0.013995129           92 
 4555000   0.53058718   -7.8288961    828.47373  0.015156856   0.01399075          115 
 4556000     0.523271   -7.8387814    829.68322  0.015175651  0.013986376           75 
 4557000   0.51763855    -7.820362    829.23136  0.015164058  0.013982003           85 
 4558000   0.52411716   -7.8226618    828.27256  0.015143202  0.013977625           77 
 4559000   0.51442789    -7.832485    828.47988   0.01514367  0.013973249          140 
 4560000   0.53133224   -7.8203271     829.2929  0.015155207  0.013968875          104 
 4561000    0.5307061   -7.8519512    829.17857  0.015149795  0.013964499           98 
 4562000   0.52676992   -7.8294841    828.95787  0.015142442  0.013960131           89 
 4563000    0.5153332   -7.8498806    828.95375  0.015139049   0.01395576           57 
 4564000   0.51902973   -7.8484272    828.57062  0.015128736  0.013951391          120 
 4565000   0.51402975   -7.8342452    829.23473  0.015137545  0.013947026           90 
 4566000   0.52372816   -7.8419292    830.72638  0.015161454  0.013942662          102 
 4567000   0.52106812   -7.8456096    828.27788  0.015113457  0.013938303           72 
 4568000   0.51122911   -7.8285583     829.0141  0.015123579  0.013933943          101 
 4569000   0.51578236   -7.8473102    829.73799  0.015133472  0.013929583           41 
 4570000   0.51455867   -7.8320787    828.97849  0.015116311  0.013925226           98 
 4571000   0.53068871   -7.8272785    829.41074  0.015120884  0.013920874           85 
 4572000    0.5210614   -7.8383958    829.13121  0.015112482  0.013916518           60 
 4573000   0.52842512   -7.8458796    828.44005  0.015096582  0.013912168           54 
 4574000   0.51942195   -7.8364244    828.59878  0.015096174  0.013907816           90 
 4575000   0.51361567   -7.8297118    829.22929  0.015104359  0.013903468           72 
 4576000   0.53213929   -7.8543552     829.2425  0.015101299  0.013899116          100 
 4577000   0.52243075   -7.8555169    830.24556  0.015116262  0.013894766           50 
 4578000   0.52031567   -7.8446208    829.70345  0.015103092  0.013890416           57 
 4579000   0.52239884   -7.8386449    827.80638  0.015065269  0.013886069           60 
 4580000   0.51863846   -7.8641524    828.51819  0.015074931  0.013881724           52 
 4581000   0.51851228   -7.8669406    828.80523  0.015076861  0.013877374           62 
 4582000    0.5261644   -7.8487845     828.0294  0.015059461  0.013873028           89 
 4583000   0.52757066   -7.8495216    829.43286  0.015081694  0.013868683           65 
 4584000   0.51527425   -7.8504579    828.44457  0.015060438  0.013864345           57 
 4585000   0.52073843   -7.8574726    827.87936   0.01504688  0.013860004           72 
 4586000   0.52227452    -7.833809    828.89724  0.015062096  0.013855659           69 
 4587000    0.5148264   -7.8429567    828.22374  0.015046576   0.01385132           55 
 4588000   0.51570974    -7.853444    828.76353  0.015053101  0.013846984           52 
 4589000   0.51078579   -7.8407733    829.44379  0.015062174  0.013842649           84 
 4590000   0.52487305   -7.8514303    828.83512  0.015047842  0.013838319           86 
 4591000   0.51025847   -7.8560721    829.90972   0.01506407  0.013833988           54 
 4592000   0.52109875   -7.8612014      828.001  0.015026151  0.013829658           69 
 4593000   0.52599124   -7.8480834    830.11257   0.01506119  0.013825331           71 
 4594000   0.51166487   -7.8476548    829.21131  0.015041563  0.013821004           90 
 4595000    0.5131358   -7.8585921     829.2994  0.015039888  0.013816674           56 
 4596000   0.52314776   -7.8392924    827.93672  0.015011907   0.01381235           54 
 4597000   0.51839059   -7.8491638    829.06869  0.015029162  0.013808027           81 
 4598000   0.51012118   -7.8460718    828.33311  0.015012562  0.013803707           80 
 4599000   0.51543222   -7.8372074    827.41517  0.014992665  0.013799385           74 
 4600000   0.51821697   -7.8519822    828.85734  0.015015532  0.013795071           51 
 4601000   0.50582206   -7.8523992    827.79669  0.014993057  0.013790758           59 
 4602000   0.51277316   -7.8532865    829.01282  0.015011821  0.013786444           70 
 4603000   0.51456717   -7.8494644    828.13719  0.014992707  0.013782127           68 
 4604000   0.50199039   -7.8419767    828.44395  0.014995004  0.013777817           85 
 4605000   0.51017982   -7.8523656    828.27511  0.014988692  0.013773504           89 
 4606000   0.51019617   -7.8624184    829.05228  0.014999498  0.013769192           92 
 4607000   0.51180817   -7.8464168    826.61741    0.0149522  0.013764881           84 
 4608000   0.51021764   -7.8476188    827.88836  0.014971939  0.013760569           77 
 4609000   0.51285464   -7.8561093    828.90712  0.014987111  0.013756263           78 
 4610000    0.5049728   -7.8321106    829.08774  0.014987125  0.013751959           50 
 4611000   0.50914314   -7.8637529    828.99524  0.014982203  0.013747659           70 
 4612000   0.51470317   -7.8411663    828.05379  0.014961943  0.013743354           67 
 4613000   0.51285339   -7.8576867    828.90096  0.014974004  0.013739052           53 
 4614000   0.50464704   -7.8443854    828.97484  0.014972093  0.013734753           73 
 4615000   0.50720833    -7.835226    828.18146  0.014954523  0.013730458           49 
 4616000   0.51661542   -7.8440172    828.82071  0.014962823  0.013726161           72 
 4617000   0.51589723   -7.8504346    828.71064  0.014957596  0.013721866           86 
 4618000   0.50384351   -7.8549154    827.84738  0.014938779  0.013717572           54 
 4619000    0.5108414   -7.8548169    828.40881  0.014945674  0.013713277           66 
 4620000    0.5105267   -7.8633814    827.44438  0.014925043  0.013708985           88 
 4621000   0.51202181   -7.8370874    827.80977  0.014928402  0.013704695           86 
 4622000   0.51940163   -7.8527817    828.02474  0.014929048  0.013700406           54 
 4623000   0.51223689   -7.8388817    827.79843   0.01492174   0.01369612           65 
 4624000   0.50073852   -7.8633884    827.95997  0.014921424  0.013691834           67 
 4625000   0.49710438   -7.8402748    827.37536  0.014907664  0.013687552           83 
 4626000   0.50025402   -7.8469569    827.21911  0.014901627  0.013683273          101 
 4627000   0.52042049   -7.8473647    828.92045  0.014929048  0.013678995           67 
 4628000   0.51607806   -7.8519832    827.53821  0.014900933  0.013674717           93 
 4629000   0.52008979   -7.8669036    829.23585  0.014928276  0.013670439           47 
 4630000   0.50079591   -7.8466942    827.60981  0.014895785  0.013666165           83 
 4631000   0.51655053   -7.8604135    829.11077  0.014919578  0.013661889           46 
 4632000   0.51534412   -7.8433573    828.27866  0.014901386  0.013657616           78 
 4633000   0.51338926   -7.8565059    827.26494  0.014879936  0.013653344           82 
 4634000   0.50515025   -7.8525924     827.3084  0.014877507  0.013649073           61 
 4635000   0.50582357   -7.8673832    827.85746  0.014884169  0.013644806           63 
 4636000    0.5061434   -7.8457427    828.34442  0.014889711  0.013640535           86 
 4637000   0.50836407   -7.8431142    827.57823  0.014872731  0.013636264           87 
 4638000   0.50623789   -7.8744637    827.32498  0.014864974     0.013632           72 
 4639000   0.51551253   -7.8684588    828.34379  0.014880071  0.013627733           81 
 4640000   0.51590151   -7.8649767    828.42481  0.014878319  0.013623469           49 
 4641000   0.51707405   -7.8542485    827.21794  0.014853443  0.013619208           56 
 4642000   0.50779487   -7.8517264    827.56589  0.014856489  0.013614949           68 
 4643000   0.51988659   -7.8664117    828.31353  0.014866708  0.013610693           91 
 4644000   0.52002076   -7.8439474    827.08776  0.014841512  0.013606442           57 
 4645000   0.51330671    -7.864492    828.20854  0.014858424   0.01360219           72 
 4646000   0.50790993   -7.8507698    827.54604  0.014843343   0.01359794           53 
 4647000   0.51278684   -7.8786985    828.70221  0.014860882  0.013593692           58 
 4648000   0.52053251   -7.8554102      828.377  0.014851854  0.013589444           49 
 4649000   0.51801375   -7.8690807    827.07979  0.014825407  0.013585202           51 
 4650000   0.50903868   -7.8572281    828.72448  0.014851693  0.013580957           50 
 4651000   0.50513844   -7.8680908    828.62327  0.014846687  0.013576719           84 
 4652000    0.4973125   -7.8774878    828.49784  0.014841248  0.013572479          107 
 4653000    0.5177834   -7.8609252    827.64223  0.014822735  0.013568235           44 
 4654000   0.49465973    -7.861289    827.42213  0.014815609   0.01356399           50 
 4655000   0.50447955   -7.8664426    828.63234  0.014834091  0.013559748           85 
 4656000   0.50895328   -7.8634356    828.69563  0.014832038  0.013555513           87 
 4657000   0.49769552   -7.8625067    827.73233  0.014811616  0.013551276           76 
 4658000   0.51428807   -7.8729625    826.97016    0.0147948  0.013547042           58 
 4659000   0.51896977   -7.8707039    827.82105  0.014806844  0.013542811           78 
 4660000   0.50421214   -7.8623979    827.58652  0.014799473   0.01353858           70 
 4661000   0.50017233   -7.8652775    827.47129  0.014794237  0.013534354           70 
 4662000   0.50808865   -7.8582436    827.85431  0.014797911  0.013530125           61 
 4663000   0.49783549   -7.8540714    828.35324  0.014803654  0.013525898           68 
 4664000    0.5131258   -7.8654117    827.33646  0.014782312  0.013521674           48 
 4665000   0.50937954    -7.851993    826.07104  0.014756539  0.013517448           53 
 4666000   0.50812395   -7.8586998    827.58824  0.014780473  0.013513225           87 
 4667000   0.50132466   -7.8597905     827.0656  0.014767974  0.013509002           49 
 4668000   0.51469788   -7.8617171     826.7763  0.014759646  0.013504782           53 
 4669000   0.50417737   -7.8655745    828.52999  0.014787784  0.013500567           95 
 4670000   0.50670396   -7.8795965    828.04965  0.014776047  0.013496351           57 
 4671000    0.5062459   -7.8644495     827.5335  0.014763675  0.013492133           61 
 4672000   0.51060523    -7.865913    827.82462  0.014765707  0.013487915           74 
 4673000   0.51487962   -7.8668772    827.33671  0.014753847  0.013483703           80 
 4674000   0.50431428   -7.8765813    827.68402  0.014756882  0.013479497           87 
 4675000   0.50626595   -7.8679995     827.6659  0.014753403  0.013475289           55 
 4676000   0.49898859    -7.865927    827.35652  0.014744734   0.01347108          100 
 4677000   0.50472191   -7.8674966    829.54588  0.014780591  0.013466876           63 
 4678000   0.50511096   -7.8687044    826.60728  0.014725083  0.013462671          115 
 4679000   0.50223197   -7.8663832    826.83463  0.014725986  0.013458466           75 
 4680000   0.50336277   -7.8731415    827.89116  0.014741652  0.013454266           94 
 4681000   0.49353627   -7.8531973    827.16606  0.014725594  0.013450063          111 
 4682000    0.4962001   -7.8701557     829.3111  0.014760628  0.013445868          109 
 4683000    0.5079232   -7.8466345     827.5962  0.014726959  0.013441671          118 
 4684000   0.49964957   -7.8905487    827.51948   0.01472245  0.013437474           57 
 4685000   0.49268371   -7.8626717    828.48019  0.014736396  0.013433281           98 
 4686000   0.50080838   -7.8634749    826.74981  0.014702479   0.01342909          126 
 4687000   0.49731482   -7.8601494    827.46894  0.014712128  0.013424906           61 
 4688000   0.50637901    -7.875615    828.21539  0.014722259  0.013420718           76 
 4689000   0.49185938   -7.8778175    828.40668  0.014722519  0.013416531          132 
 4690000   0.49728003   -7.8784923    826.69515  0.014688969  0.013412343           93 
 4691000   0.50716289   -7.8699633    828.38411  0.014715841   0.01340816           75 
 4692000   0.50007831   -7.8654653    826.55384  0.014680198  0.013403976           77 
 4693000   0.50023818   -7.8858874    826.79804  0.014681406  0.013399793          105 
 4694000   0.48638948   -7.8627061    827.77212  0.014695571  0.013395614          113 
 4695000   0.50613867   -7.8914301    827.30549  0.014684159  0.013391431           83 
 4696000   0.50774524   -7.8807599    827.42942  0.014683231  0.013387252           71 
 4697000   0.49570639   -7.8845292    827.68931  0.014684716  0.013383073           74 
 4698000     0.501229    -7.885066    828.56137  0.014697059  0.013378899           88 
 4699000   0.49652563   -7.8758573    827.64146  0.014677617  0.013374728           70 
 4700000   0.50703646   -7.8701429    827.73979  0.014676237  0.013370555           64 
 4701000   0.49480753   -7.8504226    826.52696  0.014651616  0.013366385           52 
 4702000   0.50346342   -7.8788421    827.21842  0.014660755  0.013362217           72 
 4703000   0.50485927   -7.8954681     828.0823  0.014672945  0.013358048           65 
 4704000   0.50626099      -7.8737    828.69783   0.01468073  0.013353881           67 
 4705000    0.4939431   -7.8572632    826.72395  0.014642649  0.013349715           69 
 4706000   0.48680356   -7.8639033    827.08337  0.014645902  0.013345555           95 
 4707000   0.49585719   -7.8671247    826.93147  0.014640101  0.013341387           61 
 4708000   0.49269503    -7.889845    827.53112  0.014647605  0.013337222           48 
 4709000   0.50221095   -7.8717629    827.74129  0.014648214  0.013333062           93 
 4710000   0.50285321   -7.8914212    826.02351  0.014614712  0.013328902           72 
 4711000   0.49524168   -7.8770771    827.46671  0.014637138  0.013324742           75 
 4712000   0.49017929    -7.873652    828.12966  0.014645757  0.013320585           60 
 4713000   0.49963773   -7.9016152    826.05475  0.014605961  0.013316427           49 
 4714000    0.5009874    -7.868413     827.9605  0.014636552  0.013312274           85 
 4715000   0.48910016   -7.8814145    826.14763  0.014601407  0.013308123           74 
 4716000   0.50881769    -7.869325    825.83929  0.014592863  0.013303972           64 
 4717000   0.50834146   -7.8864086    827.19825  0.014613777  0.013299821           69 
 4718000   0.50694919    -7.884309    826.52892  0.014598858  0.013295669           71 
 4719000   0.49402273   -7.8656683    827.66566  0.014615838  0.013291518           62 
 4720000   0.50136751   -7.8951632    827.79014  0.014614939  0.013287372           95 
 4721000    0.4874219   -7.8867416    825.70345   0.01457501  0.013283228           61 
 4722000    0.4847754   -7.8868499    827.40279  0.014601913  0.013279082           58 
 4723000   0.49757663   -7.8877238    827.83056  0.014606369  0.013274938           54 
 4724000   0.49226776   -7.9049521    826.95542  0.014587839  0.013270793           66 
 4725000   0.49191992    -7.881059    828.37503  0.014609789  0.013266655           75 
 4726000   0.49832459    -7.886896    827.62313  0.014593439  0.013262519           64 
 4727000    0.5017841   -7.8667698    828.94752    0.0146137  0.013258386           60 
 4728000   0.49130979   -7.8755134    827.39169  0.014583187  0.013254255           50 
 4729000   0.50269805   -7.8808847    826.38066  0.014562287  0.013250119           96 
 4730000   0.49706815   -7.8639478    826.43098  0.014560095   0.01324599           80 
 4731000   0.47597035   -7.8995694    827.13601  0.014569436  0.013241861           89 
 4732000   0.50042107   -7.8820806    826.99226  0.014563825  0.013237727           90 
 4733000   0.49878647    -7.894156    825.96565  0.014542673  0.013233598          113 
 4734000   0.48967641   -7.8930839    826.22489  0.014544164  0.013229469           73 
 4735000   0.48473153   -7.8695596    827.95312  0.014571509  0.013225345           57 
 4736000   0.50754011   -7.8943911    827.57666  0.014561808  0.013221221           45 
 4737000   0.49447832   -7.8992155    826.34498  0.014537066    0.0132171           57 
 4738000   0.48634223    -7.875025    826.50245  0.014536768  0.013212974           57 
 4739000   0.49693774   -7.8881398    828.57691  0.014570178  0.013208856           95 
 4740000   0.49911147   -7.8682036    827.56309  0.014549281  0.013204739           71 
 4741000   0.49241556   -7.9047684    826.99244  0.014536182   0.01320062           98 
 4742000   0.48146363   -7.8993726    827.21422  0.014537013  0.013196503           82 
 4743000   0.50201473   -7.8744242    826.52977  0.014521923  0.013192391           71 
 4744000   0.49811824   -7.8898869     826.5936  0.014519983  0.013188277           92 
 4745000   0.49304467   -7.8824193    826.55012   0.01451616  0.013184162           82 
 4746000   0.50277259   -7.8963515    827.07998  0.014522405  0.013180051           61 
 4747000   0.48545795   -7.8781146    825.81121  0.014497072  0.013175944           66 
 4748000   0.49593348   -7.8971718    827.48673  0.014523426  0.013171836           64 
 4749000   0.49956422   -7.8989911    826.65176  0.014505716  0.013167733           51 
 4750000   0.49761076   -7.8994488    825.97131  0.014490725  0.013163627           70 
 4751000    0.4951951   -7.8639301    827.39594  0.014512663  0.013159527           77 
 4752000   0.49498159   -7.8723883     827.3702  0.014509158  0.013155429           79 
 4753000   0.48059213   -7.8944672    825.60024  0.014475073  0.013151328           75 
 4754000   0.48971322   -7.8898225    826.87512  0.014494375  0.013147228           61 
 4755000   0.49939577   -7.8930159    826.94139  0.014492488  0.013143134           69 
 4756000   0.48837436   -7.8951254    826.54283  0.014482458  0.013139039           78 
 4757000   0.49893343   -7.8801713    825.60581  0.014462999  0.013134946           83 
 4758000   0.48101597   -7.8842951     827.0023  0.014484417  0.013130857           52 
 4759000   0.49720488   -7.8785598    826.05147  0.014464724  0.013126766           81 
 4760000   0.48170644   -7.8983835    826.61144  0.014471489  0.013122676           94 
 4761000   0.50024112   -7.8905695     827.5276  0.014484485  0.013118586          111 
 4762000   0.48528163   -7.8824374    827.12947  0.014474476  0.013114504           78 
 4763000   0.49168758   -7.8901484    826.34404  0.014457695  0.013110419           81 
 4764000   0.49687822   -7.8784843    824.93856  0.014430076  0.013106335           72 
 4765000   0.49930594   -7.8861752    826.64032  0.014456809  0.013102251           67 
 4766000   0.49722482   -7.8924155    827.39029  0.014466889   0.01309817           70 
 4767000   0.48603607   -7.9019425    826.56221  0.014449378  0.013094093           85 
 4768000   0.48339666   -7.8862289    827.11496  0.014456008  0.013090015           48 
 4769000   0.49024571   -7.9173432    827.86482   0.01446608  0.013085941           61 
 4770000   0.49426637   -7.9043324    827.77839  0.014461537  0.013081865           38 
 4771000   0.49174236   -7.8987004    828.51099  0.014471302  0.013077798           69 
 4772000   0.48745184   -7.8970451    827.01091  0.014442074  0.013073727           72 
 4773000   0.49715764   -7.8959414    826.49254  0.014429998  0.013069659           60 
 4774000     0.490023   -7.9051364    826.64557  0.014429646  0.013065589           66 
 4775000   0.48140603   -7.8970573    825.39682  0.014404831  0.013061526           79 
 4776000   0.49035399   -7.8876586    827.49182  0.014438369  0.013057465           55 
 4777000   0.48955731   -7.8894945    826.49707  0.014417994  0.013053404           58 
 4778000   0.48341503   -7.8869675    827.16309  0.014426592  0.013049343           75 
 4779000   0.48332667   -7.8907886     826.6657    0.0144149  0.013045285           58 
 4780000   0.48250666   -7.9093771    826.18664  0.014403533  0.013041225           66 
 4781000   0.48351581   -7.8918003    826.14232  0.014399748  0.013037164           66 
 4782000   0.48921011   -7.8835307    825.59352  0.014387173   0.01303311           56 
 4783000   0.48283492   -7.8879645     827.3188  0.014414224  0.013029057           99 
 4784000   0.49111878    -7.898656    826.54547   0.01439774  0.013025004           75 
 4785000   0.48171647   -7.8882451    827.41746  0.014409918  0.013020951           59 
 4786000   0.48857194   -7.8983276    826.80387  0.014396223  0.013016903           55 
 4787000   0.48139395   -7.8989527     825.6739  0.014373545  0.013012856           94 
 4788000   0.48504941   -7.9080951    826.78358  0.014389856  0.013008812           60 
 4789000   0.50045827   -7.8999917    826.04167  0.014373941  0.013004768           66 
 4790000   0.48696652   -7.8865214    824.96847   0.01435227  0.013000724           72 
 4791000    0.4892315   -7.8991317    825.10323  0.014351618  0.012996679           63 
 4792000   0.48484994   -7.9012505    827.64782  0.014392874  0.012992637           46 
 4793000   0.48318827   -7.8997046    825.79794  0.014357708  0.012988596           75 
 4794000   0.49854326   -7.8887761     827.5699  0.014385515  0.012984557           60 
 4795000   0.47748207   -7.8958039    826.79757  0.014369092   0.01298052          104 
 4796000   0.47465742   -7.8985665    825.45225  0.014342721  0.012976483           74 
 4797000   0.48157679   -7.8938449    825.69801     0.014344  0.012972448           72 
 4798000   0.47520859   -7.9003876    825.74017  0.014341743  0.012968412          100 
 4799000   0.47916244   -7.9081749     826.9054  0.014358988  0.012964382           75 
 4800000   0.48596673   -7.9123507    826.48701  0.014348733  0.012960351           59 
 4801000   0.48878373   -7.8984373    825.44772  0.014327705  0.012956325           66 
 4802000    0.4916842   -7.9029623    825.14409  0.014319452  0.012952297           84 
 4803000   0.48192848   -7.9001823    826.30787  0.014336662  0.012948277           58 
 4804000    0.4832558   -7.9032407    826.06275  0.014329426  0.012944252           67 
 4805000   0.49069448   -7.9001548    825.94525  0.014324406  0.012940226           67 
 4806000   0.48418156   -7.8997274    827.04077  0.014340421  0.012936206          112 
 4807000   0.48318495   -7.9004422    826.69862  0.014331507  0.012932186           58 
 4808000   0.48758554   -7.8850525    825.43298  0.014306589  0.012928166           59 
 4809000   0.48106428   -7.9024588    826.43123  0.014320913  0.012924149          104 
 4810000   0.47808764   -7.9055001    825.64649   0.01430434  0.012920134           47 
 4811000   0.47809021   -7.9209452    826.58004  0.014317537  0.012916123           51 
 4812000   0.47717898   -7.9123635    827.94743  0.014338242  0.012912114           55 
 4813000   0.48501908   -7.8820795    826.95362  0.014318056  0.012908102           46 
 4814000   0.49183589   -7.9057802    825.59262  0.014291522  0.012904093           69 
 4815000   0.49114917   -7.9047125    825.02228  0.014278683  0.012900088           71 
 4816000   0.46901447   -7.9190347     825.7567  0.014288426  0.012896082           75 
 4817000   0.49001571   -7.9035356    826.03358  0.014290249  0.012892078           80 
 4818000   0.47625836   -7.9156147      827.612  0.014314584  0.012888071          142 
 4819000   0.47708652   -7.9104092    825.11436  0.014268423  0.012884066           59 
 4820000   0.48757787   -7.9089757    827.39239  0.014304848  0.012880064           72 
 4821000   0.47570201   -7.8997938    826.59706  0.014288133  0.012876063           67 
 4822000   0.48208319   -7.9045678    826.44179  0.014282486  0.012872065           68 
 4823000   0.47751947   -7.8971587    827.49564  0.014297734  0.012868073           58 
 4824000   0.48156183   -7.9139908    826.97807  0.014285829  0.012864079           62 
 4825000   0.49023857   -7.9016968    825.02687  0.014249169  0.012860087          118 
 4826000   0.47466093   -7.8748492    825.87616  0.014260881  0.012856093           92 
 4827000   0.48189499   -7.9059141    825.40297  0.014249758  0.012852105          115 
 4828000    0.4907079   -7.9273227    826.87202  0.014272163  0.012848115           81 
 4829000   0.47883632   -7.9114921     825.7535  0.014249905  0.012844129          114 
 4830000   0.47756698   -7.9007239    824.71556  0.014229047  0.012840141           78 
 4831000   0.47565611   -7.9004988     825.5989  0.014241339  0.012836159           94 
 4832000   0.47039845    -7.919237    826.36711   0.01425164  0.012832177           58 
 4833000   0.48338445   -7.9096856    826.25338   0.01424673  0.012828195           58 
 4834000   0.47539624   -7.9046333    826.56398  0.014249138  0.012824216           88 
 4835000   0.46583724   -7.9088579    826.77303  0.014249794  0.012820238           57 
 4836000   0.48345542    -7.894668    824.51533  0.014207943  0.012816264           51 
 4837000   0.47743791   -7.9007119    826.09393  0.014232202  0.012812288          100 
 4838000   0.46443122   -7.9194905    825.73534  0.014223084  0.012808313           90 
 4839000   0.47660446     -7.89775    824.66187  0.014201658  0.012804339           67 
 4840000   0.46976016     -7.91224    826.30508  0.014227016  0.012800366           89 
 4841000   0.47474999   -7.9036364    825.83135  0.014215922  0.012796393           94 
 4842000   0.47410751   -7.9141308    825.24771  0.014202941  0.012792421           73 
 4843000   0.47576057   -7.9052582    824.80395  0.014192373  0.012788451           99 
 4844000    0.4797815     -7.90999    826.21719  0.014213756   0.01278448           59 
 4845000   0.47576867   -7.9162022    824.59846   0.01418298  0.012780512           87 
 4846000   0.47514399   -7.9168866    825.40378  0.014193902  0.012776546           88 
 4847000    0.4712611   -7.9124804    824.32366  0.014172403  0.012772578           69 
 4848000    0.4817317   -7.9113201    825.15935  0.014183845  0.012768615           77 
 4849000   0.48200408   -7.9012595    824.71497  0.014173283  0.012764652           65 
 4850000   0.47131715   -7.9154233    825.68605  0.014187045  0.012760695           87 
 4851000   0.48140321   -7.9029604    825.52204  0.014181303  0.012756733           85 
 4852000    0.4675713   -7.9156175    825.58885  0.014179528  0.012752777           51 
 4853000   0.47914826   -7.9063043    825.45931  0.014174382  0.012748822           55 
 4854000   0.47471883   -7.9020437    825.67249  0.014175122  0.012744868           70 
 4855000   0.46485044    -7.912764    826.88069   0.01419294  0.012740914           71 
 4856000   0.46834307   -7.8989406    825.59851  0.014168014  0.012736961           74 
 4857000   0.46643461   -7.9092629    826.11289  0.014173922  0.012733011           68 
 4858000   0.48208905   -7.9158596    826.43472  0.014176525  0.012729063           89 
 4859000    0.4619048   -7.9202301    824.70913  0.014144013  0.012725115           73 
 4860000   0.47613491   -7.9043285    825.32083  0.014151592  0.012721169           63 
 4861000   0.48627143   -7.9089687    825.11701  0.014145186  0.012717224           95 
 4862000   0.47690395    -7.915992    825.81461  0.014154234  0.012713284           74 
 4863000   0.47918843   -7.9169662    825.51823  0.014146244  0.012709341           66 
 4864000   0.48055125    -7.915698    825.95246  0.014150775  0.012705405           70 
 4865000   0.48061959   -7.9309479    826.99803  0.014165776  0.012701466           68 
 4866000   0.46930455   -7.9299751    825.27415  0.014133343   0.01269753          109 
 4867000   0.47605227   -7.9181606    825.27471  0.014130448  0.012693595           63 
 4868000   0.48266498   -7.9210657    825.38389  0.014129415  0.012689662           79 
 4869000   0.47315289   -7.9222201    827.06636  0.014155308  0.012685729           83 
 4870000   0.48191695   -7.9092248    824.98616  0.014116806  0.012681798           82 
 4871000   0.46940772   -7.9276837    825.73587  0.014126734  0.012677869           72 
 4872000   0.46802662   -7.9151049    827.71897  0.014157755  0.012673943          105 
 4873000   0.46669561   -7.9341063    824.50346  0.014099861  0.012670018          112 
 4874000   0.47056142    -7.916085    826.47501  0.014130677  0.012666096           65 
 4875000    0.4816942   -7.9146599    826.09261  0.014121241  0.012662176           91 
 4876000   0.47082153   -7.9187723    825.14125  0.014102086  0.012658254           81 
 4877000   0.46547173   -7.9263711     825.2544  0.014101128  0.012654336           78 
 4878000   0.46782433   -7.9360132    826.04494  0.014111742  0.012650416          104 
 4879000   0.47459287   -7.9364998    825.69138  0.014102811    0.0126465           86 
 4880000   0.47016101   -7.9163454    825.98392  0.014104917  0.012642581           99 
 4881000   0.46899399   -7.9355387    825.02729  0.014085694  0.012638668          128 
 4882000   0.47395603   -7.9227285    825.37962  0.014088823  0.012634756           97 
 4883000   0.46757401    -7.930038    826.31781  0.014101949  0.012630843          101 
 4884000   0.46620848   -7.9326109    826.11897  0.014095669  0.012626932          103 
 4885000   0.47077664   -7.9294869     824.8769  0.014071595  0.012623018           95 
 4886000   0.47135464   -7.9273098    824.59547  0.014063915  0.012619108          103 
 4887000   0.47396356   -7.9331353    825.38379   0.01407448  0.012615198          109 
 4888000    0.4635588   -7.9150956    824.95847  0.014064349  0.012611293           95 
 4889000   0.47327198   -7.9220095    825.85588  0.014076769  0.012607391          146 
 4890000    0.4803761   -7.9284973    824.78563  0.014055652   0.01260349           84 
 4891000   0.46668738   -7.9268167    825.22727  0.014060302  0.012599587          121 
 4892000   0.45654614   -7.9170896    825.89591  0.014068818  0.012595684          117 
 4893000   0.46515746   -7.9335897    826.61926  0.014078263  0.012591783           97 
 4894000   0.47906883   -7.9258427     825.4023  0.014054664  0.012587886           99 
 4895000   0.47003337   -7.9317089    824.08791  0.014029416  0.012583986          127 
 4896000   0.47533606   -7.9289669    825.71227  0.014054198   0.01258009          102 
 4897000   0.46738744   -7.9267689    825.94277  0.014055251  0.012576195           83 
 4898000   0.47221673   -7.9196094    824.57418  0.014029097    0.0125723          112 
 4899000   0.46863274   -7.9368929    824.95779  0.014032758  0.012568412           99 
 4900000   0.46603965   -7.9338681    825.83358  0.014044789  0.012564524          142 
 4901000   0.47973381   -7.9277598    825.80321  0.014041407  0.012560635          123 
 4902000   0.46294427   -7.9254632    824.53267  0.014016943   0.01255675           98 
 4903000   0.46614452   -7.9267979    824.86004  0.014019648  0.012552862          139 
 4904000   0.47020422   -7.9388597    825.60832  0.014029505  0.012548978          103 
 4905000   0.46868223   -7.9239819    823.95009  0.013998472  0.012545091          135 
 4906000   0.47184806   -7.9114849    824.25786  0.014000847  0.012541204          129 
 4907000   0.46323973    -7.941728    824.50051  0.014002114   0.01253732           70 
 4908000    0.4753531    -7.928873    826.48619  0.014032977   0.01253344           65 
 4909000   0.45859926   -7.9334025    825.41385  0.014011914  0.012529559           88 
 4910000   0.46838684   -7.9427754     825.1006  0.014003744   0.01252568          103 
 4911000   0.46463041   -7.9208585    825.35522  0.014005213  0.012521801           86 
 4912000   0.46334741   -7.9366175    825.19783  0.013999692  0.012517926           84 
 4913000   0.44798391   -7.9155107    824.28755  0.013981402  0.012514052          151 
 4914000   0.46512488   -7.9171137    824.31835  0.013979079  0.012510181           92 
 4915000   0.46009645   -7.9417483    824.25577  0.013975174   0.01250631          102 
 4916000   0.46161576    -7.921485    824.41531  0.013975036  0.012502439          107 
 4917000    0.4575237   -7.9312446    825.98335  0.013998769   0.01249857           77 
 4918000   0.45224372   -7.9318976    825.41884  0.013986357  0.012494703           93 
 4919000   0.46955938    -7.926162    823.17448  0.013945492  0.012490835          109 
 4920000   0.46465498   -7.9345365    825.17988  0.013976624  0.012486968           85 
 4921000    0.4614546   -7.9351547    826.14025  0.013990047  0.012483107           47 
 4922000   0.45837895   -7.9357603     824.2369  0.013954979  0.012479248           54 
 4923000    0.4592124   -7.9400393    824.60909  0.013958445  0.012475387          118 
 4924000   0.46090808   -7.9308511    825.99405  0.013979049  0.012471527          128 
 4925000   0.46588219   -7.9322964    823.80412  0.013939156  0.012467668           71 
 4926000   0.46430109   -7.9364474    824.50751  0.013948226  0.012463812           77 
 4927000   0.46203246   -7.9281138    825.70648  0.013965673  0.012459956           98 
 4928000   0.47536139   -7.9210967    824.37272  0.013940285    0.0124561           69 
 4929000   0.46431647    -7.923794    824.36155  0.013937268  0.012452251          103 
 4930000   0.45665447   -7.9318971    824.68553  0.013939918  0.012448403          105 
 4931000   0.45037611   -7.9299515     824.4904  0.013933793   0.01244455           97 
 4932000   0.46892239   -7.9326448    825.65561  0.013950656  0.012440704           46 
 4933000   0.46312517    -7.933616    824.48033  0.013927974  0.012436861           98 
 4934000   0.46411624   -7.9226034    825.26368  0.013938381  0.012433018          142 
 4935000   0.46306044   -7.9377042    824.70132  0.013926061  0.012429175          120 
 4936000    0.4622526   -7.9477923     824.4112  0.013918341  0.012425334          137 
 4937000   0.45886046   -7.9269777    825.00416  0.013925531  0.012421496          140 
 4938000   0.46380792   -7.9348345    824.70141  0.013917602  0.012417659          158 
 4939000   0.46022045   -7.9342497    824.01808  0.013903254  0.012413824           88 
 4940000   0.46484941   -7.9520913     825.1018  0.013918721  0.012409989          124 
 4941000    0.4620716   -7.9502756    825.50894  0.013922771  0.012406156          101 
 4942000    0.4648563   -7.9427637    825.11519  0.013913314  0.012402322          115 
 4943000   0.45751851   -7.9221497    823.71676  0.013886924  0.012398492          133 
 4944000   0.46536555   -7.9385654    825.09856  0.013907406  0.012394665          105 
 4945000   0.46658146   -7.9458001    825.31233  0.013908196  0.012390833          132 
 4946000   0.45927804   -7.9445383    823.88229  0.013881289  0.012387004          165 
 4947000   0.45825694   -7.9219152    824.46999  0.013888383  0.012383177          130 
 4948000   0.44468719    -7.939301    824.51793  0.013886384  0.012379351          139 
 4949000    0.4484193   -7.9457188    824.71868  0.013886958  0.012375527          107 
 4950000   0.44447816   -7.9199102    823.84995  0.013869528  0.012371703          146 
 4951000   0.45199342   -7.9326173     823.8767  0.013867177  0.012367883          118 
 4952000   0.46417516   -7.9462882    824.50226  0.013874903  0.012364066          127 
 4953000   0.45634745   -7.9263686    823.34005  0.013852548  0.012360248           93 
 4954000   0.45305611   -7.9127498     823.3852  0.013850511  0.012356436          122 
 4955000   0.46263157   -7.9545478    825.33899  0.013880575   0.01235262          101 
 4956000    0.4615391   -7.9377302    824.12738  0.013857401  0.012348804          191 
 4957000   0.46974767   -7.9341562    824.55587  0.013861809  0.012344995          126 
 4958000   0.46129437   -7.9419282    823.21547  0.013836484  0.012341185          164 
 4959000     0.460994   -7.9374901    824.78891  0.013860135  0.012337376          152 
 4960000   0.46044279   -7.9383701    824.44067   0.01385149  0.012333568          129 
 4961000   0.45874429   -7.9229626    824.77625  0.013854335  0.012329759          175 
 4962000    0.4504671   -7.9345967    823.49006  0.013829942  0.012325954          139 
 4963000   0.45577187   -7.9585001    824.15633  0.013838343  0.012322147          135 
 4964000   0.45754591   -7.9432119     824.9579  0.013849011  0.012318346          111 
 4965000   0.46524731   -7.9563707    824.42068  0.013837205  0.012314547          129 
 4966000   0.45253471   -7.9430476    825.69209  0.013855754  0.012310747          166 
 4967000   0.44949107   -7.9459441    825.38451  0.013847804  0.012306952          164 
 4968000   0.45527795   -7.9590861    825.81261  0.013852198  0.012303157          183 
 4969000   0.45741307   -7.9610451     824.5529  0.013828284  0.012299363          109 
 4970000   0.45343196   -7.9470222    824.11521  0.013818162   0.01229557          139 
 4971000     0.457862     -7.94556    823.20665  0.013800152  0.012291776          161 
 4972000   0.45873439   -7.9430693    825.31997  0.013832797  0.012287985          136 
 4973000    0.4531085   -7.9469511    825.21869  0.013828318  0.012284196          130 
 4974000   0.45837114   -7.9378979      823.767  0.013801216   0.01228041          146 
 4975000   0.45108406   -7.9312179    824.04236  0.013803055  0.012276625          135 
 4976000   0.44709878   -7.9379654    824.34388   0.01380533  0.012272842          167 
 4977000   0.45456194   -7.9321284    825.34922  0.013819389   0.01226906          131 
 4978000   0.45578693   -7.9393269    824.43137  0.013801248   0.01226528          153 
 4979000   0.44984822   -7.9412181    823.02318  0.013774908    0.0122615          124 
 4980000   0.46420382   -7.9507782     824.3802  0.013794849  0.012257722          127 
 4981000   0.45637238   -7.9437644    824.59105  0.013795607  0.012253945          135 
 4982000   0.45817051   -7.9352721    823.81248  0.013779815  0.012250168          158 
 4983000   0.46373565   -7.9555726    823.97544  0.013779775  0.012246398          134 
 4984000   0.46036949   -7.9341251    824.11424  0.013779331  0.012242623          126 
 4985000   0.44492101    -7.952921    825.08846  0.013792853  0.012238852          174 
 4986000   0.46153383   -7.9463687    824.61143  0.013782114  0.012235082          125 
 4987000   0.45519407   -7.9563015    825.30968  0.013791018  0.012231313          172 
 4988000   0.46142975   -7.9411379    822.95376  0.013748893  0.012227548          160 
 4989000   0.46129904   -7.9398193    824.96873  0.013779794  0.012223781          169 
 4990000    0.4578878   -7.9512551    824.97209  0.013777089  0.012220017           81 
 4991000   0.44896624   -7.9609689    824.25392  0.013762338  0.012216252          175 
 4992000   0.45476573   -7.9639226    825.32663  0.013777488  0.012212488          115 
 4993000   0.44749502   -7.9597451    823.35939  0.013741895  0.012208725          144 
 4994000   0.45052628   -7.9530043    824.40033  0.013756513  0.012204964          127 
 4995000   0.45283636   -7.9489394    824.47416  0.013754991  0.012201206          146 
 4996000   0.44622226   -7.9468513    824.10811  0.013746132   0.01219745           76 
 4997000   0.45461096   -7.9480524    823.25998  0.013729237  0.012193694          134 
 4998000   0.45938195   -7.9341534     824.3795  0.013745156  0.012189943          165 
 4999000   0.45175273   -7.9543699    824.46287  0.013743797  0.012186191          137 
 5000000   0.45264086   -7.9499514    823.40011  0.013723335  0.012182441          134 
 5001000   0.45862484   -7.9536743    823.58762  0.013723716  0.012178689          137 
 5002000   0.45357528   -7.9438574    824.42721   0.01373496  0.012174937          156 
 5003000   0.46273452   -7.9527801    824.73952  0.013737416   0.01217119          159 
 5004000   0.45288978   -7.9620878    824.39525  0.013728938  0.012167445          118 
 5005000   0.44872403   -7.9527613    824.99787  0.013736228  0.012163698          119 
 5006000   0.45324189   -7.9459838      823.791  0.013713394  0.012159953          145 
 5007000   0.43467611   -7.9460027    824.17764   0.01371709  0.012156209          123 
 5008000     0.449081    -7.954456    824.95712  0.013727322   0.01215247          128 
 5009000   0.44978661   -7.9438966    823.27496  0.013696595  0.012148732          133 
 5010000   0.45090884   -7.9539453    824.72612  0.013717999  0.012144996          140 
 5011000   0.45508727   -7.9497384    824.48902  0.013711319   0.01214126          130 
 5012000   0.44197027   -7.9523316    824.69529  0.013712013  0.012137524          128 
Loop time of 11086.4 on 48 procs for 5000000 steps with 4000 atoms

Performance: 77933.217 tau/day, 451.002 timesteps/s
99.4% CPU use with 48 MPI tasks x no OpenMP threads

MPI task timing breakdown:
Section |  min time  |  avg time  |  max time  |%varavg| %total
---------------------------------------------------------------
Pair    | 689.9      | 731.76     | 771.36     |  68.5 |  6.60
Neigh   | 70.282     | 71.895     | 73.9       |  10.6 |  0.65
Comm    | 625.48     | 677.23     | 724.53     |  79.5 |  6.11
Output  | 13.541     | 13.547     | 13.64      |   0.4 |  0.12
Modify  | 9441       | 9475.2     | 9520.1     |  16.2 | 85.47
Other   |            | 116.8      |            |       |  1.05

Nlocal:        83.3333 ave          92 max          76 min
Histogram: 2 4 3 10 8 11 4 1 4 1
Nghost:        1860.67 ave        1883 max        1829 min
Histogram: 1 0 5 5 3 10 8 7 6 3
Neighs:        11557.9 ave       13777 max       10026 min
Histogram: 2 5 8 9 6 11 5 1 0 1
FullNghs:      23114.8 ave       26151 max       20776 min
Histogram: 2 2 9 6 14 6 4 1 3 1

Total # of neighbors = 1109511
Ave neighs/atom = 277.37775
Neighbor list builds = 269125
Dangerous builds = 1

#clear
#
#next RN
#
#jump SELF
Total wall time: 3:04:49
