
units lj                  # Use reduced LJ style units
atom_style atomic         # Uncharged point particles
atom_modify map hash      # Needed for indexing of clusters etc
                          # Used to be able to find where atoms are in relation to each other.

lattice fcc 1.0 spacing 1 1 1
Lattice spacing in x,y,z = 1.5874011 1.5874011 1.5874011
region box block 0 10 0 10 0 10 units lattice
create_box 2 box
Created orthogonal box = (0.0000000 0.0000000 0.0000000) to (15.874011 15.874011 15.874011)
  3 by 4 by 4 MPI processor grid
create_atoms 1 box
Created 4000 atoms
  using lattice units in orthogonal box = (0.0000000 0.0000000 0.0000000) to (15.874011 15.874011 15.874011)
  create_atoms CPU = 0.002 seconds
set type 1 type/fraction 2 0.45 78393
Setting atom values ...
  1799 settings made for type/fraction
mass 1 1.0
mass 2 1.0
pair_style lj/cut  3.5
pair_modify tail  yes
pair_coeff 1  1  1.0  1.0   # Intearaction between 1 and 1 set with epsilon = 1 and sigma = 1
pair_coeff 1  2  1.5  0.8
pair_coeff 2  2  0.5  0.88

write_data data.0
System init for write_data ...
Neighbor list info ...
  update every 1 steps, delay 10 steps, check yes
  max neighbors/atom: 2000, page size: 100000
  master list distance cutoff = 3.8
  ghost atom cutoff = 3.8
  binsize = 1.9, bins = 9 9 9
  1 neighbor lists, perpetual/occasional/extra = 1 0 0
  (1) pair lj/cut, perpetual
      attributes: half, newton on
      pair build: half/bin/atomonly/newton
      stencil: half/bin/3d
      bin: standard
WARNING: Not all mixed pair coeffs generated from mixing. Use write_data with 'pair ij' option to store all pair coeffs. (../write_data.cpp:312)


#############################
#   M E L T   S Y S T E M   #
#############################

velocity all create 2.4 2750902 mom yes dist gaussian # Assign velocities
                                                    # Temperature 2.4, random number seed, zero linear momentum
                                                                                # Gaussian distribution

timestep 0.002   # simulation timestep
thermo 1000       # output thermodynamic data every 1000 steps bf 100

# Define a fix  in this case with index 1 applied to all
# particles in the simulation. This fix is for simulations
# in the anisotropic NPT ensemble. Note that we use the MTK
# correction.
fix 1 all npt temp 2.4 2.4 0.1 iso 5.68 5.68 0.5 mtk yes tchain 5 pchain 5 # Use NPT ensemble
                                                                         # Set temperature and pressure and damping
                                                                         # Numbers of thermostats in chain and in barostat
run 10000          # run for 10000 steps
Per MPI rank memory allocation (min/avg/max) = 3.642 | 3.644 | 3.648 Mbytes
Step Temp E_pair E_mol TotEng Press Volume 
       0          2.4   -5.5879345            0   -1.9888345   -4.1997978         4000 
    1000    2.3739292   -4.9783926            0    -1.418389    5.8304553    3771.2948 
    2000    2.4077778   -4.9672863            0   -1.3565225    5.5745149     3812.495 
    3000    2.3482855   -4.9988309            0   -1.4772833    5.6991241    3778.8304 
    4000     2.459703   -5.0106686            0   -1.3220365    5.9769102    3761.0552 
    5000    2.3868648    -5.039436            0   -1.4600338    5.5086726    3778.0955 
    6000     2.406531   -4.9866577            0   -1.3777637     5.495338    3806.3335 
    7000    2.4181789   -5.0458107            0   -1.4194491    5.5883328    3767.5927 
    8000     2.385658   -4.9506977            0   -1.3731053    5.8061722    3792.8454 
    9000    2.4226165   -5.0332354            0   -1.4002191    5.7218062    3767.6988 
   10000    2.3795989   -5.0051766            0   -1.4366707    5.5493859    3792.6049 
Loop time of 2.57482 on 48 procs for 10000 steps with 4000 atoms

Performance: 671114.929 tau/day, 3883.767 timesteps/s
99.6% CPU use with 48 MPI tasks x no OpenMP threads

MPI task timing breakdown:
Section |  min time  |  avg time  |  max time  |%varavg| %total
---------------------------------------------------------------
Pair    | 1.1566     | 1.2166     | 1.325      |   3.2 | 47.25
Neigh   | 0.20957    | 0.21903    | 0.23928    |   1.2 |  8.51
Comm    | 0.74955    | 0.88033    | 0.97098    |   4.4 | 34.19
Output  | 0.00024425 | 0.00024894 | 0.00031609 |   0.0 |  0.01
Modify  | 0.20576    | 0.24306    | 0.29168    |   4.3 |  9.44
Other   |            | 0.01556    |            |       |  0.60

Nlocal:        83.3333 ave          99 max          75 min
Histogram: 4 6 11 9 7 7 3 0 0 1
Nghost:        1703.73 ave        1730 max        1665 min
Histogram: 1 1 2 2 9 11 7 4 8 3
Neighs:        10060.0 ave       12155 max        8798 min
Histogram: 2 8 7 8 10 8 3 1 0 1

Total # of neighbors = 482878
Ave neighs/atom = 120.71950
Neighbor list builds = 902
Dangerous builds = 189

# Equilibrate just above the melting temperature to avoid step fn in T

fix 1 all npt temp 1.25 1.25 0.1 iso 5.68 5.68 0.5 mtk yes tchain 5 pchain 5
run 2000
Per MPI rank memory allocation (min/avg/max) = 3.643 | 3.645 | 3.649 Mbytes
Step Temp E_pair E_mol TotEng Press Volume 
   10000    2.3795989   -5.0051766            0   -1.4366707    5.5493859    3792.6049 
   11000     1.246241   -7.0569825            0   -5.1880884    5.7444902    2973.5745 
   12000    1.2528967   -7.1318761            0   -5.2530008    5.9882305    2948.0752 
Loop time of 0.621504 on 48 procs for 2000 steps with 4000 atoms

Performance: 556070.341 tau/day, 3218.000 timesteps/s
99.6% CPU use with 48 MPI tasks x no OpenMP threads

MPI task timing breakdown:
Section |  min time  |  avg time  |  max time  |%varavg| %total
---------------------------------------------------------------
Pair    | 0.28483    | 0.30295    | 0.32633    |   1.8 | 48.74
Neigh   | 0.039871   | 0.041932   | 0.045433   |   0.6 |  6.75
Comm    | 0.20346    | 0.22869    | 0.25096    |   2.4 | 36.80
Output  | 5.0134e-05 | 5.1911e-05 | 6.5932e-05 |   0.0 |  0.01
Modify  | 0.039469   | 0.043067   | 0.047178   |   1.0 |  6.93
Other   |            | 0.004813   |            |       |  0.77

Nlocal:        83.3333 ave          90 max          77 min
Histogram: 7 2 3 9 3 6 9 2 3 4
Nghost:        2021.73 ave        2038 max        2009 min
Histogram: 5 4 2 11 7 7 4 5 2 1
Neighs:        12956.4 ave       14725 max       11772 min
Histogram: 4 8 8 4 10 5 3 2 1 3

Total # of neighbors = 621907
Ave neighs/atom = 155.47675
Neighbor list builds = 142
Dangerous builds = 11

#############################
# L I N E A R  Q U E N C H  #
#############################

# Define solid atoms. This closely follows ten Wolde  Ruiz-Montero and Frenkel  Faraday Discuss  1996  104  93-110
# Compute components of the per-atom q6 vector
compute q6 all orientorder/atom degrees 1 6 components 6 nnn NULL cutoff 1.3 # compute the Q6 parameter.
                                                                             # Use all neighbours within 1.3 unit cell.

# get number of connections
compute coord_number all coord/atom orientorder q6 0.5

# An atom is solid if it has 8 or more connections (of a possible 14)
variable is_solid atom c_coord_number>=8
group solid dynamic all var is_solid    # Must be dynamic to update
dynamic group solid defined

# do clustering
compute cluster solid cluster/atom 1.3 # Create a cluster where all atoms within are solid and max 1.3 units from another member

# define chunks one chunk per cluster
compute clus_chunks solid chunk/atom c_cluster nchunk every compress yes  # Says which atoms are in which chunk

# count the size of each chunk
compute size_chunks solid property/chunk clus_chunks count


# Find the maximum entry in the vector of chunk sizes
variable max_n equal max(c_size_chunks)


# Thermo style which includes this variable
# thermo_style custom step temp pe vol v_max_n

thermo ${N}  # Print the thermo information every 100 steps
thermo 1000  

# Reset the npt fix at a lower temperature (below freezing)
fix 1  all npt temp  ${temp} ${temp}  0.1  iso  5.68  5.68  0.5  mtk yes tchain  5  pchain  5
fix 1  all npt temp  0.45 ${temp}  0.1  iso  5.68  5.68  0.5  mtk yes tchain  5  pchain  5
fix 1  all npt temp  0.45 0.45  0.1  iso  5.68  5.68  0.5  mtk yes tchain  5  pchain  5

dump dmp2 all dcd ${N} traj.dcd
dump dmp2 all dcd 1000 traj.dcd


compute msd all msd com yes
variable twopoint equal c_msd[4]/6/(step*dt+1.0e-6)
fix 9 all vector 10 c_msd[4]
variable fit equal slope(f_9)/6/(10*dt)
thermo_style custom step temp pe c_msd[4] v_twopoint v_fit v_max_n

fix 1 all npt temp 1.25 ${temp} 0.1 iso 5.68 5.68 0.5 mtk yes tchain 5 pchain 5
fix 1 all npt temp 1.25 0.45 0.1 iso 5.68 5.68 0.5 mtk yes tchain 5 pchain 5
run 500000 # 5000000  # Run for this many steps
Neighbor list info ...
  update every 1 steps, delay 10 steps, check yes
  max neighbors/atom: 2000, page size: 100000
  master list distance cutoff = 3.8
  ghost atom cutoff = 3.8
  binsize = 1.9, bins = 8 8 8
  4 neighbor lists, perpetual/occasional/extra = 1 3 0
  (1) pair lj/cut, perpetual
      attributes: half, newton on
      pair build: half/bin/atomonly/newton
      stencil: half/bin/3d
      bin: standard
  (2) compute orientorder/atom, occasional
      attributes: full, newton on
      pair build: full/bin/atomonly
      stencil: full/bin/3d
      bin: standard
  (3) compute coord/atom, occasional
      attributes: full, newton on
      pair build: full/bin/atomonly
      stencil: full/bin/3d
      bin: standard
  (4) compute cluster/atom, occasional
      attributes: full, newton on
      pair build: full/bin/atomonly
      stencil: full/bin/3d
      bin: standard
Per MPI rank memory allocation (min/avg/max) = 9.835 | 9.838 | 9.841 Mbytes
Step Temp PotEng c_msd[4] v_twopoint v_fit v_max_n 
   12000    1.2528967   -7.1318761 4.0176686e-30 2.7900475e-32 8.3333333e+20            2 
   13000    1.2595883    -7.127533   0.46706658 0.0029940164  0.037928559            2 
   14000    1.2351308   -7.1625059   0.83890315 0.0049934709  0.034280679            1 
   15000     1.233405    -7.152425    1.2495485 0.0069419358  0.033673432            2 
   16000    1.2278444   -7.1627452    1.6660401 0.0086772921  0.033988548            3 
   17000    1.2378979   -7.1981223    2.0329416 0.0099653996  0.033844041            2 
   18000    1.2370639   -7.1643252    2.4265134  0.011233858  0.033308869            2 
   19000    1.2567181    -7.170173    2.8737015  0.012603954  0.033374579            2 
   20000    1.2661856   -7.1892188    3.2907614  0.013711506  0.033625143            3 
   21000    1.2355786   -7.1538489     3.643447  0.014458123  0.033587872            3 
   22000    1.2291095    -7.183514    4.0838874   0.01546927  0.033566363            2 
   23000    1.2512376   -7.1673665    4.4539554  0.016137519  0.033493118            2 
   24000    1.2436506   -7.2112441    4.8408942   0.01680866  0.033372767            2 
   25000     1.201839   -7.2082848     5.207528  0.017358426  0.033228611            2 
   26000    1.1791989   -7.1651883    5.5654573  0.017838004  0.033065072            2 
   27000    1.2298488   -7.1977372    5.9245837  0.018285752  0.032917352            2 
   28000     1.221198   -7.2051613    6.3522448   0.01890549  0.032772175            1 
   29000    1.2312978   -7.1948332    6.7762178   0.01947189  0.032766878            2 
   30000    1.2432658   -7.2272052    7.2199622   0.02005545  0.032804203            1 
   31000    1.2244013   -7.1812586    7.5595829  0.020321459  0.032807937            1 
   32000    1.2373776   -7.2471571    7.9308289    0.0206532  0.032789184            1 
   33000    1.1945047   -7.2381136    8.2878044  0.020928799  0.032771948            2 
   34000    1.2073079   -7.2658446    8.6286175  0.021148572   0.03268913            1 
   35000    1.2241232   -7.2667077    8.9458158  0.021299561  0.032583926            2 
   36000    1.2294588   -7.2205163    9.3669727  0.021682807   0.03246874            1 
   37000    1.2151373    -7.217449    9.7740632  0.022013656  0.032400778            6 
   38000    1.2121535   -7.2327361    10.081753  0.022109106  0.032343783            1 
   39000     1.226338   -7.2712521     10.37293   0.02216438  0.032253272            1 
   40000    1.2056922   -7.2169186    10.768681  0.022434753  0.032127734            3 
   41000    1.2147724   -7.2377056    11.136222  0.022634597  0.032015471            1 
   42000    1.2117474   -7.2503227    11.486096  0.022789873  0.031905948            1 
   43000    1.1743496   -7.2585852    11.897141  0.023056474  0.031837362            2 
   44000    1.2051771   -7.2477827    12.212605  0.023129933  0.031752847            1 
   45000    1.1572554   -7.3086555    12.489435  0.023128584   0.03164214            1 
   46000    1.1944874   -7.2777154    12.812528  0.023211101  0.031520916            2 
   47000    1.2036118   -7.2723169    13.130992    0.0232819  0.031400725            1 
   48000     1.199792   -7.2857846    13.500932  0.023439118  0.031289261            1 
   49000    1.1806757   -7.3083836    13.778195  0.023432305   0.03117814            2 
   50000    1.2101118   -7.2871593    14.188919  0.023648198  0.031069618            3 
   51000    1.2062578    -7.363116    14.497606  0.023688898  0.030991465            1 
   52000    1.1832537   -7.2859274    14.969927  0.023990267  0.030925913            2 
   53000    1.2045242   -7.2920933    15.329634  0.024103198  0.030864627            1 
   54000    1.1859125   -7.2802077     15.65571  0.024160045  0.030821079            2 
   55000    1.1767505     -7.33739    15.888778  0.024073907  0.030762706            1 
   56000    1.1862055   -7.3056477    16.338533  0.024313293  0.030690352            2 
   57000    1.1714356   -7.3705007    16.577108  0.024235537  0.030617849            1 
   58000    1.1653428   -7.3036188    17.047814  0.024493986  0.030569791            6 
   59000    1.1818471   -7.3263991    17.431397  0.024620617  0.030535826            4 
   60000    1.1740773   -7.3265374    17.703514  0.024588214  0.030487218            2 
   61000    1.1625203   -7.3354163    17.948109  0.024519274  0.030426762            3 
   62000    1.1959025   -7.3357928    18.222537  0.024492657  0.030353761            4 
   63000    1.1786417   -7.3375541    18.682867  0.024712787  0.030287894            2 
   64000    1.1608964   -7.3844284    18.961731  0.024689754  0.030233675            2 
   65000    1.1877309   -7.3280677    19.300478  0.024744202  0.030185331            2 
   66000    1.1438162   -7.3540764    19.694629  0.024866956  0.030131864            5 
   67000    1.1482177   -7.3554085    19.935932  0.024795936  0.030080827            3 
   68000    1.1353879   -7.3613793    20.426819  0.025032866  0.030031788            1 
   69000    1.1431988   -7.3717569    20.750084  0.025060488  0.029992996            3 
   70000    1.1610938   -7.3741895    20.972766  0.024967579  0.029943436            1 
   71000    1.1396727   -7.3333541    21.336832  0.025043229  0.029888697            3 
   72000    1.1503077   -7.3452855    21.747388  0.025170588  0.029842056            1 
   73000    1.1686267   -7.3772986    21.877786  0.024974642  0.029787575            3 
   74000    1.1622558   -7.4397117    22.102627  0.024890346   0.02972436            3 
   75000    1.1665226    -7.415638    22.370538  0.024856153  0.029650459            1 
   76000     1.151347   -7.3716601    22.749802  0.024944958  0.029572939            1 
   77000    1.1561199   -7.4156495    23.029809  0.024924036  0.029498979            3 
   78000    1.1524063    -7.397284    23.192546  0.024778361  0.029417831            2 
   79000    1.1399889   -7.3893429     23.48879  0.024777205  0.029328771            4 
   80000    1.1674721   -7.4244964    23.643089  0.024628218  0.029241805            2 
   81000    1.1374112   -7.3818067    24.163923  0.024860003  0.029159878            1 
   82000    1.1479323   -7.4014836    24.485971  0.024884117  0.029085849            2 
   83000    1.1382314   -7.4220508     24.71949  0.024818765  0.029011592            3 
   84000    1.1387582   -7.4408826    24.969449  0.024771278  0.028932665            2 
   85000    1.1276396   -7.4118122    25.262206  0.024766868  0.028854038            1 
   86000    1.1320391    -7.436523     25.49491   0.02470437  0.028774715            7 
   87000    1.1291345    -7.430348    25.832812  0.024744073  0.028698523            3 
   88000     1.152258   -7.4419407    26.074185  0.024691463  0.028624269            3 
   89000    1.1303488   -7.4226775    26.334641  0.024657903  0.028548938            2 
   90000    1.1208767   -7.4516004    26.724734  0.024745124  0.028480838            2 
   91000    1.1305255   -7.4407276    26.926306  0.024657789  0.028406229            1 
   92000    1.1348344   -7.4699117    27.127757  0.024572244  0.028333516            5 
   93000    1.1271446   -7.4710388    27.275405  0.024440327  0.028254263            1 
   94000    1.1253989   -7.4774688    27.472811  0.024355329   0.02816762            3 
   95000    1.1199456   -7.4382036    27.970159  0.024535227   0.02808226            2 
   96000    1.1203982   -7.4591677    27.992619  0.024299148  0.027995408            1 
   97000     1.124219   -7.4985442     28.16643  0.024197964  0.027900658            3 
   98000    1.1165711   -7.4790403    28.579776  0.024302531  0.027815236            1 
   99000    1.1288556   -7.5197264    28.866198  0.024298146  0.027733404            1 
  100000     1.092867   -7.5232964    29.127536  0.024272946  0.027654216            5 
  101000    1.0944368   -7.4699466    29.788893  0.024578295  0.027585175            2 
  102000    1.1194915   -7.5149871     29.96649  0.024482426  0.027527669            1 
  103000    1.1003391   -7.5317539    30.174031  0.024412647  0.027468505            2 
  104000    1.0892675   -7.4803291    30.425678  0.024379549  0.027404853            3 
  105000    1.1026367   -7.4988387    30.666002  0.024338097  0.027341734            2 
  106000    1.1028793   -7.5168735    31.002265   0.02437285  0.027281123            1 
  107000    1.0764269     -7.53052    31.107994   0.02422741  0.027215583            2 
  108000    1.0968256   -7.4951139    31.446789  0.024264497  0.027148336            3 
  109000    1.1032373   -7.5377052     31.64932  0.024196727   0.02707762            1 
  110000     1.095338   -7.5605778    31.713228  0.024025173  0.027003857            1 
  111000    1.0779876   -7.5474228    32.044324    0.0240573  0.026929835            2 
  112000    1.0749106   -7.5303625    32.424991  0.024125738  0.026859917            2 
  113000    1.1036904   -7.5264524    32.473378  0.023947918  0.026789225            1 
  114000    1.0956966    -7.544005    32.692007  0.023897666  0.026717239            1 
  115000    1.0942748   -7.4839037    33.119148  0.023999383  0.026647656            4 
  116000    1.0735864   -7.5682346    33.305842   0.02392661   0.02657885            3 
  117000    1.0800486   -7.5425137    33.631291  0.023953911  0.026513032            1 
  118000    1.0890716   -7.5986619    33.640509  0.023757422  0.026448297            2 
  119000    1.0553125   -7.5631239    34.075127  0.023862134  0.026384237            2 
  120000    1.0888443   -7.5836993    34.192187  0.023744574  0.026317292            2 
  121000    1.0660696   -7.6170446    34.124685  0.023501849  0.026243766            3 
  122000    1.0794711    -7.585751     34.25616  0.023399016  0.026161638            2 
  123000    1.0904145   -7.5895729    34.563607  0.023417078  0.026080053            4 
  124000    1.0381273   -7.5884972    34.749877  0.023353412  0.025998427            4 
  125000    1.0899297   -7.5913378    35.052046   0.02336803  0.025919703            2 
  126000    1.0846157   -7.6052336     35.25961  0.023319848  0.025844669            2 
  127000    1.0486119   -7.5926235    35.306579  0.023167046  0.025767044            3 
  128000    1.0805234   -7.6012906    35.608649  0.023182714  0.025684834            2 
  129000    1.0407731    -7.615353    35.787469   0.02311852  0.025607171            2 
  130000    1.0469087    -7.571237    36.000929  0.023077518  0.025528723            4 
  131000    1.0466871   -7.5767576     36.16841  0.023007894  0.025446603            3 
  132000    1.0781107    -7.626744    36.240234  0.022878936  0.025365277            2 
  133000    1.0682743   -7.6332222    36.385195  0.022797741  0.025280459            2 
  134000    1.0504327    -7.627622    36.660283  0.022798684  0.025196733            3 
  135000    1.0554144   -7.6115016    36.925894  0.022793762  0.025113107            1 
  136000    1.0505864   -7.6239359    36.978905  0.022658643  0.025030975            3 
  137000    1.0574367   -7.6613243    37.330932  0.022707379  0.024946637            2 
  138000    1.0471704   -7.6928251    37.361761   0.02256145   0.02486641            3 
  139000    1.0396105   -7.6487452    37.551533  0.022512909   0.02478481            3 
  140000    1.0221376   -7.6597206    37.765645  0.022479551  0.024701436            2 
  141000    1.0318306   -7.7032692    37.880298  0.022387883  0.024620202            1 
  142000    1.0394534   -7.6485533    38.200952  0.022418399  0.024541419            1 
  143000    1.0445285   -7.6836321    38.386584  0.022369804  0.024463351            3 
  144000    1.0527192   -7.7165702    38.368571  0.022204034  0.024385615            2 
  145000    1.0502643   -7.6618303     38.81704  0.022308644  0.024307635            2 
  146000    1.0204827   -7.6713159    38.838568  0.022168133  0.024229063            3 
  147000    1.0165231   -7.6705144    39.312628   0.02228607  0.024153921            3 
  148000    1.0256847   -7.7017057    39.334883  0.022148019  0.024081132            2 
  149000    1.0380152   -7.7319174    39.618279  0.022157874   0.02400914            2 
  150000    1.0233998   -7.7012372    40.011053  0.022228363  0.023940374            8 
  151000    1.0227717   -7.6726589    40.330071  0.022257214  0.023871817            3 
  152000    1.0198595   -7.6839316    40.391155  0.022144274  0.023804779            1 
  153000    1.0380254    -7.690903    40.614683  0.022121287  0.023738695            3 
  154000    1.0397439   -7.7407062    40.642522  0.021992707   0.02367199            3 
  155000    1.0457614   -7.6885407    40.882894   0.02198005  0.023605419            3 
  156000   0.99933092   -7.7697786    40.965361  0.021883206  0.023539341            1 
  157000    1.0364612   -7.7046966    41.307573  0.021925463  0.023472878            1 
  158000    1.0155554   -7.7469602    41.417115   0.02184447  0.023408023            3 
  159000    1.0108324   -7.7316812    41.766885  0.021890401  0.023345296            2 
  160000    1.0045609   -7.7345764    41.712955  0.021725497  0.023281235            2 
  161000    0.9996413   -7.7442838     42.07587  0.021778401  0.023217588            3 
  162000    1.0211796   -7.7434844    42.275934   0.02174688  0.023156856            3 
  163000    1.0140573   -7.7439055    42.532121  0.021744438  0.023097544            3 
  164000    1.0243315   -7.7554278    42.542188  0.021616966  0.023036869            3 
  165000    1.0078503   -7.7451044    42.831766  0.021632205  0.022975943            1 
  166000    1.0056183    -7.794669    42.798054  0.021484967  0.022914701            1 
  167000    1.0105565   -7.8166349    42.913295   0.02141382  0.022852962            3 
  168000    1.0254163   -7.7597541    43.319796  0.021487994   0.02279008            3 
  169000   0.98179859   -7.8226298    43.378699  0.021389891  0.022728958            3 
  170000    1.0083678   -7.7586712    43.647438  0.021395803  0.022668743            1 
  171000   0.99375091   -7.8005153    43.773728  0.021332226  0.022609773            6 
  172000   0.98371731    -7.800099    43.980426  0.021308346  0.022551985            1 
  173000   0.99676944   -7.7862176    44.191152  0.021286682  0.022494716            1 
  174000    1.0043171   -7.7851133    44.496919  0.021310785  0.022437981            6 
  175000   0.99522506   -7.8077047    44.384779  0.021135609  0.022380178            2 
  176000   0.97933419   -7.8314786    44.610758  0.021122518  0.022321198            4 
  177000    0.9647097    -7.802799    44.845432  0.021113668  0.022263726            2 
  178000   0.99662764   -7.7851181    44.792408  0.020970229  0.022203819            6 
  179000   0.99221201   -7.7977926    45.044027  0.020970217  0.022142565            3 
  180000    1.0018494   -7.8393615    45.086478  0.020873369  0.022080985            7 
  181000   0.99715704   -7.8594777    45.158972  0.020791424  0.022019059            4 
  182000   0.97462625   -7.8666518    45.239208  0.020713923  0.021955421            4 
  183000    0.9794941   -7.8578916    45.395621  0.020671958  0.021892623            2 
  184000   0.96529954   -7.8257855    45.498689   0.02060629  0.021831296            2 
  185000   0.96984597     -7.82437    45.830584  0.020644407  0.021769342            3 
  186000   0.96470425   -7.8242247    46.008285  0.020613031  0.021709352            2 
  187000   0.97770687   -7.8471646    46.157742  0.020569404  0.021649658            2 
  188000   0.95847308     -7.85171    46.368357   0.02055335  0.021591945            4 
  189000   0.95007791   -7.8209737    46.494245  0.020500108  0.021533629            7 
  190000   0.96706498   -7.8811686    46.514912  0.020401277  0.021475307            2 
  191000   0.94979732   -7.8512637    46.754812  0.020399132  0.021416602            3 
  192000   0.96013295   -7.8776178    46.904003   0.02035764  0.021359126            2 
  193000   0.96709991   -7.8779126    47.029742  0.020306451  0.021301551            2 
  194000   0.95315751    -7.909615    47.017004  0.020196308  0.021243089            3 
  195000   0.96602008   -7.9085094    47.145468  0.020147636  0.021184009            2 
  196000   0.94909559    -7.922661    47.126484   0.02003677  0.021123454            2 
  197000   0.93013624   -7.9237486     47.57257   0.02012376  0.021063398            4 
  198000   0.94702786   -7.9004118    47.553509  0.020014103  0.021004605            3 
  199000   0.95412407   -7.9000912     47.78512  0.020010519   0.02094491            6 
  200000   0.95015319   -7.8894567    47.796049   0.01991502  0.020884824            2 
  201000   0.93900014    -7.940203     47.83604  0.019832521  0.020826032            3 
  202000   0.94568422   -7.9098106    48.113816  0.019848934  0.020767036            2 
  203000   0.93742523   -7.9437299    48.246249  0.019805521  0.020708464            6 
  204000   0.94228226   -7.9297596    48.297671  0.019729441  0.020649811            3 
  205000   0.95368151   -7.8899127    48.427378  0.019685926  0.020591483            4 
  206000    0.9341154   -7.9602189    48.490961  0.019616085   0.02053281            5 
  207000   0.92529881   -7.9073672    48.668498  0.019592793  0.020473718            3 
  208000   0.93977706   -7.9189826    48.684493  0.019505005   0.02041553            2 
  209000   0.93048909   -7.9106808    49.002462  0.019538462  0.020357723            3 
  210000   0.93013832   -7.9622433    48.881052  0.019397243  0.020300006            3 
  211000   0.92503586   -7.9701942    49.038234  0.019367391  0.020241424            2 
  212000   0.92653339   -7.9933593    49.079915  0.019292419  0.020183037            3 
  213000   0.91850646   -7.9930371    49.264052  0.019273886  0.020123955            8 
  214000   0.93688279    -7.941199    49.311156  0.019202163  0.020065335            2 
  215000   0.92926618   -7.9892861    49.353243  0.019129164  0.020006417            4 
  216000   0.91025169   -7.9759945    49.703637  0.019175786  0.019948694            3 
  217000   0.95191108   -7.9857667    49.688858  0.019081743  0.019891526            7 
  218000   0.91153758   -7.9796193    50.190746  0.019186065  0.019835336            4 
  219000   0.90505391   -7.9922143    50.068661  0.019052002  0.019779091            2 
  220000    0.9275068   -8.0177951    50.055649  0.018960473   0.01972278            1 
  221000   0.91700821   -8.0471734    50.029802  0.018864933  0.019665026            3 
  222000   0.93622832   -8.0552726    50.036132  0.018782332  0.019606081            4 
  223000   0.87905972   -8.0287263    50.214636  0.018764812  0.019547156            3 
  224000    0.9156636   -8.0144587      50.2633  0.018699144  0.019487952            2 
  225000   0.90177361   -8.0008718    50.215758  0.018598429  0.019428031            4 
  226000   0.89619049   -8.0306047    50.281225  0.018540275  0.019367434            4 
  227000    0.8960017   -8.0334726    50.523971  0.018547713  0.019307432            5 
  228000   0.90357378    -8.045281    50.484902  0.018452084  0.019246953            3 
  229000   0.90083397    -8.034452    50.502384  0.018377869  0.019187049            3 
  230000   0.88085732   -8.0259979    50.782338  0.018399398  0.019127328            4 
  231000   0.90405423   -8.0209156     50.71354  0.018294928  0.019068123            5 
  232000   0.89341019   -7.9945884    50.939852   0.01829736  0.019008746            3 
  233000   0.89221279   -8.0684579    50.828685  0.018179072  0.018950023            3 
  234000    0.8928944   -8.0399826    51.105762  0.018200057  0.018891659            1 
  235000   0.90568898   -8.0577543    51.114253  0.018125621  0.018833039            1 
  236000   0.89512796   -8.0351237    51.165284  0.018066838  0.018774558            6 
  237000   0.90121127   -8.0872276      51.3107  0.018041737  0.018715439            6 
  238000   0.91380232   -8.1000924     51.28225   0.01795597  0.018656331            4 
  239000   0.87513273    -8.090282    51.379135  0.017914622  0.018597095            6 
  240000   0.88488571   -8.0482368    51.409657  0.017850575  0.018537479            5 
  241000   0.86476902   -8.0868774    51.350501  0.017756052  0.018477996            2 
  242000   0.86966871   -8.0537684    51.489475  0.017730535  0.018418545           11 
  243000   0.86947726   -8.1090333    51.711459  0.017733697  0.018360735            2 
  244000   0.86569314   -8.1013577    51.817839  0.017697349  0.018303527            4 
  245000   0.87113918   -8.1085162    51.906447  0.017655254   0.01824601            1 
  246000   0.87379827   -8.1225398    51.811562  0.017551342  0.018188159            4 
  247000   0.88102509   -8.1220383    51.838999  0.017489541  0.018130509            5 
  248000   0.88625187   -8.1237647    51.924487  0.017447744  0.018073066            2 
  249000   0.87301075   -8.1045745    52.163008  0.017457499  0.018015789            2 
  250000   0.85922547   -8.0824374    52.276089  0.017425363  0.017959145            7 
  251000   0.85656621   -8.1390362    52.041763  0.017278142  0.017901963            5 
  252000   0.88091626   -8.1007731    52.331996  0.017305554  0.017844613            2 
  253000   0.86763595   -8.1665253    52.254174   0.01721152  0.017787545            4 
  254000   0.88135939   -8.1603469    52.466448  0.017213402  0.017730905            3 
  255000   0.86877211   -8.1339794    52.363684  0.017112315  0.017674091            2 
  256000   0.86091074   -8.1518656    52.466187  0.017078837   0.01761705            6 
  257000   0.87457565   -8.1779593    52.569844  0.017045994  0.017559657            2 
  258000   0.84387276   -8.2102455    52.533363  0.016968141  0.017502576            2 
  259000   0.84650895   -8.2169043    52.484279  0.016886834  0.017445262            6 
  260000   0.86557027   -8.1621584    52.431168  0.016804861  0.017386858            4 
  261000    0.8502447   -8.1480077    52.578013   0.01678736  0.017328449            4 
  262000   0.85751846   -8.1923081    52.487661  0.016694549  0.017269984            7 
  263000   0.83586948   -8.1792039    52.640578  0.016679524  0.017211914            7 
  264000   0.83459237     -8.18037    52.756418   0.01665291  0.017154545            1 
  265000    0.8532007   -8.1916051    52.810416  0.016607049  0.017097604            3 
  266000   0.84421821   -8.1730529    52.806478  0.016543383  0.017039845            6 
  267000   0.85367695   -8.1935717    52.701141  0.016448546  0.016981571            4 
  268000   0.83350029    -8.227676    52.691164  0.016384068  0.016923894            3 
  269000   0.84654795   -8.2176556    52.857935  0.016374825  0.016866356            2 
  270000   0.84926449   -8.2052884    53.071682  0.016380149  0.016809153            2 
  271000   0.82198234   -8.2279453    52.909126  0.016269719  0.016752435            3 
  272000    0.8292798   -8.2378292    53.197616  0.016298289  0.016696363            2 
  273000   0.83566546   -8.1995364     53.15754  0.016226355  0.016640289            3 
  274000   0.85406203   -8.2279552    53.190094  0.016177036  0.016584284            8 
  275000   0.82867038   -8.2545245    53.257062  0.016138504  0.016528386            6 
  276000   0.83545304   -8.2506041    53.182129  0.016057406   0.01647273            3 
  277000    0.8297483   -8.2702321    53.196285  0.016003696  0.016417087           10 
  278000   0.82257892   -8.2380352     53.27782  0.015970569  0.016360764            6 
  279000   0.81739766   -8.2686108    53.478631  0.015973307   0.01630486            8 
  280000    0.8086409   -8.2432945    53.470051  0.015913706  0.016249592           13 
  281000   0.83264258   -8.2726639    53.464969  0.015855566   0.01619396            3 
  282000   0.81967605    -8.258297     53.35406  0.015766566   0.01613825            4 
  283000   0.81591844    -8.230708    53.610816  0.015786459  0.016083266            3 
  284000   0.81869662   -8.2725913    53.414373  0.015673232  0.016027812            3 
  285000   0.81801855   -8.2834475    53.456912  0.015630676  0.015971976            5 
  286000   0.80502931   -8.2684268    53.372415  0.015551403  0.015916506            3 
  287000   0.79273027   -8.3150508    53.399016  0.015504941  0.015861009            5 
  288000   0.81308771   -8.3178987    53.355596  0.015438541  0.015805869            2 
  289000   0.81541671   -8.3168323     53.45858  0.015414815  0.015750676            3 
  290000   0.80090559   -8.2714431    53.732426  0.015440352  0.015696012            2 
  291000   0.80615491   -8.2810268    53.813859  0.015410612  0.015641678            3 
  292000   0.82271363   -8.3226051    53.711714  0.015328685  0.015587282           16 
  293000   0.80056609   -8.3328525    53.573619  0.015237093  0.015532729           12 
  294000   0.80004708   -8.3364493    53.647246  0.015206136  0.015478289            5 
  295000   0.78085388   -8.3374528     53.59493  0.015139811  0.015423893            4 
  296000   0.80778921   -8.3492763    53.550183  0.015076065  0.015368958            6 
  297000   0.78073161   -8.3193563    53.696704  0.015066415  0.015314343            5 
  298000   0.80708017   -8.3674873    53.660305  0.015005678  0.015260147            4 
  299000   0.78175774   -8.3121385    53.885656  0.015018299   0.01520642            5 
  300000   0.77302407   -8.3476308    53.809248  0.014947013  0.015152744            2 
  301000   0.78716348   -8.3400712    53.803178  0.014895675  0.015099044            2 
  302000   0.79050266   -8.3422914    53.855112  0.014860682  0.015045245            3 
  303000   0.78059202   -8.3868025     53.84326  0.014808377   0.01499167            4 
  304000   0.78287352   -8.3880915    53.689138  0.014717417  0.014938286            2 
  305000   0.77885023   -8.3760499    53.800866   0.01469969  0.014884925            3 
  306000   0.79088941   -8.3821847    53.937833  0.014688952  0.014831972            3 
  307000   0.76142448    -8.389482    53.925901  0.014637867  0.014779134            3 
  308000   0.78431319   -8.4076092     53.86433  0.014573682  0.014726591            6 
  309000   0.76963647   -8.3985152    53.873382   0.01452896  0.014674096            4 
  310000   0.76300061   -8.4204457    53.679093  0.014429864  0.014621057            5 
  311000   0.79351686   -8.4134684    53.954797  0.014457341  0.014568305            4 
  312000     0.792475    -8.402486    53.864681  0.014386934  0.014515788            5 
  313000    0.7532332   -8.3932189    53.940535  0.014361165  0.014463553            5 
  314000   0.76300896   -8.3889021    53.922724  0.014310702  0.014411327           11 
  315000   0.76351816   -8.4067669     54.03118  0.014293963  0.014359473            5 
  316000   0.75747237   -8.3886798    53.909122  0.014216541  0.014307643            3 
  317000    0.7756092   -8.4319052    53.997002  0.014194795  0.014256233            6 
  318000   0.75976006   -8.4631612    53.877189   0.01411876  0.014204856           11 
  319000   0.76114279   -8.4031937     54.05991  0.014122233  0.014153499            6 
  320000   0.74498801   -8.4379425    53.975836  0.014056207  0.014102134            6 
  321000   0.75753185     -8.44418    53.912386  0.013995946  0.014050762            4 
  322000   0.75649144   -8.4704832    53.916102  0.013953443  0.013999676            6 
  323000   0.75486048     -8.48571    53.966016  0.013923121  0.013948718            6 
  324000   0.74694327   -8.4647176    54.038289  0.013898737  0.013897946            5 
  325000   0.75146717   -8.4571075    54.069697  0.013864025   0.01384743            4 
  326000   0.73849141    -8.479777    54.083453  0.013825013  0.013797161            6 
  327000   0.73822467   -8.4894086    53.857742  0.013725214   0.01374686            5 
  328000   0.73696474   -8.4888347    54.024279  0.013725681  0.013696601            6 
  329000   0.74787136   -8.5100964     53.93022  0.013660137  0.013646421           10 
  330000   0.74281014   -8.5086089    53.946782  0.013622925  0.013596256            4 
  331000   0.72816502   -8.5079631    53.934755   0.01357874  0.013546168            4 
  332000   0.75292838   -8.5032492    53.899607  0.013529018  0.013495969            8 
  333000   0.74055743   -8.5148145    54.020173  0.013518562   0.01344643            9 
  334000    0.7481021   -8.5016307    54.015534   0.01347693  0.013396922            3 
  335000   0.72836128   -8.5395933    53.989546  0.013430235  0.013347722            8 
  336000   0.73954514   -8.5261024    53.972263  0.013385978  0.013298689           14 
  337000   0.73748918   -8.5361309    53.998492  0.013352743  0.013249756           14 
  338000   0.71808014   -8.5166015    53.907677  0.013290847  0.013200971           12 
  339000   0.73155667   -8.5246819    53.966627  0.013266133  0.013152372            8 
  340000   0.73065487   -8.5202717    54.117279  0.013264039  0.013104106            8 
  341000     0.710818   -8.5179777    53.980414  0.013191695  0.013056028           19 
  342000    0.7229712   -8.5257184    54.006559  0.013159493  0.013007961           23 
  343000   0.71628356   -8.5349639     53.83466  0.013079364  0.012959716           13 
  344000   0.71494687   -8.5533078    53.900389  0.013057265  0.012911581            3 
  345000   0.71534894   -8.5089228    54.083949  0.013063756  0.012863715           11 
  346000   0.70967429   -8.5308874    54.003619  0.013006652   0.01281605            5 
  347000   0.71199629   -8.5408702    53.906732  0.012945901  0.012768459            9 
  348000   0.71326078   -8.5541392    53.901372  0.012907417   0.01272109            3 
  349000   0.71658927   -8.5487538    53.902533   0.01287071  0.012673826            4 
  350000   0.72375487     -8.57553    53.936531  0.012842031  0.012626741            5 
  351000   0.69521227   -8.5702247    53.929507  0.012803777  0.012579753            5 
  352000   0.69340919   -8.5770946    53.928712  0.012767214  0.012532887            4 
  353000   0.70806256   -8.5954058     53.82676  0.012706978  0.012486149            4 
  354000   0.70264141   -8.6207527    53.921176  0.012693309  0.012439551            4 
  355000   0.69452176   -8.5973458    53.791105   0.01262702  0.012392965           12 
  356000   0.70039968   -8.6326373    53.883581  0.012613198  0.012346861            9 
  357000   0.72506484   -8.5951968    53.977102  0.012599697  0.012300866            6 
  358000   0.69921107   -8.5996284    53.882097  0.012542388  0.012255047            6 
  359000   0.68560942   -8.6190442     53.86118  0.012502595  0.012209501            9 
  360000   0.69098285   -8.6003331    53.909007  0.012478937   0.01216411            5 
  361000   0.67584542   -8.6176691    53.884555  0.012438725   0.01211873            8 
  362000   0.70772404   -8.6531045    53.904166  0.012408878  0.012073482            7 
  363000   0.67619507   -8.6085055    53.855943  0.012363623  0.012028426            4 
  364000   0.68335005   -8.6337296    53.809304   0.01231898  0.011983527            5 
  365000   0.69330305   -8.6549271    53.935319     0.012314  0.011938826            6 
  366000   0.68573658   -8.6357445    53.943551  0.012282229  0.011894438           12 
  367000   0.67921605   -8.6631084    53.779614  0.012211538  0.011850147            4 
  368000   0.68965999   -8.6356418    53.900028  0.012205622  0.011806149            3 
  369000   0.66169957   -8.6747394    53.853069   0.01216194  0.011762313           13 
  370000   0.66312782   -8.6468588    53.854086  0.012129299  0.011718477            4 
  371000   0.65326602   -8.6707509    53.910513   0.01210928  0.011674657            3 
  372000   0.67819363   -8.6854383    53.778185  0.012047084  0.011631043            6 
  373000   0.68135694   -8.6536364    53.769317  0.012012805  0.011587668            7 
  374000   0.68138631   -8.6789242    53.796592  0.011986763  0.011544571            6 
  375000   0.67644759    -8.697048    53.756013  0.011945781  0.011501538           14 
  376000   0.66019551   -8.6890889    53.837415  0.011932051  0.011458671            6 
  377000   0.68046498   -8.7025136    53.754191  0.011882005  0.011415862            4 
  378000   0.66176657   -8.7130312    53.781854   0.01185667  0.011373249            9 
  379000   0.65709356   -8.6914924    53.809334  0.011831428  0.011330815            5 
  380000   0.66901261   -8.7011641    53.585985  0.011751313  0.011288394            8 
  381000   0.66583252   -8.7094825    53.733024   0.01175263  0.011246099            5 
  382000   0.64227291   -8.7161314    53.747839  0.011725096  0.011204069            5 
  383000   0.64897214   -8.7328324    53.786939  0.011702989  0.011162127           10 
  384000   0.65688864   -8.7166481    53.762542  0.011667218  0.011120435            8 
  385000   0.64719105   -8.7132048    53.686104  0.011620369  0.011078892           20 
  386000   0.66748329   -8.7177627    53.765327  0.011607368  0.011037562           14 
  387000   0.66566612   -8.7347154    53.579508  0.011537362  0.010996271            8 
  388000   0.63711839    -8.725619     53.63618  0.011519798  0.010955116           12 
  389000   0.63659116   -8.7543447    53.615628  0.011485781  0.010914154           17 
  390000   0.63354552   -8.7332586    53.718298  0.011478269   0.01087332           16 
  391000   0.63944219   -8.7390512    53.533581  0.011409544   0.01083265            7 
  392000   0.64548723   -8.7412419     53.65251  0.011405721   0.01079208            9 
  393000    0.6431074   -8.7631562    53.449288  0.011333606   0.01075155            8 
  394000   0.64488291   -8.7248672    53.592577  0.011335147  0.010711239            8 
  395000   0.63281052   -8.7682178    53.503986  0.011287761  0.010671092            8 
  396000   0.64480997   -8.7580677     53.44037  0.011245869  0.010631187            9 
  397000   0.62611205   -8.7595051    53.705999    0.0112733   0.01059142            9 
  398000   0.62451433   -8.7478716    53.606814  0.011224207  0.010551851           11 
  399000   0.63068394   -8.7717345    53.566325   0.01118762  0.010512477            9 
  400000   0.62176784   -8.7845804    53.597772  0.011166203  0.010473207            9 
  401000   0.62159679   -8.7813657    53.569036  0.011132385   0.01043406           11 
  402000   0.62774452   -8.7643358    53.565302  0.011103918  0.010395079            7 
  403000   0.62509185   -8.7731696    53.400175   0.01104222  0.010356164           12 
  404000   0.63294455   -8.7969928    53.463634  0.011027977  0.010317404           13 
  405000   0.61140154   -8.7915694    53.481865  0.011004499  0.010278787           24 
  406000   0.61698854   -8.7812438    53.594877  0.011000591  0.010240529           14 
  407000   0.62033325   -8.7895352    53.530926  0.010960468  0.010202404           10 
  408000   0.62152576   -8.7992574    53.516847  0.010930729  0.010164544            7 
  409000   0.63067408   -8.7992192     53.40958  0.010882148  0.010126624            9 
  410000    0.6125516   -8.8035189    53.384409   0.01085049  0.010088866           13 
  411000   0.60981396   -8.8276703    53.342946  0.010815683  0.010051283            9 
  412000   0.60429859   -8.8134455     53.37006  0.010794915  0.010013835            8 
  413000   0.60905959   -8.8180989    53.398711  0.010774558 0.0099766177           11 
  414000   0.62467246   -8.8233175    53.451823  0.010759224  0.009939558            8 
  415000   0.61022444   -8.8332305    53.489523  0.010740868 0.0099028254           10 
  416000   0.59833099   -8.8198931    53.442423  0.010705613   0.00986618           15 
  417000   0.60817143   -8.8267802    53.416701    0.0106748 0.0098297356           13 
  418000   0.60920128   -8.8197954    53.329144  0.010631807 0.0097934653           10 
  419000   0.60190311   -8.8343408    53.490885  0.010638601 0.0097572768           10 
  420000   0.58661597   -8.8237661    53.456457   0.01060644 0.0097212411            8 
  421000   0.59352119   -8.8323853    53.437499  0.010577494 0.0096853692            8 
  422000   0.58337224   -8.8449238    53.364461  0.010538006 0.0096496318           12 
  423000   0.58499425   -8.8377812    53.398583  0.010519815 0.0096140758           11 
  424000   0.59531424   -8.8451156    53.383149  0.010491971 0.0095787006           10 
  425000   0.59162167   -8.8418076    53.466305  0.010483589 0.0095435253           11 
  426000   0.57905776   -8.8377788    53.337319  0.010433748 0.0095086373           14 
  427000    0.6011869   -8.8459951     53.44479  0.010430287 0.0094737682           12 
  428000   0.58494339   -8.8495841    53.312994  0.010380256 0.0094390882            8 
  429000    0.5811816   -8.8375183     53.39226  0.010371457 0.0094044887           12 
  430000   0.58227664   -8.8510029    53.287516  0.010327038 0.0093701109            9 
  431000   0.58040379   -8.8669049    53.358059  0.010316717 0.0093358959            8 
  432000   0.57995314   -8.8649662    53.407843  0.010302439  0.009301865           10 
  433000   0.57907073   -8.8589425      53.2717  0.010252444   0.00926794           10 
  434000   0.57805317   -8.8428899    53.294595  0.010233217 0.0092342378           11 
  435000   0.56456821   -8.8788712    53.335709  0.010217569 0.0092006805           13 
  436000   0.57614337   -8.8655277     53.35929  0.010198641 0.0091672415            5 
  437000    0.5699691   -8.8652141    53.361026  0.010175634 0.0091340202           17 
  438000   0.56562177   -8.8646288    53.318029  0.010144222 0.0091009103           15 
  439000   0.56028706   -8.9012689    53.346635  0.010126544 0.0090678651           11 
  440000   0.56967814    -8.877268    53.245082  0.010084296 0.0090349935           12 
  441000   0.57061989   -8.8946367    53.347588  0.010080799 0.0090022871           18 
  442000   0.55754714   -8.8773653    53.347742  0.010058021 0.0089697055           11 
  443000   0.54795292   -8.8965946    53.302749  0.010026853 0.0089373386           14 
  444000   0.55288347   -8.9002853    53.206666 0.0099862361 0.0089050678           13 
  445000   0.56161723   -8.8868938    53.195174 0.0099616432 0.0088729734           19 
  446000   0.55282316   -8.8831936    53.335459 0.0099655192  0.008841096           11 
  447000   0.55647035   -8.9025073    53.258935 0.0099289587 0.0088092496           12 
  448000   0.56744848   -8.9230514    53.254052 0.0099058877 0.0087775084           24 
  449000   0.57578823   -8.9065904    53.179474  0.009869984 0.0087459457           12 
  450000   0.55913103   -8.9214153    53.234172 0.0098581801 0.0087145192           13 
  451000   0.55462386   -8.9307346    53.265283 0.0098420701 0.0086831817           10 
  452000   0.55173113   -8.9260301    53.144426 0.0097980136 0.0086520607            6 
  453000   0.53380087   -8.9185299    53.245668 0.0097950087 0.0086210038           12 
  454000   0.54566384   -8.9338935     53.17248      0.00976  0.008590101           18 
  455000   0.53196368   -8.9418795    53.100095 0.0097252922 0.0085593211            8 
  456000   0.53837889   -8.9472251    53.201382 0.0097224748 0.0085286971           10 
  457000   0.54648113   -8.9139353    53.241504 0.0097085163 0.0084982364            7 
  458000   0.54660009   -8.9374621    53.223633 0.0096840671 0.0084679077           11 
  459000   0.54449574   -8.9469325    53.145994 0.0096488732 0.0084376897            9 
  460000    0.5374549   -8.9544487    53.249557 0.0096466589 0.0084076317           12 
  461000   0.52984295   -8.9450443    53.213312 0.0096191814 0.0083777106            8 
  462000   0.52849335   -8.9592638    53.154767 0.0095878007 0.0083479121           23 
  463000   0.52951989   -8.9590539    53.138177 0.0095641067 0.0083182104            9 
  464000   0.54041466   -8.9544791    53.077811 0.0095326528 0.0082886317           13 
  465000   0.52594301    -8.953753    53.129611 0.0095214357 0.0082591124           15 
  466000   0.51832893    -8.970739    53.140834 0.0095030104 0.0082297584           16 
  467000   0.52776399   -8.9653392    53.111713 0.0094774648  0.008200537           20 
  468000   0.51909898   -8.9616416    53.084758 0.0094524142 0.0081714126           17 
  469000   0.50445789    -8.980282    53.105351 0.0094359188 0.0081424598           11 
  470000   0.50860265   -8.9636392    53.119356 0.0094183256 0.0081137078           15 
  471000   0.52041087   -8.9550394    53.128012 0.0093998606 0.0080850606           15 
  472000   0.50875192   -8.9674986    53.135123 0.0093812011 0.0080565835           16 
  473000   0.50567331   -8.9981229    53.096709 0.0093545999 0.0080281599           11 
  474000   0.51258355   -8.9915591    53.073648 0.0093308101 0.0079998621           14 
  475000   0.50854921   -8.9928937    53.067405 0.0093100711 0.0079717002           11 
  476000   0.50789615   -8.9977457    53.032578 0.0092844149 0.0079436954           11 
  477000   0.48839913   -8.9877656    53.057342  0.009269277 0.0079157278           12 
  478000   0.51060615   -8.9947719    53.027975 0.0092447655 0.0078879226           14 
  479000   0.49464726   -9.0165235    52.970779 0.0092155147 0.0078602619           13 
  480000   0.50337322   -9.0089568    53.115261 0.0092213995 0.0078327083           10 
  481000   0.51089692    -9.007339    52.959217 0.0091751936 0.0078053404           10 
  482000   0.50611255   -9.0030118    53.017307  0.009166201 0.0077780527            8 
  483000   0.49559875   -9.0101502    53.034401 0.0091501727 0.0077508577           15 
  484000   0.50342992   -8.9979759    53.051898   0.00913428 0.0077238112           10 
  485000   0.51137077    -9.013181    52.942385 0.0090966298 0.0076969228           17 
  486000   0.49092719   -9.0147482      53.0034 0.0090883745 0.0076701765            8 
  487000   0.49051026   -9.0075805    53.072699 0.0090815707  0.007643526           11 
  488000   0.49816234   -9.0183336    52.965314 0.0090446233 0.0076170242           12 
  489000   0.48341676   -9.0279771     53.06563 0.0090432226 0.0075906109           15 
  490000   0.47706867   -9.0275323     52.97201 0.0090088452 0.0075642956            9 
  491000   0.48306379   -9.0252329    52.930452 0.0089834439 0.0075380897           15 
  492000    0.4853287   -9.0456467    53.076782 0.0089899699 0.0075120092           13 
  493000   0.48048056   -9.0182892     52.92567 0.0089461917 0.0074859993            9 
  494000   0.47787635   -9.0405792    52.965329 0.0089347721 0.0074601282           16 
  495000    0.4746309   -9.0468461    52.830724 0.0088940613 0.0074344214           10 
  496000   0.47829835   -9.0575732    52.951947 0.0088964964  0.007408837           14 
  497000   0.47408009   -9.0430712    52.965258 0.0088808279 0.0073832877           15 
  498000   0.46625259    -9.032345    53.009169 0.0088703428 0.0073579123           15 
  499000   0.46948239   -9.0431895    52.952651 0.0088431281 0.0073326251           12 
  500000   0.46922543   -9.0430122    52.908316 0.0088180526 0.0073074385           11 
  501000   0.47846712   -9.0615867    52.858516 0.0087921682 0.0072824197            7 
  502000    0.4664961   -9.0521447    52.913212 0.0087837337 0.0072575084           14 
  503000   0.46008009   -9.0492308     52.85755 0.0087570494 0.0072326849           10 
  504000   0.45693248   -9.0546501    52.896214 0.0087460671 0.0072079239           13 
  505000   0.46030727   -9.0841586    52.916027 0.0087320176 0.0071833046            6 
  506000    0.4520415   -9.0741301     52.86314 0.0087060507 0.0071587645            8 
  507000   0.45321613   -9.0622699     52.88541 0.0086925394 0.0071344157            9 
  508000   0.45339744   -9.0833271     52.83179 0.0086666323 0.0071100882           10 
  509000   0.45446089   -9.0747357    52.922388 0.0086644381 0.0070859429           16 
  510000   0.45179898   -9.0570447    52.775629 0.0086234687  0.007061885            9 
  511000   0.44921524   -9.0882319    52.862688 0.0086207907 0.0070379224           12 
  512000   0.45165457   -9.0726947    52.840628 0.0086003626 0.0070140442            9 
Loop time of 1257.6 on 48 procs for 500000 steps with 4000 atoms

Performance: 68702.144 tau/day, 397.582 timesteps/s
99.4% CPU use with 48 MPI tasks x no OpenMP threads

MPI task timing breakdown:
Section |  min time  |  avg time  |  max time  |%varavg| %total
---------------------------------------------------------------
Pair    | 86.352     | 91.138     | 98.521     |  25.6 |  7.25
Neigh   | 8.4082     | 8.7058     | 9.0267     |   5.9 |  0.69
Comm    | 79.807     | 86.712     | 91.349     |  29.6 |  6.90
Output  | 0.86415    | 0.86506    | 0.89631    |   0.5 |  0.07
Modify  | 1054       | 1058.1     | 1062.9     |   6.5 | 84.14
Other   |            | 12.06      |            |       |  0.96

Nlocal:        83.3333 ave          89 max          73 min
Histogram: 1 1 0 2 1 12 15 7 5 4
Nghost:        2258.48 ave        2271 max        2243 min
Histogram: 4 3 2 5 3 9 5 8 5 4
Neighs:        15149.7 ave       16792 max       12822 min
Histogram: 1 0 0 5 9 10 9 8 4 2
FullNghs:      30300.1 ave       32449 max       26475 min
Histogram: 1 1 0 2 4 11 12 7 6 4

Total # of neighbors = 1454405
Ave neighs/atom = 363.60125
Neighbor list builds = 26678
Dangerous builds = 0

#clear
#
#next RN
#
#jump SELF
Total wall time: 0:21:01
