
units lj                  # Use reduced LJ style units
atom_style atomic         # Uncharged point particles
atom_modify map hash      # Needed for indexing of clusters etc
                          # Used to be able to find where atoms are in relation to each other.

lattice fcc 1.0 spacing 1 1 1
Lattice spacing in x,y,z = 1.5874011 1.5874011 1.5874011
region box block 0 10 0 10 0 10 units lattice
create_box 2 box
Created orthogonal box = (0.0000000 0.0000000 0.0000000) to (15.874011 15.874011 15.874011)
  3 by 4 by 4 MPI processor grid
create_atoms 1 box
Created 4000 atoms
  using lattice units in orthogonal box = (0.0000000 0.0000000 0.0000000) to (15.874011 15.874011 15.874011)
  create_atoms CPU = 0.037 seconds
set type 1 type/fraction 2 0.96 78393
Setting atom values ...
  3848 settings made for type/fraction
mass 1 1.0
mass 2 1.0
pair_style lj/cut  3.5
pair_modify tail  yes
pair_coeff 1  1  1.0  1.0   # Intearaction between 1 and 1 set with epsilon = 1 and sigma = 1
pair_coeff 1  2  1.5  0.8
pair_coeff 2  2  0.5  0.88

write_data data.0
System init for write_data ...
Neighbor list info ...
  update every 1 steps, delay 10 steps, check yes
  max neighbors/atom: 2000, page size: 100000
  master list distance cutoff = 3.8
  ghost atom cutoff = 3.8
  binsize = 1.9, bins = 9 9 9
  1 neighbor lists, perpetual/occasional/extra = 1 0 0
  (1) pair lj/cut, perpetual
      attributes: half, newton on
      pair build: half/bin/atomonly/newton
      stencil: half/bin/3d
      bin: standard
WARNING: Not all mixed pair coeffs generated from mixing. Use write_data with 'pair ij' option to store all pair coeffs. (../write_data.cpp:312)


#############################
#   M E L T   S Y S T E M   #
#############################

velocity all create 2.4 2750902 mom yes dist gaussian # Assign velocities
                                                    # Temperature 2.4, random number seed, zero linear momentum
                                                                                # Gaussian distribution

timestep 0.002   # simulation timestep
thermo 1000       # output thermodynamic data every 1000 steps bf 100

# Define a fix  in this case with index 1 applied to all
# particles in the simulation. This fix is for simulations
# in the anisotropic NPT ensemble. Note that we use the MTK
# correction.
fix 1 all npt temp 2.4 2.4 0.1 iso 5.68 5.68 0.5 mtk yes tchain 5 pchain 5 # Use NPT ensemble
                                                                         # Set temperature and pressure and damping
                                                                         # Numbers of thermostats in chain and in barostat
run 10000          # run for 10000 steps
Per MPI rank memory allocation (min/avg/max) = 3.642 | 3.644 | 3.648 Mbytes
Step Temp E_pair E_mol TotEng Press Volume 
       0          2.4   -2.8820212            0   0.71707882   -2.0430313         4000 
    1000    2.4246928   -1.7234958            0    1.9126341    5.6913745    4162.9156 
    2000    2.4562557   -1.7232009            0    1.9602616    5.7045839    4177.6293 
    3000    2.4454412   -1.7452016            0    1.9220432    5.6072234    4161.3877 
    4000    2.3976647   -1.7083036            0    1.8872943    5.7276089    4167.2998 
    5000     2.379753   -1.7247258            0    1.8440113    5.6385055    4176.2871 
    6000    2.3749655   -1.6989435            0    1.8626142     5.757975    4189.0422 
    7000    2.4536705   -1.7149489            0    1.9646367    5.7270211    4164.9183 
    8000     2.398941   -1.7138173            0    1.8836946    5.3997452    4240.0271 
    9000    2.3724598   -1.7168571            0    1.8409429    5.7189868    4161.0695 
   10000    2.3564935    -1.736607            0    1.7972495     5.452692    4185.1452 
Loop time of 2.42812 on 48 procs for 10000 steps with 4000 atoms

Performance: 711662.493 tau/day, 4118.417 timesteps/s
99.6% CPU use with 48 MPI tasks x no OpenMP threads

MPI task timing breakdown:
Section |  min time  |  avg time  |  max time  |%varavg| %total
---------------------------------------------------------------
Pair    | 1.0443     | 1.1059     | 1.2274     |   2.9 | 45.55
Neigh   | 0.20465    | 0.21182    | 0.23919    |   1.1 |  8.72
Comm    | 0.74977    | 0.84806    | 0.92377    |   4.1 | 34.93
Output  | 0.00024184 | 0.0002469  | 0.0003056  |   0.0 |  0.01
Modify  | 0.19631    | 0.24731    | 0.28764    |   5.8 | 10.19
Other   |            | 0.01474    |            |       |  0.61

Nlocal:        83.3333 ave          92 max          76 min
Histogram: 4 6 4 6 7 5 8 1 4 3
Nghost:        1596.17 ave        1624 max        1567 min
Histogram: 1 5 4 5 7 9 5 6 3 3
Neighs:        9112.44 ave       10373 max        7769 min
Histogram: 1 4 2 6 11 8 8 2 3 3

Total # of neighbors = 437397
Ave neighs/atom = 109.34925
Neighbor list builds = 911
Dangerous builds = 233

# Equilibrate just above the melting temperature to avoid step fn in T

fix 1 all npt temp 1.25 1.25 0.1 iso 5.68 5.68 0.5 mtk yes tchain 5 pchain 5
run 2000
Per MPI rank memory allocation (min/avg/max) = 3.643 | 3.645 | 3.649 Mbytes
Step Temp E_pair E_mol TotEng Press Volume 
   10000    2.3564935    -1.736607            0    1.7972495     5.452692    4185.1452 
   11000    1.2297361   -2.6064654            0   -0.7623225    5.7518372     3259.703 
   12000     1.270977   -2.6222869            0  -0.71629805    5.6775505     3248.708 
Loop time of 0.573681 on 48 procs for 2000 steps with 4000 atoms

Performance: 602425.351 tau/day, 3486.258 timesteps/s
99.6% CPU use with 48 MPI tasks x no OpenMP threads

MPI task timing breakdown:
Section |  min time  |  avg time  |  max time  |%varavg| %total
---------------------------------------------------------------
Pair    | 0.25863    | 0.27679    | 0.29853    |   2.0 | 48.25
Neigh   | 0.038865   | 0.040948   | 0.043029   |   0.6 |  7.14
Comm    | 0.18475    | 0.20826    | 0.23093    |   2.6 | 36.30
Output  | 5.1824e-05 | 5.3445e-05 | 6.8212e-05 |   0.0 |  0.01
Modify  | 0.040394   | 0.043078   | 0.046253   |   0.9 |  7.51
Other   |            | 0.004554   |            |       |  0.79

Nlocal:        83.3333 ave          92 max          76 min
Histogram: 2 5 6 8 5 8 8 2 3 1
Nghost:        1885.90 ave        1908 max        1860 min
Histogram: 1 4 3 8 8 2 7 5 7 3
Neighs:        11761.9 ave       13159 max       10190 min
Histogram: 1 5 1 6 12 6 6 3 3 5

Total # of neighbors = 564573
Ave neighs/atom = 141.14325
Neighbor list builds = 146
Dangerous builds = 21

#############################
# L I N E A R  Q U E N C H  #
#############################

# Define solid atoms. This closely follows ten Wolde  Ruiz-Montero and Frenkel  Faraday Discuss  1996  104  93-110
# Compute components of the per-atom q6 vector
compute q6 all orientorder/atom degrees 1 6 components 6 nnn NULL cutoff 1.3 # compute the Q6 parameter.
                                                                             # Use all neighbours within 1.3 unit cell.

# get number of connections
compute coord_number all coord/atom orientorder q6 0.5

# An atom is solid if it has 8 or more connections (of a possible 14)
variable is_solid atom c_coord_number>=8
group solid dynamic all var is_solid    # Must be dynamic to update
dynamic group solid defined

# do clustering
compute cluster solid cluster/atom 1.3 # Create a cluster where all atoms within are solid and max 1.3 units from another member

# define chunks one chunk per cluster
compute clus_chunks solid chunk/atom c_cluster nchunk every compress yes  # Says which atoms are in which chunk

# count the size of each chunk
compute size_chunks solid property/chunk clus_chunks count


# Find the maximum entry in the vector of chunk sizes
variable max_n equal max(c_size_chunks)


# Thermo style which includes this variable
# thermo_style custom step temp pe vol v_max_n

thermo ${N}  # Print the thermo information every 100 steps
thermo 1000  

# Reset the npt fix at a lower temperature (below freezing)
fix 1  all npt temp  ${temp} ${temp}  0.1  iso  5.68  5.68  0.5  mtk yes tchain  5  pchain  5
fix 1  all npt temp  0.45 ${temp}  0.1  iso  5.68  5.68  0.5  mtk yes tchain  5  pchain  5
fix 1  all npt temp  0.45 0.45  0.1  iso  5.68  5.68  0.5  mtk yes tchain  5  pchain  5

dump dmp2 all dcd ${N} traj.dcd
dump dmp2 all dcd 1000 traj.dcd


compute msd all msd com yes
variable twopoint equal c_msd[4]/6/(step*dt+1.0e-6)
fix 9 all vector 10 c_msd[4]
variable fit equal slope(f_9)/6/(10*dt)
thermo_style custom step temp pe c_msd[4] v_twopoint v_fit v_max_n

fix 1 all npt temp 1.25 ${temp} 0.1 iso 5.68 5.68 0.5 mtk yes tchain 5 pchain 5
fix 1 all npt temp 1.25 0.45 0.1 iso 5.68 5.68 0.5 mtk yes tchain 5 pchain 5
run 2000000 # 5000000  # Run for this many steps
Neighbor list info ...
  update every 1 steps, delay 10 steps, check yes
  max neighbors/atom: 2000, page size: 100000
  master list distance cutoff = 3.8
  ghost atom cutoff = 3.8
  binsize = 1.9, bins = 8 8 8
  4 neighbor lists, perpetual/occasional/extra = 1 3 0
  (1) pair lj/cut, perpetual
      attributes: half, newton on
      pair build: half/bin/atomonly/newton
      stencil: half/bin/3d
      bin: standard
  (2) compute orientorder/atom, occasional
      attributes: full, newton on
      pair build: full/bin/atomonly
      stencil: full/bin/3d
      bin: standard
  (3) compute coord/atom, occasional
      attributes: full, newton on
      pair build: full/bin/atomonly
      stencil: full/bin/3d
      bin: standard
  (4) compute cluster/atom, occasional
      attributes: full, newton on
      pair build: full/bin/atomonly
      stencil: full/bin/3d
      bin: standard
Per MPI rank memory allocation (min/avg/max) = 9.814 | 9.819 | 9.824 Mbytes
Step Temp PotEng c_msd[4] v_twopoint v_fit v_max_n 
   12000     1.270977   -2.6222869            0            0 8.3333333e+20            1 
   13000    1.2765027   -2.6437191    1.1215784  0.007189605  0.096090827            1 
   14000    1.2158936   -2.5999473    2.3621299  0.014060297   0.10004083            4 
   15000    1.2476073   -2.5873736    3.6025789  0.020014327   0.10155011            2 
   16000    1.2705447   -2.6399841    4.8740734  0.025385798   0.10305374       -1e+20 
   17000    1.2342795   -2.6182031    6.1535418   0.03016442   0.10417806            1 
   18000      1.23424   -2.6283288    7.3450123  0.034004686   0.10447976            2 
   19000    1.2417652    -2.660959    8.6096455  0.037761602   0.10416867            1 
   20000    1.2435718   -2.6621863    9.8973273  0.041238863   0.10418082            1 
   21000    1.2395884   -2.6448138     11.29852  0.044835394   0.10449877            1 
   22000    1.2864062   -2.6371602     12.44439   0.04713784   0.10505662            1 
   23000    1.2667558   -2.6190542     13.71177  0.049680324   0.10509083       -1e+20 
   24000     1.238285   -2.6341817     14.96483  0.051961213   0.10506267            1 
   25000    1.2328317   -2.6914652    16.206912  0.054023039   0.10489783            1 
   26000     1.272695   -2.6469509    17.443938  0.055910056   0.10471981            2 
   27000    1.2316717   -2.6645692    18.468478  0.057001476    0.1043305            1 
   28000    1.2271754   -2.6599343    19.850759  0.059079638   0.10399593            1 
   29000     1.237445   -2.6624341    21.108928  0.060657839   0.10401142            2 
   30000     1.247048   -2.6319244    22.189868  0.061638521   0.10396478            1 
   31000    1.2621071   -2.6436746    23.372735  0.062829933    0.1037332            2 
   32000    1.2457642   -2.6433505    24.579427  0.064008924   0.10344792            2 
   33000    1.2419206   -2.6219665    25.469041  0.064315759   0.10297522            1 
   34000    1.2622997   -2.6782518    26.611575  0.065224448   0.10249842            2 
   35000    1.2680886   -2.6433568    28.112761  0.066935144   0.10217325            2 
   36000    1.2491867   -2.6518718    29.335248  0.067905666    0.1019831            2 
   37000    1.2398619   -2.6282311    30.552533  0.068812011   0.10191534            1 
   38000    1.2289062   -2.6175431    31.816611  0.069773268   0.10186454            2 
   39000    1.2254244   -2.6094142    32.930264  0.070363811   0.10174755            1 
   40000    1.2413486   -2.6371939    33.974055  0.070779281   0.10153042            1 
   41000    1.2688735   -2.6153438    35.490053  0.072134252   0.10141552            2 
   42000    1.2316469   -2.6474171    36.616035  0.072650861   0.10136822            1 
   43000    1.2431508   -2.6511389    37.871854  0.073395064   0.10131572            2 
   44000    1.2263619   -2.6531461    38.990343  0.073845346   0.10129555            1 
   45000    1.2424154   -2.6645366    40.528031  0.075051908   0.10133584            1 
   46000    1.2412687   -2.6408602    41.930551  0.075961142   0.10149022            1 
   47000    1.2363797   -2.6368116    42.905308  0.076073241   0.10165494            1 
   48000    1.2145314   -2.6358502    44.344849  0.076987584   0.10177616            3 
   49000    1.2533661   -2.6441417    45.694436  0.077711626   0.10188194            1 
   50000    1.2335506   -2.6347122    46.994459  0.078324097   0.10199137            2 
   51000    1.2011187   -2.6480985    48.413298  0.079106696   0.10211316            1 
   52000     1.246044   -2.6638259    49.232137  0.078897655   0.10221215            1 
   53000    1.2330487   -2.6673671    50.546897  0.079476252   0.10228087            2 
   54000    1.2341163   -2.6729002    51.607581  0.079641329   0.10230585            1 
   55000    1.2485859   -2.6721379    52.763999  0.079945452   0.10233595            1 
   56000    1.2324674   -2.6560401    53.798303  0.080056997   0.10235963            1 
   57000    1.2403886   -2.6682945    55.069081  0.080510351   0.10235167            1 
   58000    1.2493487    -2.648108    56.424649  0.081069897   0.10233449            4 
   59000    1.2375203   -2.6415056    57.327406  0.080970912   0.10227115            1 
   60000    1.2479078   -2.6558082    58.811348  0.081682427   0.10223473            1 
   61000    1.2212238     -2.66995    59.880355  0.081803763   0.10223861            4 
   62000    1.2398767   -2.6535759    61.361706   0.08247541   0.10221686            1 
   63000    1.2509237   -2.6438354    62.154023  0.082214316   0.10217383            1 
   64000    1.2271078    -2.675352     63.12263  0.082190924   0.10206442            1 
   65000     1.245703   -2.6680402    64.837657  0.083125201   0.10203512            1 
   66000    1.2179105   -2.6386993    65.414196  0.082593681   0.10195468            2 
   67000    1.2333123   -2.6266732    66.842116  0.083136959   0.10187337            1 
   68000    1.2390586   -2.6428147    68.386373  0.083806829    0.1018244            3 
   69000    1.2348144   -2.6631709    69.535576  0.083980164   0.10177858            2 
   70000    1.2030268   -2.6667196    70.653799  0.084111665   0.10173321            2 
   71000     1.223896   -2.6907606     72.07932  0.084600141   0.10170764            3 
   72000    1.2623335   -2.6351913    73.402951  0.084957119   0.10173461            4 
   73000    1.2142259    -2.656478    74.548743  0.085101304   0.10175084            3 
   74000    1.1984352   -2.6614049    75.896374  0.085468889   0.10177517            1 
   75000    1.2126127   -2.6638896    77.463241  0.086070268   0.10180468            1 
   76000    1.2347291   -2.6551985     79.26527  0.086913673   0.10183893            1 
   77000    1.2310155    -2.673651    79.832288  0.086398579   0.10188089            1 
   78000    1.1956987   -2.6639395    81.116418  0.086662839    0.1019389            2 
   79000    1.2439483   -2.6824239    82.900124  0.087447387    0.1020396            1 
   80000    1.2454726   -2.6476298    84.659779  0.088187269   0.10214271            1 
   81000    1.2109493   -2.6200377    86.132481  0.088613663   0.10227352            2 
   82000    1.2325356   -2.6767704    87.444825  0.088866692   0.10242243            1 
   83000    1.1877284   -2.6489569    88.873146  0.089230066   0.10257369            1 
   84000    1.2134225   -2.6785059    89.880051  0.089166717   0.10271394            2 
   85000    1.2353347   -2.6814055    90.678568  0.088900556   0.10283891       -1e+20 
   86000    1.2109159   -2.6417047    92.736761  0.089861202   0.10293364            1 
   87000    1.2489268    -2.661427     93.12768  0.089202758   0.10299606            1 
   88000    1.2240241   -2.6721878    94.309471  0.089308211   0.10304202            2 
   89000    1.2357246   -2.6584594    95.020105  0.088970135   0.10306787            1 
   90000    1.2322423   -2.6481144    96.486724  0.089339559   0.10307665            1 
   91000    1.2343983   -2.6822954    97.153184  0.088968116   0.10308528            3 
   92000    1.2189844   -2.6763165    98.446071  0.089172165   0.10307565            1 
   93000    1.2060459   -2.6860354    99.918339  0.089532561   0.10305551            1 
   94000    1.2454782   -2.6682034    100.67952  0.089254893   0.10305129            3 
   95000    1.2294329   -2.6628256    102.54428  0.089951126   0.10305306            1 
   96000    1.1943836   -2.6615964    103.72069  0.090035317   0.10306668            2 
   97000     1.233332   -2.6894344    104.86332  0.090088762   0.10309546            3 
   98000    1.2406784   -2.6644265     106.0837  0.090207231   0.10308672            2 
   99000    1.2040322   -2.6624285     107.5663  0.090544026   0.10308151            2 
  100000    1.2138065    -2.679062    109.00827  0.090840223   0.10307952            3 
  101000    1.2288178    -2.678388    109.84144  0.090628254   0.10307401            1 
  102000    1.2091066   -2.6629797    110.49062  0.090270117   0.10306403            1 
  103000    1.2110037    -2.672624    112.51456  0.091031198   0.10306487            2 
  104000    1.1952971   -2.6909648    113.92037  0.091282347   0.10307476            2 
  105000    1.2461707   -2.6855592    114.66967  0.091007676   0.10307636            2 
  106000    1.2072543    -2.697195    115.69844  0.090957894    0.1030694            1 
  107000    1.2266429   -2.6729028    117.32458   0.09137428   0.10304316            2 
  108000    1.1687414   -2.6998005    117.45739  0.090630705   0.10302042            1 
  109000    1.2163336   -2.6550281     118.5531  0.090636928   0.10298787            1 
  110000    1.1975195     -2.64908    120.66877  0.091415733   0.10296575            2 
  111000    1.1970894   -2.6695538    121.64631  0.091326059   0.10294552            2 
  112000    1.2095914   -2.7006828    122.54035  0.091175855    0.1029165            2 
  113000    1.2109054    -2.679916    124.46424  0.091787788   0.10289404            1 
  114000    1.2378165   -2.6543455    126.23428  0.092276522   0.10288741            1 
  115000    1.2178585   -2.7007526    126.06825  0.091353802    0.1028643            2 
  116000    1.2383739     -2.66149    128.10968  0.092032819   0.10283972            1 
  117000    1.2652661   -2.6678212    127.98775  0.091159366   0.10280205            1 
  118000    1.1989272   -2.6652325     129.1911  0.091236651   0.10274379            5 
  119000    1.1787409   -2.6503319    130.14999  0.091141449   0.10268032            1 
  120000    1.1792935   -2.6750733    131.91984  0.091611001   0.10261105            2 
  121000    1.1953993   -2.6603426    132.17815  0.091031783   0.10254289            1 
  122000    1.2240612   -2.6664582    133.81651  0.091404722    0.1024593            1 
  123000     1.202222    -2.648995    133.85577  0.090688194   0.10236658            1 
  124000    1.1881785   -2.6477261    135.26532  0.090904116   0.10227427            1 
  125000    1.2304466   -2.7153936    135.59209  0.090394724   0.10216744            1 
  126000    1.2076517   -2.6660896    136.91189  0.090550191   0.10207215            1 
  127000    1.2158754     -2.68858     138.9532   0.09117664   0.10197575            1 
  128000    1.2067347   -2.6898674    138.93447  0.090452129   0.10188771            2 
  129000    1.1830221   -2.7047032    140.36051  0.090672166   0.10179239            1 
  130000    1.1870887   -2.7226717    141.49037  0.090698957   0.10169941            1 
  131000    1.2265286     -2.68929    142.74689   0.09080591   0.10160567            1 
  132000    1.2216143   -2.6843232    144.08456  0.090962473   0.10151344            1 
  133000    1.1993521   -2.6916137    145.17068  0.090959074    0.1014273            1 
  134000    1.2036152    -2.681145    146.57663  0.091154621   0.10134578            2 
  135000    1.2059132   -2.6504626    148.26941  0.091524327   0.10127131            1 
  136000      1.19332   -2.7381912    149.35989  0.091519538   0.10121783            1 
  137000    1.2010042   -2.7137583    149.74848  0.091087883   0.10116058            1 
  138000    1.1821197   -2.6811263    152.37198  0.092012066   0.10110681            1 
  139000    1.2242692   -2.7049507    152.53197  0.091446026   0.10103892            1 
  140000    1.2101401   -2.6692663     153.0941  0.091127438   0.10095736            2 
  141000    1.2370539   -2.6843722    153.69875  0.090838506   0.10087056            4 
  142000    1.1913689   -2.6624233    155.13869  0.091043832   0.10078348            3 
  143000    1.1805082   -2.6622505    156.32787   0.09110016   0.10069887            1 
  144000    1.1844842   -2.6616836    157.35575  0.091062358   0.10061861            2 
  145000    1.1813666   -2.6983943    159.04323  0.091404153   0.10054663            2 
  146000    1.1873132    -2.665765    159.89423  0.091263831   0.10047037            2 
  147000    1.1851556   -2.6858542    161.39428  0.091493356    0.1003915            2 
  148000    1.1722683    -2.679471    162.14977  0.091300548   0.10032554            1 
  149000    1.1950276   -2.6934001    162.86198  0.091086118   0.10025323            1 
  150000    1.1926438   -2.6816397    165.24307  0.091801705   0.10019248            2 
  151000    1.2094219   -2.6831695    166.50791  0.091891781   0.10013482            1 
  152000    1.1838457   -2.6968856    167.00183  0.091558021   0.10007574            1 
  153000    1.1868271   -2.7204446    168.37107  0.091705377   0.10001066            1 
  154000    1.2121037   -2.6526343    169.52417   0.09173386  0.099955601            2 
  155000    1.1578433   -2.7031936    169.83812  0.091310817  0.099896728            1 
  156000    1.1794662   -2.7033677    170.67317  0.091171565  0.099836032            2 
  157000    1.1885425   -2.7089098    171.93171  0.091258869  0.099761991            3 
  158000    1.1975719   -2.6832768    173.02641  0.091258657   0.09968826            2 
  159000    1.1742422   -2.7108537    173.36671  0.090863056  0.099612754            2 
  160000    1.2035449   -2.7256306    175.07639  0.091185618  0.099541028            2 
  161000     1.194917   -2.7343127    175.91614  0.091053903   0.09947269            1 
  162000    1.1634694   -2.6870726    177.78098  0.091451121  0.099405177            1 
  163000    1.1922788   -2.7225257    177.42545  0.090708308  0.099340683            2 
  164000     1.174014   -2.6839216     180.4248  0.091679266  0.099278446            1 
  165000    1.1912925   -2.6911948    180.95613  0.091391986  0.099219709            1 
  166000     1.192911    -2.682085    183.75652   0.09224725  0.099167363            3 
  167000    1.1972667   -2.7037138    184.38831  0.092010133  0.099124374            3 
  168000     1.178355   -2.6917785     185.1538   0.09184216  0.099088658            2 
  169000    1.1658585   -2.6882947     186.8922  0.092155915  0.099056246            2 
  170000    1.1874128   -2.6994137     188.2479  0.092278383  0.099022245            1 
  171000    1.1629191    -2.689818    189.27092   0.09223729  0.098990938            1 
  172000    1.2015845   -2.7314069    190.72899  0.092407455  0.098960456            2 
  173000    1.1798482   -2.7034982    191.43508   0.09221343    0.0989275            2 
  174000    1.1837285   -2.7123777    192.32437  0.092109372  0.098894744            3 
  175000    1.1622685   -2.6606277     194.1403  0.092447762   0.09886208            1 
  176000    1.1964815   -2.6919289    194.43289  0.092061025  0.098837178            2 
  177000    1.1758826   -2.6987934    196.71128  0.092613596   0.09880969            2 
  178000    1.1781872   -2.7076358    196.60734  0.092044636   0.09878326            1 
  179000    1.1704539   -2.7041444    198.23086  0.092286246   0.09875789            1 
  180000    1.1881177   -2.7002492    199.47152  0.092347926  0.098725177            2 
  181000     1.176479   -2.6725207    200.20232  0.092174179  0.098702487            2 
  182000    1.1940968   -2.6974753    201.24434  0.092144843  0.098677261            2 
  183000    1.1545146   -2.6810665    204.20922  0.092991449   0.09865642            3 
  184000    1.1566572   -2.7260656     203.9426  0.092365309  0.098635665            1 
  185000    1.1705281   -2.7111548    205.48379  0.092560265  0.098614175            2 
  186000    1.1734547   -2.7072687      206.397  0.092471773  0.098595897            2 
  187000    1.1626487   -2.6849806    207.99009  0.092687204  0.098579994            2 
  188000    1.1748453   -2.7174003    208.93601  0.092613481  0.098552326            1 
  189000    1.1937705   -2.7057013    209.53067  0.092385657  0.098524144            2 
  190000    1.2173407   -2.6952302     212.1635  0.093054165  0.098503009            1 
  191000    1.1830958   -2.7097996    212.44407  0.092689386  0.098483478            2 
  192000    1.1720487   -2.7060126    213.60511  0.092710549  0.098466134            2 
  193000    1.1955425   -2.6722912    215.24268  0.092937254  0.098456607            2 
  194000     1.185666   -2.7315576    214.63457   0.09219698  0.098441866            2 
  195000    1.1943885   -2.7285421    217.33604  0.092878649  0.098427028            1 
  196000    1.1733075   -2.7110999    218.12457  0.092740036  0.098412645            1 
  197000    1.1921481   -2.6801339    220.00635  0.093065292  0.098402683            1 
  198000    1.1654556   -2.7090673    222.53523   0.09365961  0.098391927            3 
  199000    1.1595394   -2.7136787    222.60454  0.093217982  0.098378146            1 
  200000    1.2034491   -2.7353496    223.41815  0.093090896  0.098365112            1 
  201000    1.1584322   -2.7027212    225.04694  0.093303042  0.098354473            2 
  202000    1.1694978   -2.6960505    226.54871  0.093460688  0.098341792            1 
  203000    1.1640403   -2.7229984    226.92539  0.093154921  0.098330482            1 
  204000    1.1767348   -2.6999176    228.91656  0.093511668  0.098322729            2 
  205000    1.1535789   -2.7345163    229.65388  0.093355234  0.098322799            1 
  206000    1.1606149   -2.7282815    231.03738  0.093461722  0.098323122            3 
  207000    1.1812361   -2.6998198    231.72177  0.093285736  0.098318341            2 
  208000    1.1665019   -2.7135437    231.80543  0.092870765  0.098310218            1 
  209000    1.1738427   -2.7048976    234.48162  0.093493469  0.098295608            2 
  210000    1.1827767    -2.714217    235.42689   0.09342337  0.098281986            1 
  211000    1.1609717   -2.7411116    236.25639   0.09330821  0.098268772            2 
  212000    1.1372622   -2.6901856    237.43442  0.093331139  0.098255066            1 
  213000    1.1902861   -2.7292042    237.88669   0.09306991  0.098241613            2 
  214000    1.1762116    -2.717104    238.77929  0.092982591  0.098219556            1 
  215000     1.154233    -2.743897    240.13126  0.093074132  0.098202743            2 
  216000    1.1960833   -2.7501641    240.08026  0.092623556  0.098186671            1 
  217000    1.1431041   -2.7178502    242.12863  0.092983344  0.098167466            3 
  218000    1.1805546   -2.7161653    243.02036  0.092897689  0.098148585            2 
  219000    1.1468081   -2.7384412    243.35475  0.092600743  0.098127534            2 
  220000    1.1711065   -2.7201687    244.60873  0.092654822  0.098098203            2 
  221000    1.1852337    -2.683238    246.08664  0.092792849  0.098063499            1 
  222000    1.1741789     -2.71502    245.44405  0.092133651  0.098030539            1 
  223000    1.1469644   -2.6663436    248.22288  0.092758922  0.098000971            1 
  224000    1.1584724   -2.7321679    248.28645   0.09236847  0.097970892            2 
  225000    1.1291209   -2.7263064    250.15779  0.092651034  0.097939474            1 
  226000    1.1463591   -2.7064538    250.19321  0.092254134  0.097904151            1 
  227000    1.1699217    -2.725519    251.55975  0.092349394  0.097868252            2 
  228000    1.1646887   -2.7346808    251.93077  0.092079961  0.097835685            2 
  229000    1.1727145   -2.7285807    254.46224  0.092599067  0.097799783            4 
  230000     1.163705   -2.7168477    255.38329  0.092530177  0.097767696            2 
  231000    1.1950759   -2.7312794    256.45059  0.092514642  0.097739807            4 
  232000    1.1659768   -2.7292849    258.10702  0.092710856  0.097707082            2 
  233000    1.1470245   -2.7525132    258.65297  0.092508214  0.097676384            1 
  234000    1.1865091   -2.7165993    259.44896  0.092396354  0.097644915            2 
  235000    1.1823502   -2.7228921    260.86197  0.092504244  0.097616028            1 
  236000    1.1600664   -2.7159197    262.88456  0.092826468   0.09759222            2 
  237000    1.1603756   -2.7260863    264.86175  0.093130011  0.097574147            3 
  238000    1.1544277   -2.7478384    263.93614  0.092414615  0.097551464            1 
  239000    1.1445305   -2.7227162    266.87391  0.093052269  0.097529755            3 
  240000    1.1710132   -2.7395866    267.59796  0.092915959  0.097503706            1 
  241000    1.1618519   -2.7118969    268.21973  0.092745411  0.097476198            2 
  242000    1.1665165   -2.7377614    270.01205  0.092979354  0.097449069            1 
  243000    1.1628742   -2.7127253    271.65806  0.093161202  0.097423688            2 
  244000    1.1860933   -2.7044363    271.72957  0.092803816  0.097400069            2 
  245000    1.1560393   -2.7350673    272.23993  0.092598614   0.09737837            1 
  246000    1.1609542    -2.741348    273.38184  0.092609025  0.097355041            2 
  247000    1.1678102   -2.7442552    274.76325  0.092700151  0.097330653            3 
  248000    1.1587055   -2.7295232    275.80831  0.092677524  0.097306804            2 
  249000     1.151281   -2.7118289    277.45231  0.092855525  0.097281235            3 
  250000    1.1350205   -2.7593553    276.98057  0.092326858  0.097252578            2 
  251000    1.1618736    -2.743687    279.41041  0.092765739  0.097224375            2 
  252000    1.1522542   -2.7316499    281.60158  0.093122217  0.097199021            1 
  253000    1.1344422   -2.7301393    282.46493  0.093038516  0.097183921            2 
  254000    1.1605644   -2.7135635    284.25725  0.093260252  0.097167314            2 
  255000    1.1959685   -2.7298898    285.32659  0.093243984   0.09715382            1 
  256000    1.1719612   -2.7290807    286.27773  0.093189364   0.09714407            2 
  257000    1.1282965   -2.7355347    287.60451  0.093256975  0.097131527            3 
  258000    1.1701122   -2.7368581    289.87821  0.093629913  0.097123003            1 
  259000    1.1687335   -2.7442019    290.15841  0.093358562  0.097115443            3 
  260000    1.1490544   -2.7232323    292.68737  0.093810055  0.097107644            3 
  261000    1.1469023   -2.7559655    293.57961  0.093735508  0.097098507            2 
  262000    1.1531316   -2.7773425    293.86933  0.093469887  0.097089868            2 
  263000    1.1513795   -2.7492422    294.59647  0.093344889  0.097081636            3 
  264000    1.1391685   -2.7211485    294.54187  0.092974076  0.097070503            5 
  265000    1.1602737   -2.7237224    296.85306  0.093350019  0.097063702            1 
  266000    1.1651598   -2.7281804    297.82858  0.093304692  0.097053327            2 
  267000    1.1535509   -2.7495082    298.74157  0.093240191  0.097037803            3 
  268000    1.1497925   -2.7199758    299.19025  0.093031793  0.097020703            3 
  269000    1.1150444   -2.7146891    300.71329  0.093157774  0.097007654            3 
  270000     1.137777   -2.7651872    301.41985  0.093030817  0.096992835            2 
  271000    1.1794129   -2.7418709    303.65256  0.093374095  0.096979129            3 
  272000    1.1440839    -2.754114    303.06836  0.092851825  0.096967758            2 
  273000    1.1551568   -2.7067778    304.54977  0.092963911  0.096954004            5 
  274000    1.1407176   -2.7139564    307.20408  0.093431896  0.096940821            1 
  275000    1.1329233    -2.737146     307.5078  0.093184183  0.096928405            1 
  276000    1.1530225   -2.7265417    308.78736    0.0932329  0.096917846            1 
  277000    1.1484459   -2.7280795    309.95484  0.093247546  0.096900165            3 
  278000    1.1827823   -2.7782143    309.38149  0.092740254   0.09688093            1 
  279000    1.1426869   -2.7625284    310.25748  0.092669499  0.096864935            2 
  280000    1.1734772   -2.7265929    313.23682  0.093225244  0.096848988            2 
  281000    1.1242439   -2.7315977    313.82552  0.093068067  0.096831468            1 
  282000    1.1643327   -2.7526778    315.88723  0.093347289    0.0968168            2 
  283000     1.127963   -2.7392166    315.82555  0.092999277  0.096799369            1 
  284000    1.1659095   -2.7541212    317.24337  0.093087844  0.096778491            1 
  285000    1.1513478   -2.7372695    318.17935  0.093034899  0.096760971            2 
  286000    1.1437182   -2.7686031    320.72539  0.093451453  0.096747775            1 
  287000    1.1319014   -2.7592337    320.77891  0.093141378  0.096737725            1 
  288000    1.1327516   -2.7691288    321.50464  0.093027964  0.096725949            2 
  289000    1.1228672   -2.7616039     323.0649  0.093155967  0.096710542            2 
  290000    1.1246133   -2.7678134    320.96246   0.09223059  0.096687056            1 
  291000     1.152651   -2.7674512    323.00196  0.092497696  0.096662221            1 
  292000    1.1738068   -2.7361102    324.36624  0.092570273  0.096634912            2 
  293000    1.1407632   -2.7431242    325.82746  0.092669926  0.096607601            1 
  294000    1.1325081   -2.7308004    326.05353    0.0924188  0.096580612            1 
  295000    1.1241551   -2.7712015    326.51282  0.092235259  0.096546344            1 
  296000     1.155586   -2.7896058    327.70258  0.092258608   0.09651593            1 
  297000    1.1251457   -2.7435237    329.73464  0.092518137  0.096487168            2 
  298000    1.1551604   -2.7376177    330.57131  0.092441642  0.096456108            1 
  299000    1.1294255   -2.7560031     330.2919  0.092054598  0.096422253            3 
  300000    1.1347422   -2.7230068    332.78453  0.092440146  0.096387593            1 
  301000    1.1399049   -2.7588007    332.78777  0.092133933  0.096355774            2 
  302000    1.1278866   -2.7334709    334.93334  0.092420898  0.096322559            1 
  303000    1.1449737   -2.7412769    335.74051  0.092337873  0.096289756            2 
  304000    1.1331519   -2.7246607    337.84291  0.092610448  0.096256804            3 
  305000      1.14212   -2.7892932    337.72846  0.092275536   0.09622934            2 
  306000    1.1229799    -2.751943    340.62466  0.092762707  0.096202965            1 
  307000    1.1190896   -2.7543248    340.53616  0.092436526  0.096178127            2 
  308000    1.1280003   -2.7526564    342.52451   0.09267438  0.096150321            2 
  309000    1.1187869   -2.7606075    342.38272  0.092336225   0.09612306            1 
  310000    1.1417491   -2.7628864    343.86544  0.092436946  0.096097885            1 
  311000    1.1457297   -2.7869345    345.46326  0.092567861  0.096075743            2 
  312000     1.124911   -2.7600168      344.301  0.091960736  0.096050486            2 
  313000    1.1397288   -2.7763382    346.43849   0.09223602  0.096024483            1 
  314000    1.1253763   -2.7833351    347.93011   0.09233814  0.095996367            3 
  315000    1.1233871   -2.7637518    347.84022  0.092021222  0.095968212            2 
  316000     1.102644   -2.7685355    349.97325  0.092292525  0.095936316            3 
  317000    1.1556371   -2.7458786    351.50431  0.092403868  0.095904908            2 
  318000    1.1283766    -2.757936    350.21918  0.091776515  0.095873212            2 
  319000    1.1606004   -2.7442499    351.21204  0.091748183  0.095840215            2 
  320000    1.1349136   -2.7560115    352.28514  0.091740923  0.095807531            2 
  321000      1.15859   -2.7581661    354.48502  0.092026224   0.09576921            2 
  322000    1.1339982   -2.7514297    355.37732  0.091971355   0.09573272            1 
  323000    1.1257527   -2.7547313    355.32325  0.091672664  0.095697011            1 
  324000    1.1251458   -2.7686852    356.72239  0.091749585  0.095667382            1 
  325000    1.1423349   -2.7791616    357.68251  0.091713464  0.095631251            1 
  326000    1.1263979    -2.762502    357.96675  0.091504792  0.095600119            1 
  327000    1.1245018   -2.7739816    360.61172   0.09189901   0.09556516            3 
  328000      1.10871   -2.7504401    361.55215  0.091857761  0.095529668            2 
  329000    1.1420428    -2.787874    361.89048  0.091664254  0.095493795            2 
  330000    1.1478001   -2.7761065    360.75202  0.091098996   0.09545419            2 
  331000    1.1381323   -2.7801112    363.17084  0.091432739   0.09541517            4 
  332000    1.1271993   -2.7630074    363.20195  0.091165149  0.095377406            2 
  333000    1.1235523   -2.7624896    365.23663  0.091400559  0.095340695            3 
  334000    1.1182295   -2.7616437    367.00658  0.091568509  0.095302953            4 
  335000    1.1249487   -2.7709146    367.35008  0.091380616  0.095265077            2 
  336000    1.1059265   -2.7567995    368.83282  0.091476393  0.095226915            2 
  337000    1.1371893   -2.7910609    370.01647  0.091497642  0.095189751            3 
  338000    1.1421611   -2.7715556    370.85367  0.091433351  0.095152573            1 
  339000    1.1283231    -2.773124    372.37732  0.091538182  0.095116979            1 
  340000    1.1319019   -2.7608078    372.05227  0.091189281  0.095084912            1 
  341000    1.1585678   -2.7448558    374.79951  0.091593234  0.095050507            1 
  342000    1.1206116    -2.786648    372.51349  0.090768395  0.095017122            1 
  343000    1.1102534   -2.7814077    376.33042  0.091431104  0.094980377            2 
  344000     1.090565   -2.7713797    376.38495  0.091178526  0.094944857            1 
  345000    1.1504423    -2.783452    376.98068  0.091058135   0.09490988            2 
  346000    1.1145129   -2.8214734    377.21583  0.090851596  0.094872429            1 
  347000    1.1089545   -2.7665872    378.35125  0.090862451  0.094835227            1 
  348000    1.1012971   -2.7839523    380.04993  0.091008125  0.094798327            4 
  349000    1.1006404   -2.7778208    379.77494  0.090681696  0.094759748            1 
  350000    1.1435516   -2.7797374    381.56817  0.090849564  0.094721157            2 
  351000    1.1147906   -2.7792534    381.66256  0.090613144  0.094680807            2 
  352000    1.1046661   -2.7615393    384.54277  0.091037587  0.094640459            3 
  353000    1.1083683   -2.7962568    383.40556  0.090511227  0.094602187            3 
  354000    1.1048596   -2.7882565    384.62029  0.090541499   0.09455786            2 
  355000    1.1261908   -2.7617091     385.2027  0.090423169  0.094513986            4 
  356000    1.1242642   -2.7866314    387.46952  0.090699793  0.094471225            1 
  357000    1.1196697   -2.7793876    390.49329  0.091151562  0.094429776            2 
  358000    1.1326856   -2.7693391     387.8153  0.090273581  0.094388849            1 
  359000    1.0969796   -2.7725438    389.72418  0.090465222  0.094347864            2 
  360000    1.1151887   -2.7939933    389.06468  0.090061269   0.09430572            6 
  361000    1.1369089   -2.7900053    389.74181    0.0899681  0.094264725            4 
  362000    1.1193836   -2.7640304    392.05052  0.090251041   0.09422172            3 
  363000    1.1324798   -2.7928075    393.67934  0.090376341  0.094180728            4 
  364000    1.1119169   -2.7938902    393.98829  0.090198785  0.094140311            4 
  365000    1.1278755   -2.7672387    395.53642   0.09030512  0.094099209            1 
  366000    1.1329072   -2.8007876    395.55231  0.090062001   0.09405589            1 
  367000    1.1178764   -2.8016276    396.22818  0.089970068  0.094009598            2 
  368000    1.1167246   -2.7826942    397.02807  0.089906719  0.093963406            1 
  369000    1.0884456   -2.7826115    397.23675  0.089710196  0.093916625            2 
  370000    1.1354689   -2.7917196    398.82157  0.089824677  0.093866227            4 
  371000    1.0979926   -2.7720954    399.93116  0.089831796  0.093818759            2 
  372000    1.1024651   -2.7938077    400.90619  0.089808733  0.093769115            4 
  373000    1.0973455   -2.8206046    400.82559  0.089549953  0.093719327            2 
  374000    1.1092149   -2.7747581    403.71334  0.089953953  0.093673006            1 
  375000    1.1031048   -2.7938114    403.95048  0.089766774  0.093627481            1 
  376000    1.0969392   -2.8033676    405.50036  0.089871535  0.093580862            2 
  377000    1.1027347   -2.7924817    405.49171  0.089631236  0.093536539            1 
  378000      1.08399   -2.7816087     407.7708   0.08989656  0.093493562            3 
  379000    1.1198365   -2.7729986    409.20064  0.089973756  0.093449398            1 
  380000    1.0941174   -2.7856486    409.73491  0.089854146  0.093404262            2 
  381000    1.1261543    -2.778067    408.19432  0.089281348   0.09335904            5 
  382000    1.0992813   -2.7807095    409.80832   0.08939972  0.093314008            3 
  383000    1.1023535   -2.7796294    410.81491  0.089385316  0.093269263            2 
  384000    1.0914003   -2.7666519    410.29416  0.089039531  0.093221202            4 
  385000    1.0843739   -2.8130929     411.8647  0.089148204  0.093171233            2 
  386000    1.0759264   -2.7893459    411.89396  0.088923566  0.093121638            3 
  387000    1.1117484    -2.813183    412.17698  0.088754732  0.093071652            2 
  388000    1.0838845   -2.7936766    414.06472  0.088931426  0.093022928            1 
  389000    1.0821593   -2.7896035    414.59582  0.088816586  0.092971679            2 
  390000    1.1190481   -2.7901518    417.19348  0.089143905  0.092920615            3 
  391000    1.1102492   -2.7839433    418.37556  0.089167852  0.092870736            1 
  392000    1.0990278   -2.7989331    417.87307  0.088833562  0.092821954            2 
  393000    1.0842854   -2.8019482     420.3808  0.089139271  0.092773269            2 
  394000    1.1105677   -2.8032704    419.85863  0.088802587  0.092725603            3 
  395000    1.1027485   -2.7672439    423.16273  0.089274838  0.092678321            2 
  396000    1.1168689   -2.8123244    421.16195  0.088628357  0.092630934            2 
  397000    1.0943311   -2.7918801    424.66579  0.089140594  0.092583734            1 
  398000    1.1065196   -2.7988333    424.67287  0.088918105  0.092536344            2 
  399000    1.1061207   -2.7758145    425.48813  0.088865525  0.092490283            3 
  400000    1.0952211   -2.8294793    425.07819  0.088557956   0.09244318            2 
  401000    1.1042051   -2.7799621    425.87498  0.088502697  0.092395306            3 
  402000    1.1015107   -2.8392952    427.27854  0.088573496  0.092346077            2 
  403000    1.0905765   -2.7959647    428.24189  0.088552913  0.092296723            2 
  404000    1.0795103   -2.7930058    429.94228  0.088684463  0.092248735            2 
  405000    1.0818529   -2.7742715    429.82397  0.088441146  0.092200598            2 
  406000    1.0912229   -2.7994854    431.80692  0.088630321  0.092152704            1 
  407000     1.111809   -2.8101767    432.44586  0.088543377  0.092104583            2 
  408000    1.1026724   -2.8170069    432.99431   0.08843838  0.092055684            3 
  409000    1.0790955   -2.7871271    435.33785  0.088699644  0.092007428            1 
  410000    1.0663904   -2.8153578    434.01471  0.088214372  0.091958642            1 
  411000    1.0906886   -2.8140999    434.66179  0.088130939  0.091911104            2 
  412000    1.0868151   -2.8250147    436.57843  0.088304698  0.091864165            1 
  413000    1.0807952   -2.8119543    439.99591  0.088780449  0.091818437            3 
  414000    1.0767588   -2.8119113    437.00598  0.087964167  0.091772668            2 
  415000    1.0576779   -2.8179801    437.81327  0.087914312  0.091726028            2 
  416000     1.111991   -2.8007162    441.56193  0.088453912  0.091678572            2 
  417000    1.1105555   -2.8097074    439.94295  0.087918254  0.091633624            3 
  418000    1.0706592   -2.8361942    442.09729  0.088137419  0.091585327            1 
  419000    1.0881747   -2.8367508    441.75488  0.087858965  0.091537082            1 
  420000      1.08307   -2.8162549    443.77319  0.088050236  0.091488302            1 
  421000    1.0848036   -2.8216725    444.34384  0.087954046  0.091440683            1 
  422000    1.1045294   -2.8018607    444.54087  0.087784532  0.091393003            1 
  423000    1.0713075   -2.8133072    444.54535  0.087577886  0.091344503            2 
  424000    1.0787608   -2.8070177    445.90458   0.08763848  0.091294501            1 
  425000    1.0677941   -2.8087166     447.0574  0.087658314  0.091245685            2 
  426000    1.0876291   -2.8044517    447.72621  0.087583375  0.091197809            5 
  427000    1.0790064   -2.8312785     450.7827  0.087974767   0.09115121            3 
  428000    1.1179167   -2.8136648    448.49749  0.087324278  0.091106649            4 
  429000    1.0662985   -2.8384664    450.52713  0.087514983  0.091060502            2 
  430000    1.0926375   -2.8116127    452.14376  0.087624759  0.091014018            4 
  431000    1.0848944   -2.8310401    453.30421  0.087645825   0.09096721            1 
  432000    1.0881426   -2.8119617    455.51927  0.087870229  0.090923106            1 
  433000     1.092162   -2.7819446    458.29797  0.088202073  0.090880555            2 
  434000    1.0662373   -2.8183351    456.45856  0.087645652   0.09083847            2 
  435000    1.0693626   -2.7954558    459.31713  0.087991787  0.090795659            2 
  436000    1.0644536   -2.8458005    456.71224  0.087292095  0.090753563            3 
  437000    1.0722484   -2.7974626      459.517  0.087627194  0.090710623            2 
  438000     1.075019   -2.8088049    460.16147  0.087549747  0.090669122            1 
  439000    1.0642967      -2.8257    461.59524  0.087622482  0.090627638            3 
  440000    1.0831892   -2.8055062     463.3871  0.087762709   0.09058712            3 
  441000    1.0965401   -2.8120187    464.94835  0.087858721  0.090548437            2 
  442000    1.0850077   -2.8210932    462.97505  0.087287905  0.090509959            1 
  443000    1.0989773   -2.8292133    466.21694  0.087700704  0.090472235            2 
  444000    1.0889322   -2.8116186    468.07524   0.08785196   0.09043577            2 
  445000     1.081662   -2.8017831    468.46502  0.087727532  0.090398051            2 
  446000    1.0680942    -2.817187    470.61016  0.087931644  0.090362128            3 
  447000    1.0651627    -2.809147    471.87079  0.087969946   0.09032522            3 
  448000    1.0944503    -2.836524    471.32495  0.087672053  0.090290531            1 
  449000    1.0870592   -2.8296957    472.16109  0.087631976  0.090254791            3 
  450000    1.1038925   -2.8416117    474.83127  0.087931716   0.09022124            2 
  451000    1.0744094   -2.8169725    477.21735  0.088177633  0.090189158            4 
  452000    1.0587314   -2.8344897    475.71864  0.087706239  0.090155761            1 
  453000     1.074154    -2.813104      477.121  0.087770602  0.090121895            3 
  454000    1.0712705   -2.8379485    477.49746  0.087646376  0.090087874            2 
  455000    1.0734615   -2.8396469     480.1791   0.08794489  0.090054961            1 
  456000    1.0699224   -2.8552386    480.36102  0.087785274   0.09002109            1 
  457000    1.0740292   -2.8156062    480.98495  0.087706957  0.089988045            2 
  458000    1.1175211     -2.80742    481.66511  0.087639212  0.089953666            3 
  459000    1.0784433   -2.8085838    483.40547  0.087764247  0.089921079            1 
  460000    1.0373467   -2.8316859    484.25706  0.087727728  0.089885822            2 
  461000     1.081231   -2.8306633    486.55885  0.087953516  0.089851227            1 
  462000    1.0859484   -2.8126037    485.78628  0.087623788  0.089815103            2 
  463000    1.0384705   -2.8346506    483.73189  0.087064775  0.089779729            3 
  464000    1.0608035   -2.8620146      484.691  0.087049389  0.089742966            2 
  465000    1.0615239   -2.8254778    488.73263  0.087586492  0.089704606            2 
  466000    1.0731931   -2.8540839    485.68195  0.086852995  0.089665755            1 
  467000    1.0901596   -2.8519931    486.98614   0.08689974  0.089628232            4 
  468000    1.0854083   -2.8589462    489.82833  0.087220145  0.089590012            1 
  469000    1.0456107   -2.8440308    488.67492  0.086829232  0.089551496            2 
  470000    1.0625915    -2.839704    490.58133  0.086982506  0.089512917            1 
  471000    1.0559848   -2.8322222    491.18666  0.086904929  0.089473516            2 
  472000    1.0727873   -2.8552598     492.4182  0.086938241  0.089435025            1 
  473000    1.0680702   -2.8126092    494.40332  0.087104178  0.089397592            2 
  474000    1.0636286   -2.8576751    493.30887  0.086728002  0.089360258            2 
  475000    1.0841073   -2.8283502    494.99328  0.086840926   0.08932244            2 
  476000    1.0701799    -2.819159     497.6181  0.087118014  0.089286628            2 
  477000    1.0707288   -2.8426481    498.70722  0.087125649  0.089252186            1 
  478000     1.068047   -2.8188915    499.09297  0.087010629     0.089217            2 
  479000    1.0621471   -2.8506816    500.26837  0.087033467  0.089183896            3 
  480000    1.0591317    -2.827317     500.6271  0.086914426  0.089150118            1 
  481000    1.0647132   -2.8198005    503.05115  0.087153699  0.089118214            3 
  482000     1.060558   -2.8371656     502.1811  0.086822459  0.089086442            3 
  483000    1.0162255   -2.8389951    504.37568  0.087021339  0.089055411            3 
  484000    1.0315196   -2.8253009    505.97342  0.087116635  0.089021868            3 
  485000    1.0657352    -2.868052    502.56303  0.086351037  0.088989302            1 
  486000     1.050686   -2.8145146    507.49264  0.087018628  0.088955152            6 
  487000    1.0647495   -2.8234924    506.02673  0.086589105  0.088920379            3 
  488000    1.0543234   -2.8499177    506.03216  0.086412596  0.088884901            3 
  489000    1.0589005   -2.8460602    507.89104  0.086552666  0.088849975            1 
  490000    1.0719585   -2.8675544    509.61671  0.086669509  0.088815164            4 
  491000    1.0615723   -2.8567804    509.76957  0.086518937  0.088781103            6 
  492000    1.0447074   -2.8373585    511.01449  0.086553945  0.088748394            2 
  493000    1.0552761   -2.8603439    511.50895  0.086461959  0.088713529            2 
  494000     1.059674   -2.8445803    514.23886  0.086747445  0.088678828            2 
  495000      1.06784   -2.8338529    511.39203  0.086092935  0.088643047            1 
  496000    1.0345513   -2.8212603    515.48664  0.086607298  0.088608428            2 
  497000    1.0822578   -2.8414059    514.06282  0.086194302  0.088574457            2 
  498000    1.0565563   -2.8587361    516.78374   0.08647653   0.08853758            1 
  499000    1.0421465    -2.827562    515.42742  0.086076723  0.088500404            1 
  500000    1.0568471   -2.8752092    515.31515  0.085885859  0.088463988            2 
  501000    1.0511974   -2.8507863    520.91937  0.086646601  0.088427042            4 
  502000    1.0499302   -2.8379993    521.76735  0.086614765  0.088392934            6 
  503000     1.043192   -2.8436919    522.24101  0.086521043  0.088358626            2 
  504000    1.0705397   -2.8358919    521.10785  0.086162012  0.088323103            2 
  505000       1.0491   -2.8613027    523.20557  0.086337553  0.088289019            2 
  506000     1.036608   -2.8632363    522.34597  0.086025357  0.088254865            1 
  507000    1.0557117   -2.8684762    525.08244  0.086305463  0.088221065            2 
  508000      1.06441   -2.8688447    523.09381  0.085809352  0.088185734            3 
  509000    1.0436179   -2.8388956    524.42332  0.085858436  0.088149801            2 
  510000    1.0304667   -2.8664147    526.78667  0.086076254  0.088113463            3 
  511000    1.0254508   -2.8632762    525.35352   0.08567409  0.088076936            4 
  512000    1.0447822   -2.8576453    528.17331  0.085965708  0.088041608            1 
  513000    1.0639276    -2.866487    527.19472  0.085639168  0.088005294            2 
  514000    1.0774183    -2.847706    529.70262  0.085879153  0.087969194            3 
  515000    1.0419295   -2.8579584    529.48961   0.08567793  0.087933907            2 
  516000    1.0556327   -2.8375189    530.94093  0.085746274  0.087898087            2 
  517000    1.0599177    -2.880201    530.30375  0.085477716  0.087861669            2 
  518000    1.0431272   -2.8717673    531.12603  0.085444986  0.087824377            3 
  519000     1.049596   -2.8808357    531.16671  0.085286883  0.087786072            1 
  520000    1.0449111   -2.8796516    531.79148  0.085222993  0.087746172            2 
  521000    1.0578071   -2.8415615    533.21443  0.085287017   0.08770602            1 
  522000    1.0592745   -2.8616145    535.88535  0.085550025  0.087666342            3 
  523000    1.0594664    -2.885751    533.17301  0.084954272  0.087626415            2 
  524000     1.028659   -2.8547134    536.81759  0.085371753  0.087586397            1 
  525000    1.0553464   -2.8669917    536.41079   0.08514457  0.087548392            2 
  526000    1.0082812   -2.8281073    539.88669  0.085533379  0.087509246            4 
  527000    1.0430392   -2.8289379    538.02275  0.085076335  0.087470108            1 
  528000    1.0362834   -2.8711028    539.10935  0.085086703  0.087430381            5 
  529000    1.0469354   -2.8614338    538.41637  0.084816693  0.087391937            3 
  530000    1.0289597   -2.8697427    539.72759  0.084862828  0.087352441            2 
  531000    1.0544012   -2.8644168    542.13238  0.085080412  0.087314468            2 
  532000    1.0360198   -2.8695041    542.45204  0.084970558  0.087274629            2 
  533000    1.0310685   -2.8422202     542.7043  0.084850578  0.087235376            2 
  534000    1.0605103   -2.8505389    543.70532  0.084847896  0.087196149            2 
  535000    1.0664264   -2.8590559    544.43386  0.084802783  0.087156851            1 
  536000     1.037039    -2.853197    546.55474  0.084974307  0.087118307            3 
  537000    1.0244999   -2.8490721    546.58221   0.08482033  0.087078233            1 
  538000     1.059494   -2.8832618    546.77693  0.084692832  0.087040669            2 
  539000    1.0538687   -2.8484779    550.60627  0.085127747  0.087002978            6 
  540000     1.053682   -2.8838754    549.24076  0.084759377  0.086967632            3 
  541000    1.0379653   -2.8596887    550.82245  0.084846342  0.086929432            1 
  542000    1.0141256   -2.8804539    553.81579  0.085150028  0.086893836            1 
  543000    1.0321831   -2.8894073    553.47593  0.084941057  0.086856574            2 
  544000    1.0392472   -2.8841489    551.40544  0.084467745  0.086820234            2 
  545000    1.0351684   -2.8783127     556.7896  0.085136025  0.086785183            3 
  546000    1.0151705   -2.8729585    554.70168  0.084661429   0.08674828            2 
  547000    1.0295604   -2.8955383    556.68055  0.084808128  0.086711525            3 
  548000    1.0413993   -2.8521894    557.84552  0.084830524  0.086676201            2 
  549000     1.038075   -2.8598823    557.90344  0.084684796  0.086640669            1 
  550000    1.0454546   -2.8857767    560.27405  0.084890008  0.086604532            2 
  551000    1.0290503   -2.8723628    558.78065   0.08451008  0.086568286            2 
  552000    1.0372935   -2.8676786    562.81044  0.084965344  0.086532885            3 
  553000    1.0456113    -2.893711    560.99201  0.084537675  0.086496481            1 
  554000       1.0534   -2.8797376    561.41662   0.08444895  0.086460199            2 
  555000    1.0463203   -2.9004674    561.89793  0.084369059   0.08642385            2 
  556000    1.0408263   -2.8667276    562.43798  0.084298259  0.086388845            4 
  557000    1.0370316   -2.8814883    565.46552  0.084599869  0.086353964            1 
  558000     1.029537   -2.8587058    564.76326  0.084343378   0.08631812            2 
  559000    1.0358748    -2.849792    564.98964  0.084226243  0.086279552            2 
  560000    1.0279865   -2.8643398    566.22111  0.084259093  0.086241967            1 
  561000    1.0164175   -2.8598924    567.18192  0.084251621  0.086204663            2 
  562000    1.0337027   -2.8661647    568.73647  0.084332217  0.086167928            1 
  563000    1.0449108   -2.8839039    568.17419  0.084099199    0.0861329            6 
  564000    1.0254171   -2.8674466    571.90413  0.084501202  0.086097517            3 
  565000    1.0350955   -2.8763665    570.33686   0.08412048  0.086062048            1 
  566000    1.0350518   -2.8930544    571.29848   0.08411344     0.086027            2 
  567000    1.0427273   -2.8872261    572.83586  0.084191043  0.085993088            2 
  568000   0.99900831   -2.8780097    575.14787  0.084382023  0.085958199            2 
  569000    1.0148814   -2.8592442    577.64953  0.084600106  0.085924283            4 
  570000    1.0504206   -2.8681814    575.06015  0.084073121  0.085890995            3 
  571000    1.0234331   -2.8785565     576.4743  0.084132267  0.085856736            2 
  572000    1.0385408   -2.9020777    576.39198   0.08397319  0.085823323            2 
  573000    1.0537922   -2.8692473    577.31276  0.083960552  0.085789772            3 
  574000    1.0393632   -2.8802463    579.68742  0.084159033   0.08575673            2 
  575000     1.024472   -2.8861955    581.56236    0.0842844  0.085724907            3 
  576000    1.0284659   -2.8742394    581.04326  0.084062972  0.085692213            2 
  577000    1.0412685   -2.8794053    582.66684  0.084151768  0.085659258            2 
  578000    1.0320565    -2.872576    583.70762  0.084156231  0.085625933            2 
  579000    1.0544651   -2.8720711    589.28881  0.084814163  0.085594532            1 
  580000    1.0026453   -2.8574906    588.08115  0.084494418   0.08556273            2 
  581000    1.0115683   -2.8887624    586.44831   0.08411479  0.085531088            3 
  582000    1.0203821   -2.8896489    587.94821  0.084185024  0.085499335            2 
  583000    1.0211532   -2.8765213    589.03714  0.084196275  0.085465692            2 
  584000     1.019228    -2.893415    586.55609  0.083698073  0.085433512            3 
  585000    1.0328098   -2.9034095    589.66685  0.083998127  0.085400004            2 
  586000    1.0220295      -2.8931    587.31857  0.083520843  0.085365991            2 
  587000    1.0286228    -2.866934    590.69714  0.083858196  0.085332514            3 
  588000   0.99639009   -2.9035827     590.1213  0.083633971  0.085298571            2 
  589000    1.0137451   -2.8635492    590.29374  0.083516375  0.085264028            2 
  590000   0.99939868   -2.8857137    592.39657  0.083671831  0.085229678            2 
  591000    1.0528212   -2.9082378     592.3082  0.083517794  0.085194794            3 
  592000    1.0283699   -2.9094266    591.41743  0.083251327  0.085159062            1 
  593000    1.0245167   -2.9220299    593.87822  0.083456748  0.085122364            2 
  594000   0.99979072    -2.899002    593.30024  0.083235162  0.085086747            4 
  595000    1.0321559   -2.8826721    595.74073  0.083437077  0.085051449            4 
  596000    1.0285661   -2.9023592    594.65249  0.083144924  0.085016895            2 
  597000    1.0260842   -2.8922913    595.73982  0.083157428  0.084982067            4 
  598000    1.0057461   -2.9112988    597.30949  0.083237108  0.084948964            2 
  599000    1.0116489   -2.9255479    597.23583  0.083087901  0.084914377            2 
  600000    1.0406539   -2.8784925    600.76807  0.083440009  0.084880375            2 
  601000    1.0159977   -2.9163583    600.31685   0.08323861   0.08484641            4 
  602000   0.99139013   -2.9445892    601.41901  0.083252908  0.084811421            3 
  603000    1.0098867   -2.9094701    602.13461  0.083213737   0.08477649            1 
  604000    1.0213359   -2.8736795    604.29983  0.083374701  0.084742423            1 
  605000    1.0026777   -2.8951752    602.63068   0.08300698  0.084709444            2 
  606000   0.99882101   -2.9005365    606.00949  0.083334639  0.084675396            5 
  607000    1.0136572    -2.919332    605.90725  0.083183313  0.084641149            4 
  608000    1.0123384   -2.9004247    605.86866  0.083041209  0.084606797            3 
  609000    1.0079248   -2.9199519    602.91529  0.082500724  0.084570617            3 
  610000    1.0185969    -2.880481    606.97846  0.082920554  0.084534088            2 
  611000    1.0277957   -2.8870665    605.03376  0.082519607  0.084497622            2 
  612000   0.99235247   -2.8979018    607.67621  0.082744582  0.084461432            4 
  613000     1.019168   -2.9172568    609.43782  0.082849078  0.084426249            2 
  614000   0.99882928   -2.8993252    610.06228  0.082798898  0.084390351            1 
  615000    1.0010955   -2.9024904    611.90718  0.082914252  0.084354771            1 
  616000    1.0074922   -2.9235865    609.97941  0.082518859  0.084319953            1 
  617000      1.02869   -2.9041026    611.15402  0.082543762  0.084284466            2 
  618000    1.0131785   -2.8944034    611.56434  0.082465525  0.084249572            2 
  619000    1.0057806   -2.9021705    614.29128  0.082699418  0.084215471            2 
  620000    1.0092998   -2.9302002    615.23426  0.082692777  0.084181318            2 
  621000    0.9950039   -2.9007605    621.07328  0.083343167  0.084147802            1 
  622000    1.0243095   -2.9172249    618.18399  0.082822078  0.084116008            3 
  623000    1.0113439   -2.8942838    617.03157  0.082534987  0.084083942            2 
  624000    1.0088087   -2.9028858    617.35944  0.082446506  0.084052266            2 
  625000     1.016237   -2.8927481    619.68374  0.082624498  0.084021408            3 
  626000    1.0103514   -2.8891768    621.17263  0.082690712  0.083989612            2 
  627000    1.0015254   -2.9200821    621.29551  0.082575161  0.083958294            3 
  628000    1.0122154   -2.8889409    622.81201  0.082644906  0.083925194            2 
  629000   0.99435297   -2.9164701    621.51743  0.082342002  0.083892593            1 
  630000   0.99275123   -2.9067081    626.24782  0.082837013  0.083860502            1 
  631000    1.0109509   -2.8955621    622.56704   0.08221963  0.083827767            3 
  632000    1.0031648   -2.9231231    626.21239  0.082570199  0.083793597            2 
  633000    1.0140282   -2.9033237    625.88962  0.082397264  0.083760953            1 
  634000    1.0360775   -2.9091823    626.10226   0.08229525  0.083728924            3 
  635000   0.98424959     -2.91766    627.82011   0.08239109   0.08369657            2 
  636000    1.0282498   -2.9109343    627.74535  0.082251749  0.083663051            1 
  637000   0.99759898   -2.9337012    627.74881  0.082123078  0.083628911            4 
  638000    1.0124684   -2.9413336    628.50435  0.082093045  0.083594343            1 
  639000   0.97437071   -2.9055113    630.71699  0.082253128  0.083561015            2 
  640000    1.0014587   -2.9233193    629.60043  0.081979223  0.083527956            2 
  641000    1.0212941   -2.9158344    631.88524  0.082148367  0.083495847            4 
  642000    0.9838677   -2.9262226    632.21941  0.082063787  0.083464339            1 
  643000    1.0133337   -2.9292897    631.21414  0.081805876  0.083432178            4 
  644000   0.98964685   -2.9130624    632.91081  0.081898396  0.083399488            3 
  645000    1.0157782   -2.9110049    635.47569  0.082102803  0.083366982            3 
  646000     1.000265   -2.9424172    634.68977  0.081874325  0.083333769            3 
  647000   0.98750841   -2.9116803    636.29875  0.081955017   0.08330055            2 
  648000   0.98715048   -2.9308823    634.94839  0.081654885  0.083267223            5 
  649000   0.99044126   -2.9113789    636.87422   0.08177635  0.083233687            3 
  650000   0.98631995   -2.9296879    638.37514  0.081842967  0.083201021            2 
  651000    1.0024204   -2.9133094    641.62959  0.082133844  0.083169677            5 
  652000    0.9909316   -2.9481736    642.82372  0.082160496  0.083137733            2 
  653000    1.0020189   -2.9478407    642.47041  0.081989587  0.083105896            3 
  654000    1.0068303   -2.9011935    641.70689  0.081766933  0.083073929            1 
  655000   0.97067091    -2.931095    642.79911  0.081781057  0.083041981            3 
  656000   0.96620461   -2.9491207    642.89396   0.08166844  0.083010364            5 
  657000   0.99089972   -2.9145618     647.8239  0.082169445  0.082978801            2 
  658000    1.0065539    -2.949541    645.26588  0.081720602  0.082947965            6 
  659000   0.97943257   -2.9104208    647.62602  0.081895045  0.082916876            3 
  660000   0.98279246   -2.9010457    647.12522   0.08170773  0.082886452            2 
  661000   0.98662726   -2.9391577      647.143  0.081586359  0.082855952            3 
  662000   0.99554342   -2.9250389    648.78152  0.081669375  0.082824999            1 
  663000    1.0135237   -2.9357751    648.71179   0.08153743  0.082794164            3 
  664000   0.98990726   -2.9137647    649.58948  0.081524784  0.082764027            2 
  665000   0.98833734   -2.9245844    651.29727  0.081616199  0.082733108            6 
  666000   0.99670041   -2.9259201    653.05497  0.081713585  0.082701378            1 
  667000      0.98553   -2.9542573    654.38093  0.081756738   0.08267015            1 
  668000   0.98621634   -2.9176627    654.86451  0.081694674  0.082639362            2 
  669000    1.0103882   -2.9438336     651.6605  0.081173455  0.082607742            1 
  670000   0.97119233   -2.9677757    650.69085  0.080931698  0.082575008            2 
  671000   0.99798913   -2.9333363    655.71366  0.081434881  0.082541963            4 
  672000   0.99296384   -2.9519542    655.77814  0.081321694  0.082509355            6 
  673000   0.96609682   -2.9393478    655.88475   0.08121406  0.082476186            3 
  674000   0.96594369   -2.9424204    656.23965  0.081137444  0.082444034            3 
  675000   0.99135056   -2.9416452    654.92558  0.080855009  0.082411129            3 
  676000   0.97597753   -2.9316161    657.24852   0.08102176  0.082378261            2 
  677000   0.98571021   -2.9309298    658.68547  0.081078959   0.08234627            1 
  678000     1.001523    -2.959333    659.00012  0.080998049  0.082312762            4 
  679000   0.97213584   -2.9514797    657.62076   0.08070947  0.082280444            7 
  680000    0.9420618   -2.9365331    661.98048  0.081125059  0.082247021            3 
  681000   0.98143145    -2.944406    663.12743  0.081146284   0.08221529            3 
  682000   0.95554605   -2.9325391    663.53048  0.081076549   0.08218417            2 
  683000   0.99052401   -2.9265103    663.63379  0.080970448  0.082152574            1 
  684000   0.97498818   -2.9577398     665.2588  0.081050049  0.082121988            5 
  685000   0.97673834   -2.9583093    663.64045  0.080734847   0.08209056            1 
  686000   0.99307786   -2.9675978     665.8922  0.080890694  0.082060524            2 
  687000   0.97581058   -2.9192024    668.06753  0.081036818  0.082029695            3 
  688000   0.96616885   -2.9503181    667.73279  0.080878487  0.081998333            3 
  689000   0.99196028   -2.9621842    667.99126  0.080792364  0.081967853            2 
  690000   0.99566712   -2.9546584    667.26103  0.080587081  0.081936689            3 
  691000   0.97143871   -2.9253367    673.24864  0.081192552  0.081906796            3 
  692000   0.95960223   -2.9511455    671.08946  0.080815204  0.081877273            4 
  693000   0.96120931   -2.9396735    674.69408  0.081132045  0.081847733            3 
  694000   0.95572721   -2.9462917      674.331  0.080971542  0.081818017            5 
  695000   0.98692908   -2.9504611    672.38085  0.080621205  0.081788876            2 
  696000   0.97539403   -2.9541501    677.42289  0.081109063  0.081759425            2 
  697000   0.99977313   -2.9360242    676.73652  0.080910631  0.081729847            1 
  698000    0.9622822   -2.9636117    679.30059  0.081100834  0.081700343            1 
  699000   0.98022633   -2.9279771    676.60682  0.080663665  0.081670575            3 
  700000   0.97091504   -2.9250424    679.99588   0.08095189  0.081640402            6 
  701000   0.98797379   -2.9474055    679.67358  0.080798096  0.081610897            3 
  702000   0.96426653   -2.9520715    678.60231   0.08055583  0.081580326            4 
  703000   0.96980695   -2.9526993    680.24269  0.080635691  0.081550018            2 
  704000   0.99595948   -2.9405529    682.22531  0.080755837  0.081520669            3 
  705000    0.9671946   -2.9703687    681.06333   0.08050394  0.081490517            2 
  706000   0.98966165    -2.940152    683.01333  0.080620082  0.081459607            5 
  707000   0.98289506    -2.955343    683.98152   0.08062017  0.081430277            4 
  708000    0.9592739   -2.9536012    683.59759   0.08046111  0.081401039            4 
  709000   0.96693159   -2.9472359    685.69179   0.08059377  0.081371152            3 
  710000   0.95515102   -2.9539983    686.15048  0.080534094  0.081340466            1 
  711000   0.95811458   -2.9393108    685.61796  0.080358411  0.081310996            3 
  712000   0.97532436   -2.9457882    688.98037  0.080639089  0.081281265            4 
  713000    0.9653754    -2.963759    687.77037  0.080384569    0.0812519            3 
  714000    0.9618071   -2.9567396    687.42183  0.080231306  0.081223657            2 
  715000   0.95721407   -2.9620177     687.5427  0.080133182  0.081194476            6 
  716000   0.96834804   -2.9634042    692.14329  0.080556714  0.081165511            2 
  717000   0.97759541   -2.9346838      689.775  0.080169107   0.08113553            6 
  718000   0.98284764    -2.965738    694.31557  0.080584444  0.081106722            3 
  719000   0.98615598   -2.9487769    690.04964  0.079977937  0.081078007            2 
  720000   0.95296233   -2.9529593    693.19871  0.080231332  0.081048186            7 
  721000    0.9568433   -2.9655891    695.08076  0.080337582  0.081018869            2 
  722000   0.97926162   -2.9780966    693.08821   0.07999633   0.08099048            2 
  723000   0.95838846    -2.948711    697.44616  0.080387986  0.080960963            2 
  724000   0.95231812   -2.9641914    701.34007  0.080725146  0.080932351            2 
  725000   0.98008802   -2.9642083    694.52351  0.079830288  0.080902977            3 
  726000   0.97008903   -2.9774916    696.19442  0.079912123  0.080874221            3 
  727000   0.96981589   -2.9928518    697.99471  0.080008564  0.080845455            2 
  728000   0.96494958   -2.9798731    696.78389  0.079760061  0.080815577            2 
  729000   0.96618439   -2.9940512    702.61975  0.080317759  0.080786686            4 
  730000   0.96554095   -2.9297367    701.73126  0.080106308  0.080757807            2 
  731000   0.96023985    -2.976517     702.3977  0.080072697  0.080729285            3 
  732000   0.97461681   -2.9331896    702.98106   0.08002972  0.080701612            2 
  733000    0.9629677   -2.9669338    701.93114  0.079801175  0.080674113            2 
  734000   0.96225546   -2.9560265    704.34301  0.079966282  0.080645358            2 
  735000   0.94853464   -2.9710412    703.94055  0.079811854  0.080616916            2 
  736000   0.96280961   -2.9697548    706.01493  0.079938285  0.080589512            2 
  737000   0.96106373   -2.9786943    705.48379  0.079769764  0.080562498            3 
  738000     0.939441   -2.9663158    710.04951  0.080177225  0.080534542            2 
  739000    0.9555493   -2.9629108    708.72235  0.079919074   0.08050798            4 
  740000   0.92214476   -2.9799683    709.49371   0.07989794  0.080480273            4 
  741000   0.97009138   -2.9773331    711.28073  0.079991085  0.080452082            4 
  742000   0.96228386    -2.968644    711.69573  0.079929889  0.080423846            3 
  743000   0.94715495   -2.9992838    709.53929   0.07958045  0.080394824            1 
  744000   0.94032192   -2.9700856    709.77984   0.07950043  0.080365326            4 
  745000   0.96821884    -2.947452    713.26407  0.079783453   0.08033638            4 
  746000    0.9711428   -2.9832994     713.1795  0.079667058  0.080307633            3 
  747000   0.95618918   -2.9549514    714.25755  0.079680672  0.080278237            3 
  748000   0.97037067   -2.9604455    715.47209  0.079709458  0.080249366            3 
  749000   0.95990542   -2.9807301     712.8201  0.079307977  0.080219413            2 
  750000    0.9660003   -2.9735324     714.2133  0.079357033  0.080190496            4 
  751000   0.94256133   -2.9557484    716.93673  0.079553565  0.080161628            3 
  752000   0.94957193   -2.9884236    718.88009  0.079663131  0.080132339            1 
  753000    0.9593072    -2.971009    719.46088  0.079621611  0.080103579            4 
  754000   0.94967944   -3.0022823     718.0698  0.079362268  0.080075652            2 
  755000   0.95434339   -2.9738006    720.80932  0.079559528  0.080047941            3 
  756000   0.94980747   -3.0091415    716.49061  0.078978242  0.080020766            2 
  757000   0.95753109    -2.983856    721.91262  0.079470786  0.079992879            6 
  758000   0.96314851   -2.9737586    724.52149  0.079652758  0.079965539            2 
  759000   0.94248872   -2.9924843     722.2676  0.079300351  0.079938174            4 
  760000   0.93532434   -2.9773284    721.86542   0.07915191  0.079909902            4 
  761000   0.94448513   -2.9636229    722.39094  0.079105447    0.0798819            4 
  762000   0.95096258   -2.9896368    721.66136  0.078921846  0.079853128            3 
  763000   0.94846935   -2.9972251    725.16285  0.079200835  0.079824861            3 
  764000   0.97654469   -2.9807974    725.87283  0.079174611  0.079796782            3 
  765000   0.95393634   -3.0045872    727.32539  0.079229346  0.079768475            3 
  766000   0.93690789   -2.9794517    729.02165  0.079310449  0.079740981            3 
  767000    0.9545182   -2.9942466    727.63974  0.079056904  0.079713299            4 
  768000   0.95954613   -2.9527579    730.83565  0.079300744   0.07968636            3 
  769000   0.94058797   -3.0065275    731.56829  0.079277015  0.079658739            2 
  770000   0.94412994   -2.9807652     730.0963  0.079014751  0.079630691            5 
  771000   0.94525192   -2.9854263    731.85959  0.079102852  0.079603579            3 
  772000   0.95925116      -2.9893    733.67803  0.079196679  0.079576618            2 
  773000   0.95838317   -3.0190105    734.04902  0.079134219  0.079549309            2 
  774000   0.94679445   -3.0049203    734.04095   0.07903111   0.07952243            3 
  775000   0.95744114   -2.9987242    731.93019  0.078702171  0.079496063            2 
  776000   0.93177379   -2.9912993    734.19821   0.07884431   0.07946792            2 
  777000   0.93894189   -2.9941849     733.6566  0.078684748  0.079439825            1 
  778000   0.93291544    -2.967097    735.05381   0.07873327  0.079411118            5 
  779000   0.93948276   -2.9928929    736.46701  0.078783377  0.079383492            3 
  780000    0.9645215    -2.998877    737.85236   0.07883038  0.079354518            6 
  781000   0.94455017   -2.9895576    737.98024  0.078743091  0.079325274            3 
  782000   0.94276842   -2.9845198    737.84155  0.078627616  0.079295452            4 
  783000   0.94028979   -3.0182182    736.64369  0.078399712  0.079265568            3 
  784000   0.92899972    -2.986545    737.93777  0.078437263  0.079235753            4 
  785000    0.9362486    -2.989517    736.68686   0.07820455  0.079206198            2 
  786000   0.93013524   -2.9878116    738.73876    0.0783226  0.079176971            5 
  787000     0.926508   -3.0265877    738.26632  0.078173054  0.079147259            4 
  788000      0.95084   -2.9998123    740.49279  0.078309305  0.079117543            3 
  789000   0.92812535   -3.0136143    737.74672  0.077920017  0.079087566            3 
  790000   0.94594469   -2.9686512    744.55409   0.07853946  0.079058381            1 
  791000    0.9208022   -2.9862526    741.86913  0.078157304  0.079029287            1 
  792000     0.936063   -2.9859646    743.23534  0.078202371  0.078999292            2 
  793000   0.95157934   -2.9768745    742.66627  0.078043954  0.078969312            1 
  794000   0.93207433   -3.0038021    744.26381   0.07811333  0.078939904            1 
  795000   0.94467538   -3.0082199     744.5854  0.078048784  0.078909156            3 
  796000   0.91728883   -3.0120547    747.16265  0.078220545  0.078878174            3 
  797000    0.9312619    -3.007715    745.08516  0.077905182  0.078846079            3 
  798000   0.93790955   -3.0089721    743.53654  0.077645837  0.078814809            3 
  799000   0.94775037   -3.0099595    748.87331  0.078105268  0.078784074            2 
  800000   0.95006782   -2.9908305    746.46509   0.07775678  0.078753032            2 
  801000   0.93162079   -2.9987059    747.82612  0.077801303  0.078721707            3 
  802000   0.93277389   -3.0017201    745.96791  0.077511212  0.078690242            2 
  803000   0.92372824   -3.0107682     747.8325  0.077608188  0.078657564            2 
  804000   0.94289867   -3.0024943    747.58961  0.077486485  0.078624569            5 
  805000   0.92995591   -3.0150064    747.24043  0.077354082  0.078591643            3 
  806000   0.92312121   -3.0144823    747.84476  0.077320591  0.078557736            4 
  807000    0.9465495   -3.0003929    747.67158  0.077206896  0.078523784            2 
  808000   0.94455758   -3.0177545    747.34745  0.077077913  0.078489742            5 
  809000   0.94202554   -3.0067759    749.79457   0.07723471  0.078455636            2 
  810000   0.92624132   -3.0194288    747.13993  0.076866248  0.078422062            3 
  811000   0.95430079   -3.0091131    751.39907  0.077209111  0.078387751            2 
  812000   0.91408799   -3.0200841    749.32507  0.076901177  0.078353757            4 
  813000   0.93278682   -3.0153465    755.26935  0.077415883  0.078320779            2 
  814000   0.92123975   -3.0115634     754.4852    0.0772405  0.078287664            2 
  815000   0.92981486   -2.9805562    753.72423  0.077067917  0.078255002            4 
  816000   0.93458649   -3.0184399     752.5028  0.076848734  0.078222137            2 
  817000   0.91256926   -3.0313664    753.76872  0.076883795  0.078189166            1 
  818000   0.92975594   -3.0232912    753.08555  0.076720207  0.078156093            1 
  819000   0.91051926   -3.0124932    755.12527  0.076834073  0.078123209            2 
  820000    0.9194301   -3.0158733    754.55327  0.076682243  0.078089363           13 
  821000   0.92013911   -3.0048763    757.68654  0.076906876  0.078055652            1 
  822000   0.94552064   -3.0110284    758.98366  0.076944816  0.078022351            1 
  823000   0.91486474   -2.9979214     758.4333  0.076795595  0.077989419            2 
  824000   0.91194652    -3.003673    760.85846  0.076947659  0.077956432            4 
  825000   0.91984572   -2.9985561     761.9765  0.076967324  0.077923609            2 
  826000   0.91977555   -3.0282853    763.14317  0.076991845   0.07789069            1 
  827000   0.93350218   -3.0259393    762.42605  0.076826486  0.077858215            1 
  828000   0.91279234   -3.0159578    759.15019  0.076404004  0.077825012            2 
  829000   0.91413816   -2.9996589    761.07336  0.076505162  0.077791128            3 
  830000   0.93854895   -3.0368039    765.36735  0.076844111  0.077758416            3 
  831000   0.92699227   -3.0082934    763.01577  0.076515821  0.077725521            4 
  832000   0.91531549   -3.0419332    762.72118  0.076394349  0.077692468            3 
  833000   0.95226541   -3.0128854    767.32411  0.076763116  0.077659046            2 
  834000   0.93883475   -3.0187089    768.44061  0.076782635   0.07762639            7 
  835000    0.9235007   -3.0246388    767.17999  0.076564869  0.077593168            2 
  836000   0.92628568   -2.9857874    766.50852  0.076406351  0.077559788            2 
  837000   0.90667501   -3.0046319    769.48101  0.076611012  0.077528251            2 
  838000   0.90402746   -3.0595201    765.70169  0.076143764  0.077495078            4 
  839000   0.92999845   -3.0190325    767.70029  0.076251519  0.077460991            5 
  840000   0.91569584    -3.023628    768.51269  0.076241338  0.077427676            3 
  841000   0.92197133   -3.0339209    771.26606  0.076423509  0.077394062            2 
  842000   0.90644675   -3.0453775    768.92727  0.076101274  0.077360281            4 
  843000   0.92340263   -3.0446994    766.51437  0.075772477  0.077325757            3 
  844000    0.8999207   -3.0252522    766.73054  0.075704042  0.077291617            2 
  845000   0.90230309   -3.0233719    768.94488  0.075832828  0.077256332            2 
  846000   0.92790105    -3.041328    770.12652  0.075859586   0.07722116            2 
  847000   0.89868637   -3.0225268    773.06016  0.076058654  0.077187393            2 
  848000   0.91876932    -3.018104    773.91177   0.07605265  0.077152819            2 
  849000   0.92303467   -3.0172066    773.26627  0.075899713  0.077118438            2 
  850000    0.9053372   -2.9799161    776.56999  0.076134313  0.077085495            3 
  851000   0.90154517   -3.0416355    771.48196  0.075546608   0.07705184            2 
  852000   0.90960962   -3.0159331    772.95386  0.075601903  0.077017842            3 
  853000   0.91025421   -3.0330694    774.93618  0.075706934  0.076984409            2 
  854000   0.91071632   -3.0173286    773.50544  0.075478673  0.076950602            2 
  855000   0.92408864   -3.0263219    779.92588  0.076016167  0.076916991            5 
  856000   0.91432008   -3.0408207    776.45594  0.075589558  0.076883944            4 
  857000   0.91204675   -3.0155584    777.18387  0.075572138  0.076850701            2 
  858000   0.89063857   -3.0139455    779.36592  0.075695991  0.076817518            3 
  859000   0.89632787   -3.0172191    779.37801  0.075609043  0.076784614            6 
  860000   0.90141058   -3.0339603    781.73505   0.07574952  0.076751368            3 
  861000   0.93315086   -3.0439783     781.3115  0.075620548  0.076717989            2 
  862000    0.9233456   -3.0132745    782.13972  0.075612888  0.076685179            2 
  863000   0.87798574   -3.0238071    780.80658  0.075396541  0.076651933            1 
  864000    0.9247786   -3.0590317    782.55924  0.075478322  0.076618493            3 
  865000   0.91233999    -3.053036    779.14377   0.07506202  0.076584362            2 
  866000   0.91222727   -3.0354794    783.20382  0.075366034  0.076550821            1 
  867000   0.89769419   -3.0254973    783.51586  0.075309098  0.076516692            5 
  868000   0.90358279   -3.0613776    784.78605  0.075344283  0.076482096            3 
  869000   0.92874219   -2.9970183    784.89564  0.075268089  0.076447507            4 
  870000   0.89425119   -3.0409523    784.31313  0.075125779  0.076413385            2 
  871000    0.9155679   -3.0365524    787.01925  0.075298435  0.076378137            3 
  872000   0.91262211   -3.0562521    786.49595  0.075162075  0.076343231            6 
  873000   0.89542408   -3.0265753    784.56859     0.074892  0.076308362            5 
  874000   0.91437155   -3.0408725     788.9098  0.075220233  0.076273329            2 
  875000    0.9146355   -3.0650108    785.80941  0.074838991  0.076238281            4 
  876000   0.92247949   -3.0598934     788.0254  0.074964365  0.076203381            4 
  877000   0.90183624   -3.0636637    787.13446  0.074794229   0.07616854            2 
  878000   0.89098563   -3.0281743    789.20197  0.074905275  0.076134212            1 
  879000   0.91271074   -3.0491974    788.61003   0.07476394  0.076099692            6 
  880000   0.86762898   -3.0403971    791.28346  0.074932146  0.076065481            3 
  881000   0.88282191   -3.0585558    790.97193  0.074817625  0.076031624            2 
  882000   0.92053975   -3.0471731     792.4295  0.074870512  0.075997381            3 
  883000   0.91295071   -3.0626603    793.50548  0.074887266  0.075963283            4 
  884000   0.91452323   -3.0599858    790.98164  0.074564634  0.075929444            5 
  885000   0.91496245   -3.0617289    795.66891  0.074921742   0.07589631            6 
  886000   0.89240704   -3.0478951    798.52467  0.075105781  0.075862884            4 
  887000   0.90182452   -3.0709047     792.5696  0.074461631  0.075829179            2 
  888000   0.92295694   -3.0642607    797.42503   0.07483343   0.07579579            3 
  889000   0.89533061   -3.0596515    798.10463  0.074812957  0.075762787            2 
  890000   0.90544646   -3.0466669    799.72224  0.074880359  0.075729939            2 
  891000   0.89416182   -3.0598969    798.71021  0.074701666  0.075697393            2 
  892000   0.91837444   -3.0840446    797.72843  0.074526198  0.075665217            2 
  893000   0.89256182   -3.0437909    800.12303  0.074666202  0.075632495            2 
  894000   0.90599705   -3.0402821    802.38478  0.074793511  0.075599611            4 
  895000   0.88805662   -3.0507207    800.33697  0.074519271  0.075566859            4 
  896000   0.92535316   -3.0305288    801.69844  0.074562727  0.075534223            2 
  897000   0.87988225   -3.0573312    800.77546  0.074393855  0.075501575            4 
  898000   0.87457914   -3.0403432    806.87192  0.074876756  0.075469258            3 
  899000   0.89344014   -3.0770711    804.62265   0.07458497  0.075437226            2 
  900000   0.90090768   -3.0521192    803.50801  0.074398889  0.075404932            3 
  901000   0.90090343   -3.0513255    809.02401   0.07482649   0.07537293            2 
  902000   0.91273443    -3.041549    806.90911  0.074548144  0.075340935            1 
  903000   0.87152116   -3.0618841    807.55791  0.074525463  0.075309592            3 
  904000   0.88728919   -3.0511543    809.26877  0.074600735  0.075278108            2 
  905000   0.88262385   -3.0847487    804.15427  0.074047354  0.075247026            4 
  906000   0.89711486   -3.0592965    810.21632  0.074523208  0.075215805            4 
  907000   0.88358708   -3.0714959    812.65528  0.074665131  0.075184848            4 
  908000   0.88071877   -3.0471531    809.99902  0.074339117  0.075153339            5 
  909000    0.8934927   -3.0683526    810.89322  0.074339312  0.075122073            4 
  910000   0.89017942   -3.0887522    808.87517  0.074072818  0.075090059            3 
  911000   0.88289712   -3.0563807     811.8117  0.074260126  0.075058268            2 
  912000   0.91256295   -3.0302665    815.78744  0.074541981  0.075027271            2 
  913000     0.896616   -3.0741998    813.33441  0.074236438  0.074995763            2 
  914000   0.87602656   -3.0622564    815.11142  0.074317234  0.074963484            2 
  915000   0.89241547    -3.057573    810.86335  0.073849121  0.074932193            3 
  916000   0.87769197   -3.0517813    815.33887  0.074175661  0.074900338            2 
  917000   0.89943233   -3.0597407    816.40394  0.074191561  0.074869291            4 
  918000   0.89470229   -3.0544226    816.50807  0.074120195  0.074838253            4 
  919000   0.89536075   -3.0610555    816.08306  0.074001003  0.074807173            2 
  920000   0.86455985   -3.0778914     815.4471  0.073862962  0.074775237            3 
  921000   0.87141976   -3.0702863    817.64922  0.073982014  0.074742656            5 
  922000   0.89192352   -3.0989423    817.99925   0.07393341   0.07471055            5 
  923000   0.88687504   -3.0686823    820.28556  0.074059729  0.074678083            5 
  924000   0.88382882    -3.059818    818.61893  0.073829269  0.074646108            4 
  925000   0.87625634   -3.0682287    820.16616  0.073888843  0.074614017            4 
  926000   0.88610091   -3.0638293    817.65553  0.073583111  0.074580753            4 
  927000   0.88573662    -3.077523    819.28448  0.073650169  0.074548049            7 
  928000    0.8701313   -3.0789503    818.21378  0.073474657  0.074514895            4 
  929000   0.88871596   -3.0664102    817.83061  0.073361195  0.074482201            3 
  930000   0.89422244   -3.0613499    820.32524  0.073505846   0.07444912            1 
  931000   0.88778914   -3.0874352     819.3184  0.073336771  0.074416473            3 
  932000   0.90321806   -3.0538839    820.75351  0.073386401   0.07438387            6 
  933000   0.87947234   -3.0903064     821.1214  0.073340604  0.074350936            5 
  934000   0.87861145   -3.0475444    821.93144  0.073334354  0.074317303            4 
  935000   0.89832058   -3.0823183    822.48855  0.073305575  0.074284087            4 
  936000   0.88306403   -3.0868908    821.77006  0.073163289  0.074250903            2 
  937000   0.87539113   -3.0739676    823.88802   0.07327357  0.074217701            3 
  938000   0.88460147   -3.0626851    823.39384  0.073151549  0.074184195            2 
  939000   0.87154314   -3.0924677    821.82268   0.07293421  0.074150488            2 
  940000   0.89393587   -3.0936748    824.87048  0.073126816  0.074116513            4 
  941000   0.89341196   -3.0730524    824.65515  0.073030034  0.074083087            5 
  942000    0.8718894   -3.0727287    825.10338   0.07299216  0.074049179            5 
  943000   0.87930773   -3.0526622    827.36459   0.07311458  0.074015536            2 
  944000   0.88246916   -3.0750121    825.83505  0.072902105  0.073982053            5 
  945000   0.87106416    -3.067074    828.05809  0.073020995  0.073948354            3 
  946000   0.86384368   -3.0774574    827.64521  0.072907435  0.073914679            5 
  947000   0.88018421   -3.0918395    825.38094  0.072631199  0.073880936            4 
  948000   0.85294639   -3.0897983    828.66435  0.072843209  0.073846618            3 
  949000   0.88785975   -3.0787747    825.58203  0.072495788  0.073812819            2 
  950000   0.88182331   -3.0848199    831.86054  0.072970223  0.073778899            4 
  951000    0.8803872    -3.079963    826.39037  0.072414158  0.073745291            7 
  952000   0.88610561   -3.0704659    829.31509  0.072594108  0.073711187            4 
  953000   0.86724427   -3.0891996    829.47344   0.07253178  0.073677022            3 
  954000   0.86762313   -3.0853334    831.53288  0.072635646  0.073643223            2 
  955000   0.87911134   -3.0781721    829.47101  0.072379669  0.073609265            3 
  956000   0.86705423   -3.1049144    831.59001  0.072488669  0.073575588            4 
  957000   0.86410248   -3.0888024    832.32181  0.072476647  0.073541446            2 
  958000   0.87313148   -3.0849759    831.14394  0.072298534   0.07350758            2 
  959000    0.8870371   -3.0762423    833.50539  0.072428345  0.073473283            2 
  960000   0.85856108   -3.0869746    834.59533  0.072447511  0.073439116            2 
  961000    0.8687857   -3.0626668     835.3453  0.072437157   0.07340504            5 
  962000   0.87305624   -3.0961959    833.77346  0.072225698  0.073370997            5 
  963000   0.87911592    -3.084469    835.30688  0.072283392  0.073336879            1 
  964000   0.86027983   -3.1001859    833.29637   0.07203461  0.073302513            4 
  965000   0.87711373   -3.0900885    835.47844  0.072148397  0.073268436            3 
  966000   0.87528291   -3.1029757    836.04536  0.072122615  0.073234425            3 
  967000   0.87016822   -3.0683693    836.99331  0.072129724  0.073200536            2 
  968000   0.86291698   -3.0816227    837.08325  0.072062952  0.073166849            4 
  969000   0.86411382   -3.0769864    837.55299  0.072028981  0.073133206            6 
  970000   0.85656877   -3.1135458    837.63678  0.071961923  0.073099391            4 
  971000   0.88125293   -3.0953248    839.33242  0.072033335  0.073065312            3 
  972000   0.86112294   -3.0832159    841.84629   0.07217475  0.073031575            3 
  973000   0.88367982   -3.1278193    838.50066  0.071814034  0.072997389            3 
  974000   0.87146212   -3.1056976    839.68847  0.071841929  0.072963653            1 
  975000   0.86279152   -3.0656402    842.66781   0.07202289  0.072929401            2 
  976000     0.844666   -3.0838933    844.00122  0.072062946  0.072895424            2 
  977000   0.85729829   -3.0806505    841.52013  0.071777561  0.072861729            4 
  978000   0.87628078    -3.116542    840.44377  0.071612455  0.072827676            3 
  979000   0.85112966   -3.0898711    846.01844  0.072013827  0.072793255            3 
  980000    0.8589386    -3.115541    844.25725  0.071790583  0.072759329            3 
  981000   0.86073977   -3.1054755    843.20897  0.071628353  0.072725294            3 
  982000   0.86681732   -3.0731469    847.09054  0.071884805  0.072691258            2 
  983000   0.87466496   -3.0888539    845.47297  0.071674548   0.07265762            2 
  984000   0.84189864    -3.080591    847.06503  0.071736537  0.072623575            3 
  985000   0.85168276   -3.0739363    846.25932  0.071595543  0.072588727            4 
  986000   0.86320024   -3.1205818     839.9521  0.070989867  0.072553924            4 
  987000   0.85888235   -3.0952141    844.52707  0.071304211  0.072518964            3 
  988000   0.85861665    -3.098746    843.29008  0.071127706  0.072484237            3 
  989000   0.86809917   -3.1180548    843.76054  0.071095428  0.072449902            4 
  990000   0.85107402   -3.0896786    848.71837   0.07144094  0.072415533            2 
  991000   0.85496638   -3.1221302    845.29593  0.071081057  0.072381073            4 
  992000   0.85546824    -3.108528    845.09948    0.0709929   0.07234605            3 
  993000   0.86196951   -3.1082459    846.28649  0.071021022  0.072310855           11 
  994000   0.85914645    -3.104656    848.48372  0.071133779   0.07227517            5 
  995000   0.85686653   -3.1203903    846.11375  0.070863798  0.072239602            2 
  996000   0.85349503   -3.1287964    850.00753  0.071118434  0.072203634            4 
  997000   0.85541855   -3.0869465    848.24648  0.070899906  0.072167852            2 
  998000   0.86674337   -3.1386847    848.91481   0.07088467  0.072131672            2 
  999000   0.84764642   -3.1237812    848.97403  0.070818655  0.072095159            3 
 1000000   0.85273744    -3.116479    848.65331  0.070721109  0.072059252            4 
 1001000   0.84267709   -3.0995965    853.22215  0.071030815  0.072023194            5 
 1002000   0.87053178   -3.1246961    849.31963  0.070635365  0.071987124            7 
 1003000   0.85279236   -3.0749064    850.94413  0.070699911  0.071951375            2 
 1004000   0.86157604   -3.0995311    851.25163  0.070655016  0.071915158            2 
 1005000   0.83757368   -3.1267617    850.05076  0.070485137  0.071878911            4 
 1006000   0.83386507   -3.1252333    849.71215  0.070387023  0.071842363            2 
 1007000   0.86511701   -3.1305802    849.15377  0.070270918  0.071806227            7 
 1008000   0.85951822   -3.1219063    851.16302  0.070367314  0.071769821            4 
 1009000   0.85842162   -3.1202068    855.90541  0.070689247  0.071733784            4 
 1010000   0.83476251    -3.111288    851.67546  0.070270252  0.071697889            4 
 1011000   0.86313258   -3.1314774     852.6025   0.07027716  0.071661739            6 
 1012000   0.84636511   -3.1060517    851.57379  0.070123007  0.071624794            4 
 1013000   0.83452105   -3.1099995      855.091  0.070343123  0.071588416            1 
 1014000   0.85974649    -3.123789     856.1809  0.070363322  0.071552145            4 
 1015000   0.86224561   -3.1037891    853.94441  0.070110378  0.071515851            2 
 1016000   0.86849357    -3.123284    852.55672  0.069927552  0.071479563            3 
 1017000   0.83746358   -3.1117332    855.71803  0.070117832  0.071443473            2 
 1018000     0.836376   -3.1212746    859.48674   0.07035746  0.071407594            2 
 1019000   0.83504052   -3.1117733    856.59657  0.070052058   0.07137157            7 
 1020000   0.84853083   -3.1187623    858.13575   0.07010913  0.071336109            2 
 1021000   0.81988926   -3.1139989    858.54333   0.07007373   0.07130059            4 
 1022000   0.85430834   -3.1387708    857.86114  0.069949538  0.071264711            3 
 1023000    0.8521171   -3.1193002    860.50557  0.070096576  0.071229058            2 
 1024000   0.83748001   -3.1023085    861.84564  0.070137177  0.071193679            3 
 1025000   0.85415268    -3.101064    862.13654  0.070092401  0.071158589            9 
 1026000    0.8398077   -3.1331724    862.87704   0.07008423   0.07112312            5 
 1027000   0.83306331   -3.1187808    865.09723   0.07019614  0.071088196            3 
 1028000   0.84664333   -3.1384065    862.08316  0.069883524  0.071053151            2 
 1029000   0.84174046   -3.1074132    864.73187  0.070030116  0.071017745            4 
 1030000   0.86388933   -3.1161732    862.34139  0.069768721  0.070982527            4 
 1031000   0.84185923   -3.1245401    863.72604  0.069812968  0.070947698            7 
 1032000   0.84907304   -3.1442238    863.39964  0.069718963  0.070912955            3 
 1033000   0.84379291   -3.1345535    865.39123  0.069812136  0.070877657            1 
 1034000   0.85707947   -3.1248797    867.15165  0.069886497  0.070842548            5 
 1035000   0.83470177    -3.135161    867.27432   0.06982885  0.070807669            6 
 1036000   0.83346734   -3.1370055    865.45844  0.069615383  0.070773047            2 
 1037000   0.83020455   -3.1557346    866.42731  0.069626109  0.070737755            4 
 1038000   0.84770656   -3.1283558    869.83544  0.069832646  0.070702403            4 
 1039000   0.83226042   -3.1375887    868.59535  0.069665973  0.070667409            3 
 1040000   0.84698646   -3.1258077    867.22757  0.069489389   0.07063276            2 
 1041000   0.83880868   -3.1349795    869.26777  0.069585956  0.070597565            2 
 1042000   0.84244089    -3.151119    867.10382  0.069346115  0.070562611            2 
 1043000   0.85175944   -3.1135754     870.6217  0.069560698   0.07052776            3 
 1044000   0.81964733   -3.1457187     872.0609  0.069608948  0.070493067            5 
 1045000   0.84386369   -3.1427669    871.81422  0.069522665   0.07045849            2 
 1046000   0.82713961   -3.1475244    872.73874  0.069529855  0.070423903            5 
 1047000   0.83429716   -3.1235368    872.01391  0.069405755  0.070389543            3 
 1048000   0.83538768   -3.1505814    875.50438  0.069617079  0.070355403            5 
 1049000   0.81502522   -3.1046059    876.90195  0.069661737   0.07032148            3 
 1050000   0.82878698   -3.1579876     875.6842  0.069498746  0.070287356            4 
 1051000   0.84279325   -3.1305882    876.17924  0.069471871  0.070253153            3 
 1052000   0.84537681   -3.1405226     872.6207  0.069123946  0.070219124            3 
 1053000     0.838359    -3.158789    873.59832  0.069135669  0.070185324            5 
 1054000    0.8404658    -3.111448    877.98312  0.069416755  0.070152022            3 
 1055000   0.83881846   -3.1240504    878.56395  0.069396837  0.070118468            1 
 1056000   0.82729544   -3.1506323    877.66867   0.06926047   0.07008468            2 
 1057000   0.83604747   -3.1380873     879.2693  0.069321137  0.070050936            4 
 1058000   0.83353715   -3.1302728    877.67601   0.06913012  0.070016971            5 
 1059000    0.8250836   -3.1274208    876.88319  0.069002454  0.069983016            8 
 1060000   0.84449842   -3.1423935    879.39993  0.069135214  0.069949006            3 
 1061000   0.83297056   -3.1466544    880.81748  0.069181391    0.0699157            5 
 1062000   0.84485212   -3.1340235    879.82505  0.069038375  0.069882023            4 
 1063000   0.83121271    -3.152975    879.64309  0.068959163  0.069848585            4 
 1064000   0.82336693    -3.145379    882.16168   0.06909161   0.06981464            6 
 1065000   0.83027958    -3.159863    880.98408  0.068934592  0.069780613            3 
 1066000   0.83968936   -3.1630756    878.14694  0.068648135  0.069746963            4 
 1067000   0.82649218    -3.131314    883.02095   0.06896446  0.069713399            3 
 1068000   0.83656356   -3.1337073     880.7533  0.068722947  0.069680205            2 
 1069000   0.81780305   -3.1642404    882.19205  0.068770818  0.069646097            3 
 1070000   0.82545764   -3.1637893    881.84765  0.068679723  0.069612214            3 
 1071000    0.8357267   -3.1305882    884.24044  0.068801777  0.069579165            5 
 1072000   0.83256131   -3.1514792    883.41572  0.068673485  0.069545845            3 
 1073000   0.81379973   -3.1683098    883.23775  0.068595662  0.069512146            2 
 1074000   0.83730261   -3.1674274    885.04454  0.068671985  0.069478638            2 
 1075000   0.82650101   -3.1758366      886.694  0.068735969  0.069445362            5 
 1076000   0.84301507   -3.1646482    883.70253  0.068440407  0.069412028            5 
 1077000   0.83836458   -3.1499296    885.74735  0.068535078  0.069378507            3 
 1078000    0.8278238   -3.1478044    889.25072  0.068742325  0.069345651            3 
 1079000   0.82442844   -3.1650342    888.77624  0.068641971  0.069312602            3 
 1080000   0.82669431   -3.1330231    889.67476  0.068647744  0.069279479            2 
 1081000   0.82692294   -3.1337823    893.16486  0.068853289   0.06924694            5 
 1082000   0.81296145   -3.1452248    889.68882  0.068521936  0.069214322            2 
 1083000   0.81876289   -3.1633687    887.19011  0.068266398  0.069181176            8 
 1084000   0.81385857   -3.1594139    887.75987  0.068247222  0.069148427            3 
 1085000   0.81991274   -3.1134501     895.0075  0.068740975  0.069115724            2 
 1086000   0.79645391   -3.1306051     891.3234  0.068394982   0.06908278            4 
 1087000   0.81646861   -3.1768665    890.45688   0.06826563  0.069049596            3 
 1088000   0.83685668   -3.1838069    890.30799  0.068191482  0.069016695            5 
 1089000   0.81914889   -3.1468602    896.36806  0.068592597  0.068983735            5 
 1090000   0.82629586   -3.1635457    890.62887  0.068090892  0.068950864            3 
 1091000   0.81003221   -3.1791673    892.34665  0.068159689  0.068918015            2 
 1092000   0.82565661   -3.1556064    894.77883  0.068282878  0.068885249            3 
 1093000   0.83841052    -3.164398    892.59361  0.068053798  0.068852371            3 
 1094000   0.83381382   -3.1488803    896.87391  0.068317635  0.068819254            3 
 1095000   0.80422934   -3.1624258    893.92628  0.068030919  0.068786353            7 
 1096000   0.82062983   -3.1499877    892.12172  0.067831639  0.068753211            2 
 1097000   0.82297534   -3.1604519    892.46471  0.067795861  0.068719521            5 
 1098000   0.80488338   -3.1822186     891.8911  0.067690582  0.068685921            4 
 1099000    0.8210415   -3.1767268    895.33337  0.067890003   0.06865243            3 
 1100000   0.81223614   -3.1521448    896.28354  0.067900268  0.068618856            9 
 1101000   0.82357717   -3.1762139    896.54095   0.06785808  0.068585747            4 
 1102000   0.82051754   -3.1918047    896.94129  0.067826777  0.068552347            4 
 1103000   0.81248808   -3.1729458     900.0036  0.067996646   0.06851885            4 
 1104000   0.81987478   -3.1754736    896.25315  0.067651959  0.068485213            3 
 1105000   0.80399494    -3.140928    896.66799   0.06762202  0.068451941            4 
 1106000   0.80314289   -3.1757379    895.81665  0.067496734   0.06841841            4 
 1107000   0.79354163   -3.1737771     899.2641   0.06769528   0.06838429            2 
 1108000   0.80104856   -3.1805966    898.79506  0.067598907  0.068350735            2 
 1109000   0.81219259   -3.1692592    898.14596  0.067489176  0.068317406            6 
 1110000   0.82521755   -3.1894413    898.08106  0.067423503  0.068283869            5 
 1111000   0.81087085    -3.179372    896.25675  0.067225979  0.068250181            6 
 1112000   0.80451132   -3.1449691    901.61423  0.067567014  0.068216171            2 
 1113000   0.81744313   -3.1555721    897.28341  0.067182046  0.068182305            3 
 1114000   0.80522494   -3.1905943    899.97003  0.067322713  0.068148752            2 
 1115000    0.8194197    -3.184624    902.08557  0.067420446  0.068114939            2 
 1116000   0.81004346   -3.1956388    900.24904  0.067222897  0.068080973            2 
 1117000   0.80254397   -3.1740221    899.91919  0.067138107  0.068047323            3 
 1118000   0.80407651   -3.2069741    898.92771  0.067004152  0.068013435            5 
 1119000   0.81450833    -3.183757    901.71119  0.067151563  0.067979572            3 
 1120000   0.80045217   -3.1498938    902.74357   0.06716842  0.067945769            2 
 1121000   0.80708439   -3.1546612    903.87264  0.067192436  0.067912306            7 
 1122000   0.80488549   -3.1661662    904.11423  0.067150492  0.067878941            2 
 1123000   0.81094056   -3.1849482    903.47544  0.067043294  0.067845475            5 
 1124000   0.80789271   -3.1743296    903.13376  0.066958316  0.067811996            5 
 1125000   0.80802311   -3.1751015    911.13764  0.067491677  0.067778631            5 
 1126000   0.79825696   -3.1653898    902.53733  0.066795243  0.067745189            3 
 1127000   0.80528898   -3.1879578    903.37786  0.066798126  0.067711489            2 
 1128000   0.79417187   -3.1797023    905.84165  0.066920926  0.067677362            5 
 1129000   0.80089284   -3.1731816    909.19839  0.067109418   0.06764374            3 
 1130000   0.78743729   -3.1813164    905.39971   0.06676989   0.06761031            4 
 1131000   0.78473761   -3.1679679    904.86664  0.066671577  0.067576371            5 
 1132000   0.79143965   -3.1930788    904.14562  0.066559601  0.067542608            8 
 1133000   0.78297111   -3.2095328    908.35778  0.066810663  0.067508636            4 
 1134000   0.80734952   -3.1639785     907.8335   0.06671322  0.067474836            4 
 1135000   0.80003165   -3.1812973    911.02875  0.066889042  0.067441107            3 
 1136000   0.80923929   -3.1524438    910.56277  0.066795978   0.06740753            8 
 1137000   0.80591422   -3.1935487     910.4886  0.066731794  0.067373855            3 
 1138000   0.80081678   -3.1955728    910.46303  0.066671283  0.067340036            4 
 1139000   0.80323576   -3.1810952    913.79213  0.066856316  0.067306103            2 
 1140000   0.80432613   -3.1580876    910.95122  0.066590001  0.067272402            3 
 1141000   0.80407486   -3.1733965    909.79558  0.066447238  0.067238316            7 
 1142000   0.80856308    -3.212558    910.35491  0.066429868  0.067204361            5 
 1143000   0.80222861   -3.2021569    910.90029  0.066411511  0.067170227            4 
 1144000   0.78766784   -3.2008762    910.69224  0.066338304  0.067136068            3 
 1145000   0.78134296   -3.1866701    909.51106    0.0661944   0.06710217            8 
 1146000    0.7973032   -3.1899742    913.05622  0.066394431  0.067068271            4 
 1147000   0.79978037   -3.2150866    912.64202  0.066306453   0.06703428            2 
 1148000   0.79731678   -3.1858917    913.11631  0.066283123  0.067000077            3 
 1149000   0.79004509      -3.2166    912.43073  0.066175713  0.066965691            6 
 1150000   0.77336958   -3.1840949    911.76079  0.066069622   0.06693178            4 
 1151000   0.80679985   -3.2202259    913.37088  0.066128792  0.066898138            4 
 1152000   0.79417348   -3.1824508    913.51465  0.066081789  0.066864253            3 
 1153000   0.77980786   -3.2059881    913.26186  0.066006206  0.066830223            6 
 1154000   0.79802044   -3.2075438    920.18383  0.066448861  0.066796557            5 
 1155000   0.79388747   -3.1935372    917.82118  0.066220864  0.066763236            5 
 1156000   0.78080469    -3.188059    912.02465  0.065745721  0.066729681            5 
 1157000    0.7925153    -3.211278    915.71263  0.065954525  0.066695684            2 
 1158000   0.78794333   -3.1912472    914.28652  0.065794942  0.066662248            6 
 1159000   0.80360616   -3.2326323    913.92457  0.065712149  0.066628403            3 
 1160000   0.79214654   -3.2085682    916.59687  0.065847477   0.06659466            4 
 1161000   0.79335168   -3.2156548    918.48944  0.065926603  0.066560879            4 
 1162000   0.80759179   -3.1900857    916.13657  0.065701131  0.066527756            3 
 1163000   0.79725746   -3.1953249    920.34034  0.065945854  0.066494538            4 
 1164000   0.81697193   -3.1910539    918.26998  0.065740978   0.06646138            4 
 1165000   0.80980467   -3.2261402    918.52692  0.065702927  0.066428109            2 
 1166000     0.784315   -3.1962688    922.14472   0.06590514  0.066395113            4 
 1167000   0.79058152    -3.204905    922.32911  0.065861833  0.066362011            5 
 1168000   0.80891093   -3.2060186    920.69085  0.065688559  0.066328949            4 
 1169000   0.78793967   -3.2295119    922.99412  0.065796558  0.066295624            4 
 1170000   0.76936426   -3.2087912    920.19361  0.065540856  0.066262741            4 
 1171000    0.7745447    -3.201758    920.98435  0.065541158  0.066229909            6 
 1172000    0.7701908     -3.21908     920.2169  0.065430667  0.066197035            4 
 1173000   0.78510457   -3.1773471    921.65049  0.065476733  0.066163927            5 
 1174000   0.77862421   -3.1875107    924.08302  0.065593627  0.066130453           11 
 1175000   0.78238629   -3.2007557    921.25594    0.0653373  0.066097203            2 
 1176000   0.78438136   -3.2005539    921.75749  0.065317283  0.066064055            4 
 1177000   0.78748271   -3.2252196    922.63771  0.065324109  0.066030606            3 
 1178000   0.77887112   -3.2293039    923.70705  0.065344302  0.065997122            6 
 1179000   0.78883556   -3.2224621    922.62144  0.065212146  0.065963726            6 
 1180000   0.78351601    -3.201623     924.0372  0.065256865   0.06593064            4 
 1181000   0.79688622   -3.2109491    923.62124  0.065172258  0.065897134            2 
 1182000   0.78002501    -3.188063    924.67592  0.065191478  0.065863452            2 
 1183000   0.77324794   -3.2124332    922.96277  0.065015693  0.065829902            3 
 1184000   0.78442203   -3.2307975     924.6774  0.065081461  0.065796646            3 
 1185000   0.77548005   -3.2269076    925.27863   0.06506882  0.065763026            4 
 1186000   0.77455921   -3.2155887    922.63259  0.064828034  0.065729539            7 
 1187000   0.77971595   -3.2407242    924.85693  0.064929579  0.065695877            4 
 1188000   0.78427518   -3.2198011     929.2327  0.065181867  0.065662521            5 
 1189000   0.77142325   -3.2141318     928.3642  0.065066176  0.065629017            6 
 1190000     0.798202   -3.2501599    924.42576  0.064735698  0.065595412            7 
 1191000   0.78541852   -3.2001271    927.34415  0.064885541  0.065561822            6 
 1192000   0.77005183   -3.2452047    929.50394  0.064982099  0.065528228            4 
 1193000   0.75912257   -3.2051745     926.8349  0.064741191  0.065494613            4 
 1194000   0.76321962    -3.196311    925.45639  0.064590759  0.065460777            3 
 1195000   0.76288006   -3.2103352    924.33038  0.064458185  0.065426688            4 
 1196000   0.77949067   -3.2295466    925.72468  0.064501441  0.065392804            3 
 1197000   0.76797153   -3.2217261    928.28595  0.064625867  0.065359185            4 
 1198000   0.77686491     -3.23539     923.8663  0.064264489  0.065325504            5 
 1199000   0.76045777   -3.2325185    924.12446  0.064228834  0.065291309            3 
 1200000   0.78496748    -3.224371    928.54738  0.064482457  0.065257519            4 
 1201000   0.78956522   -3.2173846    927.65059  0.064366541  0.065223768            5 
 1202000   0.78667634   -3.2380345    930.42097  0.064505059  0.065190368            6 
 1203000   0.76446564   -3.2341772    931.71305  0.064540943  0.065157037            3 
 1204000   0.76810528     -3.22052    927.53376  0.064198073  0.065123587            5 
 1205000   0.77983109   -3.2256214    933.19746  0.064536477  0.065090129            5 
 1206000   0.78020507   -3.2335716    932.45359  0.064431564  0.065056986            4 
 1207000    0.7761296   -3.2213054    934.08417   0.06449076  0.065023174            8 
 1208000   0.74733852   -3.2476927    933.05576  0.064366429  0.064989387            4 
 1209000   0.78561801   -3.1903691    934.67848   0.06442504  0.064955969            3 
 1210000   0.76728923   -3.2381284    931.84216  0.064176457  0.064922621            2 
 1211000   0.78119655   -3.2364942    932.90624  0.064196686  0.064889087            2 
 1212000   0.77680025   -3.2366062    932.66758  0.064127309  0.064855351            3 
 1213000   0.76507996   -3.2371116    934.47355  0.064198512  0.064821745            5 
 1214000   0.77039838   -3.2272584    932.70203  0.064024027  0.064788359            4 
 1215000   0.78108682   -3.2694719    934.33008  0.064082996   0.06475522           10 
 1216000   0.76380657   -3.2464704    934.10747   0.06401504  0.064721963            6 
 1217000   0.77031466   -3.2170315    935.06659  0.064028115  0.064688741            4 
 1218000   0.78356442   -3.2281153     936.8659  0.064098652    0.0646558            3 
 1219000   0.76231708    -3.240392    937.74638  0.064106261  0.064622892            9 
 1220000   0.75167537   -3.2399108    939.57641  0.064178716   0.06458928            4 
 1221000   0.75852379   -3.2501084    937.68297  0.063996927  0.064555891            4 
 1222000   0.76485794   -3.2298727    934.80393  0.063748222  0.064522949            6 
 1223000   0.78711473   -3.2443385    934.72371  0.063690632  0.064489634            7 
 1224000   0.75578078   -3.2479606    938.40584  0.063889287  0.064456317            6 
 1225000   0.76530347   -3.2409096    937.79561  0.063795619  0.064422872            5 
 1226000   0.74606759   -3.2551102    939.21831  0.063840287  0.064389247            3 
 1227000   0.75157581    -3.251211    938.34582  0.063729002  0.064355773            5 
 1228000   0.75614526   -3.2260725    938.48838   0.06368678  0.064322392           12 
 1229000   0.76069651   -3.2255821    939.74484  0.063720155  0.064289179            4 
 1230000   0.75471915   -3.2486489    937.49437  0.063515879  0.064255717            6 
 1231000   0.77470256   -3.2645957    940.24938  0.063650784  0.064221755           11 
 1232000   0.76320017   -3.2535551    942.76216  0.063769085  0.064188404            6 
 1233000   0.77174073   -3.2358564    940.18699  0.063543322  0.064155437            3 
 1234000    0.7616778    -3.250628    944.59454  0.063789475  0.064122477            4 
 1235000   0.75401334   -3.2419542    943.04246  0.063633095  0.064089304            5 
 1236000   0.75286326   -3.2510013    941.31321  0.063465022  0.064056075            6 
 1237000   0.76768066    -3.249956    941.00387  0.063392877  0.064022814           10 
 1238000   0.75505606   -3.2428964    940.71832   0.06332245  0.063989541            9 
 1239000   0.75795021   -3.2551339    943.24548  0.063441316  0.063956256            4 
 1240000   0.74567678   -3.2474089    943.94109  0.063436901  0.063922826            5 
 1241000   0.75896895   -3.2668652    945.20126  0.063470404  0.063889595           10 
 1242000    0.7507344   -3.2763089    938.82494  0.062991475  0.063856014            6 
 1243000   0.75996957   -3.2512029    941.82483  0.063141917  0.063822232            4 
 1244000    0.7546256   -3.2676418    942.54343  0.063139297  0.063789245            3 
 1245000   0.76925519   -3.2547004    941.95224  0.063049012  0.063755978            4 
 1246000   0.75489889   -3.2650332    941.09377  0.062940996  0.063722553            4 
 1247000   0.75175477   -3.2382648    944.72417  0.063133131  0.063688944            4 
 1248000   0.75510796   -3.2285484    944.44786  0.063064093  0.063655688            3 
 1249000   0.75364611   -3.2563389    946.20416  0.063130782  0.063622444            6 
 1250000   0.73652539   -3.2690947    944.89127  0.062992751  0.063589185            3 
 1251000   0.75245042   -3.2296925     946.8492  0.063072822  0.063555745            3 
 1252000   0.76184815   -3.2573652    943.49384   0.06279911  0.063522605            3 
 1253000    0.7451202   -3.2819156    942.25268  0.062666446  0.063489161            6 
 1254000   0.75837688   -3.2658183    944.92512  0.062794067  0.063455564            5 
 1255000   0.74261424   -3.2682619    947.77794  0.062933462  0.063421946            6 
 1256000   0.74615855   -3.2515953    945.57304  0.062737065   0.06338849            3 
 1257000   0.75293366   -3.2824913    944.93017  0.062644535  0.063354718            5 
 1258000    0.7463478   -3.2769865    948.23709  0.062813798  0.063321332            3 
 1259000    0.7555283     -3.25841    943.43885   0.06244631  0.063287731            5 
 1260000   0.76195207   -3.2553205    948.01667  0.062699515  0.063254156            3 
 1261000   0.74616968   -3.2497276    944.62187  0.062425447   0.06322029            6 
 1262000   0.74456481   -3.2584729     949.3941  0.062691105  0.063186681            4 
 1263000   0.74361155   -3.2619068    945.25918  0.062368645   0.06315331            4 
 1264000   0.75494614   -3.2560369    949.90738   0.06262575  0.063119615            4 
 1265000   0.74270031   -3.2793007    948.33994  0.062472987  0.063085923            3 
 1266000   0.76801457   -3.2537302     941.7178  0.061987744  0.063052364            4 
 1267000   0.73807636   -3.2575438    948.98339  0.062416692  0.063018668            8 
 1268000   0.73898952   -3.2697661    948.13459  0.062311684  0.062985195            6 
 1269000   0.74629509   -3.2925748    947.41127  0.062215082  0.062951728            4 
 1270000   0.75716182   -3.2401433    952.49703  0.062499805   0.06291817            4 
 1271000   0.74642901   -3.2637593    951.29478  0.062371806  0.062884732            5 
 1272000   0.73794909   -3.2882963    951.67151  0.062347452  0.062850868            3 
 1273000   0.72017372   -3.2745662     951.7381  0.062302834  0.062817416            3 
 1274000   0.73908498   -3.2798137    952.96497  0.062334182  0.062784184            4 
 1275000   0.73579186   -3.2728458    949.28035  0.062044467  0.062750899            4 
 1276000   0.74222234   -3.2533733    954.13686  0.062313013  0.062717666            7 
 1277000   0.72476782   -3.2762945    953.39903  0.062216068  0.062684649            7 
 1278000   0.74686404   -3.2938057    952.61062  0.062115977  0.062651807            5 
 1279000   0.73862185   -3.2837972    955.05173  0.062226461   0.06261916            4 
 1280000   0.75838892    -3.290479    950.68768  0.061893729  0.062586456            4 
 1281000   0.73818172   -3.2852579    951.86101  0.061921742  0.062553718            6 
 1282000   0.74738589   -3.2639675    954.60215  0.062051622  0.062520729            8 
 1283000   0.72930882   -3.2668283    955.47166  0.062059733  0.062487989            7 
 1284000   0.74686279   -3.2828406    956.48386  0.062077094  0.062455385            4 
 1285000   0.73593521   -3.2778403     958.7138  0.062173398  0.062422929            4 
 1286000   0.73772781   -3.2672846    959.69223  0.062188455  0.062390459            6 
 1287000   0.73608325   -3.3058673    957.70909  0.062011726  0.062358047            6 
 1288000   0.74126169   -3.2772883    958.02309  0.061983895  0.062325799            4 
 1289000   0.74788944   -3.2627418    960.52418  0.062097503   0.06229403            2 
 1290000   0.76349141   -3.2679682    958.91587  0.061945469  0.062262208            3 
 1291000   0.73901111   -3.2754051    958.73597  0.061885875  0.062230124            4 
 1292000   0.75915352   -3.2774608    959.66817  0.061898102  0.062197935            8 
 1293000   0.72832553   -3.2757577    959.93017  0.061867116   0.06216593            3 
 1294000   0.72100354   -3.2994802    956.29393  0.061585132  0.062133422           10 
 1295000   0.74774427   -3.3052986    958.21012  0.061660883  0.062100747            4 
 1296000   0.74318317   -3.2872131    960.78723  0.061779014  0.062067911           11 
 1297000   0.73428253   -3.2727735    958.12396  0.061560265  0.062034837            4 
 1298000   0.72924345   -3.2624688    959.46196  0.061598739  0.062001804            3 
 1299000   0.73547102   -3.2775401    960.77311  0.061635432  0.061968878            3 
 1300000   0.74211599   -3.2811634    955.29042  0.061236565  0.061935827            3 
 1301000   0.72892871   -3.2936848    959.41858  0.061453918  0.061902804            9 
 1302000   0.72775402     -3.26948    959.24917  0.061395876  0.061869932            5 
 1303000   0.75650749   -3.2758182     959.7995  0.061383954  0.061837099            8 
 1304000   0.72861289   -3.2922824    961.88169  0.061469944  0.061803945            4 
 1305000   0.73615087   -3.2764345    961.60368  0.061405088  0.061771016            5 
 1306000    0.7291517   -3.2810628    959.39835  0.061217353  0.061738226            4 
 1307000   0.72922872    -3.281614    961.20527  0.061285722  0.061705376            5 
 1308000   0.71548762   -3.3003091    960.16265  0.061172442  0.061672394            3 
 1309000   0.73033073   -3.3005919    963.21619  0.061320104   0.06163976            9 
 1310000    0.7486358   -3.2724064    963.67016  0.061302173  0.061606939            8 
 1311000   0.73116831   -3.2933818    964.11161  0.061283474  0.061574381            3 
 1312000   0.72556758   -3.2992885    962.07824  0.061107612  0.061541539            4 
 1313000   0.73597625   -3.3138993    961.08512   0.06099804  0.061508581            6 
 1314000   0.73519679   -3.3323019    960.07399  0.060887493  0.061475578            4 
 1315000   0.71419014   -3.2804067    963.32436  0.061047171  0.061442492            7 
 1316000   0.73420079   -3.2945228    962.97598  0.060978722  0.061409426            6 
 1317000   0.73455299   -3.2954199    959.40125   0.06070623  0.061376007           13 
 1318000   0.71360598   -3.2924804    961.18884  0.060773194  0.061342651            4 
 1319000   0.71713485   -3.2995759    963.56395  0.060877176  0.061309058            8 
 1320000   0.72040734   -3.3182911    962.04653  0.060735261  0.061275533            3 
 1321000   0.72941043   -3.2781064    960.75654  0.060607907  0.061242366            4 
 1322000   0.71118269   -3.2981189    966.96679  0.060953529  0.061209453            5 
 1323000   0.71437686   -3.3103761    962.65229  0.060635695   0.06117683            4 
 1324000   0.71984543   -3.3265421    961.68761   0.06052918  0.061144002            5 
 1325000   0.71893304   -3.2950064    963.21736  0.060579708  0.061111198            5 
 1326000   0.72886595   -3.3103313     966.3839  0.060733025   0.06107875            3 
 1327000   0.72347658   -3.3007367    966.71337  0.060707948  0.061046199            8 
 1328000   0.72745008   -3.2940496    966.28346  0.060635257  0.061013645            4 
 1329000   0.73109896   -3.3037797    966.53038  0.060605115  0.060981193            4 
 1330000   0.73845447   -3.3108126    969.19732  0.060726649  0.060948761            9 
 1331000   0.72808825    -3.316936    968.38962  0.060630455  0.060916322           11 
 1332000   0.72831042   -3.3382303    965.99869  0.060435354  0.060883869            4 
 1333000   0.72404014   -3.3140792    968.28273  0.060532804  0.060851261            5 
 1334000   0.72848353   -3.2964769    970.07616   0.06059946  0.060818951            5 
 1335000    0.7086456   -3.3026051    968.31631  0.060444214  0.060786536            6 
 1336000   0.72610398   -3.2985706    970.34899   0.06052576  0.060754302            7 
 1337000   0.72268224   -3.3164345    970.19134  0.060470665  0.060722158            4 
 1338000   0.72332664   -3.3114975    970.18105  0.060424829  0.060690085            5 
 1339000   0.73147903   -3.3102663     971.4304  0.060457456  0.060657987            5 
 1340000    0.7086274   -3.3091544    969.16839  0.060271666  0.060625858            4 
 1341000   0.72399665   -3.3035371    970.91274  0.060335119  0.060593768           12 
 1342000   0.72331261   -3.3169519    970.80668  0.060283574  0.060561461            4 
 1343000   0.71813846   -3.3156515    970.20346  0.060201257  0.060529357            6 
 1344000   0.72145524   -3.3263669     970.0886  0.060149343  0.060497373            6 
 1345000   0.72403047   -3.3104944    971.40068  0.060185916   0.06046538            3 
 1346000   0.71954392   -3.3057721    970.90629  0.060110593  0.060433312            4 
 1347000   0.70840648   -3.3071876    975.08391  0.060324419  0.060401604            3 
 1348000   0.70503762   -3.3258652    974.21766  0.060226117   0.06036998           11 
 1349000   0.72248169   -3.3140813    970.74424  0.059966904  0.060337841            6 
 1350000   0.71816663   -3.3013394     973.5314  0.060094531  0.060305701            9 
 1351000   0.70783063   -3.3250581    975.99101  0.060201765  0.060274101            9 
 1352000   0.72291892   -3.3260728    976.91383  0.060214117  0.060242192            6 
 1353000   0.69070768   -3.3241396    973.77034     0.059976  0.060210334            7 
 1354000   0.71893725    -3.324448    973.90886   0.05994023  0.060178629            9 
 1355000   0.70508333   -3.3293069    976.99876  0.060086025  0.060146944            4 
 1356000   0.70593897   -3.3513471    974.42294  0.059883416  0.060115404            7 
 1357000    0.7168716   -3.3070106    977.45219  0.060025313  0.060083684            5 
 1358000   0.71330059   -3.2992837     977.1173  0.059960561  0.060052087            4 
 1359000   0.70802612   -3.3289289     973.9883  0.059724571  0.060020318            6 
 1360000   0.70969042    -3.328462    977.53398  0.059897915  0.059988332            5 
 1361000   0.71565244   -3.3058647    972.23042  0.059529171  0.059956513            7 
 1362000   0.72562889   -3.3233891    974.67806  0.059635221  0.059924654            6 
 1363000   0.71510765   -3.3159522    974.93436  0.059607138   0.05989297            6 
 1364000   0.70113283   -3.3459796    978.56366   0.05978517    0.0598615            6 
 1365000   0.71244577   -3.3217491    975.68167  0.059565426  0.059829663            5 
 1366000   0.69671093   -3.3544567    976.80964  0.059590632  0.059798116            5 
 1367000   0.70528644   -3.3369143    979.10308   0.05968685  0.059766446            3 
 1368000   0.71517882    -3.310988    976.37097  0.059476789  0.059735006            7 
 1369000   0.72281956   -3.3331129    977.48189  0.059500967  0.059703389            3 
 1370000   0.70246066   -3.3346531    976.61301  0.059404684  0.059671841            6 
 1371000    0.7302533   -3.3381517     979.4038  0.059530987  0.059640446            5 
 1372000   0.70978208   -3.3452968    979.64169  0.059502046  0.059609074            6 
 1373000   0.71640423   -3.3405233     982.2633  0.059617826  0.059577843            6 
 1374000   0.71780039   -3.3354514    980.70638  0.059480008  0.059546536            5 
 1375000   0.69277354   -3.3354169    979.72195  0.059377088  0.059515388            3 
 1376000   0.70625362   -3.3332729     980.3595  0.059372547  0.059484205           11 
 1377000   0.70874333   -3.3300679    980.15784  0.059317226   0.05945279            6 
 1378000   0.68704697   -3.3486737    979.04091  0.059206635  0.059421224            7 
 1379000   0.70597764   -3.3476894    981.23423  0.059296243  0.059389927            7 
 1380000   0.69188444   -3.3505138    983.21341   0.05937279  0.059358535            9 
 1381000   0.70144051   -3.3274137    982.74604  0.059301596  0.059327213            8 
 1382000   0.69072651    -3.345701    981.34781  0.059174373  0.059296254            5 
 1383000   0.70873471   -3.3269504    984.30934  0.059310035  0.059265299            9 
 1384000   0.70124578    -3.345074    984.35729  0.059270068  0.059234284            3 
 1385000   0.70592402    -3.329361    985.78359  0.059313092  0.059203428            4 
 1386000   0.70377789   -3.3206091    983.84051   0.05915347  0.059172351           13 
 1387000   0.69042183   -3.3440146    985.61606  0.059217499  0.059141398            5 
 1388000   0.70263376   -3.3342839    983.30669  0.059036185  0.059110521            7 
 1389000   0.69667401   -3.3470371    982.89492  0.058968978  0.059079568            6 
 1390000   0.69683479   -3.3501579    986.59263  0.059148239  0.059048501            4 
 1391000   0.70189617    -3.338662    983.87127  0.058942683  0.059017732            3 
 1392000    0.6893211    -3.356953     984.4461  0.058934752  0.058986809            4 
 1393000   0.69872383   -3.3302111     985.4345  0.058951573  0.058955827            4 
 1394000   0.70306807   -3.3591522    985.52675  0.058914798  0.058925011            6 
 1395000   0.68718601   -3.3583632    986.79179  0.058948135  0.058894286            4 
 1396000   0.71069503   -3.3550773     986.4542  0.058885757  0.058863517            7 
 1397000   0.69970203   -3.3276777    987.80833  0.058924381  0.058832379            5 
 1398000   0.69439415   -3.3351773     985.6399  0.058752974  0.058801558            3 
 1399000   0.69096887   -3.3442311    987.47715  0.058820416  0.058770617            6 
 1400000   0.68584609   -3.3474953    987.45192    0.0587769  0.058739705            6 
 1401000   0.69319374   -3.3503213    987.38638  0.058731048  0.058708614            6 
 1402000    0.6959153   -3.3328343    985.34216  0.058567651   0.05867768            8 
 1403000   0.70683172   -3.3608767    989.98708  0.058801798  0.058646688            9 
 1404000   0.70799092   -3.3597103    981.57875  0.058260847   0.05861574           11 
 1405000   0.68687627   -3.3411178     990.5899   0.05875385   0.05858453            6 
 1406000   0.70086295   -3.3599864    986.02187  0.058441315  0.058553335            5 
 1407000   0.69135955   -3.3602124    986.41552  0.058423094  0.058522015            8 
 1408000   0.68645348   -3.3549742    989.25272  0.058549522  0.058490742            5 
 1409000   0.68449465   -3.3501307    987.20731  0.058386995  0.058459214            5 
 1410000   0.68839203    -3.354446    985.31675  0.058233851  0.058427861            4 
 1411000     0.694532   -3.3460095    983.98873  0.058114147  0.058396532            8 
 1412000   0.69132286   -3.3396283    985.61943   0.05816923  0.058364981            4 
 1413000   0.69505882   -3.3753087    988.43954  0.058294382  0.058333409            8 
 1414000   0.69005168   -3.3572342    987.01309  0.058169088  0.058301789            4 
 1415000   0.69203422   -3.3518357    989.11619  0.058251837  0.058270348            5 
 1416000   0.67829127   -3.3803209    986.62359  0.058064006  0.058238775            6 
 1417000    0.6966873   -3.3548943    989.76998  0.058208067  0.058207199            8 
 1418000   0.68586408    -3.353058    990.11721  0.058187424   0.05817565            5 
 1419000   0.70041326   -3.3775507    985.57935  0.057879924   0.05814398            9 
 1420000   0.68089194   -3.3715738    986.37309  0.057885745   0.05811217            8 
 1421000   0.67584884   -3.3570066    989.08532  0.058004065  0.058080596            5 
 1422000     0.692792   -3.3613121    989.99813  0.058016768  0.058048969            4 
 1423000   0.68555185    -3.367088    988.44263  0.057884904  0.058017497            7 
 1424000   0.69360833    -3.379197    988.54239  0.057850093  0.057985814            3 
 1425000   0.68869181   -3.3613926    991.33498  0.057972806  0.057954209            5 
 1426000   0.67346715   -3.3727117    990.84549  0.057903546  0.057922531            6 
 1427000   0.67871291   -3.3541662    992.56516  0.057963394  0.057891158            4 
 1428000   0.67952362   -3.3656431    991.45866  0.057858232  0.057859738            5 
 1429000   0.68375113   -3.3721028    992.84826  0.057898779  0.057828384            5 
 1430000   0.68922338   -3.3591706     993.5224  0.057897576  0.057797068            6 
 1431000   0.68425257   -3.3582604    989.21053  0.057606017  0.057765819            3 
 1432000   0.68336781   -3.3550706     991.4706  0.057697311  0.057734371           11 
 1433000   0.69188353   -3.3517909    994.30561  0.057821913  0.057703211            4 
 1434000   0.67513246    -3.344212    989.87579  0.057524163  0.057671937            4 
 1435000   0.66290529   -3.3568886    991.33138  0.057568605  0.057640666           10 
 1436000    0.6930469   -3.3838681    991.80762  0.057556153   0.05760929            5 
 1437000   0.67719727    -3.373837    993.85213  0.057634663    0.0575783            6 
 1438000   0.66385776   -3.3716832    990.12928  0.057378841  0.057547087           17 
 1439000   0.68276888   -3.3638913    989.54144  0.057304925  0.057515718            4 
 1440000   0.68595136    -3.373429    993.58559  0.057499166  0.057484284            6 
 1441000   0.68155344   -3.3915033    988.81072  0.057183132  0.057453103            6 
 1442000   0.68105689   -3.3929503    993.65956  0.057423691  0.057421823            6 
 1443000   0.68979424   -3.3889269    994.16787  0.057413252  0.057390451            4 
 1444000   0.65509104   -3.3936766    991.25831  0.057205581  0.057359058            3 
 1445000   0.67671799   -3.3955553    992.80621   0.05725526  0.057327657            5 
 1446000   0.67965283    -3.397666    991.87866  0.057162209  0.057296362            6 
 1447000   0.68112251   -3.4004985    990.03096  0.057016296  0.057265142           10 
 1448000   0.67144714   -3.3781088    994.79498  0.057251092  0.057233668            6 
 1449000   0.68383726   -3.3652764    997.09694  0.057343969  0.057202581            5 
 1450000   0.68241283   -3.3720768    993.87578  0.057119298  0.057171227            4 
 1451000   0.68152637   -3.3706887    995.72176   0.05718595  0.057140008            3 
 1452000   0.67615698   -3.3858246    993.58516  0.057023942  0.057108964            6 
 1453000   0.67290931   -3.3890959    995.69905  0.057105933  0.057077605            6 
 1454000   0.67225363   -3.3885428    995.65609  0.057064196  0.057046586            5 
 1455000   0.66792744    -3.378381     993.9033  0.056924588   0.05701542            6 
 1456000   0.66471372   -3.3697199    995.32987   0.05696714  0.056984467            4 
 1457000   0.67754261   -3.3806444    994.79315  0.056897343  0.056953476            3 
 1458000   0.66244984     -3.35919    998.62322   0.05707723  0.056922389            8 
 1459000   0.67015023   -3.3669924    996.46159  0.056914644  0.056891213            5 
 1460000   0.66226971   -3.3580256     995.0452  0.056794817  0.056860293            3 
 1461000   0.66589954   -3.4062042    995.17674  0.056763446  0.056829111            6 
 1462000   0.66195217    -3.395265    995.18253   0.05672495  0.056797987            4 
 1463000    0.6676846   -3.3940565    996.89058  0.056783469  0.056767073            5 
 1464000   0.66145193   -3.3843862    997.19299  0.056761896  0.056736027            6 
 1465000   0.64541995   -3.4177826    995.81087  0.056644532   0.05670475            6 
 1466000   0.66280421   -3.3840745    996.62503  0.056652173  0.056673562            4 
 1467000   0.66823241   -3.3694153    998.84643  0.056739742  0.056642687            7 
 1468000   0.67821704     -3.39067    998.02979  0.056654734  0.056611719            7 
 1469000   0.66966549   -3.3878761     999.5292  0.056701226  0.056580956            4 
 1470000   0.67683933   -3.3997939    996.13077  0.056469998  0.056549624            4 
 1471000   0.66417503   -3.3940347    996.63416  0.056460127  0.056518536           10 
 1472000    0.6713027   -3.3885957    1002.4289  0.056749825  0.056487443            5 
 1473000   0.66912232   -3.4089483    999.55626  0.056548781  0.056456636            9 
 1474000   0.68102975   -3.3883643    998.51926   0.05645179  0.056425776            6 
 1475000   0.67764131    -3.405182    1001.3353  0.056572615  0.056395048           12 
 1476000   0.64948326    -3.394456    999.42533  0.056426453  0.056364188           12 
 1477000   0.65641446   -3.4190504    1001.8344  0.056524172  0.056333488           12 
 1478000   0.66215151   -3.3877514    1000.1354  0.056390135  0.056302974            4 
 1479000   0.65486957   -3.3959647    1001.4543  0.056426317  0.056272411           10 
 1480000   0.65441472   -3.3948882    1000.8567  0.056354541  0.056241924            4 
 1481000   0.66048744   -3.4119283    1002.0213  0.056382024  0.056211144            9 
 1482000   0.65020996   -3.4106554    998.89897  0.056168408  0.056180282            5 
 1483000   0.65368933   -3.4186335     999.4547  0.056161761  0.056149261            7 
 1484000   0.66690351   -3.3937973    999.48235  0.056125469  0.056118398            7 
 1485000   0.65575959   -3.4164792    1004.0341  0.056343104  0.056087603            8 
 1486000   0.65317351   -3.3751635    1001.8583  0.056183171  0.056057025            4 
 1487000   0.66724425   -3.4062122     999.9067  0.056036018  0.056026428            7 
 1488000   0.66715689   -3.3933487     1003.467  0.056197751  0.055995709            6 
 1489000    0.6671848   -3.4023862    1000.1821  0.055976164  0.055964974            6 
 1490000   0.66688687    -3.401992    1001.2809   0.05600005  0.055934357            4 
 1491000   0.65347497   -3.4079612    1003.5112  0.056087145  0.055903607            6 
 1492000   0.65469704   -3.4097357    1001.7211  0.055949568  0.055872948            4 
 1493000   0.66465034   -3.4124912    999.46408  0.055786118  0.055842176           10 
 1494000   0.66056326   -3.4076405    1001.2559  0.055848722  0.055811557            8 
 1495000   0.64632859   -3.3958437    1006.7855  0.056119594  0.055780904            6 
 1496000    0.6626589   -3.4039599    1004.3799  0.055948079  0.055750411            3 
 1497000   0.64300727   -3.4064898    998.74737  0.055597159  0.055719689            8 
 1498000    0.6550624   -3.4094927    1003.0375  0.055798703   0.05568911            6 
 1499000   0.67067728   -3.4089679    1003.5815  0.055791721  0.055658476            9 
 1500000   0.65595284   -3.3944558    1002.9415  0.055718973  0.055627906            4 
 1501000   0.64626309   -3.4214857    1002.6794  0.055667299  0.055597325            6 
 1502000   0.64300832   -3.4237039    1003.0801  0.055652469  0.055566808           15 
 1503000   0.66145633   -3.4056842    1003.5954  0.055644013  0.055536272            5 
 1504000   0.65715939   -3.4071439    1004.6557  0.055665761  0.055505595           17 
 1505000   0.64332613   -3.4320411    1002.9911  0.055536607  0.055474993            8 
 1506000   0.64693159    -3.399712    1007.8657   0.05576946  0.055444321           10 
 1507000   0.64401387   -3.3959731    1006.3077    0.0556463  0.055414044            4 
 1508000    0.6521194    -3.401554    1010.2379  0.055826585  0.055383738            3 
 1509000   0.64982603   -3.4229531    1004.1568  0.055453767   0.05535335            5 
 1510000   0.64763418   -3.4166572    1004.6977  0.055446892  0.055322911            6 
 1511000   0.64986124   -3.4273177      1007.71  0.055576331   0.05529265            7 
 1512000   0.64846178   -3.4165348    1006.2121  0.055457017  0.055262392            4 
 1513000   0.64884319   -3.4002672    1005.8331   0.05539949  0.055231969            8 
 1514000   0.64220658   -3.4123766    1003.5331    0.0552363  0.055201582            5 
 1515000   0.64035646   -3.4237253    1010.4469  0.055580135  0.055171408            7 
 1516000   0.66080598   -3.4240369    1008.2709  0.055423862  0.055141194            8 
 1517000   0.65278872   -3.4142624    1007.8399  0.055363648  0.055110752           11 
 1518000   0.63663342   -3.4038182    1005.7196  0.055210783  0.055080417            8 
 1519000   0.65657744    -3.427167     1003.672  0.055062104  0.055049719            5 
 1520000    0.6333085   -3.4300516    1005.7636   0.05514055  0.055019094            7 
 1521000   0.64860974   -3.4224533    1007.6127  0.055205603  0.054988501            5 
 1522000   0.63482475   -3.4217799    1008.9432  0.055242181  0.054958208            6 
 1523000   0.63853979   -3.4392008     1006.792    0.0550882  0.054927936            9 
 1524000    0.6511606   -3.4234594    1009.7757  0.055215207  0.054897514            9 
 1525000    0.6576474   -3.4393109    1010.1992  0.055202145  0.054867158            5 
 1526000   0.65190837   -3.4336651    1007.6607  0.055027345  0.054836768            5 
 1527000   0.62748672   -3.4327605    1007.3362  0.054973598  0.054806267            5 
 1528000   0.65309656   -3.4581498    1010.0267  0.055084355  0.054776139            5 
 1529000    0.6395467    -3.412345    1009.5845  0.055024226   0.05474603            8 
 1530000   0.63312797   -3.4270962    1011.1932  0.055075881  0.054715977            5 
 1531000   0.64654473    -3.420815    1009.5316  0.054949469  0.054685976            8 
 1532000   0.64529394   -3.4500118    1007.7909  0.054818911  0.054655762           10 
 1533000   0.63361468     -3.43273    1009.5751  0.054880145  0.054625631            4 
 1534000   0.64881487   -3.4308157    1008.3269  0.054776558  0.054595433            4 
 1535000    0.6177101   -3.4390542    1009.6204  0.054811096  0.054565262           16 
 1536000   0.63771589   -3.4214476    1010.0013  0.054796076  0.054535245            9 
 1537000   0.65105091   -3.4379389    1009.7865  0.054748783   0.05450491            5 
 1538000   0.62165722   -3.4502352    1010.0443  0.054727149  0.054474708            5 
 1539000   0.64605205   -3.4683792    1010.3518  0.054708241  0.054444349            8 
 1540000   0.64723283   -3.4358724    1010.3221  0.054671108  0.054414189            8 
 1541000   0.63144413   -3.4369659    1010.8715  0.054665344  0.054384061            9 
 1542000   0.63392088   -3.4561937    1009.9737  0.054581371  0.054353968           11 
 1543000   0.64359293   -3.4383365    1009.4158  0.054515869   0.05432376            8 
 1544000   0.63376185   -3.4587088    1010.2542  0.054525812   0.05429344            7 
 1545000   0.63133388   -3.4602098    1008.8414  0.054414314  0.054263097            7 
 1546000   0.64419591   -3.4466725    1010.6875  0.054478627  0.054232957           24 
 1547000    0.6358896    -3.417345    1010.0447  0.054408784  0.054202806            6 
 1548000   0.63239377   -3.4479108     1010.612   0.05440418  0.054172747            5 
 1549000   0.63812188   -3.4602157    1010.6646  0.054371882  0.054142783            7 
 1550000   0.62459257   -3.4720912    1015.0776  0.054574065  0.054112699           10 
 1551000   0.62694746   -3.4330981     1013.601  0.054459542  0.054082962            4 
 1552000   0.63395865   -3.4191788    1013.4239  0.054414945  0.054053231            5 
 1553000   0.64131935   -3.4635686     1012.881   0.05435077  0.054023252            6 
 1554000   0.62911924   -3.4302608    1014.1792  0.054385415  0.053993516            8 
 1555000   0.63245635   -3.4510118    1014.5004  0.054367652  0.053963909            8 
 1556000   0.62460453   -3.4521429    1012.7786  0.054240497    0.0539342            4 
 1557000   0.61169541   -3.4546093     1014.392  0.054292016  0.053904529            9 
 1558000   0.63904458   -3.4729878    1015.1387  0.054297108  0.053874854            7 
 1559000   0.63160255   -3.4569338    1016.6425   0.05434266   0.05384536            8 
 1560000   0.64213092   -3.4629014    1013.5899   0.05414476  0.053815838            5 
 1561000   0.62460077   -3.4618155    1012.0206  0.054026298  0.053786168           10 
 1562000   0.62535416   -3.4434458    1017.3487  0.054275964  0.053756538            5 
 1563000   0.63318085   -3.4444642    1012.9629  0.054007404  0.053727063            6 
 1564000   0.63831914   -3.4480786    1014.7888  0.054070163  0.053697468            5 
 1565000   0.62692708    -3.452254    1012.4291  0.053909962  0.053667704            8 
 1566000   0.61613021   -3.4562204    1017.8272  0.054162794  0.053638099            7 
 1567000   0.63858688   -3.4539067    1017.1895  0.054094317  0.053608666            7 
 1568000   0.61463967   -3.4597514    1014.8424  0.053935074  0.053579064           11 
 1569000   0.63662795   -3.4684267    1013.2636  0.053816848  0.053549484            7 
 1570000   0.63017135   -3.4585069    1016.4779   0.05395318  0.053519759            8 
 1571000   0.64057026   -3.4716291     1010.239  0.053587896   0.05349004            4 
 1572000   0.61656611   -3.4637189    1015.9951  0.053858942  0.053460273            3 
 1573000   0.63274812   -3.4587076    1014.3709  0.053738657  0.053430837            9 
 1574000   0.62736166    -3.460251    1018.8725  0.053942846  0.053401312            8 
 1575000   0.64037582   -3.4364712    1018.3559  0.053881265   0.05337202           10 
 1576000   0.61201763   -3.4430282    1018.3324  0.053845833  0.053342824            7 
 1577000   0.61788538   -3.4762981    1017.2963  0.053756939  0.053313489            9 
 1578000   0.62308631   -3.4668065     1018.311  0.053776456  0.053284074            4 
 1579000   0.62136848   -3.4811496    1018.0757  0.053729981  0.053254861           10 
 1580000   0.63440042    -3.446409    1021.9016  0.053897765  0.053225682            4 
 1581000    0.6230184   -3.4782774    1017.4402  0.053628518  0.053196369            7 
 1582000   0.62933083   -3.4701999    1018.1234  0.053630603   0.05316689            6 
 1583000   0.61052574   -3.4677628    1018.4343  0.053613095  0.053137679            4 
 1584000   0.62105431   -3.4799774    1016.4821   0.05347654  0.053108309            8 
 1585000   0.62159941   -3.4678339    1016.6346  0.053450818  0.053078985            7 
 1586000   0.62442888   -3.4562694    1018.7319  0.053527315  0.053049484           11 
 1587000   0.63786993   -3.4722493    1018.6995  0.053491885  0.053020184           19 
 1588000   0.60986159   -3.4662965    1018.4712  0.053446219   0.05299073           11 
 1589000   0.61567237   -3.4728695    1016.0802  0.053287191  0.052961259            8 
 1590000   0.61811754   -3.4720656    1018.4064    0.0533756   0.05293178           12 
 1591000    0.6099385   -3.4792255    1018.3597  0.053339601  0.052902181            5 
 1592000   0.62200578     -3.47148    1019.2861   0.05335459  0.052872668            5 
 1593000   0.61793484   -3.4856419    1015.2019  0.053107441  0.052843006            4 
 1594000   0.61859415   -3.4602956    1019.1547  0.053280779  0.052813467            5 
 1595000   0.60838018   -3.4877905    1017.3961  0.053155491  0.052783786            7 
 1596000   0.62428599   -3.4620689    1017.7314  0.053139695  0.052754119           11 
 1597000   0.62669707   -3.4754623    1016.5529  0.053044925  0.052724655           13 
 1598000   0.61441113   -3.4848055    1017.2341  0.053047252  0.052695088            7 
 1599000   0.63282625   -3.4719638    1015.0501  0.052900255  0.052665377           16 
 1600000   0.61235188   -3.4748153    1017.9105   0.05301617  0.052635663            4 
 1601000   0.62602466   -3.4763595    1017.0739  0.052939512  0.052605951            6 
 1602000   0.61479371   -3.4748648    1016.9483  0.052899932  0.052576175           14 
 1603000   0.60967563   -3.4785478    1018.5885  0.052952201  0.052546481            6 
 1604000   0.60727881    -3.495805    1017.5383  0.052864626  0.052516703           11 
 1605000   0.61153874   -3.4874556    1017.0386  0.052805743  0.052486943            8 
 1606000    0.6032239   -3.4901047    1017.3145  0.052787176  0.052457231           15 
 1607000   0.60727281   -3.4711123    1020.4817   0.05291857  0.052427566            9 
 1608000   0.61357483   -3.4834478    1017.0912  0.052709948  0.052398109            8 
 1609000   0.61597895   -3.4900856    1019.2891  0.052791026  0.052368508            4 
 1610000   0.59905037   -3.4920173    1017.6993  0.052675947  0.052338731            6 
 1611000   0.61096621   -3.4862616    1017.3109  0.052623157  0.052309131            8 
 1612000   0.60614428   -3.4762859    1019.0208  0.052678908  0.052279633            7 
 1613000   0.58927083     -3.49766    1018.6486  0.052627022   0.05224998            6 
 1614000   0.61173871   -3.5087393    1016.9523  0.052506829  0.052220366            3 
 1615000   0.61647461   -3.4852176      1016.09  0.052429826    0.0521908            6 
 1616000   0.60857852   -3.4812009    1019.2596  0.052560828  0.052161209            9 
 1617000   0.60732727   -3.4910141    1021.8006  0.052659277   0.05213172            8 
 1618000   0.62331615   -3.5116791    1019.7544  0.052521344   0.05210207            4 
 1619000   0.60489832   -3.5208173    1017.0591  0.052350171  0.052072515            7 
 1620000   0.60890052    -3.480501    1019.9623  0.052467195  0.052043053            6 
 1621000   0.58735426   -3.4981928    1018.3517  0.052352029  0.052013549            6 
 1622000   0.61514483    -3.493563    1019.7064  0.052389354  0.051983977           12 
 1623000    0.5963852   -3.4954704    1017.5998  0.052248909  0.051954313           12 
 1624000   0.61266203     -3.48533      1018.07  0.052240867  0.051924513            6 
 1625000   0.60309598   -3.5062727    1018.8815  0.052250335  0.051894928            6 
 1626000    0.5841888   -3.4968987    1018.7924  0.052213631  0.051865392            6 
 1627000   0.60769502   -3.4916612    1018.9763  0.052190958  0.051835735            5 
 1628000   0.59237793   -3.4902146    1018.8597  0.052152931  0.051806268            8 
 1629000   0.60720284   -3.5087509    1019.8247  0.052170285  0.051776772            5 
 1630000   0.58818467   -3.4874336    1017.6504  0.052027117  0.051747144            6 
 1631000   0.61008416   -3.5033515    1021.1257   0.05217278  0.051717532           11 
 1632000   0.60911601   -3.5215572    1019.9811   0.05208237  0.051687868            5 
 1633000   0.59649185   -3.5102904    1017.6853   0.05193332   0.05165823           13 
 1634000     0.607494   -3.5112656    1020.1136  0.052025378  0.051628551            7 
 1635000   0.59136279   -3.5079202    1020.7666  0.052026841  0.051598926            8 
 1636000   0.60152596   -3.5012398    1022.7977  0.052098496  0.051569294           12 
 1637000    0.6054763   -3.4935074    1022.0904  0.052030665  0.051539975           10 
 1638000   0.58932856   -3.5175395    1022.2481  0.052006925  0.051510794            8 
 1639000   0.60364529   -3.5144605    1023.2033  0.052023761  0.051481414            9 
 1640000   0.59068342   -3.5156969     1022.175  0.051939784  0.051451943           13 
 1641000   0.59828563    -3.528332    1022.8122  0.051940495   0.05142252           17 
 1642000   0.59738995   -3.5053121    1022.6736  0.051901827  0.051393115           12 
 1643000   0.60026335   -3.5160968    1019.1872  0.051693409  0.051363716           24 
 1644000    0.5916775   -3.5172701    1020.3972  0.051723299  0.051334353            3 
 1645000   0.60105665   -3.5150659    1023.5623  0.051852192  0.051305039            6 
 1646000   0.59981106    -3.523826    1022.3349  0.051758553  0.051275742            6 
 1647000   0.59098966   -3.5257921    1019.0099   0.05155889  0.051246355           10 
 1648000   0.58911594   -3.5164475    1019.1913  0.051536778  0.051216833           15 
 1649000   0.57871451   -3.4951136    1023.4144  0.051718939  0.051187498            6 
 1650000   0.59242495   -3.5071444    1023.6624  0.051700123  0.051158339           20 
 1651000   0.59932273   -3.5018772    1023.3084   0.05165094  0.051129103           29 
 1652000    0.5883115   -3.5013721    1021.8948  0.051548367  0.051099765            7 
 1653000   0.59450434   -3.5065717    1022.1337  0.051529226   0.05107059           11 
 1654000   0.58197065   -3.5480422     1022.519  0.051517483   0.05104115            4 
 1655000   0.59855021   -3.5029579    1021.9374  0.051457071    0.0510119            9 
 1656000   0.59115504   -3.4994843    1022.1327  0.051435823  0.050982536            6 
 1657000   0.59790231   -3.5354075     1022.056  0.051400926  0.050953408            4 
 1658000   0.58847328    -3.532198    1024.4549  0.051490497  0.050924174            8 
 1659000   0.58858491   -3.5065123    1023.3719  0.051405058  0.050894954            5 
 1660000   0.59815132   -3.5047536    1027.0035  0.051556402  0.050865882           18 
 1661000   0.59563467   -3.5265053    1023.3057   0.05133984  0.050836972            9 
 1662000   0.59685148    -3.521887    1022.1068  0.051248836  0.050807979            9 
 1663000   0.58654467   -3.5093589    1023.7178  0.051298746  0.050778907            8 
 1664000   0.58974877   -3.5159215    1024.2186     0.051293  0.050750091            9 
 1665000    0.5969177   -3.5258537    1021.4711   0.05112468  0.050721116            7 
 1666000   0.58863305   -3.5016328    1023.9107  0.051216024  0.050692049           10 
 1667000   0.58107529   -3.5164956    1024.0761  0.051193567  0.050663202           17 
 1668000   0.59801281   -3.5592251    1021.3202   0.05102519   0.05063406           11 
 1669000   0.58294595   -3.5272155    1025.8873  0.051222654  0.050604988           10 
 1670000   0.58027657   -3.5323301    1026.1925  0.051207209  0.050576025           10 
 1671000   0.58598912     -3.52213    1025.2472  0.051129422   0.05054685            6 
 1672000   0.58157622   -3.5427101    1023.8614  0.051029775  0.050517721            6 
 1673000   0.57535757   -3.5156581    1023.9652  0.051004442  0.050488772           15 
 1674000   0.58623676    -3.526954    1023.7415  0.050962839  0.050459975            5 
 1675000   0.59391638   -3.5277996     1023.707  0.050930695  0.050431095            5 
 1676000   0.58213092    -3.534702    1021.5936  0.050795227  0.050402025           12 
 1677000   0.58748317   -3.5224922    1025.3234  0.050950279   0.05037316           10 
 1678000   0.56905478    -3.532639    1022.9805  0.050803562  0.050344048            4 
 1679000   0.59714317   -3.5496203    1020.8336  0.050666747  0.050315039            7 
 1680000   0.58364483   -3.5294667    1025.1249   0.05084945  0.050285975           14 
 1681000   0.57612674   -3.5240063    1021.9974  0.050664161  0.050256884            9 
 1682000   0.58233809   -3.5422308    1023.6222  0.050714536  0.050227898           16 
 1683000    0.5923887   -3.5357504    1025.8499  0.050794708  0.050198966            9 
 1684000   0.57237618   -3.5307065     1024.057  0.050675822  0.050170033            7 
 1685000   0.58938184    -3.529833    1024.9257  0.050688709  0.050141113            8 
 1686000   0.57260352   -3.5363316     1026.621  0.050742438  0.050112223            6 
 1687000   0.57952603   -3.5437049    1025.3365  0.050648909  0.050083455            8 
 1688000   0.58537448    -3.533339    1024.3311  0.050569266  0.050054611            7 
 1689000   0.58938234   -3.5424917    1026.4671  0.050644714  0.050025485           12 
 1690000   0.57733982   -3.5188087     1024.766  0.050530869  0.049996629            9 
 1691000   0.57774237   -3.5436708    1025.7085  0.050547431  0.049967645            4 
 1692000   0.57598439   -3.5312809    1027.3134  0.050596602  0.049938776            4 
 1693000   0.58943845   -3.5362825    1026.0432  0.050504194  0.049909975            7 
 1694000   0.57517408   -3.5492437     1025.664  0.050455724  0.049881238           11 
 1695000   0.57988843   -3.5633589     1023.222  0.050305902  0.049852264           12 
 1696000   0.57300327   -3.5598011    1025.6143  0.050393784  0.049823414            8 
 1697000   0.58483781   -3.5542846    1025.4804  0.050357511   0.04979453           13 
 1698000    0.5897027   -3.5527952    1025.2434  0.050316225  0.049765776           12 
 1699000   0.58316976   -3.5455803    1023.6778  0.050209821  0.049736949           11 
 1700000   0.57528688   -3.5383662    1025.9289   0.05029063  0.049708078            5 
 1701000   0.57752372   -3.5769715     1023.661  0.050149959  0.049679224            6 
 1702000   0.58414422   -3.5478042     1023.088  0.050092439  0.049650213           10 
 1703000   0.58426175   -3.5455997    1023.7034  0.050093141  0.049621186           19 
 1704000   0.56819203   -3.5611524    1027.9065  0.050269293  0.049592331            6 
 1705000   0.56063694    -3.540495    1025.2579  0.050110357  0.049563645            6 
 1706000    0.5746499   -3.5632116    1025.1304  0.050074758  0.049534933            4 
 1707000    0.5621119   -3.5568311    1025.8697  0.050081514  0.049506105            7 
 1708000   0.57351119   -3.5616396     1025.733  0.050045521  0.049477313            4 
 1709000   0.56496633   -3.5783575    1025.6856  0.050013929   0.04944853            5 
 1710000   0.57277129   -3.5495642    1025.0743  0.049954888  0.049419845           14 
 1711000   0.57196073   -3.5423471    1028.3165  0.050083602  0.049391156            8 
 1712000   0.55346591   -3.5363404    1028.8114  0.050078437  0.049362642           13 
 1713000   0.55912855   -3.5543738    1024.6181   0.04984521  0.049334105           11 
 1714000    0.5634153   -3.5686904    1026.7462  0.049919596  0.049305494            7 
 1715000   0.56542597   -3.5606678    1028.6348  0.049982256  0.049276849            3 
 1716000   0.56110387    -3.555412    1027.6854  0.049907023  0.049248214            6 
 1717000   0.57672879   -3.5491147    1026.3398  0.049812648  0.049219596            6 
 1718000   0.56830106   -3.5617246    1026.9246  0.049812018  0.049191098           39 
 1719000   0.56724263   -3.5560709    1025.0557  0.049692442  0.049162505            5 
 1720000   0.57302169   -3.5485765    1026.1039  0.049714338  0.049133941            7 
 1721000   0.54645677   -3.5337817    1031.6781  0.049955361  0.049105577           15 
 1722000    0.5653778   -3.5593663    1030.3784  0.049863451  0.049077185            6 
 1723000   0.56638134    -3.556948     1029.414  0.049787871  0.049048768           19 
 1724000   0.55541415     -3.54857    1027.7335  0.049677761  0.049020342            6 
 1725000   0.56453987   -3.5614626    1026.6289  0.049595598   0.04899188            8 
 1726000   0.55581396   -3.5671184    1031.1864  0.049786908  0.048963505           11 
 1727000   0.55402422     -3.56344    1029.5724  0.049680197  0.048935034           15 
 1728000   0.55197828   -3.5651009    1029.2603  0.049636394  0.048906583           20 
 1729000   0.55637874   -3.5624986    1030.1904  0.049652517  0.048878176            8 
 1730000   0.55500639   -3.5825274    1028.4354  0.049539276  0.048849799            8 
 1731000   0.57027033   -3.5604388    1027.9622   0.04948788  0.048821388            7 
 1732000   0.56466653   -3.5795097    1028.8468  0.049501868  0.048793212            6 
 1733000   0.55834143   -3.5536729    1030.2085  0.049538781  0.048765097            7 
 1734000   0.56595302   -3.5757737    1030.1305  0.049506463  0.048736871            7 
 1735000   0.57718093    -3.570637    1032.2593  0.049580176  0.048708735            5 
 1736000   0.55553515   -3.5688774    1028.9682  0.049393633  0.048680544            9 
 1737000   0.56049311     -3.56296    1032.0771  0.049514351  0.048652322            6 
 1738000    0.5559079   -3.5689059    1030.3108   0.04940117  0.048624129            9 
 1739000   0.55843316   -3.5758306     1029.331  0.049325811  0.048595926           10 
 1740000    0.5496428   -3.5731167     1034.239  0.049532521  0.048567755           14 
 1741000   0.56279546   -3.5952625    1029.3296  0.049269081   0.04853961           20 
 1742000    0.5651722   -3.5885209    1030.5803  0.049300628  0.048511436           14 
 1743000   0.55269315   -3.5913797    1031.6101  0.049321576  0.048483302            7 
 1744000   0.55180171   -3.5687541     1032.714  0.049346046  0.048455198           10 
 1745000   0.55387051   -3.5770478     1028.697   0.04912593  0.048427199           13 
 1746000   0.54523367   -3.5754782    1032.6697  0.049287403  0.048399299            4 
 1747000   0.54690037   -3.5769627    1027.6093  0.049017807  0.048371483            6 
 1748000   0.56014807   -3.5846832    1031.8863  0.049193663  0.048343602           20 
 1749000   0.54953001   -3.5874524    1032.3003  0.049185264  0.048315638           13 
 1750000    0.5632441   -3.5854638     1034.235  0.049249288  0.048287746           13 
 1751000   0.54881194   -3.5998398    1031.6506  0.049098161  0.048259755            4 
 1752000   0.56068964   -3.5844487    1031.7591  0.049075301  0.048231715           11 
 1753000   0.55836274   -3.5729343    1030.2423  0.048975201    0.0482038           28 
 1754000   0.55387903   -3.5869353    1033.6593  0.049109623  0.048175847           10 
 1755000   0.56171817   -3.6004419    1029.6782    0.0488926  0.048148063           11 
 1756000   0.55841676   -3.5890756    1033.7084  0.049056016  0.048120301            9 
 1757000   0.54993949   -3.5885751    1033.2854  0.049008034  0.048092623           31 
 1758000   0.54325422   -3.6062793    1034.1401  0.049020673  0.048064812           12 
 1759000   0.54063293   -3.5844523    1032.8514  0.048931753  0.048037032           13 
 1760000   0.54463342   -3.6072376     1031.565   0.04884304  0.048009279           13 
 1761000   0.53796603   -3.6000502    1033.9726  0.048929235  0.047981534            7 
 1762000   0.54147629   -3.5991105    1032.8835  0.048849959  0.047953966           12 
 1763000   0.54222184   -3.6074703     1035.649  0.048952967  0.047926273           12 
 1764000   0.54164614   -3.5886099    1030.9189  0.048701764  0.047898697            8 
 1765000   0.55517615   -3.5925162    1033.0301  0.048773848  0.047871259           14 
 1766000   0.54985622   -3.6050786    1035.0946   0.04884365  0.047843704            8 
 1767000   0.55544577   -3.5920707    1033.4305  0.048737524  0.047816148           17 
 1768000   0.52311437   -3.5956052    1034.9687  0.048782462  0.047788517           10 
 1769000   0.56176969   -3.5701647    1032.9765   0.04866104  0.047761121           12 
 1770000   0.55007805   -3.5949469    1033.1597  0.048642169  0.047733644            8 
 1771000   0.55648278   -3.5876687    1033.3667  0.048624447  0.047706073           20 
 1772000   0.54255807   -3.5944243    1035.3121  0.048688494  0.047678681           15 
 1773000     0.555927   -3.5959251    1031.8723  0.048499354  0.047651117            9 
 1774000   0.53991069   -3.5976388    1034.8166  0.048610323  0.047623573            9 
 1775000   0.54082746   -3.6065142    1030.3919  0.048375207  0.047596147           12 
 1776000   0.55412078   -3.5970338    1033.7702  0.048506487  0.047568693           10 
 1777000   0.54970039   -3.6087214    1034.2624   0.04850227  0.047541187            9 
 1778000    0.5478194   -3.5951874    1035.3917  0.048527919  0.047513784           15 
 1779000    0.5418546   -3.5930401    1035.6999   0.04851508  0.047486436            8 
 1780000   0.55052635   -3.5914388    1035.7218  0.048488846  0.047459051            7 
 1781000    0.5339326   -3.6053214    1032.7706  0.048323535  0.047431688           10 
 1782000    0.5378289   -3.6221166    1034.0201  0.048354847  0.047404268           22 
 1783000   0.53465185   -3.6168348    1036.6899  0.048452509   0.04737683           25 
 1784000   0.54716423   -3.5961602    1034.4891  0.048322549  0.047349452           10 
 1785000   0.54566071   -3.6072123    1036.2892  0.048379512  0.047322188           10 
 1786000   0.53102576   -3.6105824    1035.0126  0.048292861  0.047294801            6 
 1787000   0.53702022   -3.6068389    1033.8727  0.048212678  0.047267479           14 
 1788000   0.54111683   -3.6249886    1036.2815  0.048297981  0.047240157           19 
 1789000   0.53322169   -3.6078089    1034.7428  0.048199311  0.047212854           13 
 1790000   0.54908021   -3.6281745     1035.911   0.04822677  0.047185466            7 
 1791000   0.53928957   -3.6060593    1036.3746   0.04822141  0.047158181            7 
 1792000    0.5369557   -3.6162033    1038.6719  0.048301336  0.047131095            9 
 1793000   0.54932079   -3.6113271    1035.7278  0.048137562  0.047103945           13 
 1794000   0.53837671   -3.6235303    1035.9933  0.048123064  0.047076749           11 
 1795000   0.53659185   -3.6177562    1035.2129  0.048060023  0.047049674           11 
 1796000   0.54512744   -3.6161343    1036.1059  0.048074699  0.047022637           13 
 1797000   0.54432869   -3.6309144    1035.2928  0.048010237  0.046995639           39 
 1798000   0.53217935    -3.630578     1035.335  0.047985493  0.046968585           28 
 1799000   0.54144758   -3.6286058    1037.6467  0.048065904  0.046941475           20 
 1800000   0.52471775   -3.6266351    1035.3107  0.047931052  0.046914498           11 
 1801000     0.542927   -3.6144913    1035.5841  0.047917089  0.046887563           11 
 1802000   0.52964834   -3.6161363    1038.9727  0.048047201   0.04686071            8 
 1803000   0.52791597   -3.5995096    1038.4022  0.047994188  0.046833891           15 
 1804000   0.52190363   -3.6078309    1038.8369  0.047987663  0.046807066            9 
 1805000   0.52467358   -3.6313558    1035.6628  0.047814534  0.046780196           24 
 1806000   0.53523702   -3.6294805    1038.9323  0.047938922  0.046753433           15 
 1807000   0.53730915   -3.6486405    1037.2934  0.047836812   0.04672664            8 
 1808000   0.53111664   -3.6159482    1037.3345  0.047812248  0.046699709           28 
 1809000   0.52536205   -3.6365017    1037.2766   0.04778315  0.046672902           21 
 1810000   0.53112531   -3.6405498    1038.3395  0.047805688   0.04664609           16 
 1811000   0.54909968   -3.6495553    1038.2392  0.047774671  0.046619205           18 
 1812000   0.53005468   -3.6126308    1036.5912  0.047672518  0.046592341           20 
 1813000   0.52062136   -3.6350791    1039.1641  0.047764481  0.046565448           11 
 1814000   0.52782195   -3.6288786    1037.8999  0.047680078  0.046538571           43 
 1815000   0.53297066   -3.6209636    1037.6467  0.047642182  0.046511766           13 
 1816000   0.53322846   -3.6208655    1038.8202  0.047669795  0.046484989           47 
 1817000   0.53237151   -3.6182638    1039.1314  0.047657834  0.046458231           19 
 1818000   0.52199517   -3.6477077    1035.9259  0.047484685  0.046431391           14 
 1819000   0.53007716   -3.6465506    1037.0688  0.047510938  0.046404538           27 
 1820000   0.53378695   -3.6360269    1036.1945  0.047444804  0.046377767           10 
 1821000   0.53966718   -3.6218921    1039.2573   0.04755891     0.046351           14 
 1822000   0.52531508    -3.627463    1039.7174  0.047553853  0.046324411           13 
 1823000   0.51965541   -3.6354333    1037.8926  0.047444349  0.046297707           10 
 1824000   0.52767506   -3.6289235    1038.1395  0.047429621  0.046270984           17 
 1825000   0.52546729   -3.6247516    1039.7838  0.047478714  0.046244289            8 
 1826000   0.51991558    -3.643012    1037.2761  0.047338266  0.046217653           27 
 1827000   0.52361876   -3.6238642     1037.695  0.047331464  0.046190926           13 
 1828000   0.50711574   -3.6365817    1036.6141  0.047256296  0.046164268           14 
 1829000   0.52174195   -3.6418244     1039.678  0.047370058  0.046137653           10 
 1830000   0.51908291   -3.6291837    1039.3968  0.047331367  0.046111081           10 
 1831000   0.51391948   -3.6671894    1037.1875  0.047204965  0.046084404           35 
 1832000   0.53115333   -3.6413163    1036.7204   0.04715795  0.046057667           33 
 1833000   0.52528962   -3.6521781    1040.6798  0.047312228  0.046031077           18 
 1834000   0.52514822   -3.6435681    1037.5635  0.047144835  0.046004361           14 
 1835000    0.5156954   -3.6297123    1040.2191  0.047239741  0.045977854           13 
 1836000   0.52644683   -3.6468103    1039.3131  0.047172889  0.045951278            6 
 1837000   0.52272551   -3.6548733    1038.2028  0.047096842  0.045924717            9 
 1838000    0.5080184    -3.628743    1039.7707  0.047142307  0.045898265           11 
 1839000   0.52231864   -3.6810328    1039.1321  0.047087732  0.045871612           21 
 1840000    0.5264648    -3.652007    1038.5336  0.047035037  0.045844924           17 
 1841000    0.5266355   -3.6308866    1038.5827  0.047011708  0.045818347           10 
 1842000   0.51074564   -3.6484551    1040.5192  0.047073798  0.045791905           11 
 1843000   0.51559677   -3.6610205    1038.3062  0.046948191  0.045765401           12 
 1844000   0.51814131   -3.6622763    1039.0703  0.046957263  0.045738994            7 
 1845000   0.50588936   -3.6538344    1040.8493  0.047012163  0.045712545           11 
 1846000   0.50341907   -3.6525175    1039.7501  0.046937077  0.045685989           13 
 1847000   0.50895267   -3.6361952    1043.3108  0.047072315  0.045659578           13 
 1848000   0.51479284   -3.6606322     1039.454  0.046872927  0.045633168           11 
 1849000   0.51767724   -3.6584797     1041.339   0.04693253    0.0456068            8 
 1850000   0.51413156   -3.6480026    1039.3768  0.046818776  0.045580456           12 
 1851000   0.50595426   -3.6528604    1040.7903  0.046857117  0.045554045           20 
 1852000   0.50816459   -3.6446939    1040.5261  0.046819931  0.045527817           24 
 1853000   0.51660489   -3.6641571    1039.2173  0.046735802  0.045501419           52 
 1854000   0.50342474   -3.6409204    1038.9019  0.046696417  0.045474988           17 
 1855000   0.52516007   -3.6754132    1039.5256  0.046699265  0.045448579           23 
 1856000   0.51135202   -3.6632606    1039.5844   0.04667674  0.045422063           43 
 1857000   0.50902235   -3.6431201    1037.6759  0.046565961  0.045395586           32 
 1858000   0.51188311   -3.6461121    1038.6716  0.046585559  0.045369226           21 
 1859000   0.51538084   -3.6793771    1038.3965  0.046548167  0.045342885           19 
 1860000   0.51513622   -3.6379639    1038.1031  0.046509997    0.0453165           10 
 1861000   0.49388597   -3.6543634    1041.1371  0.046620863  0.045290078            7 
 1862000    0.5093389   -3.6655633    1036.3354  0.046380927  0.045263574           11 
 1863000   0.50743206   -3.6680897    1039.4869     0.046497    0.0452371           16 
 1864000   0.51010183   -3.6829084    1040.6047  0.046522025  0.045210602           21 
 1865000   0.51515448    -3.671476    1037.6137  0.046363437  0.045184124           10 
 1866000   0.51412714   -3.6555052    1038.6994  0.046387076  0.045157646           12 
 1867000    0.5154349   -3.6721993    1038.0567  0.046333542  0.045131127           17 
 1868000   0.50556238   -3.6525403    1037.7812  0.046296451  0.045104678           10 
 1869000   0.49852662   -3.6723258    1036.9401  0.046234174  0.045078207            8 
 1870000   0.50296186   -3.6649882    1039.0611  0.046303971  0.045051692           18 
 1871000   0.51543147   -3.6787872    1038.5613  0.046256962   0.04502522           21 
 1872000   0.50069139   -3.6811016    1038.3471  0.046222715  0.044998721           13 
 1873000   0.50788462    -3.659283    1039.9452  0.046269142  0.044972458            8 
 1874000   0.50120216   -3.6624068    1037.3759  0.046130198  0.044946083           14 
 1875000   0.51182819   -3.6790219    1038.3756  0.046150026  0.044919697           22 
 1876000   0.49693733    -3.671804    1036.8524  0.046057766  0.044893344           33 
 1877000   0.49943083   -3.6869533    1038.6741  0.046114105  0.044867012           32 
 1878000   0.50350036   -3.6726359    1039.0414  0.046105848   0.04484067            6 
 1879000    0.4958951   -3.6717167    1036.9065  0.045986628  0.044814443           12 
 1880000   0.49873574   -3.6640351    1039.3346  0.046069794  0.044788151           13 
 1881000   0.49457994   -3.6582476    1039.3531  0.046046123  0.044761877           24 
 1882000    0.5014783   -3.6795608    1038.0365   0.04596336  0.044735654           20 
 1883000   0.50715543   -3.6724275    1035.9223  0.045845385  0.044709409           19 
 1884000   0.49796323    -3.686186    1038.1398  0.045919135  0.044683128            7 
 1885000   0.49472157   -3.6835609    1040.6682  0.046006553  0.044656825           10 
 1886000   0.49743217   -3.6723182    1038.1433  0.045870593  0.044630506           11 
 1887000   0.50134154   -3.6654953    1038.9163  0.045880423  0.044604262            6 
 1888000   0.50735794   -3.6687227     1036.847  0.045764785  0.044578033           21 
 1889000   0.49716433   -3.6768352    1039.9843  0.045878962  0.044551867           19 
 1890000   0.49336462   -3.6847398    1036.2042  0.045688014  0.044525554            8 
 1891000    0.5000125   -3.6928663    1038.9147  0.045783302  0.044499273           24 
 1892000   0.50842542   -3.6811872    1039.0465  0.045764911  0.044472897           10 
 1893000   0.50295091   -3.7027744    1038.0658  0.045697563  0.044446679           16 
 1894000   0.48896665   -3.6940237    1041.4915  0.045824162  0.044420447           16 
 1895000   0.49609323   -3.6989243    1039.7721  0.045724365   0.04439439           17 
 1896000   0.48855929   -3.6650864    1039.7475  0.045699171  0.044368414            8 
 1897000   0.49548322   -3.6926428    1041.4451  0.045749653  0.044342391           11 
 1898000   0.50318176   -3.6701521    1041.9213  0.045746457  0.044316451           12 
 1899000   0.49334359   -3.7031047    1038.8853  0.045589141  0.044290388            8 
 1900000   0.49686947   -3.6761149    1039.5557  0.045594547  0.044264435           13 
 1901000   0.49325664   -3.6907652    1040.9126  0.045630047  0.044238569           29 
 1902000   0.49328438   -3.6981488    1040.3364  0.045580808  0.044212564            7 
 1903000   0.50403746   -3.6934426    1038.9826  0.045497575   0.04418647           12 
 1904000   0.48301412   -3.6981049    1041.2646  0.045573557  0.044160479           10 
 1905000   0.47842992   -3.6937741     1039.215  0.045459972  0.044134491           17 
 1906000   0.48331998   -3.7040992    1039.2964  0.045439683  0.044108502           14 
 1907000   0.47901779   -3.6873149      1040.21  0.045455779  0.044082627           15 
 1908000   0.48572553    -3.712142    1040.3644  0.045438697  0.044056735           14 
 1909000   0.50841768   -3.7095385    1038.2208   0.04532132  0.044030735           25 
 1910000   0.49162874   -3.7074153    1039.0004  0.045331606   0.04400475           14 
 1911000   0.49411888     -3.69373    1040.6217  0.045378583  0.043978811           13 
 1912000   0.49471188   -3.7076248    1040.4595  0.045347783  0.043952905           15 
 1913000   0.49851378   -3.7080732    1041.0738  0.045350835  0.043927099           15 
 1914000   0.49944131   -3.7171134    1037.5254  0.045172647   0.04390128           12 
 1915000   0.49068048   -3.7082976    1039.3247   0.04522736   0.04387549           14 
 1916000   0.49452334   -3.7148184    1039.8763  0.045227743  0.043849653           12 
 1917000   0.49603766   -3.7183183    1040.9777  0.045252031  0.043823697           18 
 1918000   0.48600323   -3.7245729    1037.2802  0.045067786  0.043797764           22 
 1919000   0.48289144   -3.6994349     1037.829  0.045068135   0.04377177           36 
 1920000   0.48331161   -3.7053152    1039.4138  0.045113445  0.043745936           17 
 1921000   0.47735427   -3.7239058    1040.6591  0.045143984  0.043720213           26 
 1922000   0.48847247   -3.7024178    1038.6843  0.045034873  0.043694338           22 
 1923000    0.4928713    -3.693192    1041.5664  0.045136349  0.043668579           52 
 1924000   0.48323403   -3.7060986    1039.4896  0.045022937  0.043642785           25 
 1925000   0.48434642   -3.7174096    1039.0009  0.044978395  0.043617071           39 
 1926000   0.50792754   -3.7071391    1039.8773  0.044992959  0.043591413           20 
 1927000   0.48340913   -3.7217742     1040.382  0.044991439  0.043565658           18 
 1928000   0.47929512   -3.7180349    1041.5489  0.045018537  0.043539949           23 
 1929000   0.48404451   -3.7285565    1042.7838  0.045048549  0.043514266           17 
 1930000   0.48634979   -3.7061669    1041.3794  0.044964566  0.043488647           10 
 1931000   0.49027862   -3.7041797    1040.3234  0.044895709  0.043462983           12 
 1932000   0.48235284   -3.7270983    1038.5132  0.044794391  0.043437312           25 
 1933000    0.4889556   -3.7183637    1037.8395  0.044742173  0.043411683           19 
 1934000   0.48956995    -3.689304     1041.792  0.044889346  0.043386106           33 
 1935000   0.48057962   -3.7125258     1037.888   0.04469802  0.043360492           12 
 1936000   0.47713057   -3.7061669    1039.8243  0.044758277  0.043334818           16 
 1937000   0.47603958   -3.7180556    1039.2337   0.04470976  0.043309171           27 
 1938000    0.4947984   -3.7251999    1039.6823  0.044705982  0.043283528           28 
 1939000   0.48545742   -3.7289242    1040.4206  0.044714656  0.043257857           19 
 1940000   0.47487222   -3.7053844     1039.584  0.044655668  0.043232173           14 
 1941000   0.48840694   -3.7233469    1039.6324  0.044634741  0.043206614           13 
 1942000   0.47929349   -3.7228305    1040.6473   0.04465531   0.04318104           10 
 1943000   0.47494998   -3.7281962    1040.1676  0.044611753  0.043155503           11 
 1944000    0.4757517   -3.7333335    1041.1222  0.044629725   0.04312998           18 
 1945000   0.47137517    -3.729038    1040.5672     0.044583  0.043104465           12 
 1946000   0.47275522   -3.7252269    1040.1263  0.044541206  0.043078984            8 
 1947000   0.46912786    -3.739355    1040.4045  0.044530239  0.043053445           21 
 1948000   0.47579758   -3.7284334    1042.6684  0.044604228  0.043027978           16 
 1949000   0.47565059   -3.7268301    1040.3133  0.044480643   0.04300247           43 
 1950000   0.46770108   -3.7241081    1040.9529  0.044485168  0.042977006           22 
 1951000   0.47095007   -3.7229679    1039.4102  0.044396474  0.042951569           26 
 1952000   0.48113883   -3.7366067    1039.9139  0.044395231  0.042926091           53 
 1953000   0.47665088   -3.7326324    1041.2755  0.044430598  0.042900698           30 
 1954000    0.4759545   -3.7332197     1041.558  0.044419908  0.042875306           19 
 1955000   0.47299372   -3.7310017    1041.4565   0.04439286   0.04284988           17 
 1956000   0.47016623   -3.7387974    1040.5864  0.044333094  0.042824416           28 
 1957000   0.46722703   -3.7334582    1039.5259  0.044265283  0.042798994           39 
 1958000   0.47275554   -3.7378343    1037.2863  0.044147358  0.042773541           48 
 1959000   0.47028626   -3.7255802    1039.6015  0.044223308  0.042748036           44 
 1960000   0.46952803   -3.7341234    1037.7483  0.044121952  0.042722526           65 
 1961000   0.46739043   -3.7419155    1040.8018  0.044229213  0.042697096           14 
 1962000   0.46449481   -3.7443998    1039.6615  0.044158237  0.042671615            9 
 1963000   0.46733514   -3.7330896    1040.8084  0.044184429  0.042646277           15 
 1964000   0.46329436   -3.7413951    1038.7553  0.044074817  0.042620818           39 
 1965000   0.46313406    -3.731088    1037.3751  0.043993855  0.042595341           14 
 1966000   0.47643327   -3.7314643    1040.6018  0.044108249  0.042569926           20 
 1967000   0.47060021   -3.7308976    1038.4386   0.04399418  0.042544563           23 
 1968000   0.46033101   -3.7350331    1039.1572  0.044002251  0.042519277           16 
 1969000   0.47619849   -3.7354784    1040.7318  0.044046548  0.042493926           14 
 1970000    0.4617105   -3.7428088    1039.9979  0.043993144  0.042468589           16 
 1971000   0.46717863   -3.7477147    1039.2153  0.043937733   0.04244329           39 
 1972000   0.47422588   -3.7608998    1041.2678   0.04400219  0.042417932            7 
 1973000   0.46752246   -3.7443467    1041.2243   0.04397805  0.042392572           19 
 1974000   0.46975415   -3.7543107    1039.7193  0.043892238  0.042367306           20 
 1975000   0.46299452   -3.7463041    1039.1895  0.043847658  0.042342003           11 
 1976000   0.46835687   -3.7415693    1039.3217  0.043831042  0.042316701           38 
 1977000   0.46271476   -3.7399084    1039.9796  0.043836602  0.042291454            6 
 1978000    0.4642473   -3.7377579    1037.5886  0.043713711  0.042266169           19 
 1979000   0.46269176   -3.7433233    1037.6424  0.043693884  0.042240828            6 
 1980000   0.45647699   -3.7710603    1040.3127  0.043784206  0.042215465           32 
 1981000   0.46751516   -3.7515885    1038.6128  0.043690596  0.042190029           10 
 1982000   0.45531139   -3.7604434    1035.8299  0.043551542  0.042164586           13 
 1983000   0.46531627   -3.7647446    1037.3478  0.043593371  0.042139183           22 
 1984000   0.46036134    -3.750264    1037.4912  0.043577421  0.042113792           16 
 1985000   0.45572893   -3.7628626    1040.7527  0.043692388  0.042088424           54 
 1986000   0.44911825    -3.762098    1035.8698  0.043465501   0.04206297           56 
 1987000   0.45276116   -3.7688391    1039.5908  0.043599682  0.042037562           22 
 1988000   0.46666679   -3.7519259    1040.0506  0.043597024  0.042012272           21 
 1989000   0.46729831   -3.7512669    1037.9143  0.043485599  0.041986979           10 
 1990000   0.45245739   -3.7507226    1039.6419  0.043536091  0.041961691           31 
 1991000   0.47433372   -3.7714567    1037.5633  0.043427227   0.04193641           18 
 1992000    0.4622137    -3.761404    1038.7278  0.043454142  0.041911106           46 
 1993000   0.45721912   -3.7614188    1039.9084  0.043481701  0.041885853           25 
 1994000   0.46159203      -3.7609    1038.4946   0.04340081  0.041860687           18 
 1995000   0.44832968   -3.7548373    1040.1298   0.04344736  0.041835499           36 
 1996000   0.46740522   -3.7608093    1040.1246  0.043425376  0.041810319           16 
 1997000   0.45408784   -3.7662577    1040.2262  0.043407872  0.041785163           54 
 1998000   0.45194579   -3.7474348    1039.6697  0.043362933  0.041760053           72 
 1999000   0.44647047   -3.7661921    1038.3789  0.043287432  0.041734777           17 
 2000000   0.45171564   -3.7741108    1036.8392  0.043201634   0.04170953           22 
 2001000    0.4443178   -3.7676493    1037.6278  0.043212886  0.041684296           18 
 2002000   0.45269476     -3.75676     1035.948  0.043121379   0.04165906           14 
 2003000   0.44672625   -3.7505893     1036.195  0.043110125  0.041633917           57 
 2004000   0.46003253   -3.7789096    1037.0473  0.043124058  0.041608728           23 
 2005000   0.45335047   -3.7661553    1036.7003  0.043088124  0.041583486           81 
 2006000   0.45199696   -3.7740761    1038.0535  0.043122862  0.041558253           31 
 2007000   0.44665072   -3.7796474    1035.3109    0.0429875  0.041533072           53 
 2008000   0.45180239   -3.7686741    1038.6957  0.043106561  0.041507928           20 
 2009000   0.44686787   -3.7730095     1038.147  0.043062345  0.041482741           14 
 2010000   0.43792155   -3.7726643    1036.8209  0.042985939  0.041457516           13 
 2011000   0.44717194   -3.7873856    1035.8406  0.042923942  0.041432292           15 
 2012000   0.44485994   -3.7635489    1036.2363     0.042919  0.041407124           11 
Loop time of 4865.41 on 48 procs for 2000000 steps with 4000 atoms

Performance: 71032.057 tau/day, 411.065 timesteps/s
99.4% CPU use with 48 MPI tasks x no OpenMP threads

MPI task timing breakdown:
Section |  min time  |  avg time  |  max time  |%varavg| %total
---------------------------------------------------------------
Pair    | 308.76     | 332.92     | 354.81     |  55.4 |  6.84
Neigh   | 32.804     | 34.038     | 35.603     |  10.9 |  0.70
Comm    | 312.26     | 334.62     | 360.33     |  62.2 |  6.88
Output  | 4.1371     | 4.1389     | 4.1687     |   0.2 |  0.09
Modify  | 4105.9     | 4114.3     | 4125.3     |   6.9 | 84.56
Other   |            | 45.42      |            |       |  0.93

Nlocal:        83.3333 ave          92 max          78 min
Histogram: 7 4 8 8 3 12 0 3 2 1
Nghost:        2193.23 ave        2207 max        2177 min
Histogram: 2 1 2 5 9 9 8 6 3 3
Neighs:        14579.4 ave       16049 max       12993 min
Histogram: 2 4 3 9 7 6 4 4 5 4
FullNghs:      29160.2 ave       32268 max       26948 min
Histogram: 5 5 5 8 9 5 5 1 4 1

Total # of neighbors = 1399692
Ave neighs/atom = 349.92300
Neighbor list builds = 108526
Dangerous builds = 0

#clear
#
#next RN
#
#jump SELF
Total wall time: 1:21:08
