
units lj                  # Use reduced LJ style units
atom_style atomic         # Uncharged point particles
atom_modify map hash      # Needed for indexing of clusters etc
                          # Used to be able to find where atoms are in relation to each other.

lattice fcc 1.0 spacing 1 1 1
Lattice spacing in x,y,z = 1.5874011 1.5874011 1.5874011
region box block 0 10 0 10 0 10 units lattice
create_box 2 box
Created orthogonal box = (0.0000000 0.0000000 0.0000000) to (15.874011 15.874011 15.874011)
  3 by 4 by 4 MPI processor grid
create_atoms 1 box
Created 4000 atoms
  using lattice units in orthogonal box = (0.0000000 0.0000000 0.0000000) to (15.874011 15.874011 15.874011)
  create_atoms CPU = 0.002 seconds
set type 1 type/fraction 2 0.12 78393
Setting atom values ...
  508 settings made for type/fraction
mass 1 1.0
mass 2 1.0
pair_style lj/cut  3.5
pair_modify tail  yes
pair_coeff 1  1  1.0  1.0   # Intearaction between 1 and 1 set with epsilon = 1 and sigma = 1
pair_coeff 1  2  1.5  0.8
pair_coeff 2  2  0.5  0.88

write_data data.0
System init for write_data ...
Neighbor list info ...
  update every 1 steps, delay 10 steps, check yes
  max neighbors/atom: 2000, page size: 100000
  master list distance cutoff = 3.8
  ghost atom cutoff = 3.8
  binsize = 1.9, bins = 9 9 9
  1 neighbor lists, perpetual/occasional/extra = 1 0 0
  (1) pair lj/cut, perpetual
      attributes: half, newton on
      pair build: half/bin/atomonly/newton
      stencil: half/bin/3d
      bin: standard
WARNING: Not all mixed pair coeffs generated from mixing. Use write_data with 'pair ij' option to store all pair coeffs. (../write_data.cpp:312)


#############################
#   M E L T   S Y S T E M   #
#############################

velocity all create 2.4 6583654 mom yes dist gaussian # Assign velocities
                                                    # Temperature 2.4, random number seed, zero linear momentum
                                                                                # Gaussian distribution

timestep 0.002   # simulation timestep
thermo 1000       # output thermodynamic data every 1000 steps bf 100

# Define a fix  in this case with index 1 applied to all
# particles in the simulation. This fix is for simulations
# in the anisotropic NPT ensemble. Note that we use the MTK
# correction.
fix 1 all npt temp 2.4 2.4 0.1 iso 5.68 5.68 0.5 mtk yes tchain 5 pchain 5 # Use NPT ensemble
                                                                         # Set temperature and pressure and damping
                                                                         # Numbers of thermostats in chain and in barostat
run 10000          # run for 10000 steps
Per MPI rank memory allocation (min/avg/max) = 3.642 | 3.644 | 3.648 Mbytes
Step Temp E_pair E_mol TotEng Press Volume 
       0          2.4   -7.5560252            0   -3.9569252   -3.1663949         4000 
    1000    2.3930307   -4.7329319            0   -1.1442832    5.5909068    4729.1993 
    2000    2.3690151   -4.6046372            0    -1.052003    5.7740732    4781.8268 
    3000    2.4294428   -4.6918788            0   -1.0486256    5.8088604    4729.5544 
    4000    2.4569535   -4.7327692            0   -1.0482604    5.7564311    4713.5822 
    5000    2.3776858    -4.684917            0   -1.1192799    5.6277625    4757.5673 
    6000     2.457751   -4.6970251            0   -1.0113202    5.7081854    4741.6652 
    7000    2.3950926   -4.6501634            0   -1.0584227      5.82807    4745.9537 
    8000    2.3778987   -4.6847215            0   -1.1187651    5.7725043    4735.9445 
    9000    2.4028675   -4.7236852            0   -1.1202851    5.6318896    4722.8564 
   10000    2.3978408   -4.6805977            0   -1.0847356    5.4124705    4788.5467 
Loop time of 2.17836 on 48 procs for 10000 steps with 4000 atoms

Performance: 793257.236 tau/day, 4590.609 timesteps/s
99.6% CPU use with 48 MPI tasks x no OpenMP threads

MPI task timing breakdown:
Section |  min time  |  avg time  |  max time  |%varavg| %total
---------------------------------------------------------------
Pair    | 0.91541    | 0.9744     | 1.1148     |   3.4 | 44.73
Neigh   | 0.19076    | 0.19996    | 0.22337    |   1.1 |  9.18
Comm    | 0.59671    | 0.74885    | 0.81777    |   4.5 | 34.38
Output  | 0.00023373 | 0.00023999 | 0.0003835  |   0.0 |  0.01
Modify  | 0.21301    | 0.24077    | 0.27953    |   4.2 | 11.05
Other   |            | 0.01414    |            |       |  0.65

Nlocal:        83.3333 ave          92 max          74 min
Histogram: 1 1 2 11 5 12 8 4 3 1
Nghost:        1459.10 ave        1481 max        1439 min
Histogram: 3 4 6 9 4 7 5 2 3 5
Neighs:        7950.35 ave        8949 max        6804 min
Histogram: 1 1 3 6 10 11 9 2 3 2

Total # of neighbors = 381617
Ave neighs/atom = 95.404250
Neighbor list builds = 911
Dangerous builds = 257

# Equilibrate just above the melting temperature to avoid step fn in T

fix 1 all npt temp 1.25 1.25 0.1 iso 5.68 5.68 0.5 mtk yes tchain 5 pchain 5
run 2000
Per MPI rank memory allocation (min/avg/max) = 3.642 | 3.644 | 3.648 Mbytes
Step Temp E_pair E_mol TotEng Press Volume 
   10000    2.3978408   -4.6805977            0   -1.0847356    5.4124705    4788.5467 
   11000    1.2318269   -6.2581722            0   -4.4108938    5.6445351    3918.3269 
   12000    1.2415433   -6.2846814            0   -4.4228321    5.9433259    3894.2383 
Loop time of 0.489558 on 48 procs for 2000 steps with 4000 atoms

Performance: 705942.565 tau/day, 4085.316 timesteps/s
99.6% CPU use with 48 MPI tasks x no OpenMP threads

MPI task timing breakdown:
Section |  min time  |  avg time  |  max time  |%varavg| %total
---------------------------------------------------------------
Pair    | 0.20683    | 0.22837    | 0.25605    |   2.0 | 46.65
Neigh   | 0.031336   | 0.032962   | 0.035586   |   0.5 |  6.73
Comm    | 0.13837    | 0.16798    | 0.19178    |   2.9 | 34.31
Output  | 6.8215e-05 | 6.9271e-05 | 8.4028e-05 |   0.0 |  0.01
Modify  | 0.044789   | 0.055654   | 0.066684   |   2.5 | 11.37
Other   |            | 0.004518   |            |       |  0.92

Nlocal:        83.3333 ave          91 max          76 min
Histogram: 1 4 3 9 8 9 6 2 3 3
Nghost:        1671.06 ave        1692 max        1646 min
Histogram: 1 3 2 6 8 6 8 10 3 1
Neighs:        9799.85 ave       10984 max        8949 min
Histogram: 4 4 8 7 11 4 4 2 1 3

Total # of neighbors = 470393
Ave neighs/atom = 117.59825
Neighbor list builds = 141
Dangerous builds = 7

#############################
# L I N E A R  Q U E N C H  #
#############################

# Define solid atoms. This closely follows ten Wolde  Ruiz-Montero and Frenkel  Faraday Discuss  1996  104  93-110
# Compute components of the per-atom q6 vector
compute q6 all orientorder/atom degrees 1 6 components 6 nnn NULL cutoff 1.3 # compute the Q6 parameter.
                                                                             # Use all neighbours within 1.3 unit cell.

# get number of connections
compute coord_number all coord/atom orientorder q6 0.5

# An atom is solid if it has 8 or more connections (of a possible 14)
variable is_solid atom c_coord_number>=8
group solid dynamic all var is_solid    # Must be dynamic to update
dynamic group solid defined

# do clustering
compute cluster solid cluster/atom 1.3 # Create a cluster where all atoms within are solid and max 1.3 units from another member

# define chunks one chunk per cluster
compute clus_chunks solid chunk/atom c_cluster nchunk every compress yes  # Says which atoms are in which chunk

# count the size of each chunk
compute size_chunks solid property/chunk clus_chunks count


# Find the maximum entry in the vector of chunk sizes
variable max_n equal max(c_size_chunks)


# Thermo style which includes this variable
# thermo_style custom step temp pe vol v_max_n

thermo ${N}  # Print the thermo information every 100 steps
thermo 1000  

# Reset the npt fix at a lower temperature (below freezing)
fix 1  all npt temp  ${temp} ${temp}  0.1  iso  5.68  5.68  0.5  mtk yes tchain  5  pchain  5
fix 1  all npt temp  0.45 ${temp}  0.1  iso  5.68  5.68  0.5  mtk yes tchain  5  pchain  5
fix 1  all npt temp  0.45 0.45  0.1  iso  5.68  5.68  0.5  mtk yes tchain  5  pchain  5

dump dmp2 all dcd ${N} traj.dcd
dump dmp2 all dcd 1000 traj.dcd


compute msd all msd com yes
variable twopoint equal c_msd[4]/6/(step*dt+1.0e-6)
fix 9 all vector 10 c_msd[4]
variable fit equal slope(f_9)/6/(10*dt)
thermo_style custom step temp pe c_msd[4] v_twopoint v_fit v_max_n

fix 1 all npt temp 1.25 ${temp} 0.1 iso 5.68 5.68 0.5 mtk yes tchain 5 pchain 5
fix 1 all npt temp 1.25 0.45 0.1 iso 5.68 5.68 0.5 mtk yes tchain 5 pchain 5
run 5000000 # 5000000  # Run for this many steps
Neighbor list info ...
  update every 1 steps, delay 10 steps, check yes
  max neighbors/atom: 2000, page size: 100000
  master list distance cutoff = 3.8
  ghost atom cutoff = 3.8
  binsize = 1.9, bins = 9 9 9
  4 neighbor lists, perpetual/occasional/extra = 1 3 0
  (1) pair lj/cut, perpetual
      attributes: half, newton on
      pair build: half/bin/atomonly/newton
      stencil: half/bin/3d
      bin: standard
  (2) compute orientorder/atom, occasional
      attributes: full, newton on
      pair build: full/bin/atomonly
      stencil: full/bin/3d
      bin: standard
  (3) compute coord/atom, occasional
      attributes: full, newton on
      pair build: full/bin/atomonly
      stencil: full/bin/3d
      bin: standard
  (4) compute cluster/atom, occasional
      attributes: full, newton on
      pair build: full/bin/atomonly
      stencil: full/bin/3d
      bin: standard
Per MPI rank memory allocation (min/avg/max) = 9.756 | 9.762 | 9.769 Mbytes
Step Temp PotEng c_msd[4] v_twopoint v_fit v_max_n 
   12000    1.2415433   -6.2846814 1.9121988e-30 1.3279158e-32 8.3333333e+20            2 
   13000    1.2233129   -6.2411499   0.56179971   0.00360128  0.046180924            2 
   14000    1.2553664   -6.2798001    1.0929185 0.0065054667  0.045014474            2 
   15000    1.2502013   -6.2735412    1.6281596  0.009045331  0.045072719            3 
   16000    1.2469343   -6.2958893    2.1478645  0.011186794  0.044632493            5 
   17000    1.2449817   -6.2785196    2.6919936  0.013196047  0.044415526            2 
   18000    1.2863106   -6.3307565    3.2526615  0.015058618  0.044506252            3 
   19000    1.2498626   -6.2705942    3.8575375  0.016919024  0.045201908            3 
   20000    1.2256383    -6.284876    4.3763324  0.018234718  0.045524617            3 
   21000    1.2720231   -6.2265021     4.886594  0.019391245  0.045380915            2 
   22000    1.2338188   -6.3038169    5.4035864   0.02046813  0.045323358            2 
   23000    1.2617544   -6.2978606    5.9380153  0.021514548   0.04511664            8 
   24000    1.2652523   -6.2655943    6.5521198  0.022750415   0.04512686            5 
   25000    1.2322034   -6.2741091    7.0109139  0.023369712  0.045161403            4 
   26000    1.2661011   -6.2773689    7.5264837  0.024123345  0.044996526            1 
   27000    1.2649491   -6.3155974     8.021368  0.024757308  0.044832683            2 
   28000    1.2637445      -6.3108    8.5611413  0.025479587   0.04478235            2 
   29000    1.2246398   -6.2892559    9.1769243  0.026370472  0.044793472            3 
   30000    1.2559224   -6.2635068    9.8394417  0.027331782  0.044932676            2 
   31000      1.24534   -6.2521144    10.588599  0.028463976  0.045241631            5 
   32000    1.2823832   -6.2839873    11.063519  0.028811248  0.045532514            2 
   33000    1.2542633   -6.3133069    11.711757  0.029575144  0.045793991            2 
   34000    1.2514206   -6.2883982     12.15629  0.029794828   0.04595853            2 
   35000    1.2671239   -6.3204426    12.702427  0.030243874  0.046033509            4 
   36000    1.2385803   -6.2873777    13.201485  0.030558994  0.046050442            3 
   37000    1.2387113   -6.2598647    13.680037  0.030810893  0.046021637            6 
   38000    1.2635372   -6.2891312    14.119922  0.030964741  0.045945047            3 
   39000    1.2395877   -6.3075313    14.842271  0.031714253  0.045902572            3 
   40000     1.236754   -6.3013812    15.397507  0.032078139  0.045927232            2 
   41000    1.2402332   -6.3032613    16.044406  0.032610581  0.045986036            2 
   42000    1.2479785   -6.2795433    16.599003  0.032934529  0.046022764            1 
   43000    1.2483466   -6.3213747    17.091423  0.033122913  0.046043333            2 
   44000    1.2297713   -6.3147309    17.655197  0.033437873  0.046064493            3 
   45000    1.2580768   -6.2950575    18.262767  0.033819938  0.046129574           11 
   46000    1.2521659   -6.2979735    18.776345  0.034015118  0.046171102            3 
   47000    1.2243875   -6.2786952    19.313964  0.034244617  0.046174733            2 
   48000    1.2333766   -6.3118535    19.939323   0.03461688  0.046201818            2 
   49000    1.2487025   -6.2776903    20.497952  0.034860462  0.046225438            2 
   50000    1.2649882   -6.2779326    20.979634  0.034966056  0.046233946            3 
   51000    1.2635455   -6.2740124    21.312301  0.034824021  0.046190607            2 
   52000    1.2447907   -6.3156708    21.859809  0.035031744  0.046134978            2 
   53000    1.2485027   -6.2750909    22.280127  0.035031646  0.046059099            1 
   54000    1.2551393   -6.3160937    22.771316   0.03514092   0.04596292            1 
   55000    1.2393015   -6.2700721    23.332431  0.035352168  0.045869987            2 
   56000    1.2284767    -6.301135     23.84432  0.035482619  0.045795749            2 
   57000    1.2323996   -6.2669617    24.350032  0.035599461  0.045730337            2 
   58000    1.2547266   -6.2693786    24.944625  0.035839978  0.045661921            2 
   59000    1.2538309   -6.3136498    25.415734  0.035897929  0.045587241            2 
   60000    1.2344338   -6.3082502    25.946687  0.036037065  0.045517749            2 
   61000    1.2319492   -6.3193447    26.678912    0.0364466  0.045471939            1 
   62000    1.2469787   -6.2928284    27.183124  0.036536457  0.045448234            3 
   63000    1.2433302   -6.3408319    27.699246  0.036639214  0.045430739            2 
   64000    1.2338799   -6.2746685     28.36563  0.036934414  0.045422254            2 
   65000    1.2152274    -6.270192      29.0214  0.037206923  0.045429258            2 
   66000    1.2154388   -6.3310573    29.537072  0.037294283  0.045442353            3 
   67000    1.2619908   -6.3236578    30.059459  0.037387387  0.045448913            2 
   68000    1.2224121   -6.3250204     30.41835  0.037277389  0.045441303            3 
   69000    1.2263125   -6.3152328    30.900854  0.037319872  0.045420343            3 
   70000     1.211465   -6.2735171    31.367272   0.03734199  0.045378211            2 
   71000    1.2602499   -6.3086478    31.864386  0.037399513  0.045339577            2 
   72000    1.2196695   -6.3189308     32.41667  0.037519294  0.045313307            1 
   73000    1.2295678    -6.318506    33.164176  0.037858648  0.045295164            2 
   74000    1.2315341   -6.2979422    33.757093  0.038014744  0.045282629            2 
   75000    1.2385934   -6.3236477    34.326061  0.038140067  0.045281142            1 
   76000    1.2224945   -6.3374061    34.915157  0.038284163  0.045277796            1 
   77000    1.2541128   -6.2613521    35.595736  0.038523524  0.045297977            3 
   78000     1.228653   -6.3006437    36.000749  0.038462339  0.045309542            1 
   79000    1.2470924   -6.2823261    36.481153  0.038482229  0.045306299            2 
   80000    1.2487877   -6.2941388      36.9603  0.038500313  0.045299029            3 
   81000    1.2694472   -6.2610958    37.598935  0.038682032  0.045291535            3 
   82000    1.2486076   -6.2880839    38.106115  0.038725727  0.045293007            1 
   83000    1.2350237   -6.3104573      38.7781  0.038933835  0.045300068            3 
   84000    1.2451723   -6.2914203    39.136277  0.038825671  0.045297554            3 
   85000    1.2607626    -6.310015    39.788136  0.039007976  0.045302663            1 
   86000    1.2649253   -6.3227951    40.261568  0.039013147  0.045312037            3 
   87000    1.2545352   -6.3024173    40.959254  0.039233002  0.045322762            3 
   88000    1.2439466    -6.267637    41.441709  0.039244043  0.045333338            2 
   89000    1.2573156   -6.2841604     42.02001  0.039344578  0.045341543            2 
   90000    1.2235899    -6.312072    42.652949  0.039493471  0.045354503            4 
   91000    1.2544049   -6.3090421    43.074797  0.039445785   0.04535313            3 
   92000    1.2686332   -6.3057299     43.86463  0.039732455  0.045369971            1 
   93000    1.2374281   -6.2783587    44.187755  0.039594762  0.045378611            3 
   94000    1.2563306   -6.2983823    44.882866  0.039789775  0.045387011            5 
   95000    1.2285688   -6.3018207    45.043516  0.039511856  0.045388119            3 
   96000    1.2197923   -6.3476911     45.58136  0.039567153  0.045379959            1 
   97000    1.2332634    -6.320143    46.338177   0.03980943  0.045374117            2 
   98000    1.2309885   -6.3181839    46.851757  0.039839929  0.045379242            1 
   99000     1.238689   -6.2891389    47.279822  0.039797829  0.045371058            5 
  100000    1.2224948   -6.3240973     47.71714  0.039764283  0.045359472            2 
  101000    1.2486274   -6.3059459    48.411601  0.039943565  0.045352385            3 
  102000    1.2287337   -6.3178178    49.037378  0.040063217  0.045351549            6 
  103000    1.2446749   -6.3041413    49.638591  0.040160672  0.045357211            1 
  104000    1.2457491    -6.287749    50.148519  0.040183108  0.045361554            3 
  105000     1.223762   -6.3080833    50.730031  0.040261929  0.045366397            2 
  106000    1.2543563   -6.3048446    51.140175   0.04020454  0.045371253            2 
  107000    1.2288254   -6.2957678    51.864145  0.040392636  0.045376474            3 
  108000    1.2505515   -6.3320746    52.366382  0.040406159  0.045379904            4 
  109000    1.2318372   -6.2694682    53.098521  0.040595199  0.045382962            2 
  110000     1.237354   -6.2972304    53.329903  0.040401442  0.045381517            3 
  111000    1.2379266   -6.2790228     54.11001   0.04062313  0.045379193            3 
  112000    1.2496803   -6.3540255    54.732041  0.040723244  0.045386447            2 
  113000    1.2108993   -6.3367337    55.095222  0.040630695  0.045395983            2 
  114000    1.2368014   -6.2888051    55.716517  0.040728448  0.045398961            4 
  115000    1.2632661   -6.3476797     56.23337  0.040748818  0.045397091            1 
  116000    1.2510866   -6.3133896    56.624397  0.040678446  0.045398713            1 
  117000    1.2539036    -6.341137    57.156695  0.040709896   0.04540248            3 
  118000    1.2004194   -6.3174234    57.836019  0.040844646  0.045402363            2 
  119000     1.237071   -6.3087989    58.204833  0.040759687  0.045400781            2 
  120000    1.2334888   -6.3180987    58.780839  0.040820027  0.045394232            4 
  121000    1.2267676   -6.3336084    58.727988  0.040446273   0.04537961            2 
  122000    1.2170503   -6.3363688    59.458763  0.040613909   0.04536092            2 
  123000    1.2367859   -6.2812947     59.98254  0.040638577  0.045335158            2 
  124000    1.2394539     -6.32541    60.493673   0.04065435  0.045312983            1 
  125000    1.2326758   -6.3195903    60.752666  0.040501777  0.045289636            3 
  126000    1.2193887   -6.3189211    61.325954  0.040559493  0.045262851            1 
  127000    1.1944533   -6.2985926    61.982127  0.040670687  0.045236547            3 
  128000    1.2609694   -6.3094957    62.128946  0.040448533  0.045204626            7 
  129000    1.2272598   -6.2984666    62.339115  0.040270746  0.045171183            2 
  130000     1.214843   -6.3097509    63.128988    0.0404673   0.04513452            4 
  131000    1.2302741   -6.3454631    63.531804  0.040414634  0.045102104            2 
  132000     1.240871   -6.3101649     63.82755   0.04029517  0.045061823            1 
  133000    1.1959573   -6.3109342    64.422762  0.040365139  0.045020138            4 
  134000    1.2557883   -6.2979629    64.650186  0.040205339  0.044975545            3 
  135000    1.2541155   -6.3151411    65.535523  0.040454027  0.044934071            2 
  136000    1.2248397   -6.3166325    65.999121  0.040440638  0.044895718            2 
  137000    1.2333566    -6.320234    66.533881  0.040470731  0.044863218            1 
  138000    1.2362137   -6.3104529    67.372433  0.040683836  0.044834063            2 
  139000    1.2275047   -6.3379046    67.704906  0.040590471  0.044803213            1 
  140000    1.2167531   -6.2852374    68.166273  0.040575162  0.044772921            2 
  141000    1.2350363   -6.3370357    68.605124  0.040546763  0.044744786            5 
  142000    1.2437151   -6.3498803    69.363001  0.040705986  0.044720094            1 
  143000    1.2249773   -6.3035165    69.676069   0.04060377  0.044697266            1 
  144000    1.1945174   -6.2957027    70.377249  0.040727575  0.044670255            2 
  145000    1.2576036   -6.2999397    70.899906  0.040747073  0.044648584            2 
  146000    1.2312796   -6.2904953     71.38377  0.040744161  0.044627436            2 
  147000    1.2471278   -6.3098264    71.866603  0.040740704  0.044610013            6 
  148000     1.260081   -6.3023448    72.289704  0.040703662  0.044589996            1 
  149000    1.2238405   -6.2793176    72.797823  0.040714666  0.044566835            3 
  150000    1.2307092   -6.3049995    73.263682  0.040702046   0.04454767            1 
  151000    1.2391481   -6.3102645    73.754336  0.040703276  0.044524747            1 
  152000    1.2398035     -6.33518    74.225645  0.040693884  0.044497927            3 
  153000    1.2533386   -6.3371646     74.78692  0.040733617  0.044472626            1 
  154000    1.1951361   -6.3124866    74.902306  0.040531551  0.044446512            8 
  155000    1.2252512   -6.2873656     75.98607  0.040852725  0.044420814            8 
  156000    1.2219996   -6.3180177    76.488113  0.040859035  0.044396967            2 
  157000    1.1959112   -6.3323586    76.935189  0.040836088  0.044374911            3 
  158000    1.2178555   -6.3245707    77.363665  0.040803621  0.044352315            2 
  159000    1.2067879   -6.3199731    77.677647  0.040711555  0.044328016            2 
  160000    1.2303741   -6.3117389    78.405348  0.040836119  0.044301601            1 
  161000    1.2065878   -6.3445333    78.509729  0.040636506  0.044277598            2 
  162000     1.225373   -6.3215846    79.141306  0.040710548  0.044248786            8 
  163000     1.218799   -6.3142377    79.451123  0.040619183  0.044220444            2 
  164000    1.2463146    -6.356457    79.887863  0.040593426  0.044195029            2 
  165000    1.2305527   -6.3313515    80.695947  0.040755529  0.044171109            1 
  166000    1.2327184   -6.3366907     81.30306  0.040814789  0.044147318            1 
  167000    1.2092836     -6.35601    81.336941  0.040587296  0.044123618            2 
  168000    1.2077861   -6.3132252    82.143574   0.04074582  0.044103652            2 
  169000    1.2391249   -6.3288701    82.589104   0.04072441  0.044081932            6 
  170000     1.229406   -6.2904107    83.619035  0.040989723  0.044064142            2 
  171000    1.2083697   -6.3280292    84.039549  0.040954946  0.044047427            2 
  172000    1.2330051   -6.3079435    84.557553  0.040967806  0.044028977            1 
  173000    1.2273204   -6.3504939    84.811852  0.040853493  0.044011037            2 
  174000    1.2532116   -6.3501087    85.789494  0.041086922  0.043994899            3 
  175000    1.2360999   -6.3442761    85.801693  0.040857949  0.043981986            2 
  176000    1.2075711   -6.3344796    86.468315  0.040941437  0.043967895            2 
  177000    1.2289161   -6.2719099    87.029906  0.040974532  0.043953856            5 
  178000    1.2057151   -6.3275513      87.2898  0.040866011  0.043939293            2 
  179000    1.2218467   -6.3649204    87.717595  0.040836869  0.043920917            2 
  180000    1.2487168   -6.3606144    88.041078  0.040759758  0.043903152            5 
  181000    1.2409153   -6.3261662    89.426542  0.041172441  0.043885659            3 
  182000     1.223773   -6.3158289    89.496392  0.040978201  0.043870068            1 
  183000    1.2081213   -6.2930808    90.214325  0.041081204  0.043855763            2 
  184000    1.2392179   -6.3285327    90.653058  0.041056638  0.043840036            4 
  185000    1.2439694   -6.3562861    90.658854  0.040837322   0.04382293            2 
  186000    1.2203737   -6.3322342    91.384859  0.040943037  0.043803663            4 
  187000    1.2185827   -6.3049291     91.81245  0.040914639  0.043787327            3 
  188000    1.2131122   -6.3793488    92.340404   0.04093103  0.043772148            3 
  189000    1.2320175   -6.3126201    93.174967  0.041082437  0.043757995            2 
  190000    1.2321516   -6.3393278    94.001123  0.041228563  0.043746724            2 
  191000    1.2466719   -6.3692327     94.12237  0.041065606   0.04373994            3 
  192000    1.2381795   -6.3075165    94.979238  0.041223627  0.043729378            2 
  193000    1.2094087   -6.3510376     95.08022  0.041053636  0.043718925            2 
  194000    1.2008146    -6.348722    95.799856  0.041151141  0.043709474            3 
  195000    1.2162889   -6.3245417    96.155666  0.041092165  0.043700334            2 
  196000    1.2074577   -6.3288705     96.62471  0.041081934  0.043687764            1 
  197000    1.2320324   -6.3374641    96.698778  0.040904728  0.043670419            2 
  198000     1.229212   -6.3467519    97.509173  0.041039214  0.043653932            2 
  199000    1.2187935   -6.3392863    97.901774  0.040997393  0.043641563            2 
  200000    1.2253024    -6.339673    98.309809   0.04096242   0.04362855            2 
  201000    1.2063219   -6.3334468    98.901422  0.041003906  0.043614253            2 
  202000    1.2248638   -6.3181879     99.33521  0.040979872  0.043598582            2 
  203000    1.2124078   -6.3619509    99.845689  0.040987557  0.043582825            2 
  204000    1.2245327   -6.3424676    100.62032  0.041103073  0.043568343            5 
  205000    1.2419401   -6.3065567    100.84699  0.040994711  0.043555838            3 
  206000    1.2120551   -6.3709049     101.0099  0.040861608  0.043541222            2 
  207000    1.2046906   -6.3778298    101.84796  0.041001593  0.043524536            1 
  208000    1.2231761    -6.355445    102.27169  0.040974236  0.043510397            3 
  209000    1.2125634   -6.3294087    102.69133  0.040945507  0.043496419            2 
  210000    1.2112905   -6.3195647    102.78273  0.040786798  0.043481005            4 
  211000    1.2017393    -6.351293    103.75736  0.040978421  0.043466981            4 
  212000    1.2408966   -6.3331154    104.36625  0.041024468  0.043452961            2 
  213000    1.2297401    -6.363798     104.3479  0.040824686  0.043436998            1 
  214000    1.2616799   -6.2960562    104.99158  0.040884571   0.04342034            4 
  215000    1.2244021   -6.3543084    105.32891   0.04082516  0.043403292            5 
  216000    1.1816778   -6.3502841    106.28947  0.041006739  0.043385874            2 
  217000    1.2217817   -6.3210506    106.55368  0.040919232  0.043369677            1 
  218000    1.1966147   -6.3421345    106.53956   0.04072613  0.043353038            3 
  219000    1.2344831   -6.3392424    107.60714    0.0409464  0.043334657            5 
  220000    1.1977239   -6.3448713    108.47299  0.041088253  0.043319736            2 
  221000    1.2136365   -6.3830319    108.33703  0.040851066  0.043303961            3 
  222000    1.2154354   -6.3233124    109.40791  0.041069035  0.043288534            3 
  223000    1.2125542   -6.3213331    109.90685  0.041071317  0.043276333            3 
  224000    1.1909162   -6.3410766    110.22871  0.041007704  0.043261835            2 
  225000    1.2451137   -6.3099473    111.03891  0.041125523  0.043248987            4 
  226000     1.211643   -6.3075906    111.18003  0.040995586  0.043236968            1 
  227000    1.2315756    -6.321779    112.02361  0.041124675  0.043225866            4 
  228000    1.2245258   -6.3318877    112.25692  0.041029578  0.043213958            2 
  229000     1.204862    -6.352538    111.84832  0.040701717   0.04319678            2 
  230000    1.2546163    -6.373452    112.49258   0.04075818  0.043176531            5 
  231000    1.2029739   -6.3230051    112.46276   0.04057098  0.043154275            1 
  232000     1.188854   -6.3132129    113.06929  0.040613969  0.043132147            1 
  233000    1.2242223   -6.3394532    114.19135   0.04084097  0.043112185            2 
  234000     1.213235   -6.3296098    114.37189  0.040730729  0.043093079            2 
  235000    1.1876234   -6.3367653    114.88882  0.040740717  0.043075776            3 
  236000    1.2195348   -6.3453014    115.68247  0.040848329  0.043058909            2 
  237000    1.1929404   -6.3501852    115.76917  0.040706458  0.043038937            2 
  238000    1.2075772   -6.3460305    116.18213  0.040680018  0.043018498            2 
  239000    1.1996673   -6.3695364    116.63306  0.040667036  0.042997621            3 
  240000    1.2170016   -6.3283724    117.40088  0.040764193  0.042979879            1 
  241000    1.2114681   -6.3427882    117.97112  0.040792226  0.042963204            3 
  242000     1.201772   -6.3032171    118.84484  0.040924532  0.042948081            2 
  243000    1.1907286   -6.3254497    119.03666    0.0408219  0.042933257            2 
  244000    1.2201262   -6.3456482    119.79599   0.04091393  0.042918396            4 
  245000    1.2067618   -6.3608024    120.32051  0.040925342  0.042904372            4 
  246000    1.2181403   -6.3373429    120.36036   0.04077248  0.042889614            2 
  247000    1.2290449    -6.331983    121.03155  0.040833857  0.042873798            1 
  248000    1.1861311   -6.3398753    121.65298  0.040878018  0.042858433            4 
  249000    1.2328226     -6.36654    121.79057  0.040759895   0.04284286            2 
  250000    1.2036634   -6.3596712    121.87463  0.040624878  0.042825258            3 
  251000    1.2401938    -6.429156    122.25408  0.040589003  0.042809451            3 
  252000    1.2273966   -6.3716411    123.03182  0.040685125   0.04279411            2 
  253000    1.2173577   -6.3459961    123.48467  0.040673474  0.042780303            3 
  254000     1.223185   -6.3670402    124.37741  0.040806237  0.042766223            3 
  255000    1.2321801   -6.3609491    125.12536  0.040890639  0.042753186            2 
  256000    1.2158896   -6.3696508    125.24965   0.04077137  0.042741145            3 
  257000    1.2247941   -6.3337687    125.80166  0.040791719  0.042728542            2 
  258000    1.2326551   -6.3638832    126.19872  0.040761861  0.042713535            2 
  259000    1.2224864   -6.3716784    126.97831  0.040855311  0.042700723            3 
  260000    1.2268385   -6.3650816    127.13873  0.040749592  0.042688008            2 
  261000    1.2269438   -6.3426155    127.92096  0.040843217  0.042674282            1 
  262000    1.2308156   -6.3685757    128.48828  0.040867774  0.042662651            3 
  263000     1.198753   -6.3733907     128.7668  0.040800633  0.042650538            3 
  264000     1.219823   -6.3686514    129.72756  0.040949355  0.042638749            2 
  265000    1.1984477    -6.338627    130.00782  0.040882964  0.042626348            2 
  266000    1.2115712   -6.3960108    130.55543  0.040900823   0.04261396            3 
  267000    1.2016985   -6.3880421    130.97041  0.040877158  0.042603502            1 
  268000     1.216879   -6.3953327    131.00916   0.04073668  0.042592626            1 
  269000    1.1774273   -6.3704886    131.73591   0.04081038  0.042581292            2 
  270000     1.204181   -6.3973641    132.38654  0.040860044  0.042570605            1 
  271000    1.2312005   -6.3478242     132.6676  0.040795695  0.042557887            2 
  272000    1.1942422   -6.4109802    133.43543  0.040880952  0.042546499            1 
  273000    1.2031527   -6.3482016    133.38247   0.04071504  0.042534804            1 
  274000    1.2236286   -6.3851952    134.11894  0.040790432   0.04252254            1 
  275000     1.203664   -6.3366213    134.92654  0.040886829  0.042511051            4 
  276000    1.2075379   -6.3604385    135.31462  0.040855863  0.042500256            2 
  277000    1.2148702   -6.3486497     136.1875   0.04097097   0.04248967            1 
  278000    1.2069999   -6.3283308     136.3883  0.040883783     0.042479            3 
  279000    1.2130296   -6.3568157      137.015  0.040924431  0.042468845            3 
  280000    1.1863376   -6.3367323    137.34648  0.040876929   0.04245959            2 
  281000    1.1890703   -6.3792667    137.48668  0.040773036  0.042451087            4 
  282000    1.1977791   -6.3255907    138.27229  0.040860605  0.042442227            4 
  283000    1.2083966   -6.3196613    138.80927  0.040874345  0.042432941            2 
  284000     1.212812   -6.3403981    139.55582  0.040949478  0.042425616            2 
  285000    1.1801733   -6.3919958     139.7163  0.040852719  0.042418303            5 
  286000    1.2175497   -6.3526055    140.81889  0.041031145  0.042410044            5 
  287000    1.2187511   -6.3693716    140.99785  0.040940141  0.042403628            2 
  288000    1.2404587   -6.3780697    141.68638  0.040997218  0.042396956            1 
  289000     1.219203   -6.3969603    142.20705  0.041005492  0.042391624            2 
  290000    1.2025279   -6.3248028    143.32766  0.041186109  0.042388008            2 
  291000    1.2114411   -6.3445825    143.77654  0.041173121  0.042385791            2 
  292000    1.1887233    -6.371144    144.36248  0.041199338  0.042385081            2 
  293000    1.2071239   -6.3832526    145.68472   0.04143479  0.042384885            5 
  294000    1.2155749   -6.3333823    145.99803   0.04138266  0.042385577            3 
  295000    1.2057357   -6.3502496    146.02172  0.041249072  0.042386524            2 
  296000    1.2246186    -6.381179    146.66387  0.041290505  0.042387008            2 
  297000    1.1993736    -6.323532    147.54386  0.041398389   0.04238837            2 
  298000    1.1998498   -6.3909239    147.06046  0.041124291  0.042389041            3 
  299000    1.1965578   -6.3871967    148.06097    0.0412656  0.042388597            1 
  300000    1.2007615   -6.3771353    148.55876  0.041266323  0.042386564            2 
  301000    1.2254413   -6.3928309    148.59166  0.041138334  0.042386462            3 
  302000     1.214953   -6.3157137    150.75716  0.041599657  0.042387637            3 
  303000    1.2294304   -6.3320215    151.14388  0.041568724  0.042391379            4 
  304000    1.2361234   -6.3935522    151.01916  0.041397797  0.042395778            2 
  305000    1.1950575   -6.3757718     151.3501  0.041352486  0.042399043            2 
  306000    1.2268382   -6.3924225    152.26044  0.041465262   0.04240164            4 
  307000    1.2184349   -6.3702757    153.04597  0.041543424  0.042406294            2 
  308000    1.2088911   -6.4006227    153.52717  0.041538737  0.042410075            5 
  309000    1.2041098   -6.3693474    153.99933  0.041531641  0.042414239            3 
  310000    1.2140541   -6.3567565    154.43943  0.041515977  0.042417843            4 
  311000    1.2205115   -6.3708744    154.70104  0.041452583  0.042420717            6 
  312000    1.2027985   -6.3684753    155.10546   0.04142774  0.042422362            2 
  313000    1.1933412   -6.4040009    155.34623  0.041359487  0.042423479            3 
  314000    1.2050756   -6.3549285    156.07948  0.041422367  0.042424835            8 
  315000    1.2231655   -6.3944253    156.71343  0.041458579  0.042426004            2 
  316000    1.1965357   -6.3375062    157.33499  0.041491296  0.042427619            2 
  317000    1.2010986   -6.3849113    157.40958  0.041380017  0.042428316            2 
  318000    1.2031611   -6.3660964    157.67357  0.041319069  0.042428324            2 
  319000    1.2041572    -6.354987    158.58806  0.041428439  0.042427487            1 
  320000     1.203552   -6.3442483    159.24348  0.041469655  0.042425667            3 
  321000    1.2190053   -6.3586498    159.31809  0.041359837  0.042424445            2 
  322000    1.2050478   -6.3722211    159.95138  0.041395283  0.042423509            2 
  323000    1.2152353   -6.3499547    160.47571  0.041402401  0.042422842            2 
  324000    1.2069873   -6.3661878     160.6761  0.041326156  0.042421874            3 
  325000    1.1934613   -6.3650963     161.1964   0.04133241   0.04242041            3 
  326000    1.1930423   -6.3627657    161.79012  0.041357392  0.042418801            4 
  327000    1.2279472   -6.3701098    162.65603  0.041451588  0.042418295            2 
  328000      1.19263    -6.369824    163.50078  0.041539833  0.042419161            1 
  329000    1.1907949   -6.3930696    163.35602  0.041376906  0.042419445            4 
  330000    1.1685149   -6.3759398    164.42427  0.041521279  0.042419667            4 
  331000    1.1769101   -6.4049872    165.06603   0.04155741  0.042421337            2 
  332000    1.2050218   -6.3658814    165.52643    0.0415478  0.042423367            3 
  333000    1.2016638   -6.4091368    166.03541  0.041550402  0.042425704            1 
  334000    1.1825824   -6.3642524    166.33427  0.041500567  0.042428554            2 
  335000    1.1909929   -6.3687127    166.61321  0.041446073  0.042429775            2 
  336000     1.182426    -6.362028    167.91149  0.041644716  0.042432263            4 
  337000    1.1871999   -6.3602984    168.55284  0.041679733  0.042435544            2 
  338000    1.1961708   -6.4091846    168.43588  0.041527584  0.042437737            3 
  339000    1.2263616   -6.3872086    169.43922  0.041651725  0.042440975            1 
  340000    1.1947716   -6.3023805    169.75445  0.041606483  0.042444801            4 
  341000    1.2252763   -6.3917388    170.16537   0.04158489  0.042449097            2 
  342000    1.2097855   -6.3763227    170.99314  0.041664996  0.042451689            2 
  343000    1.1811459   -6.3447774    172.21498  0.041840374  0.042455333            2 
  344000    1.2077529   -6.4040348     171.0559  0.041437959  0.042459403            1 
  345000    1.2059728   -6.3872204    172.40382  0.041643436  0.042462243            2 
  346000    1.1846666   -6.4003347    172.64373  0.041580861  0.042463749            2 
  347000    1.1956489   -6.3861155    173.04481  0.041557352  0.042465914            2 
  348000    1.1814588   -6.3494214    173.83696  0.041627624  0.042467817            6 
  349000    1.2079244   -6.3717374    173.59016  0.041449418  0.042469472            3 
  350000    1.1891375   -6.3862218    175.34808  0.041749543  0.042471161            4 
  351000    1.1927762   -6.4005254    174.95599  0.041537509  0.042472255            3 
  352000    1.2051763   -6.3774367    175.63752  0.041580852   0.04247342            4 
  353000    1.1896844   -6.3890588     176.8073  0.041739212  0.042474539            4 
  354000    1.1811937   -6.3885173     176.4903   0.04154668  0.042476597            5 
  355000    1.2036134   -6.4077763    176.57807   0.04145025  0.042477485            2 
  356000    1.2033954   -6.3271584    178.26671  0.041729098  0.042477981            2 
  357000    1.2131978    -6.363689    178.47769  0.041661459  0.042479312            3 
  358000    1.1942372   -6.3648122    179.34956  0.041748035  0.042480803            3 
  359000    1.1711896   -6.3711364    179.23448  0.041605033  0.042482337            2 
  360000    1.1773401   -6.3694388    179.41259  0.041530692  0.042484949            3 
  361000    1.2003933   -6.3385188    181.04988  0.041793601  0.042488259            2 
  362000    1.1820286   -6.3969493    181.05877  0.041680195  0.042490467            4 
  363000    1.1918075   -6.4053937    181.19998  0.041597791  0.042492243            5 
  364000    1.2003941   -6.3753694    181.14226  0.041470297  0.042493477            2 
  365000    1.2262487   -6.4018001    182.31453  0.041624321  0.042494163            2 
  366000    1.2044554   -6.4129761    182.49063  0.041550689  0.042494585            6 
  367000    1.1894339   -6.3572233    184.20849   0.04182754  0.042494799            1 
  368000     1.209779   -6.3888766     184.4776   0.04177482   0.04249705            2 
  369000    1.1950118   -6.3940668    184.50989  0.041668901  0.042499611            2 
  370000    1.1793203    -6.385816    184.77811  0.041616691  0.042501616            1 
  371000    1.1780805   -6.3777095    185.55654  0.041679367  0.042504932            2 
  372000    1.1988713   -6.3811712    186.82396  0.041851245  0.042507461            3 
  373000     1.197436   -6.4185185    187.18622  0.041819977  0.042511427            3 
  374000    1.2182223    -6.432994    187.84478  0.041854899  0.042514971            4 
  375000    1.2141809   -6.3875987    188.51472  0.041892159  0.042517981            2 
  376000    1.2156111   -6.4156097    188.89248  0.041864469  0.042521509            3 
  377000     1.170247    -6.378779    189.13403  0.041806815  0.042524397            1 
  378000     1.197118   -6.3561836     189.2433  0.041720305  0.042526175            2 
  379000    1.2107952   -6.3976899    189.71424  0.041713774     0.042528            1 
  380000    1.1834389   -6.3446375    189.67963   0.04159641  0.042528977            1 
  381000    1.1620866   -6.3726596    190.72907  0.041716769  0.042529132            1 
  382000    1.1820122   -6.4085307    190.33172   0.04152088  0.042529497            4 
  383000    1.2053489   -6.4239155    191.00154  0.041558211  0.042528836            2 
  384000    1.1872098    -6.345211    192.10145  0.041688683  0.042528114            3 
  385000    1.1909627   -6.4101288    192.06221  0.041571906  0.042525998            2 
  386000      1.18137   -6.3742737    192.47314  0.041552924  0.042523225            1 
  387000    1.1737415   -6.4117827     193.3322  0.041630534  0.042520537            2 
  388000    1.1932209   -6.3811471    193.83832  0.041631942  0.042517817            6 
  389000    1.1768601   -6.3999686    193.82952  0.041523033  0.042515482            2 
  390000    1.1769755   -6.3811226    193.91433  0.041434686  0.042511064            5 
  391000    1.1953702   -6.4265985    194.08315  0.041364695  0.042507369            2 
  392000    1.2024387   -6.3919128    195.80732  0.041625705  0.042503749            2 
  393000    1.1732056   -6.4075553    195.11789  0.041373597  0.042500029            2 
  394000    1.1760477   -6.3925726    195.54814  0.041359589  0.042496017            3 
  395000    1.1648731   -6.4102137      195.405  0.041224684    0.0424924            1 
  396000    1.2354405   -6.4032156    196.99202  0.041454551  0.042488507            7 
  397000     1.175864   -6.3652903    197.23531  0.041401198  0.042485315            4 
  398000    1.1984656   -6.3632336    197.64857  0.041383704  0.042481309            1 
  399000     1.211364   -6.3977811    198.32728  0.041421737  0.042477711            3 
  400000    1.1814244   -6.3720949    199.21279  0.041502665  0.042474217            2 
  401000    1.1981832   -6.4000205    199.50028  0.041458912  0.042470504            1 
  402000    1.2107048    -6.436709    200.39005  0.041540226  0.042468084            2 
  403000    1.2126558   -6.3814903    200.50733  0.041461399  0.042465801            2 
  404000    1.1902416   -6.3676633    201.57414  0.041578824  0.042464204            2 
  405000    1.1972753   -6.4017099    202.14722  0.041594079  0.042462542            3 
  406000    1.1812954   -6.3659888    203.53159  0.041775778  0.042461584            2 
  407000    1.1859051   -6.4274839    202.38668  0.041438714  0.042460346            3 
  408000    1.1898805   -6.3807739    203.82692  0.041631316  0.042458034            4 
  409000    1.1788725   -6.4061157    203.08386  0.041378129   0.04245552            2 
  410000    1.1980234   -6.3912093    204.38212  0.041541082  0.042452397            1 
  411000    1.1772961   -6.3712099    204.36533  0.041436603  0.042449593            2 
  412000    1.2051099   -6.3947806    204.66025  0.041395681  0.042447501            3 
  413000    1.1469569    -6.425156    205.47574  0.041459995  0.042445756            3 
  414000    1.1858854    -6.392323    205.14344  0.041292964  0.042443374            1 
  415000    1.1681011   -6.4329845    206.30788  0.041427285  0.042440784            5 
  416000    1.1934606   -6.3957725    206.62616  0.041391459  0.042439209            4 
  417000    1.1730043   -6.4219122    207.58261  0.041483335  0.042437468            1 
  418000    1.1666582   -6.4081079     208.5461  0.041576176  0.042435309            2 
  419000    1.1995073    -6.398731    207.90028  0.041348503  0.042431506            6 
  420000    1.1889998   -6.4309111    208.72305  0.041413304   0.04242817            2 
  421000     1.197407   -6.3758354    209.69753  0.041507825  0.042424269            1 
  422000    1.2080749   -6.3840083    209.11222  0.041293883  0.042420464            2 
  423000    1.1795576   -6.4036376    210.34613  0.041439347  0.042416258            4 
  424000    1.1632937   -6.3645127    210.18436   0.04130982  0.042411294            2 
  425000    1.1981427   -6.3773851     210.3823  0.041251432   0.04240498            3 
  426000    1.1656177   -6.3841709     210.5585  0.041189064  0.042399305            2 
  427000    1.1897761   -6.3641221    211.59957  0.041295779  0.042393772            2 
  428000    1.1966367   -6.3876361    212.17218  0.041310782  0.042387852            2 
  429000     1.195016    -6.369764    212.23906  0.041227478  0.042381073            2 
  430000    1.1872936   -6.3970705    212.85611  0.041251184  0.042374214            3 
  431000     1.183653   -6.4063183    213.34742  0.041250468  0.042367939            4 
  432000    1.1890636    -6.395771     213.9899  0.041278916  0.042361708            2 
  433000    1.1600849    -6.409887    213.81393  0.041149717  0.042355883            3 
  434000    1.1883324   -6.4102777    214.40839  0.041169046  0.042349522            2 
  435000     1.180637   -6.4006714    215.08356  0.041203747  0.042343574            2 
  436000    1.1540784   -6.4189572    214.46034  0.040990126  0.042336812            2 
  437000    1.2064618   -6.4178945    215.74942  0.041142147  0.042329274            2 
  438000     1.168683   -6.4159119    216.19429  0.041132856  0.042321964            2 
  439000     1.177122   -6.3892629    216.20622  0.041041423   0.04231493            3 
  440000    1.1845413   -6.3988864    217.41824  0.041177697  0.042306411            2 
  441000    1.1432655   -6.3932434    217.73015  0.041143263  0.042298811            2 
  442000    1.1806962   -6.4083131    217.90986  0.041084061  0.042291427            2 
  443000    1.1995515   -6.4321357    218.74516  0.041148451  0.042283996            2 
  444000     1.182879   -6.4277815    219.54294  0.041205506  0.042277823            3 
  445000    1.1729724   -6.3863259    220.42689  0.041278444   0.04227242            2 
  446000    1.1905682   -6.4305092    219.26181  0.040968201   0.04226667            6 
  447000     1.175469   -6.4265982    220.45949  0.041099831  0.042259726            4 
  448000    1.1733016   -6.3969751    220.89891  0.041089828  0.042252889            2 
  449000    1.1765559   -6.4308596    220.92233  0.041002659  0.042246029            4 
  450000    1.1589266   -6.4051112    222.19413  0.041147061  0.042239196            1 
  451000    1.1914962   -6.4406787    222.06882  0.041032672  0.042232683            2 
  452000    1.1976681   -6.3955895    222.45627  0.041013325  0.042225218            2 
  453000    1.1501563   -6.4336035    223.50615  0.041115922  0.042218851            2 
  454000    1.1794398   -6.3743727    223.21941  0.040972725  0.042211442            1 
  455000    1.1709899   -6.4003773    224.43907  0.041106056  0.042204897            2 
  456000    1.1719668   -6.4243726    225.28829  0.041171105  0.042198122            3 
  457000    1.1889389   -6.4171538     225.0581   0.04103904  0.042191155            2 
  458000    1.1858408   -6.4233314    225.38429  0.041008786  0.042184542            2 
  459000    1.1710694   -6.3617853    226.51548  0.041124814  0.042178301            3 
  460000    1.1733333   -6.4122763    227.16987  0.041153962  0.042172539            2 
  461000    1.1877355   -6.4157397    227.75583  0.041170614   0.04216707            9 
  462000    1.1880149   -6.3585898    228.23826  0.041168517  0.042161634            3 
  463000    1.1832829   -6.3743399    229.46914   0.04130114   0.04215751            1 
  464000    1.1778246   -6.3712024    229.36548  0.041193513  0.042152885            2 
  465000    1.1762406   -6.4539366    228.69097  0.040984045  0.042147395            2 
  466000    1.1700553   -6.4151747    230.13515  0.041154354  0.042141676            2 
  467000    1.1918402   -6.4255455    229.68164  0.040985304  0.042134809            2 
  468000    1.1997418   -6.4367585    230.66948  0.041073626  0.042128907            2 
  469000    1.1937944   -6.4173805    231.03288  0.041050618  0.042122628            3 
  470000    1.1780292   -6.4494584     230.6151  0.040889202  0.042116018            3 
  471000    1.1781491   -6.3910282    232.41836  0.041121436  0.042109763            5 
  472000    1.1776495   -6.4062837     232.3904  0.041029378  0.042103226            1 
  473000    1.1813522   -6.4258408    232.53744  0.040968541  0.042097688            2 
  474000    1.1883276   -6.3968455    234.13718  0.041163358  0.042092331            2 
  475000    1.1946817    -6.407023    234.22769  0.041092576  0.042087628            2 
  476000    1.1838616   -6.4184687    233.65517  0.040906017  0.042081409            3 
  477000    1.1702533   -6.4208934    233.46375  0.040786818  0.042074131            2 
  478000    1.1852575   -6.3875262    235.16498  0.040998079  0.042067119            4 
  479000    1.1867439   -6.4196141    235.17704  0.040914586  0.042060121            3 
  480000    1.1688303   -6.3744631    235.84737  0.040945725  0.042053351            2 
  481000    1.1497315   -6.4256198    235.69054  0.040833426  0.042045855            5 
  482000    1.1554047   -6.3688706    236.63355  0.040911748  0.042038768            3 
  483000    1.2052792   -6.4800039    237.04598  0.040898202  0.042031119            2 
  484000    1.1642082   -6.4292692    237.50878  0.040893385  0.042023686            8 
  485000    1.1694664   -6.4467091    238.25481  0.040937253  0.042016824            3 
  486000    1.1834995   -6.3850088    239.74535  0.041108599  0.042010863            1 
  487000    1.1760611   -6.4372568    239.13672  0.040920041  0.042005068            3 
  488000    1.1755645   -6.4310179    239.70457  0.040933158  0.041999075            4 
  489000    1.1822781   -6.3881322    241.05503  0.041079589  0.041992802            1 
  490000    1.1634695   -6.4493825     240.7786  0.040948742  0.041986004            3 
  491000    1.1597171   -6.4278418    240.63474  0.040840926  0.041978832            4 
  492000    1.1806433   -6.4554191    241.50352  0.040905067   0.04197202            3 
  493000    1.1916186   -6.4190839    241.74389  0.040862726  0.041965128            2 
  494000    1.1660442   -6.4432574    242.21422  0.040859349  0.041958254            2 
  495000    1.1646706   -6.4249858    243.35009  0.040968028  0.041951425            3 
  496000     1.176227   -6.4452806    243.54275  0.040917801  0.041944613            3 
  497000    1.1639507   -6.3694993    244.07032   0.04092393  0.041937605            3 
  498000    1.1663315   -6.3944075    244.30502  0.040881028  0.041930055            2 
  499000     1.159827    -6.373875    244.69103  0.040863566  0.041923165            1 
  500000    1.1826759   -6.4145458     246.0316  0.041005267   0.04191699            1 
  501000       1.1406   -6.4320474    245.91742  0.040904427  0.041910028            4 
  502000    1.1431628   -6.4074411    246.29839  0.040886186  0.041902547            3 
  503000      1.15735    -6.403863    246.76475  0.040882166  0.041895118            2 
  504000     1.181393   -6.4320445    247.41762  0.040908999  0.041887997            5 
  505000    1.1634507   -6.4401346    247.23134   0.04079725  0.041880497            2 
  506000    1.1613668    -6.439673    247.83697  0.040816365  0.041873196            1 
  507000    1.1820387   -6.4321025    248.83448  0.040899815  0.041866367            2 
  508000    1.1727703   -6.4178951    249.17004   0.04087435  0.041860037            4 
  509000    1.1594433   -6.4356571    249.79877  0.040896982  0.041853319            4 
  510000    1.1631266    -6.461115    249.01234  0.040688291  0.041845766            3 
  511000    1.1771968   -6.4449667    250.11584  0.040788624  0.041838951            2 
  512000    1.1536114   -6.4265067    250.53816  0.040777696  0.041831549            3 
  513000    1.1569922   -6.4309793    250.90369  0.040757585  0.041823701            4 
  514000    1.1830421   -6.4282643    251.01822  0.040696858  0.041815737            2 
  515000    1.1936684   -6.4417658    250.94794  0.040606463  0.041806902            2 
  516000    1.1586006   -6.3863608    251.72881  0.040653877  0.041798283            5 
  517000    1.1633059   -6.4311372    251.84833  0.040594509  0.041789316            6 
  518000    1.1688412   -6.4030778    252.21553  0.040575213  0.041779213            2 
  519000    1.1786142   -6.4308052     252.1992  0.040494412  0.041769041            2 
  520000     1.189243   -6.4393604    252.40069  0.040448828  0.041758771            3 
  521000    1.1835674   -6.4293104    253.27739  0.040511419  0.041749356            5 
  522000    1.1573417    -6.452489    253.03837  0.040395653  0.041740085            2 
  523000    1.1529158   -6.4255253    254.66048  0.040576878  0.041730921            4 
  524000    1.1555691   -6.4369373    254.89527  0.040536779  0.041721865            2 
  525000    1.1769838   -6.4797158    254.84861  0.040452161  0.041712984            3 
  526000    1.1727077   -6.4471245    255.58182  0.040491416  0.041704151            3 
  527000    1.1491412   -6.4575148    256.90793  0.040624278  0.041695158            4 
  528000    1.1636297   -6.4678389    257.03255  0.040567006  0.041686347            3 
  529000    1.1775583   -6.4650086    257.03136  0.040490132  0.041677363            2 
  530000    1.1478209   -6.4680772    258.15926  0.040591079  0.041668002            3 
  531000     1.170375   -6.4354932    258.80442  0.040615886  0.041659099            3 
  532000    1.1872973   -6.4290711    259.13605  0.040591487  0.041650809            5 
  533000    1.1507028   -6.4394181    259.72979   0.04060816  0.041642637            4 
  534000    1.1660583   -6.4284117      259.408  0.040481898  0.041634462            3 
  535000    1.1747049   -6.4128656    260.55603  0.040585051  0.041625989            7 
  536000     1.180965    -6.441566    261.52461   0.04065992  0.041617886            3 
  537000    1.1796451   -6.4003384    261.89532  0.040641731  0.041609636            5 
  538000     1.154563   -6.4329575    262.85801  0.040715306  0.041602357            3 
  539000    1.1583156   -6.4366823    262.48813  0.040582581    0.0415948            3 
  540000     1.121328    -6.420446    262.15083  0.040455375  0.041587074            4 
  541000    1.1627645   -6.4073491    263.19801  0.040541899  0.041579605            3 
  542000    1.1633951   -6.4144348    263.48673  0.040511489  0.041571921            2 
  543000    1.1605728   -6.4417489     264.5297  0.040596946  0.041564639            4 
  544000    1.1765657   -6.4136757    264.75165  0.040556318  0.041557031            2 
  545000    1.1713991   -6.4704786    264.19918  0.040397429  0.041549022            3 
  546000    1.1529382   -6.4406538    266.36844  0.040654524  0.041541193            3 
  547000    1.1680294   -6.4702313     266.0812  0.040536441  0.041533978            5 
  548000     1.154056   -6.4578627    267.53224  0.040683126  0.041526811            2 
  549000    1.1587793   -6.4461307     267.8025  0.040650045  0.041520456            3 
  550000     1.156438   -6.4083283     268.2454  0.040643243   0.04151376            2 
  551000    1.1609003   -6.4208663    268.91237  0.040670353  0.041507896            2 
  552000     1.151972   -6.4587913    269.47205  0.040681167  0.041502476            4 
  553000    1.1780564   -6.4784143    270.33632  0.040737842  0.041496674            2 
  554000    1.1840281   -6.4219074    270.62248  0.040707353   0.04149116            2 
  555000    1.1811524    -6.376181    271.57202  0.040776579  0.041485527            3 
  556000    1.1605375   -6.4316563    271.11695  0.040635035  0.041479322            6 
  557000    1.1681335   -6.4407185    270.72166  0.040502941  0.041471933            3 
  558000    1.1433132   -6.4366233    271.82209  0.040594697  0.041464911            3 
  559000    1.1853441   -6.4549241    271.92637  0.040537623  0.041457325            5 
  560000    1.1478546   -6.4389268    271.98957  0.040474639   0.04145011            3 
  561000    1.1876968   -6.4647633    271.47173  0.040325569  0.041442569            3 
  562000     1.181434   -6.4334395    272.26802   0.04037189  0.041433826            4 
  563000    1.1624656   -6.4257312    273.19094  0.040436788  0.041425555            2 
  564000    1.1607611   -6.3845065    274.80396  0.040603422  0.041417687            5 
  565000    1.1795487   -6.4687087    273.61357  0.040355984  0.041409323            3 
  566000    1.1697773   -6.4299653    273.97903  0.040338491  0.041401487            3 
  567000     1.177951   -6.4075846    275.01776  0.040420012  0.041393459            3 
  568000    1.1421652   -6.4536606    276.37699  0.040548268  0.041385751            3 
  569000    1.1737276   -6.4428485    275.40444  0.040334569  0.041376712            3 
  570000    1.1776249   -6.4526715    275.55457  0.040285755  0.041368364            1 
  571000    1.1892743   -6.4368899    276.62681  0.040371688  0.041359745            4 
  572000    1.1499486   -6.4249171    276.93914  0.040346612  0.041350965            2 
  573000    1.1652247   -6.4621934    276.47718  0.040209013  0.041342738            2 
  574000    1.1584233   -6.4489045     277.5808  0.040299188  0.041333865            6 
  575000    1.1513928   -6.4484377    277.03911  0.040150595  0.041325209            2 
  576000    1.1526971    -6.438679    278.18244  0.040246302  0.041316075            2 
  577000    1.1372891   -6.4424042    279.34816  0.040344911  0.041307481            5 
  578000    1.1764134   -6.4299401    279.52911  0.040301198  0.041299598            2 
  579000    1.1489856   -6.4618336    280.30919  0.040343867  0.041291312            3 
  580000    1.1481196    -6.460832    279.99578  0.040229278  0.041282683            3 
  581000    1.1575746   -6.4710404    279.82755  0.040135908  0.041273253            2 
  582000     1.135023   -6.4703544     280.5042  0.040163831  0.041263908            4 
  583000      1.16077   -6.4284981    281.15389  0.040187806  0.041254627            2 
  584000    1.1573095   -6.4452322    281.01034  0.040098507    0.0412455            1 
  585000    1.1695894   -6.4329376     281.3881  0.040083775  0.041235766            3 
  586000    1.1404683   -6.4251458    283.12064  0.040261751  0.041226286            3 
  587000     1.188279   -6.4240522    282.63002  0.040123512  0.041217614            3 
  588000    1.1345632   -6.4683891     283.5329  0.040183234  0.041209375            2 
  589000    1.1768881    -6.434152    284.36546  0.040232804  0.041200785            2 
  590000    1.1406545   -6.4218161     284.5814  0.040195113  0.041192203            4 
  591000    1.1426967   -6.4398448     285.2481  0.040221108  0.041183996            3 
  592000     1.142181   -6.4403611    286.61679  0.040345832  0.041175597            2 
  593000    1.1625189   -6.4480863    285.46708  0.040116229  0.041167735            1 
  594000    1.1625456   -6.4091379    287.70515  0.040362675  0.041160155            4 
  595000     1.162165     -6.42115    286.79198  0.040166945  0.041153417            3 
  596000    1.1456709   -6.4250713    288.06516  0.040277566   0.04114589            2 
  597000    1.1793668   -6.4472492    288.31455  0.040244912  0.041138537            4 
  598000    1.1830109   -6.4290117    290.30402  0.040454852  0.041132176            2 
  599000    1.1575969   -6.4775821    289.34452  0.040253829  0.041124781            2 
  600000    1.1535615   -6.4598087    289.89008  0.040262511  0.041117466            2 
  601000     1.141994   -6.4658953    291.05919  0.040357625  0.041110206            3 
  602000    1.1657946   -6.4289117    290.63855  0.040232357  0.041103231            5 
  603000    1.1592187   -6.4561556    291.04915   0.04022238  0.041095963            4 
  604000    1.1369568   -6.4777885    291.00502    0.0401497  0.041088208            3 
  605000    1.1572688   -6.4250964    291.58725  0.040163533  0.041080319            3 
  606000    1.1711636   -6.4530664    292.68128    0.0402477  0.041072009            3 
  607000    1.1471292   -6.4404923     292.1405  0.040107152  0.041063622            1 
  608000    1.1476917    -6.461475    291.37628  0.039936442  0.041054968            4 
  609000     1.144704   -6.4300622    293.15949  0.040114873   0.04104661            2 
  610000    1.1644178   -6.4681543    293.26902  0.040064074  0.041038145            2 
  611000     1.144719   -6.4229526    294.74957  0.040200433  0.041030232            3 
  612000    1.1734522    -6.426657    294.74539  0.040134176   0.04102293            3 
  613000    1.1546194   -6.4530599    295.30164  0.040144323  0.041015284            5 
  614000    1.1726475   -6.4663322    295.14698   0.04005795  0.041007082            4 
  615000    1.1313553   -6.4951917    295.59936  0.040054114  0.040998963            2 
  616000    1.1514221   -6.4636898    295.73452  0.040007375  0.040990543            2 
  617000     1.153477   -6.4509154    297.61948  0.040197121  0.040982322            2 
  618000    1.1445207   -6.4635958    296.89948  0.040034989  0.040974028            3 
  619000    1.1300467   -6.4720679    297.51748  0.040053511  0.040966271            2 
  620000    1.1534869   -6.4599915    298.45125  0.040114415  0.040958372            2 
  621000    1.1649322   -6.4751722    298.55422  0.040063636  0.040950355            2 
  622000    1.1524706   -6.4312703    299.87112  0.040175659  0.040942536            2 
  623000    1.1553347   -6.4544092    298.49737  0.039927416  0.040934468            4 
  624000    1.1271424   -6.4748301    298.97872  0.039927713  0.040926446            3 
  625000    1.1289778   -6.4517545    301.12584  0.040150112  0.040918229            2 
  626000      1.13202   -6.4572363    300.55312  0.040009734  0.040910192            2 
  627000    1.1611517   -6.4778392    301.06374  0.040013787  0.040902067            3 
  628000    1.1546914   -6.4839526    300.73217  0.039906074  0.040893953            3 
  629000    1.1472503   -6.4323758    301.77856  0.039981261  0.040885534            2 
  630000    1.1707641   -6.4605085    302.85547  0.040060248  0.040877215            2 
  631000    1.1541802   -6.4474566    301.85756  0.039864971  0.040868387            3 
  632000    1.1458532   -6.4585073      302.931  0.039943434  0.040859642            3 
  633000    1.1613142   -6.4311495    303.84561  0.040000738  0.040851873            6 
  634000    1.1704356   -6.4161283    304.66597  0.040045474   0.04084345            5 
  635000    1.1568576   -6.4710108    303.72365  0.039858746  0.040835259            3 
  636000    1.1378379   -6.4540079    304.85478  0.039944284  0.040827025            4 
  637000    1.1577052   -6.4688007    304.85297   0.03988134  0.040818705            7 
  638000    1.1501007   -6.4457651    305.80067  0.039942616  0.040810355            4 
  639000    1.1281219   -6.4313087    306.42097  0.039961003  0.040802837            6 
  640000    1.1492879   -6.4553795    306.56532   0.03991736  0.040794597            2 
  641000    1.1567389   -6.4777804     306.8329  0.039889873  0.040786465            3 
  642000    1.1372098   -6.4528308    307.70153  0.039940489  0.040778061            1 
  643000    1.1766019   -6.4791063    307.66237  0.039873298  0.040769422            3 
  644000    1.1316392    -6.457998    307.85855  0.039836769  0.040761024            5 
  645000    1.1747418   -6.4574099    309.22367  0.039951379   0.04075267            3 
  646000    1.1487177   -6.5047387    309.47079  0.039921412  0.040744017            4 
  647000    1.1528556   -6.4496645    309.31805  0.039840037  0.040735802            4 
  648000    1.1559497   -6.4559008    309.57142  0.039811139  0.040727106            4 
  649000    1.1492364   -6.4488615    308.72954  0.039641697  0.040718011            3 
  650000    1.1569161   -6.4484099    309.59113   0.03969117  0.040708866            2 
  651000    1.1504963   -6.4711773    309.70338  0.039644569  0.040699097            8 
  652000    1.1639804   -6.4527719    311.25786  0.039782446  0.040690065            3 
  653000    1.1335611   -6.4763714    311.18276   0.03971194  0.040680593            2 
  654000    1.1454568   -6.4634629    311.24948   0.03965972  0.040671131            2 
  655000    1.1241386   -6.4996509    311.33681  0.039610281  0.040661476            5 
  656000    1.1381807   -6.4558449    312.15088  0.039653313   0.04065173            1 
  657000     1.155025   -6.4834251    312.47135  0.039633606  0.040641969            1 
  658000    1.1691478   -6.4780236    312.66135  0.039597435  0.040632024            3 
  659000    1.1475669   -6.3966119    313.99203  0.039705619  0.040622785            4 
  660000    1.1588963   -6.4773465    314.34307  0.039689782   0.04061312            5 
  661000    1.1496717   -6.4910119    313.34483  0.039503887  0.040602302            5 
  662000    1.1754093   -6.4640398    315.11006  0.039666423  0.040591752            1 
  663000    1.1479773   -6.4968455    313.90562  0.039455206  0.040581421            2 
  664000    1.1512442   -6.4903484    314.26565   0.03944097  0.040570709            5 
  665000    1.1338815   -6.4517448    314.35826  0.039393266   0.04056006            4 
  666000     1.165581    -6.494424     315.4169  0.039466579  0.040549741            3 
  667000    1.1392407    -6.458539    316.39789  0.039529971  0.040539733            2 
  668000    1.1524123   -6.4604552    316.37437   0.03946786  0.040529959            5 
  669000    1.1427523   -6.4439033    317.64461  0.039567092  0.040519769            1 
  670000    1.1395982   -6.4861748    318.17839  0.039574427  0.040509848            2 
  671000     1.153242   -6.4879104    318.01922  0.039495681   0.04049987            1 
  672000    1.1351041   -6.4623354    319.24499  0.039588912  0.040490308            4 
  673000    1.1230896   -6.4986282    319.00183  0.039499979  0.040480507            1 
  674000    1.1404245   -6.4396098    320.44896  0.039620296  0.040470998            3 
  675000    1.1636259   -6.4714932    318.91469  0.039372184  0.040461931            7 
  676000    1.1453805   -6.4839463    320.55308  0.039515913   0.04045309            4 
  677000    1.1534824   -6.5078666    321.03806  0.039517241  0.040444542            2 
  678000    1.1534831   -6.4630889    322.03744  0.039581789  0.040435717            4 
  679000    1.1127355   -6.4794268    323.16086  0.039661373  0.040427026            4 
  680000    1.1488967   -6.4801884    322.50194  0.039522297  0.040417867            2 
  681000    1.1509178   -6.4824576    323.30242  0.039562215  0.040408518            4 
  682000    1.1446216   -6.4808396    324.54411  0.039655928  0.040399789            2 
  683000    1.1272655   -6.4277131    325.18078  0.039675547  0.040391294            2 
  684000    1.1392075   -6.4868259    324.74428  0.039564362  0.040382435            2 
  685000    1.1542097   -6.4636092    324.15497  0.039434911  0.040373621            3 
  686000    1.1433228   -6.4962651    326.12348  0.039616555  0.040365253            4 
  687000    1.1274686   -6.4653164    327.29693  0.039701229  0.040357042            3 
  688000    1.1316866   -6.4870798    325.54773  0.039431654  0.040348299            3 
  689000    1.1185212   -6.4498564    326.52254  0.039492325  0.040339606            4 
  690000    1.1452622   -6.4834946     327.3069  0.039529818  0.040331428            3 
  691000    1.1559498   -6.4616346    327.99153  0.039555178  0.040322991            2 
  692000    1.1228309   -6.4681614    328.67053  0.039579785   0.04031481            2 
  693000    1.1434824   -6.4934299    328.42391  0.039493014  0.040306819            2 
  694000    1.1396688   -6.4985819     328.9482  0.039499064  0.040298445            3 
  695000    1.1509356   -6.4819461    329.99014  0.039567163   0.04029019            2 
  696000    1.1697977    -6.494731    330.10167  0.039523667   0.04028227            3 
  697000    1.1501688    -6.491462    331.02227  0.039577029  0.040273923            4 
  698000     1.152671   -6.4362196    330.97984  0.039515263  0.040265924            2 
  699000    1.1451841    -6.470515    331.41868  0.039511049  0.040257701            3 
  700000    1.1244033   -6.4925363    330.77281  0.039377715  0.040248984            3 
  701000    1.1457206   -6.4630511    331.97572  0.039464542   0.04024041            4 
  702000    1.1059626   -6.4510399    330.95781   0.03928749  0.040231652            3 
  703000    1.1306843   -6.4652741    331.05737  0.039243406  0.040222418            1 
  704000    1.1077607   -6.4854497    331.85035  0.039281528  0.040213069            2 
  705000    1.1284492   -6.4309403    333.14939  0.039379361  0.040203729            3 
  706000    1.1170184   -6.4789102    331.93053  0.039179713  0.040193955            2 
  707000    1.1623385   -6.4826331    333.05274   0.03925657  0.040184383            2 
  708000    1.1376744   -6.4735109    332.28531  0.039110795  0.040174556            5 
  709000    1.1481605   -6.5413525    333.05355  0.039145928  0.040164573            3 
  710000    1.1441129   -6.5013386    335.24224  0.039347681  0.040154615            1 
  711000    1.1553901   -6.4748365    335.10681  0.039276467  0.040145329            3 
  712000    1.1355918   -6.4603479    335.60555  0.039279675  0.040135735            3 
  713000    1.1481251   -6.4602625     335.8778  0.039256405  0.040125942            3 
  714000    1.1527157    -6.516069    334.84398  0.039080763  0.040116008            3 
  715000    1.1244154   -6.5287757    334.98197  0.039042188  0.040105897            4 
  716000    1.1731756   -6.4933076    335.96544  0.039102123   0.04009586            2 
  717000    1.1483097   -6.4914308    337.65228   0.03924364  0.040086205            2 
  718000    1.1503473   -6.4776195    337.54821  0.039176905   0.04007627            1 
  719000    1.1130571   -6.4662806    338.04167   0.03917961  0.040066441            2 
  720000    1.1309342   -6.4860159    337.70327  0.039086027  0.040056055            2 
  721000     1.152162   -6.5216784    338.44927  0.039118039  0.040045881            2 
  722000    1.1282738   -6.4743233    337.71769   0.03897942  0.040035691            3 
  723000    1.1459079   -6.4857804    337.81598  0.038936835  0.040024956            3 
  724000    1.1633387   -6.4885428    339.83502  0.039115449  0.040014308            2 
  725000    1.1319334   -6.4793348    340.01063  0.039081682  0.040003635            3 
  726000    1.1482674   -6.5269068    339.23546  0.038938873  0.039993423            1 
  727000    1.1525189   -6.4692379    339.60375  0.038927527   0.03998288            4 
  728000    1.1312078   -6.4892609    341.07561  0.039042537  0.039972289            2 
  729000    1.1269446   -6.4987541    340.12804  0.038880664  0.039961751            2 
  730000    1.1425691   -6.4905472     340.2612  0.038842603  0.039950706            5 
  731000    1.1404064   -6.5186775    340.26744  0.038790178  0.039939716            2 
  732000    1.1074889   -6.4915719    341.21081  0.038844582  0.039928636            3 
  733000    1.1545305   -6.5046187    340.89056  0.038755179   0.03991763            4 
  734000    1.1298581   -6.4818945    341.71912  0.038796449  0.039906472            3 
  735000    1.1323959   -6.4827731    342.67977  0.038852582  0.039895533            1 
  736000    1.1288848    -6.519468     342.8715  0.038821501  0.039884562            2 
  737000    1.1535689     -6.53079    343.33994  0.038821794  0.039873658            3 
  738000    1.1177617   -6.5244109    344.22819  0.038869488  0.039862746            7 
  739000    1.1304229   -6.5136537    343.79942  0.038768541  0.039852148            3 
  740000    1.1201485   -6.5000872    345.42593  0.038899317  0.039841623            2 
  741000    1.1441104   -6.4806359    344.67348    0.0387622  0.039831407            2 
  742000    1.1362375   -6.5271844    344.43425  0.038683092  0.039820854            3 
  743000    1.1174325   -6.4771536    346.19468  0.038828474  0.039810008            3 
  744000    1.1496956   -6.4842989     346.3295  0.038791387   0.03979918            2 
  745000    1.1560737   -6.5092436    347.08283  0.038823583  0.039788338            2 
  746000    1.1353337   -6.4783198     347.5222  0.038820622  0.039778198            2 
  747000    1.1324491   -6.4866492    349.14642  0.038949846  0.039768271            3 
  748000    1.1244897    -6.508844     348.4079  0.038815496  0.039758182            3 
  749000    1.1456162   -6.5239662    348.36159  0.038758521  0.039748243            3 
  750000    1.1148982   -6.5125007    349.11691  0.038790768   0.03973835            6 
  751000    1.1336529    -6.484568     350.7547   0.03892085   0.03972882            2 
  752000    1.1298627   -6.5052124    351.19082  0.038917423  0.039719521            4 
  753000    1.1286021   -6.4967103    351.25929  0.038873317  0.039710246            4 
  754000    1.1056284   -6.5033039    352.55805  0.038965301  0.039701128            1 
  755000    1.1059915   -6.4778548    352.25403  0.038880136  0.039691887            3 
  756000    1.1502155   -6.5191233    351.85494  0.038784716  0.039683077            3 
  757000    1.1494222    -6.541507    352.90373  0.038848935  0.039673754            3 
  758000    1.1351216   -6.4879731    352.83744  0.038790395  0.039664349            2 
  759000    1.1317014   -6.4682159    353.93896  0.038860229  0.039654616            2 
  760000     1.142509   -6.5165843    353.05891    0.0387126  0.039644862            4 
  761000    1.1387033   -6.5074733    353.89616  0.038753413  0.039634982            3 
  762000    1.1304349   -6.5154364    354.29656  0.038746343  0.039624874            3 
  763000    1.1072862   -6.4905198    354.52936  0.038720987  0.039614667            3 
  764000    1.1227938   -6.4899275    354.89554  0.038710246  0.039605052            6 
  765000    1.1459136   -6.4497022    355.59755  0.038736116  0.039595317            4 
  766000    1.1364257     -6.52914      356.948  0.038832462  0.039586202            2 
  767000    1.1139176   -6.5136581    356.72206  0.038757286  0.039576515            3 
  768000    1.1057679    -6.488486    356.69502  0.038703886  0.039566843            3 
  769000    1.1194572   -6.4714128    357.27395  0.038716293  0.039557247            3 
  770000    1.1310529   -6.4895994       358.23   0.03876948  0.039547417            4 
  771000    1.1167071    -6.519468       358.25  0.038721357  0.039537827            3 
  772000    1.1299501   -6.4817638    358.15867  0.038661342  0.039528548            6 
  773000     1.133238   -6.4898154    360.08009  0.038818466  0.039519114            2 
  774000    1.0926783   -6.5095253     358.6893  0.038618572  0.039509425            3 
  775000    1.0947075   -6.4993326    360.17413  0.038728401  0.039499759            2 
  776000    1.1258866   -6.5229198    360.80565  0.038746311  0.039490438            2 
  777000    1.1079067   -6.4893753    359.58444  0.038565469  0.039480971            6 
  778000    1.1378337   -6.4884114    361.05325  0.038673227  0.039471614            5 
  779000    1.1160729   -6.5222732    363.01509   0.03883345  0.039462394            4 
  780000    1.1410137    -6.509136    362.00552  0.038675803  0.039453314            3 
  781000    1.1211866    -6.504148    362.61028  0.038690811   0.03944426            2 
  782000    1.1586256   -6.5027371    363.41096  0.038726658  0.039435134            2 
  783000     1.101183   -6.5108954    364.39302  0.038781718  0.039426122            2 
  784000    1.1508407   -6.5112474    363.93345  0.038683402  0.039416716            1 
  785000    1.1324122   -6.4949886    364.21701  0.038664226  0.039407412            2 
  786000    1.1311294   -6.5133233     365.9019   0.03879367  0.039398851            3 
  787000    1.1238066   -6.5276693    365.38846  0.038690011  0.039389864            2 
  788000    1.1336991    -6.525388    366.44981  0.038753152  0.039381342            3 
  789000    1.1312456   -6.5037905    365.88496  0.038644377  0.039372991            2 
  790000    1.1290288   -6.5061097    366.76111   0.03868788   0.03936405            6 
  791000    1.1265899   -6.4747454    366.65665  0.038627966  0.039355401            1 
  792000    1.1302263   -6.5026028    367.02659  0.038618118  0.039346831            2 
  793000    1.1228347    -6.509476     367.9402  0.038665427  0.039338287            2 
  794000    1.1146828   -6.4556746    369.20458  0.038749431  0.039329888            2 
  795000    1.1253485   -6.4945294    368.34628  0.038610721  0.039321283            4 
  796000    1.1321363    -6.561709    369.29157  0.038661178  0.039312944            5 
  797000    1.1224663   -6.5004088    369.46738  0.038631052  0.039304528            4 
  798000    1.1379807   -6.4682129    370.48011  0.038688399  0.039296404            7 
  799000    1.1332994    -6.459639    371.45966  0.038742143  0.039288713            2 
  800000     1.128947   -6.5111166    370.53896  0.038597808  0.039280906            2 
  801000    1.1113983   -6.5012278    370.67584  0.038563861  0.039272314            4 
  802000    1.1227099   -6.5283226    371.58181  0.038609913  0.039264082            2 
  803000    1.1065411   -6.4981062     372.4036  0.038647115  0.039256255            5 
  804000    1.1214961   -6.5212349    373.83764  0.038747682  0.039248896            3 
  805000    1.1113137    -6.555145    373.31573  0.038645521  0.039241354            3 
  806000    1.1535701   -6.4943805    374.71784   0.03874254  0.039233601            4 
  807000    1.1146838   -6.5031621    374.42869  0.038664673  0.039226543            1 
  808000    1.1383228   -6.4918702    373.82274  0.038554325  0.039218787            5 
  809000    1.1176083   -6.5167458    375.23872  0.038652525  0.039210461            3 
  810000    1.1119689   -6.5064587    375.14131  0.038594785  0.039202171            4 
  811000    1.1203014   -6.5360412    375.08718  0.038541634  0.039193839            1 
  812000    1.1273992   -6.5622628    373.82039  0.038364161  0.039185281            4 
  813000    1.1071404    -6.514043    377.32713  0.038676418  0.039176902            3 
  814000    1.1139838   -6.5213397    375.77546  0.038470051  0.039168682            4 
  815000    1.1154879   -6.5187631    375.83637  0.038429077  0.039159831            3 
  816000    1.1168077   -6.4856427    375.93601  0.038392158  0.039151229            5 
  817000    1.1258105   -6.5359418    377.83865  0.038539234  0.039142363            3 
  818000    1.1002154   -6.5142937    377.65554  0.038473466  0.039133526            5 
  819000    1.1392586   -6.5339775    377.02226  0.038362053  0.039124733            4 
  820000    1.1102277   -6.5184458    377.62364  0.038376386  0.039115676            4 
  821000    1.1197067   -6.5668804     377.8398  0.038351584  0.039106925            2 
  822000    1.1359301    -6.489468    380.70522   0.03859542  0.039098698            4 
  823000    1.1211683   -6.5276917    380.19449  0.038496809  0.039090865            2 
  824000     1.126749   -6.5183387    380.44496  0.038475421  0.039082959            3 
  825000    1.1257065   -6.5311502    378.49573  0.038231892  0.039074807            3 
  826000    1.1308144   -6.5631606    380.91542  0.038429724  0.039066445            2 
  827000    1.1227421   -6.4675566     382.2529  0.038518027  0.039058494            2 
  828000    1.1052316   -6.4944055    382.59255  0.038505692  0.039050343            4 
  829000    1.0861847   -6.5097003    382.82364  0.038482473  0.039042146            1 
  830000    1.1163977   -6.5395522    382.47861  0.038401466  0.039033786            1 
  831000    1.0972886   -6.5323535    383.24201   0.03843181  0.039025631            2 
  832000    1.1311702   -6.5085234    384.36332  0.038497929   0.03901713            2 
  833000    1.1443403   -6.5196444    384.05585  0.038420954  0.039008746            3 
  834000    1.1114574    -6.531559    383.64324  0.038333657   0.03900012            5 
  835000    1.1037146   -6.5446704    383.90328  0.038313701  0.038991975            2 
  836000    1.0854565   -6.5439391    384.95454  0.038372662  0.038983686            2 
  837000    1.1179853   -6.5255202    385.27033  0.038358257  0.038975569            5 
  838000    1.1395861    -6.502642     386.2144  0.038406365  0.038967342            3 
  839000    1.0929014    -6.498923    387.46806  0.038485107  0.038959277            5 
  840000    1.1380978   -6.5049849     386.7813  0.038371161  0.038951228            3 
  841000    1.1256882   -6.5667206    387.89271  0.038435663  0.038943218            7 
  842000    1.1315808   -6.4840537     388.4168  0.038441885  0.038935383            2 
  843000    1.1006935   -6.5712297    387.37077  0.038292879  0.038927581            4 
  844000    1.1407613   -6.4908674    388.52522  0.038361494   0.03891954            2 
  845000      1.10668   -6.5245097    389.17582  0.038380258  0.038911537            7 
  846000    1.0938891   -6.5259043    389.53917  0.038370683  0.038903484            3 
  847000    1.1308482   -6.5315358    390.10254  0.038380808  0.038895501            4 
  848000    1.0975899   -6.5250059    388.85239  0.038212696  0.038887594            3 
  849000     1.096388   -6.5421689    391.21107  0.038399202  0.038879523            2 
  850000    1.1123286   -6.5037141     390.5162  0.038285902  0.038871388            3 
  851000    1.0842218   -6.5469563    390.52454  0.038241729  0.038863336            4 
  852000     1.099916   -6.5694572    390.65457  0.038209563  0.038855171            3 
  853000    1.0985496   -6.5288842     392.2961  0.038325137  0.038846956            2 
  854000    1.1155186   -6.5355426    392.79255  0.038328703  0.038838732            3 
  855000    1.1367249   -6.4939203    394.37916  0.038438515  0.038830646            8 
  856000    1.0832648   -6.5346382     394.1642  0.038372683  0.038822516            1 
  857000    1.1359155   -6.5336042    393.21254   0.03823537  0.038814409            4 
  858000    1.1224182   -6.4807343    393.13301  0.038183081  0.038806363            3 
  859000    1.1046652   -6.5240332    393.80155  0.038203487  0.038798008            5 
  860000    1.0950857    -6.533203     393.3737  0.038117607  0.038789587            3 
  861000    1.1218801   -6.5740102    392.65022  0.038003312  0.038780836            2 
  862000    1.1242448   -6.5073042    394.25687  0.038114547  0.038771969            2 
  863000    1.1309956   -6.5375001    395.44244  0.038184863  0.038763434            6 
  864000     1.140307   -6.5307459    393.51288   0.03795456  0.038754585            4 
  865000    1.1421303   -6.5468797    396.14929  0.038164671  0.038745661            3 
  866000    1.1072952   -6.5586916    395.34899  0.038043591  0.038736994            2 
  867000    1.1122422   -6.5651126    395.60279  0.038024105  0.038728327            6 
  868000    1.0888414   -6.5350366    396.44192   0.03806086  0.038719554            7 
  869000     1.107988    -6.467241    398.53574   0.03821785    0.0387111            2 
  870000    1.1125919    -6.525075    397.17293  0.038043384  0.038702822            3 
  871000    1.0903622   -6.5505474    397.95513  0.038074544  0.038694112            4 
  872000    1.1156306   -6.5359467    397.45638  0.037983217  0.038685371            2 
  873000    1.1007284   -6.5649861    398.15642  0.038006531  0.038676604            2 
  874000     1.092746   -6.5526595    398.73445  0.038018159  0.038667972            5 
  875000    1.1106143   -6.5627668    400.27006  0.038120958  0.038659423            6 
  876000    1.0975983   -6.5301182    400.27427  0.038077842  0.038650929            3 
  877000    1.1095465   -6.5275249    399.29337  0.037941217  0.038642501            7 
  878000    1.1042138    -6.531179    402.07422  0.038161941   0.03863415            2 
  879000    1.1237063   -6.5328652    401.77422  0.038090086  0.038626192            3 
  880000    1.1222678   -6.5184317    403.43636    0.0382042  0.038618467            4 
  881000    1.0958421   -6.5187237    403.85403  0.038200344  0.038610973            3 
  882000    1.1017037   -6.5586462    402.55893  0.038034668  0.038602959            3 
  883000    1.1092058   -6.5172617    403.10401  0.038043036  0.038595064            5 
  884000    1.1056418   -6.5269566    403.57727  0.038044615  0.038587333            3 
  885000    1.1095075    -6.519606    404.27779  0.038067589  0.038579266            1 
  886000    1.1205476   -6.5677488      403.451  0.037946858  0.038571366            3 
  887000    1.1070048   -6.5240159    405.65803  0.038111427  0.038563292            1 
  888000    1.0968083   -6.5126035    405.69924  0.038072376  0.038555423            2 
  889000    1.1089414   -6.5576784    405.30178  0.037992293  0.038547726            3 
  890000    1.1061119   -6.5110388    407.00214  0.038108814  0.038540022            2 
  891000    1.1204435   -6.5442604    406.83676  0.038050576  0.038532256            3 
  892000    1.1041667   -6.5554043    407.45918  0.038066067  0.038524531            3 
  893000    1.1011423   -6.5106717    407.61934  0.038038385  0.038516775            3 
  894000    1.1109775   -6.5225321    407.80534  0.038013174  0.038508695            9 
  895000    1.1205159   -6.5809451    408.49549  0.038034962  0.038500579            5 
  896000    1.1397941   -6.5276001    408.39936  0.037983572  0.038492762            2 
  897000     1.119296   -6.5689707    408.16366  0.037919329  0.038484712            3 
  898000    1.1136753   -6.5271237    410.29487  0.038074876  0.038476736            4 
  899000     1.093258   -6.5509067      408.221  0.037840286  0.038468798            2 
  900000    1.1124138   -6.5050259    409.37787  0.037905359  0.038460456            3 
  901000    1.1211161   -6.5438978    408.49887  0.037781989  0.038452193            2 
  902000     1.116498   -6.5610862    409.86316  0.037866145  0.038443651            2 
  903000    1.1081272   -6.5240662    409.70433  0.037809554  0.038435454            1 
  904000    1.0999898   -6.4954273    411.89476   0.03796965  0.038427305            4 
  905000    1.1360496   -6.5306038    411.36909   0.03787929  0.038419409            2 
  906000    1.1142569   -6.5740695    410.87604   0.03779213  0.038411403            2 
  907000    1.1025345   -6.5218516    413.17817  0.037961978  0.038403228            6 
  908000    1.1221539   -6.5300315    411.92017  0.037804715  0.038395272            4 
  909000    1.1339157   -6.5518865    413.62188  0.037919131  0.038387318            2 
  910000    1.0991848   -6.5463673    412.87036  0.037808641  0.038379391            5 
  911000    1.1001934   -6.5636272    413.46672  0.037821691  0.038371124            4 
  912000    1.0903568   -6.5650936    414.13535  0.037841315  0.038362652            1 
  913000    1.1221138   -6.5815141    412.39089  0.037640644  0.038354304            6 
  914000    1.1083817   -6.5385926    415.67908  0.037899259  0.038346127            1 
  915000    1.1021437    -6.558569    413.85511  0.037691722  0.038337619            2 
  916000    1.0923374    -6.566225    414.17812   0.03767996  0.038329088            4 
  917000    1.0970114   -6.5487946    415.24395  0.037735728  0.038320563            1 
  918000    1.1066078   -6.5481849    416.52079   0.03781053  0.038312313            2 
  919000    1.1006484   -6.5670572    416.92495  0.037806035  0.038303997            4 
  920000    1.1007035   -6.5476545    416.31914  0.037710067  0.038295581            3 
  921000    1.1032058   -6.5794862    418.05355  0.037826054  0.038287226            2 
  922000    1.1152584   -6.5521205    416.88214  0.037679152  0.038278822            2 
  923000    1.1337435   -6.5968416    416.81944  0.037632669  0.038270194            4 
  924000    1.0989874   -6.5551466    418.60112  0.037752627  0.038261403            2 
  925000    1.1109766   -6.5502019    418.76534  0.037726607  0.038252799            3 
  926000     1.110806   -6.5620122    418.89864  0.037697861  0.038244294            4 
  927000    1.1304645    -6.533928    418.95672  0.037662417  0.038235993            2 
  928000    1.0663673   -6.5461648    419.62397   0.03768175  0.038227505            3 
  929000    1.1049601   -6.5709794    418.61052   0.03755028  0.038218972            1 
  930000    1.0871491   -6.5364783    419.54869  0.037593969  0.038210233            4 
  931000    1.1053493   -6.5506685    421.43326  0.037722275  0.038201945            2 
  932000    1.0924029    -6.527992    420.32014  0.037582273  0.038193699            4 
  933000    1.1094156   -6.5524943    421.63362  0.037659309  0.038185606            2 
  934000    1.1327948   -6.5576721    422.53162   0.03769911  0.038177693            3 
  935000    1.1057867   -6.5403548    422.59916  0.037664809  0.038169767            4 
  936000    1.0910961   -6.5488606    423.43044  0.037698579  0.038162068            3 
  937000    1.1102209   -6.5287514    424.01618   0.03771044  0.038154035            5 
  938000    1.1030967   -6.5464468    425.01703  0.037759153  0.038146458            4 
  939000    1.1083263   -6.5905168    423.55772  0.037589432  0.038138563            2 
  940000    1.0917258   -6.5717997    424.61116  0.037642833  0.038130415            2 
  941000    1.0964011   -6.5676563    425.15614  0.037651093  0.038122483            5 
  942000    1.0992698   -6.5864128    425.32225  0.037625818  0.038114708            2 
  943000     1.105174   -6.5663749    426.09224  0.037653962  0.038106848            3 
  944000    1.1014605   -6.5741636    427.23733   0.03771516  0.038099171            3 
  945000    1.1046039   -6.5381504    427.88693  0.037732534  0.038091463            4 
  946000    1.1062456   -6.5308751    427.41978  0.037651496  0.038083902            3 
  947000    1.1030699   -6.5700259    427.72651  0.037638728  0.038076611            3 
  948000    1.0912397   -6.5334694    429.45789  0.037751221  0.038069225            2 
  949000    1.1118711   -6.5492013    429.97557  0.037756899  0.038062245            3 
  950000    1.1072454   -6.5757145    429.90564  0.037711021  0.038055018            2 
  951000    1.0969357   -6.5379037    430.80277   0.03774998   0.03804772            4 
  952000     1.098783   -6.5252098    430.07891  0.037646963  0.038040299            3 
  953000    1.0615492   -6.5456721    431.45958   0.03772819  0.038033362            6 
  954000    1.1077258   -6.5368876    432.72409  0.037799099  0.038026254            2 
  955000    1.1048252   -6.4974946    433.35443  0.037814523   0.03801931            4 
  956000    1.0753365   -6.5880395    432.23863  0.037677705  0.038012081            3 
  957000    1.1138972   -6.5300168    432.89406  0.037695408  0.038004839            5 
  958000    1.1002939   -6.5647985    431.85893  0.037566017  0.037997512            3 
  959000    1.1082857   -6.5263514    432.20767  0.037557149  0.037990075            4 
  960000    1.0858137   -6.5282094    433.51139  0.037631197  0.037982341            6 
  961000    1.1289325    -6.563664    432.65228  0.037517541  0.037974631            2 
  962000    1.0830753   -6.5655766    432.62138  0.037475864  0.037966507            7 
  963000    1.1126435   -6.5601083    432.64188  0.037438723  0.037958438            2 
  964000    1.1152221   -6.5541853    433.06127   0.03743614  0.037950075            2 
  965000    1.0914032   -6.5216165     434.4974  0.037521365  0.037942001            2 
  966000    1.0970495   -6.5856782    432.82474  0.037338228  0.037933833            2 
  967000    1.0792177   -6.5407456    432.66353  0.037285723  0.037925146            3 
  968000    1.1068937   -6.5933237    433.68516  0.037335155  0.037916447            8 
  969000    1.0916044   -6.5382704    433.92784  0.037317496  0.037907813            3 
  970000    1.0747298   -6.5595175    433.19535  0.037216096  0.037899003            9 
  971000    1.1087336   -6.5902762    433.83043  0.037232271  0.037889681            5 
  972000    1.1100654   -6.5640198    433.90151  0.037200061  0.037880341            6 
  973000    1.1055856   -6.5462443     434.0585  0.037175274  0.037871315            2 
  974000     1.072648    -6.537307    435.19404  0.037234261   0.03786207            5 
  975000    1.0912854   -6.5893645    435.17418  0.037194374   0.03785294            1 
  976000    1.0925672   -6.5360004    436.02908  0.037229259  0.037843999            3 
  977000    1.0928425   -6.5600683    437.82469   0.03734431  0.037835565            3 
  978000    1.0940341   -6.5624972    437.04123  0.037239369  0.037826843            2 
  979000    1.1067718   -6.5475137    437.19432  0.037214362  0.037818274            1 
  980000    1.1143127   -6.5473142    436.80731  0.037143478  0.037809392            4 
  981000    1.0881645   -6.6203928    437.61463  0.037174196   0.03780052            4 
  982000    1.0850774    -6.571565    438.43954  0.037206343  0.037791364            3 
  983000    1.0843548   -6.5227533    438.32477  0.037158763  0.037782466            6 
  984000    1.1020984   -6.5684177    439.69185  0.037236776  0.037773783            4 
  985000    1.0842389   -6.5644079    438.86301   0.03712885  0.037764837            8 
  986000    1.0930948   -6.5875753    439.82491  0.037172491  0.037755945            2 
  987000    1.0878071   -6.5795805    438.91694  0.037058168  0.037746826            2 
  988000    1.0948158   -6.5544982    438.77874  0.037009003  0.037737801            6 
  989000    1.0940694   -6.5589354     440.4505  0.037112445  0.037728988            4 
  990000     1.078518   -6.5719575    441.51308  0.037164401  0.037720277            3 
  991000    1.0865161   -6.5847596    442.00374  0.037168158  0.037711469            2 
  992000    1.0677366   -6.5758969    440.88053  0.037036335  0.037702545            1 
  993000    1.0718734   -6.5513854    443.17059  0.037191221  0.037693812            2 
  994000    1.0999602   -6.5665009     442.9321  0.037133811  0.037685266            4 
  995000    1.1217072   -6.5769052     443.4578   0.03714052  0.037676762            3 
  996000    1.1124453   -6.5628488    443.10883  0.037074032  0.037667962            4 
  997000    1.0951028   -6.5882134    443.71144  0.037087215  0.037658944            7 
  998000    1.0685867   -6.5443412    444.01715  0.037075581  0.037650129            3 
  999000    1.0879015   -6.5979493    445.28154  0.037143939  0.037641111            3 
 1000000    1.0898899   -6.5819875    444.69504   0.03705792  0.037632261            2 
 1001000    1.1004124   -6.5792528     444.9951  0.037045879  0.037623512            2 
 1002000    1.1025025   -6.5554755    446.61418  0.037143561  0.037614822            2 
 1003000    1.1133975   -6.5892061    445.91021   0.03704804  0.037606274            3 
 1004000    1.1049782   -6.5774363    447.92495  0.037178365  0.037597657            6 
 1005000    1.0866144   -6.5650735    449.02742  0.037232787  0.037589482            2 
 1006000     1.109334   -6.5507927    446.60872  0.036995421  0.037581112            2 
 1007000    1.0834293   -6.6036034     447.7022  0.037049172  0.037572537            3 
 1008000    1.0974535   -6.5887325    448.05827  0.037041854  0.037564088            4 
 1009000     1.096082    -6.570936    447.81579  0.036985117   0.03755555            3 
 1010000    1.1021883   -6.5619903    449.50029  0.037087482  0.037546831            2 
 1011000    1.0831291   -6.5850046    448.26778  0.036949207  0.037538073            4 
 1012000    1.0879148   -6.6034575    450.08344  0.037062207  0.037529255            2 
 1013000    1.0946213    -6.579601    449.00244  0.036936693  0.037520788            5 
 1014000    1.0797631   -6.5887015    448.53134   0.03686155  0.037511961            3 
 1015000    1.0875864   -6.5844152    450.67885  0.037001548  0.037503146            3 
 1016000    1.0909728   -6.5638603    450.69719  0.036966633  0.037494443            2 
 1017000    1.0843719   -6.5384898    449.81866  0.036858297  0.037485765            4 
 1018000    1.0820512   -6.5775404    451.26659  0.036940618  0.037476891            3 
 1019000    1.0875345    -6.569834    451.64691  0.036935469  0.037468199            3 
 1020000    1.0961251   -6.5478729    451.36849   0.03687651  0.037459232            2 
 1021000    1.0694097   -6.5648653    451.32992  0.036837244  0.037450295            2 
 1022000    1.0653069   -6.5601908    451.62709  0.036825432  0.037441342            3 
 1023000    1.1011025   -6.6232439    453.38278  0.036932452  0.037432555            3 
 1024000    1.0992171   -6.5861641    452.67073  0.036838438  0.037423775            3 
 1025000    1.0846825    -6.604925    453.15073  0.036841523  0.037414961            2 
 1026000    1.1070793   -6.5641317    454.02168  0.036876354  0.037406183            2 
 1027000    1.0782237   -6.5599202    453.41859  0.036791512  0.037397339            3 
 1028000    1.0789183   -6.5957937    453.94268  0.036798207  0.037388564            7 
 1029000    1.0813137   -6.5549414    456.59223  0.036977019  0.037379722            4 
 1030000    1.0927245   -6.5834366    455.74096  0.036872246  0.037371005            4 
 1031000     1.073654   -6.5999596    455.56776  0.036822483  0.037362158            2 
 1032000    1.0640718   -6.5990643    455.54168  0.036784696  0.037353181            2 
 1033000    1.0768493   -6.5921156    455.63713  0.036756787   0.03734444            4 
 1034000    1.0930046   -6.5674265    457.72759  0.036889716  0.037335514            3 
 1035000    1.1191683   -6.5895116    456.29543  0.036738762  0.037326976            6 
 1036000    1.0809322   -6.5632106    458.13406  0.036851195  0.037318454            4 
 1037000    1.0926079    -6.585422    458.11094  0.036813801  0.037309419            2 
 1038000    1.1031939   -6.6133073    457.41273  0.036722281  0.037300707            4 
 1039000    1.0756949   -6.5721795    457.49095  0.036693211  0.037292057            3 
 1040000    1.1081654   -6.5733775    458.87958  0.036769197  0.037282978            2 
 1041000    1.0822283   -6.6082309    457.05804   0.03658806  0.037273949            3 
 1042000    1.1015664   -6.5671921    460.73354  0.036846892  0.037265038            2 
 1043000    1.0818802   -6.5784504    457.30354  0.036537515  0.037255977            4 
 1044000    1.0786653    -6.597621    459.17169  0.036651636  0.037246985            3 
 1045000    1.0904052   -6.6130198    458.17447  0.036537039  0.037237771            3 
 1046000    1.0824644   -6.5987818    459.68391  0.036622364  0.037228364            2 
 1047000    1.0906331    -6.606297    459.78114  0.036595124  0.037218975            3 
 1048000    1.1138951   -6.5709188    460.40412  0.036609742  0.037209694            5 
 1049000    1.0800059   -6.5980974    461.28205  0.036644586  0.037200524            5 
 1050000    1.0956861   -6.5772372    461.21143  0.036604082  0.037191393            4 
 1051000    1.0525722    -6.566566    462.29619  0.036655264  0.037182557            3 
 1052000    1.0742156    -6.563014    462.84785   0.03666412  0.037173574            2 
 1053000    1.0725499   -6.6238776     463.1667  0.036654535  0.037164656            9 
 1054000    1.0803056   -6.5656704    462.05936  0.036532207  0.037155724            3 
 1055000     1.088406   -6.6241967    461.50868  0.036454082  0.037146527            2 
 1056000    1.0838269   -6.5996985     462.4947  0.036497372  0.037137286            4 
 1057000    1.1147341   -6.5904661    462.61971  0.036472699  0.037128238            2 
 1058000    1.0894268   -6.5882416     463.2574  0.036488453  0.037119103            3 
 1059000    1.1115042   -6.6084986    463.56787  0.036478429  0.037109885            4 
 1060000    1.0793645   -6.5830194     463.8182  0.036463695  0.037100464            3 
 1061000    1.0817935   -6.5524944    464.29362  0.036466668  0.037090837            4 
 1062000    1.0820055   -6.5915836    464.10233   0.03641732  0.037081442            2 
 1063000    1.0868876   -6.6010924    464.45821   0.03641096   0.03707185            5 
 1064000    1.0608312   -6.5866803    464.39962   0.03637215  0.037062366            3 
 1065000    1.0782814   -6.5720407    465.52892  0.036426363  0.037052834            3 
 1066000    1.0752028   -6.5822216    465.98326  0.036427709  0.037043335            3 
 1067000    1.0782211   -6.5723037    465.73805  0.036374418  0.037033819            6 
 1068000    1.0455954   -6.6154137    465.85489  0.036349476  0.037024137            3 
 1069000    1.0969278   -6.5854663    465.79933  0.036311142  0.037014445            3 
 1070000    1.0645067   -6.5964316    466.69989  0.036347343  0.037004789            8 
 1071000    1.0602577   -6.6264994    465.52458  0.036221956  0.036994945            5 
 1072000    1.0906025   -6.6012838    467.74536  0.036360802  0.036985013            4 
 1073000    1.1055479   -6.6198765    466.26783  0.036212164   0.03697518            2 
 1074000    1.0841352    -6.587321    466.55821  0.036200978  0.036965166            5 
 1075000    1.0945156    -6.604123    467.57216  0.036245904  0.036955343            5 
 1076000    1.0938098    -6.581442    467.92303  0.036239392  0.036945567            1 
 1077000    1.0832638   -6.5974374    468.97979  0.036287511  0.036935534            3 
 1078000    1.0854937    -6.548728    468.48317  0.036215458  0.036925554            1 
 1079000    1.1122365   -6.5733002    468.50193  0.036183344  0.036915658            2 
 1080000    1.0898132   -6.5549229    469.31859  0.036212854  0.036905765            3 
 1081000    1.0869118   -6.6187795    469.15271  0.036166567  0.036895873            2 
 1082000    1.1041028   -6.6052739    468.59691  0.036090335  0.036885943            4 
 1083000    1.0848145   -6.5783619    471.85479  0.036307694   0.03687639            5 
 1084000    1.0419205   -6.5486689      473.141  0.036373078  0.036866843            3 
 1085000    1.0895093   -6.5936757    471.31133  0.036199027  0.036857355            2 
 1086000    1.0863151   -6.6141381    471.22218  0.036158854  0.036847799            2 
 1087000    1.0641552   -6.6235158    472.31816  0.036209611  0.036838238            4 
 1088000    1.0676392   -6.6016141     472.4754  0.036188373  0.036828827            6 
 1089000    1.0748515    -6.625288    473.21907   0.03621205  0.036819318            3 
 1090000    1.0753509   -6.5846325    474.84952   0.03630348  0.036810162            2 
 1091000    1.0855024    -6.571888    475.84561  0.036346288  0.036801211            2 
 1092000    1.0814445   -6.6246394    475.16883  0.036261358  0.036792307            2 
 1093000    1.0998877   -6.5591338    475.16252    0.0362277  0.036783111            5 
 1094000    1.0830241    -6.611545    475.44323  0.036215968   0.03677402            5 
 1095000    1.0644169   -6.6162822    475.29709  0.036171772  0.036764922            5 
 1096000    1.0708059   -6.5858455    477.01853  0.036269657  0.036755866            3 
 1097000    1.0911764   -6.5909813    476.21893  0.036175853  0.036746859            3 
 1098000     1.065461   -6.6184733    476.40729  0.036157202  0.036737616            6 
 1099000    1.0811398   -6.6305762    477.23564  0.036187113  0.036728376            2 
 1100000    1.0992502   -6.5988371    477.50598  0.036174695  0.036719345            4 
 1101000    1.0709529   -6.6497207    476.15488  0.036039576    0.0367103            9 
 1102000    1.0747489   -6.5969741    477.63939  0.036119131  0.036701013            5 
 1103000    1.0715121   -6.5576185    478.06753  0.036118732  0.036692071            3 
 1104000     1.090433   -6.6009831    479.46799  0.036191726  0.036683212            2 
 1105000    1.0835543   -6.6277919    478.88093  0.036114701  0.036674098            3 
 1106000    1.0806734   -6.6180525    479.06142  0.036095646  0.036665068            2 
 1107000    1.0799957    -6.608443    478.82127  0.036044961  0.036655915            4 
 1108000    1.0612364    -6.586996    480.01404  0.036102139  0.036646552            1 
 1109000    1.0815122   -6.6027309    478.01386  0.035919286  0.036637309            5 
 1110000    1.0757371   -6.5907733    480.93653  0.036106346  0.036628076            6 
 1111000    1.0610192   -6.5768903    481.08455   0.03608495  0.036619097            3 
 1112000    1.0772476   -6.5845828    481.29019   0.03606791  0.036609765            2 
 1113000    1.0569755   -6.6095719       481.27  0.036033992  0.036600656            3 
 1114000    1.0635796   -6.5887689    483.00009  0.036131066  0.036591496            5 
 1115000    1.0628721   -6.6414542     481.7635   0.03600624  0.036582362            3 
 1116000    1.0822747   -6.6214948    481.18834  0.035931029  0.036573221            4 
 1117000    1.1129076   -6.6112791    482.56299  0.036001417  0.036563908            4 
 1118000    1.0765358    -6.615275    481.79698  0.035912118  0.036554397            4 
 1119000    1.0885493   -6.6081934    483.93717  0.036039408  0.036545234            2 
 1120000    1.0478304   -6.5845689    484.63432  0.036059101   0.03653602            5 
 1121000     1.080694   -6.6092156    482.68321  0.035881892  0.036526903            2 
 1122000    1.0740755   -6.6336156    483.15879  0.035885234  0.036517622            2 
 1123000    1.0887679   -6.6243362      483.513  0.035879564   0.03650835            3 
 1124000    1.0785447   -6.6229572    484.35427  0.035910014  0.036498957            2 
 1125000    1.0689942   -6.5704192    485.89046  0.035991886  0.036489901            2 
 1126000    1.0828635   -6.6197076    485.40367  0.035923895  0.036480829            5 
 1127000    1.0596106    -6.618354    486.03161  0.035938451  0.036471853            3 
 1128000    1.0706454   -6.6096767    486.09636  0.035911374  0.036462666            4 
 1129000    1.0852146   -6.6173948    487.09202  0.035953057  0.036453613            5 
 1130000    1.0664233   -6.6301239    488.45765  0.036021951  0.036444559            2 
 1131000    1.0637528    -6.575799    488.84236  0.036018447  0.036435779            4 
 1132000    1.0768886   -6.6062891    486.71224  0.035829818  0.036427112            7 
 1133000    1.0846231   -6.5849815    488.11263  0.035901194  0.036418217            2 
 1134000    1.0931589   -6.6308509    490.65446  0.036056324  0.036409535            3 
 1135000    1.0656752   -6.5814422     490.8104  0.036036006  0.036400854            3 
 1136000    1.0690282   -6.6112183    490.17727   0.03595784  0.036392345            3 
 1137000    1.0644115   -6.6012216    490.78671  0.035970881  0.036383746            4 
 1138000    1.0591099   -6.6161203    491.27864  0.035975296  0.036375155            2 
 1139000    1.0802168   -6.5881584    492.86494   0.03605977  0.036366583            1 
 1140000    1.0600741    -6.590271     491.5333  0.035930796  0.036358036            2 
 1141000     1.092725   -6.6188025    491.50672  0.035897365  0.036349522            2 
 1142000    1.0523902   -6.5984579    492.83849  0.035963112  0.036340856            2 
 1143000    1.0419684    -6.611481    492.97744  0.035941779  0.036332369            4 
 1144000    1.0678189   -6.6359202    492.75809  0.035894383  0.036323615            1 
 1145000    1.0732399   -6.6399209    492.55249  0.035848071  0.036314886            3 
 1146000    1.0674921   -6.6078194    493.69138  0.035899606  0.036306269            2 
 1147000    1.0870878   -6.6246367    492.89461  0.035810419  0.036297628            2 
 1148000    1.0778448   -6.6298122    494.57223  0.035901004  0.036288983            2 
 1149000    1.0488039   -6.6171375    494.87732  0.035891886  0.036280165            4 
 1150000    1.0676781   -6.5825516    493.51872  0.035762226  0.036271466            6 
 1151000    1.0726535   -6.6554414    492.49933  0.035657351   0.03626258            2 
 1152000    1.0735265   -6.6149374    494.20029  0.035749442  0.036253523            1 
 1153000    1.0725776   -6.6369823    493.16706   0.03564376   0.03624449            2 
 1154000    1.0539738   -6.6593308    492.76521  0.035583854  0.036235218            5 
 1155000    1.0533246   -6.6320587    493.82461  0.035629481  0.036225844            5 
 1156000     1.053755   -6.6452596    495.32688  0.035706955  0.036216728            5 
 1157000    1.0710299   -6.5894987    494.27449  0.035600294  0.036207566            3 
 1158000    1.0957318   -6.5987774    496.29982  0.035715301  0.036198351            4 
 1159000    1.0468141   -6.6324249    495.76839  0.035646274  0.036189115            2 
 1160000    1.0526297   -6.6294564    496.11661  0.035640561  0.036179852            4 
 1161000    1.0775457   -6.6161911    497.65148  0.035720031  0.036170643            3 
 1162000    1.0783045   -6.6065354    496.59695  0.035613665  0.036161228            4 
 1163000    1.0696058   -6.6487297    494.83289  0.035456641  0.036151557            4 
 1164000    1.0634234   -6.6117653    494.98359   0.03543697  0.036141632            3 
 1165000    1.0585819   -6.6176251    495.95635  0.035476133  0.036131911            4 
 1166000    1.0678876   -6.5788974    497.98756  0.035590877  0.036122281            2 
 1167000     1.035847   -6.6453669     498.8657  0.035623087  0.036112689            5 
 1168000    1.0945806   -6.6324425    497.56572  0.035499837   0.03610312            3 
 1169000    1.0305728   -6.6141205    497.51139  0.035465596  0.036093517            4 
 1170000    1.0738119   -6.6185814    498.22152  0.035485863  0.036083892            4 
 1171000    1.0754075   -6.6203916    498.73185  0.035491876  0.036074469            2 
 1172000    1.0765407     -6.62684    498.04075  0.035412454   0.03606486            8 
 1173000    1.0586392   -6.5978037    499.30271  0.035471917  0.036055064            6 
 1174000     1.062122   -6.6169318    499.14126  0.035430243  0.036045279            3 
 1175000    1.0835858   -6.6314464     499.2183  0.035405553  0.036035654            5 
 1176000    1.0417206    -6.626976    499.12762  0.035369021  0.036025877            3 
 1177000      1.07856   -6.6267147    500.48763  0.035435261  0.036016243            4 
 1178000    1.0603629   -6.6592384    499.45176  0.035331901  0.036006468            4 
 1179000    1.0439024   -6.6176321    498.79927  0.035255815   0.03599656            3 
 1180000    1.0706271   -6.6494888    500.12148  0.035319314  0.035986593            4 
 1181000     1.056005   -6.6371661    500.62705  0.035325081  0.035976496            4 
 1182000    1.0491698   -6.6557011    499.31531  0.035202715  0.035966376            3 
 1183000    1.0593824   -6.6221253    501.53275   0.03532916  0.035956398            2 
 1184000    1.0697127   -6.6465529    500.40891  0.035220222  0.035946447            2 
 1185000    1.0601387    -6.624138    501.18709  0.035245224   0.03593618            6 
 1186000    1.0595681   -6.6154833      500.203   0.03514636  0.035925968            2 
 1187000    1.0869536   -6.5608169    502.63632  0.035287582   0.03591597            2 
 1188000    1.0583677   -6.6510674    500.30816  0.035094568  0.035905645            4 
 1189000    1.0620747   -6.6218606    503.08801  0.035259883  0.035895428            1 
 1190000    1.0660291    -6.649808    501.51079  0.035119803  0.035884978            3 
 1191000    1.0623697   -6.6177577    502.04038   0.03512737  0.035874504            3 
 1192000    1.0784956   -6.6367315    501.89642  0.035087837  0.035863845            3 
 1193000    1.0499783   -6.6380921    502.80034  0.035121566  0.035853137            3 
 1194000     1.059516   -6.6360432    501.53949  0.035004152  0.035842589            5 
 1195000    1.0636967   -6.6477259    501.23904  0.034953908  0.035831767            6 
 1196000    1.0808344   -6.5944359    502.16123  0.034988938  0.035820972            4 
 1197000    1.0696209   -6.6279934    503.67462  0.035065067  0.035810255            4 
 1198000    1.0754055   -6.6325347    502.64506  0.034964181  0.035799663            2 
 1199000    1.0604225   -6.6298985    503.22755  0.034975504  0.035789164            3 
 1200000    1.0523014   -6.6072726    503.90391  0.034993327   0.03577855            2 
 1201000     1.058235   -6.6518243    504.99508  0.035039903   0.03576816            4 
 1202000    1.0604385   -6.6144556    504.96802  0.035008876   0.03575781            2 
 1203000    1.0425425   -6.6377258    504.98172  0.034980724  0.035747524            2 
 1204000    1.0554325   -6.6361756    504.92282  0.034947593  0.035737124            2 
 1205000    1.0557804   -6.6209311    504.10682  0.034862159  0.035726607            3 
 1206000    1.0582453   -6.6664637    506.24538  0.034981024  0.035716159            6 
 1207000    1.0560369   -6.6645048    506.06564  0.034939632  0.035705713            5 
 1208000    1.0542568   -6.6295957    506.59355  0.034947127  0.035695324            7 
 1209000    1.0490193   -6.6225747    507.04179  0.034949117   0.03568492            3 
 1210000     1.064364    -6.659515    505.93114  0.034843743  0.035674534            7 
 1211000     1.084536   -6.6600541    506.15711  0.034830519  0.035663988            6 
 1212000    1.0796537   -6.6457962    508.46593  0.034960529  0.035653641            5 
 1213000    1.0563089   -6.5926247    509.17984  0.034980753  0.035643477            1 
 1214000    1.0435134   -6.6094223    509.62887  0.034982762  0.035633465            5 
 1215000    1.0491203    -6.641715    509.62718  0.034953853  0.035623356            2 
 1216000    1.0586256   -6.6294132    509.39107  0.034908928  0.035612948            2 
 1217000    1.0696845   -6.6180932     510.6824  0.034968666  0.035602807            3 
 1218000    1.0633602   -6.6602331    509.80117  0.034879664  0.035592658            6 
 1219000    1.0560973   -6.6377023    510.53964  0.034901534  0.035582529            5 
 1220000    1.0645939   -6.6466646    510.15498  0.034846651  0.035572505            4 
 1221000    1.0612898   -6.6464217    510.90508  0.034869307  0.035562413            2 
 1222000    1.0417598    -6.627442    512.99226  0.034983105  0.035552501            3 
 1223000    1.0552705   -6.6072593    512.83968  0.034944105  0.035542726            6 
 1224000    1.0514305    -6.638396    514.08024  0.035000016  0.035532847            3 
 1225000    1.0228936   -6.6063932    512.25536  0.034847304  0.035522974            2 
 1226000    1.0377206   -6.6137994    514.41779  0.034965864  0.035513269            4 
 1227000    1.0545755   -6.6380194     515.1551  0.034987442  0.035503581            1 
 1228000    1.0634264   -6.6300034    515.92397  0.035011127  0.035494011            6 
 1229000    1.0536862   -6.6353297    514.05148  0.034855674  0.035484322            2 
 1230000    1.0591142   -6.6352396    514.14712  0.034833816  0.035474499            5 
 1231000    1.0567352   -6.6572668    515.22045  0.034878178  0.035464661            3 
 1232000    1.0321291   -6.6131916    516.62211  0.034944677  0.035454949            7 
 1233000    1.0404646   -6.6318367    516.25344  0.034891419  0.035445434            3 
 1234000    1.0611316    -6.638027    515.85931  0.034836528  0.035435988            8 
 1235000    1.0564832   -6.6223454    517.36058  0.034909621  0.035426521            2 
 1236000    1.0587328   -6.6325458    517.49862  0.034890684  0.035416981            4 
 1237000    1.0569368   -6.6819525     518.0574  0.034900121  0.035407228            3 
 1238000    1.0546366    -6.630611    518.19704   0.03488133  0.035397451            7 
 1239000    1.0394109   -6.6311593    516.51161  0.034739818  0.035387823            3 
 1240000    1.0378872   -6.6281562    517.76144  0.034795796  0.035378024            5 
 1241000    1.0484782   -6.6237247    519.00808  0.034851469  0.035368373            4 
 1242000    1.0595949   -6.6852598      515.798  0.034608025  0.035358679            8 
 1243000    1.0453302   -6.6397286    519.38191  0.034820455  0.035349105            3 
 1244000    1.0620677   -6.6754261    518.08436  0.034705544   0.03533941            4 
 1245000     1.052562   -6.6555423    519.40935  0.034766355   0.03532978            3 
 1246000    1.0565218   -6.6519695     520.1014  0.034784738  0.035320155            8 
 1247000    1.0502911   -6.6278553    523.35447  0.034974236  0.035310556            3 
 1248000    1.0491362   -6.6389366    522.08181  0.034861232  0.035301128            2 
 1249000    1.0428561   -6.6713017    521.20719  0.034774966   0.03529179            3 
 1250000    1.0599776   -6.6501606    521.58553  0.034772369  0.035282377            4 
 1251000    1.0339938   -6.6220118    522.80099  0.034825539  0.035272914            4 
 1252000    1.0538097   -6.6495619     522.0724  0.034749228  0.035263357            2 
 1253000    1.0428748   -6.6603586     521.6207  0.034691454  0.035253776            7 
 1254000    1.0361732     -6.69319    521.48184  0.034654561  0.035244267            2 
 1255000    1.0581489   -6.6819981    521.52554   0.03462985  0.035234779            5 
 1256000    1.0586989   -6.6568001    522.81228  0.034687651   0.03522542            2 
 1257000    1.0503668   -6.6757155    522.11634  0.034613918  0.035216126            4 
 1258000    1.0328444   -6.6010059    524.36973  0.034735674  0.035206762            2 
 1259000    1.0481632   -6.6448842    524.16889   0.03469479  0.035197365            4 
 1260000    1.0517824   -6.6265002    525.56657  0.034759694  0.035187986            1 
 1261000    1.0710155    -6.661401    524.44775  0.034658191  0.035178584            3 
 1262000    1.0554186   -6.6710467    523.27697  0.034553419  0.035168984            2 
 1263000    1.0420171    -6.609096    525.15849  0.034650204  0.035159321            4 
 1264000    1.0636407   -6.6159295    525.72742  0.034660299  0.035149615            4 
 1265000    1.0629662   -6.6072408    525.24596  0.034601183  0.035139974           10 
 1266000    1.0150419   -6.6563522    526.50875  0.034656974  0.035130382            3 
 1267000    1.0604039   -6.6760175     525.1003  0.034536984  0.035120477            4 
 1268000    1.0527121   -6.6715982    525.38799  0.034528653  0.035110603           12 
 1269000    1.0312278   -6.6485527    525.23209  0.034491207   0.03510049            4 
 1270000    1.0281393   -6.6664192    526.51331  0.034548118  0.035090678            3 
 1271000    1.0416767   -6.6313477    527.13399   0.03456163  0.035080871            4 
 1272000    1.0362783   -6.6778216    525.34316  0.034417136  0.035070977            2 
 1273000    1.0410135    -6.629387    527.20954  0.034512277   0.03506105            2 
 1274000     1.057968   -6.6382979    526.73641  0.034454239  0.035051093            5 
 1275000    1.0305665   -6.6540299    527.73502  0.034492485  0.035041377            2 
 1276000    1.0384995   -6.6426748    528.47355  0.034513685  0.035031684            3 
 1277000    1.0346103   -6.6966485     526.3462  0.034347834   0.03502193            3 
 1278000    1.0710559   -6.6403149    528.21156   0.03444259  0.035012216            3 
 1279000    1.0470411   -6.6538503    529.32799  0.034488402  0.035002392            1 
 1280000    1.0196436   -6.6860884    527.92268  0.034369966  0.034992641            3 
 1281000    1.0626839    -6.650646    529.38933  0.034438546  0.034982872            3 
 1282000    1.0518899   -6.6671975    528.25009   0.03433763  0.034972974            7 
 1283000    1.0548065   -6.6589096    529.13299  0.034368212  0.034962936            7 
 1284000    1.0415351   -6.6581448    529.18773  0.034344998  0.034952844            5 
 1285000    1.0499837   -6.7122863    526.36017  0.034134901  0.034942529            2 
 1286000       1.0489   -6.6793702    529.63648  0.034320664  0.034932194            3 
 1287000    1.0641639   -6.6710075    529.07852  0.034257868  0.034922045            4 
 1288000    1.0554267    -6.642666     530.9312  0.034351138  0.034911946            7 
 1289000    1.0472584    -6.667973    529.15322  0.034209543  0.034901565            4 
 1290000    1.0273666   -6.6632286    528.80963  0.034160829  0.034891021            4 
 1291000    1.0367459   -6.6703352     530.0155  0.034212206    0.0348807            7 
 1292000    1.0459169   -6.6349964     529.4927  0.034152006  0.034870429            8 
 1293000     1.046386    -6.654467    527.00629  0.033965345  0.034859828            4 
 1294000     1.032861   -6.6139089    530.96471  0.034194018  0.034849329            3 
 1295000    1.0425367   -6.6303121    529.71373  0.034087113  0.034838886            5 
 1296000    1.0477124   -6.6276432    530.97681  0.034142027  0.034828388            3 
 1297000    1.0360871    -6.688468    529.91383  0.034047406  0.034817938            2 
 1298000    1.0328732   -6.6796693    529.81428  0.034014784  0.034807384            4 
 1299000    1.0356828   -6.6675772     531.0967  0.034070868  0.034796777            3 
 1300000    1.0209461   -6.6722339    531.45262  0.034067476  0.034786168            3 
 1301000    1.0490655   -6.6686849     531.8256  0.034065181  0.034775602            5 
 1302000    1.0569685   -6.6634247    530.62927  0.033962447  0.034764968            4 
 1303000    1.0442198    -6.687041    533.12426  0.034095949  0.034754364            5 
 1304000    1.0372737   -6.6883518    531.23236  0.033948898    0.0347439            3 
 1305000    1.0557214   -6.6728914    532.05293  0.033975283  0.034733309            4 
 1306000    1.0330301   -6.6600783    532.00063  0.033945931  0.034722771            4 
 1307000    1.0241745   -6.6556592    532.67031  0.033962657  0.034712286            3 
 1308000    1.0532759   -6.6479473    534.90645  0.034079157  0.034701939            3 
 1309000    1.0418401   -6.6496306    537.27898  0.034204162  0.034691694            2 
 1310000    1.0338476   -6.6524335    536.46831  0.034126483   0.03468163            9 
 1311000    1.0355102   -6.6557116    536.37816  0.034094721  0.034671468            3 
 1312000    1.0267044   -6.6455881    536.17294    0.0340557  0.034661221            4 
 1313000    1.0343552   -6.6467772    535.82805  0.034007873   0.03465099            2 
 1314000     1.021638   -6.7050948    535.85116  0.033983458  0.034640902            2 
 1315000    1.0299295   -6.6485163    537.89336  0.034087031  0.034630778            3 
 1316000    1.0398791   -6.6746526    534.67859   0.03385756  0.034620588            4 
 1317000     1.051123    -6.677208    536.66309  0.033957422  0.034610214            4 
 1318000    1.0317931     -6.70867    537.86663  0.034007754  0.034599958            5 
 1319000    1.0366028    -6.668022    537.54712  0.033961784  0.034589737            3 
 1320000    1.0214004   -6.6755504    536.95272   0.03389853   0.03457933            3 
 1321000    1.0312872   -6.6838567    537.88052  0.033931398  0.034568967            3 
 1322000    1.0188086   -6.6881449    536.86429  0.033841673  0.034558689            1 
 1323000    1.0292934   -6.6737392    539.19214   0.03396272  0.034548398            3 
 1324000    1.0246366   -6.6962366    538.82184  0.033913761  0.034538053            3 
 1325000    1.0456332   -6.6801447    537.60581  0.033811686  0.034527703            4 
 1326000     1.043639   -6.6665059    538.60474  0.033848965  0.034517406            5 
 1327000    1.0565978   -6.6547372    538.28511  0.033803385  0.034507101            2 
 1328000    1.0142579   -6.6732249    539.34376  0.033844362  0.034496711            2 
 1329000     1.070963   -6.6964579    539.67044   0.03383938   0.03448635            5 
 1330000    1.0344942   -6.7034628    538.82767  0.033761132  0.034475922            3 
 1331000    1.0324424   -6.7106423     539.0681   0.03375082  0.034465406            2 
 1332000    1.0332441   -6.6854681    538.90133  0.033715048  0.034454709            4 
 1333000    1.0404438   -6.6529857     541.6143  0.033859358  0.034444208            4 
 1334000    1.0267825    -6.635298    542.09064  0.033863733  0.034433851            3 
 1335000    1.0294967   -6.6772469    542.54503  0.033866731  0.034423543            4 
 1336000    1.0511116   -6.6754657    540.29199  0.033700848  0.034413237            2 
 1337000    1.0435177   -6.6837126    541.23955  0.033734701  0.034402822            5 
 1338000     1.032901   -6.6879363    542.18834  0.033768581  0.034392387            3 
 1339000    1.0201773   -6.6576394    541.98508  0.033730712  0.034381931            5 
 1340000    1.0549056   -6.6502435    541.61105  0.033682279  0.034371559            3 
 1341000    1.0446099   -6.6962006    542.09567  0.033687278  0.034361088            5 
 1342000    1.0380505   -6.6807728    541.69505  0.033637298  0.034350696            6 
 1343000     1.023911    -6.701741    542.74763  0.033677565  0.034340261            3 
 1344000    1.0404313    -6.725383    542.23453  0.033620692   0.03432983            2 
 1345000    1.0436387   -6.6243825    543.96655  0.033703008  0.034319425            3 
 1346000    1.0342305   -6.6628182    543.46681  0.033647029  0.034309295            2 
 1347000    1.0398399   -6.6546142    543.69172  0.033635964  0.034299047            1 
 1348000    1.0406813   -6.6807366    544.32434   0.03365012  0.034288729           10 
 1349000    1.0488931   -6.6563067    546.66307  0.033769648  0.034278497            5 
 1350000    1.0170738   -6.6853261    544.79877  0.033629554  0.034268165            4 
 1351000     1.036328   -6.6906286    545.19133  0.033628875  0.034257941            4 
 1352000    1.0242227   -6.6443455    546.17212  0.033664455  0.034247781            3 
 1353000    1.0433601   -6.6509418    545.14954  0.033576591   0.03423772            4 
 1354000    1.0415601   -6.7145214     546.9247  0.033661047  0.034227508            2 
 1355000    1.0353947   -6.6724951    546.47893   0.03360879   0.03421749            3 
 1356000    1.0144359   -6.6974475    548.56032  0.033711917  0.034207425            2 
 1357000    1.0665774    -6.691878    546.70044  0.033572859  0.034197361            2 
 1358000    1.0422664   -6.6941061    547.38781  0.033590317  0.034187235            8 
 1359000    1.0452142   -6.6413555    550.47765  0.033755068  0.034177252            5 
 1360000    1.0332392   -6.6988446    547.69965  0.033560028  0.034167325            2 
 1361000    1.0235881   -6.6971434    548.30608  0.033572501   0.03415746            3 
 1362000    1.0288757   -6.6599965    549.49775  0.033620763  0.034147542            2 
 1363000    1.0517625   -6.6704462    547.58317   0.03347904  0.034137393            4 
 1364000    1.0187553   -6.6766228    551.03136  0.033665161  0.034127337            2 
 1365000     1.019434   -6.7013632    550.19895  0.033589679  0.034117392            4 
 1366000    1.0223526   -6.6676041    550.22307  0.033566561  0.034107424            4 
 1367000    1.0392821   -6.7098607     548.1925  0.033418221  0.034097406            3 
 1368000    1.0332301    -6.654965    551.42996  0.033591006  0.034087606            4 
 1369000    1.0496338   -6.6595397    550.63563  0.033518117  0.034077779            4 
 1370000    1.0279983   -6.6731337    550.68853  0.033496869  0.034067833            6 
 1371000    1.0486225    -6.667695    550.91249   0.03348605  0.034058028            7 
 1372000    1.0163644   -6.6778572    552.50349  0.033558278  0.034048185            5 
 1373000    1.0364193   -6.6892323    554.09685  0.033630544    0.0340385            6 
 1374000    1.0386483   -6.6907062    553.03714  0.033541796  0.034028866            5 
 1375000    1.0263307    -6.646242    556.17293   0.03370745  0.034019384            6 
 1376000    1.0099439   -6.6536927    554.49177  0.033581139  0.034010083            5 
 1377000    1.0446921   -6.6739045    555.99884  0.033647957  0.034000884            2 
 1378000    1.0310635    -6.668543    554.00989  0.033503259  0.033991604            1 
 1379000    1.0328012   -6.6988311     554.7211  0.033521942  0.033982101            3 
 1380000     1.018797   -6.7285436    555.96447  0.033572733  0.033972637            5 
 1381000    1.0211375   -6.6769356    556.46587  0.033578679  0.033963262           10 
 1382000    1.0194666   -6.7078501    555.92712  0.033521896  0.033953687            3 
 1383000    1.0096889   -6.7228002    555.74386  0.033486615  0.033944068            4 
 1384000    1.0387516   -6.6663514    556.79406  0.033525654  0.033934543            3 
 1385000    1.0225377   -6.6958672    557.78945  0.033561339  0.033925191            3 
 1386000    1.0343851   -6.6932307    556.49617  0.033459366  0.033915858            5 
 1387000      1.01489   -6.6794752    557.64072  0.033504009   0.03390641            2 
 1388000    1.0152419   -6.6966829    558.39681  0.033525265  0.033896924            4 
 1389000    1.0663351   -6.7064364      558.031  0.033479181  0.033887548           12 
 1390000    1.0363023   -6.6960906    558.93065  0.033509031  0.033878227            3 
 1391000    1.0324508   -6.6736909    559.63434  0.033527099  0.033869071            1 
 1392000    1.0306237   -6.6887918    560.43971  0.033551228  0.033859844            5 
 1393000    1.0216552   -6.6947523    558.80053  0.033429082  0.033850578            6 
 1394000    1.0376646   -6.6831286    558.81407   0.03340591  0.033841239            2 
 1395000    1.0254888   -6.7144133    560.10771  0.033459242  0.033831944            3 
 1396000    1.0273918   -6.7015459    558.74949  0.033354196  0.033822606            7 
 1397000    1.0491934   -6.7093213     558.2462  0.033300298  0.033813249            7 
 1398000    1.0370989   -6.6681776    558.45287  0.033288798  0.033803728            2 
 1399000    1.0093735   -6.6855868    560.67803  0.033397547   0.03379431            2 
 1400000    1.0500139   -6.6652587    561.46132  0.033420317    0.0337849            5 
 1401000    1.0271225   -6.7384477    560.69271  0.033350744   0.03377536            3 
 1402000    1.0340111   -6.7238161    560.60807  0.033321925  0.033765857            8 
 1403000    1.0317377   -6.6838587    561.54774  0.033353988  0.033756468            3 
 1404000    1.0244093   -6.7026234    560.80343  0.033286053  0.033746915            4 
 1405000    1.0156282   -6.6625375    562.67703   0.03337349  0.033737479            3 
 1406000    1.0154763   -6.7188031    561.98442  0.033308702  0.033728171            5 
 1407000    1.0403892   -6.7006299    561.29414  0.033244145  0.033718743            2 
 1408000     1.023749   -6.6775182    563.42181  0.033346461  0.033709292            1 
 1409000    1.0011215   -6.6642613    564.12486  0.033364376  0.033699895            3 
 1410000     1.002022   -6.7064678    562.70812  0.033256981  0.033690423            5 
 1411000    1.0332248   -6.7066003    561.36147  0.033153878  0.033680916            3 
 1412000    1.0290318   -6.6839082    563.50761  0.033257059  0.033671413            9 
 1413000    1.0174869   -6.6851623    563.87845  0.033255393  0.033662071            4 
 1414000    1.0339827   -6.7203843    563.28577  0.033196945  0.033652864            9 
 1415000    1.0222214   -6.6867092    565.27106  0.033290404  0.033643689            4 
 1416000    1.0183969   -6.7188433    565.92059  0.033305119  0.033634653            2 
 1417000    1.0116955   -6.6915534    565.69462  0.033268326  0.033625628            3 
 1418000    1.0244869   -6.6945385    566.62495  0.033299539  0.033616515            4 
 1419000     1.025757   -6.6894663    566.68856  0.033279807  0.033607459            2 
 1420000    1.0305458   -6.7227138    566.56758  0.033249271  0.033598306            4 
 1421000    1.0043111   -6.6745048    569.54671  0.033400581   0.03358942            4 
 1422000    1.0191163   -6.7052116    567.73518  0.033270932   0.03358051            4 
 1423000    1.0333325    -6.706438    569.45809  0.033348448  0.033571663            6 
 1424000    1.0395833   -6.6873876    570.15814  0.033365996  0.033562708            6 
 1425000    1.0461324   -6.6975032    568.28719  0.033233169  0.033553933            3 
 1426000    1.0013102   -6.7120807    569.17369  0.033261669  0.033544893            3 
 1427000    1.0309915   -6.6996801    568.67456  0.033209213  0.033535908            4 
 1428000    1.0238571   -6.6907845    570.54345  0.033295019  0.033526856            4 
 1429000    1.0008022   -6.6681597    570.63409  0.033277005  0.033517877            6 
 1430000    1.0233163   -6.7189398    570.24588  0.033231112  0.033508769            3 
 1431000   0.99453396    -6.726303    569.22497  0.033148437  0.033499587            8 
 1432000    1.0116015    -6.704639    569.87457  0.033163092  0.033490521            3 
 1433000     1.020562   -6.6710613    572.42361  0.033288184  0.033481706            5 
 1434000    1.0367756    -6.691639    570.80409  0.033170856  0.033472957            3 
 1435000     1.033536   -6.7383972    571.73848  0.033202003   0.03346408            2 
 1436000    1.0159765   -6.6751056    572.75645  0.033237956  0.033455263            3 
 1437000    1.0083788   -6.7047443    572.94609  0.033225823  0.033446483            2 
 1438000    1.0168462   -6.7283719    571.51018  0.033119505  0.033437523            6 
 1439000    1.0063201   -6.7115644    572.36144  0.033145787  0.033428722            2 
 1440000    1.0398993    -6.661717    574.02093  0.033218804  0.033419827            3 
 1441000    1.0036077   -6.7129178    573.60265  0.033171562  0.033411155            2 
 1442000    1.0475351   -6.6884306    573.40964  0.033137404  0.033402492            3 
 1443000    1.0171985   -6.7025289    573.92874  0.033144418   0.03339369            3 
 1444000    1.0201835   -6.7091335    572.15596  0.033019157  0.033384787            8 
 1445000    1.0241187   -6.7177317    572.73262  0.033029563  0.033375893            5 
 1446000    1.0220499    -6.686385     575.8809  0.033188157  0.033367039            5 
 1447000    1.0129151   -6.7405922    574.76671  0.033101055  0.033358353            2 
 1448000    1.0038024   -6.6956036    575.00464  0.033091888  0.033349492            4 
 1449000    1.0214875   -6.7066747    575.87003  0.033118819  0.033340707            5 
 1450000    1.0146799   -6.6943311    576.03126  0.033105245   0.03333206            5 
 1451000    1.0046054   -6.7393083     575.7486  0.033066195  0.033323267            2 
 1452000    1.0199501   -6.7346718    575.02016  0.033001616  0.033314571            5 
 1453000     1.027272   -6.6817597    578.01912  0.033150901  0.033305676            3 
 1454000    1.0155735   -6.7089568    576.39883  0.033035238  0.033296708            9 
 1455000    1.0566363   -6.7183588    575.92599  0.032985452  0.033287669            5 
 1456000    1.0193813   -6.6713156    574.73074  0.032894388  0.033278568            3 
 1457000    1.0285663   -6.7034301    575.43244  0.032911945  0.033269496            3 
 1458000    1.0128458   -6.7021815    578.62663  0.033071938  0.033260447            5 
 1459000    1.0214185   -6.6831162    577.71566  0.032997239  0.033251453            3 
 1460000   0.99886659   -6.7363264    576.98732  0.032933066  0.033242395            3 
 1461000    1.0060496   -6.6935534    576.85334  0.032902883  0.033233029            6 
 1462000    1.0144466   -6.7213612    575.93575  0.032828075  0.033223872            4 
 1463000    1.0462855   -6.7088871     577.0241  0.032867629  0.033214777            8 
 1464000    1.0161547   -6.6978064    578.43456  0.032925464  0.033205729            5 
 1465000    1.0082976    -6.743884    576.41598  0.032788167  0.033196698            3 
 1466000    1.0102037   -6.7378199    577.89443  0.032849842  0.033187665            9 
 1467000    1.0061579    -6.723358    577.56947   0.03280899  0.033178484            2 
 1468000     1.035368   -6.6862378      578.281  0.032827032  0.033169257            4 
 1469000    1.0062647   -6.6935608    577.80013  0.032777407  0.033160069            2 
 1470000    1.0038927   -6.7271421    578.69992  0.032806118  0.033150707            5 
 1471000    1.0225343   -6.7080749    579.13007  0.032808184  0.033141465            2 
 1472000    1.0154767   -6.7279611    577.08316  0.032670016  0.033132041            5 
 1473000   0.98524617   -6.7310467     579.0165  0.032757213  0.033122666            3 
 1474000    1.0126402   -6.7600435    576.97046  0.032619316  0.033113125            4 
 1475000    1.0069452   -6.6964765    577.74419  0.032640915  0.033103508            3 
 1476000   0.99246039   -6.7444606    578.11019  0.032639464  0.033093772            2 
 1477000    1.0144425   -6.7079055    576.66923  0.032536066  0.033084096            3 
 1478000    1.0030793   -6.7380838    578.24877  0.032603111  0.033074387            4 
 1479000    0.9942393   -6.7264015    578.10229  0.032572813  0.033064748            5 
 1480000    1.0133565   -6.7030257    579.00115  0.032601416  0.033055215            3 
 1481000    1.0253135   -6.7634896    579.21537  0.032591457  0.033045642            3 
 1482000    1.0116831   -6.7080524    581.80709  0.032715199  0.033036131            6 
 1483000    1.0118646   -6.7309526     580.4496  0.032616858    0.0330267            2 
 1484000    1.0141329    -6.753377    580.81036  0.032615137  0.033017375            3 
 1485000     1.013459   -6.7411152    578.90605  0.032486311  0.033007943            4 
 1486000    1.0069293   -6.7179581    580.12177  0.032532625  0.032998463            3 
 1487000    1.0099854   -6.7030623    580.87368  0.032552885  0.032989027            5 
 1488000   0.98887946   -6.7331344    581.97799  0.032592853  0.032979647            2 
 1489000    1.0239908   -6.6718512    584.06589  0.032687815  0.032970344            3 
 1490000    1.0331903   -6.7126618    583.42846  0.032630227  0.032961033            2 
 1491000    1.0025386   -6.7351609    581.63769  0.032508254  0.032951731            5 
 1492000    1.0058697   -6.7144796    582.45711  0.032532233    0.0329424            4 
 1493000     1.020883   -6.7109986    582.78588  0.032528794  0.032933019            2 
 1494000    1.0220584    -6.729778    582.61716   0.03249761  0.032923637            5 
 1495000   0.99660131   -6.7322652    583.69901  0.032536177  0.032914162            4 
 1496000    1.0226936   -6.6948043    583.90654  0.032525988  0.032904659            3 
 1497000    1.0104357   -6.7157684    584.85741  0.032557193  0.032895243            3 
 1498000   0.99238835   -6.6999495    583.73912  0.032473249  0.032885839            6 
 1499000    1.0234778   -6.7811694    584.96402  0.032519681  0.032876469            7 
 1500000    1.0274594   -6.7182708    584.55024  0.032475013  0.032867205           11 
 1501000   0.99972907   -6.6972022    585.85663  0.032525907  0.032857856            6 
 1502000    1.0188061   -6.7407668    584.80646  0.032445986  0.032848479            4 
 1503000     1.004364   -6.7460622    586.02329  0.032491865  0.032839189            5 
 1504000    1.0189364   -6.6841721    586.36088  0.032488967  0.032829933            3 
 1505000    1.0062321   -6.7355539    585.03622  0.032394032   0.03282062            4 
 1506000   0.98556581   -6.7272172    584.13398  0.032322597  0.032811268            3 
 1507000    1.0164957   -6.7078751    584.54405  0.032323825  0.032801731            3 
 1508000    1.0153072   -6.7555871    586.65875   0.03241925  0.032792334            3 
 1509000    1.0286655   -6.7709229    586.02892  0.032362984  0.032782902            7 
 1510000     1.012602    -6.707975    588.46822  0.032476171  0.032773556            4 
 1511000   0.99401865   -6.7191106     587.3033  0.032390431  0.032764199            4 
 1512000    1.0131015   -6.7271716    586.14774  0.032305321  0.032754748            5 
 1513000    1.0000815   -6.7359134     586.8928  0.032325006  0.032745261            4 
 1514000    1.0139826   -6.7221515    588.90018  0.032414144  0.032735723            4 
 1515000    1.0406717   -6.7468877      587.783  0.032331298  0.032726348            4 
 1516000    1.0126987   -6.7098605      588.852  0.032368733   0.03271702            4 
 1517000   0.99396936   -6.7386136    588.69244  0.032338631  0.032707641            4 
 1518000    1.0099093     -6.73017    588.31295  0.032296495   0.03269827            8 
 1519000    1.0169861   -6.7167862    590.49904  0.032395163  0.032689045            3 
 1520000   0.99860295   -6.7236077    589.60662  0.032324924  0.032679771            3 
 1521000   0.99753836   -6.7380824    589.56005   0.03230112  0.032670514            4 
 1522000    1.0350797   -6.7403749    589.93156  0.032300239  0.032661223            3 
 1523000    1.0020644   -6.7542508     589.5846  0.032260046  0.032651939            9 
 1524000   0.99838322   -6.7130197    591.30323  0.032332854  0.032642711            2 
 1525000   0.99455027   -6.7308353    591.80572  0.032339111   0.03263353            4 
 1526000    1.0095772   -6.7227166    591.45296  0.032298654  0.032624354            4 
 1527000   0.99745154   -6.7346097    590.63833  0.032233046   0.03261503            3 
 1528000   0.99677646   -6.7058707     591.3687  0.032251783  0.032605693            3 
 1529000    1.0130501   -6.7297243    592.65676  0.032300892   0.03259652            4 
 1530000    1.0024932   -6.7248668    593.54645  0.032328238  0.032587274            4 
 1531000   0.98558759   -6.7627882     591.6655  0.032204741  0.032578051            3 
 1532000    1.0079725   -6.7328864    593.15333   0.03226465  0.032568881            5 
 1533000    0.9971074   -6.6958377    595.55433  0.032374121   0.03255984            2 
 1534000    1.0185566   -6.7614187    592.01175  0.032160569  0.032550591            4 
 1535000   0.99628184   -6.7381746    592.97288  0.032191796  0.032541394            3 
 1536000     1.000789    -6.713955    594.07334  0.032230541   0.03253223            4 
 1537000    1.0020488   -6.7555457    592.14379  0.032104955  0.032523172            4 
 1538000    1.0004507   -6.7538201    592.61552   0.03210964  0.032513989            8 
 1539000     1.020925   -6.7346735    594.38694  0.032184695  0.032504826            3 
 1540000    1.0131507   -6.7712114     594.7396  0.032182879  0.032495895            4 
 1541000    1.0122792   -6.7205799    593.76101  0.032109075  0.032486763            3 
 1542000     1.017939   -6.7486341      595.456  0.032179853   0.03247787            3 
 1543000    1.0081196   -6.7365424    597.72532  0.032281558  0.032468799            2 
 1544000    1.0067913   -6.7922734    595.99458  0.032167238  0.032459737            7 
 1545000    1.0258402   -6.7303226    595.48313  0.032118831  0.032450708            3 
 1546000   0.99420784    -6.736352    596.44122  0.032149699   0.03244165            3 
 1547000   0.98919605   -6.7527368    596.28381  0.032120438  0.032432503            6 
 1548000    1.0066544   -6.7745678    595.35441  0.032049656  0.032423267            3 
 1549000    1.0000416   -6.7160303     596.8496  0.032109404  0.032414003            3 
 1550000    1.0172499   -6.7245146    596.93097  0.032093063  0.032404861            3 
 1551000    1.0105331   -6.7511241    599.56815  0.032214064  0.032395703            3 
 1552000   0.99601099   -6.7518075    596.76965  0.032043044  0.032386456            2 
 1553000   0.98974101   -6.7786595    596.49451  0.032007647  0.032377171            6 
 1554000    1.0042319   -6.7388426    598.08494  0.032072337  0.032367913            5 
 1555000    1.0047621   -6.7258544    599.34689   0.03211934  0.032358869            3 
 1556000    1.0118422   -6.7500247    598.66185   0.03206201  0.032349859            6 
 1557000    0.9857115   -6.7342483    599.23464  0.032072074  0.032340618            4 
 1558000    1.0046063   -6.7506266    598.50529  0.032012478  0.032331558            3 
 1559000   0.99923812   -6.7070483    598.46866  0.031989986  0.032322508            5 
 1560000   0.99906455   -6.7479124    595.96202  0.031835578  0.032313395            3 
 1561000   0.98769983   -6.7366835    598.40736  0.031945727  0.032304238            2 
 1562000    1.0060263   -6.7157063      600.619  0.032043267  0.032295086            3 
 1563000    1.0118454   -6.7584477     599.8078  0.031979516  0.032285968            2 
 1564000   0.99829145   -6.7921667    600.25824  0.031983069  0.032277021            6 
 1565000     1.004092   -6.7479363    602.50165   0.03208209  0.032268044            8 
 1566000   0.99485238   -6.7778059    601.47036  0.032006724  0.032258979            3 
 1567000   0.98220527   -6.7354211    603.43422  0.032090737  0.032250069            3 
 1568000   0.99195871   -6.7530755    601.79892  0.031983361  0.032241141            3 
 1569000   0.99419183   -6.7489409    601.23567  0.031933061  0.032232153            8 
 1570000    1.0034838   -6.7505267     602.7091  0.031990929  0.032223157            4 
 1571000   0.98903757   -6.7431474    601.89573   0.03192742  0.032214265            2 
 1572000    0.9714362   -6.7772461    602.85448  0.031957935  0.032205336            5 
 1573000   0.97411789   -6.7385447    602.23481  0.031904789  0.032196391            2 
 1574000    1.0062577   -6.7550685    602.89061   0.03191924  0.032187413            3 
 1575000    1.0062728   -6.7553913    602.35333  0.031870546  0.032178338            3 
 1576000   0.98628423   -6.7599315    601.21673  0.031790225  0.032169096            3 
 1577000    1.0024644   -6.7291052    602.40734  0.031832982  0.032159882            5 
 1578000    1.0129418   -6.7274524    605.46498  0.031974281   0.03215077            7 
 1579000   0.98621873   -6.7542006    602.48312   0.03179666  0.032141746            2 
 1580000   0.99870578   -6.7390219     605.6648  0.031944346  0.032132615            3 
 1581000    1.0032457   -6.7472886    602.28763  0.031746133  0.032123569            6 
 1582000    0.9833329   -6.7804116    604.51035   0.03184315  0.032114594            3 
 1583000    1.0004845   -6.7551013    602.38904  0.031711362  0.032105457            6 
 1584000   0.98016022    -6.752351    604.34658  0.031794328  0.032096336            3 
 1585000   0.98165322   -6.7368903    605.71787  0.031846365  0.032087308            5 
 1586000   0.98914822   -6.7559523    605.76969  0.031829008  0.032078143            3 
 1587000    0.9903149   -6.7636451    604.63674  0.031749461  0.032069104            3 
 1588000    1.0212269   -6.7409312    606.29176  0.031816318  0.032059988            3 
 1589000    0.9880688   -6.7488828    605.47563  0.031753494  0.032050895            8 
 1590000    1.0112195   -6.7436897    607.50675  0.031839976  0.032041993            3 
 1591000   0.99710124   -6.7533585    608.45776  0.031869776  0.032033025            4 
 1592000   0.99278644   -6.7763072    606.51842  0.031748242  0.032024098            2 
 1593000    1.0064006   -6.7587446    607.55418  0.031782495  0.032015234            3 
 1594000    1.0152472   -6.7445736    608.16175   0.03179432  0.032006264            6 
 1595000   0.99564215   -6.7691402     607.4259   0.03173594  0.031997339            3 
 1596000   0.99925894   -6.7604669    608.44706  0.031769375  0.031988253            3 
 1597000     1.012236   -6.7724503    609.00647  0.031778672  0.031979256            2 
 1598000    1.0026946   -6.7411731    608.13407  0.031713291  0.031970413            6 
 1599000    1.0071204   -6.7723578    609.82984  0.031781835  0.031961515            4 
 1600000    1.0182342   -6.7709754    608.63629  0.031699807  0.031952613            4 
 1601000   0.98489608   -6.7794556    609.77491  0.031739273  0.031943836            4 
 1602000    1.0323122   -6.7521512    609.71867  0.031716535  0.031934993            2 
 1603000   0.99237744   -6.7603377    610.54702  0.031739812   0.03192611            4 
 1604000   0.98624823    -6.742493    609.60423  0.031671043  0.031917291            3 
 1605000   0.99672618   -6.7546448    609.16221   0.03162836  0.031908494            3 
 1606000   0.98579335   -6.7504052    610.60097  0.031683322  0.031899732            4 
 1607000   0.99026699   -6.7648253    610.37207  0.031651736  0.031890916            4 
 1608000   0.97951623   -6.7696452    610.68812  0.031648431  0.031882156            5 
 1609000   0.98413128   -6.7390778      611.727  0.031682567  0.031873351            9 
 1610000   0.99260185   -6.7440263    612.07427  0.031680863  0.031864617            2 
 1611000   0.98296333   -6.8062097    611.24182  0.031618137  0.031855781            4 
 1612000    1.0064974   -6.8014032    611.17444  0.031595039     0.031847            5 
 1613000     1.000029   -6.7750863    613.72984  0.031707473  0.031838288            2 
 1614000   0.99318166   -6.7151268    611.97883   0.03159742  0.031829708            6 
 1615000   0.95861713   -6.7887444    611.47258  0.031551733  0.031820994            3 
 1616000   0.98372966   -6.7439144    615.06579  0.031717502  0.031812319            2 
 1617000    1.0039729   -6.7878593    613.99559  0.031642733  0.031803763            2 
 1618000   0.97473634   -6.8008781    614.33798   0.03164081  0.031795148            3 
 1619000   0.98771031    -6.805975    614.40673  0.031624806  0.031786577            4 
 1620000    1.0192167   -6.7408204     615.5326  0.031663199  0.031777957            4 
 1621000   0.97325919    -6.759646    615.17372  0.031625217  0.031769545            5 
 1622000    0.9828021   -6.7777049    615.44053  0.031619427  0.031760959            4 
 1623000   0.98096589   -6.8015154    615.69561  0.031613042   0.03175244            9 
 1624000   0.99156414   -6.7670591    616.90552  0.031655661  0.031743888            4 
 1625000   0.99203964   -6.7205717    617.24155  0.031653413  0.031735357            9 
 1626000   0.99521905   -6.7665457    615.46427  0.031542859  0.031726849            5 
 1627000   0.99456997   -6.7861007    616.75528  0.031589596  0.031718205            5 
 1628000   0.97944405   -6.7503797     617.2653  0.031596299  0.031709607            8 
 1629000    1.0010313   -6.7510949     617.5594  0.031591948  0.031701025            3 
 1630000     1.005178    -6.777286    617.81499  0.031585633  0.031692429            4 
 1631000    0.9727701   -6.7761866    617.11846  0.031530679  0.031683821            2 
 1632000   0.97857877   -6.7801195    618.12533  0.031562772  0.031675211            4 
 1633000    1.0053398   -6.7583695    618.40889  0.031557914  0.031666703           10 
 1634000    1.0019431   -6.7740308    617.36381  0.031485303  0.031658229            3 
 1635000   0.98807955   -6.7641673    617.73426  0.031484927  0.031649791            5 
 1636000     1.005267   -6.8003658    618.30324  0.031494664  0.031641369            3 
 1637000    0.9792192    -6.779024    619.75706  0.031549433  0.031633067            5 
 1638000     0.993553   -6.7661905    620.23026  0.031554246  0.031624751            3 
 1639000   0.99427227   -6.7703196    619.69597  0.031507829  0.031616404            3 
 1640000   0.99856509   -6.7869765    620.95319  0.031552499  0.031608074            4 
 1641000    1.0042878   -6.7671262    621.81015   0.03157679  0.031599763            7 
 1642000   0.99821969   -6.8031414    619.30592  0.031430467  0.031591313           13 
 1643000   0.97381502   -6.7596675    622.02557  0.031549278  0.031582923            3 
 1644000     1.015295   -6.8273067    619.52875  0.031403525  0.031574609            5 
 1645000   0.97581166   -6.7951379    620.58023  0.031437702  0.031566357            2 
 1646000   0.99944672   -6.8002182    622.39318  0.031510388   0.03155808            6 
 1647000   0.97817605   -6.7879022    621.88674  0.031465631  0.031549811            5 
 1648000   0.98368795   -6.7912572      622.426  0.031473807   0.03154151            5 
 1649000   0.98470334   -6.7770264    620.23155  0.031343822  0.031533208            5 
 1650000    1.0113593   -6.7892664    622.68353  0.031448663  0.031524844            2 
 1651000    1.0049538    -6.789287    622.05514  0.031397897  0.031516572            4 
 1652000   0.97685281   -6.7937006    622.34077    0.0313933   0.03150831            4 
 1653000   0.97458558   -6.7778812    624.34343  0.031475269  0.031500093            2 
 1654000   0.99410551   -6.7867538    624.27387  0.031452734  0.031491927            2 
 1655000    1.0058129   -6.8095624     623.6088  0.031400241  0.031483712            4 
 1656000   0.99970368   -6.7799742    625.47737   0.03147531  0.031475564            3 
 1657000   0.99973319   -6.7860747    624.33223  0.031398724  0.031467449            5 
 1658000   0.98808369   -6.7882142    624.59896  0.031393192  0.031459103            4 
 1659000   0.98601449   -6.7996285    623.42693  0.031315398   0.03145072            3 
 1660000   0.97480903   -6.7729257    624.32041  0.031341386  0.031442298            4 
 1661000   0.98541987   -6.8059457    623.35648  0.031274156  0.031433887            7 
 1662000     1.008142   -6.7625847    627.36402  0.031456279  0.031425552            2 
 1663000   0.97331033   -6.8005873    625.48375  0.031343142  0.031417226            3 
 1664000   0.97897731   -6.7696432    628.57551  0.031479142  0.031408884            3 
 1665000    0.9688593   -6.7653337    624.49067  0.031255789  0.031400552            3 
 1666000   0.99045599   -6.7574275    625.34736   0.03127988  0.031392155            5 
 1667000   0.99377669   -6.8049782    626.65391   0.03132643  0.031383767            5 
 1668000    0.9801992   -6.7801929    628.12685  0.031381237  0.031375542            3 
 1669000   0.98763625   -6.7860099    627.76431  0.031344333  0.031367217            8 
 1670000    0.9827715   -6.7877386    627.28714  0.031301753  0.031359021            2 
 1671000   0.97674732   -6.7456246    629.40749  0.031388764  0.031350806            5 
 1672000   0.99054587   -6.7756247    628.66243  0.031332856  0.031342606            3 
 1673000   0.99864086   -6.7655171    629.40157  0.031350945    0.0313344            4 
 1674000    1.0160087    -6.791631     627.7078  0.031247899  0.031326218            6 
 1675000   0.97147714     -6.77798    628.00188  0.031243875  0.031317934            5 
 1676000   0.99715625   -6.8002987    626.95238   0.03117305  0.031309615            4 
 1677000    0.9876533   -6.7984312    628.19372  0.031216146  0.031301358            6 
 1678000   0.98497133   -6.8028243    628.47621  0.031211572  0.031293046            9 
 1679000   0.97901751   -6.7930525    630.16557   0.03127683  0.031284725            3 
 1680000   0.98730005   -6.7990152    630.06165  0.031253058  0.031276431            5 
 1681000   0.99074085   -6.8012853    628.35075   0.03114965  0.031268129            4 
 1682000    1.0015783   -6.7849008    628.14458  0.031120917  0.031259795            4 
 1683000   0.98534406   -6.7995506    629.56614  0.031172813  0.031251495            3 
 1684000   0.95553862   -6.8117112    633.41886  0.031344955   0.03124334            2 
 1685000   0.97649108    -6.809612    629.37518  0.031126369  0.031235072            7 
 1686000   0.98913375    -6.789426     629.7348  0.031125682  0.031226831            2 
 1687000   0.98184828   -6.7971698    630.10213  0.031125377  0.031218596            1 
 1688000   0.97744365   -6.7853963    630.81757  0.031142258  0.031210456            5 
 1689000   0.98213459   -6.8053354     633.1238  0.031237606  0.031202231            4 
 1690000   0.99605203   -6.7858682    632.45832  0.031186308  0.031194098            5 
 1691000   0.99127869   -6.8165238    631.69953  0.031130472  0.031185868            3 
 1692000    0.9576751   -6.7997597    632.15268  0.031134391  0.031177548            3 
 1693000   0.96016959   -6.8053861    631.47633   0.03108271  0.031169148            7 
 1694000   0.98722845   -6.8244319     631.4961  0.031065333  0.031160845            3 
 1695000   0.98087036   -6.7829809    630.29981  0.030988191  0.031152433            6 
 1696000   0.96920732    -6.800168    631.75677  0.031041508  0.031144089            4 
 1697000    0.9803817   -6.8227561    631.96298  0.031033342  0.031135746            3 
 1698000   0.98338905   -6.7982961    632.50109  0.031041475  0.031127433            5 
 1699000   0.98915024   -6.7949885    631.82562  0.030990073  0.031118998            3 
 1700000   0.98437168   -6.7969708    633.69224  0.031063345  0.031110765            3 
 1701000   0.95757022   -6.7547993    635.56573  0.031136867  0.031102563            2 
 1702000   0.97118839   -6.7929646    634.78942  0.031080563  0.031094372            3 
 1703000   0.97644976   -6.7918824    633.20759  0.030984908  0.031086085            3 
 1704000   0.98378365   -6.7758675    635.77654  0.031092358  0.031077927            3 
 1705000   0.96810165    -6.806802    634.75425  0.031024157  0.031069703            4 
 1706000   0.97920088   -6.8119242    635.66323  0.031050373  0.031061538            3 
 1707000   0.98755637   -6.7867868    639.63286  0.031225974  0.031053489            2 
 1708000   0.98909907   -6.7925845    636.44078  0.031051951  0.031045478            4 
 1709000   0.98781886   -6.8015601    635.98264  0.031011441  0.031037393            4 
 1710000   0.96553803   -6.8089955     635.0996  0.030950273  0.031029458            3 
 1711000   0.97887814    -6.788999    637.69873  0.031058773  0.031021461            4 
 1712000   0.96152203   -6.8071544    637.42965  0.031027534  0.031013473            4 
 1713000   0.97408519   -6.7852448    636.16557  0.030947926   0.03100548            6 
 1714000   0.97314733   -6.7965508    637.71319  0.031005114  0.030997447            4 
 1715000   0.96857658   -6.7984323     637.9089  0.030996545  0.030989523            3 
 1716000   0.96852914   -6.8014388    638.07898  0.030986741  0.030981541            2 
 1717000   0.97774108   -6.7902694    639.75374  0.031049977   0.03097365            3 
 1718000     1.002577   -6.7560977    639.84536  0.031036348  0.030965777            6 
 1719000   0.97565287   -6.7796522    639.17994  0.030986035  0.030957963            5 
 1720000    0.9672486   -6.8191344    639.14205  0.030966185   0.03095012            3 
 1721000   0.99652068   -6.7679822    640.49221  0.031013568  0.030942336            5 
 1722000   0.98356471   -6.7820764    639.96351  0.030969972  0.030934489            4 
 1723000   0.98335327   -6.7887987    641.98766  0.031049896  0.030926685            8 
 1724000   0.96761131   -6.7957116    643.37632   0.03109901  0.030918947            3 
 1725000   0.99757489    -6.791766    641.96963  0.031013026  0.030911081            3 
 1726000   0.99114193   -6.7893004    643.39359  0.031063808  0.030903255            3 
 1727000   0.97979935   -6.7988357    640.30555  0.030896813  0.030895351            5 
 1728000   0.99276285   -6.7959911    640.87107  0.030906205  0.030887501            5 
 1729000   0.96856915   -6.7991178    642.80139  0.030981367  0.030879588            7 
 1730000   0.99826086   -6.8084573    641.64034  0.030907531  0.030871751           11 
 1731000   0.93729704   -6.7958264    644.22994  0.031014344  0.030863907            5 
 1732000   0.97320288    -6.789261      643.435  0.030958189  0.030856232            1 
 1733000   0.98163258   -6.7433963    642.11144   0.03087668   0.03084856            5 
 1734000   0.98634084   -6.8034852    644.66513    0.0309816  0.030840761            7 
 1735000   0.96591595    -6.780492    644.11619  0.030937377  0.030833043            5 
 1736000   0.96356377   -6.7969222    644.89561   0.03095697  0.030825326            2 
 1737000   0.96963951   -6.7787996    644.07679  0.030899865  0.030817557            4 
 1738000   0.96405246   -6.8077471    642.54536  0.030808657  0.030809599            3 
 1739000   0.94996798   -6.8246489    643.35414  0.030829698  0.030801724            7 
 1740000   0.97680215   -6.7992391    643.62269  0.030824841  0.030793862            3 
 1741000   0.96759806   -6.8237993    643.96499  0.030823521  0.030786044            2 
 1742000   0.97743034   -6.8034305    644.27873  0.030820835  0.030778195            4 
 1743000   0.97438629   -6.8153555     646.4062  0.030904867  0.030770431            4 
 1744000   0.95880365   -6.7846991    647.31965  0.030930793  0.030762668           10 
 1745000   0.97316676   -6.7925736    646.52872  0.030875297  0.030754909            3 
 1746000   0.98914657   -6.7997619    646.20402  0.030842116  0.030747158            4 
 1747000    0.9644158    -6.781159    647.70518  0.030896068  0.030739475            5 
 1748000   0.96898794    -6.841457    646.65338  0.030828251  0.030731725            6 
 1749000   0.97616829   -6.8009673    648.43464  0.030895495  0.030724113            2 
 1750000   0.96790882   -6.8059508    649.23882  0.030916134  0.030716447            3 
 1751000   0.97704014   -6.8116429    647.04449  0.030794046  0.030708706            8 
 1752000   0.96289941   -6.8092382    648.18749  0.030830835  0.030701198            6 
 1753000    0.9585442   -6.8166229    649.53748  0.030877423  0.030693557            4 
 1754000   0.95829159   -6.8378225    649.31905  0.030849442  0.030685977            7 
 1755000   0.97210776   -6.8162956    649.41131  0.030836244  0.030678279            4 
 1756000   0.97488375    -6.802966    649.23759   0.03081044  0.030670671            4 
 1757000   0.97663675   -6.8050082    650.41913  0.030848944  0.030663042            3 
 1758000   0.98714569    -6.807647    649.64173  0.030794546  0.030655526            4 
 1759000    0.9596236   -6.8358673    649.19446  0.030755849  0.030647964            3 
 1760000   0.97361369   -6.8091396    649.13778   0.03073569  0.030640281            2 
 1761000   0.98529708   -6.8269049    651.32704  0.030821836  0.030632749            4 
 1762000   0.98128333   -6.8180469    650.47958  0.030764263  0.030625102            5 
 1763000   0.98674953   -6.8274912    650.23296  0.030735156  0.030617477            6 
 1764000   0.96022187   -6.8343709    649.25959  0.030671749  0.030609884            3 
 1765000   0.95663323    -6.805916    653.55011  0.030856946  0.030602259            3 
 1766000   0.96540443   -6.8245421    650.97131  0.030717785  0.030594678            2 
 1767000   0.96132616    -6.817726    650.76537  0.030690689   0.03058711            7 
 1768000   0.95299674   -6.8185177    649.66092  0.030621273  0.030579573            2 
 1769000    0.9810968   -6.7707887    652.64512  0.030744541  0.030572033            3 
 1770000   0.97044195   -6.8091457    653.01014  0.030744357  0.030564491            3 
 1771000    0.9628461   -6.8059856    654.65335  0.030804317  0.030556952            4 
 1772000   0.95439762   -6.8160566    655.11302   0.03080855  0.030549357            3 
 1773000   0.98314342   -6.7781699    654.40334  0.030757818  0.030541828            3 
 1774000   0.97812421    -6.788223    653.64154  0.030704695  0.030534348            5 
 1775000   0.97246432   -6.8285826    655.05523  0.030753767  0.030526818            3 
 1776000   0.96870666   -6.8093207    654.97383  0.030732631  0.030519442            4 
 1777000   0.96435645   -6.8336958     652.1514  0.030582977  0.030511865            5 
 1778000   0.94556138   -6.8013348    653.86144  0.030645924  0.030504295            7 
 1779000   0.94947702   -6.7787083    655.16288  0.030689661  0.030496777            3 
 1780000   0.95721265   -6.8092407    656.70814  0.030744763  0.030489263            2 
 1781000   0.98024604   -6.8220229    656.23628  0.030705422  0.030481804            5 
 1782000   0.96341302   -6.8205269    655.11914   0.03063595  0.030474378            5 
 1783000   0.96156389   -6.8118291    655.44469  0.030633983  0.030466946            4 
 1784000   0.95793006   -6.8206586    655.21078  0.030605885  0.030459423            4 
 1785000   0.97694832   -6.8371276    656.81988   0.03066386  0.030451956            2 
 1786000   0.95416422   -6.8188299    654.67909  0.030546803  0.030444551            7 
 1787000   0.98489517   -6.8182198    655.06395  0.030547656  0.030437085            3 
 1788000   0.94523959   -6.7865394    656.20168  0.030583598   0.03042975            4 
 1789000   0.94825596   -6.7871442    658.09139  0.030654527  0.030422364            7 
 1790000   0.97077938   -6.8417605    657.58143  0.030613661  0.030414974            3 
 1791000   0.95258392   -6.8233374     657.1619  0.030577047  0.030407628            3 
 1792000   0.94814674   -6.8031524     657.6482  0.030582599  0.030400169            6 
 1793000   0.97719435   -6.8274341    656.26014  0.030501029  0.030392733            9 
 1794000   0.98187501   -6.8057011    657.44128  0.030538893  0.030385329            3 
 1795000    0.9671026   -6.7939658    657.81745  0.030539343  0.030377899            2 
 1796000    0.9688073   -6.8229711    659.27674  0.030590049  0.030370508            5 
 1797000   0.98281291   -6.8090004    659.70795  0.030593023   0.03036317           11 
 1798000   0.96214752   -6.8264808    658.36541  0.030513784  0.030355809           12 
 1799000    0.9559265    -6.835136    659.36608  0.030543176  0.030348398            3 
 1800000   0.97898338   -6.8681206     657.5244  0.030440944  0.030340951            8 
 1801000   0.95724929   -6.7959986    660.16597  0.030546269  0.030333568            7 
 1802000   0.98148965   -6.8201543    660.06796  0.030524785  0.030326202            3 
 1803000   0.96247803   -6.8543161    658.69418   0.03044436  0.030318686            3 
 1804000   0.96508974   -6.8501662    659.82765  0.030479844   0.03031117            8 
 1805000   0.98704984   -6.8416521    659.34391  0.030440624  0.030303674            7 
 1806000    0.9819623    -6.792599    661.37697  0.030517579  0.030296221            4 
 1807000    0.9845904   -6.8258139    661.05533  0.030485857   0.03028881            2 
 1808000   0.96386082   -6.7779605    662.62067  0.030541144  0.030281458            6 
 1809000   0.98374223   -6.8188924    661.05776  0.030452264  0.030274157            5 
 1810000    0.9495234   -6.8182073    662.00869  0.030479222  0.030266781            2 
 1811000   0.96033246   -6.8151009    660.63359  0.030399116  0.030259428            5 
 1812000   0.95529196   -6.8038062     663.0807  0.030494881  0.030252068            3 
 1813000   0.97308828   -6.8177211    662.94048  0.030471616  0.030244728            6 
 1814000   0.95808193   -6.8404906     663.6071  0.030485442  0.030237286            2 
 1815000    0.9795209   -6.8001687    661.80408  0.030385862  0.030229984            8 
 1816000   0.95885025   -6.8234657    664.17561  0.030477956  0.030222699            2 
 1817000   0.93724953    -6.838713    663.97156  0.030451823  0.030215321           10 
 1818000   0.97723528   -6.8243205    663.83701  0.030428906  0.030207925            4 
 1819000   0.97262121    -6.810852    664.95617  0.030463449   0.03020071           13 
 1820000   0.95915817   -6.8650275    664.49435  0.030425565  0.030193414            4 
 1821000   0.93184613    -6.809621    664.37063  0.030403195  0.030186085            8 
 1822000   0.96262376     -6.84862    664.08347  0.030373375   0.03017881            3 
 1823000   0.96586663   -6.8307212    664.17776  0.030361024  0.030171533            3 
 1824000   0.94854538   -6.8528879    665.95951  0.030425782   0.03016432            4 
 1825000   0.96013824   -6.8361221    667.28896  0.030469815  0.030157054            3 
 1826000   0.98091496   -6.8304259    666.67773  0.030425234  0.030149852            3 
 1827000   0.94685584   -6.8283577    665.55876  0.030357542    0.0301426            3 
 1828000   0.94645603   -6.8301562    665.63452  0.030344389  0.030135353            5 
 1829000   0.96588697   -6.7958095    667.33989  0.030405499  0.030128167            6 
 1830000    0.9735177   -6.8230175    667.87386    0.0304132  0.030120953            5 
 1831000   0.95477851   -6.8375126    667.08961  0.030360896  0.030113771            2 
 1832000   0.97698964   -6.8497415    668.23739  0.030396533  0.030106561            4 
 1833000   0.95783088   -6.8241502    669.87427  0.030454367  0.030099484            3 
 1834000   0.97789729   -6.8221487      670.509  0.030466603   0.03009251            4 
 1835000   0.94182511   -6.8382206    668.70673  0.030368153  0.030085527            2 
 1836000   0.93403137   -6.8092042    669.41107  0.030383582  0.030078449            5 
 1837000   0.94687987   -6.8329067    669.26994   0.03036064  0.030071317            5 
 1838000   0.95052483    -6.839509    669.48412  0.030353832  0.030064112            4 
 1839000   0.95531403   -6.8419069     669.2391  0.030326224  0.030056906            4 
 1840000   0.96602327   -6.8510633    669.70651  0.030330911  0.030049753            3 
 1841000   0.97065439   -6.8253136    670.25592  0.030339305  0.030042625            4 
 1842000   0.95615703   -6.8465322    669.06339  0.030268883  0.030035495            4 
 1843000   0.94931613    -6.816368    670.67506  0.030325333  0.030028385            4 
 1844000   0.93987153   -6.8364282    671.18136  0.030331768  0.030021316            3 
 1845000   0.95302815   -6.8398537    672.24153  0.030363213  0.030014332            3 
 1846000   0.94608041   -6.8551586    671.88479  0.030330661  0.030007287            4 
 1847000   0.96978753   -6.8223412    672.04429  0.030321435  0.030000214            5 
 1848000   0.96610445   -6.8114359    673.58983  0.030374722  0.029993149            7 
 1849000    0.9703987   -6.8622518    670.61176  0.030224074  0.029986022            4 
 1850000   0.95363124   -6.8332781    670.87038  0.030219387  0.029978877            4 
 1851000   0.95724408   -6.8445022    672.16501  0.030261346   0.02997162            4 
 1852000   0.94658341   -6.8245775    673.34562  0.030298129  0.029964401            6 
 1853000   0.93109308   -6.8705235    673.01628  0.030266967  0.029957221            2 
 1854000    0.9511581   -6.8681549    672.41202  0.030223482  0.029950146            3 
 1855000   0.94513554   -6.8171192    674.04303  0.030280459  0.029943012            4 
 1856000   0.95707365   -6.8164316    673.68047  0.030247866  0.029935956            4 
 1857000   0.97538292   -6.8442855    672.44849  0.030176292  0.029928902            4 
 1858000   0.96798901   -6.8650825    670.69723  0.030081505   0.02992171            6 
 1859000   0.93544603   -6.8568402    673.20953  0.030177942  0.029914505            2 
 1860000   0.97234267   -6.8212001    674.82652  0.030234163  0.029907425            2 
 1861000   0.94869694   -6.8244264    673.83599  0.030173562  0.029900294            5 
 1862000   0.96118265   -6.8310908     674.2994  0.030178097  0.029893085            3 
 1863000   0.97102914   -6.8433841    674.59206  0.030174989  0.029885835            4 
 1864000   0.94527162   -6.8551923    674.15961  0.030139467  0.029878618            6 
 1865000   0.98019651   -6.8418167    673.10889  0.030076358  0.029871376            6 
 1866000   0.96010164   -6.8201771    673.93399  0.030097088  0.029864153            5 
 1867000   0.97201777   -6.8605742    674.99564  0.030128354  0.029856906            3 
 1868000   0.95450393   -6.8716017    672.49912  0.030000853  0.029849591            2 
 1869000   0.95921926   -6.8519819    674.13412  0.030057701  0.029842367            6 
 1870000   0.95421664   -6.8478634    672.81545  0.029982863  0.029835029            2 
 1871000   0.97677662   -6.8570866    673.92754   0.03001637  0.029827738            7 
 1872000   0.94979896   -6.8154018    675.54047  0.030072136  0.029820489            7 
 1873000   0.93907077   -6.8654194    676.15964  0.030083629  0.029813281            9 
 1874000   0.96052001   -6.8555946    675.10658  0.030020748  0.029805956            7 
 1875000   0.95330841   -6.8572273    674.67896  0.029985732  0.029798643            3 
 1876000   0.94679212   -6.8243337    676.67515   0.03005842  0.029791313            9 
 1877000   0.95394937   -6.8633256     676.4718  0.030033378  0.029784074           14 
 1878000   0.95300512   -6.8386589    675.64251  0.029980587  0.029776814            3 
 1879000   0.93701142   -6.8608285    675.81863  0.029972442  0.029769485            4 
 1880000   0.94815209   -6.8313199    675.99381  0.029964264  0.029762238            7 
 1881000   0.94571093   -6.8417536    677.84909  0.030030528  0.029755002            5 
 1882000   0.94251676   -6.8010133    678.55871  0.030045993   0.02974787            3 
 1883000   0.93971165   -6.8263248    678.30219  0.030018684  0.029740738            4 
 1884000   0.94858828   -6.8670323    676.64533  0.029929464  0.029733479            4 
 1885000   0.95497693   -6.8289623    679.68399  0.030047922  0.029726234            3 
 1886000   0.93729011   -6.8062576    677.94836    0.0299553  0.029719023            4 
 1887000   0.94749779   -6.8354736    677.40762  0.029915546  0.029711763            2 
 1888000   0.94905295   -6.8575891    676.73806  0.029870148  0.029704487            3 
 1889000   0.94132155   -6.8348785    677.16487  0.029873164  0.029697179            4 
 1890000   0.96358285   -6.8750118    676.95701  0.029848193  0.029689901            1 
 1891000   0.95558907   -6.8414138    676.90558  0.029830142  0.029682692            4 
 1892000   0.94074028   -6.8655817    679.06747  0.029909596  0.029675394            2 
 1893000   0.94392515    -6.856554    679.24851  0.029901766  0.029668087            5 
 1894000   0.93594419   -6.8407163    677.93487   0.02982818  0.029660669            3 
 1895000   0.94550392   -6.8357662    679.33595  0.029874052  0.029653343            3 
 1896000   0.95480852   -6.8220992    679.74789  0.029876402  0.029646017            3 
 1897000    0.9534606   -6.8381999    679.48324  0.029849026  0.029638553            9 
 1898000    0.9366296   -6.8494711    681.13023  0.029905613  0.029631149            4 
 1899000   0.93869244   -6.8573589    680.47947  0.029861307  0.029623846            6 
 1900000    0.9543458   -6.8712368    678.86763  0.029774896  0.029616355            4 
 1901000   0.95517583   -6.9003311    680.13254  0.029814683  0.029608934            3 
 1902000   0.95445932   -6.8364118    679.94333  0.029790717  0.029601554            7 
 1903000   0.94613044   -6.8496565     679.5705  0.029758736  0.029594163            3 
 1904000   0.94822221   -6.8479972    681.11599  0.029810749   0.02958676            5 
 1905000   0.97494585   -6.8373468    679.83057   0.02973887  0.029579383            6 
 1906000   0.96628322   -6.8552256    678.59592  0.029669286  0.029572001            5 
 1907000   0.93313824   -6.8658731    680.78702  0.029749477  0.029564607            5 
 1908000   0.93857392   -6.8688777    680.16848   0.02970687  0.029557185            4 
 1909000   0.93640677   -6.8254317    681.79565  0.029762339  0.029549796            4 
 1910000   0.93584417    -6.898356    681.55452  0.029736236  0.029542454            4 
 1911000   0.93936826   -6.8711247    679.29851  0.029622297  0.029535069            6 
 1912000   0.95325279   -6.8874796    680.73075  0.029669227  0.029527686            8 
 1913000   0.95207074   -6.8534403    682.20898  0.029718112  0.029520359            3 
 1914000   0.95886325   -6.8926119    680.74345  0.029638778  0.029513039            3 
 1915000   0.92246685   -6.8377502    683.62616  0.029748745  0.029505695            5 
 1916000   0.94068359   -6.8750937    684.00902   0.02974987  0.029498322            4 
 1917000   0.94372643    -6.861938    684.34579  0.029748991  0.029490971            5 
 1918000   0.95337939    -6.837489    683.24736  0.029685756  0.029483564            3 
 1919000    0.9506129   -6.8737334    682.95564  0.029657619  0.029476285            4 
 1920000   0.95680649      -6.8234    684.97357  0.029729756  0.029469003            2 
 1921000   0.93677556   -6.8626244     682.9192  0.029625161  0.029461764            6 
 1922000   0.93559527   -6.8657568    684.71533  0.029687623  0.029454477            4 
 1923000   0.94567696   -6.8271521    686.68986  0.029757751  0.029447225            3 
 1924000   0.93731889   -6.8721968     684.3521   0.02964103  0.029439995            4 
 1925000   0.94336144   -6.8482654    684.31406  0.029623985  0.029432856            3 
 1926000   0.93941554   -6.8648298    684.80274  0.029629748  0.029425589            6 
 1927000    0.9443739   -6.8897923     683.5745  0.029561256   0.02941825            3 
 1928000   0.94962443   -6.8520968     685.7104  0.029638244  0.029410947            4 
 1929000   0.94119192   -6.8581836    684.52194  0.029571537   0.02940364           12 
 1930000   0.95145286    -6.842633    685.23005   0.02958679  0.029396394            8 
 1931000    0.9413391   -6.8399753    686.93005  0.029644832  0.029389148            4 
 1932000   0.94269929   -6.8463139    685.09416    0.0295503   0.02938185            7 
 1933000   0.93219373    -6.861554    687.05004  0.029619333  0.029374562            6 
 1934000   0.94741404   -6.8472602    686.99681  0.029601724  0.029367197            4 
 1935000   0.95313049   -6.8312634    685.36466  0.029516135  0.029359952            4 
 1936000   0.94329722   -6.8661079    686.76535  0.029561181    0.0293528            5 
 1937000   0.94781391    -6.870147    687.78802  0.029589916  0.029345619            3 
 1938000   0.93827324   -6.8482017     686.4359  0.029516507  0.029338441            8 
 1939000   0.93584264   -6.8869521    686.36073  0.029498055  0.029331039            4 
 1940000   0.93759058   -6.8421154    689.96838  0.029637817  0.029323651            8 
 1941000   0.94190938   -6.8640627    688.14974  0.029544467  0.029316485            5 
 1942000   0.94820189   -6.8382866    689.59836  0.029591416  0.029309296            5 
 1943000   0.92332848    -6.889704    689.64982  0.029578394  0.029302054            9 
 1944000   0.94772397   -6.8656677    689.95807  0.029576392  0.029294736            2 
 1945000   0.92810209   -6.8594525    689.18066  0.029527877  0.029287478            6 
 1946000    0.9542819    -6.871277    689.44779  0.029524143  0.029280263            4 
 1947000   0.94367881   -6.9185261    689.20713  0.029498679  0.029272999            3 
 1948000   0.92542722   -6.8764919    689.21204  0.029483746  0.029265784            9 
 1949000   0.93445401   -6.8667916      690.889   0.02954032  0.029258605            4 
 1950000   0.95185795   -6.8507477    690.03172  0.029488535  0.029251519            3 
 1951000   0.94212807   -6.8953838    690.84251  0.029508052  0.029244414            6 
 1952000    0.9253789   -6.8994434    692.01834  0.029543133  0.029237342           10 
 1953000   0.96088428   -6.8971416    690.49643  0.029463067  0.029230221            2 
 1954000   0.94645368   -6.8518035    693.85262  0.029591121   0.02922306            4 
 1955000   0.94008887   -6.8777918    692.06871  0.029499945  0.029215997            3 
 1956000   0.94685144   -6.8488652    691.55338  0.029462908  0.029209024            4 
 1957000   0.94894033   -6.8549051    693.51038  0.029531186  0.029202061            4 
 1958000   0.94172582   -6.8682998    693.67455  0.029523091  0.029195117            4 
 1959000   0.92795982   -6.8886259    691.80459  0.029428475  0.029188111            3 
 1960000   0.93236365   -6.8452864    694.92755  0.029546239  0.029181157            3 
 1961000    0.9356182    -6.870305    693.67403  0.029477904  0.029174221            5 
 1962000   0.90028341   -6.8945428     693.7193  0.029464802   0.02916725            5 
 1963000   0.93606461   -6.8674338     695.3563  0.029519286   0.02916028            8 
 1964000   0.92649398   -6.8567121    695.44015  0.029507814  0.029153393            8 
 1965000   0.93899067    -6.843145    694.83561  0.029467159   0.02914653            6 
 1966000     0.937946   -6.8776203    694.03336  0.029418165  0.029139545            4 
 1967000   0.94246472   -6.8759796    695.01991  0.029445006  0.029132503            3 
 1968000   0.93673596   -6.8904348    693.84738  0.029380394  0.029125559            4 
 1969000   0.94373957   -6.8491059    695.54987  0.029437526  0.029118517            5 
 1970000   0.94362329   -6.9089804    693.57893   0.02933921  0.029111489            4 
 1971000   0.94253199   -6.8859365    695.73139   0.02941533  0.029104478            5 
 1972000   0.92399048   -6.8706883    695.67224  0.029397914  0.029097519            5 
 1973000   0.95249138   -6.8813102    696.82415  0.029431667  0.029090532            4 
 1974000   0.93631064   -6.8677301    695.29239  0.029352094  0.029083484            3 
 1975000   0.93155326   -6.8703455    698.59763  0.029476693   0.02907635            2 
 1976000   0.94790491    -6.870038    695.89362  0.029347741  0.029069195            6 
 1977000   0.92544129   -6.8682394    695.12893  0.029300663  0.029062022            5 
 1978000   0.90736129   -6.9008433    694.71895  0.029268577  0.029054896            4 
 1979000   0.93207673   -6.8639306    694.54261  0.029246362  0.029047762            5 
 1980000    0.9236188   -6.8577997    696.02956  0.029294173  0.029040562            4 
 1981000   0.95031872   -6.8402591    696.71656  0.029308285  0.029033423            3 
 1982000   0.95365318   -6.8923426     695.2127  0.029230268  0.029026191            7 
 1983000   0.94012996    -6.864455    697.21718  0.029299764  0.029019016            5 
 1984000    0.9229242   -6.8549162    697.15995  0.029282592  0.029011804            4 
 1985000   0.94450499   -6.8503224     696.5539  0.029242397  0.029004561            4 
 1986000   0.93839906   -6.8812177    695.07775  0.029165733  0.028997317            6 
 1987000   0.94830634   -6.9060694     695.2933  0.029160095  0.028990004            6 
 1988000   0.94473119   -6.9038809    695.68812  0.029161977  0.028982664            7 
 1989000   0.90615241    -6.893227    698.07582  0.029247353   0.02897539            5 
 1990000   0.93811105   -6.8559544    698.75757  0.029261205  0.028968189            5 
 1991000   0.93810153   -6.8658291    697.32671  0.029186619   0.02896105            6 
 1992000   0.93030377   -6.8689051    698.62048  0.029226091    0.0289539            6 
 1993000   0.92952609   -6.8817926    698.15876  0.029192121  0.028946738            4 
 1994000   0.93425768   -6.8674347    696.47846  0.029107257  0.028939583            4 
 1995000   0.91392739   -6.8870329    698.07293   0.02915927  0.028932378            4 
 1996000   0.93428996   -6.8754809    698.14173  0.029147534  0.028925054            4 
 1997000   0.94878838   -6.8800732    698.17124  0.029134169  0.028917794            3 
 1998000    0.9213603   -6.8628404    700.09906  0.029199994  0.028910508            4 
 1999000   0.92510432   -6.8879019    698.03651  0.029099404  0.028903236            3 
 2000000   0.93787047   -6.8846945    697.20714  0.029050297  0.028895913            5 
 2001000   0.94292567   -6.8940369     698.4931  0.029089334   0.02888847            6 
 2002000   0.92297977   -6.8922378    700.45548  0.029156488  0.028881097            6 
 2003000   0.93133062   -6.8621365    699.62441  0.029107356  0.028873803            3 
 2004000   0.90675286   -6.8781672    700.10412  0.029112779  0.028866544            6 
 2005000   0.93663653   -6.8971823    697.78617  0.029001919  0.028859207            5 
 2006000   0.93295493   -6.8831211    699.83188  0.029072444  0.028851945            4 
 2007000   0.91970871   -6.9060643    699.01772  0.029024154  0.028844658            6 
 2008000   0.91533311   -6.8813999    699.05104  0.029011082  0.028837328            4 
 2009000   0.93452984   -6.8857919    698.72359  0.028983059  0.028830075            5 
 2010000   0.91774049   -6.9155632    700.59258  0.029046127  0.028822759            9 
 2011000   0.92824278   -6.9095131    699.68446  0.028994052  0.028815403            4 
 2012000    0.9372137   -6.8715192    700.43306  0.029010647  0.028808093            3 
 2013000   0.95056858   -6.8919228    700.06684  0.028981075  0.028800802            5 
 2014000    0.9338167    -6.880766    700.59259  0.028988439  0.028793486            2 
 2015000   0.92741045   -6.8606076    701.94623  0.029030034  0.028786253            9 
 2016000   0.93435908   -6.8611897    700.58907  0.028959535  0.028778958            3 
 2017000   0.94247708   -6.9030066    699.95698  0.028919062  0.028771667            6 
 2018000   0.93764834   -6.9011228     701.4143  0.028964912  0.028764348            2 
 2019000   0.91764853   -6.8594308    702.94921  0.029013918  0.028757029           10 
 2020000   0.92284047   -6.8975699    701.72016  0.028948851  0.028749783            9 
 2021000   0.95292479   -6.9276643    702.27776  0.028957519  0.028742499            5 
 2022000   0.92966938   -6.8709832    703.86272   0.02900852  0.028735211            5 
 2023000   0.92114738   -6.8948451    703.14731  0.028964711  0.028728013            3 
 2024000   0.90393932   -6.8893405    703.33772  0.028958239  0.028720692            3 
 2025000   0.93221757   -6.8842934    702.31886  0.028902011  0.028713455            2 
 2026000   0.94600787   -6.8659984    704.79462  0.028989578  0.028706191            5 
 2027000   0.94400918   -6.9050317    704.21255  0.028951347  0.028699032            5 
 2028000   0.93809895   -6.9015705    704.83005  0.028962445  0.028691791           10 
 2029000   0.91977742   -6.9127473    705.92102  0.028992978  0.028684618            4 
 2030000   0.91157899   -6.8894525    703.79159   0.02889128  0.028677439            5 
 2031000   0.92319059   -6.8854728    704.60581  0.028910463  0.028670394            7 
 2032000    0.9261332   -6.9040675    706.15966   0.02895996  0.028663253           12 
 2033000   0.92014128   -6.8833999    704.91051  0.028894512  0.028656059            4 
 2034000   0.92177723   -6.8970193    705.82306  0.028917693  0.028648831            5 
 2035000   0.91984958   -6.9017611    706.38482  0.028926487  0.028641678            6 
 2036000   0.93522564   -6.8679395    705.61944  0.028880953  0.028634686            4 
 2037000   0.93007619   -6.8970905    706.62621  0.028907962  0.028627668           10 
 2038000   0.92321843   -6.9149299    706.50044  0.028888634  0.028620601            5 
 2039000    0.9312468   -6.8897717    706.67446  0.028881579  0.028613507            3 
 2040000   0.92826139   -6.8896676    706.93673  0.028878134   0.02860644            5 
 2041000     0.912701   -6.8950816    707.71921  0.028895934  0.028599372            6 
 2042000   0.92148845   -6.8832463    707.31956  0.028865473  0.028592345            8 
 2043000   0.92738622   -6.9159036    708.37389   0.02889435  0.028585249            7 
 2044000   0.91263013   -6.8993729      707.106  0.028828523  0.028578106            4 
 2045000   0.91492432   -6.8897808    707.48636  0.028829925  0.028571042            4 
 2046000   0.91575882   -6.8967812    707.75901  0.028826939  0.028563844            6 
 2047000   0.91737812   -6.9010305     707.5227  0.028803237  0.028556638            7 
 2048000   0.92139404   -6.8694343    706.24752  0.028737285  0.028549398            4 
 2049000   0.93522425   -6.8836031    707.51611  0.028774854  0.028542264            3 
 2050000   0.91634869   -6.9160107    709.04357  0.028822909  0.028535109            4 
 2051000   0.91749457   -6.9055337     707.3138  0.028738575  0.028527933            5 
 2052000   0.91464105   -6.9002387    707.50431  0.028732306  0.028520793            4 
 2053000   0.91170665   -6.8637227     709.2618  0.028789649  0.028513584            9 
 2054000   0.94284765   -6.9401647    708.58072  0.028748001  0.028506423            4 
 2055000   0.92083504   -6.8793167     708.6509  0.028736857  0.028499265            4 
 2056000   0.92414579   -6.8999122    708.41219  0.028713205  0.028492024            3 
 2057000    0.9252463   -6.9172576    708.72699  0.028711999  0.028484838            4 
 2058000   0.91651164   -6.9015668    709.52282  0.028730273  0.028477606            6 
 2059000    0.9379094   -6.9165101    708.54975  0.028676936  0.028470406            4 
 2060000   0.90873342   -6.8923405    709.50254  0.028701559  0.028463155            4 
 2061000   0.92327891   -6.8811316    709.13886  0.028672928  0.028455954            3 
 2062000   0.92710281   -6.9177063    709.94307  0.028691524  0.028448753            3 
 2063000   0.93764523   -6.9427203    708.60234  0.028623459   0.02844156            8 
 2064000    0.9287958    -6.894919     709.5481  0.028647775  0.028434273            4 
 2065000   0.90974056   -6.9005017    710.56065  0.028674764  0.028427059            4 
 2066000   0.92520879   -6.8858896     710.3173  0.028651069   0.02841982            3 
 2067000   0.92248307   -6.9358126    708.29451  0.028555657  0.028412529            6 
 2068000   0.91770896    -6.892441    710.37277  0.028625595   0.02840527            4 
 2069000   0.93602605   -6.9260293    710.00913  0.028597113  0.028397934            9 
 2070000   0.91338296   -6.8978309    710.21519  0.028591594   0.02839058            3 
 2071000   0.90882412   -6.9181676    709.28505  0.028540361  0.028383259            3 
 2072000   0.92496334   -6.9379687      710.446  0.028573279  0.028375895            9 
 2073000   0.92121314   -6.9003627    711.89466   0.02861773  0.028368488            2 
 2074000   0.91697434   -6.9323852     710.5244  0.028548875  0.028361144            5 
 2075000    0.9146455   -6.9160718    711.51818  0.028575027  0.028353848            6 
 2076000    0.9122969   -6.9086733    711.24231  0.028550189  0.028346491            3 
 2077000    0.9098288   -6.9056928    712.03136  0.028568101  0.028339183            2 
 2078000   0.92408097   -6.9039498    710.67334  0.028499893  0.028331933            6 
 2079000   0.92431807   -6.9125433    710.89263  0.028494975  0.028324646            3 
 2080000    0.9356847   -6.9291485    711.25497  0.028495792  0.028317301            5 
 2081000   0.90508581   -6.9028178    710.30155  0.028443919  0.028309966           11 
 2082000   0.92420127   -6.9121977    712.84501  0.028532061  0.028302675           17 
 2083000   0.91858491   -6.9032479    712.24609  0.028494403  0.028295347            8 
 2084000   0.91727551   -6.9169708    711.18727   0.02843839  0.028288048            6 
 2085000   0.93228353   -6.9456591    712.12277  0.028462141  0.028280704            4 
 2086000    0.9009591   -6.8998533    714.46247  0.028541965   0.02827334            3 
 2087000   0.90683095   -6.8949523    713.31482  0.028482464   0.02826604            5 
 2088000   0.89471656   -6.9113246    713.08786  0.028459764   0.02825873            4 
 2089000   0.91698329   -6.8823172    713.62765  0.028467674  0.028251416            4 
 2090000   0.91525117   -6.9370209    712.36207  0.028403591   0.02824405            3 
 2091000    0.9137158   -6.9142131    713.03581  0.028416858   0.02823671            6 
 2092000   0.91038005   -6.8826535    713.37753  0.028416887    0.0282294            3 
 2093000   0.92856397   -6.9017018    714.11616  0.028432719  0.028222093            9 
 2094000   0.89816157   -6.8940652    712.68077  0.028362017  0.028214851            3 
 2095000   0.90892573    -6.923528    714.66164  0.028427273  0.028207553            8 
 2096000   0.92003658   -6.9403059    712.51557  0.028328386   0.02820024           10 
 2097000   0.88190642   -6.8982223    715.49294  0.028433196  0.028192966            3 
 2098000   0.91593744   -6.9247505    713.02407  0.028321579  0.028185605            6 
 2099000   0.92894159   -6.9165757    715.43615  0.028403849  0.028178205            5 
 2100000    0.9125928   -6.8607518    714.32524   0.02834624  0.028170954            3 
 2101000   0.89967535   -6.9001515    714.83387  0.028352922  0.028163554            3 
 2102000    0.9273537   -6.9486858    715.02506  0.028347013  0.028156166            8 
 2103000   0.90663763   -6.9264097    715.36663  0.028347069  0.028148785           11 
 2104000    0.9098366    -6.888952    715.67691  0.028345885  0.028141339            5 
 2105000   0.91626722   -6.9255213    715.62547  0.028330383  0.028133877           10 
 2106000   0.91778658    -6.941736    713.38312  0.028228202  0.028126428            5 
 2107000   0.89218093   -6.9317555    714.54701  0.028260837  0.028118908            7 
 2108000   0.92761921    -6.896199     716.0466  0.028306712   0.02811141            7 
 2109000   0.92191814   -6.9119017    716.03211  0.028292718  0.028104025            3 
 2110000   0.89762089   -6.9410721    715.05413  0.028240685  0.028096597            4 
 2111000   0.91871703   -6.9075913    715.13382  0.028230453  0.028089188            3 
 2112000   0.92403716   -6.8926523     717.7807  0.028321524  0.028081811            6 
 2113000   0.89882128   -6.9293983     714.0741  0.028161938  0.028074369            9 
 2114000    0.9163428   -6.9037408    716.53972   0.02824581  0.028066973            2 
 2115000   0.91335242   -6.8848497     717.9732  0.028288936  0.028059588            1 
 2116000   0.89714759   -6.9296672    715.78718  0.028189476  0.028052256            5 
 2117000   0.91452539   -6.8958715    717.24997  0.028233742  0.028044867            2 
 2118000   0.89977826   -6.9435605     716.0374  0.028172702  0.028037527           12 
 2119000   0.90792027   -6.9261673    717.30662  0.028209321  0.028030171            5 
 2120000   0.91226063   -6.9084275    718.41126  0.028239437  0.028022844            5 
 2121000   0.90490434   -6.9264125    720.88446  0.028323293  0.028015538            4 
 2122000   0.91178948   -6.9348064    718.67922  0.028223344  0.028008256            6 
 2123000   0.91088064   -6.9130247    719.03594  0.028224052  0.028000966            3 
 2124000    0.8871648   -6.9277682    717.05551  0.028133063  0.027993573            5 
 2125000   0.91635712   -6.9091999    718.27684  0.028167719  0.027986262            4 
 2126000   0.91812461   -6.9272127    719.71962  0.028211023   0.02797898            7 
 2127000   0.91014068   -6.9280293    717.74563  0.028120421  0.027971629            4 
 2128000   0.89751247   -6.9305325    718.00704  0.028117443  0.027964263            7 
 2129000   0.90384692   -6.9049201    718.90341  0.028139323  0.027956932            3 
 2130000   0.90985533   -6.9343599     718.9912  0.028129546  0.027949669            7 
 2131000   0.89277832   -6.9409591    718.38417  0.028092608   0.02794231            5 
 2132000   0.92283165   -6.9233533    720.07448    0.0281455   0.02793498            5 
 2133000   0.90732273   -6.9371439    719.50157  0.028109922  0.027927651            2 
 2134000   0.89499729   -6.9479864    718.04208  0.028039756   0.02792025            2 
 2135000   0.89767479   -6.8940069    719.55819    0.0280858  0.027912989           11 
 2136000   0.91755141    -6.917434    720.10091  0.028093825  0.027905683            6 
 2137000   0.90904976     -6.95887    716.77472  0.027950972  0.027898291            3 
 2138000   0.91041279   -6.9057977    720.65455  0.028089123  0.027890913            9 
 2139000   0.92538516   -6.9492339     720.5289  0.028071096  0.027883498            4 
 2140000   0.88891083   -6.9399881     720.1635   0.02804375  0.027876177            3 
 2141000   0.90798521   -6.8853807    720.83136  0.028056646  0.027868852            7 
 2142000   0.92301257   -6.9420311    720.98489  0.028049521   0.02786155            4 
 2143000    0.8999732   -6.9147443    720.89385  0.028032892  0.027854163            4 
 2144000   0.90346518   -6.9295467    721.55196  0.028045396  0.027846821            5 
 2145000   0.88830094   -6.9675314    722.00348  0.028049863  0.027839471            3 
 2146000   0.90496765   -6.9264577    720.41153  0.027974974  0.027832102            7 
 2147000   0.90018348   -6.9610347    721.01024  0.027985183   0.02782469            6 
 2148000   0.88780918   -6.9073927    719.84914  0.027927108  0.027817285            4 
 2149000   0.90107036   -6.9415232    721.90615  0.027993879  0.027809931            9 
 2150000   0.89911251   -6.9268623    724.82892  0.028094144  0.027802549            7 
 2151000   0.90468803   -6.9167948    722.86657  0.028005059  0.027795188            3 
 2152000   0.90384371    -6.917263    722.25471  0.027968351  0.027787807            3 
 2153000   0.88165129   -6.9517765    723.46787  0.028002317  0.027780418            7 
 2154000   0.89194384   -6.9107626    722.96141  0.027969724  0.027773008            2 
 2155000   0.93073065   -6.9259969    722.28847  0.027930722  0.027765665            4 
 2156000   0.90507374   -6.9596349    722.73611  0.027935069  0.027758276            3 
 2157000   0.88410182   -6.9305867    721.03091   0.02785624  0.027750807            5 
 2158000   0.90218871   -6.8999371    725.11478  0.028001034  0.027743373            2 
 2159000   0.89058124   -6.9772149    721.22052  0.027837754  0.027736002            7 
 2160000   0.91638963   -6.9309252    724.73053  0.027960283  0.027728625            5 
 2161000   0.89931267   -6.9575906    723.01849  0.027881324  0.027721262            5 
 2162000   0.90969094   -6.9457963    723.09479  0.027871369  0.027713858            8 
 2163000   0.89793624   -6.9362658    724.29394  0.027904682  0.027706534            3 
 2164000   0.90881908   -6.9069012    722.51949  0.027823455   0.02769917            4 
 2165000    0.8884295     -6.91448    724.90081  0.027902264  0.027691796            5 
 2166000   0.91557844   -6.9277914    721.33642  0.027752247  0.027684373            3 
 2167000   0.89755732   -6.9505795    723.59763  0.027826397  0.027676975            3 
 2168000   0.92572485   -6.9404281    722.64657  0.027777005   0.02766952            4 
 2169000   0.90688343   -6.9455529    722.64999   0.02776433  0.027662019            7 
 2170000   0.90651351   -6.9291357    724.79496  0.027833908  0.027654548            2 
 2171000   0.89460571   -6.9299244    723.76784  0.027781661  0.027647139            7 
 2172000   0.90272848   -6.9413581    722.85909  0.027734004  0.027639706            5 
 2173000   0.89841023   -6.9572958    724.10996  0.027769212  0.027632227            4 
 2174000   0.88724982   -6.9529227    723.48251  0.027732387  0.027624705            7 
 2175000   0.92047986   -6.9631593    723.27057  0.027711516  0.027617211            5 
 2176000   0.90503995   -6.9057943    726.02793  0.027804378  0.027609754            5 
 2177000   0.89690918   -6.9472458    723.88025  0.027709395   0.02760232            6 
 2178000   0.90133577   -6.9360323    725.03406   0.02774082  0.027594872            9 
 2179000   0.89955759   -6.9565163    724.25986   0.02769848  0.027587405            4 
 2180000   0.90775165   -6.9475777    722.58088  0.027621593  0.027579838            3 
 2181000   0.89157039    -6.960647    723.35618  0.027638552  0.027572281            6 
 2182000   0.90988928   -6.9618132    724.72894  0.027678313  0.027564711            3 
 2183000    0.9108147   -6.9429027    723.78235  0.027629499  0.027557174            8 
 2184000   0.91894537   -6.9384734    722.94234  0.027584796  0.027549676           11 
 2185000   0.89703531   -6.9299023    725.02671  0.027651667  0.027542162            8 
 2186000   0.88779911   -6.9450892    726.59082  0.027698644  0.027534678            8 
 2187000   0.91681465   -6.9489017    727.61421  0.027724974  0.027527136            6 
 2188000   0.88284893   -6.9329577    725.10543  0.027616752  0.027519626            6 
 2189000   0.90159012   -6.9402361    727.49817  0.027695225  0.027512129            6 
 2190000   0.90296339   -6.9563644    726.57026   0.02764727  0.027504664            6 
 2191000   0.89816173   -6.9496037    726.45608  0.027630309   0.02749728            4 
 2192000   0.89546678   -6.9637536    728.26606  0.027686514  0.027489882            6 
 2193000   0.89020822   -6.9607741    727.68428  0.027651781  0.027482463            6 
 2194000   0.89175014   -6.9628192    728.31096  0.027662981  0.027474961            5 
 2195000   0.89899378   -6.9575734     726.5514  0.027583576  0.027467481            8 
 2196000   0.91591787   -6.9786578    727.93247  0.027623424  0.027460077            4 
 2197000   0.90254591   -6.9603594    729.10081  0.027655167  0.027452641            3 
 2198000   0.90577905   -6.9637495    727.67718   0.02758861  0.027445176            9 
 2199000   0.92072426   -6.9410594    729.91539  0.027660883  0.027437677            8 
 2200000   0.88098516   -6.9560775    727.28958  0.027548848  0.027430274            5 
 2201000   0.87614657   -6.9190682    726.09367  0.027491052  0.027422822            3 
 2202000   0.88593157        -6.95    726.99273  0.027512592  0.027415321            5 
 2203000   0.90758675   -7.0122736    726.59946  0.027485227   0.02740776            6 
 2204000   0.90253788   -6.9527249    727.16533  0.027494152  0.027400175            9 
 2205000   0.89754654   -6.9750033    728.66514  0.027538365  0.027392698            4 
 2206000   0.89297335   -6.9489905    727.94632  0.027498728  0.027385198            3 
 2207000   0.90981612   -6.9679796    728.02415  0.027489207  0.027377669            9 
 2208000    0.9035951   -6.9507824    727.28566  0.027448885  0.027370133            7 
 2209000   0.90594957   -6.9532152    729.07046   0.02750379  0.027362525            6 
 2210000   0.90555492   -6.9766416    727.42374  0.027429251  0.027354937            5 
 2211000   0.90119748   -6.9343958    728.29266  0.027449595  0.027347331            9 
 2212000   0.88072425   -6.9452721    729.19456  0.027471163  0.027339805            5 
 2213000    0.8865566   -6.9461069    727.77086  0.027405138  0.027332292           12 
 2214000   0.89881494   -6.9619783    727.48812  0.027382118  0.027324716            8 
 2215000   0.90945163   -6.9535758    728.18295  0.027395897  0.027317145            3 
 2216000   0.90330851   -6.9597572    728.56613  0.027397944  0.027309596            3 
 2217000   0.89661105   -6.9572502     728.1164  0.027368682  0.027302019            4 
 2218000   0.88107427    -6.944208    728.43348  0.027368255  0.027294392           11 
 2219000   0.89037792   -6.9917606    728.91564  0.027374029  0.027286768            4 
 2220000   0.88894888    -6.971373    726.92547  0.027286992  0.027279132            2 
 2221000   0.90677594   -6.9457935    729.83989  0.027384057  0.027271494            3 
 2222000   0.89814063   -6.9468859    728.05969  0.027304969   0.02726388            3 
 2223000   0.89446001   -6.9491205    730.64447  0.027389581  0.027256319            2 
 2224000   0.90386184   -6.9545104    729.57408  0.027337158  0.027248672            9 
 2225000    0.9011036   -6.9698206    729.69953  0.027329571  0.027241011           13 
 2226000   0.89553108   -6.9521143    729.55113  0.027311737  0.027233421            3 
 2227000   0.90048257   -6.9834837    728.51142  0.027260568  0.027225804            9 
 2228000   0.89029081    -6.959364    729.99156  0.027303694  0.027218168            4 
 2229000   0.92618611   -6.9570621    729.59462  0.027276605  0.027210522            5 
 2230000   0.91084169    -6.958501    729.02505  0.027243089  0.027202879            3 
 2231000   0.89656721   -6.9680051    730.47651  0.027285093  0.027195176            7 
 2232000   0.89051021   -7.0148114    729.29914  0.027228911  0.027187481           10 
 2233000   0.91551083   -6.9498133    729.87647  0.027238262  0.027179783            1 
 2234000   0.86801652   -6.9507637    730.26025  0.027240385  0.027172155            7 
 2235000   0.87954804   -6.9800513    729.79386  0.027210808  0.027164517            7 
 2236000   0.89568977   -6.9547207    731.28493  0.027254209  0.027156793            4 
 2237000   0.89075861    -6.968106    730.40638  0.027209297  0.027149198            8 
 2238000   0.88524029   -6.9857899    730.28227  0.027192518  0.027141574            3 
 2239000   0.88561525   -6.9747823    730.94719  0.027205121  0.027133954            3 
 2240000   0.87839634   -7.0076405    730.48561  0.027175804  0.027126351            5 
 2241000   0.90362948   -6.9590517    731.82668  0.027213546  0.027118769            4 
 2242000   0.87360763   -6.9833354    731.80372  0.027200555  0.027111164            6 
 2243000   0.90674768   -6.9899296    733.54846  0.027253249  0.027103556            5 
 2244000   0.89903165   -6.9693097    732.57881  0.027205096  0.027095951            8 
 2245000   0.88644363   -6.9675137     732.3459  0.027184332  0.027088365            4 
 2246000   0.91384823    -6.952555    731.73869  0.027149699   0.02708077            6 
 2247000   0.89014426   -7.0060277     731.2025  0.027117731   0.02707311            5 
 2248000   0.88128862   -6.9932158    731.09215  0.027101577  0.027065434            4 
 2249000   0.89720165   -6.9997705    731.93326  0.027120693  0.027057758            5 
 2250000   0.90757519   -6.9778511    731.54178   0.02709414   0.02705013            4 
 2251000   0.89175149   -6.9746574    730.94261  0.027059922  0.027042499           10 
 2252000   0.90637359   -6.9579696     732.5453  0.027107212  0.027034909            5 
 2253000    0.8745387   -6.9428311    731.65826  0.027062371  0.027027313            6 
 2254000    0.8968473   -6.9861788    734.65631  0.027161206  0.027019752            7 
 2255000   0.88729305   -6.9644522    732.38738  0.027065313  0.027012119            6 
 2256000   0.89230579    -6.991922    733.33305  0.027088248  0.027004617            4 
 2257000   0.90942843   -6.9405907    733.49581  0.027082256  0.026997066            6 
 2258000   0.90368895   -6.9679445    733.57998  0.027073368  0.026989537            4 
 2259000   0.87134078   -6.9699199    733.48262  0.027057792  0.026982038            4 
 2260000   0.87803528   -7.0088508    735.78291  0.027130638  0.026974512            4 
 2261000    0.8721235   -6.9774281    733.90536  0.027049438  0.026967031            3 
 2262000   0.89902704   -6.9857041    734.81797  0.027071101  0.026959502            4 
 2263000   0.89607222   -7.0131219    733.19443  0.026999353  0.026951999            6 
 2264000   0.89756661   -6.9495969     734.5003  0.027035494  0.026944502            6 
 2265000   0.90380883   -6.9591816    735.09085  0.027045285  0.026937012            9 
 2266000   0.87079268   -6.9774719    735.56096  0.027050639  0.026929546            3 
 2267000   0.87434895   -6.9730108    734.77231  0.027009716  0.026922021            3 
 2268000   0.89432348   -7.0055265    736.41907  0.027058314  0.026914574           12 
 2269000   0.87675223   -6.9643366    738.12806  0.027109155  0.026907197            4 
 2270000   0.88147204   -6.9618886    737.48278  0.027073524  0.026899772           11 
 2271000   0.87362358   -6.9738994    739.34362  0.027129885  0.026892391            8 
 2272000   0.87543051   -6.9696713    738.36978  0.027082225  0.026885034            8 
 2273000   0.87009721    -6.978143    738.04305  0.027058332  0.026877681            6 
 2274000    0.9026969   -6.9940836    737.22268  0.027016369  0.026870267            4 
 2275000   0.90377869   -6.9907864    736.90106  0.026992713  0.026862912            4 
 2276000   0.90114911   -6.9876251    739.80363  0.027087127  0.026855558           10 
 2277000   0.87848185   -6.9862798    739.29278  0.027056536   0.02684823            4 
 2278000   0.89910264   -6.9700002    739.29375  0.027044694  0.026840925            4 
 2279000   0.89744932   -6.9742876    739.94466  0.027056628  0.026833583            5 
 2280000   0.89537805   -6.9615386    738.71671   0.02699988  0.026826275            6 
 2281000    0.9000866   -6.9871139    738.44702   0.02697819  0.026818917            4 
 2282000   0.87376123    -6.986688     737.0991  0.026917145  0.026811568            6 
 2283000    0.8619908   -7.0161022    738.58276  0.026959511  0.026804228            5 
 2284000   0.88978565   -6.9719564    740.86259  0.027030889  0.026796967           12 
 2285000    0.8985956   -6.9666487    739.80228  0.026980389  0.026789695            5 
 2286000   0.89175335   -6.9695984    740.87722  0.027007773  0.026782439            6 
 2287000   0.88304191   -6.9714679    741.60448  0.027022463  0.026775165           11 
 2288000   0.88825284   -6.9587766    740.64301  0.026975634  0.026767953            5 
 2289000   0.88281548   -6.9561873    742.48794  0.027031016  0.026760718            3 
 2290000   0.85757208   -6.9516676    742.90189  0.027034275  0.026753523           11 
 2291000    0.8677819   -6.9856009    742.19129  0.026996628  0.026746337            5 
 2292000   0.88115775   -7.0034064    742.07369  0.026980573  0.026739113            7 
 2293000   0.88160546   -6.9963483    740.78984  0.026922149  0.026731854            6 
 2294000   0.85990613   -6.9441381    741.04736  0.026919768  0.026724545            7 
 2295000   0.88790295   -6.9686848    741.91076  0.026939389  0.026717281            4 
 2296000   0.87521847   -7.0064099     741.3535   0.02690743  0.026709973            4 
 2297000   0.87546892   -6.9778139    742.56639  0.026939718  0.026702718            6 
 2298000    0.8906143   -6.9841951    743.54616  0.026963525  0.026695445            5 
 2299000   0.88598865   -7.0103159    742.47382  0.026912927  0.026688196            5 
 2300000   0.86251972   -6.9905106    741.22719  0.026856058  0.026680839            8 
 2301000    0.8943023   -6.9636838    742.59215   0.02689382  0.026673542            6 
 2302000   0.88921278   -6.9622256    743.32274  0.026908585  0.026666244            5 
 2303000   0.88899314   -7.0158918    742.97544  0.026884334  0.026658944            5 
 2304000   0.87148742   -6.9906848    741.79096  0.026829823  0.026651577            9 
 2305000   0.86173996   -7.0178065    743.39571  0.026876201   0.02664426            8 
 2306000    0.8853955   -6.9755722    742.70025  0.026839413  0.026636954            3 
 2307000   0.88249502    -6.971573    742.58745  0.026823705  0.026629672            5 
 2308000   0.89046231   -6.9848561    742.22681  0.026799062  0.026622352            6 
 2309000   0.88077744   -6.9621698    744.01595  0.026852026  0.026615005           11 
 2310000   0.89584704   -6.9784626    742.72226  0.026793732  0.026607706            7 
 2311000   0.89133343   -6.9985368    741.80428  0.026749036  0.026600351            7 
 2312000   0.88684278   -6.9980221    740.71451  0.026698187  0.026592958            3 
 2313000   0.89224472   -6.9654199    741.76726  0.026724574  0.026585507            4 
 2314000    0.9000181   -6.9814223    742.55937   0.02674155  0.026578147            4 
 2315000   0.89491958   -6.9698965    742.34852  0.026722409  0.026570761            5 
 2316000   0.87305743    -7.020248    742.82287  0.026727939  0.026563389           12 
 2317000   0.87639429   -6.9941922    741.98662  0.026686326  0.026555974            9 
 2318000   0.86376212   -7.0037543    741.90319  0.026671814  0.026548527            3 
 2319000   0.88127715   -6.9729342    744.78013  0.026763696  0.026541111            5 
 2320000   0.89322964   -6.9735114    743.56681  0.026708578  0.026533745            8 
 2321000   0.89176233   -6.9578876     743.6089  0.026698582  0.026526426            3 
 2322000    0.8812553    -7.019386    741.79124   0.02662185  0.026519042            8 
 2323000   0.88413025    -7.000197    743.49755  0.026671601  0.026511646            3 
 2324000   0.88621796   -6.9898317    743.96732  0.026676969  0.026504223            4 
 2325000   0.89119903   -6.9865098    743.92006  0.026663802  0.026496903            5 
 2326000   0.87214546   -6.9936103    746.04987  0.026728643  0.026489578            7 
 2327000   0.88849187   -6.9883934    745.60554  0.026701244  0.026482298            6 
 2328000   0.89782933   -6.9860995    745.92561  0.026701232  0.026474958            8 
 2329000    0.8730812   -7.0015026     746.8467  0.026722725  0.026467665            9 
 2330000    0.8810082   -6.9847102    746.32941  0.026692754  0.026460312            7 
 2331000   0.88231999   -7.0270648    742.44936  0.026542591  0.026452951            7 
 2332000   0.87734876   -7.0160611    742.17571  0.026521431  0.026445527            5 
 2333000   0.86759748   -7.0178831    742.09869  0.026507311  0.026438098            5 
 2334000   0.87206085    -6.999433    746.28569  0.026645448  0.026430728            6 
 2335000    0.8750324   -7.0026281    746.95136  0.026657793  0.026423385           19 
 2336000   0.87459408   -6.9911645     745.7209  0.026602487  0.026416054            4 
 2337000   0.88005069   -6.9874948    745.84036  0.026595363  0.026408751            8 
 2338000   0.86169204   -6.9895478    745.95539  0.026588088  0.026401454            7 
 2339000   0.88008478   -7.0322181    745.26567  0.026552147  0.026394068            7 
 2340000   0.87260611   -6.9843059    745.54272  0.026550667  0.026386707            4 
 2341000   0.87442025   -6.9983303    746.05029  0.026557393  0.026379332            3 
 2342000   0.87288092   -7.0082893    745.42285  0.026523728  0.026371955            8 
 2343000   0.88507725   -6.9806943    745.43515  0.026512845  0.026364569            6 
 2344000    0.8645974   -6.9805099    747.53223  0.026576089  0.026357252            8 
 2345000   0.87235237   -6.9939642    746.32775  0.026521953   0.02634993            7 
 2346000   0.89116453   -7.0078311    746.49735  0.026516672  0.026342584            9 
 2347000   0.86570245   -7.0119042    746.63563  0.026510284  0.026335216            5 
 2348000   0.88707939   -6.9951387    745.20741  0.026448304  0.026327879            6 
 2349000   0.89527856   -7.0082217    746.88577  0.026496586  0.026320538           10 
 2350000   0.87793291    -7.005012    746.47144  0.026470619  0.026313125            5 
 2351000   0.87346242   -7.0271142     746.8189  0.026471675   0.02630568            7 
 2352000   0.85997239   -6.9839454    748.36046  0.026515039  0.026298331            4 
 2353000    0.8824616   -6.9918878    745.94314  0.026418159  0.026290981            7 
 2354000   0.89269995   -6.9899392    746.93984   0.02644222  0.026283604            5 
 2355000   0.88338788   -6.9927578    747.25195  0.026442037  0.026276171            7 
 2356000   0.87711521   -7.0193336    747.10509  0.026425619  0.026268725            5 
 2357000   0.85701146   -7.0255803     748.2348  0.026454349   0.02626132            4 
 2358000    0.8767863   -7.0238176    745.07703  0.026331532   0.02625395            7 
 2359000   0.86215575   -6.9943772     746.2899  0.026363215  0.026246594            3 
 2360000   0.87253318   -7.0026644    750.53387  0.026501902  0.026239317            3 
 2361000   0.85357897   -7.0105394    748.30096  0.026411865  0.026232013            7 
 2362000   0.88329427    -7.001282    748.78648  0.026417813  0.026224703            8 
 2363000   0.86636714   -6.9780397    748.66143  0.026402223   0.02621739            5 
 2364000   0.86586036   -7.0242141    749.40666  0.026417324  0.026210059            4 
 2365000   0.85416677   -6.9963835    749.55406  0.026411348  0.026202699            7 
 2366000   0.87492432   -7.0506511    748.13039  0.026350042  0.026195362            5 
 2367000   0.85240213   -7.0139205    747.58866  0.026319837  0.026187979            3 
 2368000   0.89169828   -6.9865615     749.7287  0.026384033   0.02618064            5 
 2369000   0.86968686   -6.9831422    750.62288  0.026404351  0.026173334           13 
 2370000   0.86293938   -7.0072432    749.42918  0.026351237  0.026166126            7 
 2371000   0.87337637   -6.9758909     750.7715  0.026387301  0.026158872            4 
 2372000    0.8800131   -6.9766055    750.45474  0.026365048  0.026151648            5 
 2373000   0.88352126   -7.0090395    750.98443  0.026372539  0.026144399           12 
 2374000   0.86783696   -7.0532687    751.55754  0.026381548  0.026137066            3 
 2375000   0.87177304   -7.0241309    749.89505  0.026312107  0.026129744           14 
 2376000   0.88423076   -7.0332327    750.51415  0.026322747  0.026122477            4 
 2377000   0.89359571   -7.0080249    749.71202  0.026283552  0.026115243            5 
 2378000   0.88317363   -7.0237085    750.42732  0.026297565     0.026108            6 
 2379000   0.90212381   -7.0126092    751.33784  0.026318406  0.026100766            8 
 2380000   0.89173023   -7.0441266    750.87643  0.026291191  0.026093572            9 
 2381000   0.87255037   -6.9838411    752.51312  0.026337432  0.026086354           11 
 2382000   0.88043775   -7.0060838    751.08118   0.02627628   0.02607916            4 
 2383000   0.85857402   -7.0081969    751.09454   0.02626572  0.026071942           10 
 2384000   0.88215752   -7.0048388    752.10809  0.026290132  0.026064776            4 
 2385000   0.86733672    -7.044315    751.33884  0.026252231  0.026057601            4 
 2386000   0.87129037   -7.0114531    753.54019  0.026318112  0.026050394            4 
 2387000    0.8862173   -7.0228725    752.31178  0.026264201  0.026043172            2 
 2388000    0.8562279   -7.0212131    751.61495  0.026228886  0.026035955            5 
 2389000   0.88347873   -7.0165652    752.27379  0.026240888  0.026028769            7 
 2390000   0.86946447   -7.0101176     752.9309  0.026252821  0.026021483            7 
 2391000   0.86668372   -7.0328825     751.5402  0.026193371  0.026014204            8 
 2392000   0.86751269   -7.0561585    750.99947  0.026163582  0.026006949            9 
 2393000   0.87236968   -7.0289328    753.54774  0.026241389   0.02599975            7 
 2394000   0.86453938   -7.0038567    754.28376  0.026256048  0.025992535            7 
 2395000   0.87773434   -7.0120071    752.27572  0.026175217  0.025985297            5 
 2396000    0.8739788    -7.020737    753.02504  0.026190353  0.025978066            4 
 2397000   0.87044665   -7.0403287     753.0449  0.026180118  0.025970804            7 
 2398000   0.85604616   -7.0033812    755.08662  0.026240152  0.025963591            7 
 2399000    0.8783415   -6.9943679    755.52634  0.026244489    0.0259564            5 
 2400000    0.8822008   -7.0414544    752.50807  0.026128752   0.02594921           12 
 2401000   0.87088511   -7.0036807    755.41045  0.026218605  0.025942001            3 
 2402000   0.87571534   -7.0375278    752.04692  0.026090998  0.025934777            4 
 2403000   0.85017068    -7.015415    753.73486  0.026138676  0.025927573            7 
 2404000   0.85352534   -7.0243952     755.1113  0.026175516  0.025920355            5 
 2405000    0.8643911   -7.0279228    754.09168  0.026129303    0.0259132            4 
 2406000   0.86032635   -7.0324388    755.34462  0.026161839  0.025906022            2 
 2407000   0.86673369   -7.0569171    755.38926  0.026152516  0.025898834            4 
 2408000   0.88591044   -7.0528314    755.23261  0.026136234  0.025891635            5 
 2409000   0.87599838    -7.014018     755.3065   0.02612794  0.025884453            8 
 2410000   0.86028901   -7.0223327    755.30861  0.026117172  0.025877282           11 
 2411000   0.84668385   -7.0404161    754.09971  0.026064555  0.025870084            8 
 2412000   0.86499071   -7.0275787    755.46784  0.026101017  0.025862947            4 
 2413000   0.85136083   -7.0100419     756.0228  0.026109366  0.025855819            9 
 2414000    0.8822908   -7.0385548    756.85857  0.026127402  0.025848729            7 
 2415000   0.88887595   -7.0417432    755.24745  0.026060988  0.025841645            4 
 2416000   0.87135142   -7.0185311    756.89383  0.026106989  0.025834516            4 
 2417000   0.87298675   -7.0258141    756.94667   0.02609801  0.025827369            7 
 2418000   0.85740941   -6.9956655     756.3469  0.026066546  0.025820221            4 
 2419000   0.87304809   -7.0397115    755.91377  0.026040849  0.025813064            3 
 2420000   0.86280864   -7.0509113    755.56773  0.026018173  0.025805865            5 
 2421000   0.86045209   -7.0212659    756.04972  0.026024016  0.025798693            6 
 2422000    0.8696255   -7.0130293     757.6687  0.026068975  0.025791556            4 
 2423000   0.85534266   -7.0282972    757.07661  0.026037853  0.025784406           11 
 2424000   0.85915306   -7.0050643    755.43232  0.025970583  0.025777244            6 
 2425000   0.85310887   -7.0096549    755.89721  0.025975849  0.025770101            7 
 2426000   0.86574147   -7.0465487    757.12539   0.02600733  0.025762954            7 
 2427000   0.87160846   -7.0518965    757.53722  0.026010755  0.025755804            6 
 2428000   0.86287077   -7.0384562    758.81743  0.026043981  0.025748707            4 
 2429000   0.86602759   -7.0370697    758.12226  0.026009409  0.025741582            4 
 2430000   0.84737823   -7.0410294    757.79364  0.025987436  0.025734474            4 
 2431000   0.86716412   -7.0195433    758.87632   0.02601386   0.02572734            6 
 2432000   0.85440662   -7.0058296    760.16876  0.026047449  0.025720258            4 
 2433000   0.85772573   -7.0052034     760.9371   0.02606306  0.025713282            6 
 2434000   0.87619746   -6.9934391    761.46289  0.026070354  0.025706276            5 
 2435000    0.8560676   -7.0012065    759.98491  0.026009066  0.025699249            7 
 2436000   0.85769356   -7.0204093    758.61208  0.025951426  0.025692139           13 
 2437000   0.85698777   -7.0503018    756.97162  0.025884681  0.025685028            4 
 2438000   0.85382583   -7.0314814    758.66268  0.025931866   0.02567793            9 
 2439000   0.86718074   -7.0288565    758.97056  0.025931753  0.025670842            9 
 2440000   0.85943707   -7.0318158    758.71991  0.025912565  0.025663753            8 
 2441000   0.87821296   -6.9898503    759.71248  0.025935835  0.025656703            4 
 2442000   0.83647534   -7.0017763    761.49766  0.025986133  0.025649632            4 
 2443000   0.84525347   -7.0472377    759.80585  0.025917787  0.025642543            4 
 2444000   0.87853666   -7.0109608    759.78429  0.025906448  0.025635439           12 
 2445000   0.89120272   -7.0433819    760.49374  0.025920032  0.025628344            5 
 2446000   0.86136143   -7.0013232    760.15339   0.02589784  0.025621303            7 
 2447000   0.87023879   -7.0399561    761.35245  0.025928091  0.025614232            3 
 2448000   0.86552176   -7.0078053     762.6789  0.025962653   0.02560715            8 
 2449000   0.85647453   -7.0213487    762.19515  0.025935591  0.025600131            3 
 2450000   0.85443654   -7.0403997    761.11786  0.025888363  0.025593069            4 
 2451000   0.84716062   -7.0341546     762.3538  0.025919822  0.025586014            8 
 2452000   0.86455263   -7.0657801    759.95868  0.025827851  0.025578976            5 
 2453000   0.83905356   -7.0369881    761.12567  0.025856967  0.025571948            6 
 2454000   0.85562601   -7.0262371    760.46031  0.025823835  0.025564978            5 
 2455000   0.86459024   -7.0548337    762.01272  0.025866012  0.025557979            7 
 2456000   0.85729575   -7.0560705    762.46737  0.025870907  0.025550926           10 
 2457000   0.86078679   -7.0563256    761.98838  0.025844132  0.025543928            9 
 2458000   0.86042113    -7.058898    761.64735  0.025822055  0.025536905           11 
 2459000   0.84075349   -7.0251792     763.0168  0.025857964  0.025529894            7 
 2460000   0.86396041   -7.0339663     763.7797  0.025873296   0.02552295            5 
 2461000   0.83985829   -7.0256644    761.33148  0.025779882   0.02551601            5 
 2462000   0.87584704   -6.9940506    764.34048  0.025871259    0.0255091            5 
 2463000   0.86153467   -7.0350347    764.34622  0.025860949  0.025502167            5 
 2464000   0.85748523    -7.027761     762.4739  0.025787131  0.025495234            8 
 2465000   0.86457062    -7.042885    763.67819  0.025817383  0.025488315            6 
 2466000   0.86217889   -7.0520093    763.77367   0.02581014  0.025481372            3 
 2467000   0.84538921   -7.0188184    763.66345  0.025795955  0.025474372            8 
 2468000   0.85789314   -7.0196007    763.97816  0.025796129  0.025467363            3 
 2469000   0.85322758   -7.0590894    763.73184  0.025777367  0.025460324            3 
 2470000   0.85516476   -7.0620197    761.13521  0.025679325  0.025453224            6 
 2471000   0.85808151   -7.0401371    762.70493  0.025721871  0.025446205            3 
 2472000   0.84369825   -7.0674487    763.37705  0.025734124  0.025439173            7 
 2473000   0.85650689   -7.0065781    764.29294  0.025754581  0.025432161            6 
 2474000   0.85547133   -7.0271057    764.22047   0.02574173  0.025425156            8 
 2475000    0.8429271   -7.0539172     762.7437  0.025681606  0.025418163            8 
 2476000   0.86005568   -7.0494349    762.76089  0.025671812   0.02541113           11 
 2477000   0.86368954   -7.0375831    762.19136  0.025642288  0.025404087            8 
 2478000   0.85648362   -7.0701586    763.64478  0.025680817     0.025397            7 
 2479000     0.849534   -7.0421332    762.24443  0.025623384  0.025389907           11 
 2480000   0.84032955   -7.0527576    762.88315  0.025634515  0.025382794            7 
 2481000   0.85183947   -7.0473897    764.36165  0.025673843  0.025375793            9 
 2482000   0.84367661   -7.0307259     763.8326  0.025645736  0.025368838            6 
 2483000   0.84454275   -7.0307251     765.5534   0.02569316  0.025361902            5 
 2484000   0.85168596   -7.0423951    764.02744  0.025631624  0.025354997            8 
 2485000   0.87921748   -7.0644112    763.07131  0.025589246  0.025347987            4 
 2486000   0.84390085   -7.0704209    763.22096  0.025583969  0.025340983            4 
 2487000   0.88254327   -7.0527918    765.62524  0.025654243   0.02533404            6 
 2488000   0.83871359   -7.0387452    769.20853  0.025763951  0.025327105            3 
 2489000   0.84295509   -7.0697803    766.06215  0.025648257  0.025320111            7 
 2490000   0.86210429    -7.044296    766.43511  0.025650439  0.025313139            9 
 2491000   0.86832941   -7.0492657    764.72212  0.025582836  0.025306209           10 
 2492000   0.84705111   -7.0898806    766.39377   0.02562847  0.025299255            2 
 2493000   0.83047217   -7.0328064    766.47619  0.025620945  0.025292275            3 
 2494000   0.85183403   -7.0334752    765.82184  0.025588808  0.025285325            3 
 2495000   0.84183324   -7.0656857    766.14347  0.025589294  0.025278396            6 
 2496000   0.85220665   -7.0520285    767.13889  0.025612276  0.025271444            6 
 2497000   0.82713056   -7.0582289    765.36409  0.025542788  0.025264512            3 
 2498000    0.8383834   -7.0201056    768.02536  0.025621342  0.025257624            3 
 2499000   0.85320126   -7.0790612    766.42373  0.025557681  0.025250674            7 
 2500000   0.83971138   -7.0738924    767.31467  0.025577156  0.025243726            6 
 2501000   0.84369603   -7.0691844    769.37027  0.025635421  0.025236752           10 
 2502000   0.86360501    -7.064388    767.67689  0.025568775   0.02522983           11 
 2503000   0.83297959   -7.0480324    766.24343  0.025510835  0.025222938            7 
 2504000   0.83334047   -7.0362961    765.73988  0.025483888  0.025216038            9 
 2505000    0.8630464   -7.0552464    767.36605  0.025527813  0.025209085            8 
 2506000   0.84173214   -7.0578035    767.69596  0.025528597  0.025202156            6 
 2507000   0.83252513   -7.0721442     766.3364  0.025473222  0.025195217            8 
 2508000   0.84963537   -7.0386959     769.5254  0.025569026  0.025188301            5 
 2509000   0.85253512    -7.072442    769.88572  0.025570802  0.025181378            9 
 2510000   0.83366676   -7.0709554    766.58131  0.025450907  0.025174474            4 
 2511000   0.84366521   -7.0644932    768.28796   0.02549741  0.025167585           19 
 2512000   0.84490416   -7.0171439    769.75788  0.025536023  0.025160731            6 
 2513000   0.85332362   -7.0743944    767.83317  0.025462037  0.025153864            8 
 2514000   0.84776636   -7.0492399    770.13307  0.025528145  0.025147022            5 
 2515000   0.86086839   -7.0652296    769.41611  0.025494238  0.025140206            8 
 2516000   0.84809024   -7.0208783    769.99915  0.025503416  0.025133394           11 
 2517000   0.84629081   -7.0393432    770.53173  0.025510917   0.02512658            6 
 2518000   0.84550723   -7.0283656    770.07974  0.025485827  0.025119748           11 
 2519000   0.85491793   -7.0424069    769.91055  0.025470112  0.025112874            5 
 2520000   0.85286745    -7.067954     770.6731  0.025485221   0.02510602            5 
 2521000   0.86314299   -7.0314832    770.04885  0.025454477  0.025099185            3 
 2522000   0.83452679   -7.0742634    770.34325  0.025454112  0.025092334            4 
 2523000    0.8514394   -7.0956747    769.24488  0.025407745    0.0250855            3 
 2524000   0.85139554   -7.0262555    771.42561  0.025469678  0.025078653            3 
 2525000   0.84543838   -7.0626679    772.41541  0.025492258  0.025071829            5 
 2526000    0.8472982    -7.062751    770.68919  0.025425218  0.025065007           11 
 2527000   0.84924797   -7.0439618    771.06957    0.0254277  0.025058192            8 
 2528000   0.85951059   -7.0188944    772.29255  0.025457956  0.025051384            8 
 2529000   0.85262065   -7.0661812    771.10622  0.025408799  0.025044586            6 
 2530000   0.84570058   -7.0606854    772.69129  0.025450965  0.025037785            5 
 2531000   0.83979318   -7.0552082    770.79838  0.025378585  0.025030996            3 
 2532000   0.86193282   -7.0747375      770.438  0.025356701  0.025024163            5 
 2533000   0.85427701   -7.0756163    769.68489  0.025321914  0.025017289            3 
 2534000   0.84936983   -7.0371652    771.80488  0.025381639  0.025010441            4 
 2535000   0.83399604   -7.0273588    773.67176  0.025432997  0.025003656            5 
 2536000   0.83822716   -7.0681411    773.01567  0.025401409  0.024996857            8 
 2537000   0.83306282   -7.0522538    772.11441  0.025361792  0.024990048            6 
 2538000   0.84379585   -7.0774098    772.88702  0.025377168  0.024983271            4 
 2539000   0.85055092   -7.0427087     773.1931  0.025377219  0.024976468            6 
 2540000   0.84230123   -7.0687214    772.19554  0.025334499  0.024969663            6 
 2541000    0.8423927   -7.0590093    773.20551  0.025357651  0.024962856            4 
 2542000   0.85681672   -7.0480131     774.3793  0.025386156  0.024956094            5 
 2543000   0.84330507   -7.0457295    772.48257  0.025314018  0.024949323            4 
 2544000   0.83837951   -7.0485588    774.16699  0.025359244  0.024942548            7 
 2545000   0.84836888   -7.0655418    772.15651  0.025283448  0.024935729            5 
 2546000   0.83469941   -7.1026003    773.48167  0.025316892  0.024928913           14 
 2547000   0.84604657    -7.061357    774.39815  0.025336937  0.024922106            5 
 2548000   0.85190773   -7.0482477    772.97341  0.025280397  0.024915284            4 
 2549000   0.82479797    -7.052545    774.56829   0.02532262  0.024908505            5 
 2550000   0.84247533   -7.0278509    773.46102  0.025276504  0.024901766           14 
 2551000   0.83053471   -7.0490045    774.28414  0.025293484  0.024894957            4 
 2552000   0.84251447   -7.0691638    774.18482   0.02528033   0.02488814            9 
 2553000   0.85106148   -7.0837381    773.61465  0.025251816  0.024881318            5 
 2554000   0.84172752   -7.0258284     773.3297  0.025232632  0.024874488            7 
 2555000   0.85123138   -7.0435022    774.80082  0.025270738  0.024867684            3 
 2556000    0.8519782   -7.0782312    775.09868  0.025270562  0.024860872            4 
 2557000   0.83980078   -7.0753426    773.35097  0.025203721  0.024854043            6 
 2558000   0.83076226   -7.0347461    773.82807  0.025209411   0.02484723            6 
 2559000   0.82561771   -7.0717808    774.23024  0.025212656  0.024840406            5 
 2560000    0.8360292   -7.0710585    774.31469  0.025205556  0.024833621            6 
 2561000   0.84872412   -7.0258196     774.4021  0.025198559  0.024826787            5 
 2562000   0.82924694   -7.0463013    773.78291  0.025168583  0.024819975            6 
 2563000   0.84792256   -7.0702025    772.03453  0.025101916  0.024813113            6 
 2564000   0.87044902   -7.0579666    775.63471  0.025209137  0.024806276            7 
 2565000   0.82674404   -7.0557434    775.18263  0.025184621  0.024799426            4 
 2566000   0.84221618   -7.0568871    774.20751  0.025143138  0.024792589            8 
 2567000   0.82828545   -7.0659404    775.50718  0.025175535  0.024785737            8 
 2568000   0.84721378    -7.060578    774.33989  0.025127852  0.024778868           11 
 2569000   0.82077692   -7.0676198    776.58416  0.025190871  0.024772003            6 
 2570000   0.85497674   -7.0767791     773.5802  0.025083664  0.024765139            6 
 2571000    0.8457425   -7.0623764    775.95417  0.025150855  0.024758266            5 
 2572000   0.83999217   -7.1081547    775.57818  0.025128894  0.024751394            5 
 2573000   0.83400754   -7.0792902    773.60619   0.02505526  0.024744534            4 
 2574000   0.83663594   -7.0858201    774.88365  0.025086883  0.024737689            9 
 2575000   0.84373735    -7.085354    773.68355  0.025038303  0.024730823            6 
 2576000   0.85363787   -7.0707771    776.39324  0.025116241  0.024723982            7 
 2577000   0.83452606   -7.0696582    775.89854  0.025090497  0.024717131            6 
 2578000   0.83239602   -7.0962842    775.75696  0.025076188  0.024710288            5 
 2579000   0.82689605   -7.0653974    774.42007  0.025023267   0.02470342            6 
 2580000   0.84442927   -7.0827061    776.32415   0.02507507  0.024696584            9 
 2581000   0.85719073    -7.083193    778.04128  0.025120795  0.024689762            6 
 2582000   0.81972243    -7.091447     775.0931  0.025015915  0.024682986            9 
 2583000   0.84417177   -7.0627768    777.58288  0.025086556  0.024676238           10 
 2584000   0.85725028   -7.0775104    777.60162  0.025077452  0.024669513            7 
 2585000    0.8229972   -7.0657978    775.44714  0.024998296  0.024662665           10 
 2586000   0.83392553    -7.073167      778.771   0.02509574  0.024655847            5 
 2587000   0.82729151   -7.0818271    774.95813  0.024963218  0.024649063            6 
 2588000   0.83512845    -7.059774     777.4129  0.025032615   0.02464227            5 
 2589000   0.84556038   -7.0820076    777.51403  0.025026202  0.024635452            5 
 2590000   0.83061977    -7.069904     776.4085  0.024980968  0.024628616            6 
 2591000   0.82728335   -7.1007624    777.56822  0.025008627  0.024621799            7 
 2592000   0.82429428   -7.0791335      778.378  0.025025013  0.024615064            4 
 2593000   0.84178663   -7.0822303    776.27323  0.024947719  0.024608279            7 
 2594000   0.83255092   -7.0722153    777.65327  0.024982436  0.024601504            5 
 2595000    0.8277472   -7.0865814    776.40858  0.024932838  0.024594762            6 
 2596000   0.83123312   -7.0513664    779.52996  0.025023432  0.024587977            8 
 2597000   0.83938065   -7.0814579    779.10608  0.025000195  0.024581205            3 
 2598000   0.82817112   -7.1011041    775.98697  0.024890524  0.024574377            8 
 2599000   0.84929052   -7.1252094    776.25764  0.024889626  0.024567557            8 
 2600000   0.82880617   -7.0610137    777.52614   0.02492071  0.024560746           15 
 2601000   0.82072668   -7.0898482    777.43355  0.024908162  0.024553911            7 
 2602000   0.84707555   -7.1055988    778.24845  0.024924688  0.024547065            9 
 2603000   0.83442735    -7.083777    777.02474  0.024875936  0.024540204            4 
 2604000     0.844158   -7.0895894    777.85919  0.024893087   0.02453334            4 
 2605000   0.81990663   -7.0918177    777.98751  0.024887636  0.024526484            6 
 2606000   0.83889495   -7.0706535     779.2405  0.024918153  0.024519658            3 
 2607000   0.81576571   -7.0987815    777.33183  0.024847584  0.024512848            4 
 2608000   0.83373663   -7.1236398    777.32798  0.024837934  0.024506034            3 
 2609000   0.82139752   -7.0794369    777.85679  0.024845304   0.02449914            3 
 2610000   0.86702837    -7.119676    777.54437   0.02482581   0.02449227            8 
 2611000   0.84436778   -7.1111045    777.06046  0.024800857   0.02448537            7 
 2612000   0.82170714   -7.0642465    777.58759   0.02480818  0.024478512            7 
 2613000    0.8345733   -7.0946626    778.03334  0.024812902  0.024471659           10 
 2614000   0.83624185   -7.1161658    779.04882  0.024835782  0.024464802            5 
 2615000   0.82319957   -7.0863347    778.74175  0.024816499  0.024457988            5 
 2616000   0.82845706   -7.0997705    778.32815  0.024793838  0.024451142            5 
 2617000   0.83208696    -7.107355      779.755  0.024829799  0.024444298            5 
 2618000    0.8226425   -7.0661757    778.60904  0.024783837   0.02443751           10 
 2619000   0.81069757   -7.0738175    780.34226  0.024829523  0.024430685            4 
 2620000   0.83931045   -7.0950649    781.31432  0.024850964  0.024423871           11 
 2621000   0.83283324   -7.1047005    779.21724  0.024774807  0.024417075           14 
 2622000   0.83234353   -7.0806364    778.80275  0.024752185  0.024410238            8 
 2623000   0.83363062   -7.0958662    779.63664  0.024769241  0.024403394            7 
 2624000   0.84861658   -7.1092001     780.9557  0.024801693  0.024396592            4 
 2625000   0.81349475   -7.1159765    778.77458  0.024723003  0.024389794            5 
 2626000   0.84168926   -7.0942492    779.53098  0.024737591  0.024382968            7 
 2627000   0.82644304    -7.106354    780.06798  0.024745209  0.024376136            5 
 2628000   0.82883758   -7.0927123    779.29029  0.024711133  0.024369281           13 
 2629000   0.82246298   -7.1201173    780.13622  0.024728547  0.024362458            6 
 2630000   0.82906641   -7.1014457    781.53907  0.024763595  0.024355682            4 
 2631000   0.82628049   -7.1187484    780.62506  0.024725233  0.024348898            4 
 2632000   0.82313717   -7.1152575    781.01097  0.024728058  0.024342073            8 
 2633000   0.82785054   -7.0773229    782.29414  0.024759278  0.024335284            8 
 2634000    0.8150488   -7.0898953    781.15164  0.024713732   0.02432848            5 
 2635000   0.81210828   -7.0939722    783.11246  0.024766365  0.024321707            8 
 2636000   0.82395266   -7.0906383      781.682  0.024711748  0.024314939           14 
 2637000    0.8250718   -7.1182932    780.14103  0.024653679  0.024308136            6 
 2638000   0.81303011   -7.0932663    782.41667   0.02471622  0.024301387            5 
 2639000   0.82551727   -7.0980384    781.63455  0.024682157  0.024294678            8 
 2640000    0.8401363   -7.0803689    783.89463  0.024744149  0.024287956            5 
 2641000   0.81363031   -7.0657026    783.17708  0.024712138  0.024281221           15 
 2642000   0.82308211   -7.1105622    781.75107  0.024657806  0.024274445            7 
 2643000   0.85361925    -7.105099    781.37722  0.024636689  0.024267662            9 
 2644000   0.83410379   -7.1423722    782.17297  0.024652451  0.024260921           10 
 2645000   0.84899688   -7.1081437    781.36607  0.024617708   0.02425417            7 
 2646000   0.83991635   -7.0989817    783.29659  0.024669205  0.024247439            6 
 2647000   0.82541819   -7.0695906    785.19363  0.024719608  0.024240758            4 
 2648000   0.81451884   -7.0832226    783.77916  0.024665759  0.024234091           11 
 2649000   0.83166957   -7.0934673    782.49556  0.024616068  0.024227446            7 
 2650000    0.8284506   -7.1150085    783.79446  0.024647624  0.024220741            3 
 2651000   0.81027891   -7.1144865    782.74767  0.024605421  0.024214065            6 
 2652000   0.81703486   -7.0887397    784.78955  0.024660305  0.024207362            6 
 2653000   0.84204115   -7.0891409    784.31069  0.024635968  0.024200713            5 
 2654000    0.8137406   -7.0716458    783.50459  0.024601375  0.024194025            9 
 2655000   0.84827371   -7.1077032    783.55012  0.024593538  0.024187317            3 
 2656000   0.83820136   -7.0824556    783.47906  0.024582049  0.024180661            5 
 2657000    0.8180315   -7.0890156    783.88877  0.024585647  0.024174029            7 
 2658000   0.81230383   -7.0953819    784.39648  0.024592315  0.024167359            6 
 2659000   0.83762793   -7.1125163    783.56868  0.024557123    0.0241607            3 
 2660000    0.8151285   -7.1155698    783.83915  0.024556364  0.024154015            8 
 2661000   0.83691797   -7.0997896    785.76199  0.024607353  0.024147341            3 
 2662000   0.82040716   -7.0995914    783.77232  0.024535823  0.024140663            5 
 2663000   0.83605602    -7.114083    783.60389  0.024521338   0.02413398            4 
 2664000   0.82705177   -7.0812998    786.79213  0.024611866  0.024127329            8 
 2665000   0.82053164   -7.1140811     784.1836  0.024521063  0.024120685            5 
 2666000   0.83682867   -7.1043374    783.30497  0.024484402  0.024114024            8 
 2667000   0.82185128   -7.1149067    784.50624  0.024512756  0.024107381            7 
 2668000   0.83809729   -7.1015636    785.46973  0.024533662  0.024100777            6 
 2669000   0.83204824    -7.099825    787.43169  0.024585728  0.024094164            5 
 2670000   0.82496151   -7.1328028    784.81429  0.024494828  0.024087522            5 
 2671000   0.83272482   -7.1081709    786.46102  0.024537034  0.024080882            5 
 2672000   0.82653143   -7.1176634    784.91738  0.024479709  0.024074244            5 
 2673000   0.80340622   -7.1259121    786.42684   0.02451761  0.024067614            9 
 2674000   0.80552083   -7.1119572    785.80616  0.024489097  0.024061018            6 
 2675000   0.82434495   -7.0988997    786.57825  0.024503995  0.024054424            5 
 2676000   0.83464191   -7.0690816     785.5194  0.024461865  0.024047837            5 
 2677000   0.80501188   -7.0977511    787.13886   0.02450314  0.024041224           11 
 2678000   0.82596377   -7.1252018     786.8896  0.024486234  0.024034615            4 
 2679000   0.82161483   -7.1122528    789.42191  0.024555864  0.024027973            7 
 2680000   0.82262288   -7.0850295    785.51992  0.024425371  0.024021368            4 
 2681000   0.83473289   -7.1085753    785.37318  0.024411699  0.024014706            5 
 2682000   0.81006507    -7.116597     784.3127  0.024369646  0.024008082            6 
 2683000   0.82693189   -7.0944805    786.03073  0.024413925  0.024001425            5 
 2684000    0.8382214   -7.0938286    786.53278  0.024420417  0.023994781            6 
 2685000   0.84462226   -7.1198266    785.48721   0.02437887   0.02398807            4 
 2686000   0.82583292   -7.0990377    785.73017  0.024377332   0.02398136            7 
 2687000   0.81908098   -7.0867413     786.7827  0.024400903  0.023974663            8 
 2688000   0.82979967   -7.0850541    786.02851  0.024368443  0.023967986            3 
 2689000   0.81063582   -7.0899325    785.81029  0.024352618  0.023961329            7 
 2690000   0.83377555   -7.0957021    786.75727  0.024372902  0.023954615            4 
 2691000   0.80776508   -7.1232314    786.38686  0.024352374  0.023947931            5 
 2692000   0.82207375   -7.1177763    785.77153   0.02432428  0.023941223            6 
 2693000   0.80243373   -7.0872587    784.76253  0.024284024  0.023934509           11 
 2694000     0.821869   -7.0891159    785.84293   0.02430843  0.023927788            6 
 2695000   0.83607256   -7.1427249    785.09138  0.024276171  0.023921043            7 
 2696000   0.79993705   -7.1288696    785.99044  0.024294957  0.023914296           11 
 2697000   0.82796399   -7.1230627    789.92651  0.024407567  0.023907595           12 
 2698000   0.81908981   -7.1114829    787.93292  0.024336945  0.023900871           10 
 2699000   0.81692951   -7.1077785    787.67185  0.024319867  0.023894147            4 
 2700000   0.82634089    -7.112734    788.15866  0.024325885  0.023887396            7 
 2701000   0.80534978   -7.1358088    786.10628  0.024253557  0.023880645            5 
 2702000   0.82408228   -7.1122895     785.0777  0.024212858  0.023873902            8 
 2703000   0.81877144   -7.0948418    785.92585  0.024230048  0.023867172            9 
 2704000   0.82789873   -7.1404418    786.56757  0.024240864  0.023860415            5 
 2705000   0.81348913   -7.1293254    787.03472  0.024246295  0.023853693            7 
 2706000   0.82403561   -7.1417524    787.86946  0.024263041  0.023846971            9 
 2707000   0.81426802   -7.1373532    785.20828  0.024172155  0.023840166            7 
 2708000   0.81542003   -7.1164699    786.82007  0.024212828  0.023833403            6 
 2709000   0.82147554   -7.1147244    788.41822  0.024253052  0.023826685            3 
 2710000   0.81498716   -7.1310003    787.54814  0.024217347  0.023819948            4 
 2711000   0.80607565   -7.1440631    788.02808  0.024223167  0.023813185            4 
 2712000   0.82068888    -7.106071    788.45784  0.024227441  0.023806407            4 
 2713000   0.81278659   -7.1157939    786.70671  0.024164723  0.023799661            6 
 2714000   0.82520547   -7.1126198    786.76148  0.024157501  0.023792915            7 
 2715000   0.82702474   -7.1250874    788.36277  0.024197752  0.023786195            3 
 2716000   0.81546542   -7.1116288    788.24611  0.024185263  0.023779459            9 
 2717000    0.8118183   -7.1516241    787.02067  0.024138777  0.023772733           14 
 2718000   0.83237248   -7.1090427    787.45283  0.024143145  0.023766005           16 
 2719000   0.81709138   -7.0876347    787.45038  0.024134191  0.023759302           11 
 2720000   0.82601088   -7.1098688    788.83964  0.024167881  0.023752583            3 
 2721000   0.80704781   -7.1407064    785.85648  0.024067637  0.023745824            5 
 2722000    0.8085341   -7.1377458    786.23069  0.024070251  0.023739027            9 
 2723000    0.8512767   -7.1146203    786.74177  0.024077053  0.023732227           17 
 2724000   0.80026262    -7.136193    788.90527    0.0241344  0.023725468           10 
 2725000   0.81523489   -7.1400628    788.89459  0.024125217  0.023718685            6 
 2726000   0.80902236   -7.1108813    790.01602  0.024150649  0.023711933            4 
 2727000   0.81930722   -7.1138308    787.91629  0.024077628  0.023705207            3 
 2728000   0.82163173   -7.1226153    788.13562  0.024075501  0.023698504            5 
 2729000   0.81219863   -7.1241023    788.55775   0.02407957  0.023691807            4 
 2730000   0.82292652   -7.1325717    788.78312  0.024077629  0.023685116            5 
 2731000   0.82483368   -7.1419907    789.07276  0.024077651  0.023678396            5 
 2732000   0.81445527   -7.1085623    789.39941  0.024078801  0.023671697            5 
 2733000    0.8186544    -7.115471    788.06934  0.024029435  0.023664969           10 
 2734000   0.82383578   -7.1160889    789.04851  0.024050491  0.023658268            7 
 2735000   0.80161426   -7.1141272     791.6835  0.024121983  0.023651582            3 
 2736000   0.82479412   -7.1131452    789.04524  0.024032811  0.023644891            5 
 2737000   0.82455063   -7.1387562    789.52672   0.02403869  0.023638226           13 
 2738000   0.82038827   -7.1438576    787.17752   0.02395841  0.023631556            7 
 2739000   0.80105574   -7.1471731    789.47214  0.024019476  0.023624913            5 
 2740000   0.81932958   -7.1520887    790.83477  0.024052152  0.023618276           10 
 2741000   0.78777305   -7.1257783    791.10614  0.024051628  0.023611617            7 
 2742000   0.81504134   -7.1330255    790.48761  0.024024058  0.023604964            7 
 2743000   0.84770387   -7.1202042    791.15194  0.024035482  0.023598314            5 
 2744000   0.82074055   -7.1116635    792.75197  0.024075315   0.02359167           10 
 2745000   0.80672994   -7.1348015    789.92427    0.0239807  0.023585053            4 
 2746000   0.78960414    -7.127948    789.76759  0.023967212  0.023578437            5 
 2747000   0.80586819   -7.1464914     790.0999  0.023968569  0.023571795           14 
 2748000   0.80386355   -7.1179301    790.58101  0.023974436  0.023565146            5 
 2749000   0.82572702   -7.1291966    791.69561  0.023999503   0.02355853            7 
 2750000   0.83426235   -7.1283001    791.84818  0.023995399  0.023551934            3 
 2751000   0.80364918   -7.1182543    789.27383  0.023908695  0.023545328            5 
 2752000   0.82417039   -7.1360261    793.07905  0.024015233  0.023538711            4 
 2753000   0.81102249   -7.1273452    791.92122  0.023971462  0.023532097            4 
 2754000   0.80714243   -7.1294038        793.2  0.024001453  0.023525464            8 
 2755000   0.82190537   -7.1228418    791.36535  0.023937246  0.023518803            7 
 2756000   0.81377239   -7.1280179    790.15783  0.023892049  0.023512124           24 
 2757000   0.81327451   -7.1397497    791.95966  0.023937845  0.023505444            5 
 2758000   0.80460703   -7.1563032    791.14917  0.023904676  0.023498802           11 
 2759000   0.82052501   -7.1464977    791.01986  0.023892107  0.023492137            5 
 2760000   0.81073873   -7.1477495    792.79815  0.023937142  0.023485457            9 
 2761000   0.82791074   -7.1431924    792.78773  0.023928158  0.023478803            4 
 2762000   0.80023098   -7.1648884    792.41836   0.02390835  0.023472155            5 
 2763000    0.8003663   -7.1287103    790.90775  0.023854137  0.023465517            8 
 2764000   0.80748045   -7.1463172    793.08827  0.023911248   0.02345891            6 
 2765000   0.81945573   -7.1029057    794.11605  0.023933576  0.023452295           13 
 2766000   0.82262437   -7.1270516      792.805  0.023885424  0.023445689            3 
 2767000   0.82264978   -7.1359657    793.01879  0.023883231  0.023439076            5 
 2768000   0.79321335   -7.1533793    793.60895   0.02389237  0.023432419            6 
 2769000     0.793278    -7.134983    792.69644  0.023856279  0.023425761           10 
 2770000   0.81551551   -7.1464374    793.17295  0.023862002  0.023419114            3 
 2771000   0.80205416   -7.1196859    794.21718  0.023884794   0.02341249            9 
 2772000   0.80180976   -7.1331824    792.77799  0.023832912  0.023405883            6 
 2773000   0.80070544   -7.1345864    792.55591  0.023817644  0.023399252            6 
 2774000   0.80856067   -7.1211176    792.70994  0.023813685  0.023392588            7 
 2775000   0.81376582   -7.1298102    791.34928  0.023764243  0.023385919            4 
 2776000    0.8119871   -7.1168443    793.75771  0.023827981   0.02337928            9 
 2777000    0.8172539   -7.1546838    793.16634  0.023801655  0.023372623            8 
 2778000   0.79682524   -7.1205492    793.65017  0.023807601  0.023365957            4 
 2779000   0.81830791   -7.1359529    792.62999  0.023768442  0.023359293            5 
 2780000   0.79541097   -7.1498027    792.52565  0.023756764  0.023352652            4 
 2781000   0.80781279   -7.1152383     793.6944  0.023783243  0.023346038            6 
 2782000   0.79774209   -7.1292343    795.23148  0.023820737  0.023339421            4 
 2783000   0.81769035   -7.1628158     792.8706  0.023741484  0.023332783            4 
 2784000   0.83366011   -7.1708925    792.96235  0.023735702  0.023326118            6 
 2785000   0.80617505   -7.1234038    794.34607  0.023768584  0.023319453            6 
 2786000   0.79474064   -7.1221711    793.98519  0.023749258  0.023312826            8 
 2787000   0.82198972   -7.1409472    793.07904  0.023713642  0.023306183           10 
 2788000   0.80073818   -7.1426312    793.33078  0.023712661  0.023299517            7 
 2789000    0.8077474   -7.1708185    792.87482  0.023690535  0.023292882            9 
 2790000   0.78421959   -7.1495676    793.01619  0.023686266  0.023286227            8 
 2791000   0.79650076   -7.1458109    792.40042  0.023659394  0.023279551            3 
 2792000   0.82338055    -7.124189    795.01958  0.023729095  0.023272905            4 
 2793000   0.80772811   -7.1380883    794.08222  0.023692631  0.023266227            3 
 2794000   0.80175554   -7.1601253    793.84467  0.023677066  0.023259499            6 
 2795000   0.83127406   -7.1334456    789.99797  0.023553905  0.023252814            7 
 2796000   0.82407056   -7.1596862    792.75023   0.02362751  0.023246144            4 
 2797000   0.80416361   -7.1459045    794.08277  0.023658764   0.02323947           11 
 2798000   0.82787714   -7.1328055    794.84183  0.023672916  0.023232776            4 
 2799000    0.7914506   -7.1384261    795.44097  0.023682296  0.023226146            5 
 2800000   0.79777789   -7.1307989    795.34996   0.02367113  0.023219477            5 
 2801000   0.78836316   -7.1561164    795.03432  0.023653288  0.023212798           10 
 2802000   0.78522358   -7.1695627    793.89317  0.023610908  0.023206119            7 
 2803000   0.79018416   -7.1605187    791.55696  0.023533029  0.023199431            6 
 2804000   0.80208563   -7.1715846    793.27413  0.023575669  0.023192736            6 
 2805000   0.80900571   -7.1674879    793.36078  0.023569839  0.023186013           14 
 2806000   0.80670779   -7.1458791    794.08134  0.023582839  0.023179338            8 
 2807000   0.78258387   -7.1555501    794.40059  0.023583915  0.023172678            7 
 2808000    0.7820961   -7.1452698    794.35993  0.023574309  0.023166032            6 
 2809000   0.81462148    -7.171568    794.55996  0.023571851  0.023159363           20 
 2810000   0.78509003   -7.1704777    794.90101  0.023573577  0.023152696            8 
 2811000   0.79888632    -7.176343    793.30635  0.023517916  0.023146068            8 
 2812000   0.79695224   -7.1420864      796.247  0.023596699  0.023139441            7 
 2813000   0.80032376   -7.1640034    794.46973   0.02353566  0.023132835            6 
 2814000   0.80979694   -7.1712448    795.01262  0.023543373  0.023126226            6 
 2815000   0.78801272   -7.1627548    794.48126  0.023519279   0.02311962           10 
 2816000    0.8107914   -7.1890565    793.94359  0.023495016  0.023113002            5 
 2817000   0.80288469   -7.1625907    796.27119  0.023555532  0.023106376            4 
 2818000   0.79194476   -7.1766933    796.00943  0.023539432  0.023099787           12 
 2819000    0.8126064   -7.1627729    798.74884  0.023612062  0.023093189           15 
 2820000   0.82118309    -7.181367    797.15097  0.023556471  0.023086596            5 
 2821000   0.78576862   -7.1502536    795.72086  0.023505874  0.023080018            4 
 2822000    0.8018408   -7.1305865    796.10323  0.023508836  0.023073392            6 
 2823000   0.80939662   -7.1686762    795.37597   0.02347904  0.023066782            4 
 2824000   0.81524092   -7.1599491     795.6944  0.023480123  0.023060162            6 
 2825000   0.81516376   -7.1569106    796.39845   0.02349258  0.023053557            9 
 2826000   0.79904639   -7.1769408     795.0221  0.023443681   0.02304694            7 
 2827000    0.8056994   -7.1637428    796.62844  0.023482739    0.0230403            7 
 2828000   0.77618979   -7.2033265    794.35303  0.023407385  0.023033659           18 
 2829000   0.80875323   -7.1549377    796.93739  0.023475238   0.02302701           15 
 2830000   0.79631561   -7.1869883    796.00191  0.023439397  0.023020407           17 
 2831000   0.80472665   -7.1694398    797.00656   0.02346069  0.023013802            5 
 2832000   0.80731478   -7.1687915    796.62184  0.023441085  0.023007214            4 
 2833000   0.82016938   -7.1452176    797.91436  0.023470831  0.023000625            7 
 2834000   0.80493257   -7.1709059    796.02082   0.02340687  0.022994032           10 
 2835000   0.80029364   -7.1790032    795.74632  0.023390544  0.022987432           11 
 2836000   0.80513709   -7.1464614    795.38258  0.023371608  0.022980822            7 
 2837000   0.80516346    -7.177701    796.86695  0.023406972  0.022974194            6 
 2838000   0.79829406   -7.1561542    795.50696   0.02335879  0.022967611            9 
 2839000   0.79759438   -7.1502267    796.86086  0.023390303  0.022960994            5 
 2840000   0.80576519   -7.1844462    796.89976  0.023383209  0.022954354            5 
 2841000   0.79864412   -7.1770603    797.39529  0.023389513  0.022947725            7 
 2842000   0.78972065    -7.167347    797.51494  0.023384792  0.022941128            5 
 2843000   0.79845319   -7.1963677    797.22678   0.02336812  0.022934531            4 
 2844000   0.79647271   -7.1586403    797.94173  0.023380852  0.022927948            6 
 2845000    0.8067041   -7.1760821    797.00433  0.023345177  0.022921317            8 
 2846000   0.79582347    -7.143268    797.67925  0.023356736  0.022914716            8 
 2847000   0.80443481   -7.1472463     797.6286   0.02334705  0.022908109            4 
 2848000   0.79476298   -7.1607627    796.41292  0.023303281  0.022901453            9 
 2849000   0.80223907   -7.1802787     797.6249  0.023330552  0.022894825            3 
 2850000    0.7900083   -7.1630031    797.31086  0.023313183  0.022888169            6 
 2851000   0.78176674   -7.1784786    797.84981  0.023320759  0.022881549            7 
 2852000   0.79189712   -7.1730177    798.24454  0.023324116  0.022874932            7 
 2853000   0.79814899   -7.1898452    796.30365  0.023259249  0.022868305            5 
 2854000   0.79518676   -7.1626379    797.70803  0.023292106  0.022861689            6 
 2855000   0.80744869   -7.1688952    798.81959  0.023316392  0.022855067            5 
 2856000   0.80573547   -7.1750669    798.13526   0.02328826   0.02284845            7 
 2857000   0.80045085   -7.1923108    798.80694  0.023299701  0.022841858            8 
 2858000   0.78956895   -7.1889091    797.20669  0.023244888  0.022835263            8 
 2859000   0.79916721   -7.1765774    798.44097  0.023272734  0.022828662            4 
 2860000   0.80936429   -7.1555712    796.61477  0.023211386  0.022822082           14 
 2861000   0.78568138   -7.1256393    799.28474  0.023281042   0.02281554            5 
 2862000   0.77331451   -7.1511326      799.526  0.023279932  0.022808967           11 
 2863000   0.81677341   -7.1796695    796.85057  0.023193927  0.022802402           12 
 2864000   0.80192368   -7.1741267    799.81092  0.023271966  0.022795876            4 
 2865000   0.79476885   -7.2053154    797.26442  0.023189774  0.022789287            9 
 2866000   0.79786299    -7.190701    798.52304  0.023218279  0.022782671            6 
 2867000   0.79555054   -7.2026991    797.19887  0.023171691  0.022776062           10 
 2868000   0.77382603   -7.1583932    797.66823   0.02317725  0.022769484            5 
 2869000   0.78097021   -7.2047641    800.38804  0.023248171  0.022762872            3 
 2870000   0.79974365   -7.1998183    797.32592  0.023151159   0.02275625            5 
 2871000   0.81140642   -7.1919033     798.4606   0.02317603  0.022749629            6 
 2872000   0.78885047   -7.2008335    799.92573  0.023210473  0.022743016           18 
 2873000   0.77458997   -7.1346446    800.55512   0.02322065  0.022736446            9 
 2874000   0.77788006   -7.1659178    798.91654  0.023165059  0.022729879            6 
 2875000   0.80941956   -7.1687242    799.62632  0.023177575   0.02272329            8 
 2876000   0.80513269   -7.1580061    798.80729  0.023145784  0.022716731            4 
 2877000   0.79373731   -7.1854076    799.30961  0.023152289  0.022710163            6 
 2878000   0.77793955   -7.1664495    800.75274   0.02318603  0.022703623            8 
 2879000   0.78957631   -7.1806959    800.18907  0.023161661  0.022697037           11 
 2880000   0.79869572   -7.1840674    797.91208  0.023087734  0.022690476            5 
 2881000   0.81136412   -7.2003127    799.08774  0.023113726  0.022683905           12 
 2882000   0.80653694   -7.1787377    799.70871  0.023123662  0.022677304            5 
 2883000   0.80275782     -7.20854    798.04211  0.023067467  0.022670726            7 
 2884000   0.78781165   -7.1933753    800.90691  0.023142248   0.02266413            4 
 2885000   0.77724798   -7.1901697     800.8406  0.023132311  0.022657558            7 
 2886000    0.7967405   -7.2096061    800.82276   0.02312378  0.022650953            5 
 2887000   0.77871462   -7.1883197    802.14083  0.023153817  0.022644374            5 
 2888000   0.79237255   -7.1787583    800.65726  0.023102991   0.02263781            7 
 2889000   0.77410446    -7.183307    799.12522  0.023050802  0.022631219            8 
 2890000   0.79137907   -7.1822391    799.64968  0.023057949  0.022624636            4 
 2891000   0.80265649   -7.1854782    797.29357  0.022982058  0.022618028            7 
 2892000   0.78976448   -7.1628812    797.56425  0.022981911  0.022611408            8 
 2893000   0.78547271   -7.1863483    800.25818  0.023051566  0.022604799            8 
 2894000   0.79692539   -7.1731843    800.12491  0.023039763   0.02259817           11 
 2895000   0.77823897   -7.1816778    800.06954  0.023030211  0.022591573            6 
 2896000   0.79827069   -7.2041264    799.58869  0.023008422  0.022584915            3 
 2897000   0.79194545    -7.203237    798.64628  0.022973371  0.022578289            7 
 2898000   0.77862989   -7.2093644    798.23852  0.022953719  0.022571653            5 
 2899000   0.78591698   -7.1740033    802.21626  0.023060143  0.022565067            7 
 2900000   0.77944697   -7.1738271    800.62996  0.023006608  0.022558471            7 
 2901000   0.77923851   -7.1568272    800.98933  0.023009001  0.022551847            9 
 2902000   0.77444341   -7.1752857    798.62406  0.022933151   0.02254525           11 
 2903000   0.79578591   -7.2099767    800.93481  0.022991584  0.022538649            8 
 2904000   0.78721934   -7.1726951    801.54696  0.023001233  0.022532037            9 
 2905000   0.78530192   -7.1736748    801.48926   0.02299166  0.022525461           12 
 2906000   0.79970185   -7.1623508    801.13143  0.022973487  0.022518896           10 
 2907000   0.78680976   -7.1781975    799.27229  0.022912289  0.022512345            4 
 2908000   0.80170778   -7.1874631    802.42258  0.022994687  0.022505736            7 
 2909000   0.77642069   -7.1692902     800.7584  0.022939109  0.022499168            4 
 2910000   0.80546432   -7.2100176    802.06043  0.022968512  0.022492548           20 
 2911000   0.80294726   -7.2023229    801.43612  0.022942749  0.022485932            6 
 2912000   0.78564008   -7.1836248    801.97751  0.022950364   0.02247935            6 
 2913000   0.77675176   -7.2016153    799.75584  0.022878929  0.022472812            5 
 2914000   0.80260784    -7.194457    800.74831   0.02289946  0.022466214            8 
 2915000   0.79380829   -7.1945638    801.34656  0.022908707  0.022459629            6 
 2916000   0.79777785   -7.1911333     801.3119   0.02289986  0.022453086           11 
 2917000   0.81989566   -7.1588489    801.41567  0.022894974  0.022446534            7 
 2918000   0.78680025   -7.2139739    799.88223  0.022843335  0.022439957           12 
 2919000   0.78820641   -7.2124728    801.46766  0.022880771  0.022433381            7 
 2920000   0.78744665   -7.1761641    802.62142  0.022905862  0.022426839           10 
 2921000   0.78891935   -7.2212902     799.6326  0.022812752  0.022420257            9 
 2922000   0.77711736   -7.2233289     800.4064  0.022827013  0.022413656           19 
 2923000   0.79695074   -7.2093605    801.32705  0.022845451  0.022407085            9 
 2924000   0.78553656   -7.2027321    803.91402  0.022911366  0.022400544            8 
 2925000   0.78396357   -7.1862653    800.65226  0.022810606  0.022393979            6 
 2926000   0.79143451   -7.1845221    801.38324  0.022823628  0.022387428           10 
 2927000   0.79329813   -7.1505477    801.94427  0.022831804  0.022380888            8 
 2928000   0.78581821   -7.1783334    799.46503  0.022753445  0.022374321            6 
 2929000    0.7945371   -7.1872518    801.33027  0.022798744  0.022367743           10 
 2930000   0.78582631   -7.1893016    799.96936  0.022752257  0.022361145            5 
 2931000   0.78037978   -7.1785162    800.99359  0.022773615  0.022354545            7 
 2932000   0.76962449   -7.1934571    802.42339  0.022806486  0.022347967            8 
 2933000   0.78637348   -7.1801992    801.92479  0.022784544  0.022341371            4 
 2934000   0.77004635   -7.1900156    800.92311  0.022748327  0.022334766            7 
 2935000    0.7675814   -7.1868694    802.00874  0.022771401   0.02232815            4 
 2936000   0.77208636   -7.1933311    802.72489  0.022783972  0.022321555            6 
 2937000   0.79099715   -7.1845912    802.88636  0.022780796  0.022314952            8 
 2938000   0.79756243   -7.2026087    802.32864  0.022757223  0.022308372           11 
 2939000    0.7921744   -7.1590345    802.70586  0.022760175  0.022301801            8 
 2940000   0.79648124   -7.2072618    799.81315  0.022670441  0.022295243            7 
 2941000   0.77032075    -7.204954    801.12202  0.022699819  0.022288643           16 
 2942000   0.77742857   -7.2079946    801.13324  0.022692421  0.022282017            6 
 2943000   0.78296996   -7.1946424    801.50634  0.022695275  0.022275418            6 
 2944000   0.79676656   -7.1585342    803.52283  0.022744645  0.022268859            9 
 2945000   0.79487491   -7.1538069    802.92658   0.02272005  0.022262327            9 
 2946000   0.78223171    -7.172602    800.23545  0.022636214  0.022255761           21 
 2947000    0.7751425   -7.1646032    801.91829  0.022676119  0.022249195           13 
 2948000    0.7823266   -7.2187081    803.15872  0.022703492  0.022242613           15 
 2949000   0.78562404   -7.1826605    802.71312  0.022683201  0.022236025            8 
 2950000   0.78133754   -7.1629402    803.90497   0.02270918  0.022229469            9 
 2951000   0.77863422   -7.1634233    803.22011  0.022682145  0.022222913            7 
 2952000   0.77041135   -7.2102581    801.08704  0.022614246  0.022216337            7 
 2953000   0.78806934   -7.2213484    799.75827   0.02256909  0.022209728            7 
 2954000   0.78953138   -7.2121626    803.15002  0.022657132  0.022203113            8 
 2955000   0.77460219   -7.1817457    803.20202  0.022650931  0.022196548           19 
 2956000   0.79238496   -7.1776557     803.8406  0.022661271  0.022190009            9 
 2957000   0.77466593   -7.1645516     803.3147  0.022638787  0.022183475            4 
 2958000   0.75632735   -7.2078012    801.71495  0.022586065  0.022176917           10 
 2959000   0.77431846   -7.2092533    803.94657   0.02264128  0.022170366           15 
 2960000   0.78590374   -7.2010099    803.72421  0.022627371  0.022163789            6 
 2961000   0.77551152   -7.1807886    801.53312  0.022558064  0.022157247            4 
 2962000   0.76007475   -7.2015148    803.31132  0.022600476  0.022150689            6 
 2963000   0.77318789   -7.1976845    802.34686  0.022565723  0.022144142            6 
 2964000   0.77067698   -7.1877028    802.33142  0.022557676   0.02213762           15 
 2965000   0.77823942   -7.2049422    803.00844  0.022569096  0.022131093            4 
 2966000   0.78328851   -7.2183082    804.29796  0.022597717  0.022124553            3 
 2967000   0.76090253   -7.2058359    805.06908  0.022611759  0.022117986            8 
 2968000   0.77418067    -7.212487    803.81324   0.02256888  0.022111441           11 
 2969000   0.79182287   -7.2261222    800.96356  0.022481295  0.022104864           11 
 2970000   0.78863978   -7.2345023    802.88689  0.022527691  0.022098252            5 
 2971000   0.77510794    -7.194377    803.74779  0.022544255  0.022091681           10 
 2972000   0.78288863   -7.2224373    803.49502  0.022529582  0.022085121           13 
 2973000   0.77318046   -7.2060549    803.29271  0.022516333  0.022078587            4 
 2974000   0.77922832   -7.1789246    803.77118  0.022522169  0.022072061            8 
 2975000   0.78051977   -7.2004319    802.44367  0.022477414  0.022065559           10 
 2976000   0.77810136   -7.2075214    804.56372  0.022529226  0.022059039            6 
 2977000   0.77267128   -7.1968918    803.44261  0.022490276  0.022052506           11 
 2978000   0.77123009   -7.2105699    803.33382  0.022479679  0.022045982            7 
 2979000   0.78374217   -7.2261713    802.89502  0.022459858  0.022039462            5 
 2980000   0.78052516   -7.2049524    803.91147  0.022480746  0.022032946           10 
 2981000   0.77182692   -7.2351199    802.03347  0.022420705  0.022026422           12 
 2982000   0.77566995   -7.2133119    803.70392  0.022459868  0.022019881            5 
 2983000   0.79145487   -7.2216968    803.85313  0.022456507  0.022013373           11 
 2984000   0.76743794   -7.2317089     804.6095  0.022470104  0.022006837            8 
 2985000   0.77093497   -7.2159685    805.77928  0.022495234  0.022000308            5 
 2986000   0.76128491    -7.210521    804.34304  0.022447618  0.021993817           11 
 2987000   0.76584751   -7.2136629    805.20509  0.022464153  0.021987323           11 
 2988000   0.76815061   -7.1640926    807.35994  0.022516732  0.021980866            4 
 2989000    0.7625701   -7.2337807    804.93432  0.022441572  0.021974403           10 
 2990000   0.76551232    -7.190731    806.04607  0.022465052  0.021967945            3 
 2991000    0.7579687   -7.2087863    807.15776  0.022488515  0.021961499            5 
 2992000   0.76312202   -7.2213561    805.55539  0.022436369  0.021955068           15 
 2993000   0.77944063   -7.2175419    804.70397  0.022405167  0.021948622           11 
 2994000   0.78753601   -7.2053806    804.74325  0.022398777  0.021942149           13 
 2995000   0.78106271   -7.2252628     806.3662  0.022436455  0.021935683           10 
 2996000   0.76199986   -7.2110629    805.40903  0.022402343  0.021929221           11 
 2997000   0.77036283   -7.2128468    806.16308  0.022415835  0.021922767           18 
 2998000   0.76444212   -7.2296257    807.41703  0.022443213  0.021916311            8 
 2999000   0.78229791   -7.2364564    807.08818  0.022426592  0.021909857            9 
 3000000   0.77188577   -7.2222391    805.40417  0.022372338  0.021903393            8 
 3001000   0.76931072    -7.185748    806.72477  0.022401554  0.021896937            7 
 3002000   0.77974449   -7.2132031    806.90416  0.022399072  0.021890491           19 
 3003000   0.77702915   -7.2127885    807.14915  0.022398411  0.021884055            7 
 3004000   0.77447774    -7.204304    806.19619  0.022364519   0.02187764            6 
 3005000   0.77703453   -7.2343109    805.08657  0.022326305  0.021871196           10 
 3006000   0.76508755    -7.223494    807.17216  0.022376696  0.021864781            6 
 3007000   0.78484526   -7.2368988    806.00468  0.022336899  0.021858342            7 
 3008000   0.77366836   -7.2172375    807.96887  0.022383889  0.021851915            9 
 3009000   0.75731213   -7.2061413    808.51696  0.022391629  0.021845496           10 
 3010000   0.76696766   -7.2377279    807.00227  0.022342255  0.021839076           13 
 3011000   0.78944331   -7.2008031    805.37422  0.022289777  0.021832624            7 
 3012000   0.77737525    -7.210914    807.85143  0.022350914  0.021826213            7 
 3013000   0.77057575   -7.2037584    806.27688  0.022299947  0.021819808            7 
 3014000    0.7756406   -7.2086578    808.53486  0.022354978   0.02181339            6 
 3015000   0.77387065   -7.2515803    806.78707  0.022299256  0.021806997           11 
 3016000   0.77009769   -7.2373556    809.00679  0.022353194  0.021800593            9 
 3017000   0.76723274    -7.203205    809.39205  0.022356426  0.021794146            8 
 3018000   0.77201169   -7.2519081     807.5534  0.022298249  0.021787709            5 
 3019000   0.76645651   -7.2201941    807.58079  0.022291619  0.021781296            7 
 3020000   0.76218891    -7.218929    808.23624  0.022302325  0.021774913            5 
 3021000   0.75922259    -7.274431    808.56014  0.022303877  0.021768496           26 
 3022000   0.77157195   -7.2167446    807.17871  0.022258403   0.02176208           14 
 3023000   0.76784228   -7.2256559    808.35828  0.022283556  0.021755678            8 
 3024000   0.77759109    -7.223933    806.03335  0.022212118   0.02174931           12 
 3025000   0.77417959   -7.2384069    808.24903  0.022265814  0.021742929            8 
 3026000    0.7882667   -7.2067127    807.19894  0.022229537  0.021736558           10 
 3027000   0.77607351   -7.2192928    806.84131  0.022212348  0.021730164           16 
 3028000   0.76495886   -7.2495344    806.55445  0.022197117  0.021723739            7 
 3029000    0.7767254   -7.2245774    807.37546  0.022212376  0.021717309            9 
 3030000   0.77579002    -7.227732    808.22078  0.022228294  0.021710881            7 
 3031000   0.76998578    -7.239484    805.96818  0.022159028   0.02170445            6 
 3032000   0.77237646   -7.2411964    806.13004  0.022156169  0.021697999            6 
 3033000   0.78329401   -7.2160174    808.42995  0.022212055  0.021691598            9 
 3034000   0.79045523    -7.232947    807.40321  0.022176533  0.021685225           10 
 3035000   0.77874989   -7.2212357    808.64901  0.022203432  0.021678837           10 
 3036000   0.77545105   -7.2304863    809.02429   0.02220642  0.021672453            6 
 3037000   0.76127011   -7.2119493    809.49498  0.022212023  0.021666111            7 
 3038000   0.74308411   -7.2077621    809.34159  0.022200505  0.021659749            7 
 3039000    0.7717599   -7.2196893    807.46516  0.022141745   0.02165338           10 
 3040000   0.78548346   -7.2118782     808.9876  0.022176195  0.021646971           10 
 3041000   0.76201751    -7.231149    808.44595   0.02215406  0.021640556            6 
 3042000   0.76222725   -7.2491235    809.00771  0.022162166  0.021634144            7 
 3043000   0.77598088   -7.2327977    810.94137  0.022207837  0.021627747            6 
 3044000   0.76921486    -7.251376    808.52539  0.022134401  0.021621364            6 
 3045000   0.76505073   -7.2127061    809.52469   0.02215448  0.021614998            6 
 3046000   0.77190195   -7.2498135    809.77485   0.02215405   0.02160862            4 
 3047000   0.77102352   -7.2556028    807.16041  0.022075276  0.021602229            7 
 3048000   0.76818109   -7.2609336     808.8951  0.022115461  0.021595831           16 
 3049000   0.76165981   -7.2167233    809.92696   0.02213641   0.02158946           12 
 3050000   0.76822872   -7.2277082     808.2062  0.022082137  0.021583088            9 
 3051000   0.75228128   -7.2448492    809.47694  0.022109607  0.021576702            7 
 3052000   0.77830925   -7.2551869    810.73931  0.022136831  0.021570322           11 
 3053000   0.76016762   -7.2327966    809.35521  0.022091801  0.021563928           13 
 3054000   0.76618977   -7.2422891    808.58171  0.022063461  0.021557531           10 
 3055000   0.74443337   -7.2439679    809.13445  0.022071316  0.021551147           10 
 3056000     0.772487   -7.2418674    807.84096  0.022028822  0.021544744           12 
 3057000   0.77351256    -7.266721    807.74821  0.022019088  0.021538339            9 
 3058000   0.76120706   -7.2202253    808.89469   0.02204313  0.021531948            6 
 3059000   0.75928952   -7.2587312    808.93839  0.022037114  0.021525578            4 
 3060000   0.77817174    -7.211397    809.03686  0.022032594  0.021519199            4 
 3061000   0.77688381   -7.2241278    808.24989  0.022003972  0.021512807           11 
 3062000   0.76124178   -7.2522812    809.42182   0.02202868  0.021506422            6 
 3063000    0.7655274   -7.2381717     809.0106    0.0220103  0.021500065            6 
 3064000   0.77994583   -7.2200101    811.01904  0.022057742   0.02149371            6 
 3065000   0.75468535   -7.2278481    809.78801  0.022017075  0.021487358            7 
 3066000   0.74235181   -7.2573433    807.40747  0.021945191  0.021480992            8 
 3067000   0.77148534   -7.2362556    807.72931   0.02194678  0.021474597           18 
 3068000   0.75814932   -7.2223798    810.59962  0.022017591  0.021468222            8 
 3069000   0.76480281   -7.2248464    809.76247  0.021987685  0.021461881            8 
 3070000   0.76792035   -7.2346213    809.40835  0.021970911  0.021455528           18 
 3071000   0.75871481   -7.2011951    810.07091  0.021981735  0.021449183           11 
 3072000   0.76588683   -7.2238008    809.96642  0.021971745  0.021442827           11 
 3073000   0.78355721   -7.2475453    810.97296  0.021991891  0.021436484            6 
 3074000   0.76163799   -7.2477407    809.40511  0.021942233  0.021430155           14 
 3075000   0.76462247   -7.2574566    810.07048  0.021953129  0.021423813           21 
 3076000   0.75161591   -7.2153688    808.94026  0.021915373  0.021417453            5 
 3077000   0.76760509   -7.2457297    811.23048  0.021970276  0.021411104            4 
 3078000   0.74922451   -7.2190434    810.20626  0.021935409  0.021404813            3 
 3079000   0.74671552   -7.2538837    810.05584  0.021924214  0.021398517            5 
 3080000    0.7467074   -7.2155662    812.69437  0.021988484  0.021392218           12 
 3081000   0.74438557   -7.2455071    809.88726  0.021905422  0.021385922            6 
 3082000   0.75729866   -7.2470173    810.48671  0.021914523  0.021379613           10 
 3083000   0.75206536    -7.220807    812.22348  0.021954359  0.021373306            8 
 3084000   0.74967662   -7.2473282    811.37734  0.021924377   0.02136701           10 
 3085000   0.76670125   -7.2574595    810.80108  0.021901704  0.021360706            8 
 3086000   0.75991142   -7.2618339    809.82672  0.021868296  0.021354382           10 
 3087000   0.75971856   -7.2595674    811.14044  0.021896675  0.021348046           26 
 3088000    0.7511571   -7.2254933    810.31164  0.021867218  0.021341709            9 
 3089000    0.7665941   -7.2520472    811.39705  0.021889421  0.021335391           13 
 3090000   0.76475602   -7.2602299    811.58626   0.02188744  0.021329049           11 
 3091000   0.75003385   -7.2373467     812.1592  0.021895805  0.021322724           26 
 3092000   0.75991132   -7.2561036    808.71737  0.021795962  0.021316381            8 
 3093000   0.75690718    -7.247792    811.80052  0.021871983  0.021310037            8 
 3094000   0.76356176    -7.244564    812.49804  0.021883701  0.021303724            8 
 3095000   0.75234757   -7.2560878    810.36954   0.02181932   0.02129741           18 
 3096000   0.75153204   -7.2524324    812.34213  0.021865368    0.0212911           14 
 3097000   0.75202153   -7.2399573    813.04203   0.02187714  0.021284804            6 
 3098000   0.75605368   -7.2406002    810.12074  0.021791498  0.021278527           15 
 3099000   0.74053126   -7.2695797    812.77419  0.021855819  0.021272239           12 
 3100000   0.75142862   -7.2312442     812.7166   0.02184722  0.021265957            6 
 3101000    0.7482725   -7.2390118     812.6957  0.021839614  0.021259684            7 
 3102000   0.74682023   -7.2365994    812.61584  0.021830428  0.021253416           14 
 3103000   0.74511264   -7.2648243    810.68552  0.021771552  0.021247136            6 
 3104000   0.77352091   -7.2994026     811.9593  0.021798736  0.021240843            4 
 3105000   0.75523086   -7.2694379    813.71583  0.021838858  0.021234564            5 
 3106000   0.76106871    -7.286122    810.51953   0.02174607  0.021228295            7 
 3107000    0.7458996   -7.2574594    811.07963  0.021754094  0.021221999           14 
 3108000   0.76908423   -7.2691137    812.90923   0.02179615  0.021215754            6 
 3109000   0.76635483   -7.2616807    813.63247  0.021808526  0.021209497            6 
 3110000   0.75751273   -7.2459363    812.28634  0.021765443  0.021203236           11 
 3111000   0.75632415   -7.2666097    811.18126  0.021728845  0.021196984           20 
 3112000   0.74083382    -7.266514    811.69018  0.021735491  0.021190707           11 
 3113000   0.75253656   -7.2634687    813.47803  0.021776369  0.021184443            5 
 3114000   0.75454413   -7.2419621    813.55498  0.021771435  0.021178199            8 
 3115000    0.7597757   -7.2630283    812.43301   0.02173443  0.021171958           13 
 3116000   0.74943805   -7.2610992    813.94536  0.021767901  0.021165718           10 
 3117000   0.72514822   -7.2607192    813.94636  0.021760944  0.021159464           14 
 3118000   0.75081869    -7.255834    814.46118  0.021767724  0.021153217           10 
 3119000   0.76716722   -7.2331702    815.01962  0.021775666  0.021146992            8 
 3120000   0.75376377   -7.2770218    812.25731  0.021694907  0.021140773           10 
 3121000   0.74472002   -7.2774058    814.69402  0.021753018  0.021134539           13 
 3122000   0.74026138   -7.2666515    813.13264  0.021704373  0.021128299           10 
 3123000   0.74958651   -7.2811417    814.28049  0.021728052  0.021122052           17 
 3124000   0.76313511   -7.2867741    814.13686  0.021717266  0.021115822           10 
 3125000   0.75719241   -7.2484602    814.36615  0.021716431  0.021109595           10 
 3126000   0.76201112   -7.2722575    813.88881  0.021696759  0.021103367           20 
 3127000   0.75495637   -7.2398548     813.0213  0.021666701   0.02109714           12 
 3128000   0.74760792   -7.2619609    813.91931  0.021683699  0.021090911            9 
 3129000   0.76125538   -7.2590225    813.24614   0.02165884  0.021084714           14 
 3130000   0.74927302   -7.2394567    814.06461  0.021673712  0.021078533            8 
 3131000   0.74781927   -7.2308754     813.8277  0.021660484  0.021072336           17 
 3132000   0.76185184   -7.2515532     815.1051  0.021687556  0.021066134           13 
 3133000   0.74159594   -7.2724998    815.28173  0.021685332  0.021059948            9 
 3134000   0.73586911    -7.260035     814.7707  0.021664824  0.021053768            7 
 3135000   0.73679363   -7.2555901    814.39337  0.021647883  0.021047556            9 
 3136000   0.75665375   -7.2574872    816.51939  0.021697475  0.021041366            6 
 3137000   0.74361235   -7.2751206    813.47037  0.021609563  0.021035208            5 
 3138000   0.75224863   -7.2383822    814.39095  0.021627123     0.021029            5 
 3139000   0.74669776   -7.2452971    814.76861  0.021630259  0.021022842            9 
 3140000   0.76337582   -7.2526594    814.78647  0.021623845  0.021016668            5 
 3141000   0.74342776   -7.2651649    814.28707  0.021603711  0.021010484            9 
 3142000   0.74308955   -7.2737009    814.97368  0.021615046  0.021004275            8 
 3143000   0.74526398   -7.2771996     812.4191  0.021540436  0.020998058            4 
 3144000   0.76383705   -7.2602612    813.89727  0.021572765   0.02099184            8 
 3145000   0.76466551   -7.2883687    814.20664  0.021574103  0.020985627            3 
 3146000   0.73044346   -7.2930629    814.94799  0.021586882  0.020979388            9 
 3147000   0.74392401   -7.2811842    812.71172  0.021520806  0.020973166            7 
 3148000   0.74013945   -7.2935423    814.43187  0.021559505  0.020966933           11 
 3149000   0.76001008   -7.2777878    814.16924  0.021545709   0.02096072            6 
 3150000   0.75909499   -7.2675704     815.0824  0.021563026  0.020954518            7 
 3151000   0.75400454   -7.2446086    814.88983   0.02155109  0.020948328           17 
 3152000   0.75618099   -7.2553139    816.15807  0.021577783  0.020942146            9 
 3153000   0.76407392   -7.2938243    813.00194  0.021487524  0.020935936            9 
 3154000   0.74148994   -7.2591788    815.06409  0.021535196  0.020929722            6 
 3155000   0.73990905   -7.2705468    814.95114  0.021525387  0.020923506           18 
 3156000   0.74914874   -7.2514369     813.0764  0.021469064  0.020917322            8 
 3157000   0.73474047   -7.2457979    815.53229   0.02152709  0.020911144           12 
 3158000   0.74329534   -7.2586889     814.8788  0.021503029  0.020904957           17 
 3159000   0.73349835   -7.2544375    814.95432  0.021498215  0.020898773            9 
 3160000   0.74384833   -7.2506913     814.1569  0.021470382  0.020892575           11 
 3161000    0.7485744   -7.3016727    813.42198  0.021444216  0.020886361           11 
 3162000    0.7366587   -7.2645884    814.23094  0.021458753  0.020880132           10 
 3163000   0.75972749    -7.263825    815.67838  0.021490104  0.020873958            6 
 3164000   0.72782842   -7.2749319    816.50197  0.021505003  0.020867816            8 
 3165000   0.77298802   -7.2543602    817.30987   0.02151948    0.0208617            9 
 3166000   0.76605212   -7.2602053    816.51727  0.021491821   0.02085554           10 
 3167000   0.75085024    -7.283283    814.16454  0.021423128  0.020849353            8 
 3168000   0.74900364   -7.2783928    813.43111  0.021397073  0.020843155           12 
 3169000   0.74683337   -7.3089796    813.88002  0.021402125  0.020836947            6 
 3170000   0.74579922   -7.3005472    815.79648  0.021445754  0.020830752            6 
 3171000   0.73021698   -7.2430644    813.89027  0.021388896   0.02082458           10 
 3172000   0.75150805   -7.2864958    815.19924  0.021416542  0.020818391           13 
 3173000   0.74363587   -7.2747255    815.31676  0.021412878  0.020812208           14 
 3174000   0.74063171   -7.3072339    816.49736  0.021437129  0.020806006           16 
 3175000    0.7332732   -7.2495393    814.76735   0.02138497  0.020799798            6 
 3176000   0.73986666   -7.3001341    815.41604  0.021395257  0.020793608           11 
 3177000   0.75740869    -7.288957    814.39507  0.021361743  0.020787416           12 
 3178000   0.73201001   -7.2925234    813.02617  0.021319126  0.020781195           19 
 3179000   0.73549413   -7.2417637    815.97253  0.021389654  0.020775028           11 
 3180000   0.74167918   -7.2845658    817.22499  0.021415749  0.020768851           12 
 3181000   0.73943443   -7.3084901    815.26754  0.021357737  0.020762666            7 
 3182000   0.75461625   -7.2986564    816.36706   0.02137982  0.020756475            8 
 3183000   0.74334167   -7.2853645    815.45322  0.021349178  0.020750293            6 
 3184000   0.73162579   -7.2904716    813.57123  0.021293217   0.02074413           11 
 3185000   0.73209776   -7.2840784    816.99372  0.021376079  0.020737962            8 
 3186000     0.751227   -7.2774176    815.86428  0.021339827  0.020731797            5 
 3187000   0.74038065   -7.2773258    814.83264  0.021306156  0.020725619            5 
 3188000   0.75539127   -7.2734659    815.17283  0.021308366  0.020719487            7 
 3189000   0.73399799   -7.2759585    814.53967  0.021285138  0.020713339            7 
 3190000   0.74441806   -7.2899192    814.15876  0.021268515   0.02070719            5 
 3191000   0.73022375   -7.2964769    816.56618   0.02132472  0.020701024            4 
 3192000   0.73742578   -7.3082992    814.81033    0.0212722  0.020694841            8 
 3193000   0.74876269   -7.3052745    816.61766  0.021312706  0.020688668            8 
 3194000   0.74208976   -7.2721153    818.13104  0.021345519  0.020682527            7 
 3195000   0.73170753   -7.2565707    816.13934  0.021286889  0.020676398            9 
 3196000    0.7336058   -7.2568584    816.37786  0.021286448  0.020670279            5 
 3197000   0.75370539   -7.2585778    816.43028  0.021281156  0.020664167           12 
 3198000   0.72610888   -7.2885693    817.24178  0.021295648  0.020658053            6 
 3199000   0.74086527   -7.2930061    816.22135  0.021262409  0.020651949            9 
 3200000   0.73021205   -7.2778939    816.48927  0.021262741  0.020645807            7 
 3201000   0.73984215   -7.2658033    817.85998  0.021291783  0.020639698            5 
 3202000   0.75485059   -7.3042648     818.1881  0.021293673  0.020633611           25 
 3203000   0.72864712   -7.2804145    817.56628  0.021270847  0.020627515            9 
 3204000   0.74505938   -7.2869056    818.29481  0.021283157  0.020621427            6 
 3205000   0.71866236   -7.2756747    818.24211  0.021275146  0.020615329            8 
 3206000   0.73761971   -7.2836485    818.92186  0.021286178  0.020609252           14 
 3207000   0.74151756   -7.2798203    817.41075  0.021240275  0.020603158            5 
 3208000   0.74219168   -7.2823723    816.62584  0.021213265  0.020597076            8 
 3209000   0.73401525   -7.2749759    818.15397  0.021246338  0.020590997           12 
 3210000   0.74148809   -7.3099688     818.3811  0.021245615  0.020584937            4 
 3211000   0.74153141   -7.2947275    818.90551  0.021252608  0.020578872            8 
 3212000   0.73872485   -7.2750001     819.3496  0.021257513  0.020572829           11 
 3213000   0.73737614   -7.2906458    819.98039  0.021267258   0.02056676           25 
 3214000   0.74490954    -7.262905     816.7315  0.021176403  0.020560693           11 
 3215000   0.73703664   -7.2918973    819.34453  0.021237546  0.020554612            7 
 3216000   0.75120785   -7.3069415    818.61254  0.021211975  0.020548506            8 
 3217000   0.71880709   -7.3202782    816.22075  0.021143424  0.020542411            9 
 3218000   0.72791715   -7.3046522    817.44096  0.021168453  0.020536336            5 
 3219000   0.74239148   -7.3009039    817.98354  0.021175923  0.020530275           14 
 3220000   0.72199896   -7.2896052    817.54833  0.021158083  0.020524232            8 
 3221000   0.74382783   -7.2949518    819.11687  0.021192095  0.020518184            5 
 3222000   0.75098506   -7.3077552    817.10206  0.021133407  0.020512117            6 
 3223000   0.74655686   -7.3239021    817.74938  0.021143587  0.020506027           19 
 3224000   0.73899223   -7.3336858    817.32683  0.021126107  0.020499903            9 
 3225000   0.74342028   -7.3280066    817.70044   0.02112921  0.020493795            6 
 3226000   0.72808038   -7.3108481    816.72939  0.021097577   0.02048768            8 
 3227000   0.73325329   -7.3002529    817.41349  0.021108705  0.020481593            4 
 3228000   0.72946958   -7.2896582    817.61973   0.02110749  0.020475538            6 
 3229000   0.72720332   -7.3053638    818.65111  0.021127571  0.020469458           20 
 3230000   0.71911036   -7.3017775    818.38394  0.021114137  0.020463411            8 
 3231000    0.7335653   -7.2854569    818.83733  0.021119296  0.020457335           10 
 3232000   0.72860209   -7.2824672    819.02034   0.02111748  0.020451311            7 
 3233000   0.74886103   -7.2899642    819.25267  0.021116937   0.02044527            5 
 3234000   0.73485117   -7.2696692     819.4992  0.021116759  0.020439211           18 
 3235000   0.73019316   -7.2707322    819.14917  0.021101215   0.02043314           13 
 3236000   0.73755652   -7.2990588    817.82952  0.021060711  0.020427093           10 
 3237000   0.74078446   -7.2852009    818.55909  0.021072987  0.020421059           15 
 3238000   0.74007077   -7.3104961    818.73287  0.021070951   0.02041501           14 
 3239000   0.71855216   -7.2884096    819.60481  0.021086879  0.020408995            9 
 3240000   0.73374221   -7.2890506    818.66089  0.021056093  0.020402981            7 
 3241000    0.7364375   -7.2587846    819.98794  0.021083717  0.020396931            8 
 3242000   0.75423291   -7.3118994    817.88066  0.021023048  0.020390876            8 
 3243000   0.72377942   -7.3012004    817.71685  0.021012356  0.020384818            9 
 3244000   0.74458895   -7.3252388    819.53231  0.021052515  0.020378756            6 
 3245000   0.74341839   -7.2900036    818.50792  0.021019721   0.02037272            6 
 3246000   0.73851985   -7.3332233    817.88009  0.020997127  0.020366665            4 
 3247000   0.73665659   -7.3051022    819.22254  0.021025114   0.02036061           11 
 3248000   0.73021413   -7.2951874    819.43751  0.021024156  0.020354582            7 
 3249000   0.73687374   -7.2846121    819.50727  0.021019475  0.020348544           16 
 3250000   0.71809057   -7.3023382    819.07536  0.021001932  0.020342499            7 
 3251000   0.74010448   -7.2795943    820.46358  0.021031057  0.020336444            7 
 3252000   0.70346372   -7.3205607    819.27125  0.020994036  0.020330371            5 
 3253000   0.73139911   -7.2880372    818.88866  0.020977781  0.020324316            8 
 3254000   0.73745094   -7.3123564    817.30149  0.020930688  0.020318265           11 
 3255000    0.7322013   -7.3034221    819.02769  0.020968451  0.020312238            6 
 3256000   0.73845082   -7.3197278    816.62705   0.02090057  0.020306203            9 
 3257000   0.74024274   -7.3157093    818.70467   0.02094731  0.020300149            5 
 3258000   0.72920111   -7.3014072    816.39796   0.02088188  0.020294089            5 
 3259000   0.74162272    -7.286647    818.63484   0.02093267   0.02028806           12 
 3260000   0.71913281   -7.3165679     819.7847  0.020955642  0.020282044            9 
 3261000   0.71694375   -7.3002643    819.73961  0.020948063  0.020276018           10 
 3262000   0.73169125   -7.3038459     819.0481  0.020923975  0.020269982           16 
 3263000   0.72042784   -7.3232218    819.31046  0.020924264  0.020263965            8 
 3264000   0.71973847   -7.2961925    820.04385  0.020936577   0.02025794           13 
 3265000   0.74256825   -7.3385617      819.808  0.020924145  0.020251918            7 
 3266000   0.72656975   -7.3111835    821.04119  0.020949204  0.020245893           15 
 3267000   0.72680061   -7.3127732    819.27777  0.020897811  0.020239851            8 
 3268000   0.72312619   -7.3059821    819.31702  0.020892417  0.020233812           37 
 3269000   0.73856791   -7.3218987    819.57243  0.020892537  0.020227762           35 
 3270000   0.74103989    -7.333115    821.00746  0.020922718  0.020221722           29 
 3271000   0.74511534   -7.3236736    819.07839  0.020867176  0.020215688            7 
 3272000   0.74090379   -7.3499933    818.78135  0.020853233  0.020209666           27 
 3273000    0.7232638   -7.3626369    818.25612  0.020833489  0.020203645           16 
 3274000   0.73122462   -7.3176301    819.94866  0.020870206  0.020197626           16 
 3275000   0.71989754   -7.3272042    819.96969  0.020864369  0.020191637            5 
 3276000   0.73660913   -7.2850912    819.67757  0.020850569  0.020185647            7 
 3277000   0.71693596   -7.3123068    820.74211  0.020871277  0.020179666           12 
 3278000   0.73391621   -7.3011597    819.64017  0.020836897  0.020173685            8 
 3279000   0.72588756   -7.3118607    821.98948  0.020890248  0.020167701            7 
 3280000   0.73244291    -7.325482    818.90173   0.02080543    0.0201617           13 
 3281000   0.71736498   -7.3279625    820.16928  0.020831283  0.020155703            6 
 3282000   0.71059129   -7.3304521    819.29933  0.020802847  0.020149674            7 
 3283000   0.73073501   -7.3315734     819.6302  0.020804909  0.020143651           15 
 3284000    0.7412518   -7.3221184    819.70175  0.020800389  0.020137631            8 
 3285000   0.71025853   -7.3264745    821.53355  0.020840526  0.020131605            6 
 3286000   0.73890305   -7.2980555    821.11668  0.020823612  0.020125582           12 
 3287000   0.73110675   -7.3024235    820.04458  0.020790097   0.02011956            9 
 3288000   0.74583465   -7.3014876    819.40527  0.020767571  0.020113539            6 
 3289000   0.73426997   -7.3193463    820.30565  0.020784069  0.020107526           10 
 3290000   0.71554492   -7.3142769    820.76155    0.0207893  0.020101504            7 
 3291000   0.71595623   -7.3391262    819.59917  0.020753549  0.020095475           15 
 3292000   0.71481777   -7.3069868    820.56773  0.020771763  0.020089439            8 
 3293000     0.711641   -7.3164515    817.98406  0.020700072  0.020083398           12 
 3294000   0.74195456   -7.3200301    818.94234  0.020718031  0.020077373           19 
 3295000   0.71159855   -7.3299812    820.34378  0.020747187  0.020071334           11 
 3296000    0.7177779   -7.3194441    818.42322  0.020692335  0.020065284           12 
 3297000   0.72996815   -7.3380244    819.77249  0.020720162  0.020059251           14 
 3298000   0.72615235   -7.3299345    819.93396  0.020717959  0.020053228           16 
 3299000   0.72470649   -7.3388995     819.9987  0.020713315  0.020047192           20 
 3300000   0.70937879   -7.3334009    820.44382  0.020718278  0.020041167           19 
 3301000   0.71924193   -7.3034083    820.63563  0.020716844  0.020035134            6 
 3302000    0.7312685   -7.3383813    820.23702   0.02070051  0.020029124            4 
 3303000   0.72762534   -7.3367811    820.65255  0.020704727  0.020023119           13 
 3304000   0.72487098   -7.3185673    819.71176  0.020674732  0.020017097           16 
 3305000   0.71558243   -7.3403475    819.04431  0.020651647  0.020011078           22 
 3306000   0.71637487   -7.3384654    819.87206  0.020666265  0.020005056            9 
 3307000    0.7079624     -7.30413    820.01308  0.020663569  0.019999037            9 
 3308000   0.72807154   -7.3406692    818.37654  0.020616096  0.019992997           14 
 3309000   0.72403765   -7.3143503    820.26027  0.020657305  0.019986948            8 
 3310000   0.71362464   -7.3284589    820.59453   0.02065948   0.01998092           12 
 3311000   0.72614972   -7.3035102      820.883    0.0206605  0.019974903            5 
 3312000   0.71847099   -7.3127463    819.84709  0.020628198   0.01996886            6 
 3313000   0.72377227   -7.3376626    819.22138  0.020606233  0.019962826            7 
 3314000    0.7337912   -7.3413902    820.83824  0.020640672  0.019956803           10 
 3315000   0.72037771   -7.3291393    820.82534  0.020634121  0.019950775           12 
 3316000   0.71872894   -7.3433114    818.49633  0.020569369   0.01994474           18 
 3317000   0.71506465    -7.319504     821.6324  0.020641956  0.019938704            6 
 3318000   0.72812818   -7.3277668    820.70569   0.02061246    0.0199327           10 
 3319000   0.73973396   -7.3451072    819.19079  0.020568213  0.019926685           10 
 3320000    0.7124874   -7.3356041    819.63958  0.020573283   0.01992066           15 
 3321000   0.71941678   -7.3526152    818.35956  0.020534968  0.019914623            9 
 3322000   0.71730427   -7.3304385    820.31062   0.02057773  0.019908592           28 
 3323000   0.72461974   -7.3487221    817.43422  0.020499404  0.019902559           15 
 3324000   0.71986213   -7.3362796    820.13525  0.020560952  0.019896544           12 
 3325000   0.72046051   -7.3342197    819.05316  0.020527648  0.019890535           11 
 3326000    0.7383063   -7.3210213    820.58335  0.020559815  0.019884542           17 
 3327000   0.71605483   -7.3273237    819.68807  0.020531211  0.019878537            8 
 3328000   0.71224779   -7.3282791    819.37496  0.020517202  0.019872524           12 
 3329000   0.70514126    -7.334581    820.11889  0.020529661  0.019866508           22 
 3330000   0.71047773   -7.3578569    820.82885  0.020541262  0.019860476           11 
 3331000   0.71145372   -7.3011725    819.73719  0.020507785  0.019854462           11 
 3332000   0.72566262   -7.3396304    820.71444  0.020526071  0.019848434           18 
 3333000    0.7250798   -7.3422704    819.13123  0.020480329  0.019842409           13 
 3334000   0.71311514   -7.3210284    819.63544  0.020486789  0.019836379           10 
 3335000   0.72347697   -7.3548952    818.97725  0.020464199  0.019830343           16 
 3336000   0.70552743   -7.3394864    818.75457  0.020452502  0.019824287           11 
 3337000    0.7141476   -7.3030844    821.81628  0.020522832  0.019818266           10 
 3338000   0.70929952   -7.3348071    819.18939  0.020451103  0.019812239           17 
 3339000   0.73083021   -7.3498071    820.63512   0.02048106  0.019806208           12 
 3340000   0.71510048   -7.3467377    817.85745  0.020405625  0.019800164           28 
 3341000   0.71176101    -7.351089     818.5187  0.020416011  0.019794113           49 
 3342000     0.723087   -7.3425553    820.57318   0.02046113  0.019788086           32 
 3343000   0.70467256   -7.3186715    818.40658  0.020401002  0.019782044           30 
 3344000   0.71561529   -7.3373002    818.32746  0.020392929  0.019776011           17 
 3345000   0.71666439   -7.3424062    820.95055  0.020452181  0.019769955           22 
 3346000   0.71656631   -7.3429181    821.01132  0.020447582  0.019763931           19 
 3347000   0.70090804   -7.3464078    819.83344  0.020412146  0.019757912           17 
 3348000   0.71441104     -7.34863    820.39441  0.020420012  0.019751892           32 
 3349000   0.71601608   -7.3189421    820.40118  0.020414083  0.019745881           15 
 3350000   0.71696824   -7.3212059    821.65449  0.020439166  0.019739898           14 
 3351000   0.71623814   -7.3121124    819.77219  0.020386258  0.019733902           19 
 3352000   0.72943878   -7.3448057    819.45592  0.020372313  0.019727907           27 
 3353000   0.71257479   -7.3197925    820.56073  0.020393695  0.019721931           23 
 3354000   0.72345044   -7.3518705    820.73626  0.020391976   0.01971594           13 
 3355000   0.70789509     -7.32559    821.16044  0.020396434  0.019709929           19 
 3356000   0.71941818   -7.3647072    821.25046  0.020392592  0.019703938           18 
 3357000   0.71994704   -7.3398873    821.54232  0.020393762   0.01969793            8 
 3358000   0.71619101   -7.3513916    819.37757  0.020333968  0.019691952            7 
 3359000    0.7282575   -7.3588843    820.51045   0.02035602  0.019685973            7 
 3360000   0.71447037   -7.3329962    820.88058  0.020359141  0.019680001           10 
 3361000    0.7141096    -7.349476    819.46836  0.020318069   0.01967401            8 
 3362000   0.72042941   -7.3333134    822.18343  0.020379323  0.019668016           18 
 3363000   0.73222913   -7.3403694    819.24123  0.020300358  0.019662048            6 
 3364000   0.70537658    -7.355222     819.4368  0.020299168  0.019656064           20 
 3365000   0.71838019   -7.3316492    819.27693  0.020289176  0.019650091            8 
 3366000   0.72907311   -7.3262461    822.30055  0.020358005  0.019644147           11 
 3367000   0.71903583   -7.3398658    822.48458  0.020356514  0.019638214           14 
 3368000   0.72664375   -7.3081053    821.53809  0.020327051  0.019632273           10 
 3369000   0.71403343   -7.3317667    822.45909  0.020343799  0.019626329           15 
 3370000   0.70706637   -7.3420013    822.07406  0.020328241  0.019620409           17 
 3371000   0.70218624   -7.3619386    820.01944  0.020271419  0.019614479           15 
 3372000   0.73418238   -7.3135721    822.43658  0.020325143  0.019608553           10 
 3373000   0.71531877   -7.3207114    821.94963  0.020307086  0.019602631           11 
 3374000   0.70426435   -7.3459865    822.30803   0.02030992    0.0195967            8 
 3375000   0.70410601   -7.3371414    821.05228  0.020272896  0.019590765            7 
 3376000   0.72474471   -7.3349383     821.7986  0.020285313  0.019584857           14 
 3377000   0.71076619   -7.3223415    821.97131  0.020283568  0.019578953            7 
 3378000   0.72125088   -7.3365289    821.75406  0.020272204  0.019573032            8 
 3379000   0.70729886   -7.3328662    820.26519  0.020229486  0.019567098            9 
 3380000   0.72494487   -7.3527405    819.64106  0.020208113  0.019561164            6 
 3381000   0.69716047    -7.368931    820.23471  0.020216768  0.019555202            6 
 3382000   0.69456315   -7.3441121      820.509  0.020217549  0.019549251            5 
 3383000   0.73876875   -7.3440044    819.28204  0.020181349  0.019543303            4 
 3384000   0.71081837   -7.3509759    819.83236  0.020188937  0.019537353           11 
 3385000   0.70008951   -7.3321945     820.7497  0.020205556  0.019531409           13 
 3386000   0.71133707   -7.3462001    820.77569  0.020200229  0.019525438           13 
 3387000   0.71511684   -7.3661654    819.12847  0.020153737   0.01951945            6 
 3388000   0.71513805   -7.3674974    821.01805  0.020194265  0.019513481            7 
 3389000   0.70941524   -7.3362174    821.24497  0.020193886  0.019507509           15 
 3390000   0.72286654   -7.3512441    821.08374  0.020183966  0.019501547           18 
 3391000   0.69672604   -7.3848879    819.34727   0.02013534  0.019495559           11 
 3392000   0.70244262   -7.4015016    820.26653  0.020151988  0.019489557           12 
 3393000   0.73101794   -7.3513569    819.70968  0.020132372  0.019483567           14 
 3394000   0.70304883   -7.3686582    820.20331  0.020138561  0.019477605           11 
 3395000   0.70419813   -7.3283678    823.74349  0.020219526  0.019471639           19 
 3396000   0.70802387   -7.3496279    821.22367  0.020151739   0.01946569           10 
 3397000    0.7125266   -7.3672795    820.34574   0.02012427  0.019459713           23 
 3398000   0.69743547   -7.3509099    821.93642  0.020157358  0.019453755           45 
 3399000   0.69775697   -7.3552679    821.73864  0.020146578  0.019447794           18 
 3400000   0.71516228   -7.3525283    822.08076  0.020149038  0.019441826           13 
 3401000   0.70574377    -7.359092    821.31302  0.020124302  0.019435865           10 
 3402000    0.7094105   -7.3562716    821.92739  0.020133436  0.019429898           16 
 3403000   0.69943378   -7.3429337    820.15976  0.020084234  0.019423922           26 
 3404000    0.6968612   -7.3414804     822.4551  0.020134525  0.019417963           27 
 3405000   0.70364847   -7.3519467    821.87101  0.020114318  0.019412001           12 
 3406000   0.68770759    -7.378167    822.23023  0.020117201  0.019406046           11 
 3407000   0.70581848   -7.3506992     820.0642  0.020058316  0.019400075            6 
 3408000   0.70091988   -7.3168824    821.08407  0.020077369   0.01939411            6 
 3409000   0.70206361   -7.3587098    821.31228  0.020077058  0.019388141           10 
 3410000   0.69725509   -7.3507232    821.57801  0.020077664   0.01938217            6 
 3411000   0.70543931   -7.3808739    819.28513  0.020015761    0.0193762           10 
 3412000   0.71704314   -7.3768134    820.65173  0.020043272  0.019370233           11 
 3413000   0.71463223   -7.3811054    820.98833  0.020045618  0.019364277           11 
 3414000   0.69361715   -7.3356252    820.82109  0.020035664  0.019358317           22 
 3415000   0.71199782   -7.3714223    820.23455  0.020015484   0.01935237           11 
 3416000   0.71106705   -7.3376761    821.80452  0.020047924  0.019346439            7 
 3417000   0.70352537   -7.3447394    819.88953  0.019995355  0.019340502           14 
 3418000   0.70257614   -7.3701477    820.91771  0.020014573  0.019334557           17 
 3419000   0.70209689   -7.3996981    822.93342  0.020057849  0.019328612            8 
 3420000   0.71049493   -7.3601348    821.15387  0.020008623  0.019322683           10 
 3421000   0.70672178   -7.3920058    821.67144  0.020015381  0.019316773            6 
 3422000   0.70044899   -7.3761201    821.07465  0.019994999   0.01931086            9 
 3423000   0.69618058    -7.385805    819.93503  0.019961414  0.019304922           17 
 3424000   0.69217648   -7.3760539    821.21681   0.01998678  0.019298994           27 
 3425000   0.70617635   -7.3775899    821.21325  0.019980858  0.019293118            9 
 3426000   0.71203822   -7.3624676    822.88771  0.020015755  0.019287232            9 
 3427000   0.69578246   -7.3606779     820.8407  0.019960138  0.019281327           12 
 3428000   0.70367788   -7.3710264    820.45902  0.019945036  0.019275431            6 
 3429000   0.70413644   -7.3681711    820.05164   0.01992932  0.019269523           14 
 3430000   0.70031061   -7.3870803    820.41884   0.01993243  0.019263606           11 
 3431000    0.6834331   -7.3760406    819.40436  0.019901981  0.019257667            9 
 3432000   0.68242637   -7.3694986    820.58624   0.01992488  0.019251751           10 
 3433000   0.70076687   -7.3707217    822.17609  0.019957668  0.019245828           14 
 3434000   0.70525167   -7.3988662    821.03661  0.019924204  0.019239928            7 
 3435000   0.70643076   -7.4146192    822.07866  0.019943684  0.019234006           15 
 3436000   0.68714224    -7.368278    822.33845   0.01994418  0.019228113            6 
 3437000    0.7039649   -7.3585157     821.1873  0.019910467  0.019222211           10 
 3438000   0.68851371   -7.3751293    822.87125  0.019945493  0.019216297            7 
 3439000   0.69698146   -7.3492179    823.12896  0.019945938  0.019210396            7 
 3440000    0.6959421   -7.3748532    820.74376  0.019882359  0.019204494            7 
 3441000   0.69186832   -7.3716354    820.94938   0.01988156  0.019198608            9 
 3442000   0.69403527   -7.3892601    820.57634  0.019866752  0.019192704           16 
 3443000   0.69641003   -7.3748953    821.67258  0.019887515   0.01918679           11 
 3444000   0.70551199   -7.3801177     821.2147  0.019870662  0.019180893           18 
 3445000   0.70111812   -7.3696601    822.34576  0.019892253   0.01917498           18 
 3446000    0.6920141   -7.4036292    820.66199  0.019845763  0.019169059           17 
 3447000   0.70067634   -7.3772991    822.65359  0.019888154  0.019163136           11 
 3448000   0.71050066   -7.4194394    822.74005  0.019884475  0.019157241           23 
 3449000   0.69405949   -7.4069688    822.21918  0.019866125   0.01915134           11 
 3450000   0.68550921   -7.4025316    822.33211  0.019863095  0.019145435           15 
 3451000   0.70650167    -7.385516    819.98193  0.019800587  0.019139524           14 
 3452000   0.69619756   -7.3507496    821.68294  0.019835915  0.019133627           14 
 3453000   0.70253079    -7.379529    820.08765   0.01979167  0.019127733           13 
 3454000   0.72158144   -7.3710181    823.09362  0.019858464  0.019121834           17 
 3455000   0.71159498   -7.3762854    822.54732   0.01983954  0.019115928           19 
 3456000   0.69775741   -7.3809463    820.99607  0.019796394  0.019110035            9 
 3457000   0.69782686   -7.3823931     821.7333  0.019808439  0.019104162           14 
 3458000    0.6846492   -7.4056767    821.33223  0.019793046  0.019098269           14 
 3459000   0.70428261   -7.3872362    820.81312  0.019774817  0.019092356           11 
 3460000   0.70318409   -7.4064153    820.78323  0.019768382  0.019086441           31 
 3461000   0.70896664   -7.3994606     820.9734  0.019767249  0.019080525           10 
 3462000   0.71287684   -7.3644791    820.86916  0.019759031  0.019074615           25 
 3463000   0.68709224   -7.3732108    822.56222  0.019794066  0.019068731            9 
 3464000   0.69805772   -7.3739051    822.75013  0.019792873  0.019062866           11 
 3465000    0.6973377   -7.3671665    822.47024  0.019780429  0.019056992            9 
 3466000   0.70410258   -7.3699872    821.10415  0.019741877  0.019051133           14 
 3467000   0.71412907   -7.3802326      824.297  0.019812927  0.019045286            7 
 3468000   0.68352649   -7.3730708    822.29771  0.019759172  0.019039421           10 
 3469000   0.68758094   -7.3826366    823.16131  0.019774222  0.019033566           10 
 3470000   0.68578986   -7.3966179     821.3416  0.019724822  0.019027706           12 
 3471000   0.71819441   -7.3630886     823.7555  0.019777094  0.019021839           17 
 3472000   0.68673266    -7.385996    821.75449   0.01972337  0.019015992           17 
 3473000   0.70406128   -7.3675909    822.99987  0.019747574   0.01901014           12 
 3474000   0.72058592    -7.392177    821.12769   0.01969698  0.019004283           11 
 3475000   0.68791998   -7.3786086    822.03633  0.019713102  0.018998427           10 
 3476000   0.70988302   -7.3899151    822.28585  0.019713412  0.018992582           11 
 3477000   0.68515319   -7.3740777    822.70683  0.019717832  0.018986741           13 
 3478000   0.69862054   -7.3856882    823.25542  0.019725307  0.018980915            9 
 3479000   0.69472702   -7.3703186    824.56445  0.019750993  0.018975078            9 
 3480000   0.71005218   -7.3661379    821.18536    0.0196644  0.018969244           17 
 3481000   0.69401378   -7.4037925    822.36984  0.019687107  0.018963404           29 
 3482000   0.69023435   -7.3831251    823.23465   0.01970215  0.018957547            6 
 3483000   0.69908834   -7.3854336    823.80904  0.019710236  0.018951716            6 
 3484000   0.70387194   -7.3813497    823.78184  0.019703928  0.018945883           12 
 3485000    0.6909662   -7.3753914    823.43923  0.019690082  0.018940052            6 
 3486000   0.68867885   -7.3914197    824.58452  0.019711812  0.018934234            8 
 3487000   0.68253088    -7.392674     822.8025  0.019663572  0.018928392            9 
 3488000   0.70275921   -7.4153049    821.74585   0.01963269  0.018922545            9 
 3489000   0.67586513   -7.3996281    821.59197  0.019623387  0.018916694            4 
 3490000   0.69546326   -7.4140071    821.73395  0.019621154   0.01891085            8 
 3491000   0.69205013   -7.3952491    823.59011  0.019659842  0.018904988            7 
 3492000   0.68686081   -7.4043482    822.16584  0.019620223  0.018899143            6 
 3493000   0.70824049   -7.4091355    824.56171  0.019671765  0.018893302            5 
 3494000   0.67939933   -7.3941051    822.40106  0.019614603  0.018887471           15 
 3495000   0.68865773   -7.4078432    822.47332  0.019610713  0.018881643           15 
 3496000   0.67964863   -7.4281768    823.25208  0.019623667   0.01887581           17 
 3497000    0.7184447   -7.4008907    820.24787  0.019546465  0.018869962           19 
 3498000     0.690799   -7.3915533    822.76358   0.01960081  0.018864118           18 
 3499000   0.69467049   -7.3999163    821.73601  0.019570735  0.018858265           25 
 3500000   0.67229524    -7.396341    824.75775  0.019637089  0.018852423           13 
 3501000   0.68502919   -7.3980646    822.73283  0.019583282  0.018846572           21 
 3502000   0.67637774   -7.4056009    823.68659  0.019600385  0.018840734           23 
 3503000   0.68255418   -7.3685046    823.52426  0.019590928  0.018834907            9 
 3504000   0.69126635   -7.3725897    823.98531  0.019596302  0.018829113           19 
 3505000   0.70177547   -7.3875384    822.14493  0.019546955  0.018823311           15 
 3506000   0.69480802   -7.4155975    822.40422  0.019547543  0.018817493           20 
 3507000   0.69149684    -7.407035     822.0899    0.0195345   0.01881166           16 
 3508000   0.69395855   -7.4085594    820.97051   0.01950234  0.018805832           14 
 3509000   0.67906202   -7.3860709    822.35606  0.019529687  0.018800019           19 
 3510000   0.70328481   -7.3990732    820.87023  0.019488847  0.018794204           28 
 3511000   0.70524565   -7.4160261    823.03263   0.01953462  0.018788393           10 
 3512000    0.6921218   -7.4088803    823.27368  0.019534778  0.018782579           20 
 3513000   0.68205691   -7.4257969    820.14239  0.019454938  0.018776771           12 
 3514000   0.69759322    -7.402227    824.59492  0.019554992  0.018770981           13 
 3515000   0.67812418   -7.3909871    824.10235  0.019537751  0.018765203           11 
 3516000   0.69352272    -7.397618    824.28748  0.019536582  0.018759443            6 
 3517000   0.69937283    -7.375071     825.6431  0.019563148  0.018753689            9 
 3518000   0.67514613   -7.3977635    825.64793  0.019557701  0.018747925            7 
 3519000   0.70635137    -7.385399    824.95206  0.019535665  0.018742192           18 
 3520000   0.68558905   -7.3912455    822.13335  0.019463384  0.018736453           16 
 3521000   0.69962602   -7.4076076    824.58302  0.019515834  0.018730708           15 
 3522000   0.69606565   -7.3907497    825.50937  0.019532211  0.018724959           14 
 3523000   0.68210914   -7.4083867    824.62762   0.01950581  0.018719211            9 
 3524000   0.69138509   -7.4065275    824.96569  0.019508269  0.018713454           15 
 3525000   0.68956025   -7.4059953    825.15153  0.019507128  0.018707695           19 
 3526000   0.67416126   -7.4247406    822.93375  0.019449181  0.018701939            9 
 3527000   0.67388673   -7.4072836    821.61868  0.019412595  0.018696169           15 
 3528000   0.67626602   -7.4091709    822.60829  0.019430468    0.0186904           15 
 3529000   0.69964525      -7.4227    822.48539   0.01942206  0.018684624           20 
 3530000   0.69933763   -7.4265971    824.79434  0.019471066  0.018678848           24 
 3531000   0.69000285   -7.4141662    823.54217     0.019436  0.018673067           26 
 3532000   0.68136696   -7.3905773    823.74168  0.019435204  0.018667284           20 
 3533000    0.6869774   -7.4097507    824.81427  0.019455002  0.018661508           27 
 3534000   0.66726154   -7.4066139     823.9287  0.019428615   0.01865576           24 
 3535000   0.68341321   -7.4004748    823.45072  0.019411851  0.018649996           25 
 3536000   0.70599053    -7.431136    823.26823   0.01940206  0.018644225           14 
 3537000   0.66037764     -7.42056    823.94267  0.019412465  0.018638453           11 
 3538000   0.68504275   -7.3974628     824.0711  0.019410003  0.018632677           18 
 3539000   0.66902714   -7.4123021     824.2814  0.019409471   0.01862693           13 
 3540000   0.67127052   -7.4010985    824.19345  0.019401917  0.018621177           21 
 3541000   0.67758743   -7.4066774    824.20544   0.01939672  0.018615432           13 
 3542000   0.67763399    -7.389894    823.56133   0.01937609  0.018609688            9 
 3543000   0.68401386   -7.3876088    823.58633  0.019371209  0.018603952           12 
 3544000   0.67389817   -7.3732204    824.24342  0.019381194  0.018598216            7 
 3545000   0.67638416   -7.3958787    822.50675  0.019334902  0.018592466            9 
 3546000   0.68169169   -7.4286084    824.23755  0.019370125  0.018586715            7 
 3547000   0.69656997   -7.4268739    823.12077  0.019338426  0.018580964            7 
 3548000   0.69072287   -7.4461092    823.97316  0.019352996    0.0185752           11 
 3549000   0.67905624   -7.4188201    822.08483  0.019303203  0.018569434            8 
 3550000   0.68096171   -7.4182915    823.69257  0.019335506  0.018563667           27 
 3551000    0.6980593   -7.4156057     822.4634  0.019301216  0.018557923            8 
 3552000   0.69229143   -7.3949631    823.49554  0.019319997  0.018552182           32 
 3553000   0.68382847   -7.4389805    822.94103  0.019301553  0.018546423           28 
 3554000   0.69624467   -7.4201224    822.97745  0.019296976  0.018540658           25 
 3555000   0.68604107   -7.3885436    824.09964  0.019317854  0.018534908            8 
 3556000   0.67865057   -7.4022514    824.03037  0.019310798  0.018529178           14 
 3557000   0.68054337   -7.4328709    823.25298  0.019287156  0.018523421           11 
 3558000   0.69040969   -7.4247852    821.74561  0.019246431  0.018517667           19 
 3559000   0.70755242   -7.4251449    824.25097  0.019299686  0.018511926            8 
 3560000   0.67265072   -7.4136745    824.23025  0.019293779  0.018506177           10 
 3561000   0.67634901   -7.4032192    825.23279  0.019311822  0.018500454            9 
 3562000   0.67731341   -7.4222333    823.41375  0.019263844  0.018494731            7 
 3563000   0.66801722   -7.4177595    823.17826   0.01925293  0.018488992           14 
 3564000   0.68371434   -7.4396881    823.27608  0.019249815  0.018483247           11 
 3565000   0.67984652   -7.4092037    823.88281  0.019258598  0.018477505           11 
 3566000   0.68133434   -7.4054278    822.86137  0.019229327  0.018471795           18 
 3567000   0.67939106   -7.4041948    823.32109  0.019234676  0.018466079           14 
 3568000   0.66147876    -7.406073    824.30898  0.019252358  0.018460342            9 
 3569000   0.69296538   -7.4094129    822.94191  0.019215044  0.018454599            7 
 3570000   0.68829183   -7.4070422    823.15927  0.019214736  0.018448875           14 
 3571000   0.68406874   -7.4238382     822.7739  0.019200362  0.018443161           26 
 3572000   0.68928868   -7.3969025    824.30489  0.019230704  0.018437457           16 
 3573000   0.68563794   -7.4219423    824.69267  0.019234366  0.018431752           21 
 3574000   0.68346138   -7.4159654    824.41396  0.019222486  0.018426042           17 
 3575000   0.68838259   -7.4019297    824.73772  0.019224655   0.01842033           10 
 3576000   0.67695464   -7.3920484    825.29089   0.01923217   0.01841464           10 
 3577000   0.67248783   -7.4156646    824.70447  0.019213132  0.018408957            9 
 3578000   0.68784781   -7.4126735    824.39391  0.019200529  0.018403276            5 
 3579000   0.69102973   -7.3940282    825.11158  0.019211874  0.018397597            9 
 3580000   0.67548017    -7.409722    824.71376  0.019197248  0.018391921           12 
 3581000   0.67523921    -7.420876    824.28501  0.019181909  0.018386227           21 
 3582000   0.67774104    -7.395632    824.36045  0.019178309  0.018380549           14 
 3583000   0.68588145   -7.4065776    824.59734  0.019178466  0.018374883            6 
 3584000   0.67057786   -7.4081199    824.36316   0.01916767  0.018369224            9 
 3585000   0.67486359   -7.4447917    824.66486  0.019169337  0.018363543           18 
 3586000    0.6706546   -7.4243981    825.09196  0.019173916  0.018357866           10 
 3587000   0.68454035   -7.4131458    823.56939  0.019133198  0.018352202           10 
 3588000   0.68400877   -7.4315278    823.57615  0.019128023  0.018346534            7 
 3589000   0.67366257   -7.4349755    824.01743  0.019132939  0.018340852            9 
 3590000   0.68670447    -7.416453    826.11098  0.019176207  0.018335183            7 
 3591000   0.67849254   -7.4148601     824.1773  0.019125993  0.018329514           11 
 3592000    0.6753691   -7.4416527    825.51652  0.019151738  0.018323838            9 
 3593000    0.6741977   -7.4495463    825.34318  0.019142388  0.018318178            7 
 3594000    0.6664816   -7.4390736    824.33497  0.019113684  0.018312499            9 
 3595000   0.66782242   -7.3965918    822.34788  0.019062306  0.018306825            9 
 3596000   0.67793792   -7.4267275    823.98709  0.019094992  0.018301141           11 
 3597000   0.67504982   -7.4189801    822.20926  0.019048496  0.018295464           10 
 3598000   0.67027902   -7.4286916    823.94843  0.019083482  0.018289785            9 
 3599000   0.67144339   -7.4364413    823.60341  0.019070191  0.018284115           12 
 3600000   0.68318069   -7.4291066     824.9348  0.019095713  0.018278445            7 
 3601000   0.67819473   -7.4298324    825.00982  0.019092146  0.018272774           12 
 3602000   0.68695838    -7.432074    824.43166   0.01907347  0.018267123           10 
 3603000   0.66424075   -7.4546791    824.62412  0.019072628  0.018261461           10 
 3604000   0.67870574    -7.437256    824.59852  0.019066744    0.0182558           10 
 3605000   0.67635769   -7.4486425    824.03072  0.019048329  0.018250148            7 
 3606000    0.6823587   -7.4451404    824.47869  0.019053399  0.018244472            5 
 3607000   0.66861217   -7.4335406    824.18519  0.019041336  0.018238819            5 
 3608000   0.68051814   -7.4430046    824.99545  0.019054773  0.018233175            6 
 3609000   0.69069004   -7.4292934    825.02659  0.019050212  0.018227523            5 
 3610000   0.68314674    -7.417477    823.93394  0.019019712  0.018221878           10 
 3611000   0.68221652   -7.4494634    824.32965  0.019023577  0.018216239            7 
 3612000   0.68381721   -7.4335425    823.66117  0.019002888  0.018210579           18 
 3613000   0.67454166   -7.4262094    824.21962  0.019010509  0.018204925           10 
 3614000   0.68774082   -7.4309687    823.68492  0.018992919  0.018199289            9 
 3615000   0.66691109   -7.4373027    825.13009   0.01902098  0.018193659           15 
 3616000   0.68324066   -7.4532291    824.24883   0.01899541  0.018188028           12 
 3617000   0.68771176   -7.4353174    825.77225  0.019025257  0.018182388           15 
 3618000   0.68488575   -7.4522071    826.68674  0.019041062  0.018176755           14 
 3619000   0.68299959    -7.451318    825.18135  0.019001136  0.018171125           35 
 3620000   0.68359384   -7.4444405    824.96865  0.018990991  0.018165492           15 
 3621000   0.66374269   -7.4325334    826.10075    0.0190118  0.018159869            8 
 3622000   0.67741642    -7.455052    825.38609  0.018990109  0.018154245           10 
 3623000   0.65770002     -7.45732     826.0688   0.01900057   0.01814862           15 
 3624000   0.65426141   -7.4336328    826.21043  0.018998584  0.018143002           22 
 3625000   0.68076845   -7.4391498    825.65929  0.018980673  0.018137369           24 
 3626000   0.68135189   -7.4504263    824.00681  0.018937461   0.01813175           14 
 3627000   0.67831227    -7.438699    825.00837  0.018955252  0.018126147           22 
 3628000   0.66598157   -7.4358796    825.11661  0.018952513  0.018120546           37 
 3629000    0.6740363   -7.4463528    825.20926  0.018949418  0.018114927           21 
 3630000   0.66379722   -7.4499781    825.15681  0.018942994  0.018109296           31 
 3631000   0.67607489   -7.4420184    824.93004  0.018932572  0.018103652           31 
 3632000   0.67032816    -7.436512    825.22328  0.018934088  0.018098029           41 
 3633000   0.67063703   -7.4662032    823.40469  0.018887161  0.018092383           26 
 3634000   0.67343412   -7.4489152    824.56284  0.018908522  0.018086747           10 
 3635000   0.66917682   -7.4495397    823.04377  0.018868495  0.018081111           16 
 3636000   0.66543492    -7.428078    825.18003  0.018912267  0.018075487           19 
 3637000   0.66123815   -7.4591204     825.6021  0.018916738  0.018069879           19 
 3638000   0.67642433   -7.4514014    825.15194  0.018901226  0.018064277           17 
 3639000   0.66090171   -7.4692675    825.02915   0.01889322  0.018058681           21 
 3640000   0.67546121   -7.4410365    825.49166  0.018898619  0.018053093           28 
 3641000   0.67176792   -7.4720099     825.5264  0.018894223  0.018047504           13 
 3642000   0.67342863   -7.4438849    826.50584  0.018911446  0.018041935           25 
 3643000   0.68379967   -7.4453977    826.86532  0.018914478   0.01803636           10 
 3644000   0.65695521   -7.4536519    826.45073  0.018899806  0.018030784            9 
 3645000   0.66509207   -7.4247365    827.19214  0.018911572  0.018025223           22 
 3646000   0.66767733   -7.4430544    825.37573  0.018864869  0.018019647           23 
 3647000    0.6643701   -7.4489083    825.88323  0.018871292  0.018014079           16 
 3648000   0.66982531    -7.448693    824.31627  0.018830324    0.0180085           18 
 3649000   0.66758174   -7.4581716    826.11627  0.018866271   0.01800295           23 
 3650000   0.65192797   -7.4435098    828.32848  0.018911609  0.017997394            8 
 3651000   0.65697381   -7.4664854    826.45591  0.018863688  0.017991831            8 
 3652000   0.65044604   -7.4380161    826.74195   0.01886505  0.017986281           18 
 3653000   0.66295644    -7.454788    825.05183   0.01882133  0.017980719           16 
 3654000   0.68766008   -7.4148769    826.54331  0.018850194  0.017975168           11 
 3655000   0.67185147   -7.4557969    826.94749  0.018854252  0.017969616           23 
 3656000    0.6840577   -7.4381072    827.39597  0.018859317   0.01796408           12 
 3657000   0.66928937   -7.4284823    828.51148   0.01887958  0.017958549           14 
 3658000   0.66781441   -7.4504796    825.92688  0.018815539  0.017953002            8 
 3659000   0.65917202   -7.4413364     826.4615  0.018822572  0.017947464           10 
 3660000   0.67153109   -7.4295922    828.91831  0.018873368  0.017941947           11 
 3661000    0.6663923   -7.4680516    827.09612  0.018826735   0.01793643           26 
 3662000   0.67074099   -7.4376956    826.09978  0.018798921  0.017930899           16 
 3663000   0.66230179   -7.4439303    825.52887  0.018780801  0.017925378           23 
 3664000   0.66357174   -7.4344624    827.23944   0.01881458  0.017919851           20 
 3665000   0.67313128   -7.4400089    825.88426  0.018778632  0.017914328           11 
 3666000   0.66074073   -7.4462585    826.67424  0.018791467  0.017908803           18 
 3667000   0.65823004   -7.4487078    827.86342  0.018813367   0.01790328           23 
 3668000    0.6768519   -7.4375561    827.08334  0.018790516  0.017897761           14 
 3669000   0.67176674   -7.4428452    826.36226  0.018769016  0.017892241            9 
 3670000   0.66561439   -7.4522145    826.13806  0.018758811  0.017886709           17 
 3671000   0.66844491   -7.4576873    825.83066  0.018746723  0.017881178            8 
 3672000   0.66672779   -7.4703604    827.61405  0.018782091  0.017875646           13 
 3673000   0.66356124   -7.4547571    828.56225   0.01879849  0.017870105           21 
 3674000   0.65176531    -7.444063    825.20363  0.018717194  0.017864582           10 
 3675000   0.66508137   -7.4380438    826.02518   0.01873073  0.017859048            7 
 3676000   0.67938527    -7.451578    824.38115  0.018688365  0.017853502           12 
 3677000   0.65718621   -7.4691315    825.31259  0.018704392  0.017847957           27 
 3678000   0.66102006   -7.4544229    824.52333  0.018681424   0.01784241           34 
 3679000   0.66969268   -7.4549723    825.54132  0.018699405  0.017836869           28 
 3680000   0.66724594   -7.4538194    825.51882  0.018693814   0.01783134           15 
 3681000   0.64760789   -7.4604799    825.10627  0.018679396  0.017825806           16 
 3682000   0.66323993   -7.4615638     825.7455   0.01868879  0.017820268           16 
 3683000   0.66722922   -7.4901853    826.30036   0.01869627  0.017814742           20 
 3684000   0.67958193   -7.4342541     825.4472  0.018671896   0.01780922           21 
 3685000   0.66347934   -7.4515426    826.08053  0.018681152  0.017803714           23 
 3686000   0.67796472   -7.4572994    825.72536  0.018668054  0.017798199           24 
 3687000   0.64876545   -7.4534228    826.33797  0.018676837  0.017792678           20 
 3688000   0.66471695   -7.4278701     826.0542  0.018665361  0.017787167           15 
 3689000   0.67015702   -7.4418628    826.75728  0.018676183  0.017781672           32 
 3690000   0.66718569   -7.4628377    824.94912  0.018630287  0.017776174           11 
 3691000   0.65578313   -7.4594005     825.2725  0.018632541  0.017770676           11 
 3692000   0.66726316    -7.442501    827.58732  0.018679743  0.017765178            9 
 3693000   0.65770806   -7.4455559    826.44073  0.018648812  0.017759685           11 
 3694000   0.65450042   -7.4219203    826.84861  0.018652964  0.017754198           25 
 3695000   0.66388199   -7.4427479     827.5105  0.018662844  0.017748705           23 
 3696000   0.66139532   -7.4289254    826.77269  0.018641159  0.017743225           22 
 3697000   0.66684669   -7.4626456    828.03205  0.018664504  0.017737734           22 
 3698000   0.66335138   -7.4395257    828.88899  0.018678768  0.017732252           23 
 3699000   0.65268011   -7.4501877    827.59113  0.018644479  0.017726762           24 
 3700000   0.65792344   -7.4583975    826.95368  0.018625083  0.017721252           18 
 3701000   0.66083986   -7.4781658    827.38869  0.018629845  0.017715744           19 
 3702000   0.67723861   -7.4599403    826.42409    0.0186031  0.017710259           20 
 3703000   0.66640002   -7.4833323    826.57244  0.018601414  0.017704774           12 
 3704000   0.65835647   -7.4273122    827.00529  0.018606131  0.017699286           20 
 3705000   0.65821211   -7.4778514    826.66381  0.018593428  0.017693802           38 
 3706000   0.65509364   -7.4633539    827.20658  0.018600616  0.017688327           34 
 3707000   0.65757588    -7.471448    826.23833  0.018573832  0.017682857           23 
 3708000   0.65011006   -7.4566294    828.55259  0.018620833  0.017677387           15 
 3709000   0.65725019   -7.4668607    826.81922  0.018576868  0.017671927           22 
 3710000   0.64409271   -7.4715174    827.53782  0.018588001  0.017666459           15 
 3711000   0.65734258   -7.4543548    826.34632  0.018556236  0.017661001           11 
 3712000   0.65127594   -7.4698376    827.74978  0.018582745  0.017655539           16 
 3713000   0.65715204   -7.4666368    827.68791  0.018576351  0.017650087           26 
 3714000   0.66187904    -7.467071     827.3637  0.018564075  0.017644636           20 
 3715000   0.67217142   -7.4405111    827.86129   0.01857024  0.017639189           23 
 3716000   0.66386961   -7.4590906    826.35039   0.01853136   0.01763373           18 
 3717000   0.65892873   -7.4736432    825.95499  0.018517509  0.017628267           34 
 3718000   0.65413046   -7.4633553    828.21398  0.018563161  0.017622792           37 
 3719000   0.65161962   -7.4764692    827.68025   0.01854621  0.017617327           29 
 3720000   0.66095706   -7.4872188    827.25833  0.018531773  0.017611867           21 
 3721000   0.67103073   -7.4592278    827.14527   0.01852426  0.017606408           16 
 3722000   0.65240211   -7.4642461    826.32451  0.018500907  0.017600947           15 
 3723000   0.66137203   -7.4704596    826.91251  0.018509099  0.017595478           12 
 3724000   0.65122618   -7.4531568    827.28695  0.018512508  0.017590009           14 
 3725000   0.65560491   -7.4782819    824.75796  0.018450961  0.017584533           22 
 3726000   0.65387651   -7.4812533    826.76479  0.018490893  0.017579044           33 
 3727000   0.65735832   -7.5006722    827.09894  0.018493403  0.017573542           37 
 3728000    0.6356876   -7.4659344     826.3546  0.018471803  0.017568053           13 
 3729000   0.64975321    -7.469641    825.86624  0.018455936   0.01756257           13 
 3730000   0.65301275   -7.4805739    826.45553  0.018464154  0.017557093           17 
 3731000   0.65683405   -7.4711826    825.55156  0.018439014  0.017551613           18 
 3732000   0.66349063   -7.4442539    824.98335  0.018421386  0.017546138           21 
 3733000   0.65077344   -7.4836022    827.07944  0.018463243  0.017540684            8 
 3734000   0.65373911   -7.4489244    827.67458   0.01847158  0.017535227           16 
 3735000   0.63826891    -7.475147     828.3038  0.018480674  0.017529769           12 
 3736000     0.666243   -7.4722609    827.09157  0.018448688  0.017524309           12 
 3737000   0.65473585   -7.4685839     827.4318  0.018451338  0.017518856           10 
 3738000   0.63953821   -7.4652179    827.71228  0.018452655  0.017513415           12 
 3739000   0.65303865   -7.4827431    828.62508  0.018468064  0.017507986            8 
 3740000   0.66076193   -7.4876971    826.04568  0.018405652  0.017502553            8 
 3741000   0.65917543    -7.478098    825.92702  0.018398089  0.017497115           16 
 3742000   0.66516585   -7.4830223    826.00248  0.018394853  0.017491665            9 
 3743000   0.64524497   -7.4863777    826.40591  0.018398921  0.017486216           35 
 3744000   0.64633485    -7.484345    827.35425  0.018415114  0.017480782           22 
 3745000   0.66840678   -7.4585645    826.71763  0.018396031  0.017475338           15 
 3746000   0.65773301    -7.457175    828.12603  0.018422451  0.017469906           43 
 3747000   0.64271458   -7.4848081    826.55841  0.018382671  0.017464474           17 
 3748000   0.65593257   -7.4638642    827.79073  0.018405166  0.017459035           16 
 3749000   0.64912914   -7.4750898    826.71572  0.018376361    0.0174536           45 
 3750000   0.64786786   -7.4791888    828.04411   0.01840098  0.017448165           27 
 3751000   0.64915873   -7.4681708    826.40691  0.018359702  0.017442739           35 
 3752000   0.65937214   -7.4671282    825.92597  0.018344127  0.017437311           11 
 3753000   0.64331109   -7.4509724    826.30787  0.018347719   0.01743188           10 
 3754000   0.65711457   -7.4767805     825.5812    0.0183267  0.017426453           23 
 3755000   0.64496975   -7.4749953     827.8672  0.018372552  0.017421029           15 
 3756000   0.65384213   -7.4898602    826.56529  0.018338776    0.0174156           13 
 3757000   0.65507866   -7.4559087    825.07778    0.0183009  0.017410168           10 
 3758000   0.64928449   -7.4890284    824.96709  0.018293576  0.017404741           14 
 3759000   0.65306639   -7.4743542    827.14236  0.018336933  0.017399314            8 
 3760000   0.64764967   -7.4526902    827.00338  0.018328976  0.017393889            9 
 3761000   0.65654192    -7.485341    826.99712  0.018323963  0.017388473           14 
 3762000   0.63699707   -7.4741808     827.2658  0.018325044   0.01738305           13 
 3763000   0.65203806   -7.4684411    827.69265  0.018329627  0.017377629           18 
 3764000   0.64590143   -7.4681352    826.16109   0.01829085  0.017372214           33 
 3765000   0.66037387   -7.4469393    827.17461  0.018308424  0.017366801           10 
 3766000   0.65409262   -7.4863294    825.81735   0.01827353  0.017361389           17 
 3767000   0.66325346   -7.4874173    825.07747  0.018252311  0.017355974            8 
 3768000   0.64437451   -7.4900011    826.11698  0.018270457  0.017350568            8 
 3769000   0.64728516   -7.4633381    826.91448  0.018283242  0.017345169            7 
 3770000   0.63907207   -7.4712744    826.66607  0.018272902  0.017339762           11 
 3771000   0.65722108    -7.472499    826.28796    0.0182597   0.01733434           11 
 3772000   0.64067879   -7.4706133    827.09256  0.018272635  0.017328926            7 
 3773000   0.64608938   -7.4759145     827.2217  0.018270644  0.017323516           13 
 3774000   0.65662142   -7.4930558    827.38503   0.01826941  0.017318097           15 
 3775000   0.64557573   -7.4695399    826.82095  0.018252118  0.017312692            9 
 3776000   0.66745295   -7.4670833    826.95906  0.018250332  0.017307302            5 
 3777000   0.65180375    -7.467461    827.16994  0.018250153  0.017301915           11 
 3778000   0.62920567   -7.4687201    828.23088  0.018268724  0.017296517           11 
 3779000   0.63349767   -7.4870561    825.67191   0.01820746  0.017291121           21 
 3780000   0.65808699   -7.4851011    825.57181  0.018200437  0.017285721           18 
 3781000   0.65833103   -7.4773641    825.56866  0.018195554  0.017280327           26 
 3782000   0.64316339   -7.4745838    826.31506  0.018207189  0.017274924           21 
 3783000    0.6579735   -7.4775786    825.82599  0.018191603  0.017269531           11 
 3784000    0.6406097   -7.4766546    825.92547  0.018188986  0.017264129           21 
 3785000   0.65524499   -7.4780203    826.58539   0.01819871  0.017258725           15 
 3786000   0.64694444    -7.472761    826.38077  0.018189399   0.01725334           15 
 3787000   0.65521189   -7.4987302    827.67118  0.018212991  0.017247958            6 
 3788000   0.65034397   -7.4712332    825.79777   0.01816697  0.017242563           17 
 3789000   0.63769836   -7.4883438    827.42221  0.018197902  0.017237187            9 
 3790000   0.64791068   -7.4791134    826.59724  0.018174961  0.017231815            8 
 3791000   0.63567162   -7.4835835    827.53663  0.018190817  0.017226454           12 
 3792000   0.63627355   -7.4795183    827.06258  0.018175602  0.017221074            9 
 3793000   0.64782531   -7.4890734    826.56781   0.01815994  0.017215699           16 
 3794000   0.65269571   -7.4947964    827.89326  0.018184266  0.017210335           11 
 3795000    0.6484851   -7.4987787    827.04383  0.018160822  0.017204956            9 
 3796000   0.64621555   -7.5022121    826.54135  0.018145007  0.017199576            9 
 3797000    0.6612381   -7.4838683    826.51809  0.018139717  0.017194201           23 
 3798000    0.6406002   -7.4927077    826.51417  0.018134855  0.017188827           19 
 3799000   0.64730686   -7.5098869     826.1582  0.018122273  0.017183448           21 
 3800000   0.63752425   -7.5052779    825.61337  0.018105556  0.017178077           18 
 3801000   0.65421188    -7.511743    826.32012  0.018116288  0.017172708           18 
 3802000   0.64982549   -7.5048564    827.04235  0.018127353  0.017167335           12 
 3803000   0.64051152   -7.5050305    825.72078  0.018093627  0.017161954           15 
 3804000    0.6424583   -7.5052393    827.40365  0.018125737  0.017156582           19 
 3805000   0.63490328   -7.4970553    826.41278  0.018099273  0.017151221           16 
 3806000   0.64168897   -7.4835196     827.1103  0.018109789  0.017145862           10 
 3807000   0.65320989   -7.5008514    828.35663  0.018132314  0.017140513            7 
 3808000   0.64155437   -7.4948903     825.9084  0.018073976  0.017135157           13 
 3809000   0.65250646   -7.4952237    825.20545  0.018053852  0.017129807           11 
 3810000    0.6276067   -7.4976342    829.29581  0.018138578  0.017124477            7 
 3811000   0.65201125   -7.5021145    826.45545   0.01807171  0.017119138           10 
 3812000     0.652464   -7.5012634    827.65635  0.018093222  0.017113801            7 
 3813000   0.64729941   -7.4901783    828.35975   0.01810385  0.017108486            9 
 3814000   0.64950651   -7.4931619    827.13827  0.018072415  0.017103166            7 
 3815000   0.63922741   -7.5170449    826.82818  0.018060904  0.017097832           38 
 3816000   0.63820875   -7.5107753    828.27638  0.018087796  0.017092513           21 
 3817000   0.63209044   -7.5143761    827.73704  0.018071283  0.017087193            9 
 3818000   0.65624953   -7.4975958    827.09917  0.018052627  0.017081878           11 
 3819000   0.64086799   -7.5090103    826.12209   0.01802658  0.017076573           23 
 3820000   0.64195691   -7.4956124    829.18544  0.018088688  0.017071269           17 
 3821000   0.64102862   -7.4975718    826.99203  0.018036117  0.017065954           13 
 3822000   0.64139181   -7.5121353    827.54801   0.01804352  0.017060641           10 
 3823000   0.64935523   -7.4965674    825.73791  0.017999344   0.01705533           16 
 3824000   0.65193499   -7.5196213    827.37597  0.018030334  0.017050019           11 
 3825000   0.63524422   -7.5005324    826.04086  0.017996533  0.017044701           22 
 3826000   0.64819741   -7.5032365    826.73704  0.018006993  0.017039389            8 
 3827000   0.63206912   -7.4925786    826.89265  0.018005676  0.017034094            9 
 3828000   0.63551977   -7.5140198    828.67796  0.018039837  0.017028786            8 
 3829000   0.63021707   -7.4998932    826.75723  0.017993324  0.017023473           19 
 3830000   0.63765484   -7.4843947    826.59267  0.017985045  0.017018169           13 
 3831000   0.64546607   -7.4969674    827.36528  0.017997156   0.01701287           27 
 3832000   0.63563369   -7.5418589    825.16295  0.017944567   0.01700757            6 
 3833000   0.63585597   -7.4899228    827.75761  0.017996296  0.017002285           16 
 3834000   0.64343473   -7.5326568    827.75511  0.017991547  0.016996989           15 
 3835000   0.63960868   -7.5127293    828.95012  0.018012823  0.016991692           12 
 3836000    0.6300629   -7.5231792    828.45123  0.017997289  0.016986394           14 
 3837000   0.64388197   -7.5295158    827.14659  0.017964264  0.016981091           10 
 3838000   0.64095896   -7.5076214    825.15965  0.017916442   0.01697579           11 
 3839000   0.63990504   -7.4873096    828.82298  0.017991295  0.016970491            9 
 3840000   0.64124166   -7.5121503     826.1812  0.017929279  0.016965201           14 
 3841000   0.64084641   -7.5230207    825.97077  0.017920046  0.016959906           18 
 3842000   0.63571649    -7.517952    827.23808   0.01794287  0.016954601           35 
 3843000   0.63660959   -7.5110454    827.95935  0.017953841  0.016949313           12 
 3844000   0.62344702   -7.5300019    827.10273    0.0179306  0.016944022           14 
 3845000    0.6275281   -7.4915475    827.54422  0.017935505  0.016938721           21 
 3846000   0.62744237    -7.514212    826.64354  0.017911326  0.016933425           13 
 3847000   0.64031826   -7.5242628    828.91934  0.017955969  0.016928132           14 
 3848000   0.63552933   -7.5177149    826.84741  0.017906432  0.016922841           23 
 3849000   0.63489035    -7.522546    826.59321  0.017896276  0.016917555           33 
 3850000   0.64855985   -7.5290841    827.04997  0.017901515   0.01691227           14 
 3851000   0.64638832   -7.5340094    827.24976  0.017901189  0.016906987           32 
 3852000   0.63175244   -7.5321063    826.02431  0.017870031    0.0169017           36 
 3853000   0.63423839   -7.5182032    828.01787   0.01790851  0.016896422           22 
 3854000   0.63441841   -7.5458813    826.74625  0.017876368  0.016891134           28 
 3855000    0.6463608    -7.506543    827.45372  0.017887024  0.016885855           38 
 3856000   0.63258641   -7.5059097    827.07326  0.017874163  0.016880575           25 
 3857000   0.62643309    -7.511155     826.5903  0.017859094  0.016875298           49 
 3858000   0.64230262   -7.5116858    827.27806   0.01786932  0.016870032           33 
 3859000   0.62843648    -7.524392    827.07377  0.017860278  0.016864758           43 
 3860000   0.64417467   -7.5238505    826.95149  0.017853011  0.016859488           29 
 3861000   0.62796972   -7.5243712    827.21897  0.017854161  0.016854232           40 
 3862000   0.61385143    -7.525152    826.10308  0.017825459  0.016848974           30 
 3863000   0.64215682    -7.532238    825.76226  0.017813492  0.016843705           48 
 3864000   0.63568016   -7.5084767    826.55303  0.017825937  0.016838436           21 
 3865000   0.63162718   -7.5441899    827.72811   0.01784666  0.016833186           31 
 3866000   0.63942202    -7.516971    828.12027  0.017850497  0.016827928           46 
 3867000   0.62974427   -7.5320102    826.58013  0.017812691  0.016822671           30 
 3868000   0.63488104   -7.5116063    827.39526  0.017825648  0.016817418           37 
 3869000   0.64833761   -7.5138216     828.6692  0.017848479  0.016812172           28 
 3870000   0.63859664   -7.5454603    826.09272  0.017788388  0.016806923           33 
 3871000   0.63357427    -7.513966    827.04578  0.017804309  0.016801671           41 
 3872000   0.64126301   -7.5279938    830.06331  0.017864655  0.016796435           35 
 3873000   0.62348648   -7.5405862    827.60885  0.017807231  0.016791194           28 
 3874000   0.63272759   -7.5204498     827.8503  0.017807828  0.016785954           27 
 3875000   0.64131501   -7.5221663    827.97664  0.017805949  0.016780714           26 
 3876000   0.62752384   -7.5333985    828.64685  0.017815765  0.016775475           11 
 3877000   0.62626824   -7.5372357    825.90802    0.0177523  0.016770235           28 
 3878000   0.61566812   -7.5472273    828.01612  0.017793023  0.016765005           20 
 3879000   0.62755912   -7.5490653    827.13673  0.017769544  0.016759769           23 
 3880000   0.63476614   -7.5273607     827.6496  0.017775979  0.016754525           32 
 3881000   0.62598769    -7.537195    827.86899   0.01777611  0.016749284           25 
 3882000   0.63586367   -7.5317008    828.57589  0.017786705  0.016744068           20 
 3883000   0.61665344   -7.5194956    826.83144  0.017744687  0.016738847           34 
 3884000   0.63831976   -7.5307578    830.32984  0.017815178  0.016733627           23 
 3885000   0.62122999   -7.5352539    827.74904  0.017755235  0.016728404           32 
 3886000   0.64080391     -7.52675    827.64807    0.0177485  0.016723174           24 
 3887000   0.63764949   -7.5400985    827.92483  0.017749868  0.016717951           25 
 3888000   0.62874695   -7.5233492    826.96625  0.017724757  0.016712743           11 
 3889000   0.63920303   -7.5291626    828.46041  0.017752216  0.016707524           17 
 3890000   0.63250516   -7.5455658    828.63987  0.017751497  0.016702306           43 
 3891000   0.62715923   -7.5305057    827.40656  0.017720521  0.016697089           45 
 3892000   0.60469802   -7.5087853    826.30992  0.017692487  0.016691875           36 
 3893000    0.6251317   -7.5031009     827.1237  0.017705362  0.016686659           29 
 3894000   0.62676634   -7.5471742    826.44929  0.017686383  0.016681444           19 
 3895000   0.62359908   -7.5495917    828.62312  0.017728351  0.016676223           25 
 3896000   0.62469524    -7.522197    826.04779  0.017668716  0.016671005           24 
 3897000   0.61573039   -7.5543165    825.21362  0.017646344  0.016665783           25 
 3898000   0.63001786   -7.5417901    826.83706  0.017676523  0.016660572           21 
 3899000   0.62516882   -7.5309156    825.90611  0.017652093  0.016655354           24 
 3900000    0.6354099     -7.54053    826.52431  0.017660776  0.016650139           15 
 3901000   0.62922508    -7.533996    826.03137  0.017645718  0.016644927           19 
 3902000   0.62180655   -7.5605502    827.01811   0.01766227  0.016639712           20 
 3903000     0.623822   -7.5508917    827.59103  0.017669977  0.016634498           18 
 3904000   0.62412029   -7.5698472    827.27182  0.017658637  0.016629286           18 
 3905000   0.64879385    -7.546226    827.48301  0.017658622  0.016624089           27 
 3906000   0.63771981   -7.5324008    826.80724  0.017639683  0.016618896           17 
 3907000   0.63058877   -7.5516005    826.20411  0.017622304  0.016613686           24 
 3908000   0.62780174    -7.543575    827.84104    0.0176527  0.016608482           18 
 3909000   0.63281506    -7.543077    825.40468  0.017596246  0.016603272           17 
 3910000   0.62638018   -7.5336922     826.9855  0.017625437  0.016598062           15 
 3911000   0.64746388    -7.548749    826.40795  0.017608624  0.016592859           36 
 3912000   0.62350385   -7.5450911    827.79454   0.01763366  0.016587659           35 
 3913000   0.62707788   -7.5615809    826.50434  0.017601677  0.016582449           24 
 3914000   0.61061837   -7.5401803    825.19411  0.017569284  0.016577229           17 
 3915000   0.61920921   -7.5477423    826.45554  0.017591646  0.016572021           20 
 3916000   0.61871186   -7.5503463    825.59128  0.017568762  0.016566801           52 
 3917000   0.63315364   -7.5506738    824.48414  0.017540723  0.016561584           18 
 3918000   0.61822029   -7.5340577    825.46945  0.017557203  0.016556373           22 
 3919000   0.63160571   -7.5423045    823.66713  0.017514398  0.016551157           31 
 3920000   0.62779296   -7.5672933    826.57291  0.017571703   0.01654594           20 
 3921000   0.63432535   -7.5382179    826.60566  0.017567918  0.016540724           32 
 3922000   0.62663779   -7.5521823    827.48041  0.017582025  0.016535522           33 
 3923000   0.63421017   -7.5516635    826.71539  0.017561292  0.016530329           32 
 3924000   0.61894939   -7.5583894    826.38019  0.017549698  0.016525133           13 
 3925000   0.63546351   -7.5686185    825.93535  0.017535782  0.016519924           11 
 3926000    0.6234967   -7.5412343    827.79376  0.017570762   0.01651473           16 
 3927000   0.63314545   -7.5482244    825.12374  0.017509629  0.016509528           15 
 3928000   0.61691665     -7.55099    826.95877  0.017544102  0.016504319           22 
 3929000   0.62200729   -7.5674284    824.93859  0.017496789   0.01649911           20 
 3930000   0.61067958    -7.539112    826.47697  0.017524957  0.016493913           34 
 3931000   0.63060111    -7.555038    827.20463  0.017535924  0.016488722           38 
 3932000    0.6106145   -7.5245418    827.11505  0.017529566  0.016483532           29 
 3933000   0.62264246   -7.5522376    827.46939  0.017532617  0.016478345           43 
 3934000   0.62183449   -7.5157397    826.06955  0.017498508  0.016473149           30 
 3935000   0.62919251   -7.5550578      824.058  0.017451461  0.016467948           30 
 3936000   0.61811713   -7.5675697    826.67704  0.017502478  0.016462748           33 
 3937000   0.62252769   -7.5572292    826.55935  0.017495541  0.016457557           43 
 3938000   0.61696638   -7.5674864    825.57194  0.017470204  0.016452362           31 
 3939000   0.62073779   -7.5659116     826.3743  0.017482743  0.016447165           39 
 3940000   0.62039259   -7.5639186    825.99782  0.017470343  0.016441962           32 
 3941000   0.61826019   -7.5588567    823.75184  0.017418418  0.016436754           50 
 3942000   0.62236362   -7.5574626    825.56257  0.017452278  0.016431551           50 
 3943000   0.62409676    -7.585564     825.2578  0.017441411  0.016426351           40 
 3944000   0.61290195    -7.559637    826.19058  0.017456698  0.016421156           19 
 3945000   0.61776917   -7.5633784    825.99197  0.017448077   0.01641596           39 
 3946000   0.62031292   -7.5720844    825.29049  0.017428841  0.016410778           23 
 3947000   0.61485224   -7.5621528    825.88809  0.017437043   0.01640559           29 
 3948000   0.60668205   -7.5570641    826.73865  0.017450579  0.016400408           23 
 3949000   0.62074274   -7.5546874     827.1105  0.017454007  0.016395227           20 
 3950000    0.6081072   -7.5614586    826.49155  0.017436531  0.016390052           20 
 3951000   0.60981298   -7.5375009    826.65622  0.017435591  0.016384873           23 
 3952000   0.63246669   -7.5611825    824.95858  0.017395382  0.016379702           33 
 3953000   0.61944015   -7.5721324    824.71487  0.017385843  0.016374527           37 
 3954000   0.62602455   -7.5440336    826.70345  0.017423357  0.016369367           41 
 3955000   0.62754941   -7.5645843    827.40603  0.017433755  0.016364216           26 
 3956000   0.61917461   -7.5714968     824.2712  0.017363313   0.01635905           32 
 3957000   0.61537065   -7.5628204    824.99406  0.017374148  0.016353883           28 
 3958000   0.62427663    -7.567449    826.75089  0.017406748  0.016348722           26 
 3959000    0.6164485   -7.5845763    825.31302  0.017372085   0.01634357           61 
 3960000   0.61425666   -7.5506708    824.64604  0.017353663  0.016338415           51 
 3961000   0.61484941   -7.5360955    826.93083   0.01739735  0.016333268           16 
 3962000   0.62763504   -7.5659416    827.12886  0.017397124  0.016328119           38 
 3963000    0.6089973   -7.5478411    827.60953  0.017402841  0.016322967           32 
 3964000    0.6286819   -7.5642856    825.68021  0.017357892   0.01631781           28 
 3965000   0.62598571   -7.5405633    826.13657  0.017363106  0.016312664           14 
 3966000   0.61033336   -7.5578821    825.13257  0.017337632  0.016307518           17 
 3967000   0.61784313   -7.5682117    825.88187  0.017349002  0.016302378           58 
 3968000   0.60863056   -7.5602432    824.86995  0.017323378  0.016297235           40 
 3969000   0.61805846   -7.5580047    825.60498  0.017334446  0.016292084           23 
 3970000    0.6119304   -7.5403747     825.8552  0.017335332  0.016286932           30 
 3971000   0.62048243   -7.5687884    826.00194  0.017334046  0.016281787           85 
 3972000     0.603767   -7.5312606    827.27035  0.017356293  0.016276655           34 
 3973000   0.61615757   -7.5472705    827.12151  0.017348803  0.016271533           49 
 3974000   0.62452044   -7.5510361    825.40229  0.017308386  0.016266417           58 
 3975000   0.61808755   -7.5564797    824.38128  0.017282626  0.016261289           55 
 3976000   0.62533081   -7.5368618    825.74308  0.017306822  0.016256154           24 
 3977000   0.61477887   -7.5426564    825.36925  0.017294637  0.016251028           39 
 3978000   0.61041837   -7.5751285    825.57158  0.017294528    0.0162459           62 
 3979000   0.61578135   -7.5477117    825.48446  0.017288357  0.016240785           45 
 3980000   0.60475899   -7.5584351    826.67502  0.017308941  0.016235667           38 
 3981000   0.60804571   -7.5593395    827.05161  0.017312476  0.016230547           31 
 3982000   0.61779935   -7.5733687    825.94929   0.01728506  0.016225422           20 
 3983000    0.6228135   -7.5577692    825.49943  0.017271308  0.016220298           58 
 3984000    0.6163782   -7.5623126    826.97518  0.017297841  0.016215179           52 
 3985000   0.61571985   -7.5954263    826.84197  0.017290715  0.016210069           47 
 3986000   0.61746173   -7.5709084    824.77481   0.01724316  0.016204953           44 
 3987000   0.60529772   -7.5874987    825.17245  0.017247146  0.016199837           48 
 3988000     0.598961   -7.5607562    825.11194  0.017241557   0.01619471           37 
 3989000    0.6116978   -7.5875556    824.50901  0.017224639  0.016189578           45 
 3990000   0.60471058   -7.5581972      826.396  0.017259733  0.016184453           29 
 3991000   0.61375106    -7.573645    826.03085  0.017247784  0.016179333           29 
 3992000    0.6243272   -7.5716536    826.29409  0.017248958  0.016174209           39 
 3993000   0.62816751   -7.5925132    826.54866  0.017249951  0.016169089           36 
 3994000   0.60416459   -7.6004799    825.13124  0.017216058  0.016163963           48 
 3995000   0.60908877   -7.5745967    824.91145  0.017207164  0.016158832           68 
 3996000   0.60449346   -7.5573736    825.51358  0.017215415  0.016153716           44 
 3997000   0.60850164   -7.5672815    825.79544  0.017216984  0.016148596           67 
 3998000   0.61825255   -7.5646988    824.45541  0.017184747  0.016143485           44 
 3999000   0.62641489   -7.5779088    826.01808  0.017213013  0.016138372           49 
 4000000   0.61857359   -7.5761281    825.87539  0.017205737  0.016133254           64 
 4001000   0.61812856   -7.5783329    825.83489  0.017200593  0.016128139           43 
 4002000   0.61775086   -7.5817903    824.11952  0.017160576   0.01612302           52 
 4003000   0.60331482   -7.5648624    825.28792  0.017180613  0.016117904           52 
 4004000    0.6268923   -7.5848413    825.56191  0.017182024  0.016112787           59 
 4005000   0.61563325   -7.5809003    824.37157  0.017152967  0.016107681           66 
 4006000   0.61857254   -7.5805691    826.21975  0.017187131  0.016102574           46 
 4007000   0.61117492   -7.5819215    823.92424  0.017135102  0.016097468           46 
 4008000   0.60653876   -7.5980333    824.47627  0.017142304  0.016092351           53 
 4009000   0.61810042   -7.5747109     824.1429  0.017131099  0.016087227           51 
 4010000   0.61629946   -7.5989065    824.76352  0.017139724  0.016082109           29 
 4011000   0.61900106   -7.6023269    823.89227   0.01711735  0.016076978           39 
 4012000   0.61856139   -7.5879024    826.08667  0.017158663   0.01607186           19 
 4013000   0.61170134    -7.599299    825.52865  0.017142799  0.016066732           47 
 4014000   0.60960648   -7.5879078    825.70929  0.017142279   0.01606161           31 
 4015000   0.60611371   -7.6173542    824.15891   0.01710583  0.016056493           20 
 4016000   0.60572963   -7.5985179    824.56798  0.017110059  0.016051384           33 
 4017000   0.59795938   -7.5845481    823.66819  0.017087134  0.016046266           41 
 4018000   0.60631982   -7.6036391    825.38549  0.017118498  0.016041149           35 
 4019000    0.5981468   -7.6118835    823.39815  0.017073031  0.016036032           39 
 4020000   0.60451747   -7.6100884    824.46195  0.017090836  0.016030913           30 
 4021000   0.60889079   -7.6092849    822.71612  0.017050404  0.016025798           36 
 4022000   0.59812442   -7.5805073    824.45703  0.017082236  0.016020679           24 
 4023000   0.61884281   -7.6190209    824.13084  0.017071233  0.016015567           19 
 4024000   0.61062054   -7.6254376    825.92854  0.017104219  0.016010464           22 
 4025000    0.6089653   -7.6008992    824.24161  0.017065044  0.016005347           23 
 4026000   0.60350703    -7.590057     823.7507  0.017050644  0.016000235           26 
 4027000   0.59915324    -7.600836    824.84021  0.017068956  0.015995132           25 
 4028000   0.60793234   -7.5754235    825.38257  0.017075939  0.015990028           26 
 4029000   0.61114666   -7.5853095    824.33502  0.017050034  0.015984931           24 
 4030000   0.61047795   -7.5891698    823.97767  0.017038413  0.015979833           25 
 4031000   0.60591536   -7.6112788    824.69411  0.017048998  0.015974728           24 
 4032000   0.60826583   -7.5925228     824.6451  0.017043756  0.015969636           22 
 4033000   0.59588429   -7.5839805    824.83666  0.017043488  0.015964539           40 
 4034000   0.60535814   -7.5806604     824.7483  0.017037438  0.015959456           20 
 4035000   0.59932287   -7.5914506    823.75543   0.01701271  0.015954369           13 
 4036000   0.60316377   -7.5992586    823.06969  0.016994336   0.01594928           32 
 4037000   0.59779807   -7.5902159    823.56351   0.01700032    0.0159442           28 
 4038000   0.61006483   -7.6151402    825.16398   0.01702914  0.015939127           27 
 4039000   0.59158343   -7.5888311    825.46635  0.017031162  0.015934054           31 
 4040000   0.60318975   -7.5871852     825.9269  0.017036446  0.015928987           28 
 4041000   0.59864623   -7.5779618     826.2377  0.017038639  0.015923911           33 
 4042000   0.60976528   -7.5906648    825.08237  0.017010605  0.015918852           33 
 4043000   0.59131962   -7.5800907    824.86199  0.017001855  0.015913792           23 
 4044000   0.59906657   -7.5970055    825.24585  0.017005561  0.015908732           23 
 4045000   0.60903658    -7.577123    823.77327  0.016971019  0.015903678           36 
 4046000   0.61330109   -7.5993968    824.23249  0.016976283  0.015898616           37 
 4047000    0.6031684   -7.5705792    826.21405  0.017012891  0.015893565           30 
 4048000   0.59304232    -7.603793    824.80527  0.016979687  0.015888512           39 
 4049000   0.61717176   -7.5734393    823.97585  0.016958423  0.015883453           45 
 4050000   0.60843027   -7.5816547    825.10254  0.016977419  0.015878393           42 
 4051000   0.60119333    -7.564496    823.41098   0.01693843  0.015873333           42 
 4052000   0.62259021   -7.5891993    823.99109  0.016946181  0.015868274           35 
 4053000   0.59734355   -7.5934295    825.53104  0.016973662  0.015863219           43 
 4054000   0.60435151   -7.6095785    823.56813  0.016929126  0.015858166           34 
 4055000   0.59428899   -7.6027444    824.61532  0.016946472  0.015853121           26 
 4056000   0.60567426   -7.5820282    824.37446  0.016937345  0.015848074           36 
 4057000   0.60754954   -7.6221653    824.37836   0.01693325  0.015843022           36 
 4058000    0.6113745   -7.6086721    825.82698  0.016958826  0.015837978           31 
 4059000   0.60522306   -7.5846223    824.72346  0.016931992  0.015832929           32 
 4060000   0.61624862   -7.5924264    823.52662  0.016903256  0.015827881           56 
 4061000   0.59603388   -7.5944281    823.93405  0.016907454   0.01582284           35 
 4062000   0.59696452   -7.6012215    823.90709  0.016902738  0.015817799           26 
 4063000    0.5972645   -7.5954807     824.0628  0.016901772  0.015812762           25 
 4064000   0.60621519   -7.5703347    824.86586   0.01691408  0.015807732           32 
 4065000   0.60582703   -7.6037317    825.63574  0.016925702  0.015802701           29 
 4066000   0.59773537   -7.5960236    824.12851  0.016890648  0.015797668           26 
 4067000   0.61303412   -7.5944127    822.47037   0.01685252  0.015792638           35 
 4068000   0.59321239   -7.5995328    823.80568  0.016875731  0.015787601           31 
 4069000    0.5865104   -7.5817802    825.33848  0.016902975  0.015782566           23 
 4070000   0.60475293   -7.6186025    823.54735  0.016862149  0.015777532           26 
 4071000    0.5933951   -7.6077838    825.19337  0.016891701  0.015772504           25 
 4072000    0.5950222   -7.6047544    824.12994   0.01686579  0.015767476           31 
 4073000   0.59923516   -7.5971796    822.88341  0.016836145  0.015762446           21 
 4074000     0.592514    -7.591374    825.51771  0.016885897  0.015757425           32 
 4075000   0.61135755   -7.6097235    825.09514  0.016873111  0.015752409           32 
 4076000   0.60189589   -7.6145156    823.59094  0.016838218   0.01574739           35 
 4077000   0.58922627   -7.5986498    823.42992  0.016830797  0.015742375           24 
 4078000   0.61046964   -7.6145012    825.14745  0.016861767  0.015737352           38 
 4079000   0.61017197   -7.6067432    823.47304  0.016823426  0.015732333           22 
 4080000   0.60067325   -7.6163363    823.99778   0.01683002  0.015727309           36 
 4081000   0.58767219   -7.5957323    821.52213  0.016775344  0.015722288           38 
 4082000   0.60541276   -7.6180222    824.82928  0.016838749  0.015717266           24 
 4083000   0.60711238   -7.6068639    822.59294  0.016788981  0.015712243           25 
 4084000   0.60156412   -7.6192776    824.78548  0.016829609   0.01570723           30 
 4085000   0.59965408   -7.5868273    823.48282  0.016798915  0.015702225           43 
 4086000   0.59027776   -7.6055307    824.45935   0.01681472  0.015697217           55 
 4087000   0.60448243   -7.5933543    824.89745  0.016819539  0.015692216           21 
 4088000   0.60598333   -7.6092053    823.05922  0.016777952  0.015687208           36 
 4089000   0.59799434   -7.5992189    823.99234  0.016792866  0.015682207           24 
 4090000   0.60427859   -7.6209646    822.64384  0.016761284  0.015677215           33 
 4091000   0.59536825   -7.6188351    824.63916  0.016797832  0.015672209           28 
 4092000   0.59974814   -7.6054817    822.44745  0.016749093  0.015667207           21 
 4093000   0.60587593   -7.6133296     824.9111  0.016795161  0.015662213           45 
 4094000   0.58770653   -7.6053528    823.93633  0.016771217  0.015657216           36 
 4095000   0.58959726    -7.604302    824.84753  0.016785664   0.01565222           25 
 4096000   0.59256723   -7.5981872    824.44195  0.016773315  0.015647224           29 
 4097000   0.60202386   -7.6106902    822.76271  0.016735065  0.015642228           47 
 4098000   0.59101038   -7.6210131     823.3688  0.016743306  0.015637237           39 
 4099000   0.58594222    -7.615638    823.82109  0.016748416   0.01563224           50 
 4100000   0.59729365   -7.6032417     823.1617  0.016730929  0.015627241           79 
 4101000   0.60617734   -7.6093758    824.11691  0.016746259  0.015622255           54 
 4102000   0.59117943   -7.6066886    822.19778  0.016703189  0.015617269           52 
 4103000   0.58947301   -7.5973095    825.49404  0.016766066  0.015612293           34 
 4104000   0.59292844   -7.6190676    824.06104  0.016732883  0.015607311           45 
 4105000   0.59383039   -7.6364412    823.30499  0.016713459  0.015602329           53 
 4106000   0.59537324   -7.5986597    824.17986  0.016727145  0.015597361           50 
 4107000   0.60071206   -7.6181389    824.35397  0.016726604  0.015592389           35 
 4108000   0.59715109   -7.6240697    824.06302  0.016716631   0.01558742           34 
 4109000    0.5845279   -7.6225216    824.76563  0.016726812   0.01558246           38 
 4110000   0.59294278   -7.5988184    825.23849  0.016732329    0.0155775           35 
 4111000   0.58035975   -7.5984531    825.60062    0.0167356  0.015572536           76 
 4112000   0.59399053   -7.6181606     824.7871  0.016715043  0.015567578           59 
 4113000    0.6089413   -7.6166301    824.88404  0.016712943  0.015562614           40 
 4114000   0.59423329   -7.6311348    823.62673  0.016683413  0.015557649           52 
 4115000   0.60632256   -7.6065972    823.25683  0.016671868  0.015552679           63 
 4116000   0.58957764   -7.6083834    823.79474  0.016678708  0.015547721           51 
 4117000   0.59341593   -7.6038417    824.37777  0.016686458  0.015542766           45 
 4118000   0.59101786   -7.6342447    826.15746   0.01671842  0.015537801           48 
 4119000   0.59650024    -7.621758    824.28093  0.016676396  0.015532842           48 
 4120000   0.59040185   -7.6067973    826.01679  0.016707459  0.015527891           40 
 4121000   0.58139158   -7.6100966    824.66775  0.016676125  0.015522942           74 
 4122000   0.59651994   -7.6169244    823.76203  0.016653769  0.015518003           52 
 4123000   0.60452756   -7.5944747    823.66834  0.016647836  0.015513074           54 
 4124000   0.59295022   -7.6123448    824.18755  0.016654291  0.015508135           35 
 4125000   0.58868414   -7.6097788    825.34799  0.016673697  0.015503198           59 
 4126000   0.58674385   -7.6079143    824.55065  0.016653552  0.015498265           51 
 4127000   0.59578724   -7.6249977    822.92239  0.016616638  0.015493333           56 
 4128000   0.58388666   -7.6115314    823.56075    0.0166255  0.015488401           50 
 4129000   0.58118279   -7.6125824    824.75953  0.016645667  0.015483468           54 
 4130000   0.59155761   -7.6217522    824.05026  0.016627326  0.015478532           52 
 4131000   0.59432585   -7.6313198     823.3433  0.016609039  0.015473603           38 
 4132000   0.59340657   -7.6286722    824.76269  0.016633646  0.015468673           73 
 4133000   0.59844333    -7.620535     825.0918  0.016636257  0.015463748           57 
 4134000   0.58934344   -7.6143533    823.09287  0.016591938  0.015458825           50 
 4135000   0.59021563   -7.6139243     824.2172  0.016610584  0.015453899           43 
 4136000   0.59000024   -7.6101473    824.60604  0.016614403  0.015448975           41 
 4137000   0.58563343   -7.5999979    824.63249   0.01661092  0.015444058           66 
 4138000   0.60665678   -7.6327182    823.61314  0.016586377  0.015439144           42 
 4139000   0.57631662   -7.6169056    824.65926  0.016603432  0.015434231           33 
 4140000   0.59396854   -7.6208938    824.63111  0.016598855  0.015429319           52 
 4141000   0.60102093   -7.6160858    824.94658  0.016601195   0.01542441           61 
 4142000   0.59253482    -7.627692    824.30303  0.016584239  0.015419504           63 
 4143000   0.58460121   -7.6254483    824.08346   0.01657582  0.015414593           47 
 4144000   0.58951483   -7.6100845    823.41699  0.016558418  0.015409683           41 
 4145000   0.58964369   -7.6051925    823.39292  0.016553939  0.015404778           46 
 4146000   0.58677584   -7.6132921    824.55756  0.016573355   0.01539987           48 
 4147000   0.58706646   -7.6310439    823.80084  0.016554152  0.015394971           59 
 4148000   0.58477218    -7.624964      823.778  0.016549703  0.015390068           75 
 4149000   0.58367119   -7.6238232    822.59504  0.016521954  0.015385165           47 
 4150000   0.59065881    -7.609905    823.19734  0.016530067  0.015380264           62 
 4151000   0.58613051   -7.6248227    824.49005  0.016552037  0.015375378           64 
 4152000   0.58054452    -7.624982    826.58532  0.016590103  0.015370492           72 
 4153000   0.59256698    -7.629042    824.48217  0.016543907  0.015365604           65 
 4154000   0.58526785   -7.6220314     824.7848  0.016545996  0.015360717           38 
 4155000   0.57841255   -7.6267741    825.53378  0.016557035  0.015355841           55 
 4156000   0.59753871   -7.6249366    825.42881  0.016550947  0.015350968           38 
 4157000   0.58437361   -7.6331634    825.80213  0.016554449   0.01534609           62 
 4158000   0.60366454   -7.6243676    823.82433  0.016510829  0.015341213           66 
 4159000    0.5887544   -7.6053454    823.13531  0.016493053  0.015336332           40 
 4160000   0.58582357   -7.6189053    822.58608  0.016478087  0.015331466           39 
 4161000   0.58248094   -7.6165949    824.92648  0.016520998  0.015326601           51 
 4162000   0.58387712     -7.63163    824.27652  0.016504015  0.015321729           25 
 4163000   0.59003026   -7.6385293    824.47937  0.016504111  0.015316858           31 
 4164000   0.60364342    -7.638454    824.82953  0.016507155  0.015311984           10 
 4165000   0.59393893   -7.6161683    824.70502  0.016500701  0.015307117           29 
 4166000   0.57427639   -7.6245875    823.62306  0.016475097  0.015302245           21 
 4167000   0.59002722   -7.6413374    824.49976  0.016488676  0.015297373           26 
 4168000    0.5889925   -7.6121684    823.46399  0.016464011  0.015292507           19 
 4169000   0.58711674   -7.6338087    824.64961  0.016483761  0.015287646           44 
 4170000   0.58243563   -7.6374071    825.19404  0.016490688  0.015282788           27 
 4171000   0.58929619   -7.6230284    823.90339  0.016460948  0.015277923           22 
 4172000   0.59243872   -7.6226059    824.07703  0.016460471  0.015273065           25 
 4173000   0.58010903   -7.6098524     825.1517  0.016477987  0.015268215           38 
 4174000   0.57198559   -7.6277642    825.05255   0.01647206  0.015263371           29 
 4175000   0.57200974   -7.6042093    825.18334  0.016470725  0.015258533           25 
 4176000   0.58892103   -7.6341642    825.05385  0.016464197  0.015253693           42 
 4177000   0.58734893    -7.620323    824.64794  0.016452157  0.015248856           35 
 4178000   0.60453083   -7.6210101     825.1667  0.016458567  0.015244025           39 
 4179000   0.57921612   -7.6380308     825.2389  0.016456068  0.015239198           49 
 4180000   0.57919332   -7.6278228    826.15473  0.016470389  0.015234373           50 
 4181000   0.58812505   -7.6191979    824.25555  0.016428597  0.015229547           60 
 4182000   0.56431758   -7.6070729     825.7663  0.016454772  0.015224715           46 
 4183000   0.58060323   -7.6349763    825.24491  0.016440452  0.015219891           38 
 4184000   0.58152964   -7.6385366    824.91813  0.016430014  0.015215063           40 
 4185000   0.58782748   -7.6335916    824.84565  0.016424645  0.015210236           50 
 4186000   0.58765935   -7.6287094    823.93026  0.016402498  0.015205402           30 
 4187000   0.57852607   -7.6204424    824.44295  0.016408784  0.015200574           50 
 4188000   0.56707824     -7.61402    824.55287  0.016407053  0.015195744           42 
 4189000   0.58811887   -7.6071922    824.35284  0.016399157   0.01519092           66 
 4190000   0.59089257   -7.6210865    824.35676  0.016395321  0.015186099           45 
 4191000    0.5850619    -7.626102    824.64715  0.016397183  0.015181281           59 
 4192000   0.57701273   -7.6152556    824.09296  0.016382255  0.015176465           38 
 4193000   0.56998745   -7.6024251    824.03335  0.016377163  0.015171648           40 
 4194000   0.58097259   -7.6434506    823.96745  0.016371949  0.015166831           86 
 4195000   0.56687257   -7.6202189    824.34587  0.016375564  0.015162015           67 
 4196000    0.5799249   -7.6060269    825.03908  0.016385428  0.015157207           43 
 4197000   0.57199776   -7.6251786    824.11832  0.016363242  0.015152394           24 
 4198000   0.59467527   -7.6411813    824.80919  0.016373058  0.015147587           66 
 4199000   0.58049531   -7.6327927     824.7094  0.016367179   0.01514279           76 
 4200000   0.58833675   -7.6371034    824.01358  0.016349476  0.015137986           65 
 4201000   0.57187754   -7.6297301     823.8355  0.016342051  0.015133189           44 
 4202000   0.57737959   -7.6371439    823.24466  0.016326445  0.015128389           31 
 4203000   0.58760592   -7.6511334    825.12276  0.016359798  0.015123595           25 
 4204000   0.56832623   -7.6084676    824.41138  0.016341805  0.015118802           40 
 4205000   0.57005145   -7.6369458    825.43829   0.01635827  0.015114004           36 
 4206000   0.57445827   -7.6299451    825.38806  0.016353385   0.01510921           46 
 4207000   0.56840582   -7.6244792    825.42048   0.01635014  0.015104417           53 
 4208000   0.57511865   -7.6443526    824.43421  0.016326723  0.015099623           32 
 4209000   0.58588347   -7.6274181    823.57259  0.016305785   0.01509483           49 
 4210000   0.57807283   -7.6347756    823.67734  0.016303985  0.015090045           62 
 4211000   0.58019848   -7.6515883     824.4385  0.016315177   0.01508526           29 
 4212000   0.56958787   -7.6397629    824.98465  0.016322108  0.015080474           44 
 4213000    0.5848419   -7.6394216    823.96188  0.016298004  0.015075696           46 
 4214000   0.58248401    -7.646313    825.27226  0.016320049  0.015070921           38 
 4215000   0.58647426   -7.6449926    824.69284  0.016304722  0.015066149           38 
 4216000   0.57183596   -7.6343143    825.23566  0.016311584  0.015061376           54 
 4217000   0.57589743   -7.6463976     824.3302  0.016289823  0.015056606           34 
 4218000    0.5660694   -7.6299532    824.25603  0.016284496  0.015051825           15 
 4219000    0.5739113   -7.6777357    824.25199  0.016280556  0.015047052           49 
 4220000   0.58258145   -7.6308062     824.8389  0.016288288  0.015042283           27 
 4221000   0.57142468   -7.6364672    824.16607  0.016271146  0.015037517           41 
 4222000   0.57814423   -7.6232037    824.68553  0.016277545  0.015032752           32 
 4223000   0.59112669   -7.6432582    824.14362  0.016262997   0.01502799           50 
 4224000   0.57624764   -7.6305577    824.31792  0.016262585  0.015023231           35 
 4225000   0.57750133   -7.6582707    825.73517   0.01628669  0.015018463           30 
 4226000   0.57457173   -7.6541628    825.43121  0.016276842  0.015013702           35 
 4227000   0.57494755   -7.6293019    824.83981  0.016261332  0.015008948           31 
 4228000   0.57721372   -7.6443029    824.72864  0.016255295  0.015004189           40 
 4229000   0.59613308   -7.6306429    825.64132  0.016269436   0.01499943           35 
 4230000   0.57663367   -7.6506226    825.31914  0.016259242  0.014994682           41 
 4231000   0.57261659   -7.6296227     824.2118  0.016233589  0.014989936           28 
 4232000   0.57167464   -7.6521129    823.90641   0.01622374  0.014985193           34 
 4233000   0.57647964   -7.6301731    824.75719  0.016236656  0.014980438           68 
 4234000   0.56838044   -7.6605897    824.05538  0.016219008   0.01497569           35 
 4235000   0.57668784   -7.6607077    824.91736   0.01623214  0.014970944           27 
 4236000   0.57694114   -7.6601348    823.44997  0.016199441    0.0149662           37 
 4237000   0.57961928   -7.6652012      825.175  0.016229545  0.014961452           33 
 4238000   0.57365513   -7.6369722    824.95607  0.016221411  0.014956711           34 
 4239000   0.57360426   -7.6594955    824.50986  0.016208812  0.014951972           56 
 4240000   0.58170655   -7.6595732    822.78144  0.016171019  0.014947231           50 
 4241000   0.58043866   -7.6461707    825.99282  0.016230308  0.014942501           40 
 4242000   0.57597023   -7.6621922    823.20635  0.016171742  0.014937763           50 
 4243000   0.57365802    -7.633549    825.50446  0.016213066  0.014933027           49 
 4244000    0.5702754   -7.6520523    823.05569  0.016161163  0.014928296           53 
 4245000   0.58293341   -7.6463824     823.3263  0.016162668  0.014923562           24 
 4246000    0.5852198   -7.6722547    824.52678  0.016182422  0.014918831           47 
 4247000    0.5652985   -7.6842888    825.40962  0.016195935  0.014914102           78 
 4248000   0.56274508   -7.6659369    823.89275  0.016162366  0.014909373           45 
 4249000   0.56893649   -7.6611845    825.18193  0.016183846  0.014904646           48 
 4250000   0.56375127   -7.6733135    824.41082  0.016164918  0.014899924           50 
 4251000   0.58371513   -7.6463164    822.64157  0.016126432  0.014895201           58 
 4252000   0.57804057   -7.6715831    824.31439  0.016155425  0.014890482           72 
 4253000     0.571995   -7.6585248    823.75427  0.016140651  0.014885757           98 
 4254000   0.57630643   -7.6623274    824.32466  0.016148031  0.014881037           68 
 4255000   0.57901633   -7.6636091    824.67063  0.016151011  0.014876316           76 
 4256000   0.57744803   -7.6690554    822.97928  0.016114099  0.014871595           86 
 4257000   0.57665403   -7.6647661     822.7363  0.016105558  0.014866872           46 
 4258000   0.57389762   -7.6909303    822.64604  0.016100009  0.014862144           85 
 4259000   0.56908881    -7.656941    822.75078  0.016098278  0.014857415           43 
 4260000   0.56918789    -7.645869    824.63168  0.016131293  0.014852695           82 
 4261000   0.57048022   -7.6671408    823.75304  0.016110323  0.014847978           55 
 4262000   0.57132108   -7.6510219    823.93637  0.016110128  0.014843261           48 
 4263000   0.55262252   -7.6702633    825.24145   0.01613186  0.014838538           40 
 4264000    0.5755782   -7.6729126     824.4914  0.016113418  0.014833827           48 
 4265000     0.565719    -7.650735     824.4823  0.016109463  0.014829114           62 
 4266000   0.57436933   -7.6696641    823.47261  0.016085963  0.014824403           46 
 4267000   0.58616361   -7.6707401    824.27254  0.016097815    0.0148197           74 
 4268000   0.56638447   -7.6636094    825.21741  0.016112492  0.014814995           43 
 4269000    0.5730001   -7.6567503    823.86958  0.016082408  0.014810291           51 
 4270000   0.56174375   -7.6567671    824.46807  0.016090321  0.014805584           61 
 4271000     0.584735   -7.6665312    823.78007   0.01607313  0.014800877           58 
 4272000   0.56774639   -7.6484002     822.2743  0.016039995   0.01479617           60 
 4273000   0.57893133   -7.6797634    822.86781  0.016047816   0.01479147           78 
 4274000   0.55692968   -7.6583263     823.0069  0.016046773  0.014786767           75 
 4275000   0.56323352   -7.6698905    822.67051  0.016036462   0.01478206           64 
 4276000    0.5550565    -7.656237    821.70075  0.016013813  0.014777362           60 
 4277000   0.55256228    -7.688081     823.5796  0.016046676   0.01477266           56 
 4278000   0.56194127   -7.6613766    823.01312   0.01603189  0.014767962           69 
 4279000   0.56298739   -7.6622405    824.24911  0.016052215  0.014763265           48 
 4280000   0.55987678   -7.6565433    823.30732  0.016030127  0.014758568           43 
 4281000   0.57266061   -7.6848224    823.12328    0.0160228  0.014753873           80 
 4282000   0.57293987   -7.6760443    823.88698  0.016033921  0.014749182           89 
 4283000   0.57028262   -7.6933054    822.72238  0.016007518  0.014744489           91 
 4284000   0.57750178   -7.6669049    823.23206  0.016013696  0.014739797           76 
 4285000   0.57083935   -7.6764053    825.07975  0.016045892  0.014735105           80 
 4286000   0.56328248   -7.6733013    822.86796  0.015999144  0.014730421           85 
 4287000   0.56996158   -7.6780596    824.53108   0.01602774  0.014725739           56 
 4288000   0.54616336    -7.667237    823.29127  0.015999908  0.014721052           65 
 4289000   0.56890906   -7.6677338    822.48376  0.015980488   0.01471637           88 
 4290000   0.55991788   -7.6818104    822.12279  0.015969751  0.014711694           44 
 4291000   0.56432603   -7.6863823    822.69808  0.015977202  0.014707013           59 
 4292000   0.56584182   -7.6747754    823.96464  0.015998071  0.014702342           48 
 4293000   0.55562005    -7.662483    822.14634  0.015959048  0.014697673           90 
 4294000     0.564414   -7.6910589    823.74341  0.015986326  0.014692997           50 
 4295000   0.56047745   -7.6764835    823.72431  0.015982233  0.014688329           69 
 4296000   0.55960056   -7.6726305    823.62936  0.015976671  0.014683665           55 
 4297000   0.55582306   -7.6882817     823.6156  0.015972686  0.014678997           74 
 4298000   0.56101477   -7.6719238     823.5611  0.015967913  0.014674321           88 
 4299000   0.55988915   -7.6771514    823.12966  0.015955836  0.014669647           46 
 4300000   0.56741297   -7.6801877    823.44664  0.015958268  0.014664976          101 
 4301000   0.55725845   -7.6725987    823.75912  0.015960612  0.014660312           77 
 4302000   0.56946326   -7.6709433    824.71316  0.015975383  0.014655653           54 
 4303000   0.56168354   -7.6737512     824.7468  0.015972322     0.014651           37 
 4304000   0.56986761   -7.6686674    824.14805  0.015957018  0.014646342           48 
 4305000   0.55673238   -7.6840223    824.29915  0.015956236   0.01464169           57 
 4306000   0.56351175   -7.6717805    823.08653  0.015929063  0.014637036           66 
 4307000   0.56361282   -7.6599128    823.30067  0.015929508  0.014632386           49 
 4308000   0.56744907   -7.6671807    823.80335  0.015935534  0.014627744           45 
 4309000   0.55993058   -7.6672508    823.47705  0.015925525  0.014623097           49 
 4310000   0.56870208   -7.6647797    823.11019  0.015914737  0.014618457           59 
 4311000   0.55216212   -7.6941836    824.23981  0.015932881  0.014613824           47 
 4312000   0.56122492   -7.6643214    823.17599  0.015908627  0.014609188           90 
 4313000   0.57730046   -7.6672602    823.03049  0.015902127  0.014604545           50 
 4314000   0.56213135   -7.6782218     822.3699   0.01588568  0.014599908           63 
 4315000   0.56319978   -7.6787918     823.7233  0.015908136  0.014595272           64 
 4316000   0.56113263   -7.6545242    824.52146  0.015919861  0.014590636           51 
 4317000   0.55871212   -7.6790552    823.66025  0.015899549  0.014586004           56 
 4318000    0.5591081   -7.6727257    822.79482  0.015879165  0.014581373           36 
 4319000   0.56214018   -7.6857986    824.18686  0.015902347  0.014576743          119 
 4320000   0.55121996    -7.677502    823.96918  0.015894467  0.014572114           58 
 4321000   0.55721516   -7.6837331     822.7202  0.015866701  0.014567486           57 
 4322000    0.5593528   -7.6748336    823.88474  0.015885484   0.01456286           23 
 4323000   0.56260701   -7.6917133    824.76505  0.015898779  0.014558231           47 
 4324000   0.54524505   -7.6822496    823.43698  0.015869507  0.014553605           69 
 4325000   0.57777934   -7.6650705    822.76751  0.015852938  0.014548989           52 
 4326000   0.55767606   -7.6874459    823.70182  0.015867272  0.014544361           39 
 4327000   0.55538158   -7.6973406    821.44271  0.015820097  0.014539732           57 
 4328000   0.56181796   -7.6905816    822.74208   0.01584146  0.014535106           36 
 4329000   0.55604766   -7.6764825    822.71608    0.0158373  0.014530483           52 
 4330000   0.56848728    -7.676172    823.85509  0.015855564   0.01452586           55 
 4331000   0.56038743   -7.6827383    824.07996   0.01585623  0.014521241           30 
 4332000   0.55856718   -7.6819077    822.71077   0.01582623  0.014516628           51 
 4333000   0.55588313   -7.6916992    824.65572  0.015859984  0.014512011           63 
 4334000   0.56671399   -7.6974894    823.82022   0.01584026  0.014507394           69 
 4335000   0.56105428   -7.6838665    822.70928   0.01581525  0.014502778           64 
 4336000   0.56708807   -7.7026962      822.377  0.015805216  0.014498168           61 
 4337000    0.5680004   -7.6888696    822.38101  0.015801649  0.014493556           59 
 4338000   0.56077012    -7.700404    823.68126  0.015822984  0.014488947           69 
 4339000     0.550728   -7.6962969    822.41105  0.015794942  0.014484336           56 
 4340000   0.54628658   -7.6975159     821.0486  0.015765142  0.014479723          108 
 4341000     0.560686   -7.6960762    823.31046  0.015804931  0.014475114           50 
 4342000   0.56019849    -7.695658    823.74936  0.015809714  0.014470511           51 
 4343000   0.57034518   -7.6940316    822.38069  0.015779812  0.014465904           85 
 4344000   0.55287491   -7.6955571    823.00753  0.015788205  0.014461301           48 
 4345000   0.56472603   -7.6583379    823.27765  0.015789752  0.014456701           70 
 4346000   0.54750272   -7.6886703      824.293  0.015805588   0.01445211           64 
 4347000   0.56532607   -7.6836095    823.91992  0.015794799  0.014447512           94 
 4348000   0.55941908   -7.6793442    822.21477  0.015758486  0.014442915          156 
 4349000   0.55789352   -7.6925506    823.56899  0.015780812  0.014438328           69 
 4350000   0.53481014   -7.6842243    823.28749  0.015771791  0.014433732           79 
 4351000   0.56133034   -7.7033778    822.33279  0.015749881  0.014429143           70 
 4352000   0.56108898   -7.7151462    822.45512  0.015748605  0.014424552           77 
 4353000   0.56027702   -7.7016176    822.44363  0.015744767  0.014419963           81 
 4354000   0.54507792   -7.6868426    823.15099  0.015754689   0.01441538           71 
 4355000   0.55249177    -7.710277    822.13718  0.015731672  0.014410792           58 
 4356000   0.55991665   -7.7098829    822.41736   0.01573342  0.014406201           56 
 4357000   0.53776768   -7.7058693    822.98113  0.015740592  0.014401611           80 
 4358000   0.55030854   -7.6858816    824.38963  0.015763914  0.014397021           50 
 4359000    0.5623597   -7.6972373     822.9838  0.015733421  0.014392442           58 
 4360000   0.55643916   -7.6928983    822.00423   0.01571109  0.014387858           85 
 4361000   0.56819116   -7.7031654    824.55009  0.015756136  0.014383277           49 
 4362000   0.55422974   -7.7172987    823.15139  0.015725802  0.014378693           56 
 4363000   0.54149282   -7.6845981    823.23754  0.015723843  0.014374118           61 
 4364000   0.55252432   -7.6814407    821.68285  0.015690552  0.014369541           59 
 4365000    0.5483108   -7.6872125    823.89696  0.015729228  0.014364968           37 
 4366000   0.56316556   -7.7166743    823.56879  0.015719362  0.014360402           49 
 4367000   0.54827587    -7.706449    823.03266  0.015705531  0.014355833           54 
 4368000   0.56207228   -7.6927899    822.94209  0.015700208  0.014351267           98 
 4369000   0.55362411   -7.7135241    822.07536  0.015680082  0.014346705           81 
 4370000   0.55407166   -7.6999294    821.58502  0.015667144  0.014342138           61 
 4371000   0.55594124   -7.7097675    822.93646  0.015689325  0.014337577           86 
 4372000   0.56213819   -7.7171131    823.32939  0.015693226  0.014333016           50 
 4373000   0.54527878   -7.7090543    821.89441  0.015662292  0.014328452           75 
 4374000    0.5641998    -7.718236     821.8915  0.015658655  0.014323893           66 
 4375000   0.55291256   -7.6892373    822.63225  0.015669186  0.014319333           49 
 4376000   0.54977369   -7.6952043    821.23326  0.015638964  0.014314779           75 
 4377000   0.54460831   -7.6920914    822.78166   0.01566487  0.014310227           36 
 4378000   0.54452061   -7.6973909    823.39392  0.015672947  0.014305678           69 
 4379000   0.55235186   -7.7161533    822.62315  0.015654699  0.014301126           59 
 4380000   0.54604595   -7.6887527    821.44536  0.015628717  0.014296583           67 
 4381000   0.54809378    -7.702394    822.34584  0.015642278  0.014292035          124 
 4382000   0.54882902   -7.7077734    822.15818   0.01563514  0.014287493           69 
 4383000   0.56464583   -7.6829476    821.86047  0.015625912  0.014282951           61 
 4384000   0.56677093   -7.7264567    821.79069  0.015621021  0.014278408           76 
 4385000    0.5568465   -7.6807589    823.49194   0.01564979  0.014273869           48 
 4386000   0.55325893   -7.7036444    822.03098  0.015618464   0.01426933           56 
 4387000   0.56373351   -7.7063195    822.96949  0.015632731  0.014264796           57 
 4388000   0.55572161   -7.7227626    822.79352  0.015625827  0.014260257           83 
 4389000   0.55066358   -7.7099206    821.28144  0.015593557   0.01425572           79 
 4390000   0.54577861   -7.6907424    822.74375  0.015617763  0.014251181           38 
 4391000   0.55644187   -7.7178194    822.42248  0.015608109  0.014246647           57 
 4392000   0.54664322    -7.705409    822.88435  0.015613319  0.014242121           39 
 4393000   0.54450717   -7.7120716    822.82137   0.01560857  0.014237594           60 
 4394000   0.54835207   -7.6921453    821.46488  0.015579292  0.014233066           64 
 4395000     0.546439   -7.7128567    821.64374  0.015579138  0.014228532          104 
 4396000   0.54905697   -7.7144943    823.18608  0.015604832  0.014224007           51 
 4397000   0.55420698   -7.7073094    822.26951  0.015583912  0.014219482           52 
 4398000   0.55297487   -7.7350212    822.73255  0.015589142   0.01421496           55 
 4399000   0.55139542    -7.710004    822.07628  0.015573166  0.014210441          100 
 4400000   0.53792895   -7.7249964    822.21948  0.015572339  0.014205917          104 
 4401000   0.54805709   -7.7129913     822.4476   0.01557312  0.014201405           58 
 4402000   0.55947623   -7.7018478    822.93376  0.015578785  0.014196888           55 
 4403000   0.55462972   -7.7073071    821.94318  0.015556499  0.014192377           48 
 4404000   0.53900588    -7.707236    821.58356  0.015546162  0.014187874           36 
 4405000   0.54197492   -7.7101358      822.411  0.015558286  0.014183364           52 
 4406000   0.54957899   -7.7236147    821.59557  0.015539332   0.01417886           39 
 4407000   0.54223576   -7.7204347    822.17261  0.015546717  0.014174352           55 
 4408000   0.54504331     -7.73127    821.13383  0.015523552   0.01416984           51 
 4409000   0.53916734   -7.7262982    821.77422  0.015532135  0.014165333           51 
 4410000   0.53876999   -7.7364509    823.36244  0.015558625   0.01416083           46 
 4411000   0.54571582   -7.7253831    822.70874  0.015542748  0.014156331           69 
 4412000    0.5501521   -7.7243107     822.2593  0.015530736  0.014151827           67 
 4413000   0.55237847   -7.7308736    823.60324  0.015552595  0.014147331           59 
 4414000   0.55211874   -7.7147616     821.8662  0.015516278  0.014142838           51 
 4415000   0.54643303   -7.7087908    822.54722  0.015525618  0.014138349           71 
 4416000   0.55251462   -7.7215317    822.54467  0.015522054  0.014133857           53 
 4417000   0.54595221   -7.7158987    821.97698  0.015507829  0.014129366           53 
 4418000   0.54264434   -7.7110796    822.79534  0.015519755   0.01412488           76 
 4419000   0.54638419   -7.6980188    822.23937  0.015505759  0.014120397          155 
 4420000   0.53264759    -7.734052    821.53858  0.015489038   0.01411591           54 
 4421000   0.54272277   -7.7100727    822.83476  0.015509967  0.014111423           59 
 4422000   0.54987943   -7.7359493    822.16593  0.015493855  0.014106939           66 
 4423000   0.54519494   -7.7151376    821.70628  0.015481692  0.014102455           68 
 4424000   0.55439223   -7.7307492    822.13642  0.015486295  0.014097976           51 
 4425000   0.55460751   -7.7165538    820.90925  0.015459684  0.014093496           46 
 4426000   0.53730919   -7.7044022    821.27849  0.015463144  0.014089022           41 
 4427000   0.54955905   -7.6988857    821.21671  0.015458488  0.014084545           67 
 4428000   0.53870437   -7.7101898    824.02368  0.015507823  0.014080077           80 
 4429000   0.54569033   -7.7145624    821.90511   0.01546446   0.01407561           72 
 4430000   0.54204986   -7.7296585    822.35153  0.015469367  0.014071139           72 
 4431000   0.54341614   -7.7461075    822.47387  0.015468176  0.014066674           90 
 4432000   0.54701517   -7.7250914    822.58612  0.015466797  0.014062205           56 
 4433000   0.54318427   -7.7224083     821.0522  0.015434473  0.014057735           53 
 4434000   0.53402665   -7.7277804    822.90472  0.015465808  0.014053275           47 
 4435000   0.53392557   -7.7096915    820.98733  0.015426293  0.014048816           61 
 4436000   0.54430696   -7.7334192    821.23386  0.015427447  0.014044358           89 
 4437000   0.53826464   -7.7185513    822.12039   0.01544062  0.014039899           63 
 4438000   0.53050655   -7.7060482    822.07039  0.015436202  0.014035443           72 
 4439000    0.5457566   -7.7378853    822.31812  0.015437376  0.014030989           84 
 4440000   0.54354502   -7.7270709    823.08668  0.015448324  0.014026536           68 
 4441000   0.53509268    -7.717864     821.9637  0.015423773  0.014022084           37 
 4442000   0.55099362   -7.7400179    822.15508  0.015423891   0.01401764           70 
 4443000   0.53447809   -7.7136224    821.16307  0.015401813  0.014013187           65 
 4444000   0.54335199   -7.7350188     821.3802  0.015402419  0.014008737           50 
 4445000   0.53900911   -7.7218705    821.83231   0.01540743  0.014004292           40 
 4446000   0.53117127   -7.7101293    822.16982   0.01541029  0.013999842           62 
 4447000   0.53878059   -7.7308105    821.42063  0.015392786  0.013995395           54 
 4448000   0.54060802   -7.7198841     821.9896  0.015399985  0.013990952           46 
 4449000   0.53716938   -7.7213301    822.78899  0.015411497  0.013986508           44 
 4450000   0.53986233    -7.716647    820.82653  0.015371283  0.013982067           31 
 4451000   0.54850528   -7.7359787     822.9746  0.015408047  0.013977635           50 
 4452000   0.54398935   -7.7180294     822.1662  0.015389454  0.013973198          103 
 4453000   0.53858883   -7.7299162    821.73694  0.015377965  0.013968765           53 
 4454000   0.52607629   -7.7060327    822.07336  0.015380807  0.013964334           58 
 4455000   0.53959952    -7.715563      821.905  0.015374205  0.013959907           45 
 4456000   0.53308351   -7.7274029    823.12993  0.015393663  0.013955482           40 
 4457000   0.53831547   -7.7294349    821.74652  0.015364343  0.013951064           52 
 4458000   0.53942868   -7.7359377    821.43705  0.015355112  0.013946644           68 
 4459000   0.54193037   -7.7485147    822.07295  0.015363552  0.013942223           58 
 4460000   0.53075042   -7.7155098    821.34022  0.015346417  0.013937805           48 
 4461000   0.53574829   -7.7347966     822.2976  0.015360861  0.013933384           71 
 4462000   0.55065408   -7.7401679    821.37021  0.015340098  0.013928967           94 
 4463000   0.53853143   -7.7240754    823.39775  0.015374519  0.013924548           51 
 4464000   0.53852588   -7.7411328    821.47163  0.015335119   0.01392013           48 
 4465000   0.54257219   -7.7401825     821.2512   0.01532757  0.013915715           40 
 4466000      0.52338   -7.7249763    822.51215  0.015347667  0.013911304           60 
 4467000   0.53520454   -7.7153097    822.05271   0.01533566  0.013906892           54 
 4468000   0.54028222   -7.7292557    822.62635  0.015342926  0.013902479           47 
 4469000   0.52849781   -7.7652169    820.91886  0.015307654  0.013898068           55 
 4470000    0.5282227    -7.729568    820.61092  0.015298488  0.013893658           49 
 4471000   0.54102501   -7.7340019    821.28227   0.01530758  0.013889248           71 
 4472000   0.55056406   -7.7403614    821.74116  0.015312708  0.013884844           55 
 4473000   0.53001655   -7.7209297    822.19321  0.015317706  0.013880445           71 
 4474000   0.53061556   -7.7255008    821.53844  0.015302087  0.013876041           60 
 4475000   0.54706888   -7.7517272    821.07672  0.015290069   0.01387164           55 
 4476000   0.52779507   -7.7288616    821.32579   0.01529129  0.013867241          103 
 4477000   0.53641024   -7.7516485    822.82094  0.015315705  0.013862841           58 
 4478000   0.52684653   -7.7188746    822.74214  0.015310818  0.013858445           61 
 4479000   0.53555114   -7.7173508    822.18931  0.015297114  0.013854048           72 
 4480000   0.53638513   -7.7457106    821.56172  0.015282026  0.013849653           83 
 4481000   0.54407459   -7.7339664    820.79233  0.015264307  0.013845252           74 
 4482000   0.53941943   -7.7367386    820.95846   0.01526399  0.013840858           76 
 4483000   0.51793823   -7.7409542     823.9059  0.015315375  0.013836463           71 
 4484000    0.5264886   -7.7309404    822.13038  0.015278962  0.013832067           50 
 4485000   0.55359725   -7.7456794    821.11003  0.015256597  0.013827677           89 
 4486000   0.55165333   -7.7448889    821.55982  0.015261551  0.013823288           67 
 4487000   0.53053451   -7.7200712    820.75551  0.015243212  0.013818897           50 
 4488000    0.5357914   -7.7321123    821.49417  0.015253531  0.013814504           72 
 4489000   0.53240067    -7.747823    821.23647  0.015245349  0.013810112           71 
 4490000   0.53245259   -7.7244657    820.84027    0.0152346  0.013805723           57 
 4491000   0.53341993   -7.7585258     821.2539  0.015238883   0.01380134           59 
 4492000   0.53461484   -7.7264095    820.49554  0.015221422  0.013796953           81 
 4493000   0.53063352   -7.7398372    821.51205  0.015236888  0.013792569           64 
 4494000   0.53391553   -7.7564364    821.69498   0.01523689  0.013788189           84 
 4495000   0.53306939   -7.7513379    821.67189  0.015233072   0.01378381           67 
 4496000    0.5321704   -7.7256518    821.74595  0.015231056  0.013779431           60 
 4497000   0.54192249   -7.7295456    821.65121  0.015225914  0.013775056           76 
 4498000   0.54652313    -7.741604    821.35986  0.015217131  0.013770681           68 
 4499000   0.53791906   -7.7412122    819.43926  0.015178174  0.013766308           83 
 4500000   0.52920275   -7.7652407      821.568  0.015214222  0.013761934           87 
 4501000   0.53500006   -7.7410303    819.94946  0.015180876  0.013757558           73 
 4502000   0.53212894   -7.7401799    821.87193  0.015213089  0.013753194           88 
 4503000   0.52688348   -7.7503928    822.69098  0.015224868  0.013748829           72 
 4504000   0.52976993   -7.7465733    820.37472  0.015178632  0.013744465           78 
 4505000   0.53700568    -7.743078    822.11893  0.015207527  0.013740101           88 
 4506000   0.52926683    -7.728046    822.37497  0.015208888  0.013735745           66 
 4507000   0.52893406   -7.7177452    822.48483  0.015207544   0.01373139           68 
 4508000   0.54446929    -7.742499    823.37562  0.015220638  0.013727032           73 
 4509000   0.54000961   -7.7562779    820.70239  0.015167857  0.013722681           68 
 4510000   0.52002652   -7.7349593    821.36836  0.015176799   0.01371833           59 
 4511000   0.53372162   -7.7445189    820.52912  0.015157931  0.013713978           63 
 4512000   0.53336819   -7.7520543    821.69499  0.015176104  0.013709626           89 
 4513000    0.5236811   -7.7477779    820.99415    0.0151598  0.013705277           53 
 4514000    0.5369694   -7.7306575    820.46763  0.015146722  0.013700928           74 
 4515000   0.53548677   -7.7548137    821.20308  0.015156941  0.013696578           47 
 4516000   0.53149562   -7.7459242     821.4919  0.015158915  0.013692239           63 
 4517000   0.53929517   -7.7410574    820.40628   0.01513553  0.013687901           89 
 4518000   0.53683695   -7.7526053    820.97888  0.015142742  0.013683557           69 
 4519000    0.5176209   -7.7522644    821.49915  0.015148985  0.013679219           56 
 4520000   0.52498992   -7.7412142    821.31543  0.015142246  0.013674883           64 
 4521000   0.53110211    -7.729893    821.83764  0.015148523  0.013670546           65 
 4522000   0.53222635   -7.7488579    821.01098  0.015129938  0.013666214           55 
 4523000   0.52912436   -7.7462789    821.45132  0.015134706  0.013661881           70 
 4524000   0.53491974   -7.7358248    819.93751  0.015103476  0.013657547           51 
 4525000   0.53069094   -7.7468852    820.27571  0.015106367  0.013653214           72 
 4526000   0.52637698   -7.7459654     820.2446  0.015102456  0.013648886           47 
 4527000   0.51851615   -7.7401279    820.68354    0.0151072  0.013644557           69 
 4528000   0.52599955   -7.7328658    820.59285  0.015102195  0.013640225           73 
 4529000   0.52276054   -7.7544567    821.96303  0.015124071  0.013635901           70 
 4530000   0.52753513   -7.7474054    820.54651  0.015094674  0.013631578           55 
 4531000   0.53090305   -7.7652943    821.54766  0.015109756  0.013627257           64 
 4532000   0.52654516   -7.7688535     822.2924  0.015120116  0.013622935           49 
 4533000   0.52799311   -7.7568026    819.55658  0.015066486  0.013618613           64 
 4534000   0.52524404   -7.7434456    821.18071  0.015093014  0.013614294           59 
 4535000    0.5270915   -7.7321851    821.36446  0.015093062  0.013609973           56 
 4536000   0.51720608   -7.7429243    820.16327  0.015067667  0.013605654           63 
 4537000   0.53335371    -7.747354    819.43163  0.015050908  0.013601341           59 
 4538000   0.52711788   -7.7453189    820.25735  0.015062754  0.013597031           86 
 4539000   0.53025686   -7.7438489    820.12741   0.01505705  0.013592722           51 
 4540000    0.5240732   -7.7451372    820.07972  0.015052858  0.013588415           58 
 4541000   0.53584887   -7.7321811    819.99761  0.015048037  0.013584109           42 
 4542000   0.53701875   -7.7355641    821.46357   0.01507162  0.013579809           46 
 4543000   0.52475571   -7.7570899    820.25293  0.015046095  0.013575512           56 
 4544000   0.52334036   -7.7311731    821.31195  0.015062206  0.013571212           49 
 4545000   0.51455686     -7.74618    821.96132  0.015070798  0.013566918           42 
 4546000   0.52405743   -7.7456691    821.44971  0.015058104  0.013562621           67 
 4547000    0.5204531   -7.7446506    821.90935  0.015063217  0.013558328           62 
 4548000    0.5162246   -7.7692979    823.27277  0.015084887  0.013554032           29 
 4549000   0.51847292   -7.7433854    820.99319  0.015039811  0.013549738           71 
 4550000   0.52209964   -7.7574796    820.60448  0.015029386  0.013545447           40 
 4551000   0.52554244   -7.7702284    821.38881  0.015040445  0.013541159           48 
 4552000   0.52759747   -7.7579616     821.1563  0.015032885  0.013536862           49 
 4553000   0.52624255   -7.7478719    820.84092  0.015023811   0.01353257           52 
 4554000   0.51604975   -7.7444909    822.09606  0.015043479  0.013528279           25 
 4555000   0.53552885    -7.740936    820.65499  0.015013812  0.013523989           53 
 4556000   0.51838738   -7.7540343    820.77871   0.01501278  0.013519699           63 
 4557000    0.5294228   -7.7403883    820.45815  0.015003624   0.01351541           54 
 4558000   0.51598425   -7.7536147    820.86702  0.015007807  0.013511124           34 
 4559000   0.52620828   -7.7553101    819.69049   0.01498301   0.01350684           44 
 4560000    0.5251866   -7.7572273    820.42322  0.014993114  0.013502559           68 
 4561000   0.51317898   -7.7545208    821.37926  0.015007295  0.013498276           60 
 4562000   0.52728843   -7.7470072    820.35639  0.014985321     0.013494           50 
 4563000   0.52333569   -7.7428086    819.56605  0.014967603  0.013489723           34 
 4564000   0.51413134   -7.7645323    820.80519  0.014986948  0.013485452           77 
 4565000   0.51758572   -7.7569587    820.43371  0.014976884  0.013481177           45 
 4566000   0.51440802   -7.7414268    820.13443  0.014968142  0.013476903           52 
 4567000   0.52223935   -7.7464315    820.85531  0.014978018  0.013472633           49 
 4568000   0.52672854   -7.7536455    821.13081  0.014979765  0.013468363           39 
 4569000   0.51325997   -7.7461038    819.80774  0.014952355  0.013464091           51 
 4570000    0.5130094   -7.7560377    820.81137  0.014967385  0.013459827           40 
 4571000   0.51903061   -7.7713079    819.73761  0.014944535  0.013455558           70 
 4572000   0.52599522   -7.7445545    819.44276  0.014935892  0.013451291           68 
 4573000   0.52909965   -7.7556964    820.29256  0.014948111  0.013447027           54 
 4574000   0.51279254   -7.7641528    819.48164  0.014930069  0.013442764           45 
 4575000   0.51775361   -7.7677348    820.31703  0.014942022  0.013438504           56 
 4576000   0.52512402   -7.7545188     820.2122  0.014936848  0.013434246           30 
 4577000   0.52508682   -7.7544731    820.73999  0.014943194  0.013429992           53 
 4578000   0.53148853   -7.7552574    820.51867  0.014935901  0.013425739           42 
 4579000   0.52397281   -7.7417431    819.86517  0.014920746  0.013421487           52 
 4580000   0.51467059   -7.7571359    821.44746  0.014946278   0.01341723           42 
 4581000    0.5203702   -7.7581572    819.68671  0.014910986  0.013412973           45 
 4582000   0.51356861   -7.7716194    820.77309   0.01492749  0.013408722           34 
 4583000   0.50437286   -7.7622016    820.42498  0.014917903  0.013404473           27 
 4584000    0.5176211   -7.7509312    821.36345  0.014931709  0.013400227           38 
 4585000   0.51685427   -7.7559593    819.22622  0.014889608  0.013395983           42 
 4586000   0.52460231   -7.7436166    820.63786  0.014912012  0.013391738           32 
 4587000   0.52333994   -7.7581534     819.5391    0.0148888  0.013387494           44 
 4588000   0.52319461   -7.7556304    818.91789  0.014874271  0.013383251           66 
 4589000   0.51013449   -7.7505045    819.48407  0.014881312  0.013379012           50 
 4590000   0.52040979   -7.7644726    820.14055  0.014889988  0.013374779           83 
 4591000   0.52016369   -7.7527442    820.41932  0.014891805   0.01337054           60 
 4592000   0.51852985   -7.7542037    820.20455  0.014884665  0.013366308           81 
 4593000   0.51742682   -7.7730997    820.25986  0.014882427  0.013362073           46 
 4594000    0.5126477   -7.7559333    821.03038  0.014893165  0.013357838           68 
 4595000   0.50565129   -7.7620131    818.86197  0.014850598  0.013353607           49 
 4596000   0.51465588   -7.7615577    819.64112  0.014861494  0.013349375           41 
 4597000   0.51502175   -7.7664349    820.64218  0.014876408  0.013345147           64 
 4598000   0.51274183   -7.7638165    819.62514   0.01485474  0.013340916           57 
 4599000   0.52525681   -7.7711786    819.41582  0.014847717  0.013336688           35 
 4600000   0.51524656   -7.7575853    820.30532  0.014860604  0.013332463           29 
 4601000   0.52620718   -7.7635553    819.98577  0.014851586  0.013328236           53 
 4602000   0.51706021   -7.7827937    819.78101  0.014844651  0.013324012           60 
 4603000   0.50884966    -7.757136    821.58244  0.014874039  0.013319789           28 
 4604000   0.50966968   -7.7592885    819.63731  0.014835602  0.013315573           78 
 4605000   0.51576774    -7.763742    819.32548  0.014826737  0.013311359           72 
 4606000   0.51207186   -7.7636588    820.23593   0.01483999   0.01330714           42 
 4607000   0.51912468    -7.767401    820.16329  0.014835455  0.013302922           72 
 4608000   0.51971592   -7.7718711    820.94857  0.014846437  0.013298705           47 
 4609000   0.52376683   -7.7714756      819.587  0.014818598  0.013294493           75 
 4610000   0.50077789   -7.7562427    819.59792  0.014815581  0.013290282           47 
 4611000    0.5153786   -7.7801331    819.83234  0.014816604  0.013286071           59 
 4612000   0.51361412   -7.7647582    820.26692  0.014821244  0.013281864           68 
 4613000   0.51851892   -7.7693208    819.50661  0.014804296  0.013277655           55 
 4614000   0.52327747   -7.7708008     820.3032  0.014815475  0.013273443           68 
 4615000   0.51219726   -7.7486877    819.42743  0.014796451  0.013269238           82 
 4616000   0.51720713   -7.7546334    819.61092  0.014796558  0.013265034           68 
 4617000   0.51520812    -7.773461    819.30303  0.014787796  0.013260833           59 
 4618000   0.51714889   -7.7661315    820.14329  0.014799756  0.013256631           55 
 4619000   0.51192509   -7.7822151    819.01035  0.014776112  0.013252431          100 
 4620000   0.49904628   -7.7738215    819.90309  0.014789017  0.013248235           73 
 4621000   0.50772497   -7.7776321    820.16565  0.014790551  0.013244037           50 
 4622000   0.51188929   -7.7698777    820.45709  0.014792606  0.013239842           61 
 4623000   0.52198424   -7.7708063    821.02326  0.014799612  0.013235648           63 
 4624000   0.51387694   -7.7757084    820.00342  0.014778032  0.013231453           55 
 4625000   0.52779685   -7.7764424    820.32254  0.014780586  0.013227262           50 
 4626000   0.51972988    -7.734157    819.83322  0.014768576  0.013223074           39 
 4627000   0.51182855   -7.7641633    817.97772  0.014731967  0.013218891           70 
 4628000   0.52364258   -7.7838723    820.45049  0.014773309  0.013214703           70 
 4629000   0.51319736   -7.7737047    819.12667  0.014746286   0.01321052           79 
 4630000   0.52357475   -7.7533895    819.24547  0.014745239  0.013206331           34 
 4631000   0.51702706   -7.7641197    819.73551  0.014750873  0.013202152           74 
 4632000    0.5057261   -7.7764485    820.32211  0.014758242  0.013197967           49 
 4633000   0.50562145   -7.7789812    819.08872  0.014732871  0.013193788           53 
 4634000   0.49879281   -7.7623716     818.9106  0.014726489   0.01318961           76 
 4635000   0.51731838   -7.7790415    819.21918   0.01472886  0.013185432           38 
 4636000   0.50423858    -7.789978    819.39661  0.014728872  0.013181257           90 
 4637000   0.51503069    -7.777745    819.22331  0.014722581   0.01317708           56 
 4638000   0.51240025   -7.7670768    819.02541  0.014715851  0.013172908           74 
 4639000   0.51128272    -7.786709    819.96174  0.014729499  0.013168735           53 
 4640000   0.50578117   -7.7974798    819.52977  0.014718566  0.013164562           60 
 4641000   0.51551222    -7.781442    819.39317  0.014712942  0.013160389           79 
 4642000   0.51364535   -7.7698417    819.58817  0.014713273  0.013156227           40 
 4643000   0.50360485   -7.7667954    818.47957  0.014690207  0.013152061           53 
 4644000   0.51341347   -7.7635705    819.93478  0.014713156  0.013147898           59 
 4645000    0.4950281   -7.7662075    818.79792  0.014689593  0.013143732           57 
 4646000   0.51087931   -7.7635731    819.28711  0.014695206  0.013139568           57 
 4647000   0.51234768   -7.7731609    820.08873  0.014706419  0.013135407           37 
 4648000   0.51260706   -7.7779792     820.1757  0.014704814  0.013131248           42 
 4649000   0.50933503   -7.7652028    819.26198  0.014685272  0.013127092           46 
 4650000   0.51659998   -7.7791862     818.9399  0.014676342  0.013122933           50 
 4651000   0.50413398   -7.7702784    818.88778  0.014672253  0.013118781           51 
 4652000   0.52085325   -7.7753624    819.38953  0.014678087  0.013114629           51 
 4653000   0.50432753   -7.7847575     821.4179   0.01471126  0.013110473           61 
 4654000   0.49447775   -7.7602005     819.2426  0.014669148  0.013106328           58 
 4655000   0.49521061   -7.7638355    817.97627  0.014643327  0.013102181           51 
 4656000   0.51082945   -7.7834872     819.9279  0.014675113  0.013098036           96 
 4657000    0.5161438   -7.7710714    818.88304  0.014653265  0.013093895           60 
 4658000   0.51130062   -7.7833435    818.58574    0.0146448  0.013089755           40 
 4659000   0.51882952   -7.7917736    819.47056  0.014657483  0.013085616           81 
 4660000   0.50494474   -7.7701293    819.83793  0.014660907  0.013081476           53 
 4661000   0.51010615   -7.7721715    819.63091   0.01465406  0.013077334           42 
 4662000   0.50084354   -7.7854279    817.65232   0.01461555    0.0130732           37 
 4663000   0.50923629   -7.7777762    818.52743  0.014628055  0.013069069           67 
 4664000   0.50764772   -7.7837364    819.37925  0.014640138  0.013064934           38 
 4665000   0.49982772   -7.7809714    818.92039  0.014628803  0.013060801           55 
 4666000   0.50395487    -7.777521    819.71013  0.014639772  0.013056666           60 
 4667000   0.50492904   -7.7791651    818.25757  0.014610699  0.013052534           55 
 4668000   0.51712369   -7.7681021    818.20383  0.014606609  0.013048405           66 
 4669000   0.51090074   -7.7839384    819.28744  0.014622821  0.013044277           51 
 4670000   0.50180702   -7.7733827    818.47205   0.01460514  0.013040147           78 
 4671000   0.50595174   -7.7733513    818.26268  0.014598278  0.013036021           57 
 4672000   0.50197059   -7.7817493    818.18663  0.014593797  0.013031892           58 
 4673000   0.50941102   -7.7599718    818.86268   0.01460273  0.013027771           61 
 4674000   0.50601564   -7.7878753    819.71247  0.014614757  0.013023648           44 
 4675000   0.50352724   -7.7950534    819.04943  0.014599812  0.013019526           60 
 4676000   0.49805768   -7.7715679    818.35596  0.014584331  0.013015405           65 
 4677000   0.51716601   -7.7901045    819.36389  0.014599171  0.013011286           66 
 4678000   0.50393048   -7.7956716    818.33063  0.014577644  0.013007168           68 
 4679000   0.50835069   -7.7744074    819.02042  0.014586814   0.01300305           47 
 4680000    0.4980493   -7.7746972    818.64905  0.014577084  0.012998936           45 
 4681000   0.50032325   -7.7801264    817.45321  0.014552681  0.012994822           35 
 4682000   0.50600347   -7.7815159    818.78568  0.014573289  0.012990709           58 
 4683000   0.50607862   -7.7798322    818.72281  0.014569058    0.0129866           58 
 4684000    0.4976495   -7.7684302    818.55502  0.014562963  0.012982495           56 
 4685000   0.49931557   -7.7863247     819.1716  0.014570822  0.012978393           63 
 4686000   0.50877221   -7.7941377    820.20826  0.014586148  0.012974291           62 
 4687000   0.50177067   -7.7812585    819.13038  0.014563871  0.012970187           68 
 4688000    0.5059089   -7.7818121    819.43917  0.014566254  0.012966085           57 
 4689000   0.50179354   -7.7789687    817.07603  0.014521149  0.012961983           44 
 4690000    0.5032593   -7.7843834    819.63302  0.014563486  0.012957883           43 
 4691000   0.50431879   -7.7915191     818.2069  0.014535048  0.012953786           44 
 4692000   0.50126166   -7.7860995     819.0433  0.014546805  0.012949686           52 
 4693000   0.49589031    -7.780624     817.6259  0.014518537  0.012945588           50 
 4694000   0.49012399   -7.7918125    818.04664  0.014522913   0.01294149           43 
 4695000   0.50888813   -7.7924688    818.63778  0.014530312  0.012937397           67 
 4696000   0.50110521    -7.780957    818.01115  0.014516098  0.012933306           44 
 4697000    0.5008739   -7.8041232    819.97406  0.014547833  0.012929213           68 
 4698000   0.49795675   -7.7883737    819.00928  0.014527623  0.012925125           67 
 4699000   0.49970465   -7.7949852    819.91716  0.014540632  0.012921037           59 
 4700000   0.50492554   -7.7940607    818.38782  0.014510422  0.012916952           35 
 4701000   0.48752207   -7.7872981    818.00208  0.014500498  0.012912871           42 
 4702000   0.50105613   -7.7779388    820.04894   0.01453369   0.01290879           43 
 4703000   0.51231394   -7.7748398    819.16974  0.014515021  0.012904712           54 
 4704000   0.48786891   -7.7888225      819.877  0.014524465  0.012900634           38 
 4705000   0.49111741   -7.8068901    818.13563  0.014490535  0.012896555           55 
 4706000   0.50285636   -7.8041709    818.68576  0.014497198  0.012892482           89 
 4707000   0.49555253    -7.802484    817.92644  0.014480675  0.012888409           48 
 4708000   0.50011086   -7.7663517     818.9283  0.014495332  0.012884336           50 
 4709000   0.50751744   -7.8049505    819.34667  0.014499658  0.012880268           46 
 4710000   0.49647931   -7.7828836    818.83621  0.014487548  0.012876199           48 
 4711000     0.497754   -7.7944136    818.44252  0.014477509   0.01287213           46 
 4712000    0.5002902   -7.7843868    818.64093  0.014477945  0.012868063           27 
 4713000   0.49439759   -7.7731551     817.9876  0.014463321  0.012863996           55 
 4714000   0.50636772   -7.7874025     819.1823  0.014481373  0.012859929           36 
 4715000   0.49840026   -7.7947423     819.3457  0.014481189  0.012855868           37 
 4716000   0.50851678   -7.7850752    818.58926  0.014464752  0.012851805           44 
 4717000   0.50108744    -7.798072    818.86772  0.014466605  0.012847744           42 
 4718000   0.50400309   -7.7827233    818.11363   0.01445022  0.012843688           55 
 4719000   0.48734503   -7.7808863    819.00832  0.014462957  0.012839635           45 
 4720000   0.49582461   -7.7929746    818.44203  0.014449895  0.012835577           54 
 4721000   0.49830482   -7.7976261     818.4304  0.014446629  0.012831524           38 
 4722000   0.50736277    -7.800546    818.43716  0.014443688  0.012827471           72 
 4723000   0.48549628   -7.7885959    819.16607  0.014453491  0.012823416           59 
 4724000   0.48752917   -7.8013464     820.0603  0.014466206  0.012819363           88 
 4725000   0.50459097    -7.811697    819.58017  0.014454677  0.012815318           46 
 4726000   0.50349901   -7.8002808    817.68355  0.014418175  0.012811267           57 
 4727000    0.4965907   -7.8062946    819.92292  0.014454603  0.012807219           48 
 4728000    0.4987688   -7.7996878    819.31555  0.014440841  0.012803176           49 
 4729000   0.49792346   -7.7987669    818.67944  0.014426578  0.012799133           33 
 4730000   0.48731123   -7.8071342     817.6254  0.014404958  0.012795091           51 
 4731000   0.50088491   -7.8060508    818.78346  0.014422311  0.012791052           56 
 4732000   0.49869103   -7.7885462    817.80845  0.014402093  0.012787014           66 
 4733000   0.49067816   -7.8002684    819.62904  0.014431105  0.012782975           67 
 4734000   0.50980801   -7.7998359      819.032  0.014417547   0.01277894           54 
 4735000   0.50353995    -7.784983    818.55403   0.01440609  0.012774913           40 
 4736000   0.51018706   -7.7964229    819.93485  0.014427345  0.012770883           48 
 4737000   0.49429477   -7.8047234      819.867  0.014423105  0.012766852           43 
 4738000   0.49197252   -7.7996132    817.90234  0.014385506  0.012762821           38 
 4739000   0.49248138   -7.7983761    817.73792  0.014379579  0.012758797           60 
 4740000   0.48804023   -7.7874005     817.7832  0.014377342  0.012754773           50 
 4741000   0.48577098   -7.7984936    817.31883  0.014366147  0.012750753           72 
 4742000   0.48880842   -7.8097435    818.62106  0.014386002  0.012746737           61 
 4743000   0.49981582   -7.7838442    818.23419  0.014376172   0.01274272           65 
 4744000   0.48892769   -7.8034542    817.78962  0.014365332  0.012738699           75 
 4745000   0.49774733   -7.8213838    818.35187  0.014372179  0.012734678           63 
 4746000   0.48536587   -7.7849763    818.65768   0.01437452  0.012730655           47 
 4747000   0.49533107   -7.8008521    818.29987  0.014365211  0.012726639           79 
 4748000   0.49808367   -7.7817109    818.84704  0.014371789  0.012722628           53 
 4749000   0.49943618   -7.8074895    819.39996  0.014378465  0.012718614           43 
 4750000   0.49748081   -7.8058056    820.76782  0.014399435  0.012714604           87 
 4751000   0.48576072   -7.7906657    818.25849  0.014352391  0.012710593           50 
 4752000   0.49250144    -7.795064    819.35563   0.01436861  0.012706583           51 
 4753000   0.49521436   -7.8026944     819.2319  0.014363418  0.012702576           47 
 4754000    0.4706575   -7.8134304    818.43593  0.014346444  0.012698571           49 
 4755000   0.49415393   -7.7814921    818.52277  0.014344949  0.012694563           53 
 4756000   0.49384034   -7.8051099    818.04852  0.014333623  0.012690561           45 
 4757000   0.49631203    -7.807625    818.22625  0.014333723  0.012686558           32 
 4758000   0.48639256   -7.8225758    818.69559  0.014338931  0.012682556           40 
 4759000   0.48410371   -7.7873813    817.78825   0.01432003  0.012678558           56 
 4760000   0.49960732   -7.7944545    819.72614  0.014350948  0.012674561           48 
 4761000   0.48200939   -7.8005662    818.09258  0.014319341  0.012670565           55 
 4762000   0.48834023   -7.8059217    818.34189  0.014320697  0.012666572           47 
 4763000   0.48154647   -7.8086744    817.98013  0.014311361  0.012662575           44 
 4764000    0.4792926   -7.8089982    817.89916   0.01430694  0.012658585           52 
 4765000   0.49546458   -7.8107376    819.43949  0.014330876  0.012654592           49 
 4766000   0.48468451   -7.8168826    818.71376   0.01431518  0.012650599           47 
 4767000   0.49509107   -7.8130913    819.36323   0.01432353  0.012646605           39 
 4768000   0.48632772   -7.8223104    818.19378  0.014300087   0.01264262           42 
 4769000   0.49358672   -7.8159779    818.32041  0.014299301  0.012638634           42 
 4770000   0.47928512   -7.8096618    816.79697  0.014269689  0.012634649           46 
 4771000   0.49235558   -7.8192241    816.97521  0.014269811  0.012630665           53 
 4772000   0.49190654   -7.8221942    817.90419  0.014283043  0.012626684           46 
 4773000   0.48884474   -7.8027475    818.53371  0.014291042  0.012622704           54 
 4774000   0.50294094   -7.7996979     818.4031  0.014285768  0.012618728           43 
 4775000   0.48186779   -7.8249383    818.43278  0.014283295  0.012614752           36 
 4776000   0.48888323   -7.8140304    817.60247  0.014265816  0.012610777           52 
 4777000   0.48621857   -7.8156324    817.54762  0.014261873  0.012606804           41 
 4778000   0.48869459   -7.8160686    816.99176  0.014249193   0.01260283           42 
 4779000   0.48616938   -7.7987349     818.4372  0.014271417  0.012598859           35 
 4780000   0.50144945   -7.8186624     818.7099  0.014273185  0.012594893           56 
 4781000   0.48438848   -7.7959919    819.24007  0.014279441  0.012590928           33 
 4782000   0.49124331   -7.8121876    817.12054  0.014239519   0.01258696           50 
 4783000   0.48742218   -7.8394185    817.68236   0.01424633  0.012582994           41 
 4784000   0.47710226   -7.8116509    818.29518  0.014254027  0.012579033           39 
 4785000   0.48436846    -7.814375    817.99226  0.014245773  0.012575073           27 
 4786000   0.48118361   -7.8089281    817.57864  0.014235594  0.012571113           46 
 4787000   0.49967417   -7.8155872    817.39624  0.014229445  0.012567152           56 
 4788000   0.48157175    -7.801804    818.90882  0.014252799  0.012563192           46 
 4789000   0.48885836   -7.8070593     817.4079  0.014223705  0.012559234           55 
 4790000   0.47217467   -7.8153461    817.35269  0.014219775   0.01255528           41 
 4791000   0.48763777   -7.8311193    818.55726  0.014237759  0.012551326           36 
 4792000   0.49392073   -7.8055549    817.28719  0.014212701  0.012547373           74 
 4793000   0.48027645   -7.8080544    818.28167  0.014227027  0.012543423           44 
 4794000   0.47578699   -7.8183809    817.19328   0.01420514  0.012539474           50 
 4795000    0.4833678   -7.8103392    816.09071  0.014183016  0.012535527           59 
 4796000   0.48876199   -7.8123652     817.0457  0.014196652  0.012531581           46 
 4797000   0.48995847   -7.7917348    818.49438  0.014218859   0.01252764           41 
 4798000   0.49673354   -7.8128274    817.62617  0.014200816  0.012523698           55 
 4799000   0.48369151   -7.8111864    817.63489  0.014198008   0.01251976           36 
 4800000   0.48770465   -7.8095799    817.36155  0.014190305  0.012515821           77 
 4801000   0.48926078   -7.8244128    818.62742  0.014209321  0.012511887           48 
 4802000   0.48993215   -7.8062324    817.73129  0.014190811  0.012507954           51 
 4803000   0.48265381   -7.8112765    818.33648  0.014198357   0.01250402           70 
 4804000   0.46506329    -7.799257    816.91912  0.014170815  0.012500091           55 
 4805000   0.48536526   -7.7925437    818.02299   0.01418701   0.01249616           51 
 4806000   0.49044455   -7.8251842    818.52913  0.014192834  0.012492236           59 
 4807000   0.48374577   -7.8252235    818.03947  0.014181393   0.01248831           48 
 4808000   0.47558208    -7.797948    817.90623  0.014176134  0.012484385           59 
 4809000    0.4865273   -7.7953745    818.54413   0.01418424  0.012480465           58 
 4810000   0.48893148   -7.8089093    817.74859  0.014167509  0.012476545           51 
 4811000   0.48795974   -7.8180803    816.57072  0.014144161  0.012472626           64 
 4812000   0.49155314   -7.8127055    817.05681   0.01414964  0.012468711           41 
 4813000   0.48616245   -7.8166342    819.01328  0.014180575  0.012464794           58 
 4814000    0.4956488   -7.8453591    819.57418  0.014187339   0.01246088           61 
 4815000   0.47665949   -7.8039824    817.67945    0.0141516  0.012456967           49 
 4816000   0.48799977   -7.8013718     818.6934  0.014166206  0.012453056           47 
 4817000   0.48500053   -7.8246897    816.29929  0.014121848  0.012449144           54 
 4818000   0.47700896   -7.8129694     817.1459   0.01413356  0.012445233           68 
 4819000   0.47908926   -7.8187572    818.08069  0.014146792  0.012441323           47 
 4820000   0.48003301   -7.8365757    818.27519   0.01414722  0.012437414           60 
 4821000   0.47388531   -7.8280684    818.37438     0.014146  0.012433511           49 
 4822000   0.47516518   -7.8145786     818.3337  0.014142363  0.012429609           52 
 4823000   0.47783229    -7.807998    818.05406  0.014134599  0.012425711           52 
 4824000   0.48792523   -7.8121794    818.10025  0.014132467  0.012421816           51 
 4825000   0.47219177   -7.8271337    818.33015  0.014133509  0.012417921           41 
 4826000   0.48823134   -7.8213106    818.54795  0.014134341  0.012414024           56 
 4827000   0.48997219    -7.823624    816.72387  0.014099922   0.01241013           65 
 4828000     0.482278   -7.8149799    818.48561   0.01412741  0.012406239           60 
 4829000   0.47365766   -7.8026374    818.31634  0.014121563  0.012402348           58 
 4830000    0.4729209   -7.8105248    818.34931  0.014119208  0.012398458           72 
 4831000   0.47206365   -7.8144276    818.24644  0.014114511  0.012394575           39 
 4832000   0.47489206   -7.8145418    817.50063  0.014098728  0.012390689           84 
 4833000   0.47176914    -7.847684    818.10128  0.014106167  0.012386803           68 
 4834000   0.47840749   -7.8220367    817.82847  0.014098546  0.012382921           53 
 4835000   0.47385475    -7.824791    817.58957  0.014091513   0.01237904           57 
 4836000   0.48479019   -7.8154455    816.10575   0.01406303  0.012375159           54 
 4837000   0.47584902   -7.8029428    818.17437  0.014095761  0.012371283           52 
 4838000   0.47811844   -7.8075049    818.08834  0.014091366  0.012367405           80 
 4839000   0.48516295   -7.8111451    819.20766   0.01410773  0.012363533          102 
 4840000   0.48142696   -7.8253584     818.1745  0.014087027  0.012359658           62 
 4841000   0.47722395   -7.8231185    817.61954  0.014074564  0.012355784           37 
 4842000   0.47409336   -7.8282956    818.35563  0.014084325  0.012351915           69 
 4843000   0.47705678   -7.8269147    817.48809  0.014066489  0.012348045           47 
 4844000   0.47266767   -7.8199808    818.08468  0.014073849  0.012344178           41 
 4845000   0.48333101     -7.81008    819.31644   0.01409213   0.01234031           50 
 4846000   0.48736012   -7.8269941    817.44752  0.014057083  0.012336445           51 
 4847000   0.46916662   -7.8273599    817.68219  0.014058218  0.012332581           57 
 4848000   0.48094984   -7.8179803    817.74961  0.014056477   0.01232872           54 
 4849000   0.47229277   -7.8269514    817.14606  0.014043206  0.012324853           42 
 4850000   0.47768521    -7.807836    817.90142  0.014053289  0.012320996           51 
 4851000   0.48068137   -7.8170873    816.97724  0.014034516  0.012317136           45 
 4852000   0.47949351   -7.8237806    818.05905  0.014050204  0.012313276           60 
 4853000   0.47812124   -7.8109478    817.98446  0.014046028  0.012309419           49 
 4854000   0.49118516   -7.8310727      818.126  0.014045564  0.012305562           58 
 4855000   0.46848407   -7.8233927    817.16251  0.014026133  0.012301706           40 
 4856000   0.47722471   -7.8322026    817.05168  0.014021343  0.012297853           42 
 4857000   0.47378688   -7.8279644    817.02756  0.014018042  0.012293997           52 
 4858000   0.47631398    -7.822238    816.41402  0.014004632  0.012290142           57 
 4859000   0.47317842   -7.8180043     817.8516  0.014026405   0.01228629           41 
 4860000   0.47403385    -7.812411    817.31897  0.014014386   0.01228244           46 
 4861000    0.4645256   -7.8243982    818.04985  0.014024032  0.012278589           57 
 4862000   0.47071898   -7.8281617    817.60829   0.01401358  0.012274738           50 
 4863000   0.48035263   -7.8315074     817.3264  0.014005868  0.012270889           51 
 4864000   0.46420289    -7.824913    817.26121  0.014001871  0.012267042           42 
 4865000   0.46906528   -7.8409873    817.92911  0.014010433  0.012263199           44 
 4866000   0.47278004   -7.8179324    816.94429  0.013990689  0.012259354           60 
 4867000   0.48343296   -7.8203751    819.03353  0.014023586  0.012255516           67 
 4868000   0.47166989   -7.8230446    816.19186   0.01397206  0.012251678           63 
 4869000   0.46806825   -7.8425366    819.48884  0.014025619  0.012247841           54 
 4870000   0.47394596   -7.8189477    816.80793  0.013976864  0.012244003           50 
 4871000   0.47192781   -7.8280425    816.83198  0.013974406  0.012240168           45 
 4872000   0.46996259   -7.8300174    816.00452  0.013957384  0.012236332           35 
 4873000   0.47678694    -7.834316    816.81239  0.013968336  0.012232501           36 
 4874000   0.46128868   -7.8473065    819.22291  0.014006684  0.012228668           39 
 4875000    0.4737573   -7.8164952    818.04959  0.013983754  0.012224838           36 
 4876000   0.47998214   -7.8217647    815.86058  0.013943474  0.012221011           48 
 4877000   0.46646023   -7.8214492    817.28046  0.013964877  0.012217191           40 
 4878000   0.47613339   -7.8214487    817.34625  0.013963138  0.012213365           46 
 4879000   0.46691943   -7.8240756    817.20776  0.013957911  0.012209543           46 
 4880000   0.46518022   -7.8224497    816.54702  0.013943767  0.012205721           49 
 4881000   0.47131074   -7.8382648     816.6648  0.013942922  0.012201901           49 
 4882000   0.48012671   -7.8251046    817.05351  0.013946701  0.012198083           41 
 4883000   0.47137707   -7.8297967    817.54708  0.013952268  0.012194265           43 
 4884000   0.46387669   -7.8316536    817.50955  0.013948771  0.012190449           43 
 4885000   0.47006031   -7.8458761    817.22857  0.013941122  0.012186633           54 
 4886000   0.47175232   -7.8368086    816.54094  0.013926541  0.012182819           50 
 4887000   0.47536349   -7.8171344     818.1575  0.013951257  0.012179008           57 
 4888000   0.47074591   -7.8254279    816.65094  0.013922718  0.012175197           47 
 4889000   0.46954862   -7.8454392    817.66157  0.013937096  0.012171387           44 
 4890000   0.46276857     -7.83971    817.38825  0.013929588  0.012167578           35 
 4891000   0.46676906    -7.838059     818.1589  0.013939871  0.012163772           49 
 4892000   0.47209187   -7.8311732     816.1235  0.013902349  0.012159968           56 
 4893000   0.46391647   -7.8269996    816.74611  0.013910111  0.012156165           44 
 4894000    0.4672165   -7.8485613    815.38262  0.013884052  0.012152362           46 
 4895000   0.45953837   -7.8400334    816.96684  0.013908186  0.012148561           37 
 4896000   0.47234287   -7.8353858    817.25553  0.013910259  0.012144762           44 
 4897000   0.47880197   -7.8324025    817.60236   0.01391332  0.012140966           70 
 4898000   0.46396043   -7.8333856    817.63302  0.013911001  0.012137166           46 
 4899000   0.46827351    -7.831352     816.3959  0.013887118  0.012133371           47 
 4900000   0.47011114   -7.8459185    817.12676  0.013896714  0.012129577           55 
 4901000   0.47001326   -7.8453959    816.93135  0.013890555  0.012125782           35 
 4902000   0.47150684   -7.8389569    817.42621  0.013896134  0.012121991           78 
 4903000   0.46992154   -7.8556296    817.53915   0.01389522  0.012118199           56 
 4904000   0.45868042   -7.8258463    816.35082  0.013872193  0.012114405           40 
 4905000   0.45678736   -7.8618386    817.04553  0.013881168  0.012110615           70 
 4906000   0.46775644   -7.8371937    817.52942  0.013886558  0.012106827           38 
 4907000   0.46526309   -7.8332887    817.46906  0.013882703  0.012103038           42 
 4908000   0.46198506   -7.8381601    817.09991  0.013873606  0.012099252           45 
 4909000   0.46380973   -7.8464742    816.80281  0.013865737  0.012095467           54 
 4910000     0.465426   -7.8366972    816.88141  0.013864247  0.012091682           61 
 4911000   0.46121706   -7.8402894     815.9913   0.01384632  0.012087899           48 
 4912000   0.46266625   -7.8403905     815.4552  0.013834406  0.012084121           43 
 4913000    0.4676101   -7.8446152    817.00763  0.013857922  0.012080343           48 
 4914000   0.45801316   -7.8398966    817.02824  0.013855451  0.012076569           50 
 4915000   0.46072743   -7.8428542    816.48655  0.013843448  0.012072796           53 
 4916000   0.45863037   -7.8439688    817.96754  0.013865737  0.012069021           66 
 4917000    0.4633241   -7.8343401     818.0684  0.013864626  0.012065252           58 
 4918000   0.46486423    -7.828721    816.21117  0.013830337  0.012061484           46 
 4919000   0.47337668   -7.8352889    816.51072    0.0138326  0.012057715           68 
 4920000   0.46064839   -7.8381303     817.1194  0.013840098  0.012053946           55 
 4921000   0.46213346   -7.8513226    816.94446  0.013834323  0.012050182           57 
 4922000   0.46470659   -7.8465237    817.52511  0.013841343  0.012046414           42 
 4923000   0.47492959    -7.859112    815.88938  0.013810843  0.012042648           51 
 4924000   0.46358388   -7.8526029    817.09331  0.013828414  0.012038886           70 
 4925000   0.45477002   -7.8437214    817.59693  0.013834127  0.012035122           71 
 4926000   0.46760285   -7.8516213    816.12497  0.013806418  0.012031362           51 
 4927000   0.45824598   -7.8606476    816.87016   0.01381622  0.012027605           97 
 4928000   0.46366447   -7.8446309    816.24009  0.013802761  0.012023847           48 
 4929000   0.46738748   -7.8631918    817.21726  0.013816482   0.01202009           42 
 4930000   0.46842524   -7.8396571    815.93405  0.013791989  0.012016336           50 
 4931000   0.46186935   -7.8431898    816.35557  0.013796315  0.012012578           49 
 4932000   0.47177616   -7.8500916    816.76821   0.01380049  0.012008829           61 
 4933000   0.46789549   -7.8674745    815.48294   0.01377598  0.012005078           64 
 4934000   0.45610566   -7.8422978    816.18906  0.013785115  0.012001326           53 
 4935000   0.46865044   -7.8552806    816.24784  0.013783314  0.011997577           51 
 4936000   0.46534797   -7.8432132    816.74693  0.013788947  0.011993829           51 
 4937000   0.46660811   -7.8559399    817.40528  0.013797267  0.011990088           40 
 4938000   0.46005856   -7.8510241    817.36784  0.013793841  0.011986343           57 
 4939000   0.45555581   -7.8461219    816.46977  0.013775895  0.011982602           54 
 4940000   0.45329734   -7.8466735    814.47402   0.01373944  0.011978862           54 
 4941000   0.46047798   -7.8421892    816.72684  0.013774655  0.011975121           44 
 4942000   0.45796213   -7.8405048    816.34102  0.013765362  0.011971384           44 
 4943000   0.46202495   -7.8521432    816.16889  0.013759675  0.011967644           57 
 4944000    0.4696698   -7.8338958    815.25246  0.013741445  0.011963907           50 
 4945000   0.46311596   -7.8501095    816.56634  0.013760808  0.011960175           60 
 4946000   0.45455873   -7.8403756    815.86922   0.01374628  0.011956441           40 
 4947000   0.45986456   -7.8597218    817.35922  0.013768601   0.01195271           49 
 4948000   0.46559035   -7.8528079    816.76638  0.013755834  0.011948977           65 
 4949000    0.4689455   -7.8495944    816.18104  0.013743198  0.011945246           39 
 4950000   0.46468261    -7.854504    816.15246   0.01373994  0.011941517           34 
 4951000   0.47479104   -7.8523051    816.10427  0.013736354   0.01193779           37 
 4952000   0.45871175   -7.8405212    816.02038  0.013732168  0.011934063           38 
 4953000   0.45803045   -7.8442031    817.14571  0.013748329  0.011930337           47 
 4954000   0.45587452   -7.8521767    815.13143  0.013711671  0.011926613           35 
 4955000   0.46507541   -7.8522485    815.81455  0.013720393  0.011922888           53 
 4956000   0.45154036   -7.8621569    816.65081  0.013731686  0.011919166           43 
 4957000   0.46042262    -7.877264    816.23202  0.013721875  0.011915448           46 
 4958000   0.45431326   -7.8396308    816.12425  0.013717296  0.011911732           40 
 4959000   0.45183794   -7.8584091    815.82802  0.013709552  0.011908014           35 
 4960000   0.45301572   -7.8552021     815.4952  0.013701196  0.011904302           30 
 4961000    0.4568928   -7.8602197    816.77039  0.013719855  0.011900592           38 
 4962000    0.4577318    -7.846784    815.55782  0.013696726  0.011896884           43 
 4963000   0.44969055   -7.8618245     816.2009  0.013704764  0.011893177           45 
 4964000   0.46571293   -7.8601706    815.97803  0.013698261  0.011889468           44 
 4965000    0.4684102   -7.8478612    815.90166  0.013694221  0.011885764           40 
 4966000   0.45217831   -7.8508116    816.56757  0.013702637  0.011882059           50 
 4967000   0.46282179   -7.8581758    816.40428  0.013697139  0.011878355           48 
 4968000   0.45709209   -7.8568142    815.63369  0.013681456  0.011874653           88 
 4969000   0.45309001   -7.8522121    816.61012  0.013695078  0.011870953           51 
 4970000   0.45290195   -7.8552362     815.2365  0.013669291  0.011867255           42 
 4971000    0.4583345   -7.8696782    816.01893  0.013679658  0.011863558           75 
 4972000   0.45765591   -7.8756037    815.62939  0.013670377  0.011859861           57 
 4973000   0.45648489   -7.8703679    817.31395  0.013695857  0.011856166           47 
 4974000   0.45470734   -7.8414855     816.5989  0.013681123  0.011852471           58 
 4975000   0.45753517   -7.8488779    814.73833  0.013647208  0.011848779           45 
 4976000   0.46187637   -7.8547205    815.77528  0.013661831  0.011845085           49 
 4977000   0.44781358   -7.8598465    815.71949  0.013658152  0.011841394           68 
 4978000    0.4599906    -7.863201    815.22733   0.01364717  0.011837704           48 
 4979000   0.46055181   -7.8568241    815.65005  0.013651504  0.011834014           40 
 4980000   0.45412826   -7.8687751    816.19042  0.013657805  0.011830323           35 
 4981000   0.44742915   -7.8715806    817.24567  0.013672718  0.011826634           54 
 4982000   0.44731883   -7.8576432    816.61992  0.013659506  0.011822948           38 
 4983000    0.4496112   -7.8531249    814.65437  0.013623894  0.011819263           41 
 4984000   0.45300501   -7.8577809    815.21917  0.013630604  0.011815578           34 
 4985000     0.450331   -7.8468572     816.7779  0.013653927  0.011811899           33 
 4986000   0.45558949   -7.8647774    814.78891  0.013617945  0.011808218           54 
 4987000   0.46090428   -7.8441213    816.07661  0.013636732   0.01180454           46 
 4988000    0.4543324   -7.8601695    815.73969   0.01362837  0.011800865           53 
 4989000   0.44409867   -7.8580066     814.4024  0.013603301  0.011797188           44 
 4990000   0.45518409   -7.8549334    814.03335  0.013594411  0.011793511           43 
 4991000   0.45366462   -7.8592742    815.65581  0.013618777  0.011789839           49 
 4992000   0.45145283   -7.8683537    814.91613  0.013603701  0.011786167           50 
 4993000   0.44722587   -7.8632407    815.39043  0.013608893  0.011782498           55 
 4994000   0.45957645   -7.8639472    814.58688  0.013592759  0.011778825           37 
 4995000   0.44929625   -7.8668448    816.22656  0.013617393  0.011775154           66 
 4996000   0.44804089   -7.8525491    816.00879  0.013611035  0.011771489           58 
 4997000   0.44471971   -7.8672535    815.71408  0.013603397  0.011767825           59 
 4998000   0.45732662   -7.8767009    815.77418  0.013601677  0.011764162           49 
 4999000   0.45607527   -7.8741598     816.2292  0.013606541  0.011760503           83 
 5000000   0.44273546   -7.8602254      815.454    0.0135909  0.011756841           48 
 5001000   0.44082767   -7.8768533    816.60644  0.013607386   0.01175318           35 
 5002000   0.45316202    -7.865594    816.22288  0.013598275   0.01174952           40 
 5003000   0.45928527   -7.8500569    814.26148  0.013562887  0.011745862           73 
 5004000   0.44348838   -7.8619585    814.89932  0.013570799  0.011742205           42 
 5005000   0.45399292   -7.8581922    815.68872  0.013581231  0.011738547           47 
 5006000   0.45371867   -7.8839038    815.91209  0.013582236  0.011734894           40 
 5007000   0.45143641   -7.8698878     815.7981  0.013577626  0.011731243           54 
 5008000   0.45677714   -7.8677549    815.91078   0.01357679   0.01172759           54 
 5009000   0.44967572   -7.8626967     815.4459  0.013566346  0.011723941           55 
 5010000   0.44291691   -7.8671064    815.84427  0.013570264  0.011720291           49 
 5011000   0.45112999    -7.869021    815.94329  0.013569203  0.011716642           49 
 5012000   0.43927931   -7.8807344    815.27193  0.013555333  0.011712993           48 
Loop time of 11063.8 on 48 procs for 5000000 steps with 4000 atoms

Performance: 78092.779 tau/day, 451.926 timesteps/s
99.4% CPU use with 48 MPI tasks x no OpenMP threads

MPI task timing breakdown:
Section |  min time  |  avg time  |  max time  |%varavg| %total
---------------------------------------------------------------
Pair    | 757.89     | 776.59     | 801.71     |  33.8 |  7.02
Neigh   | 69.879     | 71.191     | 73.661     |   9.5 |  0.64
Comm    | 625.5      | 659.48     | 678.88     |  47.7 |  5.96
Output  | 13.248     | 13.253     | 13.352     |   0.4 |  0.12
Modify  | 9403.8     | 9427.9     | 9456.5     |  15.6 | 85.21
Other   |            | 115.3      |            |       |  1.04

Nlocal:        83.3333 ave          91 max          77 min
Histogram: 4 3 9 4 6 11 1 6 1 3
Nghost:        1836.31 ave        1854 max        1821 min
Histogram: 2 6 4 8 6 7 9 3 1 2
Neighs:        11366.1 ave       13202 max       10006 min
Histogram: 3 4 4 11 8 9 5 3 0 1
FullNghs:      22731.6 ave       25101 max       20778 min
Histogram: 3 6 5 6 8 9 2 4 3 2

Total # of neighbors = 1091117
Ave neighs/atom = 272.77925
Neighbor list builds = 269372
Dangerous builds = 0

#clear
#
#next RN
#
#jump SELF
Total wall time: 3:04:26
