
units lj                  # Use reduced LJ style units
atom_style atomic         # Uncharged point particles
atom_modify map hash      # Needed for indexing of clusters etc
                          # Used to be able to find where atoms are in relation to each other.

lattice fcc 1.0 spacing 1 1 1
Lattice spacing in x,y,z = 1.5874011 1.5874011 1.5874011
region box block 0 10 0 10 0 10 units lattice
create_box 2 box
Created orthogonal box = (0.0000000 0.0000000 0.0000000) to (15.874011 15.874011 15.874011)
  3 by 4 by 4 MPI processor grid
create_atoms 1 box
Created 4000 atoms
  using lattice units in orthogonal box = (0.0000000 0.0000000 0.0000000) to (15.874011 15.874011 15.874011)
  create_atoms CPU = 0.003 seconds
set type 1 type/fraction 2 0.88 78393
Setting atom values ...
  3511 settings made for type/fraction
mass 1 1.0
mass 2 1.0
pair_style lj/cut  3.5
pair_modify tail  yes
pair_coeff 1  1  1.0  1.0   # Intearaction between 1 and 1 set with epsilon = 1 and sigma = 1
pair_coeff 1  2  1.5  0.8
pair_coeff 2  2  0.5  0.88

write_data data.0
System init for write_data ...
Neighbor list info ...
  update every 1 steps, delay 10 steps, check yes
  max neighbors/atom: 2000, page size: 100000
  master list distance cutoff = 3.8
  ghost atom cutoff = 3.8
  binsize = 1.9, bins = 9 9 9
  1 neighbor lists, perpetual/occasional/extra = 1 0 0
  (1) pair lj/cut, perpetual
      attributes: half, newton on
      pair build: half/bin/atomonly/newton
      stencil: half/bin/3d
      bin: standard
WARNING: Not all mixed pair coeffs generated from mixing. Use write_data with 'pair ij' option to store all pair coeffs. (../write_data.cpp:312)


#############################
#   M E L T   S Y S T E M   #
#############################

velocity all create 2.4 9580093 mom yes dist gaussian # Assign velocities
                                                    # Temperature 2.4, random number seed, zero linear momentum
                                                                                # Gaussian distribution

timestep 0.002   # simulation timestep
thermo 1000       # output thermodynamic data every 1000 steps bf 100

# Define a fix  in this case with index 1 applied to all
# particles in the simulation. This fix is for simulations
# in the anisotropic NPT ensemble. Note that we use the MTK
# correction.
fix 1 all npt temp 2.4 2.4 0.1 iso 5.68 5.68 0.5 mtk yes tchain 5 pchain 5 # Use NPT ensemble
                                                                         # Set temperature and pressure and damping
                                                                         # Numbers of thermostats in chain and in barostat
run 10000          # run for 10000 steps
Per MPI rank memory allocation (min/avg/max) = 3.642 | 3.644 | 3.648 Mbytes
Step Temp E_pair E_mol TotEng Press Volume 
       0          2.4   -3.2921436            0   0.30695645   -2.7369977         4000 
    1000    2.4142649   -2.3623638            0    1.2581282    5.9421921    3954.8886 
    2000    2.3969268   -2.4113733            0    1.1831181    5.9476643    3926.8254 
    3000     2.422211   -2.3781933            0    1.2542149     5.788694    3967.6817 
    4000    2.4000518   -2.3988861            0    1.2002916    5.6973894    3954.2512 
    5000    2.4171201   -2.4277757            0     1.196998    5.6067563    3947.3502 
    6000    2.3297003   -2.4072569            0    1.0864199    5.5694572    3953.6772 
    7000    2.3783136   -2.4175973            0    1.1489812    5.8198526     3914.513 
    8000    2.3314631   -2.4225701            0    1.0737503    5.6023472    3949.0853 
    9000    2.3695069    -2.401916            0    1.1514557    5.5837674     3949.258 
   10000      2.40594   -2.3877606            0    1.2202472    5.4060643     4001.296 
Loop time of 2.54087 on 48 procs for 10000 steps with 4000 atoms

Performance: 680082.053 tau/day, 3935.660 timesteps/s
99.6% CPU use with 48 MPI tasks x no OpenMP threads

MPI task timing breakdown:
Section |  min time  |  avg time  |  max time  |%varavg| %total
---------------------------------------------------------------
Pair    | 1.1097     | 1.1785     | 1.2614     |   3.0 | 46.38
Neigh   | 0.20696    | 0.21729    | 0.23905    |   1.1 |  8.55
Comm    | 0.807      | 0.87861    | 0.9486     |   3.7 | 34.58
Output  | 0.0002482  | 0.00025422 | 0.00031743 |   0.0 |  0.01
Modify  | 0.21027    | 0.25059    | 0.28425    |   3.8 |  9.86
Other   |            | 0.01562    |            |       |  0.61

Nlocal:        83.3333 ave          93 max          72 min
Histogram: 1 2 0 8 9 7 11 7 2 1
Nghost:        1641.29 ave        1663 max        1619 min
Histogram: 6 3 3 4 4 9 8 3 4 4
Neighs:        9535.19 ave       11006 max        8062 min
Histogram: 2 2 2 9 12 4 8 5 3 1

Total # of neighbors = 457689
Ave neighs/atom = 114.42225
Neighbor list builds = 902
Dangerous builds = 175

# Equilibrate just above the melting temperature to avoid step fn in T

fix 1 all npt temp 1.25 1.25 0.1 iso 5.68 5.68 0.5 mtk yes tchain 5 pchain 5
run 2000
Per MPI rank memory allocation (min/avg/max) = 3.643 | 3.645 | 3.649 Mbytes
Step Temp E_pair E_mol TotEng Press Volume 
   10000      2.40594   -2.3877606            0    1.2202472    5.4060643     4001.296 
   11000    1.2406414   -3.5973752            0   -1.7368783    5.4877389    3059.0762 
   12000    1.2298343   -3.5231941            0   -1.6789038    5.3952838     3099.439 
Loop time of 0.617839 on 48 procs for 2000 steps with 4000 atoms

Performance: 559369.405 tau/day, 3237.091 timesteps/s
99.6% CPU use with 48 MPI tasks x no OpenMP threads

MPI task timing breakdown:
Section |  min time  |  avg time  |  max time  |%varavg| %total
---------------------------------------------------------------
Pair    | 0.27401    | 0.30039    | 0.33404    |   2.4 | 48.62
Neigh   | 0.039559   | 0.04239    | 0.045754   |   0.5 |  6.86
Comm    | 0.19026    | 0.22521    | 0.25759    |   3.0 | 36.45
Output  | 5.1826e-05 | 5.4206e-05 | 7.0158e-05 |   0.0 |  0.01
Modify  | 0.041573   | 0.044948   | 0.049198   |   1.0 |  7.27
Other   |            | 0.004848   |            |       |  0.78

Nlocal:        83.3333 ave          92 max          75 min
Histogram: 3 1 7 4 9 10 4 9 0 1
Nghost:        1955.23 ave        1982 max        1933 min
Histogram: 3 4 5 11 6 4 8 4 1 2
Neighs:        12353.3 ave       14180 max       10799 min
Histogram: 3 4 3 7 11 10 4 3 2 1

Total # of neighbors = 592957
Ave neighs/atom = 148.23925
Neighbor list builds = 143
Dangerous builds = 17

#############################
# L I N E A R  Q U E N C H  #
#############################

# Define solid atoms. This closely follows ten Wolde  Ruiz-Montero and Frenkel  Faraday Discuss  1996  104  93-110
# Compute components of the per-atom q6 vector
compute q6 all orientorder/atom degrees 1 6 components 6 nnn NULL cutoff 1.3 # compute the Q6 parameter.
                                                                             # Use all neighbours within 1.3 unit cell.

# get number of connections
compute coord_number all coord/atom orientorder q6 0.5

# An atom is solid if it has 8 or more connections (of a possible 14)
variable is_solid atom c_coord_number>=8
group solid dynamic all var is_solid    # Must be dynamic to update
dynamic group solid defined

# do clustering
compute cluster solid cluster/atom 1.3 # Create a cluster where all atoms within are solid and max 1.3 units from another member

# define chunks one chunk per cluster
compute clus_chunks solid chunk/atom c_cluster nchunk every compress yes  # Says which atoms are in which chunk

# count the size of each chunk
compute size_chunks solid property/chunk clus_chunks count


# Find the maximum entry in the vector of chunk sizes
variable max_n equal max(c_size_chunks)


# Thermo style which includes this variable
# thermo_style custom step temp pe vol v_max_n

thermo ${N}  # Print the thermo information every 100 steps
thermo 1000  

# Reset the npt fix at a lower temperature (below freezing)
fix 1  all npt temp  ${temp} ${temp}  0.1  iso  5.68  5.68  0.5  mtk yes tchain  5  pchain  5
fix 1  all npt temp  0.45 ${temp}  0.1  iso  5.68  5.68  0.5  mtk yes tchain  5  pchain  5
fix 1  all npt temp  0.45 0.45  0.1  iso  5.68  5.68  0.5  mtk yes tchain  5  pchain  5

dump dmp2 all dcd ${N} traj.dcd
dump dmp2 all dcd 1000 traj.dcd


compute msd all msd com yes
variable twopoint equal c_msd[4]/6/(step*dt+1.0e-6)
fix 9 all vector 10 c_msd[4]
variable fit equal slope(f_9)/6/(10*dt)
thermo_style custom step temp pe c_msd[4] v_twopoint v_fit v_max_n

fix 1 all npt temp 1.25 ${temp} 0.1 iso 5.68 5.68 0.5 mtk yes tchain 5 pchain 5
fix 1 all npt temp 1.25 0.45 0.1 iso 5.68 5.68 0.5 mtk yes tchain 5 pchain 5
run 5000000 # 5000000  # Run for this many steps
Neighbor list info ...
  update every 1 steps, delay 10 steps, check yes
  max neighbors/atom: 2000, page size: 100000
  master list distance cutoff = 3.8
  ghost atom cutoff = 3.8
  binsize = 1.9, bins = 8 8 8
  4 neighbor lists, perpetual/occasional/extra = 1 3 0
  (1) pair lj/cut, perpetual
      attributes: half, newton on
      pair build: half/bin/atomonly/newton
      stencil: half/bin/3d
      bin: standard
  (2) compute orientorder/atom, occasional
      attributes: full, newton on
      pair build: full/bin/atomonly
      stencil: full/bin/3d
      bin: standard
  (3) compute coord/atom, occasional
      attributes: full, newton on
      pair build: full/bin/atomonly
      stencil: full/bin/3d
      bin: standard
  (4) compute cluster/atom, occasional
      attributes: full, newton on
      pair build: full/bin/atomonly
      stencil: full/bin/3d
      bin: standard
Per MPI rank memory allocation (min/avg/max) = 9.822 | 9.829 | 9.832 Mbytes
Step Temp PotEng c_msd[4] v_twopoint v_fit v_max_n 
   12000    1.2298343   -3.5231941 1.4747755e-30 1.0241496e-32 8.3333333e+20            2 
   13000    1.2461562   -3.5259687   0.93336866 0.0059831322  0.079214804            2 
   14000    1.2444009   -3.5411122    1.9133008  0.011388695  0.079247559            1 
   15000    1.2184159   -3.5588184     2.983493  0.016574961  0.082808415            1 
   16000    1.2354049    -3.565257     4.128085  0.021500442  0.086273724            1 
   17000    1.2542561   -3.5932168    5.2608312  0.025788388  0.088549226            2 
   18000    1.2297539   -3.5739416    6.3382191  0.029343606  0.089971208            1 
   19000    1.2616065   -3.5526988    7.3138461  0.032078272  0.089682075            2 
   20000    1.2420828   -3.5613238    8.3158841  0.034649516  0.088853776            3 
   21000    1.2332905   -3.5773372    9.4574809  0.037529685  0.088720524            1 
   22000    1.2300534      -3.5696    10.439686  0.039544264  0.088710957            1 
   23000    1.2622299   -3.5867331    11.558832  0.041879824   0.08848201            2 
   24000    1.2476813   -3.5353086    12.756017  0.044291726   0.08871373            3 
   25000    1.2700512   -3.5542212    13.712092  0.045706972  0.088785063            2 
   26000    1.2319077   -3.5814288    14.758818  0.047303903  0.088808083            1 
   27000    1.2218371   -3.5868394    15.819552  0.048825776  0.088801575            2 
   28000    1.2508946   -3.5777494    16.974257  0.050518622  0.088951406            3 
   29000    1.2245647   -3.5808823    18.042883  0.051847365  0.089083771            4 
   30000    1.2731232     -3.56679    19.005125  0.052792013  0.089020762            2 
   31000    1.2716342    -3.596364    20.081522  0.053982584  0.088929912            2 
   32000    1.2688568   -3.5571263    21.037572  0.054785342  0.088754479            1 
   33000    1.2408916   -3.5907305    22.043777  0.055666104  0.088616678            2 
   34000    1.2477445   -3.5709937    23.069908  0.056543892  0.088417473            3 
   35000    1.2826965   -3.5924365    23.982303   0.05710072  0.088252037            1 
   36000    1.2562414   -3.5798059    25.111129  0.058127612  0.088061871            2 
   37000    1.2498255   -3.5600861    26.301032  0.059236558  0.087974951            3 
   38000    1.2863403   -3.5827061    27.263447  0.059788259  0.087981386            1 
   39000    1.2211817   -3.6010769    28.183005  0.060220096  0.087933963            1 
   40000    1.2759804   -3.6142927    29.119705  0.060666052  0.087835566            2 
   41000     1.251973   -3.6140789     30.18605  0.061353759  0.087645854            2 
   42000    1.2428262   -3.6250773    31.173754  0.061852687  0.087505104            2 
   43000     1.237614   -3.5850463    32.432075  0.062852857  0.087440615            4 
   44000    1.2306756   -3.5496374    33.565273  0.063570592    0.0874205            1 
   45000    1.2406232   -3.5939537    34.390073   0.06368532  0.087337462            2 
   46000    1.2617028   -3.5717034    35.478405  0.064272472  0.087282499            2 
   47000    1.2343839   -3.5740499    36.664339  0.065007693  0.087243652            2 
   48000    1.2062361   -3.6212447    37.622293  0.065316481  0.087214084            2 
   49000     1.235113   -3.5762728    38.742308  0.065888278  0.087218764            1 
   50000    1.2299791   -3.5605661    39.911029  0.066518381  0.087210197            2 
   51000     1.234322   -3.5713605    40.924274  0.066869729  0.087234942            2 
   52000    1.2419036   -3.5915732    41.847109  0.067062675  0.087243634            1 
   53000    1.2198654   -3.5898155    42.860274  0.067390367  0.087240108            3 
   54000     1.219149   -3.5812632    43.915559  0.067770924  0.087211304            1 
   55000    1.2442959   -3.5838753     44.70735  0.067738409  0.087159097            3 
   56000    1.2433068    -3.564109    45.977407   0.06841876  0.087119311            3 
   57000    1.2212425    -3.594151    46.923985  0.068602316  0.087086428            2 
   58000    1.2435437   -3.5946664    48.206144    0.0692617  0.087076916            3 
   59000    1.2773574   -3.6287958    48.954455   0.06914471  0.087085271            2 
   60000    1.2372608   -3.5933967    50.506048  0.070147288  0.087125809            3 
   61000    1.2725619   -3.5748413    51.620788  0.070520201    0.0871895            1 
   62000    1.2354467    -3.610732    52.560486  0.070645814    0.0872383            1 
   63000    1.2439012   -3.5866235    53.448293    0.0706988  0.087252617            1 
   64000    1.2691172   -3.5829788    54.299221   0.07070211  0.087253587            6 
   65000    1.2495025   -3.6106437     55.22089  0.070796013  0.087229552            3 
   66000    1.2605293   -3.5660585     56.43655  0.071258269  0.087164676            4 
   67000    1.2667829   -3.6139573    57.204235  0.071149546  0.087099721            3 
   68000    1.2574614   -3.5939721    57.760468  0.070784887  0.087015385            1 
   69000    1.2280405   -3.5655214     59.33484  0.071660435  0.086956135            1 
   70000    1.2856225   -3.5986782    60.034944  0.071470171  0.086892114            3 
   71000     1.261031    -3.579608    61.360128  0.072018929  0.086832245            1 
   72000    1.2591025    -3.587896    62.548704  0.072394333   0.08680186            1 
   73000    1.2347432   -3.5851821    63.689031  0.072704373  0.086795727            1 
   74000    1.2637577   -3.5754902     64.99819  0.073196159   0.08679828            2 
   75000    1.2395699    -3.544511    65.930894  0.073256549  0.086805768            1 
   76000    1.2480347   -3.5913501    66.714055  0.073151376  0.086808359            2 
   77000    1.2315175   -3.5621156    68.110552  0.073712719  0.086828368            4 
   78000    1.2430613   -3.5942417    69.211661  0.073944082  0.086822629            2 
   79000    1.2318414   -3.5995661    69.888592  0.073722143  0.086838249            1 
   80000    1.2317893    -3.597408    71.266338  0.074235768  0.086846935            3 
   81000     1.241407   -3.5862994    71.931251  0.074003344  0.086861412            2 
   82000    1.2311602   -3.5774293    72.517731   0.07369688  0.086853878            3 
   83000    1.2232412   -3.6159575    73.690412  0.073986357  0.086825814            3 
   84000    1.2213307   -3.5696336    74.562895  0.073971125  0.086796059            3 
   85000    1.2283276   -3.5593856    76.433436  0.074934741  0.086775014            2 
   86000    1.2411455   -3.5640873    76.423808  0.074054077  0.086757946            3 
   87000    1.2477164   -3.5831132    77.779272  0.074501218  0.086713757            1 
   88000    1.2322852    -3.587674     78.25853  0.074108456  0.086655072            2 
   89000    1.2209736    -3.606845    79.454103  0.074395227  0.086583608            3 
   90000    1.2497045   -3.5860868    80.358574  0.074406087  0.086518542            1 
   91000    1.2381225   -3.6059034    81.064418  0.074234815   0.08644654            2 
   92000     1.253504   -3.5965246    82.085829  0.074353106  0.086372033            2 
   93000    1.2104738   -3.5657243    83.041268  0.074409738  0.086284831            2 
   94000    1.2451856   -3.5961416    83.478008  0.074005326  0.086194689            1 
   95000    1.2641452   -3.5754505    84.792295  0.074379206  0.086101195            4 
   96000    1.2588524   -3.6581534    85.639016  0.074339423    0.0860166            2 
   97000    1.2047046   -3.6174991    86.777879  0.074551442  0.085933574            3 
   98000     1.251833    -3.556357    87.714911  0.074587509  0.085859176            4 
   99000    1.2399418   -3.5934607    88.772799  0.074724578  0.085797484            2 
  100000    1.2413611   -3.5966499    89.918101   0.07493175  0.085738967            3 
  101000    1.2303299   -3.6090854      90.9424  0.075034983  0.085683664            1 
  102000    1.2313634   -3.6116252    92.088801  0.075235948  0.085624238            1 
  103000     1.247789   -3.5955539     93.43276  0.075592848  0.085571763            1 
  104000    1.2342048   -3.6088513    93.575575  0.074980428  0.085500611            2 
  105000    1.2522216   -3.5970752    95.245531  0.075591691  0.085441712            1 
  106000    1.2554157   -3.5934063    96.020269  0.075487633  0.085388291            1 
  107000    1.2332438   -3.6123743    96.570055  0.075210323  0.085327829            2 
  108000     1.245368   -3.5900865    97.808069  0.075469189  0.085260545            3 
  109000    1.2286091   -3.5821198    98.750176  0.075497076  0.085207331            4 
  110000    1.2332299   -3.6118226    99.276451  0.075209432  0.085138378            2 
  111000     1.230421   -3.5768733    101.34239  0.076082877  0.085080708            2 
  112000    1.2579965   -3.5891052    102.32261  0.076132898  0.085050955            1 
  113000    1.2419099   -3.6073541    102.60901  0.075670365  0.085013419            1 
  114000    1.2532231   -3.6045443    103.47046  0.075636304  0.084968215            2 
  115000    1.2360666   -3.6091701    103.94112  0.075319649   0.08490458            5 
  116000    1.2196165   -3.5875436    105.31977  0.075660756  0.084837471            3 
  117000    1.2264106   -3.5928013    106.46233  0.075827873  0.084785506            2 
  118000    1.2625504    -3.584973    107.11362  0.075645212  0.084731897            2 
  119000    1.2451803   -3.5696749    108.26899   0.07581862  0.084671878            3 
  120000    1.2078255   -3.5850995    109.20459  0.075836522  0.084619374            1 
  121000    1.2500232   -3.6024768    110.79656  0.076306169  0.084561746            1 
  122000    1.2373353   -3.6079835    111.67551  0.076281083  0.084516805            1 
  123000    1.2183707   -3.5874185    112.17735  0.076000916  0.084462206            3 
  124000    1.2495929   -3.5911547    113.28159  0.076130103   0.08441368            2 
  125000    1.2243414   -3.5880565    114.23774   0.07615849  0.084367676            2 
  126000     1.222351   -3.6099095    115.30536  0.076260156  0.084327446            3 
  127000    1.2157305   -3.5798239    116.39593  0.076375281  0.084278781            1 
  128000    1.2168895   -3.5942439    117.35257  0.076401413  0.084245013            1 
  129000    1.2000589   -3.5972688    119.05406  0.076908306  0.084224239            1 
  130000    1.2313369   -3.5798027    120.08905  0.076980161  0.084209799            2 
  131000    1.2164667   -3.6035194    120.42329  0.076605147  0.084192493            2 
  132000    1.2281699   -3.5996512    121.53933  0.076729378  0.084168498            2 
  133000    1.2381983   -3.6113585    122.66067  0.076855058   0.08414689            1 
  134000    1.2285839    -3.592878    123.47772  0.076789626  0.084125183            1 
  135000    1.2197222   -3.5960453    124.58226   0.07690263  0.084103771            1 
  136000    1.2453355   -3.6031178    126.29515  0.077386734  0.084094834            1 
  137000    1.2095334   -3.6041039    127.29136  0.077427837  0.084091877            2 
  138000    1.2397291   -3.5763835    128.82007  0.077789899  0.084091374            3 
  139000    1.1957936   -3.5844082    129.27606  0.077503635  0.084084875            1 
  140000    1.2260296   -3.5995043     130.1956  0.077497381  0.084081758            3 
  141000    1.2264048   -3.5792053    132.04139  0.078038647  0.084084256            2 
  142000     1.245871   -3.6118021    132.50874  0.077763347  0.084093764            1 
  143000    1.2234957    -3.601963     133.1631  0.077600873  0.084100586            2 
  144000    1.2280482   -3.5804411    134.78769  0.078002138  0.084104336            1 
  145000    1.2396536   -3.6210626    135.18846  0.077694518  0.084110185            2 
  146000    1.2056552   -3.6020245    136.33797  0.077818474  0.084103698            2 
  147000     1.235311   -3.6205309    136.79694  0.077549283  0.084102407            2 
  148000    1.2442663   -3.6197493    137.80654  0.077593773  0.084096166            2 
  149000    1.2037866   -3.5821184    138.75259  0.077602122   0.08409298            2 
  150000    1.2689995   -3.6124775    140.33119  0.077961774   0.08408557            3 
  151000    1.2378142   -3.5859466     141.3725  0.078020142  0.084080241            2 
  152000    1.2147215   -3.5940413    142.03761  0.077871495  0.084072007            3 
  153000    1.2189399   -3.6311595    142.71762  0.077732911  0.084060789            3 
  154000    1.2243337   -3.6121286    143.85612   0.07784422  0.084049919            1 
  155000    1.2431017   -3.6468368     144.4022  0.077635589   0.08402975            2 
  156000    1.2194258   -3.5945998    146.33792  0.078171968  0.084010842            1 
  157000    1.2286181   -3.6001093    146.71245  0.077872851  0.083997006            2 
  158000    1.2267372   -3.6165221     147.4011  0.077743197  0.083973932            1 
  159000    1.2494783   -3.6406144    148.05771   0.07759838  0.083954449            3 
  160000    1.2146403   -3.6239698    149.74491  0.077992138  0.083934503            1 
  161000    1.2240775   -3.6593271    150.03357  0.077657129   0.08391309            2 
  162000    1.2081892   -3.5937242    151.62662  0.077997232  0.083894457            3 
  163000    1.2252704   -3.6124677    152.89034  0.078164796  0.083882095            2 
  164000    1.2374494   -3.5994229    153.40729  0.077950861  0.083863021            1 
  165000    1.2301317   -3.6368155    154.28735  0.077922903  0.083848575            2 
  166000    1.2279028   -3.6094101    155.95433  0.078290328  0.083839995            2 
  167000    1.2322109   -3.5861551    157.49835  0.078591989  0.083836519            3 
  168000    1.2159777   -3.6148793    157.38808  0.078069484  0.083829453            2 
  169000    1.2513835   -3.6018649    158.99119  0.078398022  0.083820242            3 
  170000    1.1929466   -3.6019211    159.58248  0.078226708  0.083805088            2 
  171000     1.236251   -3.5841096    160.09936  0.078021129  0.083789292            1 
  172000    1.2243141   -3.5957201    161.07536  0.078040389  0.083770559            1 
  173000    1.2409329    -3.610161    162.77408  0.078407554  0.083768174            2 
  174000    1.2316891   -3.6065543    164.78627  0.078920627  0.083762451            3 
  175000    1.2182333   -3.6033475    165.19393  0.078663777  0.083759869            1 
  176000    1.2171478   -3.5950994    165.25774  0.078247037  0.083751343            1 
  177000    1.2152849   -3.6073412    166.51759  0.078398111  0.083745321            1 
  178000    1.1937719   -3.6070583    167.65479  0.078490071  0.083740695            3 
  179000    1.2106633   -3.5840594    169.60404   0.07895905  0.083743781            2 
  180000    1.2245798   -3.6343065    170.06602   0.07873427  0.083746552            2 
  181000    1.2140666   -3.5708805    171.39985  0.078913377  0.083748559            3 
  182000    1.2202471   -3.6087805    172.79885  0.079120352  0.083760446            1 
  183000    1.2162525   -3.5964881    173.74504  0.079118872  0.083774678            2 
  184000    1.2292405   -3.6159158    175.23192  0.079362284  0.083782844            4 
  185000     1.224596   -3.6123219    175.49244   0.07905065  0.083788536            3 
  186000    1.2043254    -3.635558    176.31665  0.078994916  0.083794149            2 
  187000    1.2450071   -3.6075079    176.94262  0.078851434  0.083792499            2 
  188000    1.2149913   -3.5888642    178.00459  0.078902742  0.083792542            1 
  189000    1.2225568   -3.6224166    178.56839  0.078733856  0.083783143            2 
  190000     1.210795   -3.6112484    180.24641  0.079055444  0.083786504            3 
  191000    1.2275072   -3.6038559    181.17866  0.079048281  0.083794978            2 
  192000    1.2098703   -3.6285579    182.46904  0.079196632  0.083796523            1 
  193000    1.2515012    -3.603461    183.36418  0.079172791  0.083803676            1 
  194000    1.2359826   -3.6004196    184.51415  0.079258653  0.083810393            2 
  195000    1.2225756   -3.6159065    186.69107  0.079782507  0.083809891            2 
  196000    1.2234958   -3.6127984    185.96704  0.079067619  0.083814956            2 
  197000    1.2282982   -3.6530664    187.60953  0.079361054  0.083814515            2 
  198000    1.1899326    -3.590399    188.97787  0.079536139  0.083819072            4 
  199000    1.2261961   -3.6185718    189.30977  0.079275449  0.083817725            2 
  200000    1.2000079   -3.5668494    191.41112  0.079754635    0.0838203            2 
  201000    1.2132904    -3.618737    190.83667  0.079119679  0.083817491            2 
  202000    1.2256061   -3.6070654     191.9923  0.079204742  0.083810405            3 
  203000    1.2286374   -3.6161453    193.49678  0.079432176  0.083802907            2 
  204000    1.2205967   -3.6212401    194.25424  0.079352221  0.083794437            2 
  205000    1.2082028    -3.612078    195.58391  0.079505656  0.083787754            2 
  206000    1.2113594   -3.6064148    195.85554  0.079229586  0.083785707            2 
  207000    1.2014366   -3.6458457     196.4259  0.079076448  0.083780557            2 
  208000    1.2072224    -3.622524    197.72556  0.079216969  0.083770165            1 
  209000    1.2338671   -3.6202577      198.888  0.079301433  0.083760153            3 
  210000     1.226271   -3.6499562    198.62167  0.078818124  0.083748275            1 
  211000    1.2234022   -3.5554633    200.25264   0.07908872  0.083736555            1 
  212000    1.2384995   -3.5898883    202.23877  0.079496373  0.083723774            2 
  213000    1.2361418   -3.6108377    203.88705  0.079768016  0.083715687            3 
  214000    1.2515759   -3.5829136    204.82828  0.079761791  0.083716404            1 
  215000    1.2388297   -3.6152547    205.52865  0.079662266  0.083713713            2 
  216000    1.2312411   -3.6356646    205.86626  0.079423711  0.083709463            1 
  217000    1.2241807   -3.6000923    206.40344  0.079263995  0.083703148            2 
  218000    1.2278074   -3.6150726    207.26964  0.079231513   0.08368931            2 
  219000    1.2249658   -3.6412481    208.48364  0.079331673  0.083678211            1 
  220000    1.2134798   -3.6122453    209.45762  0.079340008  0.083667686            1 
  221000    1.2335725   -3.6153287    211.00682  0.079565165   0.08366046            2 
  222000    1.2259223   -3.6126823    211.45927  0.079376603   0.08365393            6 
  223000    1.1709085   -3.6443377    213.03679  0.079610162  0.083645188            5 
  224000    1.2189791   -3.6455865    212.34301  0.078996654  0.083632924            2 
  225000    1.2050279   -3.6463494    214.01661  0.079265412  0.083619462            2 
  226000    1.1970115   -3.6414033    215.05704  0.079298318  0.083606514            1 
  227000    1.2052836   -3.5966588    216.87194  0.079615249  0.083595616            4 
  228000    1.2135906   -3.5926532     217.3216  0.079430408  0.083586466            2 
  229000    1.2123762   -3.6127789    217.69901  0.079220892   0.08357752            1 
  230000    1.2205506   -3.6338974     218.9351  0.079324311  0.083569599            5 
  231000    1.2289598   -3.6038829    219.51812  0.079191241  0.083552332            1 
  232000    1.2205423   -3.6349062    220.79181  0.079307402  0.083534362            1 
  233000    1.2008797   -3.6011349    222.11892  0.079441674  0.083518332            2 
  234000    1.2121963   -3.6293212     222.7377  0.079322541  0.083504208            2 
  235000     1.226652    -3.644038    222.22712  0.078803945  0.083486591            1 
  236000    1.2330345   -3.6063113    223.32618  0.078858114  0.083463212            1 
  237000    1.2035221   -3.6442869    223.57307   0.07861219   0.08343392            2 
  238000     1.221119   -3.6275586    223.82809   0.07837118  0.083400228            2 
  239000    1.2330677   -3.5974377     224.4661  0.078265724  0.083366552            2 
  240000    1.2149718   -3.5936751    227.23277  0.078900267  0.083332294            3 
  241000    1.1881046   -3.6147776    228.10768  0.078875408  0.083301042            2 
  242000    1.2163276   -3.5957774    229.07423  0.078882311  0.083272127            2 
  243000    1.2139534   -3.6436061    229.34931  0.078652027  0.083249257            1 
  244000    1.2297642   -3.6285332    230.97974  0.078886523  0.083229558            2 
  245000    1.2305938   -3.5927026    231.18833  0.078635486  0.083204366            1 
  246000    1.2171688   -3.6120683     233.1731  0.078988176  0.083176867            2 
  247000    1.2381893   -3.6223745    232.96159  0.078597029  0.083152815            3 
  248000     1.222879   -3.6262359    234.35847  0.078749484  0.083128002            3 
  249000     1.198341   -3.6211901    235.50576  0.078817188  0.083105947            4 
  250000    1.2215833   -3.6195228    235.97843  0.078659477  0.083081298            1 
  251000    1.2347337   -3.6012727    237.51239  0.078855374  0.083051462            4 
  252000    1.2314904   -3.6007672    236.91837  0.078346023  0.083024144            1 
  253000    1.2034676   -3.6684436    236.33516  0.077844256  0.082988726            1 
  254000    1.2117865   -3.6151633    238.71362  0.078318116  0.082950442            3 
  255000    1.2139478   -3.6268191    240.57266  0.078618516  0.082914962            1 
  256000    1.2112061   -3.6352808    240.47109   0.07827835  0.082880292            2 
  257000    1.1980078   -3.6362747    242.68499  0.078691631  0.082853356            1 
  258000    1.2277468   -3.6352793    243.98218  0.078805614  0.082832007            1 
  259000    1.2016381   -3.6301923    244.76581  0.078753477  0.082815002            5 
  260000    1.2164136   -3.5937168    246.43475  0.078985495  0.082795643            1 
  261000    1.2159609     -3.66249    247.18879  0.078923624  0.082776621            3 
  262000    1.2214199   -3.6514703    248.91501  0.079171442  0.082759131            4 
  263000    1.2059051   -3.6062556    249.38068  0.079017959  0.082741169            1 
  264000    1.1906285   -3.6477201    249.52965  0.078765671  0.082723572            3 
  265000    1.2245817   -3.6237183    250.31221  0.078714531  0.082697926            2 
  266000    1.2102433   -3.6067634    250.83517  0.078582446  0.082674952            2 
  267000     1.212485   -3.6205802    252.21424  0.078718551   0.08264945            1 
  268000      1.19375   -3.6366519    252.90331   0.07863909   0.08262253            3 
  269000    1.2288749   -3.6158753     254.2057  0.078750216  0.082601468            2 
  270000    1.2316815   -3.6435136    253.84974  0.078348685  0.082577279            2 
  271000    1.2041755   -3.6349136    256.20472  0.078783738  0.082555276            3 
  272000    1.1998766   -3.6289001     256.8276  0.078684926  0.082531214            2 
  273000    1.2258115   -3.6013706    258.50961  0.078910136  0.082507624            3 
  274000    1.2186297   -3.6168179    258.67582  0.078672696  0.082481719            3 
  275000    1.2083653   -3.5999887    259.37375  0.078598107  0.082457526            2 
  276000    1.2056485   -3.6360011    260.50288  0.078654251  0.082434677            2 
  277000    1.1972671   -3.6659293    262.64842  0.079015769  0.082414464            2 
  278000    1.1941924   -3.6087859    263.54979  0.079001736  0.082398157            1 
  279000    1.1991612   -3.6304797    264.71906  0.079067821  0.082381496            2 
  280000    1.2102704   -3.6294521     266.5947   0.07934366   0.08236245            1 
  281000    1.2166903   -3.6274915    267.50923  0.079332512   0.08234397            4 
  282000    1.1884836   -3.6384575    267.09413  0.078928524   0.08232623            1 
  283000    1.2167466   -3.6040818     268.0573  0.078933245  0.082309048            3 
  284000    1.1978074    -3.662571    267.98111  0.078632953  0.082287294            1 
  285000    1.2290012   -3.6664893    268.68837  0.078563851  0.082269169            3 
  286000    1.2127558   -3.6345461    270.22696  0.078737458  0.082253127            3 
  287000    1.2105685    -3.622346    271.18788  0.078742126  0.082232116            3 
  288000    1.2243127   -3.6603999    271.51575  0.078563584  0.082212877            3 
  289000    1.2084539   -3.6467173    273.61541  0.078897178  0.082194975            2 
  290000    1.2165303   -3.6625618    273.78311  0.078673309  0.082182401            2 
  291000     1.219112   -3.6607956    274.92868  0.078731007  0.082161162            7 
  292000    1.2026707    -3.641163     275.6046  0.078654282  0.082143469            1 
  293000    1.2108282   -3.6251994    277.68271  0.078976879  0.082127913            6 
  294000    1.2025568   -3.6266065    277.84879  0.078755326  0.082114234            3 
  295000    1.2145571   -3.6236665      278.621  0.078706498  0.082097506            1 
  296000    1.1906203   -3.6320922    279.60494  0.078717606  0.082079355            3 
  297000    1.2080825     -3.62701    280.46298  0.078693316  0.082058302            2 
  298000    1.1923848   -3.6310644    282.00186  0.078859581  0.082040122            2 
  299000     1.183395   -3.6167059    282.77112  0.078810234  0.082021651            2 
  300000     1.209234   -3.6319864    283.48782  0.078746615  0.082004285            2 
  301000    1.1968556   -3.6128408    284.99394  0.078901977  0.081988561            2 
  302000    1.2183135   -3.6379468    284.93565  0.078624626  0.081972975            3 
  303000    1.1813543   -3.6558976    284.87296    0.0783479  0.081956325            2 
  304000    1.2087455   -3.6326071    287.30014   0.07875552   0.08193933            3 
  305000     1.204669   -3.6451441    288.38166  0.078792802  0.081922618            2 
  306000    1.2054039   -3.6248217    288.80224  0.078649847  0.081905839            3 
  307000    1.2174518    -3.664581    290.82741  0.078943379  0.081890343            2 
  308000    1.1788349   -3.6329273    290.97617  0.078727318  0.081870255            2 
  309000    1.1979794   -3.6452686     291.4497  0.078600243  0.081851596            1 
  310000    1.1950238    -3.657615      292.723  0.078688978    0.0818349            1 
  311000    1.1835356   -3.6277617    293.16035  0.078553148  0.081817883            2 
  312000    1.1995159    -3.660681    295.13497  0.078828786  0.081802354            3 
  313000    1.1798006   -3.6269512    296.44763   0.07892642  0.081788296            3 
  314000    1.1873072   -3.6602777    297.50896  0.078956731  0.081777437            2 
  315000    1.1928242   -3.6276923    299.31291  0.079183308  0.081763945            2 
  316000    1.2100052   -3.6442523    299.37904   0.07895017  0.081752366            2 
  317000    1.1982774   -3.6364181    299.44542  0.078718565  0.081735279            1 
  318000    1.1883867   -3.6173764    300.40319   0.07872201  0.081722585            3 
  319000     1.179558   -3.6726803    300.52667  0.078507489  0.081710257            4 
  320000    1.1813219   -3.6433574    303.12204  0.078938032  0.081696043            1 
  321000    1.1996755   -3.6267274    305.11547  0.079209623  0.081683587            1 
  322000    1.2071998   -3.6571721    304.54425  0.078815801  0.081669426            2 
  323000    1.2074148   -3.6747775    303.08991  0.078196572  0.081653958            2 
  324000    1.2067441   -3.6493308    305.80963   0.07865474  0.081640159            1 
  325000    1.1923583   -3.6388494    307.70885  0.078899706   0.08162718            3 
  326000    1.1829538   -3.6746595    307.68857  0.078652496  0.081613172            1 
  327000    1.2150123   -3.6368096    309.53986  0.078883757   0.08160156            3 
  328000     1.196544   -3.6262827    310.87557  0.078982615  0.081591201            2 
  329000    1.2156425   -3.6484387    311.69257  0.078949485  0.081581421            2 
  330000    1.2071072   -3.6781558    312.59317   0.07893767  0.081570603            2 
  331000    1.2161379   -3.6230852    312.54665  0.078687475  0.081555267            2 
  332000    1.1999975   -3.6525258    313.20809  0.078616489  0.081542957            2 
  333000    1.2080797   -3.6649952    314.59406  0.078727243  0.081531561            2 
  334000    1.1869058   -3.6490782    315.91027  0.078819928  0.081520346            1 
  335000     1.178921   -3.6381579    317.19602  0.078904481  0.081509018            2 
  336000    1.2083503   -3.6381824    316.66224  0.078537263   0.08149581            1 
  337000    1.1930883   -3.6389818    318.31954   0.07871403  0.081480315            3 
  338000    1.1992407   -3.6511354    320.93843  0.079126831  0.081466807            5 
  339000    1.1759192   -3.6102159    320.96978  0.078901127  0.081452558            3 
  340000    1.1618763   -3.6295831     322.0286  0.078928579  0.081439362            2 
  341000    1.2222716   -3.6463996    322.66809  0.078853395  0.081426754            2 
  342000    1.2241015   -3.6620675    323.00447  0.078704792  0.081415106            2 
  343000    1.1853441   -3.6486725    324.21518  0.078769481  0.081402036            5 
  344000    1.2014424   -3.6547473     323.4754  0.078361288  0.081388671            3 
  345000    1.2263964   -3.6478769    327.57356  0.079124049  0.081376971            2 
  346000    1.1790904     -3.63317     327.5694  0.078894364  0.081363292            1 
  347000    1.1913101   -3.6709129    328.03414  0.078778613  0.081349503            3 
  348000    1.2075437   -3.6309835    328.91363  0.078762843  0.081333903            3 
  349000    1.2087217   -3.6147894    329.94574  0.078783606  0.081317119            1 
  350000    1.1820481   -3.6604477    329.96839  0.078563903  0.081302187            2 
  351000    1.2262422   -3.6596839     332.2125  0.078872862   0.08128679            7 
  352000    1.1972495   -3.6468662    333.01549  0.078838894  0.081272866            2 
  353000    1.1833804   -3.6373901    333.25594  0.078672319   0.08125851            1 
  354000    1.1965123   -3.6555244    334.68771  0.078787125  0.081246527            3 
  355000    1.1722396   -3.6568399    334.81287   0.07859457   0.08123294            1 
  356000    1.1846147   -3.6675331    335.95524  0.078641208   0.08122102            2 
  357000    1.1870251   -3.6218627    338.24814  0.078956149  0.081208917            2 
  358000    1.2119237   -3.6565424    337.99868  0.078677532  0.081193302            2 
  359000    1.2229505   -3.6816464    337.73816  0.078397901  0.081180456            1 
  360000    1.2035117   -3.6511732    339.69758    0.0786337  0.081166449            2 
  361000    1.1982819     -3.64186    341.84951   0.07891263  0.081155734            1 
  362000    1.1948504   -3.6297294    342.87702  0.078931173  0.081145021            2 
  363000    1.1882762   -3.6332074    342.55242  0.078639216  0.081134274            2 
  364000    1.2032512   -3.6399544    344.10066  0.078777623  0.081123735            1 
  365000    1.1831477   -3.6412974    344.90637  0.078745746  0.081113535            1 
  366000    1.2068863    -3.625763     345.1818  0.078593306  0.081102838            2 
  367000    1.1988406   -3.6366968    346.73572  0.078731999  0.081089723            3 
  368000    1.2091242   -3.6438174    347.81925  0.078763416  0.081076085            1 
  369000    1.1753831   -3.6715534     348.2947  0.078657339  0.081064371            1 
  370000    1.1973237   -3.7013345    348.66454  0.078528049  0.081053711            1 
  371000    1.2277862    -3.674686     351.2432  0.078895598  0.081042314            2 
  372000    1.1910704   -3.6574124    352.76128  0.079023583   0.08103264            2 
  373000    1.2041694   -3.6635946    354.04715  0.079099007   0.08102491            2 
  374000    1.2050189   -3.6416497    354.35106  0.078955227  0.081014925            1 
  375000    1.1756915   -3.6388047    355.39009  0.078975576  0.081008284            1 
  376000    1.2011404   -3.6629175     355.3545  0.078757646  0.080998411            2 
  377000     1.212693   -3.6623474    354.90861  0.078450179  0.080987875            2 
  378000    1.1687013   -3.6336764    357.55484  0.078826022  0.080977952            3 
  379000    1.1967389   -3.6575313    357.64807  0.078638539  0.080968579            3 
  380000    1.1742954   -3.6779211    357.89301  0.078485308  0.080954637            4 
  381000     1.197356   -3.6562769    360.95592  0.078949239  0.080943367            3 
  382000    1.1789767   -3.6632904    358.84146  0.078281295  0.080928698            1 
  383000    1.1719762   -3.6144849    359.81915  0.078289632  0.080914241            2 
  384000    1.1756111   -3.6284874    362.08529  0.078577537  0.080900568            4 
  385000     1.194784   -3.6773542    362.01442    0.0783581   0.08088557            2 
  386000    1.2117058   -3.6464063    362.97309  0.078362065   0.08086926            2 
  387000    1.2065163   -3.6436271    364.54632  0.078498345  0.080852065            1 
  388000     1.185437   -3.6695401    364.57514  0.078302221  0.080835302            1 
  389000    1.1918708   -3.6395591    367.32505  0.078690029  0.080822929            2 
  390000    1.1749967   -3.6549093     366.3139  0.078272201   0.08080951            2 
  391000    1.1890391   -3.6854006    367.58152  0.078342182  0.080794638            1 
  392000    1.1836188   -3.6556064    368.70297  0.078380732  0.080779829            1 
  393000    1.1682548   -3.6731151     369.4185  0.078333015  0.080764883            1 
  394000    1.1733776   -3.6739753    371.03216  0.078475498  0.080752233            2 
  395000    1.1891661   -3.6526192    372.40669  0.078566813  0.080741523            1 
  396000    1.1982913   -3.6583755    373.30641  0.078557746  0.080728754            1 
  397000    1.2119566   -3.6495583    375.01036  0.078717539  0.080715062            2 
  398000    1.1915675   -3.6584217    375.85889  0.078697423  0.080702842            3 
  399000     1.196737   -3.6386924    375.33485  0.078390738  0.080690265            2 
  400000    1.2109156   -3.6878072    376.15454  0.078365528  0.080676166            1 
  401000    1.1808076   -3.6723222    377.11272  0.078369226  0.080662199            1 
  402000    1.1623435    -3.672711    377.93447  0.078344625   0.08064793            2 
  403000    1.1841827    -3.638889     378.1239  0.078189392  0.080633352            3 
  404000    1.2156318   -3.6419977    378.40681  0.078054209   0.08061724            1 
  405000    1.1889368   -3.6613394    378.46335  0.077873117  0.080603076            2 
  406000    1.1798579    -3.662542    378.99061  0.077789534    0.0805854            2 
  407000    1.1950779   -3.6827716    381.63424  0.078139688  0.080568736            2 
  408000    1.2013152   -3.6552112    382.53309  0.078131758  0.080550325            2 
  409000    1.1708036   -3.6215308    385.90539  0.078627829  0.080535134            2 
  410000    1.1786515   -3.6657849    384.66596  0.078184138  0.080518803            1 
  411000    1.1834677   -3.6625608    386.36823  0.078339058  0.080504098            2 
  412000    1.1832766   -3.6420333    388.67333  0.078615156  0.080488523            3 
  413000    1.1739176   -3.6377613    389.05973  0.078502771  0.080471495            1 
  414000    1.1758282    -3.666601    386.93386  0.077885237  0.080456496            2 
  415000    1.1486362   -3.6043195    392.07097   0.07872911  0.080441078            3 
  416000    1.1859636   -3.6819868    388.53102  0.077830732  0.080426395            2 
  417000     1.186346   -3.6859515    392.08117  0.078353551  0.080411909            1 
  418000    1.1755959   -3.6924505    392.47484  0.078244585  0.080395783            2 
  419000    1.1642331   -3.7225907    391.51696  0.077867335  0.080379271            1 
  420000    1.1556299   -3.6694033    392.79368  0.077935253  0.080363937            2 
  421000    1.1665499   -3.6675724    393.37933  0.077866059  0.080349606            1 
  422000    1.1935855   -3.6938627    395.06602  0.078014616  0.080332332            3 
  423000    1.1866383   -3.6511396    395.45229  0.077906282  0.080315415            2 
  424000    1.1624455   -3.6717682    397.06224  0.078038962  0.080297588            2 
  425000     1.163123    -3.634585    395.82296  0.077612346  0.080280175            1 
  426000    1.1839371    -3.650096    397.40039   0.07773873  0.080259861            1 
  427000    1.1967349   -3.6511099    398.53065  0.077777254  0.080240219            1 
  428000     1.197587   -3.6561555    399.91408  0.077864892  0.080219238            1 
  429000    1.1750445   -3.6688444    400.01321  0.077702643  0.080197306            2 
  430000    1.1985391   -3.6589305    400.72485  0.077659854   0.08017677            1 
  431000    1.1472927    -3.664487    400.25351  0.077388537  0.080153971            2 
  432000    1.1463185   -3.6340236    403.52695  0.077840846  0.080131012            3 
  433000    1.2012381   -3.6586243     401.1213  0.077198094   0.08011168            4 
  434000    1.1809236   -3.6690131    403.78489   0.07753166  0.080091222            2 
  435000    1.1871701   -3.6850076    404.62488  0.077514344  0.080071303            3 
  436000    1.1841412   -3.6490473    407.93247  0.077968745  0.080052555            2 
  437000    1.1897229   -3.6678063    408.82489  0.077960505  0.080035518            5 
  438000    1.1583772   -3.6807151    408.44505  0.077710245  0.080018145            3 
  439000    1.2002291   -3.6551411    409.64481  0.077760973   0.08000006            1 
  440000    1.1984467   -3.6350338    410.59373  0.077763965  0.079983721            2 
  441000    1.1571135   -3.6582211    412.78118  0.078000979  0.079969107            2 
  442000    1.1836759   -3.6573712    414.07351  0.078068158  0.079954808            1 
  443000    1.1750253   -3.6795436     413.2578  0.077738487  0.079938491            2 
  444000    1.1762941    -3.639492    414.34009  0.077766533  0.079923864            1 
  445000    1.1795303   -3.6660803    414.43406  0.077609374  0.079908283            2 
  446000     1.184246   -3.6521301    416.50507  0.077822322  0.079894134            2 
  447000    1.1689342   -3.6460867     417.7266  0.077875951  0.079877215            3 
  448000    1.2106397   -3.6683854     418.0379  0.077760026  0.079862495            2 
  449000    1.1735187   -3.6584624    419.17227  0.077797378   0.07984765            1 
  450000    1.1737789   -3.6941922    418.57862   0.07751456  0.079831498            2 
  451000    1.1864759   -3.6725351    420.03466  0.077611726  0.079813975            2 
  452000    1.2078608   -3.6823905    420.47967  0.077522064  0.079796276            3 
  453000    1.1857437   -3.6451495    423.08062    0.0778294  0.079777866            5 
  454000    1.1651334   -3.6604328    423.15754  0.077672088  0.079759766            2 
  455000    1.1750327   -3.6442873    423.90722  0.077638685  0.079741834            2 
  456000    1.1625751   -3.6593206      425.418  0.077744517  0.079721373            3 
  457000    1.1780378     -3.66939    424.43917  0.077395909  0.079702764            2 
  458000    1.1678127    -3.655745    427.02564  0.077697532  0.079682902            3 
  459000    1.1549561   -3.6748612    427.02327  0.077527826  0.079664579            3 
  460000    1.1932498   -3.6421929    430.67752   0.07802129  0.079646963            3 
  461000    1.1474276   -3.6710232    429.10722  0.077568188  0.079628143            2 
  462000    1.1489385   -3.6438341     430.6166  0.077672547  0.079610093            2 
  463000    1.1747895    -3.672225    432.33389  0.077813874  0.079592733            1 
  464000    1.1911607   -3.6998154    430.21881  0.077266309  0.079574917            4 
  465000     1.165484   -3.6775679    430.34419  0.077122615  0.079557563            2 
  466000    1.1747062   -3.6841243    432.48561  0.077340059   0.07953886            1 
  467000    1.1685326   -3.7065192    432.30915  0.077142961  0.079520577            2 
  468000    1.1775998   -3.6811503    432.76492  0.077059281  0.079500288            1 
  469000    1.1560908   -3.7022725    435.76744  0.077428471  0.079479853            7 
  470000    1.1731313   -3.6812888    434.17072  0.076980624  0.079459634            3 
  471000    1.2064235   -3.6719926    437.62929  0.077429102  0.079440268            2 
  472000    1.1582333   -3.6711598    437.80035  0.077295259  0.079421355            3 
  473000    1.1782671   -3.6766733    438.22367  0.077206426  0.079401741            2 
  474000    1.1649199   -3.6813444    438.95046  0.077171318  0.079381883            1 
  475000    1.1873351   -3.6630277    438.90884   0.07700155  0.079360116            1 
  476000    1.1554794   -3.6439205    439.55328  0.076952605  0.079339221            1 
  477000    1.1704052   -3.7071167    441.24402  0.077086657  0.079318371            2 
  478000    1.2001411   -3.6768657    442.82996  0.077201875  0.079297594            1 
  479000    1.2102856   -3.6901395    443.64065  0.077181742  0.079278735            2 
  480000    1.2089696   -3.6966828    443.30566  0.076962789  0.079259381            5 
  481000     1.174333   -3.6808554    443.60969  0.076855455  0.079238606            2 
  482000    1.1658181    -3.681379    445.74997  0.077066038  0.079217399            1 
  483000    1.1243213   -3.6593059    447.12274   0.07714333  0.079197997            1 
  484000    1.1928806    -3.706634    446.72042  0.076914673  0.079179727            2 
  485000    1.1559243   -3.6877378    446.97888  0.076800496  0.079159947            3 
  486000    1.1784135     -3.67812    450.88315  0.077311925  0.079141866            2 
  487000    1.1892085   -3.6271126    453.47023  0.077595863  0.079125019            3 
  488000    1.1659708   -3.6676757    449.68801  0.076790985  0.079106271            3 
  489000    1.1738488   -3.7133544    450.73285  0.076812006  0.079086135            2 
  490000    1.1616795   -3.6852545    452.35558  0.076931221  0.079066269            2 
  491000    1.1640351   -3.6776601    453.26756  0.076929322  0.079047815            3 
  492000    1.1700516   -3.6828913    453.48608  0.076809973  0.079028471            2 
  493000    1.1748577   -3.6766749     455.9209  0.077065737  0.079010302            3 
  494000    1.1650676    -3.675643    456.19583  0.076956111  0.078992476            1 
  495000    1.1726934   -3.7020528     458.0269  0.077108906  0.078974506            3 
  496000    1.1659656    -3.644373    458.16341  0.076976379  0.078957054            2 
  497000    1.1538853   -3.6425245    459.67281  0.077074582  0.078939496            4 
  498000    1.1536761   -3.6679113     461.6672  0.077253547   0.07892242            2 
  499000    1.1657135   -3.6864214    460.84595  0.076961581  0.078904947            2 
  500000    1.1747934   -3.6443069    461.08725  0.076847875  0.078887147            3 
  501000     1.157534   -3.6651316    461.57065  0.076774892  0.078869991            3 
  502000    1.1416004   -3.7129383    462.12463  0.076713916  0.078852115            5 
  503000     1.168608    -3.668145    461.56362   0.07646846  0.078832909            4 
  504000    1.1715599   -3.7165416    463.30069  0.076603951  0.078813203            2 
  505000    1.1687973   -3.7064734    465.02245  0.076736378  0.078793887            1 
  506000    1.1419012   -3.6528934    468.02211   0.07707874  0.078775407            2 
  507000    1.2001884   -3.6587654    470.36007  0.077310991   0.07875985            2 
  508000    1.1589223   -3.6791315    469.57795  0.077030504   0.07874195            2 
  509000    1.1696707   -3.6715526    471.65489  0.077219202    0.0787255            3 
  510000    1.1677767   -3.6408554    472.14189  0.077147368  0.078709529            1 
  511000    1.1489469   -3.7368205    471.69127  0.076922908  0.078694963            2 
  512000    1.1889243   -3.6696211    473.49228  0.077065801  0.078680717            1 
  513000    1.2017729   -3.6963647    475.20316  0.077193496  0.078665837            3 
  514000    1.1666304   -3.6691076    474.80395  0.076978591  0.078651519            3 
  515000    1.1907005   -3.6789039    477.00414  0.077185136  0.078637925            1 
  516000    1.1779405   -3.6827963    479.66089  0.077464614  0.078626271            2 
  517000    1.1742255   -3.6646809    477.60521  0.076983432  0.078614066            2 
  518000    1.1778713   -3.6700495     479.8853  0.077201624  0.078600983            1 
  519000    1.1525288   -3.6764947    480.98714  0.077229792  0.078587388            3 
  520000    1.1700782   -3.6933246    480.20521  0.076955962  0.078574127            2 
  521000      1.15656   -3.6670173    482.15244  0.077119711  0.078561828            3 
  522000    1.1554022   -3.6756643    484.99713  0.077426106  0.078549994            2 
  523000    1.1769581   -3.6856422    485.24099   0.07731692  0.078537566            2 
  524000    1.1547263   -3.6987375    484.63372  0.077072793  0.078526121            2 
  525000    1.1528846   -3.6751266    487.17485  0.077329341  0.078514582            1 
  526000    1.1410443   -3.6706609     485.1722   0.07686505  0.078503042            2 
  527000     1.164245   -3.6958316    487.51378  0.077089465  0.078491456            3 
  528000    1.1497671   -3.6881325    489.98828  0.077334009  0.078478932            1 
  529000    1.1498774   -3.6955147    490.75737  0.077308974  0.078467479            1 
  530000    1.1733826   -3.6437875    492.27176  0.077401221  0.078456267            1 
  531000    1.1828496   -3.7184295    491.31564  0.077105405  0.078445863            1 
  532000    1.1496828   -3.6679243    493.55634  0.077311456  0.078435983            3 
  533000    1.1735611   -3.6664427    494.93848  0.077382501  0.078426592            1 
  534000     1.189258    -3.689676    494.50009  0.077169177  0.078416679            1 
  535000    1.1973423    -3.727705     492.2836  0.076679688  0.078405393            2 
  536000    1.1715077   -3.6887575    495.87825  0.077095499  0.078394329            2 
  537000    1.1625005   -3.7004728    497.17605  0.077153329  0.078384905            2 
  538000    1.1396773   -3.6690964    500.65893  0.077549401  0.078376337            2 
  539000    1.1580211   -3.7077186     498.9732  0.077144898   0.07836779            1 
  540000    1.2011295   -3.6849063    500.32964  0.077211364  0.078359269            3 
  541000       1.1654   -3.6873021    498.84594  0.076840102  0.078350074            1 
  542000    1.1557117   -3.6846963    501.95444  0.077176267  0.078340244            2 
  543000    1.1747156   -3.6802984     502.3848  0.077100184  0.078330112            2 
  544000    1.1568103   -3.7263611    502.89897  0.077037219  0.078321345            3 
  545000    1.1829288   -3.7116404    504.91951  0.077204818   0.07831158            2 
  546000    1.1650292   -3.7171581    504.02994  0.076927647  0.078300617            3 
  547000    1.1709407   -3.7227474    505.84329  0.077063267  0.078290282            2 
  548000    1.1649175   -3.6973675    506.24355  0.076983509  0.078280715            1 
  549000    1.1971556   -3.6953164    511.08324  0.077577906  0.078271761            1 
  550000    1.1734332   -3.7082462    509.16976  0.077146934  0.078263303            3 
  551000    1.1438405   -3.7274525    507.61229  0.076771369  0.078251485            1 
  552000    1.1907039   -3.6997146     512.1871  0.077322932  0.078241154            3 
  553000    1.1474539   -3.6904476    512.00526  0.077155705  0.078231554            2 
  554000    1.1779993   -3.7150066    511.32167  0.076913609  0.078220332            1 
  555000    1.1533414   -3.6700689    512.13483  0.076897122  0.078209258            3 
  556000    1.1685442   -3.6741563    513.98312  0.077035839  0.078198944            2 
  557000    1.1634092   -3.6809731    513.49722  0.076824838  0.078189302            4 
  558000    1.1512214   -3.6501562    518.35785   0.07741306  0.078177725            1 
  559000    1.1272865   -3.6889222    515.37974  0.076830611  0.078167234            7 
  560000    1.1572942   -3.7018032    518.17663  0.077109617  0.078156637            1 
  561000    1.1453809   -3.7161261    517.74533    0.0769081  0.078145897            2 
  562000    1.1615579   -3.7008996    517.48462  0.076732595  0.078133919            2 
  563000     1.175529   -3.6805589    518.67859   0.07677303   0.07812013            1 
  564000    1.1523266   -3.7204933    520.87647  0.076961654  0.078107369           10 
  565000    1.1535829   -3.7090416    522.34264  0.077041688  0.078095126            1 
  566000     1.143912    -3.714129    523.36399  0.077055947  0.078083406            7 
  567000    1.1598711   -3.6667491    522.89063  0.076850474  0.078072178            2 
  568000    1.1622508   -3.6470669    524.21956  0.076910146  0.078062417            2 
  569000     1.136006   -3.7239393    522.96522  0.076591274  0.078050398            1 
  570000    1.1746903   -3.6857802    523.12104  0.076479684  0.078038727            1 
  571000    1.1473468   -3.6820486    527.39203  0.076969064  0.078027101            1 
  572000    1.1389555   -3.7073879    527.62006  0.076867725  0.078013794            1 
  573000    1.1519004   -3.7020647    528.53919  0.076867246  0.078001641            3 
  574000    1.1562171   -3.6910617    528.29846  0.076698382  0.077988982            2 
  575000    1.1406254   -3.7043282     529.8818  0.076794464  0.077975976            3 
  576000    1.1589628   -3.7022681    529.17992  0.076559595  0.077964502            2 
  577000    1.1742877   -3.7121465    531.51405  0.076764016  0.077950629            3 
  578000    1.1537569   -3.6811509    532.86261  0.076825635  0.077938181            2 
  579000    1.1415614   -3.7087903    530.56625  0.076362442  0.077924333            1 
  580000    1.1734997   -3.6912951    531.72163  0.076396786  0.077909237            1 
  581000    1.1711966   -3.7031222    533.80722  0.076564432  0.077895501            2 
  582000    1.1466319   -3.7160888    531.78189  0.076142882  0.077881343            4 
  583000    1.1509246   -3.7147347    530.50852  0.075830263  0.077867104            4 
  584000     1.141204   -3.7105005    536.24653  0.076519197  0.077853707            3 
  585000    1.1513641   -3.6839162     537.1234  0.076513305  0.077840471            3 
  586000    1.1677266   -3.6671463    539.35256  0.076699738  0.077828095            1 
  587000    1.1509235   -3.6967411    538.68918  0.076474897  0.077815021            3 
  588000    1.1487835   -3.6914732    540.36203  0.076581921   0.07780359            2 
  589000      1.16011   -3.7276543    539.87406  0.076382861  0.077791424            2 
  590000    1.1711207   -3.7363779    539.07081  0.076139945  0.077777764            2 
  591000    1.1531921   -3.7183027    540.74406  0.076247047  0.077765163            2 
  592000    1.1500571     -3.70292    544.27351  0.076615078  0.077753237            2 
  593000     1.149958   -3.6871512    544.89701  0.076573498  0.077740589            2 
  594000    1.1517481   -3.7071551    543.98638  0.076316832  0.077728204            3 
  595000    1.1740054   -3.6918652    549.11821  0.076907312  0.077716411            3 
  596000    1.1578476   -3.6838068    546.64442  0.076432385  0.077703883            2 
  597000    1.1657315   -3.6804642    547.43217  0.076414318  0.077690262            1 
  598000    1.1693993   -3.6980067    548.35505  0.076415141  0.077677325            1 
  599000    1.1267991   -3.6886417    547.60692  0.076183488  0.077664274            3 
  600000     1.153655   -3.7106616    547.76537  0.076078524  0.077650313            2 
  601000    1.1438033   -3.6923663    551.01908  0.076403089   0.07763668            2 
  602000    1.1626778   -3.6905754    551.14892  0.076294147   0.07762305            2 
  603000    1.1564459   -3.7182855    553.96695  0.076557069  0.077608499            2 
  604000    1.1293739   -3.7218818    551.86558  0.076140395  0.077595143            3 
  605000    1.1606385   -3.7178165    552.56354  0.076110681  0.077581251            1 
  606000    1.1433147   -3.6743159     554.4372  0.076242739  0.077567688            2 
  607000    1.1477615   -3.7185199    555.21024  0.076223261   0.07755414            4 
  608000    1.1788645   -3.7075085     555.2807  0.076107552  0.077540475            2 
  609000    1.1595198    -3.737826    554.60586  0.075890238   0.07752702            2 
  610000     1.141184   -3.7134299    557.79118   0.07620098  0.077513449            2 
  611000    1.1581327   -3.7385431    557.34522  0.076015442  0.077499451            1 
  612000      1.18058   -3.7001407    558.88433  0.076100808  0.077485073            4 
  613000    1.1463115   -3.7040806    561.22914  0.076295425  0.077471087            3 
  614000    1.1658524    -3.690333    561.27114  0.076176865  0.077458447            2 
  615000    1.1489542   -3.6680083    562.27181  0.076188592  0.077445848            2 
  616000    1.1581096   -3.6958279    564.65215  0.076386925  0.077434412            1 
  617000    1.1596794   -3.6892745    563.68458   0.07613244  0.077422281            1 
  618000    1.1501451   -3.7013718    564.84581  0.076165832  0.077409592            1 
  619000    1.1679458   -3.7239126    563.75252    0.0758956  0.077397353            2 
  620000    1.1607662   -3.7183388    569.35239  0.076525859  0.077385148            3 
  621000    1.1365279   -3.7286734    566.17208  0.075975856  0.077373819            2 
  622000    1.1328836   -3.6906483    568.89905  0.076219057  0.077360349            3 
  623000    1.1666337   -3.7161204    568.09216  0.075988786  0.077348037            2 
  624000     1.156984   -3.7164031    569.51695  0.076057285  0.077335278            2 
  625000    1.1680968   -3.7547491    567.82899  0.075710532   0.07732241            1 
  626000     1.141943   -3.7019651    571.42041   0.07606768   0.07730954            2 
  627000    1.1684693   -3.7364609    573.24846  0.076189322  0.077296051            1 
  628000    1.1643477   -3.7160874    571.11316  0.075784655  0.077282275            2 
  629000    1.1302957   -3.7255635    573.53432  0.075984939  0.077269065            2 
  630000    1.1466638   -3.7314237    572.22783  0.075691511  0.077254886            2 
  631000    1.1504685   -3.7197022    574.10065  0.075818892  0.077241669            2 
  632000    1.1339584   -3.7056015    576.08197  0.075960176  0.077229477            5 
  633000    1.1299798   -3.6985986    577.52767  0.076030499  0.077217103            1 
  634000    1.1475102   -3.6893278    578.04149  0.075978113  0.077204837            3 
  635000    1.1570797   -3.7337206    577.81988  0.075829381  0.077192036            6 
  636000     1.150135   -3.7328664    580.34515  0.076041031  0.077179471            2 
  637000    1.1666433    -3.703749    582.52256   0.07620651  0.077167272            2 
  638000    1.1419694   -3.7106422    580.89322  0.075874246  0.077155423            1 
  639000    1.1236704   -3.6749844    583.08841  0.076041786  0.077143388            2 
  640000    1.1220682   -3.6940886     584.3932  0.076092865  0.077132084            3 
  641000      1.14904   -3.7184266    583.02651  0.075796479  0.077119692            5 
  642000    1.1601286   -3.7047515     585.4882  0.075997949  0.077105574            3 
  643000    1.1425939   -3.7085384    582.22547  0.075456904  0.077091797            3 
  644000    1.1598411   -3.7400302    585.01503  0.075700702  0.077078583            5 
  645000    1.1274716   -3.7344955    588.20718   0.07599576  0.077065706            1 
  646000     1.141661   -3.7306413    589.40815  0.076033043  0.077053213            1 
  647000    1.1521124   -3.7333475    588.48345  0.075796426  0.077041027            1 
  648000     1.128427   -3.7235828    590.76226  0.075972512  0.077029144            1 
  649000    1.1459828   -3.7273931    591.39061  0.075936133  0.077016941            2 
  650000    1.1441122   -3.7099748    593.45496   0.07608397  0.077006109            1 
  651000     1.117603   -3.7235221    597.13621  0.076438327  0.076996942            4 
  652000    1.1239591   -3.7444425    594.09285  0.075932112  0.076988107            2 
  653000    1.1423267   -3.7493046    596.10185  0.076072211  0.076978645            2 
  654000    1.1454313   -3.7246673    596.67644  0.076029108  0.076968099            2 
  655000    1.1652885   -3.7267555      596.384  0.075875827  0.076957013            3 
  656000    1.1440091   -3.7359741    598.16806  0.075986796  0.076945656            3 
  657000    1.1880871   -3.7104857    599.76838  0.076074123  0.076935781            1 
  658000    1.1400985    -3.743829    600.17841  0.076010437  0.076926255            3 
  659000    1.1730776   -3.6865532    601.76747  0.076096038  0.076916827            1 
  660000    1.1308009    -3.702293    603.80197  0.076237622  0.076908443            3 
  661000    1.1476834   -3.7298126    603.92636  0.076137967  0.076900411            2 
  662000    1.1529526   -3.6974299    605.58254  0.076231438  0.076891738            2 
  663000    1.1528652   -3.7079233    608.05053  0.076426663  0.076883376            1 
  664000    1.1632483   -3.7222808    607.30455   0.07621794  0.076874816            1 
  665000     1.123447   -3.7011329    604.32299  0.075729698   0.07686667            4 
  666000     1.143737   -3.7395398    609.86893  0.076309926  0.076858795            2 
  667000     1.148116   -3.6877898    612.52434  0.076527279  0.076850781            3 
  668000    1.1298741   -3.7228239    610.23093  0.076126613  0.076842994            1 
  669000    1.1250554   -3.7116682    612.44198  0.076288238  0.076836447            2 
  670000    1.1324484    -3.726244    611.95332  0.076113597  0.076828128            1 
  671000    1.1575299   -3.6955183    610.86489  0.075864988  0.076818733            2 
  672000    1.1376122   -3.7303624    613.67156  0.076100144  0.076809606            2 
  673000    1.1551057   -3.7278542     612.0422  0.075785315  0.076800937            1 
  674000    1.1570285    -3.718321    617.61436  0.076361815  0.076792541            3 
  675000    1.1204162   -3.7464875    616.08966  0.076060452  0.076784059            4 
  676000    1.1252847    -3.740369    615.85784  0.075919359  0.076774517            4 
  677000    1.1542218   -3.7223674     616.6968  0.075910488  0.076764968            3 
  678000    1.1713883   -3.7394752      617.185   0.07585853  0.076755553            2 
  679000    1.1561932   -3.7279327     617.4877   0.07578396  0.076745476            2 
  680000    1.1440078   -3.7192391    621.89926  0.076213144  0.076736244            1 
  681000    1.1290038   -3.7121123    622.77151  0.076207967  0.076727494            3 
  682000    1.1304856   -3.7277324    622.79157  0.076098677  0.076718998            3 
  683000    1.1399802   -3.7493873    622.48643  0.075950028  0.076710399            2 
  684000    1.1573626   -3.7258887     627.0723  0.076397697  0.076702392            2 
  685000    1.1512565   -3.7117538    626.95477   0.07627187  0.076694098            2 
  686000    1.1322852   -3.6966783    626.83631  0.076146296  0.076685299            3 
  687000     1.159612   -3.6941332    627.58802   0.07612664  0.076677805            2 
  688000    1.1293555   -3.7180047    630.12641  0.076323451  0.076671141            1 
  689000    1.1408286   -3.7419823     627.3271  0.075874105  0.076662592            5 
  690000    1.1518024   -3.7339107    630.95284  0.076202034  0.076654487            1 
  691000     1.145267   -3.7405823    630.74928  0.076067207   0.07664672            2 
  692000    1.1403337   -3.7606407    629.97845  0.075864457  0.076638979            2 
  693000    1.1309965    -3.736788    631.22237  0.075904565   0.07663017            2 
  694000    1.1207978    -3.703547    633.44866  0.076062519  0.076622043            4 
  695000    1.1476396   -3.7217615    631.85453  0.075761935  0.076614207            3 
  696000    1.1544235   -3.7243895    633.55434  0.075856602  0.076605693            3 
  697000    1.1524241   -3.7011905    634.63366  0.075876813  0.076596997            4 
  698000    1.1620298   -3.7323103    636.26865  0.075963305   0.07658834            1 
  699000     1.141238   -3.7118484    639.59847  0.076251606  0.076580939            6 
  700000    1.1307538   -3.7344476    638.72944  0.076039218   0.07657248            4 
  701000    1.1149889   -3.7333598    639.04556  0.075968326  0.076564361            2 
  702000    1.1493967   -3.7316524    640.46981  0.076029179  0.076556471            2 
  703000    1.1513513    -3.754672    635.41345  0.075321651  0.076547968            3 
  704000    1.1301201    -3.729445    639.64376  0.075715407  0.076539411            6 
  705000    1.1343876   -3.7443879    639.43115  0.075582879  0.076530656            2 
  706000    1.1440779   -3.6864078    643.37504  0.075941341  0.076521684            4 
  707000    1.1530949   -3.7167507    644.83795  0.076006359  0.076514091            3 
  708000    1.1320664   -3.7498167    643.74578  0.075770454  0.076506799            2 
  709000    1.1379511   -3.7286459    645.89159  0.075915796  0.076499505            3 
  710000    1.1269458   -3.7455194    645.69208  0.075785455   0.07649069            3 
  711000    1.1139093   -3.7383639      643.074  0.075372012  0.076481583            1 
  712000    1.1459526   -3.7505993    646.03492  0.075612701  0.076473068            2 
  713000    1.1048604   -3.7529665    649.75583  0.075941542  0.076465022            1 
  714000    1.1599445    -3.747871    649.17197  0.075767037  0.076455478            3 
  715000    1.1413917   -3.7478932    648.39591  0.075570619  0.076446568            1 
  716000     1.126736   -3.7238726    650.82113  0.075747338  0.076437785            6 
  717000    1.1251382   -3.7432928    651.02523  0.075665415  0.076428481            4 
  718000    1.1392528    -3.760302    649.50908  0.075384062   0.07641867            3 
  719000    1.1575942   -3.7416486    652.16163  0.075586652  0.076409166            3 
  720000    1.1180864   -3.7296968    654.66705  0.075771649  0.076399414            2 
  721000    1.1389635   -3.7314868    653.23624  0.075501183  0.076389275            3 
  722000    1.1356895   -3.7272049    656.61357  0.075786423   0.07637958            2 
  723000    1.1614279   -3.7234592    654.21745  0.075405423  0.076368985            2 
  724000     1.145433   -3.7346877     654.4857  0.075332148  0.076357794            2 
  725000    1.1430824   -3.7537005    659.23302  0.075773911  0.076347218            2 
  726000    1.1261633   -3.7140902    658.46366  0.075581228  0.076336817            2 
  727000    1.1173296   -3.7310029    655.60008  0.075149024  0.076326024            2 
  728000    1.1361232   -3.7294064    660.00719  0.075550273  0.076315934            2 
  729000    1.1338164   -3.7128716    658.89204  0.075319163   0.07630525            2 
  730000    1.1250193     -3.71913    657.82164  0.075093794  0.076294227            2 
  731000    1.1261616    -3.751865    659.88885  0.075226728  0.076282786            3 
  732000    1.1418714   -3.7222298    662.61736  0.075434581  0.076272168            1 
  733000    1.1527766   -3.7489693    662.58836  0.075328372   0.07626118            2 
  734000    1.1254007   -3.7332403    663.33418   0.07531042  0.076251446            2 
  735000    1.1360272   -3.7285729    666.47148   0.07556366  0.076241655            2 
  736000    1.1530798   -3.7122148    666.37282  0.075449821  0.076231319            2 
  737000    1.1282755   -3.7343372    665.68427  0.075269592  0.076221405            5 
  738000    1.1410166   -3.7368092    666.21894  0.075227974  0.076210895            1 
  739000    1.1241193   -3.7211224    668.29199  0.075359944  0.076201483            3 
  740000    1.1388279   -3.7531498    668.87294  0.075323529  0.076190996            3 
  741000    1.1512799   -3.7279849    669.72348   0.07531753  0.076180253            3 
  742000    1.1213251    -3.730389    671.68713   0.07543656  0.076169146            2 
  743000    1.1552104   -3.7239847    670.74785  0.075229682  0.076157621            2 
  744000    1.1225986   -3.7055826    674.47996  0.075546591  0.076147221            2 
  745000    1.1445312   -3.7443861    674.58394  0.075456817  0.076136937            2 
  746000     1.135372   -3.7415446    673.84017  0.075272584  0.076126499            2 
  747000    1.1415057   -3.7506381     673.6276  0.075148103  0.076115076            2 
  748000    1.1152271   -3.7488788     674.3756  0.075130971  0.076104454            2 
  749000    1.1547214   -3.7389616    676.89578  0.075311057   0.07609364            2 
  750000    1.1573503   -3.7107036    677.08452  0.075231613  0.076082957            2 
  751000    1.1507398   -3.7505345    677.32266  0.075157863  0.076071394            2 
  752000    1.1268945   -3.7486284    678.49125  0.075187417  0.076060099            2 
  753000    1.0911507    -3.724352    679.50407  0.075199654  0.076049417            2 
  754000     1.154502   -3.7521847    679.09869  0.075055116  0.076039373            1 
  755000    1.1370236   -3.7629983    683.53194  0.075445026  0.076030304            5 
  756000    1.1451239    -3.758164    683.56158  0.075348499  0.076021057            4 
  757000    1.1401358   -3.7676681    683.26255  0.075216045  0.076011596            4 
  758000    1.1392941   -3.7329515    688.02953  0.075640889  0.076002775            3 
  759000    1.1209379   -3.7124916    688.44601  0.075586957  0.075994238            5 
  760000    1.1222624   -3.7242032    689.73849  0.075629221  0.075985365            1 
  761000      1.12596   -3.7195159    688.35361  0.075378187  0.075976904            3 
  762000    1.1358109   -3.7599299    686.58084  0.075085394   0.07596672            2 
  763000    1.1273159    -3.744091    687.10573  0.075044313  0.075956757            2 
  764000    1.1263345   -3.7473114    689.62342  0.075220704  0.075946853            1 
  765000    1.0919811   -3.7450915    690.38641  0.075205491    0.0759384            2 
  766000    1.1390014   -3.7266112    691.06042  0.075180637  0.075929176            1 
  767000    1.1333626   -3.7244836    695.12339  0.075524053  0.075920474            2 
  768000    1.1437106   -3.7389033    692.06528  0.075093888   0.07591037            2 
  769000    1.1310902   -3.7710813    693.45328   0.07514665  0.075900866            3 
  770000    1.1290584   -3.7673913    692.75844  0.074973857  0.075890015            1 
  771000    1.1268431   -3.7161831    697.21998  0.075358839  0.075879566            2 
  772000     1.101404   -3.7307134    698.80365  0.075432173  0.075869936            1 
  773000    1.1374407    -3.714022    696.79757  0.075118324  0.075861071            3 
  774000    1.1180921   -3.7680734    698.11994  0.075163645  0.075852591            3 
  775000    1.1269737   -3.7511585    702.34906  0.075521405  0.075843642            1 
  776000    1.1139803   -3.7426426    702.24644  0.075413063  0.075834701            2 
  777000    1.1153753    -3.758034     700.0426  0.075079644  0.075825504            3 
  778000    1.1432492   -3.7387512    699.33492  0.074907339  0.075816635            2 
  779000     1.153935   -3.7701518    703.18801  0.075223365  0.075808389            3 
  780000     1.143348   -3.7286882    705.80922  0.075406968  0.075799708            2 
  781000    1.1378156   -3.7443765    705.15414  0.075240518  0.075791151            3 
  782000    1.1283865   -3.7506698    707.19477  0.075361762  0.075782205            3 
  783000    1.1408405   -3.7418308    709.49364  0.075510178    0.0757727            4 
  784000    1.0977211    -3.744094    708.23359  0.075279931  0.075764022            1 
  785000     1.149378   -3.7268258     709.9783  0.075369247   0.07575522            3 
  786000     1.096449   -3.7384393    711.58868  0.075444093  0.075746937            2 
  787000    1.1151927   -3.7402151    709.35847  0.075112078  0.075737958            1 
  788000    1.1222339   -3.7165765    711.35796  0.075228211  0.075728726            4 
  789000    1.1124682   -3.7046971    710.99574  0.075094607   0.07571888            4 
  790000    1.1486752   -3.7465633    714.33899  0.075352215   0.07570893            3 
  791000    1.1330555   -3.7308202    711.21553   0.07492789  0.075699422            2 
  792000    1.1109823   -3.7572534    710.38073  0.074745447  0.075689371            4 
  793000    1.1561831   -3.7463139    711.02238  0.074718619  0.075678794            3 
  794000    1.1003724   -3.7615263    710.26599  0.074545129  0.075668414            2 
  795000    1.1196692   -3.7495873    714.05591  0.074848628   0.07565672            2 
  796000    1.1311309   -3.7598592    713.81135  0.074728994   0.07564578            3 
  797000    1.1314407    -3.743841    717.40424  0.075010899  0.075635307            3 
  798000    1.0971745   -3.7442161    715.39592  0.074707177  0.075625253            3 
  799000    1.1231921   -3.7628266    717.15507  0.074797149  0.075614726            2 
  800000    1.1489671   -3.7842779     718.4238  0.074835812  0.075604401            3 
  801000    1.1313401   -3.7535573     715.7899  0.074468362  0.075593534            2 
  802000    1.1341255   -3.7711146    721.16969  0.074934506   0.07558345            4 
  803000    1.1171596   -3.7452303    723.22693  0.075054683  0.075573417            1 
  804000    1.1164905   -3.7611544     720.6156  0.074690671  0.075563148            2 
  805000    1.1360994   -3.7324635    724.34867  0.074984334  0.075553244            2 
  806000    1.1053047   -3.7712882    723.79466  0.074834021  0.075544067            3 
  807000    1.1146521   -3.7638817    728.11546   0.07518747  0.075535075            2 
  808000    1.1133603    -3.728184    729.32223  0.075218876  0.075525924            2 
  809000    1.1380387   -3.7744488      726.279  0.074812423  0.075516288            2 
  810000    1.1400065   -3.7524825    726.55461  0.074748417  0.075506039            1 
  811000    1.1302869   -3.7690651    725.44251  0.074541976  0.075495891            4 
  812000    1.1145666   -3.7529654    728.77229  0.074791902  0.075485982            2 
  813000    1.1137457   -3.7420922    731.73953  0.075004052  0.075475513            3 
  814000    1.1418346   -3.7578421    732.89331  0.075030028  0.075466137            2 
  815000    1.1074324   -3.7547742    729.29932  0.074570483  0.075457331            2 
  816000    1.1085818   -3.7711931    731.53076  0.074706982  0.075447905            4 
  817000    1.0886896   -3.7846991    734.00525  0.074867937  0.075437972            2 
  818000    1.1011289   -3.7403412    735.14373  0.074892393  0.075428742            3 
  819000     1.110695   -3.7570389    736.20551  0.074908985  0.075419667            5 
  820000     1.123204   -3.7640243    738.10382  0.075010551  0.075411113            2 
  821000    1.1288832    -3.745482     737.3756   0.07484527  0.075403356            3 
  822000    1.1266442   -3.7693081    737.13452  0.074729776  0.075394955            1 
  823000    1.1300503    -3.760178    738.87484  0.074815193  0.075386956            6 
  824000    1.1324877   -3.7484831    740.99432  0.074938745  0.075378944            3 
  825000    1.1157585   -3.7455881    742.90986    0.0750414   0.07537051            2 
  826000    1.1040393   -3.7149311    743.01117  0.074960771  0.075362331            1 
  827000    1.1168448   -3.7535512    741.70631  0.074738645  0.075354231            3 
  828000    1.1182681   -3.7260839    742.66817  0.074745186   0.07534583            2 
  829000    1.1104973   -3.7348075     747.3765  0.075128318  0.075338517            1 
  830000    1.1168608   -3.7632133    743.55783    0.0746544  0.075329942            5 
  831000    1.1548869   -3.7509534    746.86661  0.074896371  0.075321965            1 
  832000    1.1030014   -3.7414648    750.51056   0.07517133  0.075314584            3 
  833000    1.1231966   -3.7811703    746.71141  0.074701021  0.075308022            2 
  834000    1.1126076   -3.7324456    747.00874  0.074641161  0.075300812            1 
  835000     1.115842   -3.7874734    747.03665  0.074554556  0.075293173            4 
  836000    1.1262751   -3.7349478    749.86238  0.074747047  0.075285136            2 
  837000    1.1261542   -3.7755509     753.1822  0.074988272  0.075277148            2 
  838000    1.1253435   -3.7407725    755.63243  0.075142445  0.075269846            2 
  839000     1.134797   -3.7753332    752.26564  0.074718479  0.075262455            2 
  840000    1.1113578   -3.7538651    755.27146  0.074927724  0.075254475            2 
  841000    1.1221045    -3.777078    758.37805  0.075146458  0.075246644            2 
  842000    1.1195456   -3.7474345    756.54843  0.074876131   0.07523822            5 
  843000    1.1019449   -3.7558914    755.80193  0.074713516  0.075229274            2 
  844000    1.1158323   -3.7467159    753.43802  0.074391589  0.075220287            1 
  845000    1.1156844   -3.7848896     753.7855   0.07433782  0.075211115            1 
  846000    1.1076861   -3.7661031    756.49286  0.074516633  0.075201338            1 
  847000    1.0943206   -3.7889747    758.22759   0.07459933   0.07519259            5 
  848000    1.1428517    -3.749439    760.10503  0.074695856  0.075184401            1 
  849000     1.113791   -3.7568347    759.22567  0.074521561  0.075176473            1 
  850000    1.1088868     -3.74099    765.95083  0.075093219  0.075168499            1 
  851000    1.1271781    -3.789898    763.44061  0.074759166  0.075160028            3 
  852000     1.110503   -3.7608233    764.52076   0.07477707  0.075151261            2 
  853000     1.107979   -3.7630875    762.22322   0.07446495  0.075143393            1 
  854000    1.0938206   -3.7639046    763.66104  0.074518056  0.075135122            2 
  855000    1.1091291   -3.7442633    766.54919  0.074712396  0.075126625            1 
  856000    1.1229888   -3.7545842    764.90786  0.074465329   0.07511739            2 
  857000    1.1285886   -3.8034938    763.31762  0.074223806  0.075107602            3 
  858000     1.107197   -3.7958778    763.51874  0.074156832  0.075097037            2 
  859000    1.1025014   -3.7561733    768.40674  0.074544697  0.075086156            2 
  860000    1.1176276   -3.7825773    766.11747  0.074236189  0.075074994            1 
  861000    1.1150103   -3.7449296    768.20511  0.074352024  0.075064561            1 
  862000    1.1117777   -3.7710957    763.77447  0.073837439  0.075053255            2 
  863000    1.1419626   -3.7998341    765.21245  0.073890735  0.075041859            3 
  864000    1.1209158   -3.7583073    772.37992   0.07449652  0.075031258            1 
  865000    1.0925397   -3.7605632    770.81057  0.074259207  0.075020863            3 
  866000    1.1041054   -3.7492616    774.04929  0.074485113  0.075009653            2 
  867000    1.1116523    -3.825637    769.46647  0.073958715  0.074998305            2 
  868000    1.1205567   -3.7405027    772.83812  0.074197208  0.074986864            6 
  869000    1.1227294    -3.759526     774.8946  0.074309034  0.074976111            3 
  870000    1.1136903   -3.7576232     774.5391  0.074189569  0.074964524            2 
  871000    1.1055618   -3.7254464    776.50245  0.074292236  0.074953198            1 
  872000    1.0946067   -3.7985165    774.09063  0.073976551  0.074941207            1 
  873000    1.1123816   -3.7812654    771.06251  0.073602759  0.074929492            1 
  874000    1.0861265   -3.7491691    776.09558  0.073998434  0.074917461            2 
  875000    1.0659208   -3.7682182    775.61937  0.073868512  0.074905245            4 
  876000     1.125354   -3.7663878    781.84637  0.074376557  0.074893607            3 
  877000    1.1010128   -3.7418775    777.74128   0.07390168  0.074881772            4 
  878000     1.109053   -3.7939849     776.8922  0.073736921  0.074869536            2 
  879000    1.1249219   -3.7509834    778.08893  0.073766489  0.074856692            2 
  880000    1.1211873   -3.7408662    779.77566  0.073842392  0.074843529            4 
  881000    1.0931387   -3.7653137    779.72151  0.073753454  0.074830542            3 
  882000    1.1144617   -3.8005564    776.92025  0.073405163  0.074816978            3 
  883000    1.1100271   -3.7687019    779.09487  0.073527262  0.074803091            4 
  884000    1.1038164   -3.7766482    781.13946  0.073636827   0.07478882            2 
  885000    1.1138569    -3.779183    783.35735  0.073762462  0.074775209            4 
  886000    1.1099143   -3.7732094    778.68385   0.07323964  0.074761436            2 
  887000    1.1175884   -3.7628445    781.62978  0.073433839  0.074747944            6 
  888000    1.0868325   -3.7729657    781.04202  0.073295986  0.074733755            3 
  889000    1.1035202   -3.7570235    784.88843  0.073574093  0.074719627            2 
  890000    1.1000807   -3.7780214    786.22359  0.073616441  0.074706717            4 
  891000    1.1273016   -3.7794218    783.22772  0.073253622  0.074693542            2 
  892000    1.1255994   -3.7401779    789.47055  0.073754722  0.074679822            3 
  893000    1.1114253   -3.7489977    789.78447  0.073701425  0.074667262            1 
  894000    1.0983281   -3.7846766    792.51248  0.073873273  0.074654924            1 
  895000    1.1010452   -3.7555595    792.80352  0.073817832  0.074641957            4 
  896000     1.126325   -3.7737891    793.30329  0.073781928  0.074629114            2 
  897000    1.1014372   -3.7539141    790.67732  0.073455715  0.074615987            3 
  898000     1.101976   -3.7561661    795.63744   0.07383421   0.07460341            2 
  899000    1.1129132   -3.7503464    796.08826  0.073793869  0.074591326            6 
  900000    1.0863104   -3.8051343    794.42528  0.073557897    0.0745785            1 
  901000     1.134914   -3.7552619    793.16954  0.073360113  0.074565985            1 
  902000    1.1043691   -3.7659919    798.31315  0.073753986  0.074553373            2 
  903000    1.0874455    -3.759157    796.21267  0.073478467  0.074540961            3 
  904000    1.0861376   -3.7814171    796.87624  0.073458355  0.074529106            2 
  905000    1.1057971   -3.7878256    796.95659  0.073384585  0.074517041            2 
  906000    1.1056315   -3.7506207    803.61823   0.07391632  0.074505402            3 
  907000    1.1124602   -3.7550874    798.88366  0.073399821   0.07449387            2 
  908000    1.0647285   -3.7904868    802.08056  0.073612386  0.074481995            2 
  909000    1.1009095   -3.7403411     804.7098  0.073772442  0.074470821            2 
  910000    1.1268124   -3.7766055    806.49066  0.073854456  0.074459894            3 
  911000    1.1141023   -3.7741783    804.74476   0.07361368  0.074448255            1 
  912000    1.1304164   -3.7631082    804.19462  0.073482695  0.074436684            3 
  913000    1.1097869   -3.7855262    804.62739  0.073441712  0.074425279            2 
  914000     1.096349     -3.76503    807.82962   0.07365332  0.074414214            5 
  915000    1.0990848   -3.7755467    807.11562  0.073507797  0.074402929            1 
  916000    1.1021897    -3.804649    808.28468  0.073533905  0.074390912            1 
  917000     1.092131   -3.7425714     810.9448  0.073695456  0.074379698            2 
  918000    1.1090899   -3.7588251    812.82084  0.073785479  0.074367799            3 
  919000     1.088532   -3.7775797    811.47141  0.073582827  0.074357049            5 
  920000    1.0896671   -3.7691233    810.56758  0.073420976  0.074345022            2 
  921000    1.0864775   -3.7646748    814.03786  0.073655254  0.074333677            1 
  922000     1.087915   -3.7764263    813.78295  0.073552327  0.074322102            2 
  923000    1.0837601    -3.768177     814.9798  0.073580697  0.074310536            2 
  924000    1.1081395   -3.8073304    815.69323  0.073565407  0.074299171            1 
  925000    1.1150453   -3.8009274    817.55909  0.073653972  0.074288736            1 
  926000    1.0822923   -3.7871145    816.70811   0.07349785  0.074277903            2 
  927000    1.1038806     -3.79586    817.76371  0.073513458  0.074267061            2 
  928000      1.11207   -3.7748905      819.598  0.073598958  0.074257708            5 
  929000    1.1063699   -3.7640237    822.18797  0.073752061  0.074247681            2 
  930000    1.0660502   -3.8172606    821.09294  0.073574636  0.074237488            2 
  931000    1.0863548   -3.7928145    823.34257  0.073696971  0.074228127            4 
  932000    1.1019408    -3.796601    825.59576  0.073819364  0.074218332            3 
  933000    1.1138001   -3.7805087    826.05826  0.073781553  0.074209615            1 
  934000    1.0877158   -3.7800273    827.09959  0.073795467  0.074200855            2 
  935000    1.1213835   -3.7870336    828.28016  0.073821761  0.074191894            9 
  936000     1.113378   -3.7664653    829.04374  0.073810874  0.074183168            3 
  937000    1.0933783   -3.7750441    831.67491  0.073966107  0.074174979            1 
  938000    1.0892478   -3.8081857    827.48074  0.073514636  0.074165975            3 
  939000    1.0986024   -3.7672608    830.62107   0.07371504  0.074157624            2 
  940000    1.0751758   -3.7915185    833.74892  0.073913911  0.074148567            5 
  941000    1.1104777   -3.8090327    835.07018  0.073952371  0.074139854            2 
  942000    1.1015646   -3.7600701    836.91754  0.074037291  0.074132205            2 
  943000    1.0991942   -3.7965906    835.76344  0.073856791  0.074123856            3 
  944000    1.1208685   -3.7755571    836.42279  0.073836757   0.07411643            3 
  945000    1.0994312   -3.7740412    837.35215  0.073840577  0.074108885            5 
  946000    1.0817347   -3.7442621    838.46604  0.073860644  0.074101441            2 
  947000     1.075419   -3.7823958    841.59706  0.074058171  0.074093906            1 
  948000    1.0976877   -3.7613335    842.05143  0.074019992  0.074086223            2 
  949000    1.0929079   -3.7918246    839.70274  0.073735752  0.074078236            1 
  950000    1.0891612   -3.7716045     842.8627  0.073935325  0.074071185            2 
  951000    1.1109379   -3.7860826    846.05553  0.074137358  0.074064293            1 
  952000    1.0875997   -3.7993318    843.98005  0.073877806  0.074057296            2 
  953000    1.0984619   -3.7797188    845.90682  0.073968767  0.074050384            2 
  954000    1.1275492   -3.7946863    846.82251  0.073971219  0.074042997            2 
  955000    1.0828799   -3.7802533    846.45363  0.073861573  0.074036285            1 
  956000    1.0964097   -3.7690554     849.6153  0.074059911   0.07402941            2 
  957000    1.0883559   -3.7802977    854.14616   0.07437706  0.074022981            2 
  958000    1.1064587   -3.7520665     852.7122  0.074174687  0.074016573            3 
  959000    1.1071431   -3.7928862    848.66473  0.073745632  0.074010748            3 
  960000    1.1134115   -3.7664902    851.75327  0.073936916  0.074004478            2 
  961000    1.0950725    -3.790109    847.81073    0.0735181  0.073997546            3 
  962000    1.0808177   -3.7570209    854.68775    0.0740374  0.073990456            2 
  963000    1.0932058   -3.7977995    850.34429  0.073584656  0.073983724            2 
  964000    1.1080313   -3.7755647    851.95999  0.073647993  0.073976562            3 
  965000    1.0750517   -3.7688317    856.57562  0.073970261  0.073969356            1 
  966000    1.0977801   -3.7889162    854.31508  0.073698678  0.073962076            3 
  967000    1.0845791   -3.7955448    852.53976  0.073469473  0.073954931            3 
  968000     1.075975   -3.8011194    852.46924  0.073387504  0.073946693            3 
  969000    1.1050302   -3.7843418    856.48108  0.073656783  0.073939016            3 
  970000    1.0617634   -3.7882645    860.12085  0.073893544  0.073931002            3 
  971000    1.1097275   -3.7854331    861.66785   0.07395021   0.07392348            1 
  972000    1.0870323    -3.782929    862.67978  0.073960886  0.073916205            2 
  973000    1.0904038   -3.7698713      861.953  0.073822627  0.073908184            2 
  974000    1.1116514   -3.8089337    858.53173  0.073454118  0.073900577            2 
  975000    1.1227364   -3.7927502    860.64489  0.073559392  0.073891943            2 
  976000    1.0945223   -3.8213362    861.87435  0.073588999  0.073884544            4 
  977000    1.0886935   -3.7974536    863.84017  0.073681352  0.073876306            3 
  978000     1.130972   -3.7948414     861.8117  0.073433172   0.07386821            5 
  979000    1.0968545   -3.8078731    865.82269  0.073699582  0.073860091            1 
  980000    1.0893961   -3.7977536    863.18101  0.073399746  0.073851324            2 
  981000    1.0900472   -3.8024853    862.36799  0.073255861  0.073841772            3 
  982000     1.106803   -3.7832379    864.77851  0.073385821  0.073832581            4 
  983000    1.0748666   -3.7726967    865.47803  0.073370467  0.073822985            2 
  984000    1.1006328   -3.8239085    867.66435   0.07348106  0.073813636            3 
  985000    1.1214048   -3.7905147    868.10736  0.073443939  0.073804309            2 
  986000    1.0914751   -3.7817033    868.51143  0.073403603  0.073795799            2 
  987000    1.0970795   -3.8057972    866.40528  0.073151408  0.073787021            2 
  988000    1.0823731   -3.8343519    864.42689    0.0729105  0.073777511            3 
  989000    1.0937912   -3.8219379    865.44299  0.072922395  0.073767315            3 
  990000    1.1006831   -3.8214253    867.66101  0.073035439  0.073757028            1 
  991000    1.0908306   -3.8090665    869.85544  0.073146269  0.073746506            2 
  992000    1.1078219   -3.8124098    865.06225   0.07266988  0.073735414            2 
  993000    1.1043707   -3.7922277    867.12562  0.072769858  0.073724343            3 
  994000    1.0964126   -3.7951246    868.42471  0.072805559  0.073713575            3 
  995000    1.1057088   -3.7955114    871.27144  0.072970808  0.073702408            1 
  996000    1.0986917   -3.8501596    867.30078  0.072565326  0.073691035            2 
  997000    1.0882222   -3.8282023    873.04568  0.072972725  0.073680088            2 
  998000    1.1033111   -3.7860089    875.67876  0.073119469  0.073668923            2 
  999000    1.0779314   -3.7804208    870.97231  0.072653679  0.073657047            2 
 1000000    1.0937022   -3.8056458    872.59709  0.072716424  0.073645225            3 
 1001000    1.0802247   -3.7842388    874.52258  0.072804077  0.073633746            2 
 1002000    1.1087875   -3.7942802    876.22596  0.072873084  0.073622643            2 
 1003000    1.0852307   -3.8103496    879.22907   0.07304994  0.073611676            2 
 1004000    1.0925362    -3.790015    879.89097  0.073032119  0.073601264            2 
 1005000    1.1066081   -3.7887327    875.25296  0.072574873  0.073590341            2 
 1006000    1.0885356   -3.8267202     879.4851  0.072853305  0.073579546            2 
 1007000    1.1001942   -3.7769274    880.33118  0.072850975  0.073568581            2 
 1008000    1.0765518   -3.8237519     881.1628  0.072847453  0.073556947            1 
 1009000     1.106003   -3.8013392       883.17  0.072941031  0.073545422            2 
 1010000    1.0919789   -3.7974309    885.20578  0.073036781  0.073533775            2 
 1011000    1.0889439   -3.8103808    884.30467  0.072890263  0.073522213            2 
 1012000    1.1002636   -3.8051001    879.43038  0.072416862  0.073509809            1 
 1013000    1.0750976   -3.8082894    879.66885  0.072364993  0.073496766            1 
 1014000     1.104089    -3.774505     880.6496  0.072374227  0.073484231            2 
 1015000    1.0694023   -3.7918544    877.47897  0.072042608   0.07347059            5 
 1016000    1.0913661   -3.7825114    881.45267  0.072297627  0.073456765            2 
 1017000    1.0947048   -3.7989435    884.00554  0.072435721  0.073443008            2 
 1018000    1.0976804    -3.804727    882.26179  0.072221823  0.073429683            1 
 1019000     1.092048   -3.7915843    884.21451  0.072310641  0.073416175            1 
 1020000    1.1007236   -3.7964963    886.94176  0.072462562  0.073402793            3 
 1021000    1.1081671   -3.7684934    886.56995  0.072361243  0.073389593            2 
 1022000    1.0693414   -3.8145298    889.86529   0.07255914  0.073376691            4 
 1023000     1.084788   -3.7978885     890.1384  0.072510459  0.073363831            1 
 1024000    1.0936422   -3.8105018    891.42369  0.072544245  0.073350808            3 
 1025000    1.0793161   -3.7896544    895.03097  0.072766746  0.073338458            1 
 1026000    1.1037141    -3.792456    890.47141  0.072325488  0.073325994            4 
 1027000    1.0825892   -3.8185413    891.29238  0.072321679    0.0733139            9 
 1028000    1.0894857   -3.7677415    893.01614  0.072391062  0.073302227            3 
 1029000    1.0870249   -3.8189353    889.74353  0.072055679  0.073289861            3 
 1030000     1.065171   -3.8030897     893.9379  0.072325073  0.073278302            2 
 1031000    1.0729904   -3.7939343    896.99412   0.07250195  0.073266913            1 
 1032000    1.0820302   -3.8319879     896.9887  0.072431258  0.073255526            2 
 1033000     1.089699   -3.7974247    899.19228  0.072538906  0.073243383            1 
 1034000    1.0857212   -3.8349248    897.02016  0.072293694  0.073231195            3 
 1035000    1.0826143   -3.8009887    898.91834  0.072376678  0.073219717            2 
 1036000    1.0833869   -3.7731662    900.68168  0.072448655  0.073207745            2 
 1037000    1.0742286   -3.7954501    898.43579  0.072198311  0.073195372            4 
 1038000    1.0952776   -3.8196326    897.78808  0.072076756  0.073183425            3 
 1039000    1.0756492   -3.8385701    900.49947  0.072224853  0.073170337            2 
 1040000    1.0812565   -3.8046708    905.80701   0.07258069  0.073158013            4 
 1041000    1.0756096   -3.8210695    901.36027  0.072155001  0.073146645            4 
 1042000    1.1058791   -3.7956332    906.60423  0.072505136   0.07313442            3 
 1043000    1.0505844   -3.8291386    901.72148  0.072045501  0.073122154            3 
 1044000    1.0707937   -3.8045834    899.86644  0.071828419  0.073109399            5 
 1045000    1.0841246   -3.7850513    905.27534  0.072191016  0.073096742            3 
 1046000    1.0909082   -3.8256692    906.40368  0.072211893  0.073084465            3 
 1047000    1.0999161   -3.7870934    908.42998  0.072304201  0.073071929            2 
 1048000    1.0906147   -3.8022608      906.051   0.07204604  0.073059362            1 
 1049000    1.0779297   -3.7998118     907.7207  0.072110002  0.073047455            3 
 1050000    1.0656572   -3.8366202     907.2056  0.072000444  0.073035053            2 
 1051000    1.0927657   -3.7801961    909.86553  0.072142843  0.073023004            2 
 1052000    1.0727895    -3.807411    909.41736  0.072038764  0.073010538            1 
 1053000    1.1000396   -3.7876114    909.76853  0.071998143  0.072998167            2 
 1054000    1.1066338   -3.8202747    913.74989  0.072244615  0.072986366            2 
 1055000     1.084055   -3.8098774    913.20388  0.072133008  0.072974235            2 
 1056000    1.0848432    -3.800685     916.3701   0.07231456  0.072962291            3 
 1057000    1.0598893   -3.8209253    915.46543  0.072174821  0.072950482            3 
 1058000    1.0751611   -3.8305316    913.18128  0.071926692  0.072938313            1 
 1059000    1.0792942   -3.8290808    914.81986  0.071987713  0.072926092            4 
 1060000    1.0849768   -3.8197921    914.88213  0.071924696  0.072913609            3 
 1061000    1.0927914   -3.8381915    914.87397  0.071856265  0.072900708            2 
 1062000    1.0805852   -3.8039396      919.917  0.072184322   0.07288856            3 
 1063000    1.0817919    -3.817745    919.66996   0.07209705  0.072876822            1 
 1064000    1.0992313   -3.7949135    922.10139   0.07221972  0.072865019            3 
 1065000    1.0933103   -3.8222335    920.81394  0.072051169  0.072853178            4 
 1066000    1.0719641   -3.8189999    920.57278  0.071964726  0.072840783            2 
 1067000    1.0817653   -3.7982619     918.4105  0.071728405   0.07282779            3 
 1068000    1.0507851   -3.8021965    921.85485  0.071929998  0.072814111            2 
 1069000    1.0897366   -3.7717182    921.44268   0.07183058  0.072800962            1 
 1070000     1.083879   -3.8141757    920.28028  0.071672919  0.072787826            3 
 1071000    1.0636258   -3.8277659    921.87038  0.071729722  0.072774717            2 
 1072000    1.0637005   -3.8095702    930.70274  0.072349405  0.072762158            2 
 1073000     1.089926    -3.813263    927.84007  0.072059651  0.072750256            4 
 1074000    1.0572677   -3.8048845    926.14434  0.071860982  0.072737405            3 
 1075000    1.0977211   -3.8120859     926.7047  0.071837573  0.072724941            3 
 1076000    1.0818866   -3.8026583    926.94997  0.071789806  0.072712463            2 
 1077000    1.0996471   -3.8139485    929.33809   0.07190793   0.07269957            3 
 1078000    1.0650403   -3.8062546    931.81224  0.072032486  0.072687286            3 
 1079000    1.0797747    -3.841242    928.03124  0.071673713   0.07267392            4 
 1080000    1.1041392   -3.8637159    931.39597  0.071866973  0.072661483            8 
 1081000    1.0890118   -3.7761825    933.44025  0.071958083  0.072648965            3 
 1082000    1.0753492   -3.8146938    934.41529  0.071966674  0.072636636            2 
 1083000    1.0903014   -3.7901915    933.56846  0.071835062  0.072624632            5 
 1084000    1.0621699   -3.7923061     931.9068  0.071641052   0.07261253            3 
 1085000    1.0718999   -3.8310483     934.4272  0.071768602  0.072600402            3 
 1086000     1.080833   -3.8441066    931.59809  0.071485427  0.072588391            3 
 1087000    1.0713931   -3.8158539    935.90915  0.071750165  0.072575815            2 
 1088000     1.059389   -3.8189236    933.44967  0.071495839  0.072563356            3 
 1089000    1.0644717   -3.7978492    935.64046  0.071597832   0.07255144            2 
 1090000    1.0812854   -3.8049833    935.77291  0.071542271   0.07253922            4 
 1091000    1.0862904   -3.8668456    938.11792  0.071655814  0.072526832            2 
 1092000    1.0726945   -3.8419671    937.51474  0.071544165  0.072513703            1 
 1093000     1.071159   -3.8442852    937.77843  0.071498813  0.072501139            2 
 1094000    1.0766493   -3.8147448    938.15867  0.071462421   0.07248897            3 
 1095000    1.0815244   -3.8199932    943.44634  0.071799569  0.072477117            3 
 1096000    1.0573236   -3.8294332     941.0529  0.071552076  0.072465332            2 
 1097000    1.0634413   -3.8187891    945.91238     0.071856  0.072454156            4 
 1098000    1.0401511   -3.8143641    946.65888  0.071847213  0.072442918            2 
 1099000     1.099309   -3.8343347    941.19475  0.071367512  0.072431119            4 
 1100000    1.0668897   -3.7965284    947.58869  0.071787022  0.072418667            2 
 1101000    1.0761688   -3.8046838    945.26182  0.071545702  0.072406915            2 
 1102000    1.0956556   -3.8635366    943.82982  0.071372491  0.072394849            3 
 1103000     1.078251   -3.8003499    947.60959  0.071593351  0.072382632            2 
 1104000    1.0542171   -3.8027288    947.98501  0.071556839  0.072370756            3 
 1105000     1.087111    -3.843074    946.48419  0.071378898  0.072358291            1 
 1106000    1.0636642   -3.8202885    948.76704  0.071486366  0.072346143            5 
 1107000    1.0680219   -3.8057352    949.71288   0.07149299  0.072333185            2 
 1108000    1.0535649   -3.8222365    951.72278  0.071579632  0.072321684            3 
 1109000     1.078843   -3.8184497    950.25419  0.071404733  0.072309077            1 
 1110000    1.0939244   -3.8074972    955.97928  0.071770216  0.072297268            3 
 1111000    1.0622499   -3.7924979    954.05426  0.071561225  0.072284864            1 
 1112000    1.0632761   -3.8514595     952.2163  0.071359135  0.072272334            2 
 1113000    1.0604333   -3.8261702    954.41534  0.071459669  0.072260443            4 
 1114000    1.0841625   -3.8139699    955.38944   0.07146839  0.072248025            1 
 1115000    1.0369841   -3.8318867    955.16184  0.071387283   0.07223585            3 
 1116000    1.0841837   -3.8200982    962.34809  0.071859923  0.072223998            8 
 1117000    1.0580556    -3.818234    955.68741  0.071298672  0.072211443            2 
 1118000    1.0872103    -3.833435    956.92218  0.071326937  0.072198794            2 
 1119000    1.0664827    -3.832154    956.17579   0.07120761  0.072185836            5 
 1120000    1.0995462    -3.816943    958.61417  0.071325459  0.072173176            2 
 1121000    1.0883289   -3.8122607    959.08997  0.071297202   0.07216048            1 
 1122000    1.0817813    -3.841668     955.0184  0.070931254  0.072147676            3 
 1123000    1.0592968   -3.8281516    960.73153   0.07129204  0.072134483            2 
 1124000    1.0750177   -3.8062166    957.42751  0.070983653  0.072121263            2 
 1125000    1.0743078   -3.8277235    958.59498  0.071007036  0.072107561            2 
 1126000    1.0780591   -3.7943719    960.90282  0.071114774  0.072094486            1 
 1127000    1.0773138   -3.8294281    958.05342   0.07084098  0.072080694            2 
 1128000    1.0891648   -3.8256966    960.25934  0.070941145   0.07206624            1 
 1129000    1.0751816   -3.8353098    960.99462  0.070932582  0.072051983            2 
 1130000    1.0433317   -3.8092781    961.97084  0.070941802  0.072037612            3 
 1131000    1.0751018   -3.8295174    961.64619  0.070855157  0.072023529            1 
 1132000    1.0695909   -3.7965369    961.51104  0.070782615  0.072009029            4 
 1133000    1.0625457   -3.8278839    960.85967  0.070672232  0.071994977            2 
 1134000     1.039892    -3.818851    964.31726  0.070863996     0.071981            2 
 1135000    1.0884037    -3.848656    964.44304  0.070810796  0.071967159            5 
 1136000    1.0997766    -3.786625    966.87728   0.07092703  0.071953242            1 
 1137000    1.0809724   -3.8050557    963.76236   0.07063635  0.071939268            2 
 1138000    1.0680792   -3.8370139    968.23924  0.070902112  0.071925157            3 
 1139000    1.0632741   -3.8604376    966.41519  0.070706408   0.07191026            3 
 1140000     1.074688   -3.8100006    968.87755  0.070824382  0.071895625            2 
 1141000    1.0373812   -3.8249337    967.75812  0.070680552   0.07188126            2 
 1142000     1.075071   -3.8606495    968.90991  0.070702708  0.071866685            3 
 1143000    1.0491167   -3.8257696    969.62419  0.070692927  0.071851807            3 
 1144000    1.0592165    -3.843782     969.3796  0.070613316  0.071837411            3 
 1145000     1.086989   -3.8211761    968.16991  0.070463603  0.071822695            2 
 1146000     1.069492   -3.8236848    971.14113  0.070618174  0.071808662            3 
 1147000    1.0596288   -3.8247652     970.6263  0.070519202  0.071793253            2 
 1148000     1.081312   -3.8197956    974.45311  0.070735562  0.071778254            2 
 1149000    1.0501758   -3.8183198    971.69771   0.07047416  0.071763613            8 
 1150000    1.0328484   -3.8391699     972.4657  0.070468529  0.071748946            4 
 1151000    1.0703012   -3.8061011     974.0939  0.070525188  0.071733561            2 
 1152000    1.0613942   -3.8255616    975.17131  0.070541906  0.071718171            1 
 1153000    1.0451324   -3.8496956    970.15656  0.070118282  0.071702692            4 
 1154000    1.0781845   -3.8256576    976.28083  0.070499771  0.071686945            2 
 1155000    1.0691569   -3.8745183    967.95523   0.06983804  0.071671123            4 
 1156000    1.0646407   -3.8383194    976.58403  0.070399656  0.071655607            3 
 1157000    1.0799495   -3.8186065    978.77683  0.070496747  0.071640321            4 
 1158000    1.0542806    -3.841726    974.24451  0.070109709  0.071625531            2 
 1159000    1.0571528   -3.8554601    980.42601  0.070493673  0.071610253            1 
 1160000    1.0554381   -3.7937416     981.7661  0.070529174  0.071595357            4 
 1161000    1.0832643   -3.8371928    979.83654  0.070329927  0.071580721            4 
 1162000    1.0469469   -3.8368131    978.39235  0.070165831  0.071565799            3 
 1163000    1.0583339   -3.7845863    984.07418  0.070512624  0.071551684            2 
 1164000    1.0657923   -3.8177915    980.43462  0.070191482  0.071536945            4 
 1165000     1.072285   -3.8435417    983.44501  0.070346567  0.071522297            1 
 1166000    1.0589687    -3.807604    984.40863  0.070355105  0.071506874            2 
 1167000    1.0332221   -3.8022243     985.9673  0.070406119  0.071491646            4 
 1168000    1.0574675    -3.858861    983.04533  0.070137366  0.071476457            2 
 1169000    1.0696127   -3.8792393    979.13051  0.069798297  0.071460654            4 
 1170000    1.1018044   -3.8539934    982.71212   0.06999374  0.071445346            2 
 1171000    1.0503386   -3.8542483    987.80575  0.070296452   0.07143015            1 
 1172000    1.0647575   -3.8379155    986.88487  0.070170994  0.071414806            2 
 1173000    1.0574188   -3.8495257    988.42097  0.070220302  0.071399751            2 
 1174000    1.0497308   -3.8331014    987.80846  0.070117012  0.071384875            6 
 1175000    1.0604708   -3.8156169    989.76784  0.070196301  0.071370585            2 
 1176000    1.0498644   -3.8009929    994.38317   0.07046366  0.071355997            1 
 1177000    1.0584251   -3.8259272    990.84146  0.070153034  0.071341262            1 
 1178000    1.0480213   -3.8100224    991.61415  0.070148143  0.071327032            2 
 1179000    1.0720558   -3.8376867    994.75645  0.070310747  0.071313003            3 
 1180000    1.0896026    -3.853504    991.35129  0.070010685  0.071298666            2 
 1181000    1.0852339   -3.8226335    998.94448  0.070487192  0.071284502            3 
 1182000    1.0679378   -3.8478416    994.16362  0.070090498  0.071270538            1 
 1183000    1.0664395   -3.8420214    995.66741   0.07013718  0.071256023            2 
 1184000    1.0613323   -3.8261069    996.87369  0.070162844  0.071242624            2 
 1185000    1.0767349   -3.8177065    996.94606  0.070108724  0.071228527            5 
 1186000    1.0738731   -3.8563244    998.81339  0.070180817  0.071214545            2 
 1187000     1.066724   -3.8451641    998.22473  0.070080366  0.071200435            2 
 1188000    1.0806724   -3.8584665    1004.3764   0.07045289  0.071186708            3 
 1189000    1.0670782   -3.8308109    1002.3943  0.070254715  0.071173068            5 
 1190000     1.069541   -3.8466001    1002.8822  0.070229849  0.071159698            2 
 1191000    1.0696827   -3.8610151    1001.6152  0.070082226  0.071145698            4 
 1192000     1.032248   -3.8776052      1000.74  0.069962245  0.071131788            2 
 1193000    1.0269905   -3.8337768    1005.3061  0.070222558  0.071117781            2 
 1194000    1.0558959    -3.854703    1001.8201  0.069920442  0.071103834            1 
 1195000    1.0656953   -3.8376611    1004.3084  0.070035451  0.071089534            5 
 1196000    1.0603895   -3.8615655    1003.3088  0.069907249  0.071075168            2 
 1197000    1.0578764   -3.8579086    1005.7993  0.070022226  0.071060933            2 
 1198000     1.063216   -3.8564501    1003.3915  0.069796294  0.071046694            2 
 1199000    1.0587044   -3.8379868    1007.0323  0.069991127  0.071032808            2 
 1200000    1.0651392   -3.8563451    1008.3024  0.070021002  0.071019499            2 
 1201000    1.0522883   -3.8429747    1009.9739  0.070078674  0.071006372            3 
 1202000    1.0399295   -3.8155252    1017.0081   0.07050805  0.070993558            4 
 1203000    1.0267832   -3.8335877    1016.0342  0.070381974  0.070980341            3 
 1204000    1.0367282   -3.8220393    1014.7422  0.070234095  0.070967837            4 
 1205000    1.0644279   -3.8119658    1013.3167   0.07007723  0.070955169            2 
 1206000    1.0351965   -3.8649184    1012.9484  0.069993668  0.070942283            2 
 1207000    1.0957007   -3.8350912    1018.3394  0.070307886  0.070928836            2 
 1208000    1.0576198   -3.8546769    1013.1176  0.069889462  0.070915945            6 
 1209000    1.0570584   -3.8348096    1019.1652  0.070248494  0.070903052            3 
 1210000     1.047917    -3.827958    1019.8789  0.070239596  0.070889846            2 
 1211000     1.044369   -3.8267946    1016.5969  0.069955744  0.070877013            2 
 1212000    1.0717742   -3.8192762    1023.6282  0.070381475  0.070864046            2 
 1213000    1.0547613   -3.8502009    1020.7246  0.070123975  0.070851491            2 
 1214000    1.0564393   -3.8739333    1020.6171  0.070058836  0.070839043            9 
 1215000     1.055011   -3.8618117    1020.3278  0.069981328  0.070825672            3 
 1216000    1.0699151   -3.8584102    1017.3403  0.069719042  0.070812983            2 
 1217000    1.0776564   -3.8437679    1019.2408   0.06979189  0.070799368            1 
 1218000    1.0284527   -3.8748973    1021.3066  0.069875927  0.070785904            5 
 1219000    1.0500639   -3.8467483    1021.4173  0.069826173   0.07077206            1 
 1220000    1.0648222   -3.8819238    1020.8176  0.069727978  0.070758332            3 
 1221000    1.0670429   -3.8327384    1023.3209  0.069841719  0.070744553            3 
 1222000    1.0433868    -3.850364    1022.3691   0.06971966   0.07073085            3 
 1223000    1.0576754   -3.8346647    1021.3808  0.069595315   0.07071709            2 
 1224000    1.0453705    -3.875332    1026.7738  0.069905623  0.070704074            2 
 1225000    1.0607781   -3.8528881    1026.1272  0.069804571  0.070691135            3 
 1226000    1.0753997    -3.844106    1027.8134  0.069862246  0.070678286            2 
 1227000    1.0365127   -3.8335224    1027.9433  0.069814137   0.07066483            2 
 1228000    1.0361942   -3.8555352    1027.9286  0.069756282   0.07065131            5 
 1229000     1.061027   -3.8287603    1032.6938  0.070022633   0.07063762            1 
 1230000    1.0579832   -3.8268201    1036.5061  0.070223991   0.07062464            4 
 1231000    1.0534762   -3.8448996     1032.562  0.069899949   0.07061207            3 
 1232000    1.0745951   -3.8329603    1035.5069  0.070042403  0.070598966            2 
 1233000    1.0390967    -3.855546    1028.4902  0.069511368  0.070586473            2 
 1234000    1.0627513   -3.8473138    1034.0064  0.069827555  0.070573478            3 
 1235000    1.0701002   -3.8337275    1036.4912  0.069938674  0.070561089            3 
 1236000     1.037776   -3.8635456    1033.4027  0.069673863  0.070549108            2 
 1237000    1.0597449   -3.8859778    1035.6414  0.069768354  0.070536443            2 
 1238000    1.0530395   -3.8763213    1033.6629  0.069578816  0.070524048            3 
 1239000    1.0447557   -3.8589649    1037.9849  0.069813349  0.070511007            3 
 1240000    1.0450015   -3.8345528    1042.3516  0.070050511  0.070498349            2 
 1241000    1.0473268   -3.8490942    1039.2329  0.069784644  0.070486231            2 
 1242000    1.0447971   -3.8627313    1037.1099   0.06958601  0.070473344            5 
 1243000    1.0669763   -3.8693239    1038.4842  0.069622164  0.070459942            3 
 1244000    1.0361117   -3.8637966    1040.4574  0.069698377  0.070446836            1 
 1245000    1.0530737   -3.8413389    1041.0757  0.069683784  0.070434046            4 
 1246000    1.0511424   -3.8439375    1045.1581  0.069900889  0.070421198            2 
 1247000    1.0660696   -3.8842958    1037.1574  0.069310173  0.070408172            2 
 1248000    1.0854617   -3.8477319     1041.281  0.069529982  0.070395346            6 
 1249000    1.0686011   -3.8609148    1042.9179  0.069583529  0.070382351            2 
 1250000    1.0512517   -3.8305632    1044.2039  0.069613593   0.07036946            3 
 1251000    1.0880454   -3.8977615    1042.1801  0.069423134  0.070356353            3 
 1252000    1.0477239   -3.8616557    1045.4117  0.069582781  0.070343691            2 
 1253000    1.0650878   -3.8759816    1046.4333  0.069595188  0.070330207            4 
 1254000    1.0470349   -3.8559411    1044.4484  0.069407791  0.070316999            2 
 1255000    1.0427877   -3.8861505    1042.9409  0.069252381  0.070303619            2 
 1256000     1.046101   -3.8526186    1046.6411  0.069442746   0.07029048            2 
 1257000    1.0535457   -3.8097423    1050.7142  0.069657534  0.070277653            6 
 1258000    1.0746027   -3.8611202    1047.6564  0.069399605  0.070264684            5 
 1259000    1.0147469   -3.8739776    1047.5347  0.069336424  0.070251706            4 
 1260000    1.0412107   -3.8575401    1048.4066  0.069339059   0.07023909            3 
 1261000    1.0637816   -3.8718813    1048.8523  0.069313527  0.070226402            5 
 1262000     1.059521   -3.8677612    1048.5605  0.069239336  0.070213318            4 
 1263000    1.0537983   -3.8719568     1052.445  0.069440817  0.070200797            3 
 1264000    1.0227622   -3.8768284    1054.8113  0.069541882  0.070188447            2 
 1265000    1.0445251   -3.8515119    1057.9301  0.069692364  0.070175846            3 
 1266000    1.0309481   -3.8784528    1053.1908  0.069325353   0.07016358            3 
 1267000     1.048797   -3.8679868    1050.8602  0.069117352  0.070150683            2 
 1268000    1.0410061   -3.8527042    1057.2608  0.069483488  0.070138228            1 
 1269000    1.0147933   -3.8584416    1061.1669  0.069685243   0.07012621            1 
 1270000    1.0503688   -3.8769679     1057.457  0.069386944  0.070114124            3 
 1271000    1.0482948    -3.876715    1062.0123  0.069631017  0.070101905            2 
 1272000    1.0409901   -3.8800878    1059.5978  0.069418096  0.070089171            8 
 1273000    1.0521686   -3.8368646    1066.3726  0.069807054  0.070076775            1 
 1274000     1.055665   -3.8616126    1062.9343  0.069527363  0.070064222            4 
 1275000      1.03126   -3.8628098    1060.4035  0.069307417  0.070052114            2 
 1276000    1.0522036    -3.863472    1068.7232  0.069796448  0.070040089            3 
 1277000    1.0569667   -3.8771527    1063.1855  0.069380416  0.070028073            2 
 1278000     1.058819   -3.8792395    1064.6602  0.069422285  0.070015264            1 
 1279000    1.0555038   -3.8765798    1064.1745  0.069336366  0.070003375            1 
 1280000    1.0388825   -3.8209577    1065.6686  0.069379465  0.069991761            1 
 1281000     1.063016   -3.8663929     1066.709  0.069392989  0.069980131            3 
 1282000    1.0382441   -3.8836186    1068.1888  0.069435049  0.069968833            2 
 1283000    1.0676632   -3.8737915    1064.5526  0.069144755  0.069957181            2 
 1284000    1.0575013   -3.8561579    1074.0379  0.069706512  0.069945612            4 
 1285000    1.0301728   -3.8743915    1069.1459  0.069335012  0.069933485            2 
 1286000    1.0609098   -3.8890646    1066.7929  0.069128624  0.069921536            4 
 1287000    1.0489243   -3.8304932     1070.963  0.069344922  0.069909966            2 
 1288000    1.0593542   -3.8652452    1075.3462  0.069574678  0.069898459            2 
 1289000    1.0437252   -3.8953317    1074.6694  0.069476945  0.069886881            4 
 1290000    1.0470478   -3.8554091      1075.74  0.069492245  0.069875203            1 
 1291000    1.0577642   -3.8684511    1075.8045  0.069442583  0.069863751            4 
 1292000    1.0413039   -3.8627854    1073.1826  0.069219722  0.069851953            5 
 1293000    1.0496325   -3.8956773    1075.4076  0.069309589  0.069840707            1 
 1294000    1.0445363   -3.8733216    1080.7931  0.069602855  0.069829637            2 
 1295000     1.045763   -3.8237131    1080.1277   0.06950629  0.069818719            2 
 1296000    1.0221906   -3.8776086    1075.5239  0.069156629  0.069807641            4 
 1297000    1.0383621    -3.858623    1079.7847  0.069377069  0.069796644            2 
 1298000    1.0443513   -3.9007403    1076.1135  0.069087921  0.069785205            5 
 1299000    1.0443895   -3.8640968    1083.7615  0.069525374    0.0697739            2 
 1300000    1.0492785   -3.8787709    1078.7501  0.069150649  0.069762843            1 
 1301000    1.0394514   -3.8565613    1079.0465  0.069116484  0.069751483            2 
 1302000    1.0430744   -3.8702289     1082.577  0.069289364  0.069739863            2 
 1303000    1.0449297   -3.8576349    1089.2153   0.06966074  0.069728323            1 
 1304000    1.0496797   -3.8956701     1083.586  0.069247573  0.069717658            2 
 1305000    1.0577338    -3.873689    1086.4408  0.069376805  0.069705947            4 
 1306000    1.0570793   -3.8560744    1087.6139   0.06939854  0.069694812            2 
 1307000    1.0429257   -3.8721581    1084.6879  0.069158882   0.06968343            3 
 1308000    1.0317326   -3.8956094      1084.43  0.069089579  0.069671753            6 
 1309000    1.0504781   -3.8426831    1084.3994  0.069034849  0.069660267            2 
 1310000    1.0212564    -3.888062    1089.5527  0.069309967  0.069648745            1 
 1311000    1.0447231   -3.8337729    1089.7697  0.069270896  0.069637389            3 
 1312000    1.0688897   -3.8576262    1089.8325  0.069222082  0.069625854            3 
 1313000    1.0420712   -3.8777515    1093.4882  0.069401381  0.069614524            3 
 1314000    1.0105948   -3.8394009    1089.8688  0.069119027  0.069603537            2 
 1315000    1.0417557   -3.8616972    1090.9895  0.069137482  0.069592183            4 
 1316000     1.034708   -3.9136693    1090.0396  0.069024798  0.069580668            2 
 1317000    1.0287231   -3.9048477    1091.2621  0.069049739  0.069569286            2 
 1318000    1.0172236   -3.8613367     1092.408  0.069069804    0.0695579            3 
 1319000    1.0267985   -3.8689834    1094.7482  0.069165291  0.069546316            2 
 1320000    1.0820202   -3.8739827    1093.1416  0.069011462  0.069535084            2 
 1321000    1.0361193   -3.8702456    1098.5544   0.06930068  0.069523723            4 
 1322000    1.0300153   -3.8912713     1097.052  0.069153554  0.069512218            2 
 1323000    1.0654512   -3.8706692    1100.5557  0.069321978  0.069500653            4 
 1324000    1.0535571   -3.8829244    1097.0487  0.069048887  0.069489428            3 
 1325000    1.0560923   -3.8512576    1095.6348  0.068907848  0.069478022            5 
 1326000    1.0388785   -3.8863566    1098.3113   0.06902409  0.069466898            3 
 1327000    1.0501228   -3.8698179     1099.342  0.069036798  0.069455551            3 
 1328000    1.0661805   -3.9016899    1096.6417  0.068815368  0.069443827            4 
 1329000     1.046054   -3.8723523    1105.1276  0.069295685  0.069433125            2 
 1330000    1.0469626   -3.8875002    1106.4402  0.069325825  0.069421985            2 
 1331000    1.0464167   -3.9237511    1102.7435  0.069042292  0.069410346            4 
 1332000    1.0383977   -3.8806432     1100.719  0.068863804  0.069399122            4 
 1333000    1.0313758   -3.8814904    1102.0408  0.068894771   0.06938812            2 
 1334000      1.05686   -3.8589844    1105.2015  0.069040576  0.069377488            2 
 1335000    1.0403294   -3.8944696    1105.1477  0.068985498  0.069366591            1 
 1336000    1.0370367   -3.8854424    1106.4787  0.069016882  0.069355265            3 
 1337000    1.0332765   -3.8689856     1106.475  0.068965032  0.069343612            3 
 1338000    1.0373923    -3.845323    1108.3679  0.069031384  0.069332557            2 
 1339000    1.0373416   -3.8870088    1105.5405  0.068803865  0.069320884            1 
 1340000    1.0513777   -3.9046943    1106.3082  0.068800261  0.069309402            4 
 1341000    1.0305725   -3.8687017    1109.3275  0.068936582  0.069297992            4 
 1342000    1.0486756    -3.869643    1110.1343  0.068935313  0.069286442            2 
 1343000    1.0485009   -3.8877023    1109.5479  0.068847597  0.069274586            2 
 1344000    1.0230696   -3.8654486     1113.676  0.069052331  0.069263146            6 
 1345000    1.0313362   -3.8731134    1107.1835  0.068598731  0.069251542            2 
 1346000    1.0438721   -3.8678354    1105.7556  0.068459361  0.069239912            2 
 1347000    1.0509218   -3.8727083    1106.3353  0.068444402  0.069228159            3 
 1348000    1.0412853   -3.8930445    1108.0279  0.068498264  0.069216327            2 
 1349000    1.0491342   -3.8894914    1111.6026  0.068668313  0.069204512            2 
 1350000    1.0429777   -3.8710404     1112.203  0.068654504  0.069192634            3 
 1351000     1.041619   -3.8863564    1109.7039  0.068449535  0.069180395            2 
 1352000    1.0405961   -3.9021704    1116.1727  0.068797626    0.0691686            2 
 1353000    1.0542001   -3.9036168    1114.7835  0.068661215  0.069156678            3 
 1354000    1.0424273   -3.8848051     1113.506  0.068531884  0.069144875            3 
 1355000    1.0103898   -3.8845673    1108.7485  0.068188714  0.069132751            1 
 1356000    1.0378386   -3.8755374    1114.4383  0.068488094  0.069120325            2 
 1357000    1.0518438   -3.8882623     1114.042  0.068413291  0.069107638            2 
 1358000    1.0150498   -3.8971199    1117.1413  0.068553101  0.069095052            3 
 1359000    1.0637572   -3.8896426    1114.1667  0.068320254  0.069082499            4 
 1360000    1.0236383   -3.8684472    1117.5109  0.068474931  0.069069952            3 
 1361000    1.0418025   -3.8694156    1119.7544  0.068561989  0.069057553            2 
 1362000    1.0340514   -3.8844444    1119.1437  0.068474281  0.069045172            3 
 1363000    1.0645868   -3.8971007    1114.5997  0.068146227  0.069033106            3 
 1364000     1.033328   -3.9016169    1119.3831  0.068388507  0.069020519            3 
 1365000    1.0441292   -3.9031563    1117.3652  0.068215214  0.069007968            4 
 1366000    1.0233413   -3.8859812    1121.4982  0.068417409  0.068995624            2 
 1367000    1.0460356   -3.8646502    1123.4323  0.068485267  0.068983039            1 
 1368000     1.049707   -3.8534655    1122.0655  0.068351941  0.068970518            2 
 1369000    1.0413993   -3.8715225    1118.4158  0.068079853  0.068957701            1 
 1370000    1.0535193   -3.8797823    1122.3009  0.068266479  0.068944897            1 
 1371000    1.0490186   -3.9054767    1120.3782  0.068099819   0.06893194            3 
 1372000    1.0091837   -3.9257257    1117.1941  0.067856784   0.06891884            5 
 1373000    1.0275201   -3.9084691    1123.3491  0.068180938  0.068905963            4 
 1374000    1.0439244   -3.8838434    1129.8801  0.068527423  0.068893608            3 
 1375000     1.036054   -3.8648304    1127.7975  0.068351364  0.068881232            2 
 1376000    1.0388898   -3.8938396    1127.8077  0.068302304  0.068868618            4 
 1377000    1.0410691   -3.8941907    1127.5472  0.068236938  0.068856647            5 
 1378000    1.0330484   -3.9030133    1127.8722  0.068207076  0.068844738            2 
 1379000     1.038353   -3.8976623    1123.0812  0.067868091  0.068832687            1 
 1380000    1.0361818   -3.9181679     1129.257  0.068191848  0.068820619            2 
 1381000    1.0302507   -3.8846317    1132.0532  0.068311199  0.068808505            3 
 1382000    1.0522739   -3.9247784    1128.6676   0.06805762  0.068796706            1 
 1383000    1.0542115    -3.890209    1133.5025  0.068299744  0.068784989            3 
 1384000    1.0427226   -3.8713842     1136.821  0.068450208  0.068773478            3 
 1385000    1.0197057   -3.8828265    1137.9403  0.068468126  0.068761891            2 
 1386000   0.99770761   -3.8694027     1135.235   0.06825607  0.068750257            3 
 1387000    1.0265946   -3.8844557     1136.152  0.068261959  0.068738074            3 
 1388000    1.0476932   -3.8788487    1134.4864  0.068112778  0.068726469            3 
 1389000    1.0359104   -3.8870021    1139.9925   0.06839408  0.068714684            3 
 1390000    1.0407463    -3.848177      1141.02  0.068406472    0.0687038            2 
 1391000     1.058022   -3.8903176     1141.138  0.068364369  0.068692445            3 
 1392000    1.0321394   -3.8839423     1140.039  0.068249462  0.068680825            2 
 1393000    1.0383536   -3.9166995    1142.7118  0.068360364  0.068669251            3 
 1394000    1.0277095   -3.8473682    1144.1064  0.068394689  0.068657598            4 
 1395000    1.0250478   -3.8696823    1143.9275  0.068334976   0.06864609            2 
 1396000    1.0432312   -3.8798641    1143.4018  0.068254645     0.068635            2 
 1397000    1.0326647   -3.8962922    1139.8705  0.067995139  0.068623863            1 
 1398000    1.0147817   -3.8755229    1145.4807  0.068280916  0.068612263            2 
 1399000    1.0130812   -3.8964162    1143.4759  0.068112695  0.068600573            2 
 1400000    1.0188079   -3.9074737    1143.0986  0.068041581  0.068588972            3 
 1401000    1.0364768   -3.8872307    1143.5075  0.068017339  0.068577352            3 
 1402000    1.0155639   -3.8799148    1150.8382  0.068404553  0.068565871            2 
 1403000    1.0268403   -3.8965981    1143.1473  0.067898986  0.068553878            2 
 1404000    1.0228162    -3.925283    1144.5306  0.067932726  0.068542001            2 
 1405000    1.0291913   -3.8862795    1151.1747  0.068278454  0.068530084            3 
 1406000    1.0185856   -3.9033249    1147.6407  0.068020431  0.068518475            3 
 1407000    1.0258913    -3.901996    1149.8781  0.068104602  0.068506731            5 
 1408000    1.0242537   -3.8594506     1148.972  0.068002606  0.068495223            2 
 1409000    1.0219529   -3.9037698    1152.6361  0.068171049  0.068483747            4 
 1410000    1.0198383   -3.9171127    1152.4543  0.068111954  0.068472128            2 
 1411000    1.0056213   -3.8811255    1155.2063  0.068226217  0.068460442            2 
 1412000    1.0290757   -3.9139134    1149.7474  0.067855724  0.068448617            2 
 1413000    1.0184585   -3.8874351    1151.9454  0.067937333  0.068437017            4 
 1414000    1.0107577   -3.9231353    1150.1942  0.067786078  0.068425432            2 
 1415000    1.0283189   -3.9080486    1154.5815  0.067996556   0.06841372            2 
 1416000    1.0233725   -3.8889032    1151.9138  0.067791538  0.068401638            2 
 1417000   0.99953673   -3.8608964    1155.7569  0.067969709  0.068389872            3 
 1418000    1.0169088   -3.8840444    1159.1485  0.068121091  0.068378303            2 
 1419000    1.0222903   -3.8985712    1155.6872  0.067869814  0.068366288            4 
 1420000   0.99332567   -3.8950833      1154.35  0.067743546  0.068354511            5 
 1421000     1.020256   -3.9291215    1153.5798  0.067650704   0.06834219            2 
 1422000    1.0419445   -3.8821179    1159.8769  0.067972157  0.068330667            3 
 1423000    1.0237947   -3.9038081    1155.2304  0.067652284  0.068319179            2 
 1424000    1.0301401   -3.9452856    1153.3425  0.067494295  0.068307088            3 
 1425000     1.023163   -3.9157862    1156.8787  0.067653724  0.068294837            2 
 1426000    1.0193376   -3.8888072    1159.7395  0.067773465  0.068282476            3 
 1427000    1.0189883   -3.8934106    1159.0011  0.067682848  0.068270051            4 
 1428000    1.0167031   -3.9224133    1156.8676  0.067510946   0.06825814            2 
 1429000    1.0282786   -3.9208428    1161.2126  0.067717088  0.068245691            4 
 1430000    1.0105562   -3.9015749    1160.6827  0.067638851  0.068233227            1 
 1431000   0.99542352   -3.9200199    1164.5147   0.06781474  0.068220986            2 
 1432000     1.043656   -3.9318201    1161.8893  0.067614603  0.068208429            3 
 1433000    1.0507965    -3.882449    1163.5643   0.06766482  0.068196284            4 
 1434000    1.0181794   -3.9051104    1163.8482  0.067634138  0.068183691            3 
 1435000    1.0223441   -3.8999582    1160.5187  0.067393651  0.068171473            2 
 1436000    1.0216046   -3.8929484    1165.8678  0.067657137  0.068158954            2 
 1437000    1.0313169   -3.9214593    1167.8084  0.067722596  0.068146499            5 
 1438000    1.0205162    -3.899408    1167.0915  0.067633955  0.068134095            2 
 1439000    1.0150683   -3.9057546    1166.9922    0.0675812  0.068121754            3 
 1440000    1.0318734   -3.9218165    1162.8374  0.067293828  0.068109244            1 
 1441000    1.0338953   -3.9301782     1167.066  0.067491674  0.068096811            2 
 1442000    1.0212286   -3.9260936    1169.0792  0.067561212  0.068084761            2 
 1443000      1.02891   -3.9250601    1168.4699  0.067479202  0.068072644            7 
 1444000    1.0235851   -3.9381842    1167.1731  0.067357635   0.06806018            1 
 1445000    1.0371937   -3.9081358    1167.2109  0.067313199  0.068047972            2 
 1446000    1.0577341   -3.9102134    1168.1628  0.067321507  0.068035797            2 
 1447000   0.99430202   -3.9269353     1167.783  0.067253109  0.068023485            2 
 1448000    0.9969975   -3.9028241    1171.3113  0.067409721  0.068010944            2 
 1449000    1.0515045   -3.9098748    1174.6736  0.067556569  0.067998577            2 
 1450000    1.0106877   -3.9039337    1174.2484  0.067485543   0.06798617            4 
 1451000    1.0211711   -3.9007065    1175.2108  0.067494306  0.067973494            4 
 1452000    1.0211554   -3.9217085    1171.9966   0.06726335  0.067961187            2 
 1453000    1.0163892   -3.8859595    1172.4867  0.067245165  0.067949138            5 
 1454000     1.045886   -3.9436039    1173.4288  0.067252913  0.067936749            4 
 1455000    1.0185931   -3.9288617    1172.0624  0.067128433  0.067924234            7 
 1456000    1.0326194   -3.9143131    1176.2586  0.067322493  0.067911955            6 
 1457000    1.0209208   -3.8859484    1180.2757  0.067506043  0.067899889            2 
 1458000    1.0311108   -3.8530171    1181.1544  0.067509967  0.067887783            4 
 1459000    1.0132427   -3.9262664     1175.562  0.067144279  0.067875341            6 
 1460000    1.0370718   -3.9084604    1178.6168  0.067272646  0.067862742            4 
 1461000    1.0301822   -3.9385958    1177.3535  0.067154546  0.067850515            1 
 1462000   0.99395009   -3.9031539    1179.1173  0.067209147  0.067838285            2 
 1463000    1.0201132   -3.9210347    1178.7546  0.067142549  0.067825749            4 
 1464000    1.0141373   -3.9014832    1183.4582  0.067364426  0.067813101            2 
 1465000    1.0137555   -3.9502914     1173.639  0.066759896  0.067800268            2 
 1466000    1.0158502   -3.8907971    1182.1163  0.067196241   0.06778778            3 
 1467000    1.0393093   -3.9454427    1179.1096   0.06697964  0.067775045            4 
 1468000     1.012918   -3.9105394    1181.6627  0.067078948  0.067762251            2 
 1469000    1.0142047   -3.9209308    1181.9657  0.067050469  0.067749554            2 
 1470000     1.034043   -3.9179496    1182.0705  0.067010799   0.06773717            2 
 1471000    1.0232428   -3.9670175    1185.4108  0.067154475  0.067724569            2 
 1472000   0.99831941   -3.8950008    1187.1225   0.06720576  0.067712431            5 
 1473000   0.99469729   -3.9305862    1183.1809  0.066937142  0.067700008            2 
 1474000    1.0219156   -3.9044298    1186.7669  0.067094465   0.06768778            3 
 1475000    1.0019946   -3.9185977    1191.3434  0.067307536  0.067675552            1 
 1476000    1.0108401   -3.9343091    1187.8933  0.067067146   0.06766331            6 
 1477000   0.99928736   -3.9320428     1184.339  0.066821201  0.067651042            9 
 1478000    1.0319058   -3.8885549    1190.9691  0.067149812  0.067638969            2 
 1479000    1.0313779   -3.9269917    1185.9338  0.066820703  0.067626788            6 
 1480000   0.99687164   -3.8844926    1196.2642  0.067357218  0.067614661            2 
 1481000    1.0137548   -3.9439067    1189.9407  0.066955926  0.067602335            4 
 1482000    1.0155844   -3.9274587     1188.216  0.066813765  0.067590229            4 
 1483000    1.0223142   -3.8975881    1190.5791  0.066901498  0.067578092            5 
 1484000    1.0234167    -3.903318     1193.137  0.067000056  0.067566067            5 
 1485000    1.0112457    -3.923161    1195.0374   0.06706158  0.067554126            2 
 1486000    1.0127819   -3.8990613    1199.4071  0.067261503  0.067542323            2 
 1487000   0.99748729   -3.9158357    1194.7521  0.066955399   0.06753027            2 
 1488000   0.99899275   -3.9347736    1199.0427  0.067150688  0.067518573            3 
 1489000    1.0174017   -3.9088738    1195.6374  0.066915009  0.067506403            2 
 1490000    1.0251614   -3.9217784    1198.2891  0.067018407  0.067494144            2 
 1491000   0.99293322   -3.9221289    1195.7246  0.066830124  0.067482181           12 
 1492000    1.0068791   -3.8833335    1203.3815  0.067212999  0.067470328            2 
 1493000    1.0207362   -3.8990274    1203.3327  0.067165256  0.067458773            2 
 1494000    1.0270311   -3.9582683    1201.0593  0.066993493  0.067447018            3 
 1495000    1.0104133   -3.9259972    1203.2208  0.067069162  0.067434951            2 
 1496000     1.002201   -3.9302082    1201.7192  0.066940686  0.067422982            2 
 1497000   0.99927399   -3.8908989    1206.6565  0.067170817  0.067410901            2 
 1498000    1.0020178   -3.9162589    1203.4927  0.066949975  0.067398879            5 
 1499000    1.0108009   -3.9346528    1200.4736  0.066737469  0.067386916            2 
 1500000   0.99857387   -3.9421421     1207.655  0.067091943  0.067375024            2 
 1501000    1.0127972   -3.9155772     1205.725  0.066940094  0.067363356            9 
 1502000   0.97980603   -3.9575499    1201.8788  0.066682133  0.067351342            3 
 1503000    1.0251809   -3.9338135    1203.0759  0.066704143  0.067339596            8 
 1504000    1.0400754   -3.9260099    1208.5281  0.066961885  0.067327988            4 
 1505000    1.0070316   -3.9464052    1209.7627  0.066985751  0.067316597            2 
 1506000    1.0293745   -3.9001435    1207.6542    0.0668246  0.067305009            4 
 1507000   0.98650666   -3.9326947     1210.338  0.066928665  0.067293544            4 
 1508000    1.0238346   -3.9511392    1217.6946  0.067290814  0.067281949            6 
 1509000    1.0076503   -3.9262729    1213.9026  0.067036815  0.067270481            3 
 1510000   0.99872435   -3.9319211    1213.0312  0.066944327  0.067258937            5 
 1511000   0.99998547   -3.9287915    1214.3361   0.06697199  0.067247348            2 
 1512000    1.0184569   -3.9382116    1208.8273  0.066624078  0.067236223            2 
 1513000    1.0269124   -3.9167151    1213.6285  0.066844488  0.067225001            3 
 1514000    1.0053855   -3.9074769    1215.5399  0.066905542  0.067213934            4 
 1515000    1.0057014    -3.904707    1220.0443  0.067109147  0.067202998            3 
 1516000     1.006545   -3.9137468    1213.6233  0.066711922  0.067191646            4 
 1517000    1.0101878   -3.9336601    1217.4876  0.066880224  0.067180354            3 
 1518000   0.97800917   -3.9079415    1222.7132  0.067123032  0.067169182            2 
 1519000    1.0033112   -3.9262954    1218.0101  0.066820833  0.067158261            2 
 1520000    1.0304475   -3.9583843    1218.2576  0.066790436  0.067146909            4 
 1521000   0.99884577   -3.9066115    1217.2522  0.066691443  0.067135512            5 
 1522000    1.0137616   -3.9076829    1218.9067   0.06673821  0.067124307            8 
 1523000   0.99656268   -3.9217596    1224.3307  0.066991172  0.067112704            2 
 1524000    1.0116067   -3.9078033     1223.729  0.066914313  0.067101201            2 
 1525000   0.99812046   -3.9435704    1219.5854  0.066644011  0.067090209            2 
 1526000   0.99808292   -3.9311946    1222.3398  0.066750755  0.067078539            1 
 1527000    1.0012691   -3.9080319    1223.5158  0.066771218  0.067067048            7 
 1528000    1.0101388   -3.9806291    1220.0049  0.066536046   0.06705558            2 
 1529000    1.0198418   -3.9324389    1220.9142  0.066542087  0.067044011            5 
 1530000    1.0004913   -3.9351459    1225.0362  0.066723103  0.067032529            9 
 1531000    1.0015682   -3.9451629    1226.0981  0.066737324  0.067021209            3 
 1532000    1.0076924   -3.9334522     1223.122  0.066531874  0.067009887            2 
 1533000   0.97759906   -3.9478283     1228.657  0.066789358  0.066998459            2 
 1534000   0.99956156   -3.9237748    1225.5882  0.066579108  0.066987281            4 
 1535000   0.98636549   -3.9223726    1233.8929  0.066986584  0.066976178            1 
 1536000    1.0195693   -3.9319092    1230.3358  0.066749988  0.066964969            9 
 1537000   0.99445555   -3.9443025    1232.1186  0.066803219  0.066954044            2 
 1538000    1.0002314   -3.9325074    1228.6459  0.066571623  0.066942734            5 
 1539000    1.0094625   -3.9462255    1231.8029   0.06669931  0.066931751            2 
 1540000     1.020178    -3.929855    1230.0345  0.066560308  0.066920593            3 
 1541000    1.0052782   -3.9057624    1235.4597  0.066810496  0.066909629            3 
 1542000    1.0018415   -3.9361457    1231.5835  0.066557692  0.066898564            3 
 1543000   0.98462529   -3.9540655     1234.571  0.066675903  0.066887632            3 
 1544000    1.0044376   -3.9521781    1231.4034  0.066461755   0.06687661            3 
 1545000    1.0142531   -3.8941654    1235.0207  0.066613844  0.066865033            3 
 1546000    1.0083207   -3.9329067    1234.6363  0.066550036  0.066853786            3 
 1547000    1.0189814   -3.9154039    1235.1361   0.06653394  0.066842617            2 
 1548000   0.98416944   -3.9248207     1235.257  0.066497472  0.066831758            3 
 1549000     1.008437   -3.9611624     1237.988  0.066601463  0.066820637            8 
 1550000   0.98878425   -3.9359617    1235.7128  0.066436174  0.066809506            3 
 1551000    1.0153998   -3.9327557    1238.1498  0.066524276  0.066798378            6 
 1552000    1.0072568   -3.9322121    1243.9626  0.066793524   0.06678763            2 
 1553000    1.0204888   -3.9010408    1245.9456  0.066856924  0.066776763            3 
 1554000   0.99155371   -3.9496216    1240.9538  0.066546215  0.066765438            5 
 1555000    1.0030001   -3.9324182     1240.836  0.066497108  0.066754857            3 
 1556000   0.99635967    -3.896419    1241.9164  0.066512234  0.066743999            2 
 1557000   0.98767284   -3.9163923     1240.975  0.066419128  0.066733355            2 
 1558000   0.98555277   -3.9474204    1246.3817  0.066665687  0.066722598            3 
 1559000   0.97835822   -3.9386783    1244.2121  0.066506952  0.066711377            2 
 1560000    1.0088045   -3.9245539    1246.2406  0.066572684  0.066700343            2 
 1561000   0.99668301    -3.922862    1242.5127   0.06633102  0.066689044            2 
 1562000    1.0019455   -3.9730324    1243.9894  0.066367341   0.06667797            3 
 1563000    1.0025834    -3.940999    1243.3015    0.0662882  0.066666722            2 
 1564000    1.0187097    -3.895459    1245.6604  0.066371506  0.066655621            3 
 1565000    1.0000039   -3.9520117    1241.6332  0.066114654  0.066644031            3 
 1566000   0.99549917   -3.9370045    1253.4069  0.066698964  0.066632843            2 
 1567000    1.0093818   -3.9633712    1244.7511  0.066196079   0.06662149            2 
 1568000    1.0250898   -3.9178873    1248.7032    0.0663639  0.066610253            2 
 1569000    1.0150935   -3.9167876    1248.1792  0.066293773  0.066599269            4 
 1570000    1.0231436   -3.9264086    1252.4602  0.066478778  0.066588485            4 
 1571000   0.98874891   -3.9680736    1251.1434  0.066366612  0.066577374            2 
 1572000   0.99837215   -3.9589195    1251.4253  0.066339337  0.066566163            2 
 1573000   0.99667682   -3.9092935    1257.7252  0.066630917  0.066555437            4 
 1574000    0.9860787     -3.93342    1252.8329  0.066329571  0.066544557            2 
 1575000    1.0016204   -3.9566844    1253.8815  0.066342937  0.066533797            2 
 1576000   0.98779297    -3.947497    1254.4136  0.066328974  0.066522895            3 
 1577000   0.99519046   -3.9213301    1253.5607  0.066241846  0.066512009            2 
 1578000    1.0157183   -3.9596819    1257.2865  0.066396625  0.066501088            3 
 1579000    1.0005101   -3.9406579    1253.9307  0.066177468  0.066489861            3 
 1580000   0.99594807   -3.9411843    1252.7145  0.066071438  0.066478294            5 
 1581000    1.0056147   -3.9043355    1253.1089  0.066050436  0.066467262            3 
 1582000    1.0058617   -3.9257951    1257.9777  0.066265155  0.066456116            3 
 1583000   0.99619803   -3.9345834    1255.4381  0.066089604  0.066444643            1 
 1584000   0.97638041   -3.9402622    1256.4531  0.066101278  0.066432986            4 
 1585000   0.98780271   -3.9362064    1251.5402  0.065801274  0.066421359            2 
 1586000    0.9960809    -3.959697    1254.3596  0.065907921  0.066409851            2 
 1587000    1.0141509   -3.9451191    1254.5717  0.065877533   0.06639839            4 
 1588000   0.98954321   -3.9379007     1264.676  0.066366287  0.066387109            1 
 1589000    1.0097145   -3.9433424    1256.5373  0.065897697  0.066375773            3 
 1590000   0.96490633   -3.9586149    1261.7752  0.066130774  0.066364222            2 
 1591000    1.0068617   -3.9732486     1262.538  0.066129163  0.066352737            3 
 1592000    1.0116062    -3.912823     1262.889  0.066106001  0.066341248            4 
 1593000    1.0112671   -3.9330913    1261.5019  0.065991937  0.066330146            3 
 1594000    1.0186647   -3.9459396    1267.8525  0.066282541  0.066318779            2 
 1595000   0.99785778   -3.9666511    1259.0173  0.065779378  0.066307508            3 
 1596000   0.99006613   -3.9464846    1265.4152  0.066072222  0.066295848            3 
 1597000    1.0220483   -3.9331908    1259.8502  0.065740462  0.066284735            5 
 1598000   0.98841925   -3.9338875    1267.8806  0.066118093  0.066273306            3 
 1599000   0.97907012   -3.9524199    1268.1907  0.066092906  0.066262155            2 
 1600000    1.0110961   -3.9567151    1268.8437  0.066085611  0.066250898            3 
 1601000   0.99327958   -3.9496151    1270.4841  0.066129717  0.066239238            3 
 1602000    0.9815516   -3.9168858    1264.3703  0.065770405  0.066227912            3 
 1603000   0.99571183   -3.9319378    1273.5567   0.06620694  0.066216533            3 
 1604000    0.9886038   -3.9157824    1272.3579  0.066103381  0.066205264            2 
 1605000    0.9717281   -3.9532635    1266.5886   0.06576265  0.066193852            3 
 1606000   0.99715987   -3.9410621    1264.0405  0.065589481  0.066182338            1 
 1607000    0.9909331   -3.9559257    1269.4935  0.065831442  0.066170585            2 
 1608000     1.008264   -3.9616267    1267.7872  0.065702074  0.066158667            3 
 1609000   0.98580286   -3.9517212     1271.881  0.065873266  0.066147019            2 
 1610000   0.97712782    -3.983467     1270.812  0.065777018  0.066135293            5 
 1611000   0.99817665   -3.9493893    1265.1016  0.065440805  0.066123328            3 
 1612000    1.0001499   -3.9505679    1270.2496  0.065666335  0.066111245            3 
 1613000   0.98066362   -3.9512707    1268.8128  0.065551393   0.06609903            3 
 1614000   0.99647676   -3.9396943    1269.9212  0.065568012  0.066086847            2 
 1615000   0.99577993   -3.9333155    1276.0081   0.06584149  0.066074754            2 
 1616000   0.99518125   -3.9329843    1268.1382  0.065394914  0.066062758            5 
 1617000    0.9811156   -3.9384954    1274.8494  0.065700342  0.066050743            2 
 1618000   0.98627036   -3.9470461    1269.9954  0.065409732  0.066038737            2 
 1619000   0.99001484   -3.9451695    1269.7592  0.065357173  0.066026356            3 
 1620000   0.99776573   -3.9655438    1270.6058  0.065360382  0.066014224            5 
 1621000    0.9946865   -3.9695167    1272.9441  0.065440271  0.066001787            1 
 1622000   0.99251556    -3.984329    1269.5991  0.065228065  0.065989198            8 
 1623000   0.97195145    -3.911325    1274.2093  0.065424587  0.065976987            2 
 1624000   0.97518131   -3.9698969    1274.7201  0.065410516  0.065964323            3 
 1625000   0.98303767    -3.944028    1275.4837  0.065409421  0.065951767            3 
 1626000   0.98991544   -3.9566519    1277.6823  0.065481874  0.065939311            4 
 1627000    0.9769524   -3.9247558    1274.0807  0.065257157  0.065926687            2 
 1628000   0.97850978   -3.9543358    1276.9145  0.065362125  0.065914254            2 
 1629000   0.99967673   -3.9663618    1280.0489  0.065482346  0.065902128            2 
 1630000    1.0064771   -3.9225944    1279.8534  0.065432178  0.065889723            3 
 1631000    1.0043442   -3.9633779    1279.3022  0.065363896  0.065877599            3 
 1632000   0.98850783   -3.9795038    1280.0665  0.065362874  0.065865056            2 
 1633000    1.0110905   -3.9583315    1280.6523  0.065352742  0.065852777            2 
 1634000   0.97045478    -3.978339     1282.622  0.065413197   0.06584044            2 
 1635000   0.99219635   -3.9748455     1280.651   0.06527273   0.06582814            2 
 1636000   0.98179764   -3.9594694    1280.7158  0.065236135  0.065815948            3 
 1637000    0.9754056   -3.9785573    1278.0781  0.065062009  0.065803846            4 
 1638000    1.0059229   -3.9571944    1284.0626  0.065326752  0.065791825            2 
 1639000    1.0037708   -3.9603977     1282.348  0.065199718  0.065779758            3 
 1640000   0.99193077   -3.9418359    1289.0541  0.065500718  0.065767895            2 
 1641000   0.97610019   -3.9627526    1284.9334  0.065251545  0.065755953            5 
 1642000   0.99609779   -3.9335031    1288.3478  0.065385089  0.065743864            2 
 1643000   0.98649686   -3.9360877    1289.6074  0.065409181  0.065731952            4 
 1644000   0.97585327    -3.943418    1291.2134  0.065450802  0.065720148            2 
 1645000   0.98940726   -3.9232192    1293.9051  0.065547371  0.065708682            1 
 1646000   0.98442356   -3.9540206      1294.86  0.065555894  0.065697283            5 
 1647000   0.99377647   -3.9847863    1288.5011  0.065194348  0.065685569            2 
 1648000   0.99577357   -3.9774517     1291.596  0.065311287  0.065673836            4 
 1649000   0.97027271   -3.9666434    1292.8386  0.065334473  0.065662291            3 
 1650000   0.98615117   -3.9661907    1291.4781  0.065226165  0.065650638            2 
 1651000     1.000984   -3.9578176     1297.305  0.065480769  0.065639171            6 
 1652000   0.99281899   -3.9473875    1295.4675  0.065348441  0.065627782            1 
 1653000   0.97083554   -3.9555919    1297.8157  0.065427287  0.065616589            3 
 1654000   0.96365153   -3.9819235     1293.093  0.065149786   0.06560505            5 
 1655000   0.95083667   -3.9699606    1298.9327  0.065404464  0.065593643            3 
 1656000   0.98021343   -3.9610684    1298.1805  0.065327116  0.065582588            5 
 1657000     1.003248   -3.9766715    1301.9775  0.065478649  0.065571577            3 
 1658000   0.99319813    -3.988673    1299.0678  0.065292914  0.065560846            4 
 1659000   0.98636411   -3.9519622    1298.7613   0.06523816  0.065550169            2 
 1660000   0.98283059   -3.9366606     1307.749  0.065650051  0.065539452            3 
 1661000   0.98326052   -3.9494784    1305.3165  0.065488484  0.065529105            9 
 1662000   0.97255068     -3.93988    1304.6564  0.065415982  0.065518325            1 
 1663000   0.98544802   -3.9604827    1302.4853  0.065267855  0.065507251            4 
 1664000    1.0018462   -3.9454869    1308.7005  0.065539891  0.065495984            6 
 1665000   0.97822343   -3.9631354    1305.8134  0.065356026  0.065484401            2 
 1666000   0.97285671   -3.9432228    1309.8161  0.065517012  0.065473149            1 
 1667000    1.0028635   -3.9480165    1308.7931   0.06542657  0.065462191            3 
 1668000   0.99074549   -3.9369079    1307.4246  0.065318973  0.065451152            2 
 1669000   0.99103173   -3.9938981    1306.0168  0.065209547  0.065439886            5 
 1670000   0.99963729   -3.9793642    1308.0078   0.06526985  0.065428434            4 
 1671000   0.97320462   -3.9650092    1307.9114  0.065225984   0.06541708            3 
 1672000    0.9877478   -3.9383068    1308.4624  0.065214434  0.065405753            2 
 1673000   0.98180492   -3.9568423    1306.2461  0.065065059  0.065394555            4 
 1674000   0.99406946   -3.9529395    1313.9373  0.065409065  0.065383469            3 
 1675000   0.97536526   -3.9606294    1312.9388  0.065320336  0.065372151            7 
 1676000   0.97953711   -3.9470592    1310.6801  0.065169058  0.065360916            2 
 1677000    1.0280621   -3.9573083     1308.602  0.065026932  0.065349605            5 
 1678000   0.99533069    -3.961137    1313.3502  0.065223988  0.065338541            2 
 1679000   0.97597324   -3.9602484    1308.8397   0.06496127  0.065327212            5 
 1680000   0.99468913   -3.9732673    1312.5697  0.065107622  0.065316196            3 
 1681000     1.006528   -3.9586132    1312.9983  0.065090142  0.065304915            2 
 1682000    1.0123049    -3.938134     1321.905  0.065492719  0.065293977            2 
 1683000   0.98662054   -3.9436412     1318.746  0.065297386  0.065283081            2 
 1684000   0.96913007   -3.9584111    1316.9868  0.065171556  0.065272242            2 
 1685000    0.9713912   -3.9521388    1318.0174  0.065183846  0.065261408            4 
 1686000    0.9723847    -3.975739    1312.6256  0.064878685  0.065250304            2 
 1687000    0.9983554   -3.9918327     1317.174  0.065064908  0.065239887            3 
 1688000   0.97595272   -3.9631444    1320.1573  0.065173642   0.06522918            6 
 1689000   0.97940506   -3.9591294    1322.5795  0.065254563  0.065218347            6 
 1690000   0.97091132   -3.9810799    1317.7372  0.064977177  0.065207585            5 
 1691000   0.98502656   -3.9806965    1316.6188  0.064883639  0.065196468            4 
 1692000    0.9796894   -3.9838517     1322.077  0.065114116  0.065185661            2 
 1693000   0.99849636    -3.983339    1320.7877  0.065012194  0.065175088            2 
 1694000    1.0063326   -3.9716259    1324.8113  0.065171748  0.065164145            4 
 1695000   0.98262001   -3.9609125    1325.3931  0.065161903  0.065153444            3 
 1696000   0.98784664     -3.99781    1328.9091  0.065296242  0.065142814            8 
 1697000    0.9722806   -3.9998193    1325.9272  0.065111333  0.065132179            3 
 1698000   0.97578958    -3.960517    1326.9641  0.065123874  0.065121756            4 
 1699000   0.99867719   -3.9485891    1330.4224  0.065255169  0.065111177            2 
 1700000    0.9702651   -3.9703538    1331.9882   0.06529354  0.065100666            2 
 1701000   0.96334411   -3.9647902    1330.8146  0.065197657  0.065089966            5 
 1702000    0.9771589   -3.9825861     1325.186  0.064883764  0.065079221            2 
 1703000   0.97201637   -3.9813156    1328.1228  0.064989373  0.065068437            4 
 1704000   0.97778355    -3.948757    1330.5379   0.06506934  0.065057843            3 
 1705000   0.97581398   -3.9549439    1332.5547  0.065129751  0.065047044            2 
 1706000   0.99167841   -3.9737863    1330.6734  0.064999677  0.065036486            2 
 1707000    0.9827206   -3.9611944    1331.0504  0.064980003  0.065025962            4 
 1708000   0.96312622   -3.9890224    1327.1633  0.064752308  0.065015163            3 
 1709000   0.97958105   -3.9679991    1331.4945  0.064925612  0.065004522            3 
 1710000   0.97699012   -3.9835881    1333.7678  0.064998433  0.064994139            2 
 1711000   0.97952833   -3.9881892    1332.0858  0.064878523  0.064983397            4 
 1712000   0.98476521   -3.9943625    1337.5843  0.065108269  0.064972898            4 
 1713000   0.97143854    -3.980831    1332.9979  0.064847143  0.064962337            3 
 1714000   0.96626367    -3.965092     1336.857  0.064996936  0.064951971            3 
 1715000   0.96026254   -3.9964903    1330.9024    0.0646697  0.064941208            7 
 1716000   0.96861957   -3.9789981    1337.9095  0.064972297  0.064930476            2 
 1717000   0.95569311   -3.9859646    1336.3518  0.064858852  0.064919922            3 
 1718000   0.98097509   -3.9846498    1334.0232  0.064708151  0.064909211            4 
 1719000   0.97385655     -3.96624    1338.1687  0.064871469  0.064898502            3 
 1720000   0.97845296   -3.9700804    1335.3173  0.064695607  0.064888003            3 
 1721000   0.97235133    -3.954739    1343.2078  0.065040085  0.064877773            5 
 1722000   0.97560271   -3.9853166    1340.6896  0.064880447  0.064867598            3 
 1723000   0.96498986   -3.9689565    1341.2785  0.064871277  0.064857404            2 
 1724000   0.96803288   -3.9869113    1338.7082  0.064709406  0.064847078            1 
 1725000   0.97012433   -3.9582635    1345.8797  0.065018345  0.064836827            2 
 1726000   0.96553138   -3.9785178    1348.1896  0.065092199  0.064826587            5 
 1727000   0.97651588   -3.9697564    1347.8072  0.065036053  0.064816341            2 
 1728000   0.97502448   -4.0013324    1343.1173  0.064772246  0.064805887            3 
 1729000   0.97928416   -3.9748603    1343.4378   0.06475023  0.064795316            4 
 1730000   0.99088863   -3.9480757    1347.4809   0.06490756  0.064785309            2 
 1731000    1.0118498   -3.9628178    1348.0572  0.064897804  0.064774816            2 
 1732000   0.99300006   -3.9886156    1342.3304  0.064584797  0.064764068            2 
 1733000   0.99068662    -3.980919    1341.7611  0.064520152  0.064753294            4 
 1734000   0.96064466    -3.959926    1347.1781  0.064743274  0.064742765            2 
 1735000   0.97463685   -3.9641631    1345.7411  0.064636939  0.064732172            4 
 1736000   0.97969395   -3.9671216     1346.793    0.0646502  0.064721502            4 
 1737000   0.97530197   -3.9754294    1348.7275  0.064705789  0.064710884            2 
 1738000   0.98343028   -4.0071622    1347.8374   0.06462588  0.064700244            3 
 1739000   0.99445853   -3.9678336    1351.2337  0.064751473  0.064689502            2 
 1740000   0.99327088   -3.9682669    1348.5939   0.06458783  0.064679107            2 
 1741000   0.98644131   -3.9691578    1349.5235  0.064595226  0.064668486            3 
 1742000   0.93828253    -3.983094    1352.2342  0.064687818   0.06465784            3 
 1743000   0.96445057   -4.0023671    1349.8177  0.064535176  0.064647377            2 
 1744000   0.98344727   -3.9849831    1358.6438  0.064919908  0.064636943            3 
 1745000   0.98863199   -3.9555443    1358.1029  0.064856872  0.064626558            2 
 1746000   0.97185749   -3.9999343    1345.4326  0.064214995  0.064616075            3 
 1747000     0.962306   -3.9748297    1351.8636  0.064485001   0.06460517            6 
 1748000   0.97139316   -4.0056439    1347.3192  0.064231462  0.064594324            3 
 1749000   0.95007064   -3.9917745    1354.3941  0.064531831  0.064583299            3 
 1750000   0.97550187   -3.9995955    1349.9146  0.064281645  0.064572704            3 
 1751000   0.99561607   -3.9875106    1351.6371  0.064326915  0.064561921            2 
 1752000   0.95411898     -3.99173    1354.8338  0.064442248  0.064550858            7 
 1753000   0.95167698   -3.9691229    1366.7808  0.064973415  0.064539399            6 
 1754000   0.97202866   -3.9997277    1351.8116  0.064225179  0.064528363            6 
 1755000   0.94357152   -3.9969931    1353.5503  0.064271144  0.064517253            5 
 1756000   0.97576525   -3.9920373    1353.5512  0.064234585  0.064506269            4 
 1757000   0.96820195   -3.9890692    1361.4294  0.064571685  0.064495402            2 
 1758000   0.96511465    -3.984706    1357.5246  0.064349858  0.064484114            4 
 1759000    0.9740387   -3.9835182    1361.3319  0.064493646  0.064473139            2 
 1760000   0.95900496   -4.0297673    1355.0733  0.064160668  0.064461903            7 
 1761000   0.95784717   -4.0041601    1359.7549  0.064345774  0.064450702            4 
 1762000   0.96794848   -4.0008981    1360.1205  0.064326547  0.064439813            2 
 1763000   0.95217636   -4.0096475    1353.5217  0.063978149   0.06442853            3 
 1764000   0.97201891   -3.9740163    1364.7585   0.06447272  0.064417144            4 
 1765000   0.98383296   -4.0048263     1357.903  0.064112512  0.064405945            4 
 1766000   0.98431159   -3.9759213    1363.7059  0.064350035  0.064394862            2 
 1767000   0.96827071   -4.0032385    1354.1864  0.063864667  0.064383304            6 
 1768000   0.94877632   -3.9817897    1363.2784  0.064257089  0.064371855            2 
 1769000   0.97870622   -3.9751641    1359.0471   0.06402144  0.064360763            3 
 1770000    0.9651697    -3.981229    1359.5186  0.064007466  0.064349324            3 
 1771000   0.95871796   -4.0012334    1358.7838  0.063936749  0.064337672            3 
 1772000   0.98399821   -3.9818673     1363.437  0.064119499  0.064326175            3 
 1773000   0.98567666   -4.0491506    1360.0621  0.063924708  0.064314433            4 
 1774000   0.96769879   -3.9940483    1362.7754   0.06401613  0.064302638            4 
 1775000   0.97731019   -3.9928174    1360.6606  0.063880779  0.064290965            3 
 1776000   0.96146559   -3.9812289    1366.3199  0.064110355  0.064279414            3 
 1777000    0.9910621    -4.001683    1365.5699  0.064039107  0.064267728            1 
 1778000   0.96526322   -4.0256463    1361.3558  0.063805579  0.064256175            1 
 1779000   0.96433109   -3.9984507    1364.6612  0.063924544  0.064244656            2 
 1780000   0.96689369   -3.9884669    1369.9447  0.064135987  0.064233037            5 
 1781000   0.95731926   -4.0275712    1365.6762  0.063900255  0.064221598            3 
 1782000   0.97183059   -3.9790143    1364.8607  0.063826259  0.064209896            3 
 1783000   0.97117642   -4.0198926    1365.3259  0.063812201  0.064198319            3 
 1784000   0.97755845    -3.984069    1370.1356  0.064001102  0.064186804            3 
 1785000   0.96845796   -3.9899149     1365.566  0.063751912   0.06417531            4 
 1786000   0.95278878   -4.0103107    1361.4541   0.06352436  0.064163457            2 
 1787000   0.96380966   -3.9999956    1371.6041  0.063962138  0.064151583            3 
 1788000   0.94697396   -4.0244001      1368.16  0.063765847   0.06413992            5 
 1789000   0.94515823   -4.0014534    1369.5918  0.063796898  0.064128181            2 
 1790000    0.9756741   -3.9828214    1374.3866  0.063984477  0.064116814            4 
 1791000   0.94923418   -4.0075571    1365.4622  0.063533509  0.064105289            5 
 1792000   0.97583218   -4.0140929    1371.0155  0.063756302  0.064093716            4 
 1793000   0.97068707   -4.0202269    1369.6041  0.063655143  0.064082066            5 
 1794000   0.96901053   -3.9910187     1374.772  0.063859716  0.064070325            2 
 1795000   0.97742873   -4.0373539    1368.2586  0.063521756  0.064058445            4 
 1796000   0.95147884   -4.0196107    1369.5885  0.063548094  0.064046476            4 
 1797000    0.9405544   -3.9906999    1375.8112  0.063801297  0.064034686            2 
 1798000   0.96621305   -4.0013183    1371.3861   0.06356072  0.064022741            2 
 1799000   0.98792464    -4.010955    1370.0481   0.06346341   0.06401108            2 
 1800000    0.9583449   -3.9925314    1370.4842  0.063448343  0.063999189            2 
 1801000   0.94070524   -4.0060923    1376.2515  0.063679968  0.063987328            3 
 1802000   0.94341547    -3.980589     1376.379  0.063650526  0.063975431            3 
 1803000   0.99458673   -4.0060504    1374.2865  0.063518509  0.063963448            2 
 1804000   0.96091662   -4.0165401    1376.4032  0.063581077  0.063951589            2 
 1805000   0.97509304   -3.9857995    1381.4696   0.06377976  0.063939862            3 
 1806000   0.95710019     -4.02341    1368.1886  0.063131625  0.063928112            6 
 1807000   0.96595808   -4.0020983    1375.0006  0.063410838  0.063916407            2 
 1808000   0.95764386   -4.0288296    1380.8774  0.063646637  0.063904597            3 
 1809000   0.94674935   -4.0036953    1378.8375   0.06351748  0.063892714            5 
 1810000   0.94457762   -3.9952782    1375.7816  0.063341696  0.063880901            4 
 1811000   0.96741398   -3.9860691    1378.6704  0.063439649  0.063869091            3 
 1812000   0.94170634     -3.98471    1384.1999  0.063658934  0.063857495            3 
 1813000   0.97904591   -3.9918546    1387.2648  0.063764702  0.063845653            6 
 1814000   0.96183664   -4.0273709    1376.0512  0.063214406  0.063833719            5 
 1815000   0.94823439   -4.0027211    1376.9675  0.063221646  0.063821473            2 
 1816000   0.97930733   -3.9976854    1375.3995   0.06311488   0.06380899            3 
 1817000   0.96979951   -4.0178602    1378.7886   0.06323558  0.063796767            5 
 1818000    0.9746142   -3.9722327    1387.8978  0.063618345  0.063784957            5 
 1819000   0.95558305   -3.9807454    1384.1403  0.063411229  0.063773025            5 
 1820000   0.94630756   -4.0332131    1381.4258  0.063252096  0.063761081            4 
 1821000   0.97382055   -4.0209029    1383.9064  0.063330879  0.063748867            2 
 1822000   0.98398513   -4.0262552    1379.4905  0.063094151  0.063736972            3 
 1823000   0.95231133   -3.9989582    1379.5884  0.063064017  0.063724655            3 
 1824000   0.96299918   -3.9944958    1386.9425  0.063365429  0.063712614            2 
 1825000   0.94624286   -3.9936224    1384.2445   0.06320751  0.063700303            5 
 1826000   0.96530997   -4.0351587    1382.5435  0.063095269  0.063688105            5 
 1827000   0.98904744   -3.9951721    1390.0974  0.063405281  0.063676138            2 
 1828000   0.95044078    -4.009984    1385.4964  0.063160849  0.063664334            3 
 1829000   0.97230295   -4.0056163    1388.7421  0.063274199  0.063652716            2 
 1830000   0.95986968   -4.0114877    1389.0785  0.063254942  0.063641251            2 
 1831000   0.95368948   -4.0033947    1387.9545  0.063169239  0.063629633            2 
 1832000   0.95775153   -4.0002522    1384.1103  0.062959895  0.063617753            6 
 1833000   0.96302728   -3.9967565    1392.1899  0.063292868  0.063605797            2 
 1834000   0.96158579   -3.9999696    1390.2796  0.063171558  0.063594099            2 
 1835000   0.96704906   -3.9863221    1386.2214  0.062952832  0.063582302            6 
 1836000   0.96604126   -4.0033076    1392.7585  0.063215255   0.06357056            2 
 1837000   0.95406502   -4.0376944    1388.5017  0.062987739  0.063558942            2 
 1838000   0.97098028   -4.0165748     1393.237  0.063168162  0.063547352            2 
 1839000   0.97470398   -4.0262062    1396.0517  0.063261359  0.063535694            4 
 1840000   0.93727767   -3.9959723    1393.1988  0.063097773  0.063523891            5 
 1841000   0.95630096   -4.0246819    1400.2867  0.063384332  0.063512403            2 
 1842000   0.95358061   -3.9850843    1396.8047  0.063192396  0.063500967            2 
 1843000   0.98236535   -4.0205966    1397.9887  0.063211644  0.063489142            3 
 1844000   0.95217791   -4.0009922    1401.1562  0.063320507   0.06347765            5 
 1845000   0.96141505   -3.9923382    1397.3292  0.063113335  0.063465696            4 
 1846000   0.94318847    -4.025791    1392.7749  0.062873553  0.063454194            1 
 1847000   0.95704839   -3.9958017    1399.9288  0.063162283  0.063442549            4 
 1848000   0.95295691   -4.0228367    1393.7181  0.062848037  0.063430902            4 
 1849000   0.96510383   -3.9956295    1399.0508  0.063054391  0.063419212            3 
 1850000   0.92665787   -4.0281986    1393.1982  0.062756676  0.063407549            3 
 1851000   0.96345759   -4.0158434    1397.1463   0.06290052  0.063395877            5 
 1852000   0.95828244   -4.0385105    1401.7736  0.063074764   0.06338425            5 
 1853000   0.94886086   -4.0013591    1399.4346  0.062935536  0.063372943            3 
 1854000   0.96114202   -4.0048827    1404.2805  0.063119404  0.063361332            2 
 1855000   0.95653611   -4.0007567    1403.5161  0.063051037   0.06334964            2 
 1856000   0.96052604   -4.0067594    1404.9976  0.063083584  0.063338273            4 
 1857000   0.95862732   -4.0011124    1404.1775   0.06301281  0.063326766            2 
 1858000   0.97087194   -4.0233338    1406.6274  0.063088779    0.0633152            3 
 1859000   0.95758708   -4.0246408    1405.4481  0.063001979  0.063303731            3 
 1860000   0.96462617   -4.0077907    1404.1507  0.062909977  0.063292427            2 
 1861000   0.94949491   -4.0028545    1405.1059  0.062918948  0.063280829            3 
 1862000   0.95201891   -4.0124387    1405.2668  0.062892355  0.063269565            3 
 1863000   0.94341886   -4.0221439    1407.8627  0.062974715  0.063258006            3 
 1864000   0.95484068   -4.0107669     1412.796  0.063161479  0.063246271            2 
 1865000   0.97198705   -4.0229034    1410.0852  0.063006487  0.063234808            2 
 1866000   0.95280715   -4.0013328    1406.3988  0.062808093  0.063223065            4 
 1867000   0.95693234   -3.9777246    1412.1842  0.063032681  0.063211183            4 
 1868000    0.9385461   -3.9906245    1407.9358  0.062809411  0.063199677            2 
 1869000    0.9476047   -4.0048777    1412.6949  0.062988003   0.06318773            2 
 1870000   0.95162222   -4.0142191    1404.5499  0.062591349  0.063175922            5 
 1871000   0.95745471   -4.0308037    1410.9221   0.06284171  0.063164062            3 
 1872000   0.95226143   -4.0024098    1409.2649   0.06273437  0.063152097            2 
 1873000    0.9721983    -4.018618    1410.2677  0.062745494  0.063140162            2 
 1874000   0.95598928   -4.0217702      1410.68  0.062730345  0.063127982            3 
 1875000   0.95502132   -4.0346363    1409.1687  0.062629721  0.063116001            7 
 1876000   0.95603264   -3.9989912    1408.9737  0.062587675  0.063103983            3 
 1877000   0.93998682   -3.9970081    1413.1969  0.062741828  0.063092123            2 
 1878000   0.95857879   -4.0076404    1412.7224  0.062687363  0.063080154            3 
 1879000   0.94979495   -4.0082966    1417.0204  0.062844615  0.063068174            3 
 1880000   0.95165819   -4.0264264    1410.4506  0.062519973  0.063056088            5 
 1881000   0.96468086   -4.0457275     1407.559  0.062358631  0.063043968            3 
 1882000   0.96806788    -4.029142       1413.7  0.062597414  0.063031902            2 
 1883000   0.93222967   -4.0300624    1412.2806  0.062501356  0.063019652            3 
 1884000   0.96895873   -4.0444977    1417.3756  0.062693543  0.063007498            4 
 1885000   0.93547777    -4.025884    1420.0298   0.06277762  0.062995481            4 
 1886000   0.95208789   -4.0531134    1416.9824  0.062609686  0.062983598            2 
 1887000   0.94002333   -4.0000841    1419.8709  0.062704067  0.062971425            5 
 1888000   0.95136885   -4.0175854    1418.7874   0.06262303  0.062959327            3 
 1889000   0.93913556   -4.0056126    1420.1335  0.062649262  0.062947431            2 
 1890000   0.94977084   -4.0168645    1416.8916  0.062473175  0.062935444            3 
 1891000   0.94306521    -4.025249    1422.8098  0.062700944  0.062923653            5 
 1892000   0.94299336   -4.0147951    1418.6774  0.062485792  0.062911671            4 
 1893000    0.9352052   -4.0301583    1417.1675  0.062386312  0.062899576            2 
 1894000   0.96929012   -4.0286599    1418.9824  0.062433228  0.062887594            4 
 1895000    0.9257424    -4.005828    1419.7509  0.062434077   0.06287557            3 
 1896000   0.95216055   -4.0155907     1422.635  0.062527912  0.062863522            4 
 1897000   0.96387588   -4.0282803    1419.8657  0.062373296  0.062851901            2 
 1898000   0.95145615   -4.0229598    1422.7663  0.062467788  0.062839919            6 
 1899000   0.96176012   -4.0315766    1419.5044  0.062291749  0.062828221            2 
 1900000   0.95250408   -4.0327825     1421.783  0.062358906  0.062816501            6 
 1901000   0.95599228    -4.010402    1425.8917   0.06250621  0.062804677            3 
 1902000   0.96344007   -4.0262633    1427.8204  0.062557849   0.06279325            4 
 1903000   0.93799131   -4.0098078    1429.7128  0.062607845  0.062781759            5 
 1904000   0.95246225   -4.0186271    1421.7631  0.062227028  0.062770309            5 
 1905000   0.96153753   -4.0252271    1423.9646  0.062290664  0.062758636            4 
 1906000   0.94287229   -4.0233479    1423.2481  0.062226659  0.062747214            4 
 1907000   0.93269503   -4.0194645    1429.8106  0.062480798   0.06273564            3 
 1908000   0.94811596   -4.0332674    1422.6949   0.06213727  0.062724106            3 
 1909000   0.96131906   -4.0528037    1428.0786  0.062339731  0.062712421            2 
 1910000   0.96402439   -4.0303404    1428.1102  0.062308474  0.062700557            4 
 1911000   0.95376151   -4.0249536    1428.2946  0.062283907  0.062688669            4 
 1912000   0.95193165   -3.9986802    1431.9286   0.06240972  0.062676746            2 
 1913000    0.9416008   -4.0372688    1428.0747  0.062209212  0.062665155            2 
 1914000    0.9406285     -4.01746    1429.1036  0.062221506  0.062653316            4 
 1915000   0.95169449    -4.044883    1433.7425  0.062390885  0.062641425            3 
 1916000   0.94163778     -4.00023    1433.5711  0.062350865  0.062629376            2 
 1917000   0.93976484    -4.031854      1431.77  0.062240043  0.062617482            4 
 1918000   0.93254278   -4.0091289    1431.7235  0.062205573  0.062605605            4 
 1919000   0.95169226   -4.0208473    1437.8096  0.062437449  0.062593546            4 
 1920000   0.94279221   -4.0416387    1431.0798   0.06211284  0.062581624            2 
 1921000   0.93571523   -4.0294334     1433.812  0.062199028  0.062569696            3 
 1922000   0.94427661   -4.0295898    1431.0083  0.062045107  0.062557479            3 
 1923000   0.93425599   -4.0354979    1429.4353  0.061944674  0.062545431            2 
 1924000   0.96431733   -4.0237205    1433.9818  0.062109398  0.062533483            3 
 1925000   0.96410214   -4.0117976    1435.0988   0.06212549  0.062521454            5 
 1926000   0.95867376   -4.0190095      1432.16   0.06196608  0.062509543            3 
 1927000   0.95191905   -4.0409619    1434.4332  0.062032228  0.062497777            6 
 1928000   0.93208764   -4.0606397    1432.7592  0.061927696  0.062485993            3 
 1929000   0.93387021   -4.0429786    1433.6134  0.061932496  0.062473948            5 
 1930000   0.92442092   -4.0168834    1445.1809  0.062399865  0.062461969            2 
 1931000   0.94941329   -4.0363095    1437.5554  0.062038468  0.062449853            2 
 1932000   0.95125562   -4.0285537    1441.1539  0.062161572  0.062437853            4 
 1933000   0.92469097   -4.0132763    1437.9007  0.061989168  0.062425853            9 
 1934000   0.93684354   -4.0428403    1437.0632  0.061921027  0.062413632            3 
 1935000   0.92042683    -4.040566    1434.5802  0.061782093  0.062401403            2 
 1936000   0.95778951   -4.0386689    1437.2898  0.061866815  0.062389236            6 
 1937000   0.95802486   -4.0135469    1440.9819  0.061993712  0.062377292            2 
 1938000   0.93272184    -4.050078    1442.0447  0.062007425  0.062365001            3 
 1939000   0.93761672   -4.0374402    1443.0179  0.062017272  0.062352963            3 
 1940000   0.91358137   -4.0296726    1440.6058  0.061881691    0.0623412            3 
 1941000     0.953627   -4.0213949    1444.2569  0.062006563   0.06232936            7 
 1942000   0.93416568   -4.0245888    1448.1551  0.062141913  0.062317276            3 
 1943000   0.94256109   -4.0630502      1442.11  0.061850662  0.062305244            2 
 1944000   0.92803196   -4.0365926    1442.9174  0.061853456  0.062293236            4 
 1945000   0.93493697   -4.0121553      1450.59  0.062150384  0.062281414            2 
 1946000   0.93871241   -4.0488103    1445.1311  0.061884682  0.062269671            5 
 1947000   0.93448813   -4.0280457    1442.4608  0.061738606   0.06225776            4 
 1948000   0.92919703   -4.0356381    1445.8412  0.061851524  0.062246018            3 
 1949000   0.94393891   -4.0251417    1450.6323  0.062024643  0.062234294            2 
 1950000   0.94706583   -4.0253769    1443.7194  0.061697411  0.062222588            4 
 1951000   0.93240482   -4.0516391    1452.9374  0.062059516  0.062210879            3 
 1952000   0.94089404   -4.0534874     1451.042  0.061946808  0.062199234            3 
 1953000   0.92275579   -4.0545672    1443.9955  0.061614417  0.062187565            4 
 1954000   0.95945407   -4.0563382    1450.6046  0.061864749  0.062175622            2 
 1955000   0.92367237   -4.0632107    1450.3211  0.061821018  0.062163695            1 
 1956000   0.94971689    -4.039078    1450.6319  0.061802653  0.062151871            1 
 1957000   0.92788817   -4.0261959    1451.7338  0.061817995  0.062140244            3 
 1958000   0.94421083   -4.0198402    1455.8261  0.061960592   0.06212852            3 
 1959000   0.93014631   -4.0353429    1456.5189  0.061958438  0.062116881            2 
 1960000   0.93058144   -4.0655684    1441.9539  0.061307565  0.062104847            2 
 1961000   0.93123885   -4.0183171    1456.9223  0.061912386    0.0620929            5 
 1962000    0.9450345   -4.0562816     1452.325  0.061685566  0.062081027            7 
 1963000   0.91686955   -4.0273625    1458.0694  0.061898006  0.062069067            5 
 1964000   0.94790458   -4.0469102    1455.1091  0.061740884  0.062057256            3 
 1965000   0.92693252   -4.0541021    1455.3164  0.061718253  0.062045465            2 
 1966000   0.93902927   -4.0292677     1453.964  0.061629535  0.062033854            6 
 1967000   0.93488641   -4.0521121    1455.7184  0.061672532  0.062022169            3 
 1968000   0.95944459   -4.0561435    1453.9897  0.061567993  0.062010322            3 
 1969000   0.93775922   -4.0340782    1456.0555  0.061624155  0.061998577            2 
 1970000   0.93979145   -4.0421299    1459.3308   0.06173142  0.061986512            3 
 1971000   0.92970505   -4.0334283    1463.3891  0.061871684  0.061974558            1 
 1972000   0.92534208   -4.0460515    1461.4652  0.061759008  0.061962886            3 
 1973000   0.94525984   -4.0439518    1455.9708  0.061495642   0.06195112            2 
 1974000    0.9386679   -4.0401018    1458.8381  0.061585532   0.06193929            3 
 1975000   0.93847195    -4.041457     1456.834  0.061469789  0.061927123            3 
 1976000   0.95571504    -4.025035    1461.7643  0.061646605  0.061915148            2 
 1977000   0.94774963   -4.0270555    1459.0401  0.061500595  0.061903402            7 
 1978000   0.93555825   -4.0541694    1461.0709  0.061555059  0.061891602            4 
 1979000   0.94654051   -4.0679471    1452.9562  0.061182257   0.06187966            6 
 1980000   0.93259377   -4.0627056    1454.2629  0.061206349  0.061867543            4 
 1981000    0.9446734   -4.0621547    1457.9456  0.061330372  0.061855283            3 
 1982000   0.93850944   -4.0317377    1457.0777  0.061262937  0.061843083            2 
 1983000   0.95029791    -4.028165    1463.6785  0.061509436  0.061830935            5 
 1984000   0.92523072   -4.0745371    1461.4292  0.061383955  0.061818547            3 
 1985000    0.9494629   -4.0513261    1460.2814  0.061304843  0.061806391            3 
 1986000   0.92761013    -4.044003    1469.2916   0.06165205  0.061794154            3 
 1987000   0.91181593   -4.0344967    1462.8133  0.061349323  0.061782205            7 
 1988000    0.9229348   -4.0287545     1462.605  0.061309734  0.061770083            4 
 1989000   0.90958833   -4.0525467    1464.7968  0.061370738  0.061757874            9 
 1990000   0.92921367   -4.0412047     1465.328  0.061362145  0.061745879            4 
 1991000   0.91893722     -4.06065     1464.073  0.061278794   0.06173383            3 
 1992000   0.96218246   -4.0259173    1468.2652  0.061423408  0.061721926            3 
 1993000   0.93338654   -4.0632368    1469.6674  0.061451222  0.061709932            3 
 1994000   0.90907875   -4.0622006    1466.8699   0.06130349  0.061698137            6 
 1995000   0.92515582    -4.038941    1467.2567   0.06128892  0.061686099            2 
 1996000   0.93035114   -4.0487244    1464.3257  0.061135841  0.061674038            3 
 1997000   0.91466467   -4.0556641     1469.834  0.061335088  0.061662123            2 
 1998000   0.92377666   -4.0830079    1463.9152  0.061057525  0.061649925            5 
 1999000   0.94703343   -4.0577331    1467.6402  0.061182266  0.061637795            3 
 2000000   0.92148635   -4.0359726    1463.8239  0.060992662  0.061625286            7 
 2001000   0.93579599   -4.0702005    1468.7181  0.061166003   0.06161275            3 
 2002000   0.93894361   -4.0912321    1468.6402  0.061132207  0.061600203            4 
 2003000   0.94507719   -4.0800328    1464.7974   0.06094181  0.061587591            5 
 2004000   0.91833992   -4.0699508    1468.2275  0.061054038  0.061575375            3 
 2005000   0.95019008   -4.0456225    1468.7331  0.061044602  0.061563246            5 
 2006000   0.92120381   -4.0500193    1464.3492  0.060832054  0.061550756            4 
 2007000    0.9151793   -4.0665251    1468.2268  0.060962749  0.061538162            5 
 2008000   0.93294148   -4.0599296    1466.3817  0.060855816  0.061525654            3 
 2009000   0.92633726   -4.0568232    1474.3621   0.06115655  0.061512968            3 
 2010000   0.92465439   -4.0622046    1469.4578  0.060922794  0.061500535            2 
 2011000   0.93131096   -4.0495409    1471.9473  0.060995661  0.061488032            2 
 2012000   0.93101222   -4.0570435    1469.3657  0.060858419  0.061475732            5 
 2013000    0.9325951    -4.068536    1469.3603  0.060827966  0.061463116            3 
 2014000   0.92939529   -4.0371083    1473.0357   0.06094984  0.061450638            4 
 2015000   0.90968529   -4.0483979    1466.6745  0.060656512  0.061438263            2 
 2016000   0.94197786   -4.0618025    1467.4304  0.060657673  0.061425823            3 
 2017000   0.93291371   -4.0433915    1468.0786  0.060654381   0.06141306            3 
 2018000   0.92926109   -4.0250554    1475.3861  0.060926087  0.061400572            3 
 2019000   0.92872608   -4.0413221    1474.1842    0.0608463  0.061387904            4 
 2020000   0.95280742   -4.0525273    1472.0627   0.06072866   0.06137521            5 
 2021000   0.94842945   -4.0677001    1472.5343  0.060718057   0.06136255            5 
 2022000   0.92497383   -4.0408831    1471.2344  0.060634456  0.061349771            3 
 2023000   0.92636708   -4.0564553     1474.345  0.060732618   0.06133678            3 
 2024000   0.92341518   -4.0622939    1469.2692  0.060493627  0.061323878            6 
 2025000   0.94599917   -4.0432359    1475.4375  0.060717592  0.061310982            4 
 2026000   0.95262952   -4.0546867    1473.0047  0.060587558   0.06129806            5 
 2027000   0.91892663   -4.0310337    1476.7147  0.060710193  0.061285471            3 
 2028000   0.94188487   -4.0242336    1482.7231  0.060927149  0.061272988            3 
 2029000    0.9389822   -4.0733732    1474.9911  0.060579559  0.061260287            3 
 2030000   0.92265067   -4.0552881    1477.1596  0.060638737  0.061247402            2 
 2031000   0.91231813   -4.0353849     1477.859  0.060637576  0.061234508            4 
 2032000    0.9400675   -4.0605314    1470.2917  0.060297394  0.061221809            7 
 2033000    0.9345146   -4.0464296    1476.2471  0.060511852   0.06120908            4 
 2034000   0.91561464   -4.0472204    1477.0201  0.060513769  0.061196421            1 
 2035000   0.91156916   -4.0303585    1479.0152  0.060565735   0.06118385            3 
 2036000   0.93117403   -4.0945967    1476.7544  0.060443453  0.061171237            3 
 2037000   0.90707997   -4.0226852    1484.8209  0.060743777  0.061158529            3 
 2038000   0.91019028   -4.0593138    1474.8716  0.060307146  0.061145684            4 
 2039000   0.92620842   -4.0494999    1477.6169  0.060389772  0.061132772            3 
 2040000   0.91731917   -4.0730732     1478.085  0.060379289  0.061120038            3 
 2041000   0.92223879    -4.051948    1479.6662  0.060414265  0.061107312            1 
 2042000   0.91233118    -4.047719    1486.2477  0.060653268  0.061094432            3 
 2043000   0.92625867   -4.0560928    1480.1958  0.060376725  0.061081616            3 
 2044000   0.92317873   -4.0622047    1482.8099  0.060453763  0.061068656            2 
 2045000   0.92806225   -4.0713021    1483.6899  0.060460063   0.06105575            4 
 2046000   0.91643082   -4.0560085    1485.7293  0.060513575  0.061042857            2 
 2047000   0.92030058   -4.0698604    1482.3149  0.060345013  0.061030004            5 
 2048000   0.93249207   -4.0483253    1485.5646   0.06044778  0.061017091            4 
 2049000   0.90264993   -4.0414064    1482.6088  0.060298065   0.06100419            3 
 2050000   0.92589044   -4.0597834    1485.6401  0.060391873    0.0609912            3 
 2051000   0.92021275   -4.0660611    1481.8129  0.060206929  0.060978089            4 
 2052000   0.91272934   -4.0358513    1485.1646  0.060313701  0.060965146            3 
 2053000   0.92646267   -4.0436722    1485.3169  0.060290504   0.06095207            3 
 2054000   0.92224857    -4.055745    1489.2334  0.060420049  0.060938971            5 
 2055000   0.91995826   -4.0779763    1486.2705  0.060270498  0.060925903           12 
 2056000   0.92915652    -4.065054    1484.6793  0.060176689  0.060912839            4 
 2057000   0.91811443   -4.0529461    1485.6341  0.060186115   0.06089986            1 
 2058000   0.93872716   -4.0365274    1484.8449  0.060124916  0.060886901            9 
 2059000   0.92760443   -4.0574604    1485.2792  0.060113293  0.060873834            3 
 2060000   0.93610624   -4.0675492    1481.1275  0.059916162  0.060860719            3 
 2061000   0.90454613   -4.0312594      1489.34  0.060219149  0.060847461            8 
 2062000   0.91906697   -4.0065535    1491.8125  0.060289869  0.060834559            3 
 2063000   0.92771573   -4.0571698    1485.7799  0.060016962  0.060821689            2 
 2064000   0.91981132   -4.0581161    1491.0882  0.060202204  0.060808766            1 
 2065000   0.89939012   -4.0722633    1487.7273  0.060037423   0.06079556            6 
 2066000   0.95307616   -4.0478056    1485.9862  0.059938135  0.060782446            5 
 2067000   0.89501981    -4.057767       1491.4  0.060127401   0.06076918            8 
 2068000   0.89188357   -4.0696409    1485.2838  0.059851864  0.060755916            3 
 2069000   0.91442725   -4.0764902    1484.7293  0.059800601  0.060742548            3 
 2070000   0.93820923   -4.0565291    1490.0406  0.059985531  0.060729382            3 
 2071000   0.92338781   -4.0815146    1490.7473  0.059985004  0.060716237            4 
 2072000    0.9214044   -4.0961108    1486.7628  0.059795802  0.060703221            5 
 2073000   0.94041335   -4.0736441    1488.5665  0.059839463  0.060689962            3 
 2074000   0.92392952   -4.0796924    1488.5569  0.059810225  0.060676631            6 
 2075000   0.90358443   -4.0893084    1492.0086  0.059920026   0.06066331            5 
 2076000   0.93530139   -4.0725351    1491.0351  0.059852082  0.060650236            2 
 2077000   0.92923419   -4.0381377    1490.6774  0.059808914   0.06063701            3 
 2078000    0.9187503   -4.0479685    1494.3634  0.059927953  0.060624124            4 
 2079000   0.94067896   -4.0851151    1487.3047  0.059616188  0.060610938            5 
 2080000   0.91377828   -4.0719418    1494.3807  0.059871021  0.060598172            3 
 2081000   0.90494964   -4.0630733    1493.5824  0.059810282  0.060585212            4 
 2082000   0.90116155   -4.0826907    1496.9465  0.059916206  0.060572331            8 
 2083000   0.89949172   -4.0710681    1493.8029  0.059761679  0.060559395            6 
 2084000   0.91687265   -4.0532091    1494.3773  0.059755971  0.060546508            3 
 2085000   0.91063865   -4.0798224    1497.3573  0.059846414  0.060533936            6 
 2086000   0.90971655   -4.1032988    1500.5008  0.059943304    0.0605211            3 
 2087000   0.91677283   -4.0677396    1497.0471  0.059776678  0.060508396            3 
 2088000   0.90876704   -4.0753732    1498.8258  0.059819037   0.06049556            3 
 2089000   0.89213993   -4.0855373    1497.9486  0.059755411   0.06048272            3 
 2090000   0.90500795   -4.0113804     1505.562  0.060030382      0.06047            3 
 2091000   0.92998806   -4.0296499    1505.6328  0.060004496  0.060457333            3 
 2092000   0.93749546   -4.0887967     1499.071  0.059714426  0.060444532            8 
 2093000   0.92830805   -4.0601766    1503.1322  0.059847595  0.060431758            3 
 2094000   0.91843768   -4.0826325    1500.8044  0.059726377  0.060418854            2 
 2095000   0.91540777   -4.0547604    1514.3151  0.060235287  0.060405813            2 
 2096000   0.91403476   -4.0450737    1501.5096  0.059697425  0.060393124            4 
 2097000     0.909443    -4.062426    1499.9396  0.059606563  0.060380099            4 
 2098000   0.92461401   -4.0725377    1503.0359  0.059701139  0.060367263            3 
 2099000   0.92740666   -4.0698826    1507.6319  0.059855163   0.06035465            5 
 2100000    0.9250931   -4.0736661    1502.6666  0.059629626  0.060341905            5 
 2101000   0.92393506   -4.0651485    1504.5752  0.059676946  0.060328993            3 
 2102000   0.93495335   -4.0718696    1506.4698   0.05972367  0.060316228            5 
 2103000   0.91768027   -4.0845684    1512.4316  0.059931511   0.06030339            8 
 2104000   0.91776217   -4.0871115    1506.1946  0.059655997  0.060290517            5 
 2105000   0.89395906   -4.0778381    1506.3777  0.059634905  0.060277765            2 
 2106000   0.92405672   -4.0423853     1506.468  0.059610161  0.060264765            3 
 2107000   0.92411031   -4.0776672    1506.0574  0.059565629   0.06025175            7 
 2108000   0.91881248   -4.0879588    1504.4828  0.059475128  0.060238777            4 
 2109000   0.91540151   -4.0712557      1504.15  0.059433778  0.060225742            3 
 2110000   0.92247695    -4.068528    1507.9648  0.059556273  0.060212479            5 
 2111000   0.93122758   -4.0868582    1504.9315  0.059408319  0.060199353            2 
 2112000   0.92719019   -4.0637531    1511.3047  0.059631657  0.060186276            3 
 2113000   0.92365785   -4.0911086    1508.6545  0.059498914  0.060173614            5 
 2114000   0.90201039   -4.0943873    1510.0367  0.059525255  0.060160956            3 
 2115000   0.91607204   -4.0875508     1510.618  0.059520014  0.060148535            2 
 2116000   0.92946069   -4.0423611     1512.428  0.059563168  0.060135722           10 
 2117000   0.92798836    -4.088964    1512.8797  0.059552816  0.060123105            5 
 2118000   0.90859597   -4.0703357    1512.4953  0.059509573  0.060110581            2 
 2119000   0.92896985   -4.0967884     1513.337  0.059514591  0.060098068            3 
 2120000   0.91797813   -4.0994355    1513.8074  0.059505007  0.060085612            2 
 2121000    0.9176032   -4.1144539    1516.0872  0.059566524  0.060073197            5 
 2122000   0.94050014   -4.0763508    1515.4141  0.059512023  0.060060799            7 
 2123000   0.93192834   -4.0706412    1519.1926  0.059632306  0.060048505            3 
 2124000   0.90058425   -4.0904181    1510.8547  0.059277099  0.060036013            5 
 2125000   0.91661893   -4.0860386    1517.6838   0.05951701  0.060023751            2 
 2126000   0.91685497     -4.09117    1519.1142  0.059545086  0.060011339            8 
 2127000   0.90757756   -4.0993841    1520.6848  0.059578623  0.059999033            4 
 2128000   0.93308465   -4.1071894    1517.4196  0.059422762  0.059986656            4 
 2129000   0.91169997   -4.0983297    1515.3133  0.059312405  0.059974353            3 
 2130000   0.91013186   -4.1047775     1520.119  0.059472573  0.059962019            2 
 2131000   0.91860794   -4.0917041    1525.1112  0.059639887  0.059949837            3 
 2132000   0.91009274   -4.0801422    1527.5812   0.05970846  0.059937584            5 
 2133000   0.90698711   -4.0853494    1517.8109  0.059298755  0.059925397            4 
 2134000   0.92172143   -4.0788272    1525.2236  0.059560435  0.059912973            3 
 2135000   0.88378457   -4.0725958    1523.3965  0.059461224   0.05990079            3 
 2136000   0.91943849   -4.0973988    1523.1794  0.059424914  0.059888463            4 
 2137000   0.91426153   -4.0820615    1523.2624  0.059400344   0.05987618            4 
 2138000   0.90782023   -4.0797214    1525.1741  0.059447072  0.059863882            4 
 2139000     0.894144   -4.0869645    1526.3672  0.059465761  0.059851649            2 
 2140000   0.90318508   -4.0642389    1527.6218  0.059486832  0.059839603            3 
 2141000   0.88605695   -4.0891292     1530.577  0.059574071  0.059827757            1 
 2142000   0.89869359   -4.0752197    1528.9232  0.059481916  0.059815935            2 
 2143000   0.89997687   -4.0924772    1533.3297  0.059625515  0.059804159            2 
 2144000   0.90960233   -4.0771063    1530.9353  0.059504637  0.059792286            9 
 2145000   0.91419879   -4.0626151    1536.8488  0.059706636  0.059780395            4 
 2146000   0.88890116   -4.0707597    1531.2139  0.059459998  0.059768673            8 
 2147000   0.90560876   -4.0853266    1531.1279  0.059428967  0.059756839            3 
 2148000   0.91711438   -4.0675972    1537.5241  0.059649445  0.059745021            3 
 2149000   0.91871757   -4.0881009    1534.7293  0.059513312  0.059733182            7 
 2150000   0.90161826   -4.0787364    1534.9413   0.05949385   0.05972104            7 
 2151000   0.88410161   -4.1143341    1532.5653  0.059374142  0.059709047            9 
 2152000   0.88425215   -4.0780522    1531.3676  0.059300172  0.059697147            3 
 2153000   0.91103231    -4.095108    1532.6479  0.059322182  0.059685257            5 
 2154000   0.93459709    -4.091877    1535.9506  0.059422414  0.059673504            2 
 2155000    0.9017676   -4.1042269    1529.4048  0.059141717  0.059661777            3 
 2156000   0.90037545   -4.0721415    1538.4333  0.059463253  0.059650044            4 
 2157000   0.90363377   -4.0988655    1536.1278  0.059346614  0.059638318            3 
 2158000   0.88966367   -4.0867943     1538.827  0.059423348  0.059626479            4 
 2159000   0.90514558   -4.0885992    1538.7125  0.059391405  0.059614613            2 
 2160000   0.93065488   -4.0913089    1536.3791  0.059273884  0.059602738            3 
 2161000   0.92231825   -4.1095028    1534.9474  0.059191248   0.05959069            2 
 2162000   0.89816656   -4.0968167    1539.4177  0.059336173   0.05957862            4 
 2163000   0.90881317   -4.1041958    1541.9219  0.059405222  0.059566859            2 
 2164000   0.89592063   -4.0507043    1539.9776  0.059302896  0.059555188            3 
 2165000   0.88956709   -4.1104701     1539.058  0.059240106  0.059543365            4 
 2166000    0.9091917   -4.1173063    1539.8177  0.059241986  0.059531456            5 
 2167000   0.91169739   -4.0812685    1536.1029  0.059071795  0.059519227            2 
 2168000   0.91059716   -4.0995162    1540.4488  0.059211594   0.05950711            2 
 2169000   0.93831389   -4.0865191    1541.2943  0.059216777  0.059495067            3 
 2170000   0.90762084   -4.1091415    1535.4798  0.058966197  0.059482965            5 
 2171000   0.92118254   -4.1043026    1536.0649  0.058961496  0.059470723            4 
 2172000   0.87065816   -4.0919418    1542.1317  0.059167117  0.059458492            2 
 2173000   0.91985666   -4.1325856    1541.6932  0.059123071  0.059446292            8 
 2174000    0.9131292   -4.0907331    1537.9406  0.058952033  0.059434044            4 
 2175000   0.90063971   -4.0876628    1543.2994  0.059130247  0.059421868            5 
 2176000   0.92233379   -4.0802762    1548.3799  0.059297637  0.059409556            3 
 2177000   0.90164861   -4.1156177    1541.2147  0.058996123  0.059397205            3 
 2178000   0.89233612   -4.1211037    1538.5213   0.05886598  0.059384673            3 
 2179000   0.90017395   -4.1128666    1537.8557  0.058813513  0.059372087            5 
 2180000   0.90873877   -4.0987264    1542.4781   0.05896323  0.059359615            4 
 2181000   0.90314051   -4.0851878    1543.5054  0.058975446  0.059347321            3 
 2182000    0.9237749   -4.0869391    1542.9156  0.058925894  0.059335102            6 
 2183000   0.90391996   -4.0987034    1541.3585  0.058839459  0.059322941            4 
 2184000    0.9114449   -4.1281593    1544.6986  0.058939965  0.059310681            4 
 2185000   0.90132825   -4.1087652    1539.8086  0.058726492  0.059298433            2 
 2186000   0.90794769   -4.0928585    1544.6226  0.058883143  0.059286119            4 
 2187000   0.91385312   -4.0851279    1545.3854  0.058885285  0.059273774            3 
 2188000   0.91175377   -4.0948022    1543.1123  0.058771798  0.059261524            6 
 2189000   0.91131023   -4.0798191    1545.4598  0.058834314  0.059249175            5 
 2190000   0.89186059   -4.0653627    1546.3966  0.058843097  0.059236986            3 
 2191000   0.92799713   -4.0887649    1549.6183  0.058938777  0.059224925            3 
 2192000    0.9023097   -4.1359592    1541.4809  0.058602528  0.059212626            3 
 2193000   0.91802271   -4.0887269    1543.3291  0.058646036   0.05920021            4 
 2194000   0.91665792   -4.1056634     1542.925  0.058603958  0.059187948            4 
 2195000   0.90036442   -4.0853358      1548.25  0.058779425  0.059175684            6 
 2196000   0.89788897   -4.1245123    1545.6314  0.058653285  0.059163334            3 
 2197000    0.9005931   -4.0986053    1548.0998  0.058720217  0.059150758            3 
 2198000   0.90874881   -4.1181964     1549.271  0.058737905  0.059138358            3 
 2199000   0.90274242   -4.1377976    1543.2349   0.05848245  0.059125897            5 
 2200000   0.92668545   -4.1254093    1550.9418  0.058747797  0.059113633            2 
 2201000   0.90829702    -4.110488    1552.1143  0.058765498  0.059101344            3 
 2202000   0.89665111   -4.1237812    1558.7502   0.05898994  0.059089136            3 
 2203000   0.90767256   -4.1217021    1546.1159  0.058485243  0.059076875            3 
 2204000   0.89808189   -4.1267363    1552.3905   0.05869595  0.059064545            2 
 2205000   0.90374957   -4.0773441    1550.5313  0.058599068  0.059052311            3 
 2206000   0.88664234   -4.0984633    1547.6957  0.058465386  0.059040026            3 
 2207000   0.90311231   -4.1413419     1547.127   0.05841742  0.059027777           10 
 2208000   0.89806117   -4.1034415     1556.783  0.058755398  0.059015495            2 
 2209000    0.8890116   -4.1269675    1554.1738  0.058630368  0.059003101            2 
 2210000   0.88287207   -4.0750355    1558.7374   0.05877592  0.058990708            6 
 2211000    0.8919939   -4.0990628    1555.3491   0.05862163  0.058978475            3 
 2212000   0.87963735   -4.1132636    1556.5919   0.05864195  0.058966272            4 
 2213000   0.90776622   -4.1348911    1550.1888  0.058374333  0.058953933            2 
 2214000   0.88772209   -4.1403017    1555.7443  0.058557071  0.058941525            3 
 2215000    0.8947579   -4.0997972    1552.9192  0.058424349  0.058929255            4 
 2216000   0.93069924   -4.0799028    1558.9444  0.058624564  0.058917253            3 
 2217000   0.90260027   -4.1144527    1558.1938  0.058569906  0.058904991            3 
 2218000   0.89905818   -4.1005788     1554.326  0.058398182  0.058892461            6 
 2219000   0.90253305   -4.1054789    1558.6908  0.058535783  0.058880231            2 
 2220000   0.88861802   -4.1302907    1558.5164  0.058502868  0.058867916            6 
 2221000   0.90908689   -4.1241506    1559.1207  0.058499202   0.05885566            2 
 2222000   0.89940119     -4.09898    1557.0853  0.058396539  0.058843471            4 
 2223000   0.89303263   -4.1065098    1561.9469  0.058552516   0.05883107            2 
 2224000   0.89377492    -4.118714    1557.4998  0.058359553  0.058818698            3 
 2225000   0.91203098   -4.0937436    1556.6006  0.058299648  0.058806455            4 
 2226000   0.89719749   -4.1307882    1560.7798  0.058429911  0.058794363            3 
 2227000   0.89877948   -4.0930723    1561.7003   0.05843812  0.058782036            4 
 2228000   0.88561527   -4.0832042    1565.7671     0.058564   0.05876985            3 
 2229000   0.89124712   -4.1151866    1562.2301  0.058405493  0.058757482            5 
 2230000   0.90542165   -4.1230162    1556.3271   0.05815871  0.058744891            5 
 2231000   0.90696706    -4.104842    1557.4771  0.058175598   0.05873246            2 
 2232000   0.89628737    -4.094061    1562.7446  0.058346201  0.058719863            2 
 2233000    0.8938187   -4.0731424    1564.0694  0.058369512  0.058707382            4 
 2234000    0.8555192    -4.101745    1562.4631  0.058283462  0.058694944            4 
 2235000   0.89271239   -4.1355151    1557.8121   0.05808397  0.058682412            5 
 2236000   0.87855319   -4.1226047    1561.0081  0.058177105  0.058669906            2 
 2237000   0.90968162   -4.1289476    1562.7993  0.058217826  0.058657263            7 
 2238000   0.88505052   -4.1114884    1560.9166  0.058121709  0.058644625            2 
 2239000   0.89414625   -4.0966669    1563.7911  0.058202735  0.058632141            5 
 2240000   0.91052976   -4.1114255    1563.9307  0.058181946   0.05861951            6 
 2241000   0.87973554   -4.1182701    1561.5013  0.058065646  0.058606765            8 
 2242000   0.89214089   -4.1079456     1559.265  0.057956623  0.058594033            6 
 2243000   0.90056632   -4.1201514     1562.071  0.058035034  0.058581501            3 
 2244000   0.88951149   -4.1299922    1556.5832  0.057805379   0.05856865            5 
 2245000   0.89408034   -4.0982654    1566.5819  0.058150776  0.058555952            7 
 2246000   0.89421258   -4.0914314    1562.9384    0.0579897  0.058543269            8 
 2247000   0.87140023   -4.1236948    1561.3534  0.057905111  0.058530765            6 
 2248000    0.8913281   -4.0822782    1565.2003  0.058021956  0.058518211            3 
 2249000   0.90180967   -4.1216893    1564.7009  0.057977653  0.058505658            5 
 2250000   0.87721665   -4.1204608    1568.4253  0.058089825  0.058493108            6 
 2251000   0.88232619   -4.1177677    1565.5186  0.057956412  0.058480679            5 
 2252000   0.86917361   -4.1245938    1569.8794  0.058092043    0.0584682            3 
 2253000   0.87987469   -4.1030438     1569.582   0.05805526  0.058455891            4 
 2254000   0.89304674    -4.111569    1574.4241   0.05820852  0.058443417            2 
 2255000   0.89812312   -4.0939657    1569.6498  0.058006276  0.058430859            3 
 2256000   0.88890951   -4.1298495    1565.6776  0.057833834  0.058418187            6 
 2257000   0.88371124   -4.1355155    1568.4626  0.057911039  0.058405635            5 
 2258000   0.90365769   -4.1025108    1570.7159  0.057968554  0.058393077            3 
 2259000   0.89775953   -4.1084215    1570.0557  0.057918539  0.058380463            4 
 2260000   0.89367234   -4.1101763    1571.1783  0.057934302  0.058367895            9 
 2261000   0.89596134   -4.0891506    1568.6904  0.057816982  0.058355259            6 
 2262000   0.88919446   -4.1020175    1575.1265  0.058028533  0.058342779            3 
 2263000    0.8714259   -4.1015444    1571.5911  0.057872702   0.05833026            4 
 2264000    0.8827733   -4.1084287    1576.5258  0.058028775  0.058317703            3 
 2265000   0.87592886   -4.1309729    1571.8087  0.057829605  0.058305063            4 
 2266000   0.89040855   -4.1115228    1574.9724  0.057920431  0.058292638            5 
 2267000   0.88263034   -4.1283724    1573.3265  0.057834382  0.058279953            5 
 2268000   0.91866273   -4.1359262    1572.4313  0.057775988  0.058267235            2 
 2269000   0.88893761   -4.1364347    1574.0522  0.057810057  0.058254596            4 
 2270000   0.87236309    -4.098459    1573.8251  0.057776253  0.058242046            4 
 2271000   0.90228266   -4.1358698    1571.0341  0.057648396  0.058229373            4 
 2272000   0.88495563   -4.1206949    1579.3653  0.057928599  0.058216896            4 
 2273000   0.87558041   -4.1191069    1572.8819  0.057665416  0.058204321            3 
 2274000   0.90714941   -4.1410486    1569.2369  0.057506483  0.058191823            7 
 2275000   0.87913932   -4.1149379     1576.681  0.057753883  0.058179288            5 
 2276000    0.8968892   -4.1263625    1571.5279  0.057539833  0.058166453            3 
 2277000   0.86939141   -4.1335902     1572.331  0.057543954  0.058153774            3 
 2278000   0.86478004   -4.1151934    1575.2654  0.057626038  0.058141141            4 
 2279000   0.90009018   -4.1217394    1574.4875  0.057572308  0.058128516            3 
 2280000   0.86754833   -4.1070048    1577.9484  0.057673554  0.058115836            2 
 2281000   0.87348647   -4.1347983    1577.8258  0.057643791  0.058103195            4 
 2282000   0.87959756    -4.175198     1576.547  0.057571828  0.058090555            3 
 2283000   0.89920687   -4.1128681    1577.2233  0.057571298  0.058077963            6 
 2284000   0.89046815   -4.1431012    1575.2742  0.057474977  0.058065295            3 
 2285000   0.89766161   -4.1265334     1577.419  0.057528045  0.058052574           10 
 2286000   0.90976082   -4.1425644    1571.2542  0.057278151  0.058039854            3 
 2287000   0.89890814   -4.1117859    1578.1402  0.057504015  0.058027188            2 
 2288000   0.87522454   -4.1484296    1580.7135  0.057572608  0.058014376            3 
 2289000   0.89032095    -4.131556     1573.237  0.057275267  0.058001561            3 
 2290000   0.87074188   -4.1207288    1576.6637  0.057374953  0.057988803            2 
 2291000   0.88540432   -4.1015705    1577.0873  0.057365317  0.057976065            5 
 2292000   0.90859331   -4.1343711    1580.1582  0.057451941  0.057963325            8 
 2293000   0.87819463   -4.1144922     1582.896  0.057526386  0.057950757            3 
 2294000   0.87589145   -4.1462233    1572.3413  0.057117891  0.057937969            2 
 2295000   0.87834238   -4.1096209    1578.1034   0.05730223  0.057925149            4 
 2296000   0.89210389   -4.1493888    1578.9388  0.057307593  0.057912476            6 
 2297000   0.88403342   -4.1095992    1580.8381  0.057351551  0.057899666            6 
 2298000   0.89016845   -4.1504468    1574.5038  0.057096887  0.057886809            4 
 2299000   0.88495447   -4.1364635    1581.3561  0.057320433  0.057874039            6 
 2300000   0.87739373   -4.1395519    1577.7682  0.057165514  0.057861314            2 
 2301000   0.87513726   -4.1438703    1583.5188  0.057348935   0.05784839            5 
 2302000   0.86633318   -4.1571345    1581.0039  0.057232984  0.057835542            3 
 2303000   0.87968006   -4.1193233    1582.6809  0.057268811  0.057822868            4 
 2304000   0.88064697   -4.1350896    1583.8768  0.057287211  0.057810019            8 
 2305000   0.86023679   -4.1159289    1585.8032  0.057332003  0.057797199            2 
 2306000   0.86442357   -4.1558134    1583.1222  0.057210258  0.057784541            1 
 2307000   0.85601123   -4.1376265    1585.3502  0.057265935  0.057771728            3 
 2308000   0.88746096   -4.1148844    1584.1088  0.057196303  0.057759014            3 
 2309000   0.89518198   -4.1704631    1581.8241  0.057089074  0.057746209            6 
 2310000   0.90411522   -4.1245494     1588.414  0.057302091  0.057733534            7 
 2311000   0.86152299   -4.0931585    1581.9036  0.057042536  0.057720868            3 
 2312000   0.88591129   -4.1639018    1582.0442  0.057022931  0.057708331           11 
 2313000   0.86461753   -4.1178776    1587.1208   0.05718118   0.05769559            9 
 2314000   0.88124234   -4.1315022    1592.6937  0.057357164  0.057682826            6 
 2315000   0.88667625   -4.1307454    1585.0672  0.057057856  0.057670193            5 
 2316000   0.87257971   -4.1436178    1584.9032  0.057027319  0.057657508            4 
 2317000   0.87687197    -4.139735    1590.9478  0.057220106  0.057644905            2 
 2318000   0.88836962   -4.1384958    1591.8122  0.057226496  0.057632381            5 
 2319000   0.85870026   -4.1054198    1586.7717  0.057020688  0.057619797            3 
 2320000   0.89926385   -4.1394659    1594.2404  0.057264382  0.057607361            5 
 2321000   0.88489666   -4.1619026    1585.8171  0.056937281  0.057594788            4 
 2322000   0.89049689   -4.1216234    1590.2788  0.057072883  0.057582155            3 
 2323000   0.87146805   -4.1470258     1590.639  0.057061234  0.057569703            2 
 2324000    0.8938902   -4.1665105    1592.2795  0.057095507  0.057557224            2 
 2325000   0.89351411   -4.1453169    1590.9002  0.057021511  0.057544516            4 
 2326000   0.89668891    -4.140643     1592.875  0.057067749  0.057532014            7 
 2327000   0.87984801    -4.148578      1592.23  0.057020127  0.057519321            8 
 2328000   0.88726863   -4.1371414     1590.158  0.056921463  0.057506535            3 
 2329000   0.88578228   -4.1586195    1593.8046  0.057027502  0.057494006            9 
 2330000   0.88405897   -4.1450562    1593.5872   0.05699525  0.057481412            3 
 2331000    0.8771373   -4.1119123    1597.3221  0.057104322  0.057468851            5 
 2332000   0.90329277   -4.1462002    1592.3277   0.05690136  0.057456203            1 
 2333000   0.87505935   -4.1353682    1596.8388  0.057038106  0.057443617            4 
 2334000   0.88472764    -4.151533    1592.9789  0.056875853  0.057430923            3 
 2335000    0.8692227   -4.1497703    1594.8146   0.05691701  0.057418223            4 
 2336000   0.86255201   -4.1068549    1601.3819  0.057126922  0.057405562            6 
 2337000   0.88407312   -4.1558335    1600.5677  0.057073446  0.057393078            2 
 2338000   0.86197254   -4.1331323    1600.0272   0.05702977   0.05738035            3 
 2339000   0.89522085   -4.1534651    1594.5924  0.056811758  0.057367659            3 
 2340000   0.88170849   -4.1466591      1598.68  0.056933047  0.057354898            5 
 2341000   0.87226382   -4.1400338    1600.6082  0.056977367  0.057342266           11 
 2342000   0.85668543   -4.1450684    1592.1747  0.056652957  0.057329558            4 
 2343000   0.86980986   -4.1376893    1603.6693  0.057037605  0.057316994            3 
 2344000   0.86531264   -4.1566685    1599.1352  0.056852075  0.057304407            3 
 2345000   0.87178292   -4.1370154    1600.5526  0.056878201  0.057291947            4 
 2346000   0.88481381   -4.1371326    1600.5348  0.056853325  0.057279324            5 
 2347000   0.88726802   -4.1336433    1599.3956  0.056788653  0.057266956            6 
 2348000   0.87334035   -4.1416206    1602.6152  0.056878733  0.057254335            2 
 2349000   0.89110487   -4.1534085    1597.8007   0.05668372  0.057241687            6 
 2350000   0.88017099   -4.1357358    1603.0552  0.056845928  0.057229035            4 
 2351000   0.86607089   -4.1348331     1593.796  0.056493549  0.057216419            2 
 2352000   0.88600732   -4.1405494    1600.2408  0.056697875  0.057203866            5 
 2353000   0.86983952   -4.1419028    1601.4124   0.05671527  0.057191179            6 
 2354000   0.88616498   -4.1729558    1600.8145  0.056670013  0.057178502            4 
 2355000   0.87642151   -4.1615505    1603.2892  0.056733518  0.057165885            9 
 2356000   0.87713232   -4.1299619    1602.0156  0.056664389  0.057153656            7 
 2357000   0.88453756   -4.1676871    1602.7777  0.056667291  0.057141438            2 
 2358000   0.88541718   -4.1657833    1599.6788  0.056533743  0.057128951            3 
 2359000   0.86542603   -4.1449823    1605.4915  0.056715117  0.057116643            4 
 2360000   0.86493326     -4.14158      1602.54  0.056586865  0.057104259            4 
 2361000   0.87843753   -4.1435145      1604.73  0.056640194  0.057091845            3 
 2362000   0.86831896   -4.1569373     1605.289  0.056635936  0.057079112            5 
 2363000   0.87781239   -4.1467544    1604.2993  0.056577068  0.057066513            2 
 2364000   0.87445126   -4.1407841    1604.0085  0.056542883  0.057053888            5 
 2365000   0.87479088   -4.1600782    1603.7479  0.056509793  0.057041245            5 
 2366000   0.87356973   -4.1690339    1604.1888  0.056501436  0.057028397            6 
 2367000   0.87819436    -4.162806    1599.0859  0.056297912  0.057015738            4 
 2368000   0.86982622   -4.1432562    1607.3113  0.056563603  0.057002915            4 
 2369000   0.87345276   -4.1611233    1605.3122  0.056469404  0.056990366            5 
 2370000   0.88160846    -4.135208    1604.4008   0.05641353  0.056977625            5 
 2371000   0.86261746   -4.1522128    1607.0921   0.05648433  0.056964973            3 
 2372000   0.87761504   -4.1586534    1606.8448  0.056451827  0.056952347            6 
 2373000   0.86925918    -4.155635    1606.6539  0.056421335  0.056939586            4 
 2374000   0.87288794   -4.1515699    1605.3156   0.05635059  0.056926817            4 
 2375000   0.88317864   -4.1407813    1605.6707  0.056339324  0.056914029            9 
 2376000    0.8654821   -4.1490024    1610.4498  0.056483229  0.056901111            6 
 2377000   0.87559934   -4.1654122    1606.3647  0.056316248  0.056888387            4 
 2378000    0.8662133    -4.145204    1607.4042  0.056328995  0.056875579            5 
 2379000   0.87501238   -4.1441312     1609.803  0.056389345  0.056862577            7 
 2380000    0.8907953   -4.1406933    1607.5558  0.056286969  0.056849773            2 
 2381000   0.88576897   -4.1392906    1611.0977  0.056387292  0.056837009            4 
 2382000   0.85873957   -4.1827838    1609.5416  0.056309181   0.05682425            3 
 2383000   0.88269152   -4.1632548    1610.6205   0.05632328  0.056811475            7 
 2384000   0.85743371   -4.1389549    1616.8893  0.056518782  0.056798726            6 
 2385000   0.86650327   -4.1511822    1611.6747  0.056312882   0.05678587            5 
 2386000   0.88227407   -4.1444211    1609.4393  0.056211209  0.056772969            2 
 2387000   0.88608019   -4.1567833    1606.6158  0.056089086  0.056760172            9 
 2388000   0.86999456   -4.1803356    1604.0755  0.055976951   0.05674748            4 
 2389000   0.86383449    -4.160022    1612.4875  0.056246946  0.056734587            3 
 2390000   0.86906203   -4.1592901    1611.4594  0.056187565  0.056721797            8 
 2391000    0.8645079   -4.1641004     1615.453  0.056303255  0.056709035            5 
 2392000   0.86512921   -4.1383106    1612.1884  0.056165983  0.056696189           10 
 2393000   0.86617392   -4.1735032    1615.2102  0.056247744  0.056683361            2 
 2394000   0.85968722   -4.1809875    1603.1479  0.055804367    0.0566703            9 
 2395000   0.87979282    -4.155423    1610.6118  0.056040774  0.056657554           12 
 2396000    0.8805142   -4.1693495    1615.4626  0.056186095   0.05664468            4 
 2397000   0.88569591   -4.1864779    1613.3246  0.056088325  0.056631944            4 
 2398000   0.85658796   -4.1533216    1613.5554  0.056072957  0.056619171            3 
 2399000   0.86989691   -4.1641291    1609.3107  0.055902137  0.056606396            3 
 2400000   0.88145086     -4.14878    1618.8375  0.056209634  0.056593634            3 
 2401000   0.86583857    -4.139089    1615.0129  0.056053481  0.056581001            6 
 2402000   0.87613931   -4.1664343    1618.9697  0.056167421  0.056568319            4 
 2403000    0.8591912   -4.1718503    1612.1451  0.055907376  0.056555526            2 
 2404000   0.86545416   -4.1513996    1617.7088  0.056076982  0.056542911            2 
 2405000   0.86626767   -4.1434644    1620.3057  0.056143648  0.056530213            4 
 2406000   0.86078472   -4.1585038    1615.7002  0.055960798  0.056517451            4 
 2407000   0.87852741   -4.1345014    1616.5962  0.055968572  0.056504862            3 
 2408000   0.87215376   -4.1673095    1615.0946  0.055893363   0.05649211            3 
 2409000   0.85911625   -4.1595902    1619.2742  0.056014744  0.056479344            4 
 2410000   0.85137134   -4.1772046    1617.9533  0.055945826  0.056466753            8 
 2411000   0.86583932   -4.1676092    1620.1936  0.056000056  0.056454019            7 
 2412000   0.86402471   -4.1669009    1617.2519  0.055875204  0.056441404            3 
 2413000   0.88482798    -4.153825     1620.766  0.055973409  0.056428726            4 
 2414000   0.86688676   -4.1584086    1621.2468   0.05596682  0.056416281            2 
 2415000   0.84675189   -4.1578381    1615.5023   0.05574542   0.05640379            4 
 2416000   0.85943993   -4.1883518     1619.784  0.055870034  0.056391073            6 
 2417000   0.86245027   -4.2038941    1614.7006  0.055671653  0.056378427            4 
 2418000   0.85622782   -4.1606004    1620.7373  0.055856677  0.056365865            5 
 2419000   0.87412063   -4.1471257    1621.1302  0.055847118  0.056353213            5 
 2420000   0.86874682   -4.1739918    1619.3106  0.055761386  0.056340517            5 
 2421000   0.86135026   -4.1450463    1621.1149  0.055800458  0.056327825            5 
 2422000   0.86751527   -4.1656578    1620.8441  0.055768102  0.056315167            2 
 2423000   0.87037733    -4.154091    1620.8542  0.055745431  0.056302415           14 
 2424000   0.86055102   -4.1731581    1620.1999   0.05569994  0.056289736            3 
 2425000   0.86752218   -4.1387295    1624.0974  0.055810908   0.05627707            5 
 2426000    0.8498519   -4.1481185    1625.3382  0.055830523  0.056264401            5 
 2427000   0.85628196    -4.170859    1623.1021  0.055730739  0.056251816            4 
 2428000   0.87045383   -4.1650271    1625.1384  0.055777676  0.056239073            5 
 2429000   0.85724435   -4.1626644    1626.5519  0.055803207  0.056226403            3 
 2430000    0.8700288   -4.1858532    1625.8575   0.05575643  0.056213607            4 
 2431000   0.84016205   -4.1753666      1626.23  0.055746262  0.056200891            2 
 2432000   0.87980508   -4.1575251    1624.9764  0.055680387  0.056188117            4 
 2433000   0.86067652   -4.1399264    1624.7546  0.055649905  0.056175385            8 
 2434000   0.86815052   -4.1717302    1621.7532  0.055524281  0.056162727            3 
 2435000   0.85432031   -4.1739971    1627.2334  0.055689028  0.056149951            4 
 2436000   0.85208869   -4.1540953    1623.4737  0.055537552  0.056137312            7 
 2437000   0.86794797   -4.1792802    1631.2377  0.055780251  0.056124653            3 
 2438000   0.88893754   -4.1549623    1623.2538  0.055484475  0.056112018            5 
 2439000   0.87183681   -4.1669679    1623.4247  0.055467566  0.056099378            6 
 2440000   0.86552697   -4.1828461    1629.1908  0.055641763  0.056086725            7 
 2441000    0.8567903   -4.1699688     1633.026  0.055749899  0.056073955            3 
 2442000   0.86680995   -4.1623587    1630.2454  0.055632179  0.056061119            3 
 2443000   0.86653407   -4.1772244    1627.6687  0.055521515  0.056048493            8 
 2444000   0.86518271   -4.1678655    1630.4275  0.055592864  0.056035983            4 
 2445000   0.86480107   -4.1672943    1622.3339  0.055294271  0.056023203            3 
 2446000   0.88858085   -4.1723916    1630.4135  0.055546931  0.056010385            3 
 2447000   0.84780947   -4.1974349    1631.1446  0.055549127  0.055997819           10 
 2448000   0.87800576   -4.1592214    1639.1381  0.055798546  0.055985251            3 
 2449000   0.85737471   -4.1766876    1632.5929  0.055553045  0.055972603            5 
 2450000   0.85893571   -4.1512759    1635.2835  0.055621888   0.05596015            5 
 2451000    0.8753823    -4.180109    1630.8507  0.055448479  0.055947469            6 
 2452000   0.86048244   -4.1788238    1631.1043  0.055434486   0.05593489            5 
 2453000   0.85091653   -4.1810661     1634.089  0.055513284  0.055922309            5 
 2454000   0.83913661   -4.2267034    1628.0087  0.055284185  0.055909578            6 
 2455000   0.86500625   -4.2066478    1631.4571   0.05537872  0.055896959            3 
 2456000   0.83534756    -4.198858     1633.586  0.055428405  0.055884288            4 
 2457000   0.84917937   -4.1314493    1634.3994  0.055433435   0.05587162            4 
 2458000   0.87993762   -4.1570714    1636.5025  0.055482185  0.055858988            2 
 2459000   0.85444424   -4.1578766    1630.9656   0.05527198  0.055846373            4 
 2460000   0.87472176   -4.1704548    1634.2208  0.055359785  0.055833539            4 
 2461000   0.87458152    -4.162418    1634.0614  0.055331891  0.055821003            5 
 2462000   0.86790877   -4.1727672    1639.8505  0.055505365  0.055808492            3 
 2463000   0.87748211   -4.1506074    1640.2818  0.055497423  0.055795873           11 
 2464000   0.85427759   -4.1778051    1632.6654  0.055217309  0.055783207            4 
 2465000   0.86424465   -4.1646831    1635.1408  0.055278592  0.055770527            3 
 2466000   0.86672785    -4.177273    1638.9604  0.055385252  0.055758059            4 
 2467000   0.86222816   -4.1579505    1639.7965  0.055391046   0.05574543            3 
 2468000    0.8506018    -4.179085    1638.2382  0.055315983   0.05573285            5 
 2469000   0.87091357   -4.1720933    1635.5996  0.055204523   0.05572026            3 
 2470000   0.85934478   -4.1739945    1640.9177  0.055361594  0.055707503            6 
 2471000   0.85433385    -4.182255    1637.6472  0.055228896  0.055694742            3 
 2472000   0.84444307   -4.1918279    1638.6366  0.055239907  0.055681999            3 
 2473000   0.83848263   -4.1582607    1641.7069  0.055321029  0.055669197            4 
 2474000   0.86971412   -4.1848585    1636.0953   0.05510965  0.055656428            6 
 2475000   0.85912689   -4.1828832    1636.2577  0.055092853  0.055643806            2 
 2476000   0.87079378   -4.1744568    1634.3099  0.055005044   0.05563112            3 
 2477000   0.86192216   -4.1946831     1642.684  0.055264569  0.055618314            3 
 2478000   0.85734875   -4.1959821    1640.2656  0.055160936  0.055605663            4 
 2479000    0.8316423   -4.1761637    1639.7648  0.055121849  0.055593153            1 
 2480000   0.85464466   -4.1897696    1640.0452  0.055109047  0.055580561            6 
 2481000   0.86329422   -4.1737444    1640.8632   0.05511431  0.055567913            4 
 2482000   0.86559382   -4.1601497    1640.3019  0.055073256   0.05555524            6 
 2483000   0.84423622   -4.1769302    1644.7795  0.055201351  0.055542629            4 
 2484000   0.85386785   -4.2033041    1645.6029  0.055206754  0.055529976            7 
 2485000   0.84968648   -4.1677802    1646.7061  0.055221533  0.055517304            3 
 2486000   0.86021814   -4.2108717    1643.3471  0.055086722   0.05550465            5 
 2487000   0.86003885   -4.1857721    1639.7255   0.05494322  0.055491922            4 
 2488000   0.85426987   -4.1797953    1643.1727    0.0550366  0.055479183            5 
 2489000   0.86374914   -4.1821407    1643.1611  0.055014099  0.055466396            5 
 2490000   0.86055955   -4.1808208    1644.5277   0.05503774  0.055453622            3 
 2491000   0.84373728   -4.1988799     1635.611   0.05471735  0.055440999            5 
 2492000   0.85100404   -4.1951121    1645.4503  0.055024422  0.055428191            4 
 2493000   0.84032433   -4.1842979    1642.9414  0.054918487  0.055415331            4 
 2494000   0.84427911   -4.1799325    1648.9021  0.055095633  0.055402534            3 
 2495000   0.86014397   -4.1744032    1638.7426  0.054734222  0.055389641            3 
 2496000   0.84462788   -4.1607944    1643.2505  0.054862796  0.055376852            3 
 2497000   0.85171092   -4.2054367    1644.1402  0.054870517  0.055364017            5 
 2498000   0.85335539   -4.1891891    1638.6407   0.05466509  0.055351146            5 
 2499000   0.86178416   -4.1894063    1637.5814  0.054607889  0.055338206            3 
 2500000   0.85619725   -4.2020925    1641.8436  0.054728119  0.055325355            5 
 2501000   0.85317608   -4.2223674    1638.9932  0.054611262  0.055312398           11 
 2502000   0.85008485    -4.178933    1650.7025  0.054979434  0.055299631            5 
 2503000   0.83759624   -4.1810713    1643.6251  0.054721835  0.055286824            3 
 2504000   0.87577205   -4.1843838    1642.4703  0.054661551   0.05527392            5 
 2505000   0.83836692    -4.184948    1646.7144  0.054780919  0.055261183            7 
 2506000   0.85383524   -4.1903761    1650.0915  0.054871357   0.05524862            2 
 2507000   0.85502948   -4.1939212     1645.309    0.0546905  0.055235979            2 
 2508000   0.85529898   -4.2101503    1650.5341  0.054842308  0.055223367            5 
 2509000   0.84899979   -4.1939352    1647.8477  0.054731225  0.055210662            4 
 2510000   0.84362655   -4.1714222    1647.2639  0.054690038  0.055197965            5 
 2511000   0.83218461    -4.203251    1651.9021  0.054822187    0.0551853            2 
 2512000   0.86567702   -4.2064814    1651.7622  0.054795719  0.055172641            3 
 2513000   0.84425151   -4.1849265    1652.0572  0.054783697  0.055159999            4 
 2514000   0.83962519    -4.206115    1647.9298  0.054625094  0.055147432            4 
 2515000   0.85099693   -4.1800423    1650.0261  0.054672833  0.055134712            4 
 2516000   0.84378976   -4.1697509    1647.5242  0.054568237  0.055121955            3 
 2517000   0.83426586   -4.1970347     1644.413  0.054443549  0.055109231            7 
 2518000   0.85848703   -4.1855959    1649.6931  0.054596673  0.055096439            3 
 2519000   0.84451317   -4.2096524    1648.8892  0.054548405   0.05508373            6 
 2520000   0.84046975   -4.2007316    1654.0838   0.05469854  0.055071022            4 
 2521000   0.84454333   -4.1960716    1647.4596  0.054457874  0.055058313            5 
 2522000   0.85022509   -4.1804675    1648.7013  0.054477309  0.055045481            5 
 2523000   0.83440509    -4.191734    1655.0864  0.054666615  0.055032598            5 
 2524000   0.85347452   -4.1995871    1652.7814  0.054568852  0.055019677            5 
 2525000   0.85923181   -4.2122114     1646.637  0.054344455  0.055006878            4 
 2526000   0.85478173   -4.1990699    1649.8851  0.054430096  0.054994109            5 
 2527000   0.84678809    -4.176993    1655.8804  0.054606266   0.05498133            7 
 2528000   0.82101284   -4.1838907    1656.2813   0.05459788  0.054968589            6 
 2529000   0.83625746   -4.2053905    1647.6741  0.054292674  0.054955849            4 
 2530000   0.85913179    -4.198012     1649.575  0.054333827  0.054943093            2 
 2531000   0.85403816   -4.1733597    1653.6413  0.054446243  0.054930513            4 
 2532000   0.86254615   -4.2183773    1652.1865  0.054376858  0.054917909            2 
 2533000   0.83913655   -4.1809066    1658.2092  0.054553533  0.054905142            3 
 2534000   0.85571037   -4.2057674    1648.0839  0.054199022  0.054892375            4 
 2535000   0.84506613   -4.1795195    1657.5454  0.054488674  0.054879464            4 
 2536000   0.84890193   -4.1891207    1658.0671  0.054484329  0.054866776            7 
 2537000   0.83788829   -4.1980927    1652.7404  0.054287886  0.054853992            3 
 2538000   0.84678653   -4.1886698    1655.2057  0.054347441  0.054841191            7 
 2539000   0.84143507   -4.1810014    1652.2267  0.054228264  0.054828204            3 
 2540000   0.84710287    -4.217396    1655.0102  0.054298235  0.054815339            4 
 2541000   0.84067408   -4.1937193    1652.8127  0.054204797  0.054802478            2 
 2542000   0.85766712   -4.1863473     1652.678   0.05417906  0.054789541            2 
 2543000    0.8456373   -4.1826742    1661.0763  0.054432963  0.054776573            3 
 2544000   0.84728884   -4.2247447    1653.2668  0.054155753  0.054763586            5 
 2545000   0.83835476   -4.2102003    1657.9074  0.054286425  0.054750644            5 
 2546000   0.83857518   -4.1854781    1652.6681  0.054093613  0.054737746            4 
 2547000   0.84527708   -4.2107624    1651.7088  0.054040988  0.054724695            4 
 2548000   0.84788783   -4.1746781    1660.5021  0.054307368  0.054711705           10 
 2549000   0.86062213   -4.2019593    1655.2639  0.054114812  0.054698806            2 
 2550000    0.8390969   -4.1888004    1654.2096  0.054059139  0.054685714            4 
 2551000    0.8483116   -4.2172135    1653.5736  0.054017168   0.05467282            5 
 2552000   0.85367011   -4.2234696    1653.3941  0.053990143   0.05465985            3 
 2553000   0.83329202    -4.206763    1656.3677  0.054066057  0.054646693            4 
 2554000    0.8521916   -4.2051158    1653.4761  0.053950538  0.054633541            5 
 2555000   0.83687682   -4.2121621    1651.5809   0.05386761  0.054620299            5 
 2556000    0.8543102   -4.2235277    1656.0174  0.053991176  0.054607244            5 
 2557000   0.81947264   -4.2039932    1657.1443   0.05400679  0.054594259            5 
 2558000   0.83715304   -4.1991668    1654.3687  0.053895252   0.05458119            7 
 2559000   0.84566529   -4.2069045    1653.3775  0.053841915  0.054568028            4 
 2560000   0.85532231    -4.184399    1655.7913  0.053899457  0.054554909            4 
 2561000    0.8272923   -4.2178426    1655.1445  0.053857362  0.054541877            3 
 2562000   0.84193329   -4.2062269    1656.4816  0.053879833  0.054528813            6 
 2563000   0.82552122   -4.2083555    1660.5984  0.053992665  0.054515767           10 
 2564000   0.82355943   -4.2310265    1658.7439  0.053911332  0.054502763            3 
 2565000   0.82545054   -4.2402278    1653.4893  0.053719602  0.054489699            5 
 2566000   0.84307798   -4.1712974    1656.1357  0.053784609  0.054476652            4 
 2567000   0.84258793   -4.2121895    1657.9295  0.053821889  0.054463696            4 
 2568000   0.83834212   -4.2155884      1651.52  0.053592939  0.054450418            5 
 2569000     0.848785   -4.2346654     1654.405  0.053665662   0.05443733            6 
 2570000   0.82699623   -4.2028532    1664.1942  0.053962199  0.054424283            2 
 2571000   0.83949839   -4.1978742    1665.9247  0.053997299  0.054411335            4 
 2572000   0.84287438   -4.2202488    1658.7907  0.053745164  0.054398375            5 
 2573000   0.84384524   -4.2189282    1659.5753  0.053749686  0.054385327            6 
 2574000   0.85841723   -4.2259999     1663.762   0.05386435  0.054372373            4 
 2575000   0.82465033   -4.2037071    1662.4127  0.053799763  0.054359328            2 
 2576000   0.83077465   -4.2320075    1660.4749  0.053716192  0.054346486            4 
 2577000   0.83418327   -4.1899715    1661.8769  0.053740684  0.054333578            4 
 2578000   0.84687012   -4.2230137    1665.5257  0.053837784  0.054320593            3 
 2579000    0.8469716   -4.2374445    1661.6477  0.053691604  0.054307708            4 
 2580000   0.83998295   -4.2113714    1664.9107  0.053776186  0.054294751            5 
 2581000   0.82177009   -4.1921509    1667.3598  0.053834425  0.054281942            6 
 2582000   0.84310933   -4.2051675    1665.0994  0.053740622  0.054268933            5 
 2583000   0.85742079     -4.21319    1665.9482    0.0537472  0.054256062            2 
 2584000   0.82669553   -4.1995042    1663.1376  0.053635758  0.054243093            7 
 2585000    0.8318046   -4.1880028    1665.1877    0.0536811  0.054230336            4 
 2586000   0.84454295   -4.2140367    1667.3897  0.053731301  0.054217545            8 
 2587000   0.84684099   -4.2061413    1669.7163  0.053785474  0.054204753            4 
 2588000   0.85716642   -4.2030115    1670.8982  0.053802751  0.054192085            4 
 2589000   0.85510855   -4.2167537    1667.7726  0.053681363  0.054179328            6 
 2590000   0.84638395   -4.2052476    1668.7808  0.053693076  0.054166711            3 
 2591000   0.83579276    -4.219842     1670.711  0.053734432  0.054154048            3 
 2592000   0.84022407   -4.2192063    1664.1351  0.053502286  0.054141379            2 
 2593000   0.81900133   -4.2083224    1666.6753  0.053563288  0.054128658            2 
 2594000   0.84313335   -4.1888601    1675.3723  0.053822036  0.054115906           10 
 2595000   0.81236293   -4.2107203    1673.1182  0.053728909  0.054103384            4 
 2596000    0.8391532   -4.1891452    1671.2688  0.053648844  0.054090609            3 
 2597000    0.8500288   -4.2073328    1670.1172  0.053591233  0.054077937            4 
 2598000   0.84563513   -4.2410681    1673.0898  0.053665953   0.05406518            6 
 2599000   0.83578289   -4.2352149    1673.6696  0.053663896  0.054052596            8 
 2600000   0.84341144    -4.207392    1671.9488  0.053588103  0.054039804            3 
 2601000     0.850899   -4.2002361    1670.8975  0.053533818  0.054027297            5 
 2602000   0.84195494   -4.2317435    1671.3215  0.053526821   0.05401453            3 
 2603000   0.83066591   -4.2202994    1675.4139  0.053637275  0.054001783            6 
 2604000   0.84421358   -4.1975127     1678.454  0.053713967   0.05398928            3 
 2605000   0.82300705   -4.2028413    1677.5966  0.053665918  0.053976633            3 
 2606000   0.84378769   -4.1982328    1675.6831  0.053584136  0.053964145            7 
 2607000   0.84273823   -4.2008153    1680.7883   0.05372677  0.053951814            4 
 2608000   0.84037993   -4.2164046    1673.2576  0.053465544  0.053939361           12 
 2609000   0.83027099    -4.211396    1674.8903  0.053497198  0.053926873            6 
 2610000   0.83159497   -4.2521223     1676.666  0.053533398  0.053914235            2 
 2611000   0.84803501   -4.2144448    1680.7717  0.053643934  0.053901771            3 
 2612000   0.84149237    -4.192354    1677.9228  0.053532504  0.053889343            4 
 2613000   0.82838818   -4.2512163    1671.7972  0.053316662  0.053876922            3 
 2614000   0.83529754   -4.2389081    1672.6733  0.053324192  0.053864409            4 
 2615000   0.82936515   -4.2032393     1680.783  0.053562238  0.053851984            5 
 2616000   0.84725995   -4.2107928    1685.6035   0.05369532  0.053839415            4 
 2617000   0.83381252   -4.2292254    1673.7013  0.053295799  0.053827025            2 
 2618000   0.83465326   -4.2304013    1674.5458  0.053302325  0.053814573            6 
 2619000   0.83857261   -4.2221521    1678.1583  0.053396918  0.053802118            4 
 2620000   0.84228607   -4.2219577    1673.3864   0.05322476   0.05378954            3 
 2621000   0.82748986   -4.1805392    1687.5277  0.053654068  0.053777219            5 
 2622000   0.83280658   -4.2353111    1674.6465  0.053224207  0.053764704            4 
 2623000    0.8305421   -4.2103849    1675.3881  0.053227477  0.053752058            3 
 2624000    0.8036318   -4.2131272    1681.5054  0.053401466  0.053739438            5 
 2625000   0.81805358    -4.240655    1679.8528  0.053328661  0.053726845            2 
 2626000   0.83521394   -4.1994995    1680.9831   0.05334422  0.053714221            3 
 2627000   0.83765659   -4.2447269    1684.2286  0.053426867  0.053701608            5 
 2628000   0.83986789   -4.2444045    1682.8954  0.053364262    0.0536891            9 
 2629000   0.83800183   -4.2341226    1686.2712  0.053450971  0.053676544            3 
 2630000   0.82855807   -4.2269224    1682.4375  0.053309174  0.053664059            3 
 2631000   0.83937374   -4.2320739    1686.0986  0.053404873  0.053651676            3 
 2632000   0.82102286   -4.2158608    1680.6157  0.053210984  0.053639222            8 
 2633000   0.82890949   -4.2397491    1680.4735  0.053186275  0.053626803            3 
 2634000   0.84529547   -4.2098854     1684.103  0.053280909  0.053614266            6 
 2635000   0.85159819   -4.2089239    1680.7177  0.053153628  0.053601825            2 
 2636000   0.85584775   -4.2154647    1686.7323  0.053323606  0.053589364            4 
 2637000    0.8235207   -4.2337977    1681.0557  0.053123996  0.053576849            4 
 2638000   0.82318344   -4.2330616    1679.5615  0.053056657  0.053564323            4 
 2639000   0.81577743   -4.2396451    1685.0386  0.053209506  0.053551765            2 
 2640000   0.82849242   -4.2204436    1688.4104  0.053295784  0.053539312           14 
 2641000   0.82652649   -4.1941457    1690.5763  0.053343943  0.053526851            4 
 2642000   0.80788631   -4.2110097    1685.7153   0.05317043   0.05351455            5 
 2643000   0.83562976   -4.1994587     1691.342  0.053327721  0.053502092            5 
 2644000   0.81475815   -4.2184101    1690.1581  0.053270238  0.053489852            3 
 2645000    0.8286867   -4.2372435       1690.7   0.05326717  0.053477494            3 
 2646000   0.83121771   -4.2397076    1692.0949   0.05329097  0.053465175            5 
 2647000   0.81671533   -4.2115232    1686.0392   0.05308019   0.05345291            4 
 2648000     0.824115   -4.2318081    1689.1809  0.053159015   0.05344053            7 
 2649000   0.80994664   -4.2350818    1688.0842  0.053104448  0.053428092            9 
 2650000    0.8305454   -4.2220523    1682.1292  0.052897143  0.053415674            4 
 2651000   0.83395067   -4.2242796    1687.9987  0.053061696  0.053403463            4 
 2652000   0.80791762   -4.2220647    1690.5307  0.053121251  0.053391227            5 
 2653000   0.82916992   -4.2439113    1688.9968  0.053053046  0.053378864            5 
 2654000   0.83487681   -4.2247338    1687.9817  0.053001185  0.053366588            4 
 2655000   0.83378399   -4.2384129    1688.8624  0.053008864  0.053354299            2 
 2656000   0.81530644   -4.2404665    1689.4474  0.053007262  0.053342035            5 
 2657000   0.82513459   -4.2371086     1692.825  0.053093244  0.053329641            5 
 2658000   0.81958341   -4.2127407    1692.7249   0.05307013  0.053317264            4 
 2659000   0.82578175   -4.2037777    1693.8752  0.053086222  0.053305078            4 
 2660000   0.81954886   -4.2411777    1687.8316   0.05287693  0.053292755            8 
 2661000   0.84425292   -4.2270865    1695.2211  0.053088471  0.053280434            4 
 2662000   0.83480719   -4.2485867    1688.2248  0.052849512  0.053268035            2 
 2663000   0.82569497   -4.2425567    1694.1437  0.053014886  0.053255759            5 
 2664000   0.81545477   -4.2284738     1692.448  0.052941943  0.053243325            5 
 2665000     0.829942    -4.242107    1695.3933  0.053014175  0.053230991            2 
 2666000    0.8373065    -4.244348    1694.6355    0.0529706  0.053218688            8 
 2667000   0.82268258    -4.231467    1698.1761   0.05306137  0.053206363            4 
 2668000   0.84095941   -4.2371129     1698.892  0.053063843    0.0531939            2 
 2669000   0.80652217   -4.2344708    1694.8944  0.052919145  0.053181669            2 
 2670000   0.81430566   -4.2359139    1693.1952  0.052846292  0.053169363            6 
 2671000   0.83191397   -4.2163262    1697.2397  0.052952692  0.053157148            4 
 2672000   0.83002021     -4.21479    1704.6544  0.053164123  0.053144964            5 
 2673000   0.80418692   -4.2338091    1698.6761  0.052957852  0.053132728            5 
 2674000   0.81455984    -4.245391    1692.3885  0.052742099  0.053120449            9 
 2675000   0.82386421   -4.2568954     1695.311  0.052813427  0.053108123            7 
 2676000   0.83290973   -4.2301372     1698.398  0.052889824  0.053095833            4 
 2677000   0.83183517   -4.2469821    1692.4095  0.052683646  0.053083467            4 
 2678000   0.83438816   -4.2432128    1698.7377  0.052860895  0.053071137            4 
 2679000   0.83119072   -4.2388294    1693.4163  0.052675634  0.053058759            9 
 2680000   0.80385772   -4.2366386    1701.6847  0.052913082  0.053046448            5 
 2681000   0.81717728   -4.2560525    1700.9369  0.052870102  0.053034078            3 
 2682000   0.82127207    -4.238524    1690.2306  0.052517729   0.05302183            4 
 2683000   0.83203194   -4.2281376    1700.2444  0.052809181  0.053009493            6 
 2684000   0.84925454   -4.2503587    1695.0885  0.052629423   0.05299726            5 
 2685000   0.81605926   -4.2208131    1699.8531    0.0527577  0.052984957            6 
 2686000   0.84515239    -4.224177    1701.5175  0.052789695   0.05297276            3 
 2687000   0.83375874   -4.2449702    1700.8369  0.052748943  0.052960511            6 
 2688000   0.82757282   -4.2498296    1696.8065  0.052604368  0.052948304            4 
 2689000   0.81252027   -4.2182158    1705.5785  0.052856652  0.052936235            4 
 2690000   0.81769649   -4.2278319    1710.1896  0.052979852  0.052924093            6 
 2691000   0.82006715   -4.2609853    1698.0858   0.05258534  0.052911857            7 
 2692000    0.7989494   -4.2352843    1698.8414  0.052589195  0.052899614           10 
 2693000   0.81563227   -4.2402972    1703.1856  0.052704096  0.052887302            4 
 2694000   0.84272269    -4.237825    1703.2915   0.05268781  0.052875094            3 
 2695000   0.84386537   -4.2780578    1701.0405  0.052598654  0.052862864            3 
 2696000   0.83261263   -4.2431114    1703.0799  0.052642184  0.052850638            4 
 2697000   0.83368491   -4.2351641    1702.4728  0.052603905  0.052838473            7 
 2698000   0.81929384    -4.242474    1702.8078  0.052594757  0.052826276            3 
 2699000   0.83437378   -4.2256439    1705.5798  0.052660855  0.052814115            3 
 2700000   0.81518417   -4.2458123     1712.634  0.052859074  0.052801852            4 
 2701000   0.81468476   -4.2282814    1703.3657  0.052553551  0.052789773            8 
 2702000   0.81778393   -4.2193085    1708.2239  0.052683936  0.052777579            5 
 2703000   0.82260197   -4.2031605    1706.8836  0.052623124  0.052765448            8 
 2704000   0.82589666   -4.2110129    1706.0174  0.052576965  0.052753315           13 
 2705000   0.81813972   -4.2136647    1704.1358  0.052499562  0.052741171            4 
 2706000   0.82095834   -4.2333753    1706.7137   0.05255955  0.052729082            8 
 2707000   0.81899653   -4.2502068    1710.8491   0.05266744  0.052716797            3 
 2708000   0.82794426   -4.2397994    1708.6941  0.052581674  0.052704579            7 
 2709000   0.81995354   -4.2608895    1708.8845  0.052568122  0.052692396            4 
 2710000   0.81563102   -4.2514038     1702.034  0.052338068  0.052680263            4 
 2711000   0.81832779   -4.2085589    1711.3752    0.0526059  0.052668188            5 
 2712000   0.80676473    -4.232038    1703.0746  0.052331447  0.052656153            4 
 2713000   0.81662307   -4.2353866    1707.7546  0.052455909  0.052644055            3 
 2714000   0.81592998   -4.2233971    1715.5527  0.052676024  0.052632074            4 
 2715000    0.8170685   -4.2402898    1712.4395  0.052561066   0.05262021            7 
 2716000     0.806024   -4.2665629    1704.1383  0.052287012   0.05260826            6 
 2717000   0.82561884   -4.2194302     1711.508  0.052493805  0.052596261            4 
 2718000   0.81050636   -4.2432872    1710.5493  0.052445096  0.052584282            4 
 2719000   0.79663376   -4.2518437    1710.9899  0.052439313  0.052572289            3 
 2720000   0.81566797   -4.2342927    1713.7963  0.052506015  0.052560293            5 
 2721000   0.81323886   -4.2053078    1710.2162  0.052377073  0.052548311            5 
 2722000   0.84516649   -4.2591047     1713.831  0.052468497  0.052536191            3 
 2723000   0.81755334   -4.2499225    1706.2579  0.052217465  0.052524105            3 
 2724000   0.82021948   -4.2599814     1708.977   0.05228148  0.052512073            7 
 2725000   0.82646147   -4.2447724    1709.4085   0.05227549  0.052500039            5 
 2726000   0.81983266    -4.262866    1711.9206  0.052333108   0.05248803            8 
 2727000   0.80564032   -4.2362249    1717.3228  0.052478999  0.052475972            4 
 2728000   0.82666865   -4.2421133     1718.225  0.052487322  0.052464086            3 
 2729000     0.815439   -4.2597623    1715.0364   0.05237072  0.052452137            3 
 2730000    0.8013777   -4.2587876    1713.5326  0.052305636  0.052440128            4 
 2731000    0.8048358   -4.2335009    1715.7919  0.052355423  0.052428056            9 
 2732000   0.82492372    -4.209559    1719.5027  0.052449447  0.052416273            2 
 2733000   0.81382768   -4.2514797    1717.3504   0.05236463  0.052404516            5 
 2734000   0.82652637   -4.2452708    1719.0579   0.05239752  0.052392638            7 
 2735000   0.82104267   -4.2646011    1715.1183  0.052258326  0.052380867            7 
 2736000   0.80112012   -4.2570728    1711.8987  0.052141164  0.052369011            3 
 2737000    0.8075433   -4.2456424     1715.361  0.052227531   0.05235708            2 
 2738000   0.82118232   -4.2539848    1715.9958  0.052227775  0.052345176            2 
 2739000   0.81668475   -4.2525652    1714.6739  0.052168488  0.052333343            7 
 2740000   0.81907206   -4.2338002    1716.5298  0.052205896   0.05232145            8 
 2741000   0.80882675    -4.260786    1719.8724  0.052288473  0.052309674            3 
 2742000   0.81610888   -4.2659294     1719.555  0.052259754  0.052297859            7 
 2743000   0.82017349   -4.2735641    1719.2782  0.052232294  0.052286038            3 
 2744000   0.82464732   -4.2546871    1717.2144  0.052150582  0.052274153            4 
 2745000   0.81531673   -4.2435401    1718.5885  0.052173301  0.052262366            4 
 2746000   0.80662631    -4.245004    1715.8668  0.052071705  0.052250425            4 
 2747000   0.81694576   -4.2373674    1719.9091  0.052175376  0.052238383            6 
 2748000   0.82319996   -4.2648455     1711.012  0.051886583  0.052226323            7 
 2749000   0.82678086   -4.2581115    1715.8384  0.052014018  0.052214379            4 
 2750000   0.81246466   -4.2864024    1715.0361  0.051970792  0.052202506            5 
 2751000   0.81574386   -4.2634269    1712.0396  0.051861129  0.052190513            3 
 2752000    0.8127608   -4.2488628    1724.0231  0.052205156  0.052178603            6 
 2753000   0.81003774   -4.2546504     1722.189  0.052130677  0.052166735            2 
 2754000   0.80178768   -4.2104055    1724.7538  0.052189355  0.052154953            6 
 2755000   0.82669535     -4.23613    1728.3722  0.052279861  0.052143249            5 
 2756000   0.79798067   -4.2488957    1725.0361  0.052160017  0.052131499            6 
 2757000    0.8010225   -4.2416947    1728.0012  0.052230722  0.052119767            6 
 2758000   0.81717388   -4.2473892    1725.2914  0.052129906  0.052108079            3 
 2759000   0.81212667   -4.2408581    1725.1831  0.052107741   0.05209636            2 
 2760000   0.82717795   -4.2653613    1724.2312  0.052060122  0.052084535            6 
 2761000   0.80270881   -4.2530539    1726.1863  0.052100274  0.052072663            3 
 2762000   0.81858981   -4.2601912    1726.2506  0.052083352  0.052060767            6 
 2763000   0.80720696   -4.2748904    1728.4291  0.052130206  0.052048977            3 
 2764000   0.80151259   -4.2714463    1723.1627  0.051952566  0.052037143            2 
 2765000   0.82506936   -4.2545251    1726.8798  0.052045803  0.052025295            5 
 2766000    0.8141928   -4.2902178    1727.5927  0.052048465  0.052013522            5 
 2767000   0.82018383   -4.2503927    1727.8362   0.05203699  0.052001717            5 
 2768000   0.80448642   -4.2433255    1726.7849  0.051986541  0.051989872            7 
 2769000   0.80780275   -4.2752894    1728.6625  0.052024271  0.051978171           13 
 2770000   0.80171941   -4.2754807    1723.9563  0.051863909   0.05196627            3 
 2771000   0.80000652   -4.2652459    1725.8731  0.051902837  0.051954377            4 
 2772000   0.81026408    -4.249351    1726.7081  0.051909213  0.051942553            5 
 2773000    0.7921788   -4.2941358    1725.2088  0.051845439  0.051930626            6 
 2774000   0.81919904   -4.2416209    1730.3438  0.051981008  0.051918775            4 
 2775000   0.78671676   -4.2702654      1727.95   0.05189039  0.051906878            4 
 2776000   0.80266178   -4.2765615    1726.4602  0.051826975  0.051895017            3 
 2777000    0.8061292   -4.2750922    1722.5963  0.051692363  0.051883272            5 
 2778000   0.80646886   -4.2568695    1730.4279  0.051908685   0.05187149           11 
 2779000    0.8053294   -4.2765473    1728.9632  0.051846085  0.051859758            2 
 2780000   0.82128714   -4.2697282    1732.3008  0.051927481  0.051848053            2 
 2781000   0.81251232   -4.2786968      1731.13  0.051873728  0.051836125            6 
 2782000   0.79310999   -4.2627441    1728.1897  0.051767004  0.051824244            5 
 2783000   0.81382753   -4.2820436    1726.4852  0.051697365  0.051812427            6 
 2784000   0.80358608    -4.260315     1731.556  0.051830578  0.051800488            5 
 2785000   0.79240952   -4.2641837    1726.6434  0.051664972  0.051788692            6 
 2786000   0.82823558   -4.2530356    1731.8461   0.05180205  0.051776914            5 
 2787000   0.80002846   -4.2818338    1728.3997  0.051680413  0.051765181            6 
 2788000   0.79648746    -4.269681    1730.3092  0.051718952   0.05175333            2 
 2789000   0.81086262   -4.2634029    1724.9889  0.051541439  0.051741424            7 
 2790000   0.81712768    -4.262286    1727.5311  0.051598898  0.051729556            8 
 2791000   0.81128597   -4.2695607    1728.2488  0.051601839  0.051717719            4 
 2792000   0.81948729   -4.2632842    1730.4903   0.05165026  0.051705995            5 
 2793000   0.79841871   -4.2753402    1731.8127  0.051671223  0.051694211           11 
 2794000   0.81866478   -4.2721229    1730.7281   0.05162038  0.051682344            6 
 2795000   0.81036752   -4.2602924    1735.4222  0.051741867  0.051670655            3 
 2796000   0.80764895   -4.2779638    1735.5537  0.051727279  0.051658831            3 
 2797000   0.79562647   -4.2627909    1739.1032  0.051814539  0.051647174            3 
 2798000   0.80733991   -4.2626617    1735.2637   0.05168167  0.051635565            8 
 2799000   0.79850156   -4.2380956    1736.5122  0.051700376  0.051623969            5 
 2800000   0.80887729   -4.2747621    1732.1666  0.051552577  0.051612261            3 
 2801000   0.80546946    -4.269363    1733.4406  0.051572076  0.051600558            4 
 2802000   0.80506693    -4.249718     1736.668  0.051649655  0.051588857            7 
 2803000   0.79467602   -4.2750465    1737.9939  0.051670646  0.051577238           16 
 2804000   0.80803889   -4.2689782    1744.6762  0.051850815  0.051565579            5 
 2805000   0.82314369   -4.2621979    1737.3192  0.051613762  0.051553938            5 
 2806000   0.80355564     -4.29977    1733.7563  0.051489556   0.05154223           10 
 2807000   0.80496845   -4.2830419    1735.3354  0.051518091  0.051530557            6 
 2808000   0.80872311   -4.2738886    1738.0457  0.051580179  0.051518945            8 
 2809000   0.80447259   -4.2962787    1736.8487  0.051526307  0.051507198            4 
 2810000   0.79815631   -4.2952867    1733.5215  0.051409298  0.051495413            6 
 2811000   0.78650332   -4.2895144    1739.3539  0.051563913  0.051483659            6 
 2812000   0.80430702    -4.269015    1738.6015  0.051523278  0.051472031            4 
 2813000    0.8128156    -4.251558    1741.7139  0.051597165  0.051460364            6 
 2814000   0.79604701    -4.290139    1740.0332  0.051529058   0.05144864            5 
 2815000   0.81525746   -4.2841289    1739.3204  0.051489652  0.051436899            4 
 2816000   0.78010201   -4.2947808    1734.0695  0.051315977  0.051425179            7 
 2817000   0.80065402   -4.2761826    1735.2732   0.05133337   0.05141338            5 
 2818000   0.80090709   -4.2565518    1740.8362   0.05147966  0.051401712            3 
 2819000   0.81717994   -4.2792233    1739.3699  0.051418052  0.051389966            6 
 2820000   0.79940453    -4.260781    1737.9859   0.05135892  0.051378346            5 
 2821000   0.79185885   -4.2690721    1737.7687  0.051334298  0.051366553            2 
 2822000   0.79487063   -4.2773204    1738.2099  0.051329137  0.051354916            8 
 2823000   0.78588475   -4.2615677    1736.4803  0.051259899  0.051343215           10 
 2824000   0.79542559   -4.2904702    1734.5199  0.051183897  0.051331563            4 
 2825000   0.80527498    -4.270542    1737.2317  0.051245773  0.051319745            5 
 2826000   0.80102649    -4.284669    1742.3387  0.051378234  0.051307969            6 
 2827000   0.81993105   -4.2778555    1740.3182    0.0513005   0.05129619            5 
 2828000   0.79946932   -4.2703557    1738.7001  0.051234681  0.051284455            3 
 2829000   0.79197284   -4.2868835    1738.6837  0.051216086   0.05127266            3 
 2830000    0.7848947   -4.2841229    1741.6559  0.051285509  0.051260952            4 
 2831000   0.79796237   -4.2988432    1743.9169  0.051333949  0.051249197            9 
 2832000   0.79010938    -4.303744    1739.6313  0.051189716  0.051237388            6 
 2833000   0.80191815   -4.2979133    1735.1009  0.051038385   0.05122556            5 
 2834000   0.81835994   -4.2886054    1736.2825  0.051055121   0.05121384            4 
 2835000   0.77996915   -4.3047462    1742.3444  0.051215296  0.051202157            4 
 2836000   0.79097905   -4.3082368    1735.9103  0.051008179  0.051190391            5 
 2837000   0.77916536   -4.2728917    1740.7852  0.051133392   0.05117865            7 
 2838000   0.78615084   -4.2805939    1742.6062  0.051168846  0.051166988           12 
 2839000   0.79721186   -4.2984568    1747.4814  0.051293924   0.05115528            6 
 2840000     0.795582   -4.2724877    1748.6712  0.051310775  0.051143699            7 
 2841000   0.81094956   -4.2776685    1745.3221  0.051194477  0.051132051            4 
 2842000   0.79554957   -4.2713827    1750.1097  0.051316846  0.051120393            5 
 2843000   0.81191588    -4.284277     1747.203  0.051213594   0.05110875            3 
 2844000    0.8088575   -4.2749331    1740.7483  0.051006456  0.051097216            5 
 2845000   0.81598228   -4.2968872    1743.3454  0.051064598  0.051085662            6 
 2846000   0.78750756   -4.2678354     1745.407  0.051107022  0.051074105            6 
 2847000   0.77786566   -4.2821577    1744.2729  0.051055876   0.05106244            4 
 2848000   0.78564608   -4.2926654    1745.3451   0.05106932  0.051050702            7 
 2849000   0.79465547   -4.2856373    1749.6906  0.051178501  0.051039065            7 
 2850000   0.79886357   -4.2886077    1749.6836  0.051160339  0.051027408            4 
 2851000   0.78335891   -4.3079222    1746.3574  0.051045171  0.051015762            2 
 2852000    0.7878323   -4.2801718    1746.7832  0.051039715  0.051004124            6 
 2853000   0.79146998   -4.2898885    1747.9198  0.051055024   0.05099259            3 
 2854000   0.80589656   -4.2870369    1750.0281  0.051098695  0.050980852            2 
 2855000   0.80323562   -4.2965082    1747.7751  0.051015035  0.050969221            2 
 2856000   0.78469835   -4.3030836    1742.2684  0.050836497  0.050957664            4 
 2857000   0.80676972   -4.2910264    1752.2978  0.051111241  0.050946041            5 
 2858000   0.79209888   -4.3152218    1748.4903   0.05098234  0.050934415            4 
 2859000   0.80472781   -4.2964553    1743.9007   0.05083073  0.050922774            7 
 2860000   0.79716607   -4.2740952    1750.7613  0.051012859  0.050911188            3 
 2861000   0.80412614   -4.2958559    1749.9313  0.050970852  0.050899591            3 
 2862000   0.79226004   -4.2708876    1750.5986  0.050972472  0.050888019            5 
 2863000   0.79334723    -4.292498     1751.354  0.050976657  0.050876382            4 
 2864000   0.81229049   -4.3117613    1752.7662  0.050999949  0.050864842            6 
 2865000   0.79305211     -4.28965    1757.1357   0.05110924  0.050853343            7 
 2866000   0.80538146   -4.2829392    1752.1128  0.050945359  0.050841989            7 
 2867000    0.8123341   -4.2660719     1753.026  0.050954132  0.050830498           10 
 2868000   0.78904221   -4.3004113    1755.1228  0.050997293  0.050819092            4 
 2869000    0.7967305   -4.2642191    1752.0603  0.050890563  0.050807689            4 
 2870000   0.80554128   -4.2855266    1755.7276  0.050979315  0.050796284            4 
 2871000   0.79317978   -4.3037587    1759.3161  0.051065719  0.050784886            4 
 2872000   0.79070667   -4.2903752    1754.9323  0.050920737  0.050773493            7 
 2873000   0.82559711   -4.3226256    1755.3935   0.05091639   0.05076195            8 
 2874000   0.79754961   -4.3101941    1756.4667  0.050929793  0.050750556            5 
 2875000   0.77887394   -4.2721873    1757.1534  0.050931981   0.05073912            4 
 2876000   0.80463854   -4.2834158    1752.3335  0.050774615  0.050727781            7 
 2877000    0.8041317   -4.3057996    1760.0057  0.050979194  0.050716444            6 
 2878000   0.80533698   -4.2945591    1753.9376  0.050785776  0.050705053            3 
 2879000   0.77767133   -4.2782755    1757.4944  0.050871088  0.050693697            4 
 2880000   0.79468127   -4.2995927    1758.9252  0.050894826  0.050682243            3 
 2881000    0.7694757   -4.3007192    1759.7806  0.050901904  0.050670828            3 
 2882000   0.78702716   -4.2853962     1756.151  0.050779292  0.050659357            5 
 2883000    0.7921211   -4.2803365    1755.8959  0.050754305  0.050647996            7 
 2884000   0.79544176   -4.2808646    1754.0397  0.050683071  0.050636508            3 
 2885000   0.79035155   -4.3114745    1761.3148  0.050875643  0.050625088            6 
 2886000   0.77801819   -4.2861943    1757.0307  0.050734313  0.050613699            6 
 2887000   0.79244268   -4.2952453    1755.2388  0.050665016   0.05060232            5 
 2888000   0.80233248   -4.2870088    1759.0023  0.050756068  0.050590995            2 
 2889000   0.80825139    -4.314427    1760.3706  0.050777968  0.050579666            4 
 2890000   0.78499533   -4.2805161     1757.907  0.050689359  0.050568297            4 
 2891000   0.77928278   -4.2913937     1760.685  0.050751902  0.050556961            5 
 2892000   0.79155158   -4.2710813    1759.8886  0.050711404  0.050545692            5 
 2893000   0.78816358   -4.2864191    1757.9868  0.050639094  0.050534475            8 
 2894000   0.78144076   -4.3262306    1755.7574    0.0505574  0.050522997            6 
 2895000   0.79878236   -4.3043445    1759.9905  0.050661789  0.050511584            8 
 2896000   0.79342005   -4.3069957     1758.493  0.050601203  0.050500165            5 
 2897000   0.78149489   -4.2994495    1764.1132  0.050745404  0.050488799            5 
 2898000   0.78063922   -4.2786748    1761.7665  0.050660411  0.050477481            3 
 2899000    0.7929226   -4.3094569     1760.005  0.050592303  0.050466134            3 
 2900000   0.78078218   -4.3074859    1760.0063  0.050574894   0.05045476            3 
 2901000   0.79699191   -4.2851813    1757.3489  0.050481124   0.05044343            4 
 2902000   0.80059805   -4.2901779    1769.4005    0.0508098  0.050432159           12 
 2903000   0.77065745   -4.3174792    1761.1413   0.05055521  0.050420844            8 
 2904000   0.79643828   -4.3021796    1761.1976  0.050539418  0.050409563            2 
 2905000   0.79621637   -4.3248136    1762.0171  0.050545529  0.050398161            6 
 2906000   0.77431513   -4.3050172     1764.216  0.050591191  0.050386778            3 
 2907000   0.77852037   -4.3082583    1762.1371  0.050514194  0.050375421            7 
 2908000   0.78362538   -4.3096051    1764.3359  0.050559832  0.050364118            5 
 2909000   0.78494867   -4.3099916    1763.3073  0.050512987  0.050352709            7 
 2910000   0.80080168   -4.3047806     1758.093  0.050346306  0.050341367            7 
 2911000   0.77338547   -4.3332478    1761.6991  0.050432244  0.050329918           13 
 2912000   0.79247449   -4.2784012     1766.043  0.050539234  0.050318477            5 
 2913000   0.77958641   -4.2985387    1761.9937  0.050406044  0.050307102           11 
 2914000   0.81087886   -4.2989999    1767.3216  0.050541111  0.050295695            6 
 2915000   0.79592173   -4.3264361    1764.5656  0.050444986  0.050284426            5 
 2916000    0.7754038   -4.3083841     1766.726  0.050489425  0.050273129           10 
 2917000   0.78029645   -4.3083437    1765.8762  0.050447839  0.050261821            6 
 2918000    0.7835543   -4.2950608    1769.2798  0.050527754  0.050250495            4 
 2919000   0.78352283    -4.294892    1773.0726  0.050618723  0.050239185            4 
 2920000   0.79512964   -4.2907598    1770.4174   0.05052561  0.050227944            4 
 2921000    0.7778563   -4.3196972    1763.0613  0.050298452  0.050216692           10 
 2922000   0.78767379   -4.2995378    1771.5231  0.050522562  0.050205502            7 
 2923000   0.76833063   -4.3280619    1764.2928  0.050299146  0.050194243            8 
 2924000   0.77953407   -4.3291986    1765.0227  0.050302743   0.05018298            6 
 2925000   0.78903594   -4.2945698    1772.2509  0.050491478  0.050171649            6 
 2926000   0.77807118   -4.3216276    1771.3478  0.050448502  0.050160379            6 
 2927000    0.7842281    -4.311086    1771.8436  0.050445381  0.050149338            5 
 2928000   0.78150067   -4.3119933    1773.2177  0.050467261    0.0501383            4 
 2929000   0.80124876   -4.3475549    1769.0518  0.050331508  0.050127222            7 
 2930000   0.80337019   -4.3144134    1769.1327  0.050316629  0.050116148            8 
 2931000    0.7756297    -4.338973     1769.866  0.050320313  0.050105038            7 
 2932000   0.78944322   -4.3211129    1772.3188  0.050372862  0.050093995           10 
 2933000   0.78031459   -4.3130012    1770.3977  0.050301104  0.050082915            3 
 2934000   0.79682827   -4.2973128    1773.8092  0.050380858  0.050071934            3 
 2935000   0.78937358   -4.3065757    1768.0035   0.05019885  0.050060765            7 
 2936000   0.79062542   -4.2851647    1770.0446  0.050239686  0.050049699            6 
 2937000   0.77875463   -4.3148226    1774.3495  0.050344726   0.05003861            4 
 2938000   0.79011959   -4.3140235    1770.9146  0.050230162  0.050027402            3 
 2939000   0.78547206    -4.304249    1772.1373  0.050247739  0.050016152            7 
 2940000   0.80338391   -4.2997451    1781.5406  0.050497182  0.050005052            7 
 2941000   0.77578804   -4.3173483    1780.6583  0.050455012  0.049993815            4 
 2942000     0.768043   -4.3197337    1768.2404  0.050086122  0.049982625            4 
 2943000   0.76633956     -4.31338    1768.9588  0.050089445  0.049971372            5 
 2944000   0.78407059   -4.2968442     1775.538  0.050258661  0.049960146            6 
 2945000   0.77088959   -4.3463097    1768.3408   0.05003794  0.049949034            3 
 2946000   0.77840067   -4.2999702    1770.6573  0.050086483  0.049937774            3 
 2947000     0.775742    -4.289888    1771.6549  0.050097695  0.049926561            3 
 2948000    0.7796722   -4.3258054    1774.6836  0.050166317  0.049915242            5 
 2949000   0.79185282   -4.3190792    1778.1045  0.050245974  0.049903895           12 
 2950000   0.77682549   -4.3059714    1773.3319   0.05009412  0.049892592            6 
 2951000   0.75892487   -4.2944438    1777.1045   0.05018368  0.049881373            2 
 2952000   0.77448884   -4.3284591    1775.1435  0.050111324  0.049869988            4 
 2953000   0.77777521    -4.309015    1774.3026  0.050070624  0.049858707            4 
 2954000   0.76300145   -4.3004192    1769.2977  0.049912484  0.049847424            7 
 2955000   0.78983464   -4.2970418    1773.8389  0.050023657   0.04983617            5 
 2956000   0.78257053   -4.3227323    1774.2604  0.050018617  0.049824871            2 
 2957000   0.77258202   -4.3135211    1778.4564  0.050119952  0.049813576           10 
 2958000   0.78502736   -4.3027931    1772.6387   0.04993911  0.049802371            3 
 2959000   0.78774803   -4.3073422      1777.23  0.050051537  0.049791071            5 
 2960000    0.7667105   -4.2959546    1774.7492  0.049964786  0.049779677            6 
 2961000   0.78765447   -4.2807667    1777.9244  0.050037272  0.049768358           10 
 2962000   0.76578528   -4.3015946    1778.2158  0.050028578  0.049757071            7 
 2963000   0.77717509   -4.3386617    1774.1109  0.049896245  0.049745752            4 
 2964000   0.77668711   -4.3418795    1772.6677  0.049838836  0.049734397            8 
 2965000   0.77177358   -4.3193229    1776.8176  0.049938663  0.049723028            8 
 2966000     0.786835   -4.2957497    1775.1849  0.049875953  0.049711621            3 
 2967000   0.76327598   -4.3192987    1772.9477  0.049796307  0.049700269            2 
 2968000   0.77595403   -4.3236381    1777.7622  0.049914707  0.049688973            7 
 2969000   0.76511736   -4.3268133       1773.2  0.049769844  0.049677692            4 
 2970000   0.78809367    -4.310032    1779.4986  0.049929814  0.049666437            5 
 2971000   0.77255989   -4.3342155    1771.1064  0.049677618  0.049655096            6 
 2972000   0.79080606   -4.3386207    1776.6948  0.049817598  0.049643768            3 
 2973000   0.77353726   -4.2935108    1779.1603  0.049869949  0.049632524            7 
 2974000   0.78200826   -4.3177437    1775.8945  0.049761672  0.049621269            7 
 2975000   0.77579572   -4.3052105    1779.1266  0.049835479  0.049610086            7 
 2976000   0.76896301   -4.3381128    1779.2053  0.049820938  0.049598906            4 
 2977000   0.77430867   -4.3187315    1779.2287  0.049804857  0.049587717            7 
 2978000   0.76731859   -4.3117709    1779.3824  0.049792434  0.049576529            4 
 2979000   0.78361959   -4.2925351     1789.681  0.050063807   0.04956534           10 
 2980000   0.77759366   -4.3243536    1784.1932  0.049893545  0.049554329            6 
 2981000   0.77556052   -4.3020959    1787.4442   0.04996769  0.049543122            5 
 2982000   0.77326588    -4.326246    1779.4431  0.049727338  0.049532027            2 
 2983000   0.76586949   -4.2776109    1790.4454   0.05001803  0.049521014            2 
 2984000   0.75832461   -4.3131891    1781.0506  0.049738901  0.049510002            6 
 2985000   0.76155925   -4.3389065    1784.2007  0.049810182  0.049498907            4 
 2986000   0.76380338   -4.3330557    1784.0994  0.049790672  0.049487813            4 
 2987000    0.7783271    -4.308201    1787.5812  0.049871141  0.049476855            5 
 2988000    0.7704922   -4.3336283    1783.7884  0.049748672  0.049465735            5 
 2989000   0.78623198   -4.3432433    1791.6566  0.049951395  0.049454572            5 
 2990000   0.77948043   -4.3391742    1785.5169  0.049763571  0.049443423            5 
 2991000   0.77320349   -4.3274831    1786.6972  0.049779816  0.049432433            4 
 2992000   0.78414297   -4.3207238    1788.1798  0.049804472  0.049421402            4 
 2993000   0.77562688   -4.3003551    1788.4887  0.049796433   0.04941028            4 
 2994000    0.7803197   -4.3238013    1778.7741  0.049509411  0.049399172            7 
 2995000   0.76842963   -4.3178275    1782.7667  0.049603971  0.049388019            6 
 2996000   0.76374707   -4.3138729    1793.8794  0.049896511  0.049376944            5 
 2997000   0.77915338   -4.3451839    1788.0915  0.049718927    0.0493659            5 
 2998000   0.75891858   -4.2947923    1788.8354   0.04972302  0.049354853            5 
 2999000   0.77012316   -4.3003686     1787.732  0.049675781  0.049343702            7 
 3000000   0.78063477   -4.3061042    1789.3425  0.049703959  0.049332633            7 
 3001000   0.76431342   -4.3392084    1789.6066  0.049694731  0.049321548            7 
 3002000   0.77454437    -4.315842    1789.6584  0.049679615  0.049310485            4 
 3003000   0.76765178   -4.3344343    1784.7666  0.049527324   0.04929937            4 
 3004000   0.79272008   -4.3236882     1789.808  0.049650689  0.049288348            5 
 3005000   0.76645261   -4.3361954     1786.237  0.049535137  0.049277359            4 
 3006000   0.78929773   -4.3262361    1791.1412  0.049654613  0.049266286           13 
 3007000   0.77843218   -4.3365886    1786.5285  0.049510269  0.049255176            6 
 3008000   0.76678187   -4.3379281    1790.3696   0.04960022  0.049244071            8 
 3009000   0.77111729   -4.3201765    1782.5578  0.049367392  0.049232962           17 
 3010000    0.7644241   -4.3428797    1787.5771  0.049489952  0.049221755            6 
 3011000   0.76144364   -4.3603679    1786.7774  0.049451385  0.049210672            7 
 3012000   0.75807296   -4.3603529     1788.452  0.049481297  0.049199521            9 
 3013000   0.76931536   -4.3516481    1790.9061   0.04953275  0.049188389            3 
 3014000   0.76734938   -4.3232835    1790.8674  0.049515247  0.049177296            4 
 3015000   0.77418578   -4.3466977    1790.3999    0.0494859  0.049166253            5 
 3016000   0.75630554   -4.3206856    1785.2193  0.049326352  0.049155049            8 
 3017000   0.78504943   -4.3411611    1787.4952  0.049372866  0.049143991            3 
 3018000   0.78098575   -4.3511287    1786.9373  0.049341099  0.049132827            7 
 3019000   0.76444232    -4.339771    1789.2459   0.04938848  0.049121724            6 
 3020000   0.76608767   -4.3338277    1795.2618  0.049538128  0.049110471           16 
 3021000   0.75862843   -4.3457092    1791.0434  0.049405368  0.049099421            3 
 3022000     0.770191   -4.3323447     1791.667  0.049406214  0.049088394            5 
 3023000   0.75247231   -4.3423052    1791.7953  0.049393408   0.04907724            8 
 3024000   0.76855284   -4.3573019    1790.5038  0.049341485  0.049066119            3 
 3025000   0.77562626   -4.3330992    1790.0504  0.049312683  0.049054942           13 
 3026000   0.76732433   -4.3505001    1790.2414  0.049301647  0.049043729            4 
 3027000   0.76429839   -4.3266762    1791.6672  0.049324613  0.049032566            3 
 3028000   0.76934448   -4.3308034    1791.1116  0.049293031  0.049021431           10 
 3029000   0.77935139   -4.3582848    1790.6867  0.049265069   0.04901034            8 
 3030000   0.74877413   -4.3280647     1787.749  0.049168015    0.0489992            6 
 3031000    0.7720574   -4.3612097    1791.0623  0.049242887  0.048987996            3 
 3032000   0.74662606   -4.3174087     1792.626  0.049269623  0.048976766            2 
 3033000   0.78383548   -4.3319801    1791.4541   0.04922118  0.048965562            4 
 3034000   0.76245026   -4.3395541    1794.0451  0.049276123  0.048954485            8 
 3035000   0.77902646   -4.3261082    1798.0258  0.049369188  0.048943365            3 
 3036000   0.77321232   -4.3248164    1790.4769  0.049145722  0.048932179            9 
 3037000   0.76160561   -4.3520763    1789.8273  0.049111713  0.048920969            7 
 3038000   0.76173595   -4.3434697    1799.8951  0.049371712  0.048909833            3 
 3039000   0.76484325   -4.3270056    1795.9534  0.049247379  0.048898732            7 
 3040000   0.76102013   -4.3516676    1794.1389  0.049181438  0.048887557            5 
 3041000   0.76983724   -4.3438086    1791.8046  0.049101299  0.048876435            3 
 3042000   0.76859078    -4.351152    1790.6061  0.049052327  0.048865297            5 
 3043000   0.77344566   -4.3415895    1797.6538  0.049229209  0.048854195            5 
 3044000   0.77461613   -4.3258225     1799.972    0.0492765  0.048843172            6 
 3045000   0.76364042   -4.3360378    1797.3389  0.049188257  0.048832142            4 
 3046000    0.7564152   -4.3715437    1793.9273  0.049078774  0.048821076            4 
 3047000   0.75696365   -4.3187208    1799.3463  0.049210871  0.048809988           11 
 3048000   0.77507304   -4.3551687    1794.4037  0.049059594  0.048798862            6 
 3049000   0.76199275   -4.3606876    1795.0509  0.049061193  0.048787796            8 
 3050000   0.76781977   -4.3562854    1800.9209   0.04920549  0.048776711            5 
 3051000   0.74790394   -4.3501473    1792.4749  0.048958673  0.048765543            5 
 3052000   0.77231075    -4.339277    1797.0188    0.0490667  0.048754434            5 
 3053000   0.74813645   -4.3502779    1795.8951  0.049019957  0.048743385            8 
 3054000   0.76402464   -4.3443747    1800.7441  0.049136217  0.048732293            4 
 3055000   0.76932984    -4.338717     1792.672  0.048899946  0.048721137            4 
 3056000   0.76096318   -4.3686981    1793.4815  0.048906019  0.048710025            4 
 3057000   0.76730273   -4.3758362    1790.3476   0.04880459  0.048698839            5 
 3058000   0.76825852   -4.3504411     1795.011  0.048915714  0.048687755            5 
 3059000   0.76956871   -4.3604441    1801.5693  0.049078383  0.048676726            5 
 3060000   0.76166248   -4.3530944    1795.1709  0.048888095  0.048665673            4 
 3061000   0.75744438   -4.3329161    1800.0169  0.049004054  0.048654679            6 
 3062000   0.75552568   -4.3387555    1802.7106   0.04906136  0.048643628            4 
 3063000   0.77352438   -4.3457721    1805.1543  0.049111826  0.048632721            3 
 3064000   0.75968884   -4.3582272    1799.3891  0.048938998   0.04862171           11 
 3065000   0.77495567   -4.3545349     1803.467  0.049033905  0.048610894            7 
 3066000   0.75209768    -4.337069    1799.5253  0.048910776  0.048599991            5 
 3067000   0.75284475   -4.3710534    1801.2089  0.048940574  0.048588981           20 
 3068000   0.78044224   -4.3520833    1803.6548  0.048991058  0.048578015            4 
 3069000   0.77182749   -4.3676078    1799.5106  0.048862567     0.048567            5 
 3070000   0.75572612   -4.3272862    1801.7205  0.048906637  0.048556041            3 
 3071000   0.73809249   -4.3308255    1802.8397  0.048921081  0.048544978            4 
 3072000   0.75587442   -4.3210248    1807.9202  0.049042974  0.048534027            7 
 3073000   0.77672012   -4.3483447    1805.1032  0.048950625  0.048523041            4 
 3074000   0.76767666   -4.3255724    1807.1294  0.048989627  0.048512107            3 
 3075000   0.75459281   -4.3478712    1799.1191  0.048756614  0.048501128            3 
 3076000    0.7647558   -4.3741875    1799.8955  0.048761798  0.048490162            9 
 3077000   0.76281689   -4.3468534     1802.578    0.0488186  0.048479263            6 
 3078000   0.76718324   -4.3480279    1801.7275  0.048779712  0.048468299            6 
 3079000   0.75383618   -4.3639762    1803.7411  0.048818368  0.048457311            6 
 3080000   0.75396788   -4.3622725    1804.5086  0.048823285  0.048446258            5 
 3081000    0.7655792   -4.3591506    1806.9365  0.048873106  0.048435237            5 
 3082000   0.75094944   -4.3469488    1800.9685  0.048695882  0.048424272            9 
 3083000   0.77820402   -4.3360833    1803.9921  0.048761814  0.048413315            4 
 3084000   0.76096514   -4.3482732    1803.4926  0.048732506  0.048402325            7 
 3085000   0.76020442   -4.3324205    1804.4379  0.048742245  0.048391406           10 
 3086000   0.75992904   -4.3625388    1805.9412  0.048767046  0.048380556            3 
 3087000   0.75316667   -4.3902859    1804.7586  0.048719322  0.048369579            4 
 3088000   0.76901601   -4.3456982    1802.9136  0.048653756  0.048358598            4 
 3089000   0.76250142   -4.3623714    1809.8759   0.04882583  0.048347771            7 
 3090000   0.76316118   -4.3614487    1804.1118  0.048654579  0.048336826            7 
 3091000   0.77027205   -4.3423561    1806.2883  0.048697517  0.048325824            8 
 3092000   0.75042397   -4.3733928    1803.7335  0.048612912  0.048314875            7 
 3093000   0.77078461   -4.3805155     1806.987  0.048684853  0.048303906            3 
 3094000   0.76217727   -4.3630766    1810.2652  0.048757412  0.048292931            6 
 3095000   0.77026694     -4.35325    1807.8531  0.048676713  0.048282094            9 
 3096000   0.76465867   -4.3425639    1811.3168   0.04875422  0.048271256            7 
 3097000   0.75052142   -4.3751385    1809.3622  0.048685883   0.04826036            3 
 3098000   0.76379086     -4.38487    1805.5614  0.048567931   0.04824944            4 
 3099000    0.7549807   -4.3617219    1806.5086   0.04857773  0.048238578            3 
 3100000   0.77348201   -4.3736827    1806.8572   0.04857143  0.048227698            5 
 3101000   0.77424249   -4.3484572    1807.9069  0.048583976  0.048216659            5 
 3102000   0.76051815   -4.3569835    1800.4647  0.048368384  0.048205608            7 
 3103000   0.75714574   -4.3554592    1807.1961  0.048533573  0.048194642           12 
 3104000   0.76713149   -4.3661246    1809.4629  0.048578794  0.048183651            5 
 3105000   0.75350189   -4.3666729    1812.4597  0.048643577    0.0481727           13 
 3106000   0.72670445   -4.3686634    1809.6379  0.048552209  0.048161697            5 
 3107000   0.77033535   -4.3661142    1810.4331  0.048557908  0.048150753            9 
 3108000   0.75107431   -4.3547612    1807.0067  0.048450417  0.048139894            3 
 3109000   0.76768127   -4.3462536    1806.5634  0.048422948  0.048128934            8 
 3110000   0.75426603   -4.3899215    1804.1149  0.048341772  0.048118009            9 
 3111000   0.74997159   -4.3496249    1811.6302  0.048527543  0.048107027            4 
 3112000   0.75649861   -4.3786777    1808.2782  0.048422188  0.048096151            6 
 3113000   0.76171687   -4.3797946    1811.4105  0.048490485  0.048085202            8 
 3114000   0.75173158   -4.3566012    1809.6407  0.048427551  0.048074186            5 
 3115000   0.74917034   -4.3728633    1804.7504  0.048281176   0.04806314            3 
 3116000    0.7558118   -4.3566888    1805.8832  0.048295979  0.048052175            5 
 3117000   0.76194692   -4.3618324    1805.7732  0.048277542   0.04804132            4 
 3118000   0.74791298   -4.3565044    1810.0425  0.048376162   0.04803031            8 
 3119000   0.74418343   -4.3718723    1810.2499  0.048366194  0.048019311            7 
 3120000   0.74300397   -4.3437294    1810.6513  0.048361412  0.048008264            5 
 3121000   0.74720734   -4.3731409    1811.3341  0.048364149  0.047997237            4 
 3122000   0.77191209   -4.3715007    1810.3136  0.048321419  0.047986149            8 
 3123000   0.75074424   -4.3728397    1813.5251  0.048391639  0.047975215            5 
 3124000     0.738257   -4.3684417    1809.9305  0.048280262  0.047964205            7 
 3125000   0.74933199   -4.3648608    1809.2199  0.048245863  0.047953126            6 
 3126000   0.74939818   -4.3688073    1810.6882  0.048269571  0.047942026            5 
 3127000   0.75736232   -4.3686962    1813.3275  0.048324473  0.047931006            3 
 3128000   0.73619838   -4.3595756    1811.0147  0.048247408  0.047919977            7 
 3129000    0.7719066   -4.3881139    1810.8114  0.048226573  0.047908937            5 
 3130000   0.74771148   -4.3868677    1814.5255  0.048310049  0.047897895            4 
 3131000   0.76038003   -4.3554244    1812.9289  0.048252128  0.047886908           10 
 3132000   0.74118609   -4.3771744    1811.1205  0.048188605  0.047875898            5 
 3133000   0.72613736   -4.3883408    1806.8619  0.048059951  0.047864829            4 
 3134000   0.76107703   -4.3694355    1812.4882  0.048194219   0.04785371            4 
 3135000   0.75122109   -4.4034261    1808.6796  0.048077609  0.047842554            9 
 3136000   0.74589881   -4.3647926    1815.5471  0.048244767  0.047831476            3 
 3137000   0.74662378   -4.3696489     1809.937  0.048080358   0.04782042            3 
 3138000   0.73500306   -4.3506966    1814.6523  0.048190257  0.047809337            8 
 3139000     0.753098   -4.3687021    1815.2487  0.048190737  0.047798269            3 
 3140000   0.74608196   -4.3787025    1806.7251  0.047949179  0.047787135            4 
 3141000   0.75400811   -4.3629356    1813.1205   0.04810359  0.047776036            7 
 3142000   0.75275441   -4.3962192    1810.3284  0.048014227   0.04776492            6 
 3143000   0.76289731    -4.395002    1811.1179  0.048019882  0.047753896            4 
 3144000   0.73534928   -4.3445205    1816.9358  0.048158814  0.047742777           11 
 3145000   0.73492541    -4.366318    1818.5389  0.048185979    0.0477317            6 
 3146000   0.74649162   -4.3861522    1812.5249  0.048011361  0.047720698            9 
 3147000   0.73028218   -4.3654976    1817.5695  0.048129686  0.047709736            8 
 3148000   0.75882654   -4.3529427      1816.72  0.048091911  0.047698828            6 
 3149000    0.7539379   -4.3728855    1813.5454  0.047992627  0.047687833            7 
 3150000    0.7394094   -4.3592154    1812.1796  0.047941259  0.047676882           10 
 3151000    0.7393516   -4.3690765    1817.3275  0.048062189  0.047665906            3 
 3152000   0.73185803   -4.3782912     1819.319  0.048099593  0.047655002            6 
 3153000   0.75246808   -4.4003724    1815.7831  0.047990884  0.047643973            2 
 3154000   0.72577863   -4.3946052     1810.868  0.047845803  0.047632971            4 
 3155000   0.74064266   -4.3672371    1814.6738  0.047931163  0.047622001            4 
 3156000   0.73014932   -4.3898293    1811.4777  0.047831582   0.04761099            9 
 3157000   0.73852226   -4.3749244    1818.2995  0.047996502  0.047599967            6 
 3158000   0.73025899   -4.3851807      1814.69  0.047886058  0.047588903            6 
 3159000   0.76474908   -4.3705856    1821.1306    0.0480408  0.047577802            4 
 3160000   0.74291843   -4.3691089    1813.0027  0.047811252  0.047566792            8 
 3161000   0.73877625   -4.3650069    1818.1446  0.047931682  0.047555845            4 
 3162000   0.74759867   -4.3809148    1821.1955  0.047996931  0.047544855            4 
 3163000   0.73355755   -4.3795016    1821.5531  0.047991177  0.047533986            8 
 3164000   0.74539381   -4.3501994    1817.2059  0.047861512  0.047523136            3 
 3165000    0.7544424   -4.4068079    1818.4383  0.047878839  0.047512124           11 
 3166000   0.73763124   -4.3669369    1822.9738  0.047983097  0.047501239            6 
 3167000   0.74956223   -4.3693713    1818.4572    0.0478491  0.047490379            7 
 3168000   0.73536111    -4.343208    1827.2171  0.048064424  0.047479455            9 
 3169000   0.72829087   -4.3758406    1819.4369  0.047844663  0.047468567            6 
 3170000   0.73131779   -4.3789011    1817.6981  0.047783861  0.047457635            9 
 3171000   0.74109246   -4.3650668    1818.0304  0.047777527  0.047446696            8 
 3172000   0.75884232   -4.3899864    1819.6766   0.04780571  0.047435803            5 
 3173000   0.73844666   -4.3929114    1817.6381  0.047737107  0.047424857            9 
 3174000   0.73993366    -4.382086    1816.8107  0.047700344  0.047413846            5 
 3175000   0.73522934   -4.3855661    1815.1633  0.047642081  0.047402819            9 
 3176000   0.75367751   -4.4128821    1815.8428  0.047644911  0.047391795            4 
 3177000   0.75221521   -4.3579089    1824.8745  0.047866816   0.04738083            5 
 3178000   0.74597525   -4.3949765    1822.3619  0.047785869  0.047369972            6 
 3179000   0.74792536   -4.3852617    1821.5924  0.047750666  0.047358965            6 
 3180000   0.72866775   -4.3839826    1819.9314  0.047692123  0.047348111            4 
 3181000   0.75655268   -4.3745624    1825.6964  0.047828157   0.04733723            7 
 3182000   0.74636016   -4.4159061    1823.1798  0.047747219  0.047326371            7 
 3183000    0.7295197   -4.3878172    1822.8205  0.047722812  0.047315466            7 
 3184000   0.73582772   -4.3914886       1819.2  0.047613066  0.047304586            7 
 3185000   0.73225932   -4.3788082    1825.5902  0.047765311  0.047293647            3 
 3186000   0.74668094     -4.37648    1819.6108  0.047593922  0.047282741            6 
 3187000   0.75700042   -4.3939247    1822.5936  0.047656981  0.047271788            8 
 3188000   0.75539234   -4.3835345    1813.9887  0.047417102  0.047260843            7 
 3189000   0.74600392   -4.3949088    1821.6414  0.047602212  0.047249869            6 
 3190000   0.74270904   -4.3798272    1817.5655  0.047480814  0.047238919            7 
 3191000   0.74603526   -4.3663846    1828.3022  0.047746323  0.047228024            4 
 3192000   0.73187664   -4.3868392    1825.9969   0.04767118  0.047217141            7 
 3193000   0.74085673   -4.3790177    1828.2715  0.047715615  0.047206116            7 
 3194000   0.74254526   -4.3840752    1827.1799  0.047672194  0.047195251            4 
 3195000   0.75716884   -4.3916732    1822.8482  0.047544293  0.047184301            5 
 3196000   0.74737595   -4.3856851    1824.0387  0.047560457  0.047173379            5 
 3197000   0.75935067   -4.3836067    1820.9501  0.047465074  0.047162431            7 
 3198000   0.73734172   -4.3700341    1830.5019  0.047699133  0.047151534            7 
 3199000   0.73828649   -4.3829055     1819.499  0.047397599  0.047140642            4 
 3200000   0.73349552   -4.4012634     1822.278  0.047455156  0.047129684           12 
 3201000   0.74487835   -4.3959883     1827.366   0.04757279  0.047118721            6 
 3202000   0.75123831   -4.3914896    1827.9726  0.047573718  0.047107748            3 
 3203000   0.72665188   -4.3931635    1821.7697  0.047397485  0.047096671            6 
 3204000   0.75129579    -4.412804    1818.5379  0.047298636  0.047085659           13 
 3205000   0.73711893   -4.3775716    1825.7021  0.047470153  0.047074611            8 
 3206000   0.74595414   -4.4104276     1820.903  0.047330605  0.047063685            8 
 3207000   0.74655129   -4.3554839    1829.7663  0.047546158  0.047052712            9 
 3208000   0.74375819   -4.4046029    1823.2786  0.047362807  0.047041843            8 
 3209000   0.73432955   -4.4167305    1824.5247  0.047380406  0.047030775            3 
 3210000    0.7515866    -4.401216     1824.792  0.047372585  0.047019765            4 
 3211000   0.74245719   -4.3806401    1828.1434   0.04744481  0.047008822            9 
 3212000   0.72144153   -4.3806382    1824.3302  0.047331107  0.046997893           12 
 3213000   0.73035582   -4.3861024     1828.565  0.047426212  0.046986871            4 
 3214000   0.73288995   -4.4207702    1824.5748  0.047307998  0.046975889            4 
 3215000   0.75600458   -4.4012574    1826.2108  0.047335688  0.046964819            3 
 3216000   0.75712615   -4.4040986    1823.2967  0.047245458  0.046953849            7 
 3217000   0.74971152   -4.4010521    1829.8067  0.047399407  0.046942912           10 
 3218000   0.73969437   -4.4014821    1830.2146  0.047395241   0.04693191            4 
 3219000   0.74005495   -4.4071773    1825.0186  0.047246003   0.04692097            4 
 3220000   0.72816034   -4.3908683    1825.1864  0.047235672   0.04691002            6 
 3221000   0.74663291   -4.3849775     1820.897  0.047110033  0.046899064           13 
 3222000   0.74023976   -4.3702424    1832.3311   0.04739114   0.04688817            4 
 3223000   0.75176832   -4.3696857    1830.7155  0.047334664   0.04687729            4 
 3224000   0.73086813   -4.3927722    1828.1919  0.047254753   0.04686638            6 
 3225000   0.71018846   -4.3999039    1825.8352  0.047179205  0.046855444            3 
 3226000   0.74405331   -4.3684375    1829.5362  0.047260183  0.046844514           10 
 3227000    0.7266767   -4.3899718    1830.0933  0.047259923  0.046833672            4 
 3228000   0.73699714   -4.4082559     1831.133  0.047272124  0.046822791            8 
 3229000   0.72747591   -4.4180602    1822.5228  0.047035274  0.046811872            7 
 3230000    0.7387602   -4.4231027    1823.9868  0.047058484  0.046800828           11 
 3231000   0.73447869   -4.3783016    1833.0237  0.047276995  0.046789902            7 
 3232000   0.73675893   -4.4150048    1829.9371  0.047182784  0.046779023            6 
 3233000   0.73885741   -4.3879981    1826.3968  0.047076936  0.046768104           21 
 3234000   0.72707672   -4.4029508    1828.0294  0.047104448  0.046757162            7 
 3235000   0.74111013   -4.4067248    1831.4713  0.047178551  0.046746213            8 
 3236000    0.7336321   -4.4188952    1828.5142  0.047087819  0.046735348            6 
 3237000   0.73094708   -4.3854022    1828.3198  0.047068269  0.046724503           14 
 3238000   0.73902791    -4.374828    1833.2317  0.047180144  0.046713536            8 
 3239000    0.7346539   -4.3966131    1828.6247  0.047047049  0.046702654            5 
 3240000   0.72133782   -4.3998726    1830.3055  0.047075759   0.04669164            5 
 3241000   0.71341569   -4.4104461    1823.3994  0.046883664  0.046680624            7 
 3242000   0.71646551   -4.3914447    1828.0857   0.04698966  0.046669639            8 
 3243000   0.74386557   -4.4100608     1827.221  0.046952951  0.046658617            6 
 3244000   0.73779123   -4.3968756    1833.3132  0.047094975  0.046647527            6 
 3245000   0.72887929   -4.3898219    1829.3836  0.046979549  0.046636519            9 
 3246000   0.73294524   -4.4173907    1830.2307  0.046986821  0.046625522            6 
 3247000   0.73464006   -4.3868531    1826.5163  0.046877021   0.04661451            4 
 3248000   0.73207383   -4.3929607    1826.7545  0.046868701  0.046603438            9 
 3249000   0.74506315   -4.3918997    1827.3665  0.046869972  0.046592383            6 
 3250000   0.74940964   -4.3989965    1828.2447   0.04687807  0.046581289            4 
 3251000   0.75298716   -4.4181274    1825.7979  0.046800931  0.046570125            7 
 3252000   0.72355755   -4.4189244    1823.4698  0.046726882  0.046558993            8 
 3253000   0.73685737   -4.4299465    1825.7289  0.046770388  0.046547783            4 
 3254000   0.73756763   -4.4100142    1829.1775  0.046844332  0.046536637            4 
 3255000    0.7341677   -4.4063635    1831.9486  0.046900885  0.046525607           11 
 3256000   0.73071942   -4.4309747    1825.5027  0.046721506  0.046514544           10 
 3257000   0.71820766   -4.4017622    1835.8304  0.046971406  0.046503479            6 
 3258000   0.74220845   -4.3894241    1827.8366  0.046752521  0.046492426            5 
 3259000   0.72273535   -4.4333393    1824.7664   0.04665967  0.046481377            4 
 3260000    0.7184437   -4.4082264    1829.9902   0.04677889  0.046470289            5 
 3261000   0.72644433   -4.4204472    1833.1632  0.046845631  0.046459179            6 
 3262000    0.7193694   -4.4263904    1827.2108  0.046679204  0.046448108            5 
 3263000   0.71285988   -4.4096785    1830.5478  0.046750122  0.046436955            6 
 3264000   0.73898721   -4.4010095     1830.159  0.046725872  0.046425733           10 
 3265000   0.72517804   -4.4017598    1830.0454  0.046708661  0.046414588            8 
 3266000   0.73197648   -4.3940931    1828.5361   0.04665585  0.046403513            3 
 3267000   0.75147318   -4.4103356    1828.3711   0.04663736  0.046392388            3 
 3268000   0.72925029   -4.4006708    1834.9178  0.046790029  0.046381293            7 
 3269000   0.72808524   -4.4411898     1829.272  0.046631794  0.046370106           12 
 3270000   0.71273953   -4.4010656    1828.6475  0.046601618  0.046358942            5 
 3271000   0.73101409   -4.3988196     1835.449   0.04676065  0.046347827            8 
 3272000   0.71753322   -4.3669567    1830.1717  0.046611952  0.046336798           11 
 3273000   0.72955738   -4.4289647    1828.0755  0.046544341  0.046325762           19 
 3274000   0.73492108   -4.3886493    1832.7348  0.046648718  0.046314679           12 
 3275000   0.72061701   -4.4051969    1830.0017   0.04656493  0.046303602            6 
 3276000   0.72867952   -4.4040033    1830.8393  0.046572022  0.046292504            4 
 3277000   0.72352388   -4.4310759    1835.2096  0.046668946  0.046281453            5 
 3278000   0.73876823   -4.3990434    1833.4849  0.046610864  0.046270332            5 
 3279000   0.72395741   -4.3957145     1833.158  0.046588339  0.046259182            5 
 3280000   0.72390373   -4.4203547    1827.9732  0.046442409  0.046248055            5 
 3281000   0.73817776   -4.4093551    1830.6804  0.046497014  0.046236928            5 
 3282000   0.72538016   -4.3982191    1836.7381  0.046636656  0.046225989            9 
 3283000   0.73473676   -4.4349582    1829.2458  0.046432273  0.046214853            5 
 3284000   0.70433531   -4.4298935    1832.3327  0.046496466  0.046203762            3 
 3285000   0.73316059   -4.4131194    1833.4509  0.046510677  0.046192689            5 
 3286000   0.74264764    -4.419113     1831.098  0.046436854  0.046181624            5 
 3287000   0.73443291   -4.4258941    1832.9411  0.046469452  0.046170507            4 
 3288000   0.72369612    -4.407072    1834.5651   0.04649648  0.046159422            7 
 3289000   0.72305326   -4.4458646    1826.5106  0.046278266  0.046148299           12 
 3290000   0.73843189     -4.42847    1829.1599  0.046331304  0.046137136            3 
 3291000   0.72717667   -4.3971486    1831.6849  0.046381164  0.046126057            7 
 3292000   0.74336995   -4.4259944    1828.9921  0.046298909  0.046114994            4 
 3293000   0.72180721   -4.4229743    1833.6036  0.046401548  0.046103876            5 
 3294000   0.72137834   -4.4009654    1832.6854  0.046364234  0.046092782            4 
 3295000    0.7126005   -4.4209339     1829.213  0.046262341  0.046081706            8 
 3296000   0.69709915    -4.394742    1840.6935  0.046538569   0.04607057            4 
 3297000   0.71390057   -4.4162508    1835.3788  0.046390122  0.046059466            9 
 3298000   0.71334989    -4.420789    1835.5609  0.046380659  0.046048422           11 
 3299000   0.73513512   -4.4181044    1841.5889  0.046518866  0.046037236            9 
 3300000   0.71991486     -4.42036     1838.906  0.046437019  0.046026132            6 
 3301000   0.72409672   -4.4169734    1838.2508  0.046406412  0.046015078            5 
 3302000    0.7193244   -4.4257936     1833.089  0.046262088  0.046004081            6 
 3303000   0.71639718   -4.4170405    1834.3536  0.046279988  0.045992993            6 
 3304000   0.72776703   -4.4206885    1841.2314  0.046439451  0.045981915            4 
 3305000   0.70780019   -4.4059759    1835.2729  0.046275162  0.045970867           10 
 3306000   0.72431158   -4.4246761    1837.6726  0.046321654  0.045959748            6 
 3307000   0.72459126    -4.417525    1836.2153  0.046270922  0.045948701            7 
 3308000   0.73539754   -4.4102832    1837.0429  0.046277785  0.045937612            8 
 3309000   0.71443439   -4.4173091     1835.774  0.046231843  0.045926548            5 
 3310000   0.73428799   -4.4219357    1830.8954   0.04609505  0.045915426            6 
 3311000   0.71706533    -4.416095    1834.8689  0.046181137  0.045904243            9 
 3312000   0.73319225   -4.4293407    1834.1037   0.04614794  0.045893178            9 
 3313000   0.69767498   -4.4329592    1837.4626  0.046218498  0.045882134            9 
 3314000   0.71753256   -4.4255661    1836.6146  0.046183229  0.045871028            7 
 3315000   0.72754522   -4.4249652     1836.143  0.046157441  0.045859954            5 
 3316000   0.72117747   -4.4328032      1836.12  0.046142944  0.045848906            7 
 3317000    0.7328978   -4.4250519    1836.5651  0.046140216  0.045837844            6 
 3318000   0.72263069   -4.4369541    1832.4536  0.046023045  0.045826832            7 
 3319000   0.71045807   -4.4136519    1835.2514  0.046079426  0.045815701            6 
 3320000   0.71869537   -4.4347072    1833.0826  0.046011109  0.045804572           11 
 3321000   0.73224664   -4.4199359    1839.3916  0.046155565  0.045793466            6 
 3322000   0.71254562   -4.4383895    1835.2773  0.046038463  0.045782362           10 
 3323000   0.71337969   -4.4303351    1841.5688  0.046182385  0.045771268            4 
 3324000   0.72337168   -4.4169062    1837.4793  0.046065967  0.045760108           16 
 3325000   0.71243793   -4.4010598    1841.9875  0.046165101  0.045749063            2 
 3326000    0.7181524   -4.4417595    1841.0555  0.046127869  0.045738081            5 
 3327000   0.72975193   -4.4354526    1836.3195  0.045995379  0.045727021            6 
 3328000   0.71625414   -4.4182529    1843.8004  0.046168881  0.045715924            6 
 3329000   0.70995222   -4.4237272    1834.8589  0.045931184  0.045704795            6 
 3330000   0.72886761   -4.4354566    1838.3757  0.046005398  0.045693664            5 
 3331000   0.73709676   -4.4452579    1838.6964  0.045999609  0.045682561            8 
 3332000   0.73543427    -4.429178    1833.5943    0.0458582  0.045671408            6 
 3333000   0.72314122   -4.4417229    1839.2033  0.045984682  0.045660405            6 
 3334000   0.71976822   -4.4468514    1837.4255  0.045926452  0.045649308            6 
 3335000   0.70003095   -4.4556491    1834.2783  0.045834039  0.045638113            3 
 3336000   0.71582432   -4.4186422    1845.5631  0.046102195  0.045627045            3 
 3337000   0.71715228   -4.4471071    1838.4221  0.045910051  0.045616028            3 
 3338000   0.71479252   -4.4081685    1841.3725  0.045969953  0.045604954            3 
 3339000   0.71507996   -4.4228922    1839.9788  0.045921404  0.045593889            5 
 3340000   0.71388026   -4.4235102    1844.9879  0.046032633  0.045582855            5 
 3341000   0.70895733   -4.4491622    1838.8669  0.045866179  0.045571817           22 
 3342000   0.72347026   -4.4458941    1835.2388   0.04576199  0.045560751            7 
 3343000   0.72351057   -4.4356097    1842.0676  0.045918527  0.045549727            7 
 3344000   0.72059325   -4.4649561    1837.3471  0.045787159  0.045538659            6 
 3345000   0.72117228   -4.4149071    1838.7691  0.045808897  0.045527676            6 
 3346000   0.71950259   -4.4224442    1844.7677  0.045944604  0.045516701           11 
 3347000   0.69961207   -4.4380511    1838.8161  0.045782694  0.045505726            5 
 3348000   0.73007519   -4.4377159    1837.4342  0.045734622  0.045494784           10 
 3349000   0.71054016   -4.4386198    1838.4392  0.045745974  0.045483726            7 
 3350000   0.71823956   -4.4464258    1834.9679  0.045645968  0.045472722            5 
 3351000   0.71201992   -4.4433918    1841.7538  0.045801099   0.04546172           10 
 3352000   0.70513853   -4.4499965    1846.3135  0.045900793  0.045450734            6 
 3353000   0.71877114   -4.4246068    1844.0181  0.045830054  0.045439707           11 
 3354000   0.72096599   -4.4070795    1846.9904  0.045890242  0.045428732            9 
 3355000    0.7138953   -4.4309978    1837.5326  0.045641643  0.045417783            5 
 3356000   0.72847252   -4.4176099    1844.1207  0.045791634  0.045406825            7 
 3357000   0.71451463   -4.4598155    1846.2149   0.04582998   0.04539585           19 
 3358000   0.71597117   -4.4458716    1836.1587  0.045566774  0.045384884            8 
 3359000   0.71038445   -4.4417704    1843.6227  0.045738382  0.045373918            7 
 3360000   0.71262878   -4.4117927    1844.5576  0.045747956  0.045362884           14 
 3361000   0.70954991   -4.4279239    1847.8052  0.045814868    0.0453519            6 
 3362000   0.72135732   -4.4268062    1843.7496  0.045700714  0.045340911            5 
 3363000   0.70904088    -4.459593    1836.8787  0.045516867  0.045329925           11 
 3364000   0.70834574   -4.4609372    1839.0402  0.045556882  0.045318904            9 
 3365000   0.71654906   -4.4349221    1850.3021  0.045822242  0.045307986            6 
 3366000   0.71246483   -4.4270664    1844.5871   0.04566714  0.045297001           12 
 3367000    0.7025618   -4.4479624     1847.114  0.045716117  0.045286004            7 
 3368000   0.70732338   -4.4301969    1843.2241  0.045606297  0.045275096            6 
 3369000   0.71583483   -4.4273317    1849.5029  0.045748068  0.045264124            8 
 3370000   0.72309114   -4.4400205    1842.3454  0.045557502    0.0452531           10 
 3371000   0.70673296    -4.458408    1843.4208  0.045570573  0.045242079            9 
 3372000   0.70294477   -4.4622689    1846.4218  0.045631224  0.045231098            6 
 3373000   0.70481074   -4.4379197    1840.9159  0.045481665  0.045220186            6 
 3374000   0.71673789   -4.4438965    1842.5069  0.045507482  0.045209262            8 
 3375000    0.7068013   -4.4425462    1836.9808  0.045357551  0.045198288            9 
 3376000   0.71972253   -4.4393714     1844.712  0.045534953  0.045187324            5 
 3377000   0.71878921   -4.4342767    1849.2716  0.045633984  0.045176492            5 
 3378000   0.71091242   -4.4091927    1842.9365  0.045464191  0.045165687           18 
 3379000   0.71629705   -4.4378377    1846.5676  0.045540287  0.045154728            6 
 3380000   0.71329769   -4.4288835    1847.7122  0.045555036  0.045143849            8 
 3381000   0.69281916   -4.4330817      1842.94  0.045423938  0.045132881            4 
 3382000   0.71732166   -4.4458891    1847.8656  0.045531876  0.045121924            3 
 3383000   0.70661261   -4.4589785    1844.8726  0.045444688  0.045110959           11 
 3384000   0.69965866   -4.4399266    1843.0073  0.045385325  0.045099993           14 
 3385000   0.69873831   -4.4558162    1849.4652  0.045530902  0.045089023           12 
 3386000   0.69561632    -4.447974    1842.2973  0.045341044  0.045078034            5 
 3387000   0.74007552   -4.4222761    1841.1478  0.045299374  0.045067118            8 
 3388000   0.72752325   -4.4306298    1848.2094  0.045459697  0.045056154            6 
 3389000   0.70481755   -4.4230244    1841.2137  0.045274262   0.04504513            4 
 3390000   0.70256816   -4.4369614    1847.1403  0.045406595  0.045034148           11 
 3391000   0.69792717   -4.4349191    1848.2394  0.045420216  0.045023212            4 
 3392000   0.69956843   -4.4220797    1848.3696  0.045410024   0.04501224            9 
 3393000   0.69194881   -4.4325781    1843.1629  0.045268761  0.045001246            5 
 3394000   0.70584577   -4.4415766    1846.0724  0.045326861  0.044990258            6 
 3395000   0.70082462   -4.4547076    1848.5144  0.045373452  0.044979295            5 
 3396000   0.69464458   -4.4685458    1846.2513  0.045304557   0.04496826            7 
 3397000    0.7121356   -4.4603513     1847.215  0.045314861  0.044957271            4 
 3398000   0.70617092    -4.470118    1844.7669  0.045241487  0.044946342            7 
 3399000   0.70397815   -4.4547832    1856.0755  0.045505431  0.044935437            6 
 3400000   0.70191762   -4.4360005    1851.3708  0.045376736  0.044924531            9 
 3401000   0.70635613   -4.4706803    1851.1267  0.045357413  0.044913693            6 
 3402000   0.71509939   -4.4574101    1849.6809  0.045308665  0.044902769            6 
 3403000   0.71658643   -4.4698138    1840.1097  0.045060968  0.044891851           10 
 3404000   0.71534349   -4.4633048    1847.5315  0.045229424  0.044880853            8 
 3405000   0.69453295   -4.4798592    1851.6744  0.045317534  0.044869861           14 
 3406000   0.69899598   -4.4639258     1846.622  0.045180612  0.044858889            5 
 3407000   0.71327346   -4.4749063    1849.3757  0.045234705  0.044847855            9 
 3408000   0.68943594   -4.4563995    1849.0473  0.045213402  0.044836893           12 
 3409000   0.69898011   -4.4455463    1852.7458   0.04529055  0.044825926            6 
 3410000   0.70057507   -4.4667024    1850.2027  0.045215119  0.044815041            8 
 3411000   0.70737761   -4.4383631    1849.4885  0.045184415  0.044804121            9 
 3412000   0.70419188   -4.4822462    1844.4209  0.045047403  0.044793216            7 
 3413000   0.70899713   -4.4657352     1847.202  0.045102109  0.044782248           11 
 3414000   0.71599056   -4.4590192    1848.6207  0.045123527  0.044771335           12 
 3415000    0.7106075   -4.4799314    1851.4457   0.04517925    0.0447604            4 
 3416000   0.71071352   -4.4503662    1847.5398  0.045070741  0.044749529            7 
 3417000   0.69997399   -4.4631082    1852.2089  0.045171419  0.044738629            7 
 3418000   0.70801694   -4.4688254     1845.795  0.045001828  0.044727707            5 
 3419000   0.69334652   -4.4708132    1853.6527  0.045180186  0.044716843            7 
 3420000   0.68408036   -4.4518597    1849.3317  0.045061689  0.044706023            7 
 3421000   0.70485963   -4.4621462    1850.8997  0.045086713  0.044695122            5 
 3422000   0.70866302   -4.4458603    1851.3681  0.045084942  0.044684314            8 
 3423000   0.72401028   -4.4682549     1847.352  0.044974001  0.044673458            5 
 3424000   0.71092634   -4.4573535    1859.4345  0.045254928  0.044662659            6 
 3425000   0.71592093   -4.4648097    1853.9081  0.045107254  0.044651821           10 
 3426000   0.70911942   -4.4670147    1854.9334  0.045119026  0.044641046            4 
 3427000   0.71733293   -4.4604868    1854.9086  0.045105257  0.044630178           10 
 3428000   0.69769076   -4.4577108      1853.94  0.045068554  0.044619328            9 
 3429000   0.70093898   -4.4766239    1851.1118  0.044986678  0.044608509            8 
 3430000   0.69469271   -4.4519109    1856.9027  0.045114255  0.044597672            6 
 3431000    0.6905723   -4.4490519    1859.2842  0.045158948  0.044586921            4 
 3432000   0.70221193   -4.4438843    1853.1599  0.044997084  0.044576149            8 
 3433000   0.68202597   -4.4488843    1858.3002  0.045108753  0.044565357           14 
 3434000   0.70133968   -4.4611694     1860.322   0.04514468  0.044554585            6 
 3435000   0.70190655   -4.4492799    1859.8605  0.045120342  0.044543899            5 
 3436000   0.70684855    -4.473102    1852.0359   0.04491744  0.044533188            3 
 3437000   0.69787331   -4.4722935    1852.4442  0.044914272  0.044522377            6 
 3438000   0.70656135   -4.4526378    1852.7743  0.044909208  0.044511641            7 
 3439000   0.71054632   -4.4516719    1854.8469  0.044946372  0.044500903            8 
 3440000   0.71550248   -4.4564779    1859.0646   0.04503548  0.044490171           10 
 3441000   0.69984493   -4.4657279    1852.5626  0.044864928  0.044479424            5 
 3442000   0.69699356   -4.4655655    1853.1469  0.044866041  0.044468615           11 
 3443000   0.69211669   -4.4662604    1853.7019  0.044866442  0.044457726           10 
 3444000   0.70824946   -4.4387453    1855.7015  0.044901799  0.044446933           11 
 3445000   0.69277136   -4.4732706    1852.9752  0.044822817  0.044436175            8 
 3446000   0.70670506   -4.4762702    1858.0897  0.044933491  0.044425377            6 
 3447000   0.70036639   -4.4670816    1859.1351  0.044945729  0.044414708            6 
 3448000   0.70808875    -4.450681    1861.9426  0.045000547   0.04440396            9 
 3449000   0.69742175   -4.4440211    1859.6659   0.04493249  0.044393211            7 
 3450000   0.70107293   -4.4698302      1855.78  0.044825603  0.044382419           17 
 3451000   0.70139039   -4.4433321    1858.6284  0.044881397  0.044371615            8 
 3452000   0.69304403   -4.4779696    1859.8462  0.044897793  0.044360857            4 
 3453000   0.70495241   -4.4815639    1861.9305  0.044935093  0.044350112            7 
 3454000   0.70180318   -4.4625161    1855.9631  0.044778109  0.044339385           15 
 3455000   0.69337075   -4.4634876    1861.4966  0.044898616   0.04432868            5 
 3456000   0.69994596   -4.4475443    1857.9036  0.044798987  0.044317908            6 
 3457000   0.69216718   -4.4526877    1856.2269   0.04474561   0.04430718            5 
 3458000   0.68434818     -4.45318    1852.3818  0.044640008  0.044296366            6 
 3459000    0.7056788   -4.4678927    1856.9826  0.044737944  0.044285497            4 
 3460000   0.69287731   -4.4509663    1851.3834  0.044590158  0.044274709           10 
 3461000   0.68639315    -4.436421    1859.7995  0.044779916  0.044263863            7 
 3462000   0.70018425   -4.4658912     1858.424  0.044733872  0.044253067           10 
 3463000   0.70672216   -4.4641265    1859.6154  0.044749623  0.044242265           11 
 3464000   0.68722488    -4.470806    1852.4374  0.044564026  0.044231472           11 
 3465000   0.70506149   -4.5089127    1849.9275    0.0444908  0.044220657            5 
 3466000   0.69137454   -4.4753184    1856.3675  0.044632801  0.044209807           13 
 3467000   0.69181675   -4.4726979    1853.9691  0.044562281   0.04419886            5 
 3468000    0.7000922   -4.4467271    1851.1447  0.044481563  0.044187987            6 
 3469000    0.6989449   -4.4833668    1850.3083  0.044448647  0.044176988            5 
 3470000    0.7062916   -4.4623148    1853.3463  0.044508796  0.044166062            8 
 3471000   0.69342545   -4.4774748      1852.74  0.044481418  0.044155119            5 
 3472000   0.69642233   -4.4908138    1859.7772   0.04463751  0.044144199            6 
 3473000   0.69481448   -4.4715239    1856.5455  0.044547114  0.044133359            7 
 3474000   0.71617395   -4.4647238    1858.4884  0.044580897   0.04412257            6 
 3475000   0.69035954   -4.4601907    1856.4488  0.044519157  0.044111718            5 
 3476000   0.69554664   -4.4858755    1854.9523  0.044470471  0.044100861           13 
 3477000   0.69705355   -4.4870978    1853.8242  0.044430645  0.044090007            3 
 3478000   0.68981532    -4.471032    1856.3738  0.044478959  0.044079131           24 
 3479000   0.69108132   -4.4642273    1861.3461  0.044585276  0.044068351            8 
 3480000   0.69289383   -4.4563992    1860.3642  0.044548951  0.044057561            6 
 3481000   0.67953312   -4.4940768    1851.0684  0.044313617  0.044046764            7 
 3482000   0.68974022   -4.4668627    1859.1557  0.044494441  0.044035953           20 
 3483000   0.67470988   -4.4888369    1856.5031  0.044418201  0.044025157            6 
 3484000   0.68658999   -4.4759743     1863.998   0.04458472  0.044014408            7 
 3485000   0.69587128   -4.4835041    1861.0583  0.044501633  0.044003579            7 
 3486000   0.69787658   -4.4572831     1859.073  0.044441408  0.043992787            5 
 3487000   0.68154503   -4.4870463     1857.281  0.044385838  0.043982014            6 
 3488000    0.7002702   -4.4620521    1859.0859  0.044416235  0.043971201           11 
 3489000   0.69329383   -4.4666665    1858.4604  0.044388564   0.04396042           12 
 3490000   0.68701518   -4.4711637    1862.6738  0.044476452  0.043949631            9 
 3491000   0.68557043   -4.4653143    1863.3833  0.044480648  0.043938803            6 
 3492000   0.67601363   -4.4695556    1853.2491  0.044226067   0.04392801            6 
 3493000   0.70153471   -4.4924571    1851.9475  0.044182353  0.043917231            6 
 3494000   0.70016762   -4.4833221    1857.8377  0.044310192  0.043906423            9 
 3495000   0.67989895    -4.468166    1863.3241  0.044428329  0.043895653            8 
 3496000   0.69358795   -4.4660079    1863.5405  0.044420779  0.043884926            8 
 3497000   0.68680462   -4.4709339    1864.1954  0.044423683  0.043874279            8 
 3498000   0.68575804   -4.4737482    1862.9235  0.044380683  0.043863614           12 
 3499000   0.70443617   -4.4702739    1860.1695  0.044302408  0.043852871            4 
 3500000   0.70214265   -4.4833364    1858.3644  0.044246772   0.04384218            8 
 3501000   0.69059794   -4.4854337    1859.3362  0.044257266  0.043831427            9 
 3502000   0.69676042   -4.4574095    1863.9948  0.044355483  0.043820755            9 
 3503000   0.68250261   -4.4673941    1861.1464  0.044275059  0.043810149           13 
 3504000   0.69938361   -4.4779465    1862.1857  0.044287141  0.043799469            6 
 3505000   0.70140441   -4.4923041     1869.206  0.044441417  0.043788818            5 
 3506000   0.69072475   -4.4969787     1863.566  0.044294684  0.043778158            5 
 3507000   0.69913786   -4.4914489    1867.6149  0.044378264  0.043767429            7 
 3508000   0.68594333   -4.4651128    1867.3439  0.044359177  0.043756765            6 
 3509000   0.68408783   -4.5007387    1862.9179  0.044241425  0.043746065            5 
 3510000   0.66748842   -4.4881743    1866.0748  0.044303771  0.043735406            8 
 3511000   0.69547987    -4.481912    1865.1467  0.044269122  0.043724823            8 
 3512000   0.69168609   -4.4713067    1864.1967  0.044233977  0.043714234            9 
 3513000   0.68503058   -4.4941663    1863.5218  0.044205376  0.043703644            7 
 3514000   0.67224513   -4.4825676    1864.1595  0.044207918  0.043692998            6 
 3515000   0.69355777   -4.4853624    1868.2707   0.04429281  0.043682426            6 
 3516000   0.68811932   -4.4678311     1868.488  0.044285361  0.043671923           13 
 3517000   0.69378595   -4.4515119    1869.8336  0.044304654  0.043661403           12 
 3518000   0.67698529   -4.4777649    1871.4093  0.044329384  0.043650904           14 
 3519000   0.68193309   -4.4791216    1868.3239  0.044243723  0.043640311            5 
 3520000   0.69015171   -4.4847925    1870.3968  0.044280227  0.043629747           16 
 3521000   0.68069792   -4.4762999    1865.8488  0.044160013  0.043619257            4 
 3522000   0.68478397   -4.4750522    1872.0091   0.04429323  0.043608797            6 
 3523000   0.67394499   -4.4949452    1864.3202  0.044098785   0.04359826           10 
 3524000   0.68089269   -4.4944677    1867.4789  0.044160965   0.04358773            5 
 3525000   0.68445667   -4.4704458    1866.5688  0.044126923  0.043577173            3 
 3526000    0.6904556   -4.4772333    1868.5251  0.044160643  0.043566687            4 
 3527000   0.68884205    -4.481902    1870.3649   0.04419159  0.043556209            6 
 3528000   0.68229893   -4.4846837    1866.0907  0.044078105  0.043545685           33 
 3529000   0.68206973   -4.4925646    1866.6199  0.044078112  0.043535114            3 
 3530000   0.68714668   -4.5113253    1867.6857  0.044090787  0.043524558            7 
 3531000   0.69593347   -4.4814379    1871.8074  0.044175573  0.043514021           12 
 3532000     0.668073   -4.4948874    1868.3568  0.044081653  0.043503453            9 
 3533000   0.68292422    -4.485816    1863.7486  0.043960481  0.043492913            5 
 3534000   0.69073671   -4.4426966    1871.1499   0.04412257  0.043482353            4 
 3535000   0.69295432   -4.4887984    1863.1142  0.043920654  0.043471877            5 
 3536000   0.67969516   -4.5077593    1867.3067   0.04400704  0.043461352           11 
 3537000    0.6907735   -4.4813102     1866.664  0.043979454  0.043450817            9 
 3538000    0.6751137   -4.4945777    1868.9455  0.044020762  0.043440224            5 
 3539000   0.67443399   -4.4805791     1871.597  0.044070759  0.043429637            9 
 3540000   0.66995558   -4.4770471     1867.183  0.043954402  0.043419066            4 
 3541000   0.68524479    -4.488432    1869.9822  0.044007865  0.043408536            8 
 3542000   0.68927337   -4.5091578    1865.0796  0.043880096  0.043397973           11 
 3543000   0.69897569   -4.4829593    1867.6527  0.043928231  0.043387393            6 
 3544000   0.69052526   -4.4701892    1873.6435  0.044056703  0.043376871            4 
 3545000   0.66814538   -4.5097344    1871.5324  0.043994649   0.04336637            6 
 3546000   0.68081876   -4.4864673    1864.8354   0.04382486  0.043355899            6 
 3547000   0.67721338   -4.5058145     1866.666  0.043855512  0.043345464            7 
 3548000    0.6892581   -4.4858274    1870.9383  0.043943497  0.043335023            6 
 3549000   0.69026994   -4.5109482    1874.8284  0.044022458  0.043324536            4 
 3550000   0.66852814   -4.4869945     1873.206  0.043971972  0.043314103            9 
 3551000   0.69507846   -4.4831535    1871.6369  0.043922766  0.043303606            6 
 3552000   0.67611237   -4.4872622    1871.9222  0.043917092  0.043293141           10 
 3553000   0.68814415   -4.4845978    1872.2009  0.043911269  0.043282658            6 
 3554000   0.69474516   -4.4927256    1872.7418  0.043911598  0.043272164           10 
 3555000   0.69247904    -4.515861     1871.183  0.043862706  0.043261688            7 
 3556000   0.67448114   -4.4821802     1877.941  0.044008741  0.043251169            5 
 3557000     0.683764   -4.4943612    1867.0403  0.043740987  0.043240734           10 
 3558000   0.68236982   -4.5042194    1870.7987  0.043816721  0.043230259           13 
 3559000   0.68918942   -4.5006695     1869.979  0.043785216  0.043219715            5 
 3560000   0.68913045   -4.4845632    1872.5241  0.043832492  0.043209287            8 
 3561000   0.68608531   -4.4842055    1874.4172  0.043864486  0.043198809            5 
 3562000    0.6958347   -4.4906902    1871.7302  0.043789308  0.043188284            6 
 3563000    0.6825737   -4.4889599    1872.7396  0.043800628   0.04317777            7 
 3564000   0.67682732   -4.4906795    1878.4959   0.04392293  0.043167317            4 
 3565000   0.67097306   -4.5000524    1871.5558  0.043748383  0.043156902            7 
 3566000    0.6757931   -4.5031715    1865.9185  0.043604378  0.043146415           11 
 3567000   0.67156832   -4.5167292    1869.4373   0.04367436  0.043135929            9 
 3568000    0.6745916   -4.5033522    1872.4986  0.043733618  0.043125521            4 
 3569000   0.68626861   -4.4934353    1872.0068  0.043709881  0.043115175            7 
 3570000   0.67660119   -4.4943935    1872.4277  0.043707464  0.043104811            8 
 3571000   0.66815683   -4.4884488    1874.9497  0.043754077  0.043094381           10 
 3572000   0.67659387   -4.4958661    1875.0745  0.043744739  0.043083964            6 
 3573000   0.68220655   -4.4974246    1873.1249  0.043687026  0.043073521            8 
 3574000   0.69429564   -4.4988358    1876.1209  0.043744658  0.043063108            5 
 3575000   0.69047298   -4.4817178    1878.7802   0.04379441  0.043052713            7 
 3576000   0.68089141   -4.5111804    1876.2761   0.04372381  0.043042302            9 
 3577000   0.68230035   -4.4852915    1879.9462  0.043797088  0.043031958            8 
 3578000   0.67083217   -4.5172075    1871.6795  0.043592313  0.043021553            9 
 3579000   0.68385928   -4.5028299    1873.9338  0.043632621  0.043011054            5 
 3580000   0.69311458   -4.5115551    1875.4454  0.043655619  0.043000611            7 
 3581000     0.681361     -4.51448    1878.1691  0.043706811  0.042990177           13 
 3582000   0.69055519   -4.5133653    1873.6578  0.043589657  0.042979753           10 
 3583000   0.67806487    -4.500354    1878.2266  0.043683752  0.042969359            6 
 3584000    0.6763079   -4.5181653    1876.7562  0.043637375  0.042958974           15 
 3585000   0.67707537   -4.5116178    1876.3278  0.043615243  0.042948622           10 
 3586000   0.67420936   -4.5074034    1878.0083  0.043642133  0.042938292            6 
 3587000   0.67600574   -4.5137205    1877.5053  0.043618281  0.042927936            9 
 3588000   0.68359139   -4.4682146    1878.6037  0.043631635   0.04291764           10 
 3589000   0.69772048    -4.507299    1880.3215  0.043659363  0.042907392           10 
 3590000   0.67990705   -4.5024126    1874.0178  0.043500877  0.042897026            7 
 3591000   0.67183377    -4.493083    1876.7712   0.04355266  0.042886624            6 
 3592000   0.67069038   -4.5142172    1875.5023  0.043511097  0.042876323            5 
 3593000   0.67923027   -4.5198378    1882.4262  0.043659574     0.042866            6 
 3594000   0.66172921   -4.4930945    1882.5142  0.043649466  0.042855717           11 
 3595000   0.66112931   -4.5127423    1875.2257  0.043468376  0.042845416            6 
 3596000   0.67423187   -4.5117791    1876.0823  0.043476139  0.042835117            7 
 3597000   0.69195678   -4.5028944    1877.1772  0.043489418   0.04282483           12 
 3598000   0.66357997   -4.4954788    1884.2187  0.043640418  0.042814564            8 
 3599000   0.67318789   -4.5328901    1880.9164  0.043551828  0.042804242            5 
 3600000   0.67229011   -4.5019184    1880.0512  0.043519704  0.042793992            3 
 3601000   0.65706141   -4.5248653    1880.2707  0.043512699  0.042783757            8 
 3602000   0.67930447   -4.5026102    1880.8133  0.043513172  0.042773534            5 
 3603000   0.68164011   -4.5311434    1885.7489  0.043615249  0.042763329           11 
 3604000   0.68115452   -4.4967749    1882.2425   0.04352207  0.042753062            4 
 3605000   0.68340476   -4.5064213    1879.5683  0.043448181  0.042742859           11 
 3606000    0.6853129   -4.5203007    1881.5089  0.043480978   0.04273257            5 
 3607000   0.66958449   -4.5352566      1882.83  0.043499447  0.042722329            6 
 3608000   0.66347159   -4.5025115    1880.9169  0.043443202  0.042712039            5 
 3609000   0.68783509    -4.518105    1878.1588   0.04336748  0.042701748            4 
 3610000   0.68419963   -4.5355993    1883.4857  0.043478431  0.042691459            5 
 3611000   0.65652539   -4.5355493    1881.9449  0.043430835  0.042681214           10 
 3612000   0.68391004   -4.4926655    1883.1138  0.043445779  0.042671008            8 
 3613000   0.67076259   -4.5027509    1886.1558  0.043503917   0.04266087            5 
 3614000   0.66597102   -4.5312629    1879.9875  0.043349646  0.042650632           21 
 3615000   0.67646081   -4.5233418    1883.5223  0.043419139   0.04264042           16 
 3616000   0.68950076   -4.5135148     1881.051  0.043350179  0.042630146            7 
 3617000   0.67986256   -4.5175247    1876.2742  0.043228141  0.042619859           13 
 3618000   0.66721556   -4.5077156     1885.245  0.043422817   0.04260963            7 
 3619000    0.6657364   -4.5343545    1881.4286  0.043322938  0.042599442            5 
 3620000   0.68593112   -4.5064541    1884.3416  0.043378029  0.042589257            6 
 3621000   0.68850192   -4.5246973    1885.1933  0.043385652  0.042579071            9 
 3622000   0.68398009   -4.5077056    1887.9619  0.043437371  0.042568874            5 
 3623000   0.66826295   -4.5257959    1888.9582  0.043448297  0.042558782            6 
 3624000   0.66672308    -4.515476    1886.6484  0.043383196  0.042548661            6 
 3625000   0.66941809   -4.5462109    1887.6388  0.043393996  0.042538526           18 
 3626000   0.68911978   -4.5118455    1890.3693  0.043444781  0.042528415            7 
 3627000     0.664848   -4.5328642    1881.6348  0.043232121  0.042518266            9 
 3628000   0.67480214   -4.5137995    1884.3546  0.043282675  0.042508173           14 
 3629000   0.65935681   -4.5225425    1886.0474   0.04330962  0.042498078            6 
 3630000   0.67484907   -4.5050464     1893.922  0.043478466  0.042487978            4 
 3631000   0.65472639    -4.532687    1882.7711  0.043210573  0.042477852            4 
 3632000   0.67505411   -4.5452716    1886.0525  0.043273966   0.04246765            8 
 3633000   0.67340485   -4.5157562    1888.8078  0.043325255  0.042457574            6 
 3634000   0.66681568   -4.5423345    1884.4203  0.043212721   0.04244742            6 
 3635000   0.67464894   -4.5185913    1887.8713  0.043279947  0.042437272            6 
 3636000   0.68044675   -4.5138475    1886.8728   0.04324516  0.042427159            6 
 3637000   0.66878824   -4.5167816    1882.9163  0.043142614   0.04241701            8 
 3638000   0.68242767   -4.5149383    1889.7339  0.043286923  0.042406869           23 
 3639000   0.66917979   -4.5261057    1887.9158  0.043233392  0.042396788            5 
 3640000    0.6687882   -4.5106651     1886.199  0.043182211  0.042386686           10 
 3641000    0.6601705   -4.5050995    1891.6737  0.043295653  0.042376626            8 
 3642000   0.65983121   -4.5317601    1885.3409  0.043138865  0.042366597           14 
 3643000   0.67803813   -4.5458055    1887.9993  0.043187833  0.042356516           15 
 3644000   0.68213409    -4.517373    1890.2194  0.043226753  0.042346409            7 
 3645000   0.67597261   -4.5150136    1890.1174  0.043212561  0.042336263            5 
 3646000   0.66517009   -4.5202804    1892.7427  0.043260713  0.042326196            4 
 3647000   0.66029141   -4.5341256    1890.2049  0.043190862  0.042316051            7 
 3648000   0.66862283   -4.5538432    1882.1636   0.04299533  0.042305894            3 
 3649000   0.66880041   -4.5360645    1888.3365  0.043124522  0.042295765            9 
 3650000   0.68301891   -4.5556011    1887.3933   0.04309117  0.042285668            7 
 3651000   0.65495998     -4.52525    1888.3184  0.043100485  0.042275558            7 
 3652000   0.66859897   -4.5317039    1887.0931  0.043060723  0.042265507           10 
 3653000   0.66882718   -4.5447998    1885.5465  0.043013653  0.042255414           10 
 3654000   0.67359312   -4.5293924    1886.1509  0.043015665  0.042245175            9 
 3655000   0.65677452   -4.5177649    1886.8678  0.043020243  0.042235081            8 
 3656000   0.66672853   -4.5045446    1888.5526  0.043046877  0.042225014           11 
 3657000   0.65946309   -4.5096273      1894.17  0.043163112  0.042214976            5 
 3658000    0.6578742   -4.5363623    1893.3401  0.043132406   0.04220488           11 
 3659000   0.67622457   -4.5335035    1890.5969  0.043058141  0.042194763            8 
 3660000   0.66997883   -4.5336167    1888.9399   0.04300865  0.042184668            6 
 3661000   0.68254792   -4.5520227    1886.8274  0.042948817  0.042174512            8 
 3662000   0.65274058   -4.5261187    1888.4244  0.042973429  0.042164419            7 
 3663000   0.67915776    -4.540951    1887.9028  0.042949833  0.042154266            8 
 3664000   0.66716688   -4.5315533    1888.4828  0.042951301  0.042144182            7 
 3665000   0.66575026   -4.5274092    1887.1356   0.04290895  0.042134084           13 
 3666000   0.67373599   -4.5264137    1887.1462  0.042897487   0.04212401            9 
 3667000   0.67097785   -4.5190996    1889.0722  0.042929557  0.042113907            4 
 3668000    0.6675052   -4.5410257    1888.8854  0.042913609  0.042103764            8 
 3669000   0.65832806   -4.5375215    1885.9548   0.04283535  0.042093597           19 
 3670000   0.66931848   -4.5528778    1891.7764  0.042955867  0.042083515            9 
 3671000   0.68960739   -4.5561606    1890.3817  0.042912507  0.042073385            4 
 3672000   0.67863078   -4.5733129    1885.3614  0.042786888  0.042063244            8 
 3673000   0.65783489   -4.5675558    1889.7114  0.042873932   0.04205313            7 
 3674000   0.66871586   -4.5374183    1887.3568  0.042808854  0.042043064            4 
 3675000   0.67092471   -4.5442525    1888.3385  0.042819467  0.042032956            7 
 3676000   0.66532592   -4.5351833    1890.1779  0.042849516  0.042022893           16 
 3677000   0.68038218   -4.5422765    1887.7068  0.042781861  0.042012877            7 
 3678000   0.66721762    -4.508093    1893.4011  0.042899245   0.04200285           17 
 3679000   0.65529718   -4.5378461    1883.6258  0.042666164   0.04199276            8 
 3680000    0.6561087   -4.5491293    1895.1561  0.042915673   0.04198268            6 
 3681000     0.652179   -4.5610764    1884.2597  0.042657333  0.041972555           10 
 3682000   0.65906496   -4.5458889    1888.5395  0.042742609  0.041962434            7 
 3683000   0.66801414   -4.5515879    1890.1419  0.042767263  0.041952351           16 
 3684000   0.65765949   -4.5229447    1889.9346  0.042750965  0.041942235            9 
 3685000   0.65492555   -4.5271456    1892.3169  0.042793236  0.041932212           19 
 3686000   0.66119544   -4.5372731    1887.9717  0.042683389  0.041922171            9 
 3687000   0.66417599   -4.5384357    1888.3656  0.042680716   0.04191207           14 
 3688000   0.64010005   -4.5524744     1887.495   0.04264947  0.041901999           11 
 3689000     0.668821   -4.5523922    1887.8458  0.042645835  0.041891855           24 
 3690000   0.67568021    -4.576632    1887.6102  0.042628957  0.041881679           13 
 3691000   0.66925372   -4.5331146    1893.3469  0.042746927  0.041871511           12 
 3692000   0.64646494    -4.556354    1887.3196  0.042599304  0.041861463            5 
 3693000   0.64952965   -4.5653342    1890.7346   0.04266483  0.041851374            6 
 3694000   0.66204449   -4.5552429    1892.2131  0.042686634    0.0418412            9 
 3695000   0.66362865   -4.5483801    1891.6501  0.042662383  0.041831103           11 
 3696000   0.66867371   -4.5624564    1890.7125  0.042629702  0.041821061            8 
 3697000   0.66604846   -4.5276726    1892.7019  0.042663013  0.041810995            7 
 3698000   0.67426105   -4.5382577     1892.899  0.042655918  0.041800962            6 
 3699000   0.64937792   -4.5316856    1889.3583  0.042564618  0.041790984            6 
 3700000   0.66828019   -4.5584921    1888.6039  0.042536123  0.041780931            6 
 3701000   0.66286139   -4.5245452    1892.7914  0.042618919  0.041770882           10 
 3702000   0.65955128    -4.509629    1901.6313  0.042806396   0.04176098            5 
 3703000   0.65406326   -4.5367736    1896.2739   0.04267427  0.041751088           13 
 3704000   0.65423188   -4.5330596    1896.2409  0.042662007  0.041741176            4 
 3705000   0.65558763   -4.5378753     1898.099  0.042692285  0.041731229           10 
 3706000   0.67449255   -4.5476839    1898.9177  0.042699175  0.041721284            6 
 3707000    0.6599325   -4.5639887    1892.9289  0.042553028  0.041711296            5 
 3708000   0.64531499   -4.5587232    1893.3662   0.04255138  0.041701292            6 
 3709000   0.65107742   -4.5481089    1897.3944  0.042630413  0.041691297            4 
 3710000   0.66467713   -4.5339346     1897.684  0.042625427  0.041681362            8 
 3711000   0.66099062   -4.5388861    1895.2871  0.042560116  0.041671412           14 
 3712000   0.66242712   -4.5442097    1891.1006  0.042454665   0.04166139           10 
 3713000   0.66999337   -4.5581042    1894.7285  0.042524653  0.041651417            8 
 3714000   0.65581572   -4.5655077     1900.358  0.042639518  0.041641469            7 
 3715000   0.64260575   -4.5380379    1894.0545  0.042486643  0.041631493            9 
 3716000   0.65732528   -4.5467613    1894.8747  0.042493601  0.041621585           12 
 3717000   0.66244478   -4.5330527    1900.2407  0.042602473  0.041611698           11 
 3718000    0.6484889   -4.5540029    1898.8804  0.042560526  0.041601815            5 
 3719000   0.64746408   -4.5518513    1902.2444  0.042624459  0.041591944            5 
 3720000   0.65799699   -4.5519494    1899.9074   0.04256065  0.041582065            5 
 3721000   0.63925099   -4.5529357    1898.4751  0.042517134   0.04157219            3 
 3722000   0.66505773    -4.557835     1897.452  0.042482805  0.041562275            6 
 3723000   0.66535038   -4.5597974    1894.7666  0.042411285  0.041552272            7 
 3724000   0.66850845   -4.5578378     1895.024  0.042405657   0.04154228            8 
 3725000   0.64221074   -4.5465032    1898.3868  0.042469503  0.041532344           12 
 3726000   0.66574623    -4.567552    1903.1919  0.042565573  0.041522496            5 
 3727000   0.64512409   -4.5419584    1895.0509  0.042372124  0.041512595           14 
 3728000    0.6651944   -4.5508687    1897.6733  0.042419378   0.04150267            7 
 3729000   0.65807425   -4.5460489    1900.7644  0.042477081  0.041492759            6 
 3730000   0.64616923    -4.561645    1896.8359  0.042377925   0.04148289           23 
 3731000   0.65682225   -4.5625219    1903.6457  0.042518666  0.041473047            9 
 3732000   0.65970006   -4.5564806    1892.9289  0.042267972  0.041463168            8 
 3733000   0.65221052   -4.5396241     1899.631  0.042406264   0.04145326           12 
 3734000   0.65955526   -4.5558573    1896.8179  0.042332126  0.041443369            9 
 3735000    0.6558803   -4.5658869    1897.7623  0.042341864  0.041433467            7 
 3736000   0.65729108   -4.5652483    1897.2276  0.042318604  0.041423554            8 
 3737000   0.65825984   -4.5801456    1900.0232   0.04236962  0.041413687            6 
 3738000   0.65242282   -4.5668415     1895.263  0.042252163  0.041403754            6 
 3739000   0.62593688   -4.5214557    1902.8969  0.042411003  0.041393827            9 
 3740000   0.66468117   -4.5645078    1905.1156  0.042449099  0.041383929           10 
 3741000   0.64645329   -4.5599336    1900.0284  0.042324432  0.041374075           13 
 3742000   0.64913922   -4.5432178     1902.676  0.042372084  0.041364255           13 
 3743000   0.65601283   -4.5492075    1897.4503  0.042244418  0.041354416           10 
 3744000   0.64900486   -4.5494976    1899.6485  0.042282062  0.041344537           14 
 3745000    0.6606314   -4.5600579    1901.1958  0.042305203  0.041334676           10 
 3746000   0.65331498   -4.5567751    1903.8306  0.042352524  0.041324779           20 
 3747000   0.65547897    -4.578593    1897.0556  0.042190542  0.041314939           10 
 3748000   0.65109756   -4.5323307    1898.8056  0.042218196  0.041305095            8 
 3749000   0.65183836   -4.5486064    1903.3077  0.042307009  0.041295283            6 
 3750000     0.677266   -4.5718316     1896.097   0.04213549   0.04128533            8 
 3751000   0.65447649    -4.549887      1901.71  0.042248955  0.041275411            5 
 3752000   0.64390489   -4.5803596    1894.7422  0.042082938  0.041265518            6 
 3753000   0.65668722   -4.5673178    1900.1765   0.04219239  0.041255598            6 
 3754000   0.65602605   -4.5591303    1900.0295  0.042177889  0.041245753            7 
 3755000   0.64695362   -4.5672649    1902.6024  0.042223756   0.04123588            7 
 3756000   0.64379938   -4.5996881    1896.3635  0.042074092  0.041225982           13 
 3757000   0.66042149   -4.5620844     1903.355  0.042217971  0.041216077            6 
 3758000   0.64254223   -4.5521897    1904.7886  0.042238527  0.041206235           10 
 3759000   0.64797296   -4.5649119    1906.2442  0.042259559  0.041196372            5 
 3760000   0.64742125   -4.5782581    1901.3562  0.042139987  0.041186528            8 
 3761000   0.64425225   -4.5590263    1903.6472  0.042179544  0.041176702            7 
 3762000   0.64670133   -4.5652574    1900.6598  0.042102158  0.041166872           13 
 3763000   0.64815876   -4.5656327    1902.8299  0.042139026  0.041157104           24 
 3764000   0.64075886   -4.5931011    1896.6602  0.041991237  0.041147278           10 
 3765000   0.66532367   -4.5673695    1904.7985  0.042160214  0.041137444            5 
 3766000   0.64712743   -4.5765755    1902.3401  0.042094621  0.041127596           14 
 3767000   0.65518529   -4.5680761    1904.1267  0.042122969  0.041117759            7 
 3768000   0.65666339   -4.5762024     1904.055  0.042110204  0.041107857            5 
 3769000   0.64299917   -4.5778659    1900.5548  0.042021642  0.041097999           18 
 3770000   0.64618702   -4.5531153    1902.9351  0.042063111  0.041088171           23 
 3771000   0.64097396   -4.5637662    1900.0654   0.04198854  0.041078355            7 
 3772000   0.65068469   -4.5527583    1902.6433  0.042034361  0.041068516            4 
 3773000   0.64903811   -4.5684081    1900.2203  0.041969703  0.041058687           15 
 3774000    0.6595597   -4.5754429    1897.8518  0.041906284   0.04104881            7 
 3775000   0.65483483   -4.5700337    1897.0831  0.041878214  0.041038942           11 
 3776000    0.6654133   -4.5620654    1901.5676  0.041966093   0.04102911            6 
 3777000   0.63897094   -4.5780501    1901.5705  0.041955046  0.041019234           16 
 3778000   0.63815394   -4.5503983    1901.9472   0.04195225  0.041009411            7 
 3779000   0.62966966   -4.5716308    1902.2374  0.041947548  0.040999488            8 
 3780000   0.64616241   -4.5836849    1904.6197   0.04198897  0.040989629            5 
 3781000   0.64237595   -4.5639677    1899.3848  0.041862489  0.040979772           12 
 3782000    0.6369801   -4.5553493    1902.7697  0.041926003  0.040969955           11 
 3783000   0.64921452    -4.570953    1901.9971    0.0418979  0.040960168           19 
 3784000   0.63376373   -4.5701643    1906.9573  0.041996064  0.040950342            7 
 3785000    0.6548174     -4.59239    1902.1608  0.041879367  0.040940478            8 
 3786000   0.65124276   -4.5786627    1905.1557  0.041934224  0.040930601            7 
 3787000   0.63379964    -4.552387    1903.0613  0.041877063  0.040920756           12 
 3788000   0.64752615   -4.5761819    1906.7619  0.041947419  0.040910978           11 
 3789000   0.64716197   -4.5721314    1905.9067  0.041917541  0.040901142            7 
 3790000   0.64734095   -4.5762529    1906.1158  0.041911078  0.040891397           12 
 3791000   0.64381515   -4.5725341    1907.8661  0.041938497  0.040881628            3 
 3792000   0.63694081   -4.5745064    1904.4144  0.041851582  0.040871855           12 
 3793000   0.63565785   -4.5917876    1902.6228  0.041801187  0.040862088           22 
 3794000   0.65414995    -4.569855    1911.9237  0.041994459  0.040852252            4 
 3795000   0.64521886    -4.582314     1903.644  0.041801582  0.040842469            7 
 3796000   0.65414239   -4.5699638    1901.5757  0.041745163  0.040832635            8 
 3797000   0.65335125    -4.558195    1901.4887   0.04173226  0.040822818            6 
 3798000   0.63910168   -4.5604171     1901.991  0.041732293  0.040813017            3 
 3799000   0.64436265   -4.5640516    1910.1456  0.041900183  0.040803264           14 
 3800000   0.64456943   -4.5390495    1905.9746  0.041797688  0.040793507           13 
 3801000   0.65676852   -4.5796909    1900.4437  0.041665431  0.040783728           10 
 3802000   0.63996323   -4.5885483    1904.7615  0.041749113   0.04077393           12 
 3803000   0.63703579   -4.5967229    1905.5696  0.041755842  0.040764093           15 
 3804000    0.6437869   -4.5735617    1898.3738  0.041587228  0.040754227           17 
 3805000   0.65041999   -4.5691066    1907.4218  0.041774459   0.04074438           15 
 3806000   0.64244832   -4.5923355    1900.8892   0.04162045  0.040734589            8 
 3807000   0.62937428   -4.5864834    1903.5188  0.041667078  0.040724747           22 
 3808000   0.63872298   -4.5807447    1904.8229  0.041684675   0.04071488           12 
 3809000   0.64742202   -4.5720749    1906.0126  0.041699758   0.04070511            8 
 3810000   0.64035279   -4.5748718    1906.0323  0.041689245  0.040695347           11 
 3811000   0.64726703    -4.585978    1905.8032  0.041673296  0.040685623           25 
 3812000   0.63489959   -4.5724175    1906.8876   0.04168607  0.040675849           13 
 3813000   0.64181399   -4.5898858    1904.0779   0.04161373  0.040666021            6 
 3814000   0.64468928   -4.5809084    1906.2064  0.041649326  0.040656199            6 
 3815000   0.64105841   -4.5807447    1905.4976  0.041622927  0.040646382           14 
 3816000   0.63849238   -4.5766263    1906.2744  0.041628984  0.040636626            8 
 3817000   0.63868592   -4.5769918    1905.6939  0.041605403  0.040626857            6 
 3818000   0.62648899   -4.5686282    1902.8228  0.041531839  0.040617117            7 
 3819000   0.64025113   -4.5886092    1909.0111  0.041655998  0.040607358            5 
 3820000   0.65208252    -4.589964    1905.8851  0.041576899  0.040597604           10 
 3821000   0.64533272   -4.5933024     1904.469  0.041535135  0.040587864            6 
 3822000   0.64118222   -4.5868691    1910.5966   0.04165787  0.040578062            7 
 3823000   0.63476973    -4.573029    1904.4028  0.041511964  0.040568287            7 
 3824000   0.64232901   -4.5750409    1906.9287  0.041556153  0.040558516           13 
 3825000    0.6261151   -4.5814856    1906.7842   0.04154214  0.040548741            6 
 3826000   0.63379856   -4.6047419    1903.3547  0.041456584  0.040538966            5 
 3827000   0.64119552   -4.5674847    1904.8825   0.04147902  0.040529162            5 
 3828000   0.64990375   -4.5781067    1907.3643  0.041522212  0.040519382           14 
 3829000   0.64027429   -4.6077856    1903.2037  0.041420817  0.040509517            7 
 3830000   0.63646781   -4.6036565    1901.3739   0.04137019  0.040499697           11 
 3831000   0.65493869   -4.5901374    1906.8735  0.041479019  0.040489902            6 
 3832000   0.64706175    -4.573107     1908.733  0.041508634  0.040480145           17 
 3833000   0.64296382   -4.5756168    1908.2368  0.041487016   0.04047043            9 
 3834000   0.64627532   -4.5729175    1907.6195  0.041462778  0.040460664           13 
 3835000   0.63097963   -4.5850703    1906.3768  0.041424962  0.040450906           30 
 3836000   0.64170609    -4.585988    1899.4366  0.041263395  0.040441072            7 
 3837000   0.64208176   -4.6035305    1903.2495  0.041335451  0.040431223            9 
 3838000   0.63261121   -4.6010965    1900.0165  0.041254484  0.040421337            7 
 3839000   0.62647379   -4.5986495    1903.0763  0.041310157  0.040411505            5 
 3840000   0.64181262    -4.596377    1903.8808  0.041316858    0.0404017            8 
 3841000   0.62714642   -4.5896447    1902.6322  0.041279011    0.0403919           11 
 3842000    0.6432025   -4.5910536    1909.6574  0.041420644  0.040382074            8 
 3843000   0.63411507   -4.5770379    1907.6012  0.041365279  0.040372237           13 
 3844000   0.63718455    -4.569454    1909.3926  0.041393353  0.040362435            6 
 3845000   0.63306145    -4.587852    1905.1849  0.041291393  0.040352644            7 
 3846000   0.63859401   -4.5909506    1907.0229  0.041320483  0.040342835            6 
 3847000   0.64716587   -4.6085217    1902.3055  0.041207554  0.040333057            5 
 3848000   0.63907261   -4.5765613    1904.3712  0.041241581  0.040323248            8 
 3849000   0.63490619   -4.6001035    1907.1444  0.041290907  0.040313436           12 
 3850000   0.63370545   -4.5853695    1902.0559  0.041170041  0.040303622           27 
 3851000   0.64666287   -4.6102393     1907.417  0.041275362  0.040293819            4 
 3852000   0.64304778   -4.5911286    1905.3245  0.041219377  0.040284035            9 
 3853000   0.63346181   -4.5571288    1911.8228  0.041349227  0.040274222            6 
 3854000   0.64019869    -4.587105    1905.0308  0.041191637  0.040264463           10 
 3855000   0.64595076   -4.5824696    1908.2849  0.041251295  0.040254649            8 
 3856000   0.64147566   -4.5927761    1905.9393  0.041189905  0.040244897           15 
 3857000   0.62414645    -4.608696    1907.4513  0.041211893   0.04023511           15 
 3858000   0.62141232   -4.5925158    1912.5155  0.041310598  0.040225353           14 
 3859000   0.63003478   -4.5838436    1911.5781  0.041279652   0.04021561            4 
 3860000   0.63482486   -4.6017235    1904.9428  0.041125707   0.04020586            9 
 3861000   0.64486613   -4.5826564    1912.1231  0.041270031  0.040196064            7 
 3862000   0.63659207   -4.6097682    1911.8571  0.041253606  0.040186292           12 
 3863000    0.6311338   -4.5812513    1907.1412  0.041141193   0.04017652           10 
 3864000   0.63208467   -4.5998746    1905.2705  0.041090202  0.040166716            6 
 3865000   0.63836126    -4.598288    1903.8934  0.041049879  0.040156878            5 
 3866000   0.64319569   -4.6022654    1903.3733   0.04102805  0.040147095            6 
 3867000   0.64050683   -4.6227792    1908.6518   0.04113119  0.040137254            6 
 3868000   0.63739674   -4.6002025    1903.7906  0.041015826  0.040127455            7 
 3869000   0.63672325   -4.6075669    1901.6889  0.040959958   0.04011765            9 
 3870000   0.63394105   -4.6132367    1906.4039  0.041050902  0.040107834           11 
 3871000   0.63974317   -4.6007161    1904.9043  0.041008015   0.04009799           16 
 3872000   0.62066686   -4.6215203    1902.4642  0.040944908  0.040088079            8 
 3873000   0.62401523   -4.5947628    1906.4323  0.041019715  0.040078215            6 
 3874000   0.63236566   -4.6120524    1906.1582  0.041003231  0.040068386           12 
 3875000   0.63213664   -4.6043852    1906.5917  0.041001972  0.040058531           13 
 3876000   0.62961208   -4.6310817    1907.4726  0.041010334  0.040048652           15 
 3877000   0.62220899   -4.5938892    1904.9786  0.040946148  0.040038809            8 
 3878000   0.63155795   -4.5969249    1906.9077  0.040977044  0.040028997           12 
 3879000   0.63188757   -4.5931515    1906.5279   0.04095832  0.040019211           13 
 3880000   0.63086907   -4.6202824    1902.7496  0.040866616  0.040009345            8 
 3881000   0.63347145   -4.6026092    1905.3662   0.04091227  0.039999501           14 
 3882000     0.629628   -4.6011966    1908.5271  0.040969584  0.039989707           10 
 3883000   0.62411002   -4.6031166    1912.3003  0.041040009  0.039979927            9 
 3884000   0.61980036   -4.6002829    1908.6069    0.0409502  0.039970171            5 
 3885000   0.62966051   -4.5767108     1907.563  0.040917268  0.039960391           12 
 3886000   0.64953765   -4.5731462     1912.395  0.041010358  0.039950617            5 
 3887000   0.63771261   -4.6025483    1906.7066  0.040877854  0.039940875           12 
 3888000   0.62824979   -4.6159269     1906.877  0.040870991  0.039931126            9 
 3889000   0.61786475   -4.5986661    1906.8877  0.040860712  0.039921313           10 
 3890000   0.61766226    -4.611948    1906.3462  0.040838608  0.039911437            7 
 3891000   0.63223991   -4.6141469    1905.0432  0.040800205  0.039901598           18 
 3892000   0.63883795    -4.591811    1909.1634  0.040877942  0.039891739            5 
 3893000   0.62840248   -4.6279367    1905.0572  0.040779544  0.039881926            7 
 3894000   0.62526898   -4.5858073    1905.5931  0.040780541  0.039872106           10 
 3895000   0.63871177   -4.5886874    1908.9163  0.040841171  0.039862325           12 
 3896000   0.62773629   -4.5950215    1908.5965  0.040823848  0.039852518           15 
 3897000   0.63379352   -4.6362276    1905.9518  0.040756817  0.039842712            6 
 3898000   0.62204251   -4.6126578    1909.9401  0.040831626  0.039832869            6 
 3899000   0.63208338   -4.5931371    1905.6963   0.04073045  0.039823063           13 
 3900000   0.63532938   -4.6264133    1905.9623  0.040725691  0.039813246           19 
 3901000   0.60755568   -4.5865807    1908.1337  0.040761636  0.039803439            2 
 3902000   0.62271433   -4.5965412    1908.1979  0.040752561  0.039793626           18 
 3903000   0.62689261   -4.6239566    1901.7044  0.040603477   0.03978379           13 
 3904000   0.62935799   -4.6029729    1909.3715  0.040756735   0.03977402           10 
 3905000   0.61681465   -4.5861559    1909.1585  0.040741751  0.039764259           10 
 3906000   0.61367628   -4.6188114    1910.3698  0.040757164   0.03975448           15 
 3907000   0.62283168   -4.6019357    1908.6646  0.040710362  0.039744745            9 
 3908000   0.63217652   -4.6201457    1910.7697  0.040744832  0.039734941           11 
 3909000    0.6302087   -4.6170349    1909.4613  0.040706517  0.039725161           17 
 3910000   0.62361003   -4.6056053    1910.2218  0.040712315  0.039715459           11 
 3911000    0.6364274   -4.6198072    1907.4297  0.040642413  0.039705646            6 
 3912000   0.62768271   -4.6048817    1906.2321  0.040606512  0.039695869           11 
 3913000    0.6296441   -4.6116311    1904.7941  0.040565509  0.039686079            8 
 3914000   0.63070212   -4.5973418     1913.816  0.040747232  0.039676375            7 
 3915000   0.62000977   -4.6202799    1911.6698  0.040691141  0.039666613            7 
 3916000   0.62752766   -4.6337252    1906.9635  0.040580598  0.039656845           15 
 3917000    0.6179788   -4.6088943    1910.3068  0.040641367  0.039647075           10 
 3918000   0.62475808   -4.6028959      1910.93  0.040644249  0.039637338           13 
 3919000   0.62393539   -4.5985495    1912.0958  0.040658667  0.039627624           14 
 3920000   0.61786342   -4.6117989    1905.2591  0.040502958  0.039617889            6 
 3921000   0.63498271   -4.6067677    1911.2885  0.040620771  0.039608174            8 
 3922000   0.61422252   -4.5861032     1911.674  0.040618605  0.039598488           10 
 3923000   0.62108501   -4.6333203    1910.4787  0.040582861  0.039588718            6 
 3924000   0.61981767   -4.6194789    1905.9934  0.040477263  0.039578928           10 
 3925000   0.62429093   -4.6054852    1908.9208  0.040529104  0.039569082           12 
 3926000   0.62942566   -4.6195019    1903.8196  0.040410503  0.039559295            9 
 3927000   0.61351976   -4.6134986    1909.8503  0.040528187  0.039549561            6 
 3928000   0.62254666   -4.6145996    1913.4055  0.040593294  0.039539817           18 
 3929000   0.63367596   -4.6275231    1909.1737  0.040493206  0.039530033            6 
 3930000   0.62513619   -4.6066798    1911.9778  0.040542362  0.039520287            8 
 3931000   0.61497478   -4.6137833    1906.1214  0.040407899  0.039510494           10 
 3932000     0.635666   -4.6358655    1911.3629  0.040508709  0.039500741           10 
 3933000   0.62106397   -4.6082951    1907.4841  0.040416224  0.039490979           12 
 3934000   0.60954304    -4.618074    1910.6722  0.040473483   0.03948115           13 
 3935000   0.62090621   -4.6251806    1909.2575  0.040433239  0.039471353            6 
 3936000   0.62776168   -4.6049619    1913.8774  0.040520779  0.039461639           20 
 3937000   0.62374717   -4.6063751    1916.5729   0.04056754  0.039451912           11 
 3938000   0.64080053   -4.6150136    1905.1568   0.04031566  0.039442147            5 
 3939000   0.62696227   -4.6124995    1906.7403  0.040338926  0.039432411            7 
 3940000   0.62624943   -4.6175221    1914.3649  0.040489951  0.039422653           10 
 3941000   0.62828679   -4.6099737    1911.8243  0.040425956  0.039412895            8 
 3942000   0.61913785   -4.6218792    1908.6264  0.040348098  0.039403099            5 
 3943000   0.61336851   -4.6282304      1908.24  0.040329699  0.039393356            6 
 3944000   0.62876262   -4.6258803       1911.9  0.040396806  0.039383527           10 
 3945000   0.62705563    -4.623938    1907.5531  0.040294742  0.039373769           11 
 3946000   0.62376208   -4.6166196    1909.3663  0.040322822  0.039363987            5 
 3947000   0.62577517   -4.6248943     1910.438  0.040335233  0.039354232           10 
 3948000   0.61826807   -4.5797409    1914.5443  0.040411692  0.039344507            9 
 3949000   0.60787665   -4.5985021    1917.6538  0.040467076  0.039334819           16 
 3950000   0.62511308    -4.627945    1912.5977  0.040350162  0.039325121           27 
 3951000    0.6213133   -4.6085052    1913.1509  0.040351617  0.039315399            5 
 3952000   0.62358728   -4.6408243    1911.0811  0.040297763  0.039305658            9 
 3953000   0.60996595    -4.633494    1909.6562  0.040257531  0.039295921            8 
 3954000   0.61139275   -4.6155017    1910.0115  0.040254838  0.039286175            4 
 3955000   0.60319132   -4.6537342    1910.6769  0.040258679  0.039276406            6 
 3956000   0.62986002   -4.6228595    1911.1029  0.040257476  0.039266645           12 
 3957000   0.62144651   -4.6351667    1912.9757  0.040286743  0.039256888            8 
 3958000   0.60795048   -4.6341343    1909.8545  0.040210849  0.039247138           16 
 3959000   0.61723913   -4.6189868    1908.5756  0.040173773  0.039237384           10 
 3960000   0.61858757   -4.6468552    1908.5788  0.040163696  0.039227629           11 
 3961000   0.60854055   -4.6434323    1908.0133  0.040141658  0.039217911           14 
 3962000   0.62188564   -4.6461917    1910.7671  0.040189448  0.039208202            8 
 3963000   0.61941049     -4.63605    1915.6276  0.040281512  0.039198555            8 
 3964000   0.60129224    -4.617082    1909.5143  0.040142833  0.039188862            6 
 3965000    0.6096821   -4.6267337    1914.4374  0.040236179  0.039179221            6 
 3966000   0.60799639   -4.6229942    1916.3104   0.04026539  0.039169544            6 
 3967000    0.6260398   -4.6317357    1913.9982  0.040206667  0.039159902            6 
 3968000   0.61092633   -4.6281405    1909.4057  0.040100086  0.039150218           16 
 3969000   0.60971171   -4.6230101    1913.3345  0.040172472  0.039140612           11 
 3970000   0.61770275   -4.6233906    1915.4868  0.040207532  0.039131032            9 
 3971000   0.61920612   -4.6503923    1907.7051  0.040034104  0.039121377           14 
 3972000   0.62335702   -4.6501056    1911.8484  0.040110951  0.039111647           11 
 3973000   0.60788706   -4.5999077    1917.7148  0.040223903  0.039101965           10 
 3974000   0.60986654    -4.626601     1913.093  0.040116864  0.039092288            6 
 3975000   0.61146129   -4.6398506    1916.0309  0.040168362  0.039082595           14 
 3976000   0.62014323   -4.6274266    1914.8652  0.040133827   0.03907287           36 
 3977000   0.61312765   -4.6504727    1917.7377  0.040183927  0.039063212           12 
 3978000   0.62091929   -4.6240905     1917.869  0.040176575   0.03905356            5 
 3979000   0.62634315   -4.6450661    1916.6917  0.040141822   0.03904393            8 
 3980000   0.61261108   -4.6443978    1914.3736    0.0400832  0.039034277           20 
 3981000   0.62605333   -4.6425268     1913.818  0.040061501  0.039024626           10 
 3982000   0.61600661   -4.6413845    1911.7133  0.040007394   0.03901498           10 
 3983000   0.61475417    -4.643569    1915.3993   0.04007447  0.039005324           10 
 3984000   0.60971883   -4.6463278    1911.7857  0.039988825  0.038995652           12 
 3985000   0.61348248   -4.6413359    1913.6891  0.040018593  0.038985999           12 
 3986000   0.62822065   -4.6268974    1910.8964  0.039950167  0.038976407           13 
 3987000   0.61984308   -4.6521162    1914.0884  0.040006864   0.03896677           10 
 3988000    0.6088083   -4.6304467    1914.1022   0.03999712   0.03895717            5 
 3989000   0.60452775   -4.6375388    1916.5628  0.040038497   0.03894756            6 
 3990000   0.60993403   -4.6581275     1912.871  0.039951358  0.038937929           12 
 3991000   0.61261627   -4.6316363    1916.7807  0.040022983  0.038928291           13 
 3992000   0.61120076    -4.641809    1917.5811  0.040029665  0.038918715           10 
 3993000   0.61558975   -4.6771939    1909.7531  0.039856272  0.038909112            7 
 3994000   0.60911259   -4.6778995    1915.8697  0.039973914  0.038899473           17 
 3995000   0.60849044   -4.6257268    1920.1638  0.040053479  0.038889852            9 
 3996000   0.61754229    -4.633043    1919.0771  0.040020793  0.038880247            8 
 3997000   0.61216702   -4.6265404    1918.1239  0.039990909  0.038870732            7 
 3998000   0.60736613   -4.6451593    1918.5591  0.039989975  0.038861132            7 
 3999000   0.60950571   -4.6142353     1918.706  0.039983036  0.038851619           11 
 4000000   0.62237296    -4.648821    1919.3846   0.03998718  0.038842058           13 
 4001000   0.62167427   -4.6300133    1915.7156  0.039900766  0.038832517           16 
 4002000   0.61998759   -4.6261588    1915.0852   0.03987767  0.038823012            7 
 4003000    0.6017706   -4.6256116    1912.1088  0.039805745   0.03881344           15 
 4004000   0.60675299   -4.6392747    1915.3738  0.039863757  0.038803892           21 
 4005000   0.60495756   -4.6217778    1914.7014  0.039839812  0.038794348           13 
 4006000    0.6249037   -4.6254186    1919.2781  0.039925074   0.03878482           17 
 4007000   0.59455009   -4.6502406      1922.12  0.039974212  0.038775267            8 
 4008000   0.60883326   -4.6296988    1916.1676  0.039840476   0.03876569            6 
 4009000    0.6162827   -4.6435488    1912.7143  0.039758757  0.038756127           10 
 4010000   0.60997814   -4.6331619    1917.3587   0.03984536  0.038746598            5 
 4011000   0.60603386   -4.6356789     1919.347  0.039876735  0.038737005            6 
 4012000   0.60463958   -4.6701427    1917.5803  0.039830099  0.038727474           29 
 4013000   0.60387672   -4.6589686    1915.9166  0.039785626  0.038717885           23 
 4014000   0.61291954    -4.642761    1915.0249  0.039757201  0.038708368           16 
 4015000   0.60780916   -4.6415093    1915.7357  0.039762052  0.038698787           32 
 4016000    0.6006132   -4.6710972    1916.9562  0.039777477  0.038689239           13 
 4017000   0.60438415   -4.6585308    1916.1183  0.039750192  0.038679736            6 
 4018000   0.61774141   -4.6426692    1922.6946  0.039876691  0.038670221            8 
 4019000   0.61099054   -4.6428575    1919.5626  0.039801829  0.038660739           19 
 4020000   0.61718214    -4.651937     1918.406  0.039767951  0.038651206           36 
 4021000   0.61031237   -4.6533262    1916.7288  0.039723302  0.038641678           17 
 4022000   0.59700775   -4.6716795    1914.6495  0.039670344   0.03863211           24 
 4023000   0.60527121   -4.6551634    1919.5115  0.039761197  0.038622611           10 
 4024000    0.6158277   -4.6501534    1913.3397  0.039623503  0.038613132           10 
 4025000   0.61591974   -4.6281455    1922.1603   0.03979628  0.038603661            8 
 4026000   0.61548884   -4.6427379    1924.4537  0.039833866  0.038594164           26 
 4027000   0.61673977   -4.6511995    1917.0173  0.039670088  0.038584655            9 
 4028000    0.6063597   -4.6340676    1919.3899  0.039709325   0.03857516            9 
 4029000   0.59944595   -4.6477597    1919.4374  0.039700452  0.038565686           11 
 4030000   0.61586775   -4.6576054    1916.9986  0.039640169  0.038556219           27 
 4031000   0.60032688   -4.6469409    1918.6518  0.039664512  0.038546751            6 
 4032000   0.59748222   -4.6332616    1922.1355  0.039726676  0.038537265            7 
 4033000   0.59716531   -4.6554392    1916.8159  0.039606908  0.038527789            6 
 4034000   0.62387537   -4.6565037    1917.6213  0.039613728  0.038518274           11 
 4035000   0.59443757   -4.6578291    1920.6696  0.039666865  0.038508792            9 
 4036000   0.60668026   -4.6609413    1916.5103  0.039571158  0.038499314           16 
 4037000    0.6004198    -4.656825     1915.744  0.039545536  0.038489828            8 
 4038000   0.60207815   -4.6618081     1915.227  0.039525074  0.038480299            8 
 4039000   0.59913336   -4.6659019    1918.1846   0.03957631  0.038470771           14 
 4040000   0.59810666   -4.6452708    1916.3257   0.03952817   0.03846126           12 
 4041000   0.60847397   -4.6523037    1918.3149  0.039559411  0.038451743           12 
 4042000   0.60348798   -4.6637163    1918.4204  0.039551797  0.038442209           13 
 4043000   0.60718622   -4.6509315    1921.0546  0.039596311  0.038432689            6 
 4044000   0.60417129   -4.6600914    1916.2537   0.03948759  0.038423185           12 
 4045000   0.61894573   -4.6682797    1918.5232  0.039524581  0.038413647            4 
 4046000   0.61074161   -4.6693693     1922.329  0.039593199  0.038404155            8 
 4047000     0.584421   -4.6601301     1913.813   0.03940806  0.038394608           14 
 4048000   0.59211143   -4.6588807    1920.1424  0.039528623   0.03838503           12 
 4049000   0.60115734   -4.6499115    1919.6006   0.03950771  0.038375502           17 
 4050000   0.61796608    -4.638417    1921.9719  0.039546748  0.038365995            4 
 4051000   0.59694188   -4.6481796    1916.6584   0.03942768  0.038356575           13 
 4052000   0.60864549   -4.6494252    1919.3928  0.039474186  0.038347104            9 
 4053000   0.60646762   -4.6579553    1919.5149  0.039466957  0.038337626           13 
 4054000   0.60585622   -4.6684693    1919.8298  0.039463695  0.038328094           14 
 4055000   0.60897739   -4.6584464    1919.8483  0.039454343  0.038318602           13 
 4056000   0.60457873   -4.6593621    1917.6507  0.039399464  0.038309065           18 
 4057000    0.5882525   -4.6714567    1920.5269  0.039448832  0.038299584            8 
 4058000   0.59832984   -4.6668492    1917.0542  0.039367795  0.038290088           15 
 4059000   0.59973126   -4.6458571    1926.3859  0.039549681  0.038280672            9 
 4060000   0.60289326   -4.6518684    1917.5877  0.039359353  0.038271211           14 
 4061000    0.6032567   -4.6734923    1928.3176  0.039569843  0.038261775           11 
 4062000   0.60329751   -4.6591414    1918.3736  0.039356098  0.038252315           10 
 4063000    0.5982521   -4.6567345    1917.8578  0.039335832  0.038242865           14 
 4064000   0.59570506   -4.6602917    1920.4021  0.039378324  0.038233438           17 
 4065000   0.60850818   -4.6420915    1920.4687  0.039370001  0.038224038           16 
 4066000   0.61137767   -4.6670276     1921.395  0.039379305  0.038214614           13 
 4067000   0.59972576   -4.6696774     1924.274  0.039428612  0.038205198           32 
 4068000   0.60043473   -4.6626201    1924.6534  0.039426693  0.038195807           10 
 4069000   0.60248698   -4.6681639    1919.0714  0.039302683   0.03818643           10 
 4070000   0.60031616   -4.6803658    1920.9356  0.039331197  0.038177061           23 
 4071000   0.60762883   -4.6722939    1919.1385  0.039284747   0.03816768            9 
 4072000   0.59340934   -4.6639989    1925.2558  0.039400291   0.03815826           12 
 4073000   0.60926696   -4.6561725    1922.2062  0.039328223  0.038148892           12 
 4074000   0.61660998   -4.6616079    1927.2241   0.03942121  0.038139503           12 
 4075000   0.60573794   -4.6692826    1922.4241  0.039313376  0.038130136           23 
 4076000    0.6088494   -4.6774113     1923.123   0.03931802  0.038120769           12 
 4077000   0.60731313   -4.6588403    1927.6741  0.039401399  0.038111427            8 
 4078000    0.6045712   -4.6310994    1923.9751   0.03931615  0.038102107           10 
 4079000   0.60934091   -4.6538981    1919.0315  0.039205514  0.038092817            8 
 4080000   0.60401013   -4.6688642    1923.6562  0.039290364  0.038083503           22 
 4081000   0.59291854     -4.66161    1928.4248  0.039378111   0.03807418           12 
 4082000   0.58929599    -4.683109    1927.2687  0.039344861  0.038064859           15 
 4083000   0.60400454   -4.6555123    1918.4365  0.039154962  0.038055487           17 
 4084000   0.59151539   -4.6703728    1920.5255     0.039188  0.038046124           17 
 4085000    0.6021244   -4.6574331    1925.1725  0.039273205  0.038036799           11 
 4086000   0.58683054   -4.6798743     1921.096  0.039180453  0.038027476           13 
 4087000   0.60654457   -4.6773382    1922.0775   0.03919088   0.03801807           33 
 4088000   0.60526207    -4.681593    1914.5648  0.039028147  0.038008675           15 
 4089000   0.60129368   -4.6785131    1924.6107  0.039223338  0.037999295           14 
 4090000   0.58230987   -4.6714275    1920.9549  0.039139261   0.03798992           16 
 4091000    0.6025535   -4.6676406    1920.6166  0.039122803  0.037980565            7 
 4092000   0.58657206   -4.6648061     1925.475  0.039212182   0.03797124           14 
 4093000   0.59680699   -4.6721295    1930.1288  0.039297354   0.03796188           26 
 4094000   0.60383838   -4.6548245    1926.5565  0.039215039  0.037952538           13 
 4095000   0.58822884   -4.6830871    1920.2018  0.039076146  0.037943167            9 
 4096000   0.59304561   -4.6725292    1922.4647  0.039112644  0.037933777            9 
 4097000   0.58797131   -4.7009431    1922.9218  0.039112395  0.037924339           15 
 4098000   0.58360949   -4.6633825    1922.8091  0.039100559  0.037914954            8 
 4099000   0.59540273   -4.7170359    1917.4027  0.038981108  0.037905565           12 
 4100000   0.60667868    -4.668793    1926.1456  0.039149302  0.037896192            5 
 4101000   0.58437223   -4.6667365    1926.4697   0.03914634  0.037886881            4 
 4102000   0.58725348   -4.6817603    1918.5343  0.038975586  0.037877519           19 
 4103000   0.58620824     -4.68419    1924.4656  0.039086554  0.037868127           14 
 4104000   0.60131118   -4.6719106    1918.7275  0.038960516  0.037858793           11 
 4105000   0.59039905   -4.6780932    1925.7149  0.039092873  0.037849446           35 
 4106000   0.60886749   -4.6891967    1920.4053   0.03897559  0.037840044           17 
 4107000   0.60562558   -4.6586664    1927.3515  0.039107043   0.03783072           20 
 4108000   0.59250752   -4.6750411    1926.6027  0.039082334  0.037821401            7 
 4109000   0.59756173    -4.702545    1925.8049  0.039056642  0.037812051           13 
 4110000   0.59177606   -4.6733061    1926.1198  0.039053523  0.037802763           17 
 4111000    0.6037965   -4.6884426    1921.3203  0.038946734  0.037793397           14 
 4112000   0.58718231     -4.67908    1924.8959  0.039009726  0.037784068            7 
 4113000   0.58698171   -4.6633663    1924.8679  0.038999674  0.037774775            6 
 4114000   0.59089159   -4.6799359    1924.1996  0.038976656  0.037765472           12 
 4115000   0.59014673   -4.6952571    1920.6754  0.038895817  0.037756111           16 
 4116000   0.59106014   -4.6864441    1928.1886   0.03903848  0.037746771           15 
 4117000   0.59752328   -4.6754416    1927.6544  0.039018184  0.037737482           10 
 4118000   0.58303971   -4.6853948    1927.1336  0.038998171  0.037728207           11 
 4119000   0.59638053   -4.6848042    1925.1338  0.038948245  0.037718895           11 
 4120000   0.58341964   -4.6647886    1928.0275  0.038997321  0.037709589           19 
 4121000   0.58676628   -4.6758442    1923.1006  0.038888228  0.037700285           16 
 4122000   0.58979934   -4.6936429    1922.5088  0.038866828  0.037690968           29 
 4123000   0.59235443   -4.6849346    1918.5526   0.03877744  0.037681632           15 
 4124000   0.59654153   -4.6645914    1929.9343  0.038998025  0.037672322            7 
 4125000   0.58105803    -4.672566    1921.0243  0.038808572  0.037663025           13 
 4126000   0.59198145   -4.6879596    1923.7467  0.038854151  0.037653739           16 
 4127000   0.58484681   -4.6880331    1927.4952  0.038920425  0.037644436            9 
 4128000   0.58046195   -4.6813897    1925.1538  0.038863732   0.03763513            8 
 4129000    0.6042358   -4.6801071     1929.931  0.038950735  0.037625862           14 
 4130000   0.58720455   -4.6706718    1926.8782  0.038879706  0.037616545           10 
 4131000   0.58527316     -4.65364    1927.2791  0.038878382  0.037607268            8 
 4132000   0.59218786   -4.6761357    1925.1494  0.038826021  0.037597976           14 
 4133000   0.59313404    -4.669053    1927.3222  0.038860436  0.037588693           12 
 4134000   0.58156675   -4.6698739    1928.4543  0.038873858  0.037579377           12 
 4135000   0.56518463   -4.6587645    1928.3768  0.038862894  0.037570084            7 
 4136000   0.58973958   -4.6688695    1934.3956  0.038974767   0.03756084            8 
 4137000   0.60054364   -4.6759765    1929.5215  0.038867165  0.037551607            8 
 4138000    0.5866626   -4.6923219    1925.9116  0.038785074  0.037542313           12 
 4139000   0.58714621   -4.6700455    1928.0611   0.03881898  0.037533058           27 
 4140000    0.5855588   -4.6876085    1930.7204  0.038863131    0.0375238           24 
 4141000   0.59586706   -4.6929457     1924.252  0.038723577  0.037514475            5 
 4142000     0.584989   -4.6894554    1926.3568  0.038756575  0.037505192            9 
 4143000   0.59824899   -4.7037359    1924.2953  0.038705754  0.037495849           19 
 4144000   0.59275885   -4.7125873     1922.874  0.038667832  0.037486523           17 
 4145000   0.58078175   -4.6814273    1928.4922  0.038771456  0.037477163           11 
 4146000   0.58070565   -4.6873414    1922.5259  0.038642184  0.037467891           10 
 4147000   0.59836286   -4.6872784    1925.6301  0.038695244  0.037458598           13 
 4148000   0.60033267   -4.6883255     1931.912  0.038812118  0.037449342           10 
 4149000   0.59517067   -4.6993178     1926.517  0.038694405  0.037440103           11 
 4150000   0.57651427   -4.7011514    1925.7632  0.038669944  0.037430832            8 
 4151000   0.58671743   -4.6979032    1926.5826  0.038677078   0.03742156            6 
 4152000   0.58521746   -4.6757422    1930.7201  0.038750805  0.037412329           11 
 4153000   0.58884049   -4.6856623    1927.3154  0.038673156  0.037403099           15 
 4154000   0.58732909   -4.6749741    1928.6646  0.038690912   0.03739387           28 
 4155000    0.5843285   -4.6926005    1927.8635  0.038665534  0.037384696            6 
 4156000   0.60166925   -4.6769956    1933.2542   0.03876432  0.037375544           11 
 4157000   0.59133756   -4.6713991    1927.3542  0.038636722  0.037366333           10 
 4158000    0.5975911   -4.6883128     1925.102  0.038582292  0.037357123           13 
 4159000   0.59457165   -4.6844632    1928.6723  0.038644553  0.037347937           12 
 4160000   0.58590519   -4.6628884    1923.3663  0.038528973  0.037338754           12 
 4161000   0.58812506   -4.7067754    1930.0021  0.038652609  0.037329545           10 
 4162000   0.58961589   -4.6963034    1927.1329  0.038585874  0.037320309           23 
 4163000   0.57660113   -4.6966484    1934.0836  0.038715743  0.037311086           31 
 4164000   0.58040478   -4.6896184    1930.2341  0.038629404  0.037301859           23 
 4165000   0.56801562   -4.7221546    1922.2879  0.038461142  0.037292614           19 
 4166000   0.57995454   -4.6935677    1928.1582  0.038569335   0.03728337            9 
 4167000   0.57768577   -4.6729346    1928.2234  0.038561384   0.03727417            5 
 4168000   0.57953917   -4.7097257    1929.9662  0.038586977   0.03726497           10 
 4169000   0.59588869   -4.6867859    1926.7976  0.038514383  0.037255735            9 
 4170000   0.58322555   -4.7062693    1925.4499  0.038478216  0.037246486            6 
 4171000   0.57942757   -4.6993486     1934.705  0.038653899  0.037237271           22 
 4172000   0.57949609   -4.7035037    1929.5285  0.038541236  0.037228058           15 
 4173000   0.57624595   -4.7122876    1927.3632   0.03848876  0.037218855            6 
 4174000   0.59665527   -4.6997838    1921.6304  0.038365085  0.037209622            7 
 4175000   0.58373422   -4.7052759    1922.6811  0.038376867  0.037200399            6 
 4176000   0.59332868   -4.6887725    1922.7338   0.03836873  0.037191103           15 
 4177000   0.58342827   -4.7109664    1929.2367  0.038489281   0.03718183           11 
 4178000    0.5917444     -4.72467    1925.6951  0.038409428  0.037172532           15 
 4179000   0.58968185   -4.7000074    1925.5477  0.038397297  0.037163266           18 
 4180000   0.58122634    -4.685079     1927.197  0.038420994  0.037154027           14 
 4181000   0.57627745   -4.6976876    1928.7415  0.038442588  0.037144802           10 
 4182000   0.57962251   -4.6874814    1930.0244  0.038458959  0.037135636           18 
 4183000   0.58995691   -4.7198788    1926.2747  0.038375065  0.037126431           10 
 4184000    0.5815348   -4.6863524    1928.7561  0.038415315  0.037117237           12 
 4185000   0.58679283   -4.6985824    1924.8535  0.038328426  0.037108014           15 
 4186000   0.58127872   -4.7009457    1925.0572  0.038323323  0.037098798           10 
 4187000    0.5914795   -4.7143099    1926.2808  0.038338524  0.037089568           17 
 4188000   0.58742042   -4.7089025    1925.1835  0.038307536  0.037080356           13 
 4189000   0.59657872   -4.7018504    1926.0905  0.038316434  0.037071129            7 
 4190000   0.57654456   -4.7065689    1925.2452  0.038290477  0.037061923           11 
 4191000   0.58364696   -4.7234008    1922.4436  0.038225634  0.037052689            8 
 4192000   0.58222937   -4.6918222    1923.8798  0.038245066  0.037043408            8 
 4193000   0.57758393   -4.7174723    1925.9151  0.038276396  0.037034127            5 
 4194000   0.58897901   -4.7124196    1926.2744  0.038274407  0.037024894            7 
 4195000   0.57932879   -4.7027335    1930.7143  0.038353482  0.037015645            9 
 4196000   0.58281049   -4.7280657    1924.3659  0.038218262  0.037006386           10 
 4197000   0.56860251    -4.733493    1923.7501  0.038196928  0.036997094           10 
 4198000   0.57622067    -4.695815     1933.359  0.038378573   0.03698786           20 
 4199000   0.57837038    -4.676618    1928.9075  0.038281088  0.036978711           31 
 4200000   0.57774276   -4.7035696    1930.1861  0.038297344  0.036969503           20 
 4201000    0.5822323   -4.6984743    1931.0938  0.038306232  0.036960299           10 
 4202000   0.58663097   -4.6979665    1925.8826  0.038193769  0.036951086           15 
 4203000   0.58132638   -4.7024468    1928.5431  0.038237432  0.036941912            7 
 4204000   0.58465524   -4.7191462    1928.6926  0.038231299  0.036932737           16 
 4205000   0.57759603   -4.7124043    1926.5505  0.038179756  0.036923507           10 
 4206000    0.5916612   -4.7161883    1920.7149  0.038055059    0.0369143            7 
 4207000   0.56865456   -4.6910302    1933.0532  0.038290414  0.036905121            7 
 4208000   0.58006527   -4.7057761    1926.0137  0.038141907  0.036895947           20 
 4209000   0.58946108   -4.7011385    1925.2081  0.038116893  0.036886776           12 
 4210000   0.58238213   -4.6941027    1931.0538  0.038223551  0.036877591            7 
 4211000   0.58030554   -4.7090979    1925.5894  0.038106337  0.036868394            7 
 4212000   0.57613215   -4.7219972    1927.0604  0.038126392  0.036859155           32 
 4213000   0.58120381   -4.7213963    1929.3156   0.03816195  0.036849959           10 
 4214000   0.58193181   -4.7075963    1930.8467  0.038183173  0.036840824           13 
 4215000   0.57617656   -4.7004748    1921.7877  0.037995011  0.036831652            5 
 4216000   0.58190803   -4.7082637    1930.9931  0.038167953  0.036822467           10 
 4217000   0.58002974   -4.6995119    1925.3718  0.038047818  0.036813275            8 
 4218000    0.5798918   -4.7190631    1928.9465  0.038109422  0.036804034           15 
 4219000   0.56991453   -4.7129915    1927.3097  0.038068059  0.036794812           16 
 4220000   0.58168868   -4.7198735       1926.1  0.038035149  0.036785603           20 
 4221000   0.58308699   -4.7157463    1925.1445  0.038007275  0.036776383           10 
 4222000   0.57595881   -4.7015328    1925.9155   0.03801349  0.036767197            8 
 4223000    0.5715305   -4.7080679    1920.8536  0.037904602  0.036758015           12 
 4224000   0.58254121   -4.7217419    1928.3145   0.03804282  0.036748835           28 
 4225000   0.57437711   -4.7459311    1925.6863  0.037981978  0.036739613            8 
 4226000   0.58039825   -4.7364169    1922.6618   0.03791335  0.036730415           21 
 4227000   0.56653019   -4.7113027    1929.9669  0.038048397  0.036721229           13 
 4228000   0.56550631   -4.7176846    1924.2671  0.037927057  0.036712032            8 
 4229000   0.58022159   -4.7347731     1927.373  0.037979289  0.036702823           14 
 4230000   0.56199167   -4.7431757    1926.3507  0.037950171  0.036693648            8 
 4231000   0.58406827   -4.7109696    1924.5336  0.037905412  0.036684461            6 
 4232000      0.58429   -4.7096033    1925.0727  0.037907071  0.036675289           17 
 4233000   0.58535227   -4.7359116    1926.7018  0.037930188  0.036666117           14 
 4234000   0.56490782   -4.7199888    1928.1303  0.037949345  0.036656895           14 
 4235000   0.57119226   -4.7077538    1926.2314  0.037903018  0.036647712           19 
 4236000   0.57584366    -4.711328    1928.2998  0.037934761  0.036638549            8 
 4237000   0.58765076   -4.7210146    1932.6266  0.038010907  0.036629394           16 
 4238000   0.56511264   -4.7133218    1924.5532  0.037843189  0.036620254            9 
 4239000   0.57119794   -4.7093511    1930.8541  0.037958128  0.036611103           18 
 4240000   0.57461349   -4.6937494    1930.7323  0.037946783  0.036601975            8 
 4241000   0.57735021   -4.7175331    1929.2272  0.037908261  0.036592798           20 
 4242000   0.57764163   -4.7154603    1924.1947  0.037800461  0.036583626           16 
 4243000   0.58000371   -4.7327703    1926.2958  0.037832818  0.036574439            8 
 4244000   0.57774247   -4.7364784    1924.9402  0.037797286  0.036565254            9 
 4245000   0.56514226   -4.7181264    1927.9737  0.037847932  0.036556115           10 
 4246000   0.57691931   -4.6960955    1931.5003  0.037908232  0.036546991           11 
 4247000   0.56351127   -4.7109201    1933.5165  0.037938869  0.036537884           20 
 4248000   0.56726185   -4.7247386     1928.044  0.037822583  0.036528761           11 
 4249000   0.58059655   -4.7196642    1932.1025  0.037893279   0.03651966           13 
 4250000   0.57330311    -4.729736    1927.3507   0.03779119  0.036510532           17 
 4251000   0.56286259   -4.7261158    1929.9358  0.037832976  0.036501354           16 
 4252000   0.57623485   -4.7346656    1929.1592  0.037808858  0.036492201           14 
 4253000   0.56675538   -4.7445802    1926.9838  0.037757343  0.036483062           12 
 4254000   0.57341182   -4.7436689    1933.8244  0.037882472  0.036473908           23 
 4255000   0.55864483   -4.7326226    1929.3963  0.037786844  0.036464735           25 
 4256000   0.57272472   -4.7406929    1925.4925  0.037701528  0.036455575           30 
 4257000   0.56809498   -4.7364243    1929.7293   0.03777561  0.036446413           10 
 4258000   0.56458344   -4.7256203     1926.377   0.03770113  0.036437242           15 
 4259000    0.5572472   -4.7234187     1931.945  0.037801225  0.036428104           26 
 4260000   0.56989039   -4.7226802     1927.844  0.037712129  0.036418984            7 
 4261000    0.5758672   -4.7304136    1925.7261  0.037661858  0.036409875           15 
 4262000   0.58188747   -4.7200769    1927.6348  0.037690342  0.036400752            9 
 4263000    0.5735486   -4.7449114    1927.1254  0.037671543  0.036391611           25 
 4264000   0.57035495   -4.7506724    1930.8309  0.037735126  0.036382462           13 
 4265000   0.56955313   -4.7175567    1929.0575  0.037691627  0.036373327            7 
 4266000   0.56106047   -4.7195343    1928.2838  0.037667678  0.036364204           14 
 4267000    0.5840153   -4.7308775    1929.8654   0.03768974  0.036355098            5 
 4268000   0.57438554   -4.7194933     1932.793   0.03773807  0.036346008           11 
 4269000   0.56406961   -4.7210989    1928.5148  0.037645718  0.036336931           17 
 4270000   0.57336139   -4.7345842    1932.8876   0.03772224  0.036327839           16 
 4271000   0.56080124   -4.7350939    1926.3943  0.037586715  0.036318712           12 
 4272000   0.56726718   -4.7213246     1930.487  0.037657752  0.036309649            5 
 4273000   0.57653948   -4.7434289    1931.4901  0.037668501   0.03630059           14 
 4274000    0.5662495   -4.7222957    1929.7866  0.037626474  0.036291515           20 
 4275000   0.57260383   -4.7080643    1933.3387  0.037686915  0.036282473            9 
 4276000   0.56551698   -4.7259479    1929.4455  0.037602227  0.036273349           12 
 4277000   0.56507101   -4.7176447    1927.6282  0.037558028  0.036264228           14 
 4278000   0.56478919   -4.7196054    1930.5227  0.037605632  0.036255103           13 
 4279000   0.56323565    -4.727175    1929.7305  0.037581415  0.036246031           25 
 4280000   0.57190177   -4.7326657    1926.4039  0.037507864  0.036236906           10 
 4281000   0.58204724   -4.7358551    1929.4805  0.037558992  0.036227836           14 
 4282000   0.56948313   -4.7254564    1927.0001  0.037501948  0.036218726           15 
 4283000   0.56851996   -4.7316821    1932.3388  0.037597066  0.036209671           20 
 4284000   0.57559931   -4.7359325    1925.8635   0.03746233   0.03620059           26 
 4285000   0.56137319   -4.7229122    1930.5152  0.037544054  0.036191464           19 
 4286000    0.5628643    -4.721589    1928.6474  0.037498977  0.036182374            8 
 4287000   0.56411741   -4.7357815    1932.1815  0.037558928  0.036173295           27 
 4288000   0.56081538   -4.7283969    1927.7617  0.037464274  0.036164233            9 
 4289000   0.56912029   -4.7469021    1928.4153  0.037468238  0.036155173           14 
 4290000   0.55523175   -4.7498107    1931.9499  0.037528165   0.03614611           28 
 4291000   0.55540237   -4.7397579    1927.3747  0.037430566  0.036137009           19 
 4292000   0.56303432   -4.7383182    1929.2006  0.037457296  0.036127907            8 
 4293000   0.55343602   -4.7328192    1928.7155  0.037439154  0.036118825           16 
 4294000   0.57271819   -4.7304184    1933.3835  0.037521028  0.036109766            9 
 4295000   0.56370598   -4.7368737    1927.0743  0.037389878  0.036100698           11 
 4296000   0.58332942   -4.7181198    1927.9148  0.037397478  0.036091627           13 
 4297000   0.57615712   -4.7050604    1932.4664  0.037477046  0.036082556           11 
 4298000   0.56364214   -4.7268078    1927.1086  0.037364444  0.036073461           16 
 4299000   0.56600481   -4.7635384    1928.7673  0.037387906  0.036064361           13 
 4300000   0.56207294   -4.7469498    1927.9021  0.037362443  0.036055295            9 
 4301000   0.55665578   -4.7220847    1929.4409  0.037383573  0.036046259            9 
 4302000   0.55964894    -4.744426     1930.082    0.0373873  0.036037236           16 
 4303000   0.56035175   -4.7245929    1928.7604  0.037353017  0.036028166           15 
 4304000   0.55923196    -4.741206    1932.6722  0.037420079   0.03601911           18 
 4305000   0.57837055   -4.7478152    1931.8172  0.037394835  0.036010036           16 
 4306000   0.55489287   -4.7431863    1930.6464  0.037363493  0.036000973           18 
 4307000   0.56683412   -4.7482587    1927.2879  0.037289837  0.035991911           14 
 4308000   0.56855422   -4.7411097    1929.6132   0.03732616  0.035982845           22 
 4309000   0.56914562   -4.7397223    1929.1462  0.037308466  0.035973777            9 
 4310000   0.56294743   -4.7398372    1930.1684  0.037319575  0.035964687           13 
 4311000   0.57288035   -4.7408738    1928.5393  0.037279427  0.035955586           11 
 4312000   0.55567593   -4.7405301    1931.0967  0.037320205  0.035946509           10 
 4313000   0.55283217   -4.7470006    1933.0354   0.03734901  0.035937471           21 
 4314000    0.5642582   -4.7363644    1929.6553   0.03727506  0.035928399           37 
 4315000   0.56444032   -4.7499822    1929.9295  0.037271716  0.035919335           18 
 4316000   0.55705557   -4.7420214    1929.7083   0.03725881  0.035910269           18 
 4317000   0.56681298   -4.7488151    1931.1587  0.037278177  0.035901198           20 
 4318000   0.55288503   -4.7383727    1929.9232    0.0372457  0.035892172           12 
 4319000    0.5495173   -4.7569916    1928.3315  0.037206366  0.035883123           18 
 4320000   0.55477224   -4.7447169    1936.5625  0.037356529  0.035874058           18 
 4321000   0.56751313   -4.7456612    1936.8347  0.037353134  0.035865014           19 
 4322000   0.55776818   -4.7297653    1930.2844  0.037218193  0.035855994           11 
 4323000   0.56334896   -4.7503515    1925.2846  0.037113204  0.035846969           22 
 4324000   0.54773317   -4.7508616    1924.7021  0.037093396  0.035837932           11 
 4325000   0.54807168   -4.7600228    1931.2444  0.037210875  0.035828855           30 
 4326000   0.55926117   -4.7421237    1930.6684  0.037191178  0.035819813           17 
 4327000   0.54633073   -4.7441917    1930.0468  0.037170611  0.035810779           19 
 4328000   0.55345679   -4.7489347    1934.1217  0.037240483   0.03580179           10 
 4329000   0.56353831   -4.7534393    1929.6658  0.037146104  0.035792764           22 
 4330000   0.56614319   -4.7573815     1930.894  0.037161163  0.035783771           15 
 4331000   0.56817431   -4.7581526    1935.7951  0.037246885  0.035774803            7 
 4332000   0.57713276   -4.7648028    1933.7713  0.037199356  0.035765842           13 
 4333000   0.56425072   -4.7501885    1929.8676  0.037115694  0.035756833           11 
 4334000   0.55161756   -4.7606653     1932.356  0.037154975  0.035747836           12 
 4335000   0.55998658   -4.7516128    1928.9153  0.037080262  0.035738848           18 
 4336000    0.5562191   -4.7574909    1933.6913  0.037163501  0.035729833           25 
 4337000   0.57125405   -4.7617024    1927.2217  0.037030622  0.035720838            8 
 4338000   0.54830916   -4.7669775    1933.9033  0.037150441   0.03571186           14 
 4339000   0.55829546   -4.7631001    1931.7328  0.037100191  0.035702908           11 
 4340000   0.56589432   -4.7459837    1931.6058  0.037089206  0.035693905           15 
 4341000   0.55097088   -4.7668539    1928.9171  0.037029047  0.035684885           30 
 4342000   0.57106186   -4.7495494    1932.3249  0.037085923  0.035675835           26 
 4343000   0.56116222   -4.7628015    1929.7372   0.03702773  0.035666798           16 
 4344000   0.55000713   -4.7769995    1929.6841  0.037018188  0.035657722            9 
 4345000     0.551884   -4.7362107    1929.3738  0.037003718  0.035648714            8 
 4346000   0.56993362   -4.7555137     1929.455  0.036996759  0.035639702           14 
 4347000   0.56057638   -4.7660765    1925.8472  0.036919086   0.03563067           12 
 4348000   0.55425846   -4.7635676    1933.9442   0.03706578  0.035621651           16 
 4349000   0.54524368   -4.7694503    1929.5938  0.036973897  0.035612653           18 
 4350000   0.55043656   -4.7513906    1928.7151  0.036948565  0.035603668           10 
 4351000   0.56339956   -4.7645015    1932.1084  0.037005064  0.035594673           17 
 4352000   0.55061938   -4.7631415    1935.8183  0.037067599  0.035585704           10 
 4353000   0.55974881   -4.7326481    1935.4883  0.037052766  0.035576756           13 
 4354000   0.56049885   -4.7576569    1929.5769  0.036931114  0.035567801           46 
 4355000   0.55822636   -4.7598233    1928.7462   0.03690674  0.035558812           51 
 4356000   0.56010082   -4.7563504    1931.6312  0.036953458  0.035549827           22 
 4357000   0.55883836    -4.755394    1927.4732  0.036865451  0.035540803           31 
 4358000   0.54938349   -4.7629861    1929.4943  0.036895638  0.035531828           12 
 4359000   0.55005974    -4.760593    1933.0239  0.036954652   0.03552284           13 
 4360000   0.54580625   -4.7650065    1926.4503  0.036820533  0.035513856           35 
 4361000   0.54626028   -4.7785881    1930.3946  0.036887461  0.035504834           17 
 4362000   0.55250337   -4.7674474    1927.9771  0.036832819  0.035495867            9 
 4363000   0.55523758   -4.7644239     1930.281  0.036868381  0.035486874           42 
 4364000   0.57028199   -4.7708683    1929.6058  0.036847039  0.035477868            8 
 4365000    0.5562824   -4.7601522    1926.1632  0.036772876  0.035468879           29 
 4366000   0.55924648   -4.7626358    1930.9468  0.036855757  0.035459884           20 
 4367000   0.55275176   -4.7751811    1930.4925  0.036838647  0.035450895           28 
 4368000   0.54836293   -4.7695357    1930.0034  0.036820884  0.035441901           17 
 4369000   0.55941413   -4.7626365    1931.2789  0.036836784  0.035432931            9 
 4370000   0.55435098   -4.7629276    1925.6822  0.036721629  0.035423979           18 
 4371000    0.5390399   -4.7512758     1930.849  0.036811732  0.035414991           31 
 4372000    0.5511866   -4.7603849    1933.7014  0.036857681  0.035406014           29 
 4373000   0.54846397    -4.778097    1931.2134  0.036801841   0.03539707           12 
 4374000   0.54909833   -4.7754803    1926.1821  0.036697572  0.035388087           10 
 4375000   0.54900892   -4.7680129    1932.7257  0.036813823  0.035379083           13 
 4376000   0.54933127   -4.7638862     1928.175  0.036718751  0.035370101           19 
 4377000    0.5529269   -4.7870338    1930.1415  0.036747801  0.035361108           41 
 4378000   0.54391509   -4.7613121    1931.0754  0.036757184  0.035352132           21 
 4379000   0.55046747   -4.7764324    1931.3155   0.03675336  0.035343152           12 
 4380000   0.54640651   -4.7753422     1930.424  0.036728006  0.035334187           13 
 4381000   0.55657086   -4.7747488    1931.4195  0.036738558  0.035325202           20 
 4382000    0.5505523   -4.7723442    1932.7687  0.036755833  0.035316205           20 
 4383000   0.54569999   -4.7730421    1930.5643  0.036705535  0.035307188           17 
 4384000   0.55044301   -4.7903907    1931.0802  0.036706969  0.035298204           16 
 4385000   0.54853143   -4.7652108    1928.3345  0.036646417  0.035289251           10 
 4386000   0.55627344   -4.7673878    1933.5357  0.036736883  0.035280264           13 
 4387000   0.55334762   -4.7954989    1932.4329  0.036707561  0.035271308           21 
 4388000   0.56214205   -4.7585644    1928.9549  0.036633145  0.035262312           11 
 4389000    0.5544456   -4.7838235    1929.7457  0.036639813  0.035253306           10 
 4390000   0.54039938   -4.7695247    1930.2611  0.036641252  0.035244311           11 
 4391000   0.55115479    -4.765671    1929.2636  0.036613975  0.035235338           27 
 4392000   0.56432179    -4.781017     1933.549  0.036686951  0.035226361           15 
 4393000   0.55930494   -4.7824245    1928.6235  0.036585164  0.035217406           12 
 4394000   0.55777351   -4.7680599    1933.5613  0.036670484  0.035208494           20 
 4395000   0.54127435   -4.7616298    1931.5718  0.036624418  0.035199557           23 
 4396000   0.55286848   -4.7832313    1925.3691  0.036498505  0.035190598           31 
 4397000   0.53994055   -4.7664597    1931.5642  0.036607614  0.035181643           41 
 4398000   0.54677595   -4.7624128    1929.3451  0.036557243  0.035172719           19 
 4399000   0.53834519   -4.7783733     1929.399  0.036549954  0.035163802           32 
 4400000   0.54077712   -4.7634164    1921.7581  0.036396933   0.03515484           40 
 4401000   0.54235844    -4.778797    1929.0158  0.036526088  0.035145868           18 
 4402000   0.54567474   -4.7823953    1926.6733  0.036473446  0.035136925           17 
 4403000   0.53901649   -4.7899444    1928.1306  0.036492744  0.035127937           13 
 4404000   0.54925098   -4.7741533    1926.9532  0.036462178  0.035118991           18 
 4405000   0.54416195   -4.7869379    1928.9094  0.036490908  0.035110047            9 
 4406000   0.54060835   -4.7888424    1928.7541  0.036479689  0.035101129            9 
 4407000   0.54151771   -4.7852365    1934.1537  0.036573513  0.035092247           13 
 4408000   0.54503335   -4.7669051    1930.0739  0.036488089  0.035083344           10 
 4409000   0.53971028   -4.7749851    1929.9837  0.036478108  0.035074446           10 
 4410000   0.54575127   -4.7907424    1931.5427  0.036499295  0.035065528           14 
 4411000     0.525278   -4.7762029    1929.0959  0.036444795  0.035056595           11 
 4412000   0.55501916   -4.7756643    1926.4097  0.036385797  0.035047636           18 
 4413000   0.55522773   -4.7866295    1933.1454  0.036504748  0.035038712            9 
 4414000   0.54306709   -4.7787419    1927.8575  0.036396645  0.035029837           11 
 4415000   0.54600784   -4.7778499    1933.1497  0.036488291   0.03502097           10 
 4416000   0.54523972    -4.786581    1932.2478  0.036463009  0.035012096           24 
 4417000   0.54774613   -4.7708374    1924.6655  0.036311703  0.035003189           49 
 4418000   0.54330461   -4.7881945    1930.6868  0.036417058  0.034994262           34 
 4419000   0.55312124    -4.788595    1930.1481  0.036398659  0.034985357           21 
 4420000   0.53630393   -4.7800363     1932.161  0.036428374  0.034976428           10 
 4421000   0.54679544   -4.7873287    1929.0095  0.036360731  0.034967533           20 
 4422000   0.55221351    -4.776101    1934.3781  0.036453681  0.034958618           13 
 4423000   0.53412577   -4.7730708    1932.5659  0.036411295  0.034949705           21 
 4424000     0.534336   -4.7965716    1928.8772  0.036333581  0.034940782           13 
 4425000   0.53818122   -4.7857388     1930.878  0.036363051  0.034931855           19 
 4426000   0.53926119   -4.7917178     1930.766  0.036352727  0.034922918            5 
 4427000   0.55195897   -4.7705365    1929.8142  0.036326598  0.034914036            9 
 4428000   0.54350698    -4.772794     1930.049  0.036322814  0.034905164           17 
 4429000   0.55181818   -4.7795129    1928.9246  0.036293456  0.034896272           13 
 4430000   0.54435243   -4.7831985     1931.369  0.036331245   0.03488741           15 
 4431000    0.5391011   -4.7859564    1932.8135  0.036350212  0.034878547           11 
 4432000   0.54603667     -4.78765    1933.1586  0.036348499  0.034869656           10 
 4433000   0.54834561   -4.7850984    1934.1393  0.036358736  0.034860786            8 
 4434000   0.52790864   -4.7801423    1928.5033  0.036244611  0.034851925           18 
 4435000   0.55167971   -4.7789117    1933.6744  0.036333604   0.03484304           21 
 4436000   0.55172136   -4.7897632     1932.856  0.036310039   0.03483414           27 
 4437000   0.53641361   -4.7763457    1930.1338  0.036250728  0.034825286           12 
 4438000   0.54091339   -4.7545184    1929.4079   0.03622893  0.034816409           15 
 4439000   0.53923971   -4.7797996    1931.9292  0.036268102   0.03480754           27 
 4440000   0.54111542   -4.7730599    1927.7297  0.036181113  0.034798639           34 
 4441000   0.55314635   -4.7878358    1933.0795  0.036273353  0.034789778           22 
 4442000   0.53520932    -4.805183    1931.7722  0.036240661  0.034780886           11 
 4443000   0.53142797   -4.8018187    1931.0162  0.036218324  0.034771974           10 
 4444000   0.53827161   -4.8063483    1932.3669  0.036235504  0.034763077           15 
 4445000   0.53097704   -4.8018355    1929.9882  0.036182756  0.034754191           25 
 4446000   0.54041388   -4.7701451    1931.5854  0.036204554  0.034745319           21 
 4447000   0.55093519   -4.8028672    1928.7532  0.036143339  0.034736453           14 
 4448000    0.5357602   -4.7838652    1935.6541  0.036264502  0.034727611            9 
 4449000   0.54340915   -4.8103891      1931.93  0.036186596  0.034718789           10 
 4450000   0.53665975   -4.7860147    1936.9188  0.036271888  0.034709956            7 
 4451000   0.55055753   -4.7845884    1930.1413  0.036136848    0.0347011           14 
 4452000   0.53510939   -4.7908265    1930.8468  0.036141936   0.03469223           10 
 4453000   0.53389366   -4.7989289    1931.9674  0.036154791  0.034683389           13 
 4454000   0.53262202    -4.779628    1931.4814   0.03613758  0.034674531           16 
 4455000   0.53763867    -4.804421    1929.0945  0.036084821  0.034665679           11 
 4456000   0.54944179   -4.7826417    1929.6074  0.036086315  0.034656825           18 
 4457000   0.53880804   -4.7890508    1931.8013  0.036119238  0.034647943           14 
 4458000   0.54988867   -4.7810002    1932.9899  0.036133354  0.034639096           13 
 4459000   0.53957757   -4.7894876    1929.1489  0.036053467  0.034630269           29 
 4460000   0.53211976   -4.7694557    1934.5638  0.036146559  0.034621445           12 
 4461000   0.53822775   -4.7836107    1928.5682  0.036026455  0.034612574           22 
 4462000    0.5355345   -4.7997385    1930.0036  0.036045189  0.034603715           17 
 4463000   0.54079958   -4.7834268    1929.2572  0.036023175  0.034594913            9 
 4464000    0.5331048   -4.8012596    1932.1705   0.03606949  0.034586072           33 
 4465000   0.54426894   -4.7905275     1927.844  0.035980664  0.034577254           28 
 4466000   0.53624049   -4.8007744     1933.121  0.036071075  0.034568412            9 
 4467000   0.53443556    -4.787801    1936.1024  0.036118619  0.034559625            8 
 4468000   0.54142421   -4.7878474    1936.2211  0.036112747  0.034550856           17 
 4469000   0.53658433   -4.7845145     1937.021  0.036119584  0.034542103           12 
 4470000    0.5456633   -4.7899345     1931.224  0.036003431  0.034533304           27 
 4471000   0.54429264   -4.8053235    1930.1416  0.035975202  0.034524494           10 
 4472000   0.53795329   -4.8057894    1934.9988  0.036057669  0.034515677           12 
 4473000   0.52845377   -4.7832004    1932.2747  0.035998859  0.034506894           18 
 4474000   0.53989767   -4.7961089    1931.3729  0.035974014  0.034498103           14 
 4475000   0.54495577   -4.8033263    1936.7485   0.03606608  0.034489318            7 
 4476000   0.53429527   -4.7962887      1935.09  0.036027144  0.034480519           13 
 4477000   0.53399156   -4.7930959    1928.4311  0.035895152  0.034471736           18 
 4478000   0.53469321   -4.8046543     1933.905  0.035989002  0.034462928           13 
 4479000    0.5402726   -4.8165312    1928.1099  0.035873146  0.034454118            9 
 4480000   0.53913248    -4.804738    1934.5262  0.035984491  0.034445291           11 
 4481000   0.53799644   -4.8020107    1932.9191  0.035946572  0.034436488           14 
 4482000   0.53257537   -4.8080193    1927.7876  0.035843144  0.034427668            7 
 4483000   0.53059849   -4.8000166    1931.0884  0.035896506  0.034418867           20 
 4484000   0.53189885   -4.7877148    1932.1727  0.035908651  0.034410102           25 
 4485000   0.53253246   -4.7957576    1935.5128  0.035962705  0.034401367           22 
 4486000   0.53268813   -4.7986745    1932.0874  0.035891057  0.034392599           21 
 4487000   0.52737599   -4.7834831    1934.0607  0.035919706  0.034383817           19 
 4488000   0.53451819   -4.8098668    1934.6044  0.035921799  0.034375067            9 
 4489000   0.53365162   -4.7973743    1931.0746   0.03584827  0.034366309           33 
 4490000   0.53507506   -4.7913454    1936.4257  0.035939601  0.034357544           17 
 4491000   0.54304145   -4.7938888    1933.3846  0.035875169  0.034348804           50 
 4492000   0.52376011   -4.7977408    1932.5391  0.035851498  0.034340035           19 
 4493000   0.53559503   -4.8018229    1931.1169  0.035817141  0.034331305           37 
 4494000   0.52721256   -4.8146228    1935.3944  0.035888489  0.034322591           15 
 4495000   0.52748576   -4.7794202    1937.6651    0.0359226  0.034313884           27 
 4496000   0.52947696   -4.7994695    1938.4984  0.035930056  0.034305208           30 
 4497000   0.54673046   -4.8074794    1937.2369  0.035898689  0.034296526           18 
 4498000   0.51710752     -4.79285     1934.414   0.03583841  0.034287805           33 
 4499000   0.52787527   -4.8124129    1935.8237  0.035856555  0.034279073           38 
 4500000   0.52465499   -4.8069258    1934.7612  0.035828911  0.034270348           13 
 4501000   0.52743281   -4.8071873    1935.3857  0.035832514  0.034261618           19 
 4502000   0.53157501   -4.8173264    1932.3542  0.035768441  0.034252921           13 
 4503000   0.53903046   -4.8108281    1931.4366  0.035743515  0.034244214           10 
 4504000   0.53758855   -4.8141685    1934.5344  0.035792895  0.034235466           22 
 4505000     0.535094   -4.8279213    1933.1685  0.035759683  0.034226717           14 
 4506000   0.52291134   -4.8239509    1933.9078   0.03576542  0.034217968           14 
 4507000   0.52998423   -4.8095737    1931.9704  0.035721662  0.034209226           10 
 4508000    0.5329549     -4.81407    1931.8935  0.035712316  0.034200474           19 
 4509000   0.52669799   -4.8254668     1934.118  0.035745508   0.03419173           25 
 4510000   0.52532205   -4.8363623       1935.1  0.035755728   0.03418297           14 
 4511000   0.53178328   -4.7974428    1933.0563  0.035710048  0.034174211           13 
 4512000   0.53800188    -4.823083    1933.9259  0.035718194   0.03416547           21 
 4513000   0.53592392   -4.8205712     1932.354  0.035681255  0.034156737           14 
 4514000   0.53081794   -4.8230401    1932.0939  0.035668548  0.034147978           26 
 4515000   0.52234853   -4.8172857     1929.503  0.035612827  0.034139253           14 
 4516000   0.52206534     -4.82615    1935.3068  0.035712038  0.034130529           61 
 4517000   0.52698901   -4.8270499    1935.0404  0.035699218  0.034121829           10 
 4518000    0.5290897   -4.8192524    1935.2531   0.03569524  0.034113115           15 
 4519000   0.53485165   -4.8347156    1929.8534  0.035587767  0.034104409           12 
 4520000   0.54091906   -4.8064598    1934.4938  0.035665447   0.03409571           16 
 4521000   0.51850543   -4.8214291    1933.6356  0.035641738  0.034087016           21 
 4522000   0.52342132   -4.8064002    1933.3496  0.035628586  0.034078288           40 
 4523000   0.52432844   -4.8292332    1928.9747  0.035540104  0.034069573           29 
 4524000   0.52961879   -4.8153613    1930.0588  0.035552217  0.034060841           11 
 4525000    0.5206708   -4.8199609    1934.4826  0.035625831  0.034052143           26 
 4526000   0.51908549   -4.8140942    1933.3854  0.035597757  0.034043445           24 
 4527000   0.53782437    -4.820784    1930.0099  0.035527757   0.03403474           12 
 4528000   0.52076069   -4.8114594    1930.1004  0.035521577  0.034026059           19 
 4529000   0.53602067   -4.8217352    1933.3694  0.035573883  0.034017393           28 
 4530000   0.53035392   -4.7949356    1931.4445   0.03553062  0.034008726           19 
 4531000   0.53347628   -4.8045277    1934.2415   0.03557422  0.034000051           25 
 4532000   0.51621931   -4.8130751    1935.4277  0.035588182  0.033991371           32 
 4533000   0.53575864   -4.8145215    1933.2177  0.035539704  0.033982693           16 
 4534000    0.5247784   -4.8222237    1932.4037  0.035516904  0.033974029           13 
 4535000   0.51873556   -4.8089648    1935.1873  0.035560223  0.033965372           20 
 4536000   0.51234097   -4.8016036    1934.9871  0.035548705   0.03395675           13 
 4537000    0.5151227   -4.8190966    1937.6192  0.035589214  0.033948117           10 
 4538000   0.52198102   -4.8417864    1934.1183  0.035517084  0.033939448           10 
 4539000   0.52040128   -4.8325632     1932.346   0.03547672   0.03393076           11 
 4540000   0.51501303   -4.8229336    1937.0191  0.035554682  0.033922095           22 
 4541000   0.54468212   -4.8133382    1932.5917  0.035465605  0.033913477           28 
 4542000   0.53832139   -4.8179463    1934.8253  0.035498776   0.03390483           20 
 4543000   0.52148703   -4.8313844    1936.1112   0.03551455  0.033896184           14 
 4544000   0.51251793   -4.8167764     1937.079  0.035524483  0.033887567           11 
 4545000   0.52677671   -4.8397006    1936.7084  0.035509871  0.033878947           13 
 4546000   0.52797818   -4.8096742    1930.8475  0.035394623  0.033870341           18 
 4547000   0.53818135   -4.8042822    1936.1352  0.035483747  0.033861761           29 
 4548000   0.53375845   -4.8106701    1934.8676   0.03545272  0.033853162           36 
 4549000   0.52131111   -4.8193969    1937.4116  0.035491529  0.033844598           90 
 4550000   0.52769537   -4.8267533    1937.8481  0.035491723     0.033836           77 
 4551000   0.52502784   -4.8303225    1933.5772  0.035405721  0.033827401           21 
 4552000   0.53731045   -4.8274267    1938.0537  0.035479894  0.033818779           11 
 4553000   0.53621234    -4.849405    1933.4239  0.035387362  0.033810162           23 
 4554000   0.52655496   -4.8341947    1935.4552  0.035416762  0.033801533           31 
 4555000   0.52718313   -4.8164993    1933.2109  0.035367926  0.033792919           32 
 4556000   0.53006656   -4.8174614    1934.8695  0.035390501  0.033784297           12 
 4557000   0.51574154   -4.8149677    1935.7764   0.03539932  0.033775696           20 
 4558000   0.53080661   -4.8331641    1933.0785  0.035342229  0.033767074           27 
 4559000   0.51549646    -4.831487     1933.929  0.035350022  0.033758477           37 
 4560000   0.53154197   -4.8274958    1939.0296  0.035435483  0.033749876           35 
 4561000   0.51880167   -4.8288518    1932.9749  0.035317089  0.033741258           39 
 4562000   0.51994283   -4.8343016    1935.0848  0.035347888  0.033732641           45 
 4563000   0.52115197   -4.8158314    1931.2104  0.035269384  0.033724047           54 
 4564000   0.52060612   -4.8191536    1936.8247  0.035364168  0.033715464           35 
 4565000   0.51250328    -4.812014    1936.2278  0.035345523  0.033706946           15 
 4566000   0.51786843   -4.8377286     1932.986  0.035278617  0.033698382           13 
 4567000   0.51953088   -4.8213384    1932.5421  0.035262793  0.033689803           37 
 4568000   0.52633774    -4.817216    1935.4312  0.035307778   0.03368121           18 
 4569000   0.52637232   -4.8234032    1935.2215  0.035296227  0.033672616           56 
 4570000   0.52432472   -4.8271771    1940.3345  0.035381738  0.033664037           14 
 4571000   0.51428002   -4.8378231    1932.8876  0.035238234  0.033655461           10 
 4572000   0.51849694   -4.8172531    1933.8851  0.035248707  0.033646861           12 
 4573000   0.52018708   -4.8293147     1934.041   0.03524384  0.033638272           42 
 4574000   0.51748951   -4.8294808    1935.2133  0.035257494  0.033629677           10 
 4575000   0.51066047   -4.8406128    1937.2808  0.035287447  0.033621098           31 
 4576000   0.52624196   -4.8364765    1934.7145     0.035233  0.033612525            8 
 4577000   0.51020715   -4.8299315    1936.8963  0.035265027  0.033603979            5 
 4578000   0.52216514   -4.8439986    1934.2895  0.035209872  0.033595425            9 
 4579000   0.52253758    -4.837547    1932.9167  0.035177198  0.033586827           26 
 4580000   0.51058039   -4.8302041    1932.7844   0.03516711  0.033578248           24 
 4581000    0.5270798    -4.851744    1935.4845  0.035208551  0.033569668           23 
 4582000   0.51784136   -4.8418599    1928.3417  0.035070961  0.033561075           45 
 4583000   0.50435073    -4.841887    1933.8474  0.035163419  0.033552479           29 
 4584000   0.51307601   -4.8143708     1933.775  0.035154432  0.033543919           26 
 4585000   0.51770783   -4.8350767    1931.0186  0.035096667  0.033535351           18 
 4586000   0.52070035    -4.831471    1939.3539  0.035240476  0.033526791           20 
 4587000   0.53040999   -4.8441279    1935.8231  0.035168649  0.033518281           17 
 4588000   0.51320011   -4.8289315    1935.1079  0.035147993  0.033509782           24 
 4589000    0.5335484   -4.8197513    1940.5836  0.035239769   0.03350129           35 
 4590000   0.51389008    -4.838099    1932.6579  0.035088196  0.033492804           18 
 4591000   0.51197729   -4.8196624    1939.1445  0.035198295  0.033484327           38 
 4592000   0.51647821    -4.840561    1938.5272  0.035179428  0.033475851           17 
 4593000   0.52688052   -4.8443021    1933.3721  0.035078238  0.033467357           23 
 4594000   0.51699302   -4.8306679    1935.4494  0.035108282  0.033458836           25 
 4595000   0.52240201   -4.8460994    1937.0271  0.035129255  0.033450331           24 
 4596000   0.52022057   -4.8173816     1931.113  0.035014378  0.033441826           16 
 4597000   0.52145857   -4.8386634    1936.8429  0.035110632   0.03343331           36 
 4598000   0.52828561   -4.8511563    1935.4697  0.035078108  0.033424796           16 
 4599000   0.50956854   -4.8393936    1932.8097  0.035022281  0.033416275           19 
 4600000   0.51160255   -4.8593294     1934.954  0.035053515  0.033407761            9 
 4601000   0.52320519   -4.8542667    1931.0881  0.034975876  0.033399234           16 
 4602000   0.51325032   -4.8450373    1934.6391  0.035032578  0.033390675           19 
 4603000   0.50662424    -4.850108    1934.2386  0.035017716  0.033382179           17 
 4604000   0.50318348   -4.8225972    1938.9302  0.035095029  0.033373699           15 
 4605000   0.51330962   -4.8399352    1940.8478   0.03512211  0.033365216           34 
 4606000   0.51611128   -4.8366914    1934.9358  0.035007523  0.033356734           18 
 4607000   0.51762128   -4.8501731    1933.7094   0.03497774  0.033348209           33 
 4608000   0.51006819   -4.8648701     1933.823  0.034972205  0.033339685           31 
 4609000   0.50781761   -4.8501449    1932.7848  0.034945845  0.033331165           14 
 4610000   0.51143846   -4.8393762    1936.7958   0.03501077  0.033322677           43 
 4611000   0.51043758   -4.8602539    1933.2974  0.034939951   0.03331418           52 
 4612000   0.51389052   -4.8444269    1934.2794  0.034950119   0.03330567           16 
 4613000   0.51320678    -4.848261    1933.2378  0.034923727  0.033297153           44 
 4614000   0.52102561   -4.8617152    1936.0544  0.034967028  0.033288632           19 
 4615000   0.51288885   -4.8494095    1935.1647  0.034943386  0.033280094           33 
 4616000    0.5142085   -4.8555401    1937.1599  0.034971836  0.033271581           29 
 4617000   0.50696666   -4.8649352     1936.761  0.034957061  0.033263109           15 
 4618000   0.51011295   -4.8456036    1936.0106   0.03493595  0.033254624           45 
 4619000   0.50882621   -4.8454266      1940.18  0.035003608  0.033246155           19 
 4620000   0.50600607    -4.854141    1935.4199  0.034910172  0.033237659           22 
 4621000   0.51342444   -4.8522105     1936.094  0.034914773  0.033229161           25 
 4622000    0.5178732   -4.8618279    1937.0481  0.034924422  0.033220691           17 
 4623000   0.51892211   -4.8419778    1934.4208  0.034869507   0.03321222           10 
 4624000   0.50897972   -4.8435757    1937.4019  0.034915692  0.033203757           11 
 4625000   0.50901733   -4.8546347    1937.2885  0.034906098  0.033195293            9 
 4626000   0.51649616   -4.8390705    1936.2775  0.034880342   0.03318683           35 
 4627000   0.52201053   -4.8432057    1937.9142   0.03490228  0.033178369           26 
 4628000   0.51914341   -4.8399109    1939.9004  0.034930503  0.033169904           20 
 4629000   0.51142882   -4.8235853    1935.1663  0.034837731  0.033161432           14 
 4630000    0.4951267    -4.836789    1936.1635  0.034848155  0.033152967           12 
 4631000   0.52529127   -4.8435946    1934.0147  0.034801963  0.033144513           10 
 4632000   0.51704194   -4.8393916    1934.5038  0.034803249  0.033136052           18 
 4633000   0.51362668   -4.8577749    1934.0382  0.034787362  0.033127563           19 
 4634000    0.5056951   -4.8529592    1933.7407  0.034774505  0.033119098           65 
 4635000   0.52143302   -4.8424013    1932.9714  0.034753171  0.033110605           33 
 4636000   0.51200159   -4.8515264    1937.2448   0.03482249  0.033102136           34 
 4637000   0.51728135   -4.8386941    1935.7949  0.034788924  0.033093667           15 
 4638000   0.50192505   -4.8596516    1931.7397  0.034708562  0.033085199           14 
 4639000   0.51523065   -4.8479767    1937.6039  0.034806421  0.033076722           26 
 4640000   0.50979012   -4.8654219    1929.7967  0.034658704  0.033068223           21 
 4641000   0.51509996   -4.8694859    1933.4772  0.034717324  0.033059727           25 
 4642000   0.51268013   -4.8542439    1935.1128  0.034739207  0.033051252           25 
 4643000   0.51648276   -4.8681844    1932.8608  0.034691306  0.033042777           22 
 4644000   0.50913685   -4.8547971    1933.1777  0.034689522  0.033034288           24 
 4645000   0.51411968    -4.851562    1930.8531   0.03464035  0.033025799           51 
 4646000   0.50994882   -4.8741112    1935.9169  0.034723722  0.033017304           35 
 4647000   0.50754497   -4.8760993    1935.7423  0.034713119  0.033008805           39 
 4648000   0.50612927   -4.8620886    1934.9337  0.034691153   0.03300033           43 
 4649000   0.51401159   -4.8652533    1937.1939  0.034724205  0.032991827           75 
 4650000   0.51002236   -4.8668104     1935.401  0.034684606  0.032983356           72 
 4651000   0.52055357   -4.8593092    1930.8837   0.03459621  0.032974874           25 
 4652000   0.51518174   -4.8776623    1931.0062  0.034590968  0.032966394           19 
 4653000    0.5138948   -4.8469705    1936.9455  0.034689904  0.032957932           21 
 4654000   0.49335091   -4.8600015    1932.1217  0.034596077   0.03294946           13 
 4655000   0.51502845   -4.8629569    1935.1334   0.03464256  0.032941012           19 
 4656000   0.50879532    -4.859458    1939.0731  0.034705633  0.032932585           13 
 4657000   0.50133402   -4.8438476    1935.1895  0.034628687  0.032924192           25 
 4658000    0.5046518   -4.8502532    1935.6052  0.034628689  0.032915776           18 
 4659000   0.50801575   -4.8695299     1937.495  0.034655058  0.032907368           14 
 4660000   0.51240339   -4.8599436    1935.3953  0.034610074  0.032898943           21 
 4661000   0.50982335   -4.8594443    1938.1007  0.034651018  0.032890519           14 
 4662000    0.5041969   -4.8573431    1936.4872  0.034614744   0.03288211           12 
 4663000   0.49321561   -4.8538927    1933.3811  0.034551811  0.032873701           20 
 4664000   0.51314676   -4.8538888    1934.0439  0.034556244  0.032865282           26 
 4665000   0.49999813   -4.8734825    1931.3969  0.034501553  0.032856844            9 
 4666000    0.5058692   -4.8657811    1932.4126  0.034512299  0.032848398           25 
 4667000   0.49125623   -4.8577688    1932.2821  0.034502573  0.032839976           36 
 4668000   0.49330315   -4.8643298    1937.0904   0.03458102  0.032831544           32 
 4669000   0.50050243   -4.8535551    1934.1438  0.034521021  0.032823106           35 
 4670000   0.49933808   -4.8521836    1937.3187  0.034570283  0.032814693           16 
 4671000   0.49884622   -4.8650337    1936.0307  0.034539905  0.032806281           43 
 4672000   0.48912888   -4.8640778    1930.2216  0.034428895  0.032797885           23 
 4673000   0.50289673   -4.8523676    1935.3806  0.034513527  0.032789504           17 
 4674000   0.49411813    -4.856675     1939.502  0.034579626  0.032781119           19 
 4675000   0.50136589   -4.8616873    1932.1271  0.034440768  0.032772708           29 
 4676000   0.50114387      -4.8519    1935.8191    0.0344992  0.032764308           21 
 4677000   0.50763143   -4.8690005    1937.0572  0.034513884  0.032755861           26 
 4678000   0.50281881   -4.8599292    1936.1984  0.034491207  0.032747447           37 
 4679000   0.49843881   -4.8762779    1933.4302  0.034434534  0.032739058           76 
 4680000   0.51721437   -4.8485068    1937.1405  0.034493243  0.032730666           21 
 4681000    0.5048444   -4.8573245     1931.363  0.034383019  0.032722272           24 
 4682000   0.51160087   -4.8548686    1936.5596   0.03446817  0.032713856           19 
 4683000   0.50260926   -4.8686114    1937.0541  0.034469608  0.032705447           22 
 4684000   0.49742641   -4.8482921    1936.2016  0.034447082  0.032697055           14 
 4685000   0.50226847    -4.861736    1932.7688  0.034378669  0.032688681           37 
 4686000    0.4962282   -4.8696732    1935.8944  0.034426917  0.032680289           26 
 4687000   0.49816624   -4.8764344    1934.3987  0.034392979  0.032671897           40 
 4688000   0.50658172   -4.8792394    1930.7783  0.034321286  0.032663483           18 
 4689000    0.5067042   -4.8708252    1933.3201  0.034359141  0.032655063          109 
 4690000   0.49720234   -4.8718073    1934.5437  0.034373555  0.032646637           32 
 4691000   0.50695127   -4.8763385    1934.4651  0.034364832  0.032638203           50 
 4692000   0.50383381   -4.8784163     1930.639  0.034289552  0.032629798           26 
 4693000   0.49923869   -4.8799281    1932.2214  0.034310345  0.032621377           99 
 4694000   0.49962661   -4.8757163    1934.2228  0.034338568  0.032612966           54 
 4695000   0.49142948   -4.8724364    1932.2625  0.034296458  0.032604583           45 
 4696000    0.4993973   -4.8535135    1931.6501  0.034278288  0.032596189           76 
 4697000   0.50003757   -4.8642606    1935.6878  0.034342627  0.032587791           93 
 4698000   0.51117245   -4.8828204    1940.9019  0.034427805  0.032579398           35 
 4699000   0.49907847   -4.8718982    1933.1017  0.034282148  0.032571028           51 
 4700000   0.50137111    -4.877948     1936.009    0.0343264  0.032562633           18 
 4701000   0.49425589   -4.8821013    1928.3239  0.034182867  0.032554222           17 
 4702000   0.49690136   -4.8703467    1933.3735  0.034265092   0.03254581           23 
 4703000   0.49610611   -4.8603211    1939.5311  0.034366913   0.03253746           24 
 4704000   0.50040108   -4.8761642    1936.5669  0.034307095  0.032529112            9 
 4705000   0.49866776   -4.8674011    1930.4131   0.03419081  0.032520769           15 
 4706000   0.51212446   -4.8959982    1933.9694  0.034246519  0.032512395           20 
 4707000   0.49934606   -4.8681363    1939.0653  0.034329462  0.032504006           32 
 4708000   0.49917784   -4.8622855    1938.4682  0.034311602  0.032495625           11 
 4709000   0.49888613    -4.887032    1928.8149  0.034133483  0.032487262           15 
 4710000   0.49560126   -4.8876417    1933.9049  0.034216293   0.03247888           22 
 4711000   0.50064935   -4.8700038    1934.7238  0.034223516   0.03247052           15 
 4712000   0.49281776   -4.8845087    1934.4778  0.034211902  0.032462181           13 
 4713000   0.49491304   -4.8933216    1934.1329  0.034198544  0.032453826           19 
 4714000   0.51152832    -4.878322    1933.2634   0.03417592  0.032445471           17 
 4715000   0.49579715   -4.8959697    1929.4782   0.03410177  0.032437096           24 
 4716000   0.49006455   -4.8691475     1933.772  0.034170413  0.032428721           36 
 4717000   0.50006206   -4.8924305     1935.587  0.034195233  0.032420357           51 
 4718000   0.50718495   -4.8801261    1933.1398  0.034144761  0.032411994           21 
 4719000   0.49667163   -4.8821786    1932.7762  0.034131105  0.032403633           19 
 4720000   0.49479742   -4.8824311     1932.071  0.034111424  0.032395272           22 
 4721000   0.49389417   -4.8905293     1930.291  0.034072778   0.03238693           27 
 4722000   0.50033957   -4.8881596    1934.6219  0.034141994  0.032378573           61 
 4723000   0.49405721   -4.8913615    1929.9892  0.034053024  0.032370233           22 
 4724000   0.48821519    -4.884614    1931.4043  0.034070779  0.032361903            8 
 4725000   0.49509216   -4.8829929    1932.6986  0.034086395  0.032353539           12 
 4726000   0.49339089   -4.8867932    1932.6215  0.034077823   0.03234521           30 
 4727000   0.49550109   -4.8847692    1933.5269  0.034086576  0.032336853           28 
 4728000   0.49707508   -4.8672325     1933.075  0.034071401  0.032328492           46 
 4729000     0.499887   -4.8864918    1934.1757  0.034083592  0.032320124           23 
 4730000   0.49231031   -4.8869585    1930.3438  0.034008876  0.032311758           34 
 4731000   0.49802235   -4.8879488    1929.2798  0.033982946  0.032303414           38 
 4732000   0.49829222    -4.892284    1931.9763  0.034023251  0.032295068           40 
 4733000   0.49538353   -4.8849068    1933.6616  0.034045736  0.032286713           51 
 4734000    0.4957346   -4.9036955    1932.4574  0.034017347  0.032278364           41 
 4735000   0.49677306   -4.9062211    1930.7868   0.03398076  0.032270006           35 
 4736000   0.48138432   -4.8906291    1932.8897  0.034010587  0.032261642           17 
 4737000   0.48450667   -4.9033234    1932.4035  0.033994855  0.032253279           47 
 4738000   0.50591637   -4.8840603    1930.3307  0.033951223  0.032244894           24 
 4739000   0.49526972   -4.9002773      1935.67  0.034037947   0.03223652           26 
 4740000   0.49269997   -4.9035164    1934.0134  0.034001643  0.032228183           30 
 4741000   0.48590303   -4.8916704    1931.9639  0.033958446  0.032219819           54 
 4742000    0.4885981   -4.8901379    1932.4744  0.033960256  0.032211461           38 
 4743000   0.49871741   -4.8788758    1933.9318  0.033978702  0.032203149           36 
 4744000   0.49932981   -4.8797792    1937.1204  0.034027551  0.032194835           40 
 4745000    0.4958809   -4.8828534    1931.2032  0.033916459  0.032186552           79 
 4746000   0.49633501    -4.890789    1931.1881  0.033909048  0.032178235          142 
 4747000   0.49474972   -4.8776328    1930.0959  0.033882731  0.032169921           69 
 4748000   0.48927812   -4.9009892    1932.3898  0.033915856  0.032161573           24 
 4749000   0.49750352    -4.890394    1928.2213  0.033835568  0.032153224           37 
 4750000   0.49243106   -4.8968599    1932.3902  0.033901583  0.032144878           36 
 4751000   0.48922828   -4.8973166     1932.052  0.033888515  0.032136555           28 
 4752000   0.48663928   -4.8836141    1933.0534  0.033898944  0.032128222           36 
 4753000   0.48063385   -4.8939047    1931.3864  0.033862585  0.032119893           21 
 4754000   0.49005654   -4.8878472    1930.0107  0.033831347  0.032111561           73 
 4755000   0.48777024   -4.8856154    1932.8919  0.033874726  0.032103219           63 
 4756000   0.49620299   -4.9195938    1931.7916  0.033848324  0.032094878           71 
 4757000   0.47889402   -4.8875548    1931.7836   0.03384107  0.032086518           84 
 4758000    0.4892621   -4.8807341    1930.8341  0.033817326  0.032078159           57 
 4759000   0.50000961   -4.8985775      1926.84  0.033740282  0.032069819           74 
 4760000   0.48936406   -4.9066826     1932.084  0.033825001  0.032061475          109 
 4761000   0.49430966   -4.8948986    1935.8836  0.033884401  0.032053141           70 
 4762000   0.48795612   -4.9003042     1932.433  0.033816901  0.032044847           51 
 4763000   0.48422889    -4.907175    1936.6178  0.033883018  0.032036565           14 
 4764000   0.47666149   -4.8994369    1929.8344  0.033757248  0.032028261           28 
 4765000   0.49997598   -4.8757705    1933.1587  0.033808302  0.032019959           10 
 4766000   0.49400178    -4.914903    1927.7056  0.033705861  0.032011652           11 
 4767000   0.48132805   -4.9011065    1932.5778  0.033783963   0.03200334           20 
 4768000   0.48326855   -4.9018788     1930.792  0.033745666  0.031995049           20 
 4769000   0.48670307   -4.9165373    1933.6524  0.033788572  0.031986748           30 
 4770000   0.48228268   -4.9048804    1930.6285  0.033728661  0.031978442           19 
 4771000   0.49100189   -4.8969698    1931.3244  0.033733746  0.031970163           18 
 4772000   0.48777584   -4.8836875    1934.9342  0.033789715  0.031961886           73 
 4773000   0.48432204   -4.8991844    1928.6976  0.033673749  0.031953593           79 
 4774000   0.49186432   -4.9258226    1935.5044  0.033785511  0.031945303           36 
 4775000   0.48701748   -4.8933131    1933.1764  0.033737809   0.03193702           34 
 4776000   0.49567098   -4.8986679    1930.9849  0.033692505  0.031928724           31 
 4777000   0.49054714   -4.9211004    1930.8006  0.033682238  0.031920418           37 
 4778000   0.47665554   -4.9165406     1930.218  0.033665028  0.031912095           22 
 4779000   0.48927581   -4.9097055    1933.1149  0.033708497  0.031903785           24 
 4780000   0.49047951   -4.9003265    1929.6446  0.033640946   0.03189547           31 
 4781000   0.49432483   -4.9087464    1933.4761  0.033700693   0.03188719           32 
 4782000    0.4803326   -4.9012743    1930.2895  0.033638114  0.031878914           40 
 4783000   0.49792485   -4.8986608     1932.357  0.033667102  0.031870647           29 
 4784000   0.48794097   -4.8953088    1931.7091  0.033648778  0.031862384           29 
 4785000   0.48017583   -4.8964563    1929.2027  0.033598097   0.03185412           30 
 4786000   0.47915177   -4.9001024    1935.3347  0.033697846  0.031845839           19 
 4787000   0.49051338   -4.8917382    1933.2318  0.033654198  0.031837555           17 
 4788000   0.49206845   -4.9147266    1927.2993  0.033543917  0.031829289           15 
 4789000   0.49135528   -4.8982865    1936.1359  0.033690678  0.031821019           41 
 4790000   0.48714173   -4.9026236    1931.3856  0.033601001  0.031812759           40 
 4791000   0.48131381   -4.9080875    1923.3129  0.033453575  0.031804466           72 
 4792000   0.48647231   -4.9331547    1928.9363  0.033544385  0.031796149           77 
 4793000    0.4880349   -4.9040026    1932.9733  0.033607575  0.031787848           47 
 4794000    0.4864067   -4.9014458    1925.6212  0.033472765  0.031779554          113 
 4795000   0.49298157   -4.9122863    1932.6525  0.033587982  0.031771287          105 
 4796000   0.48346654   -4.9032628    1930.3093  0.033540265  0.031763026           26 
 4797000   0.47980618   -4.9129273    1924.8367  0.033438203  0.031754746           43 
 4798000   0.50177928   -4.9119959    1931.9579  0.033554918  0.031746468           38 
 4799000   0.47450693   -4.9003563    1927.1443  0.033464338  0.031738193           28 
 4800000   0.47558359   -4.8964946    1930.4886  0.033515427  0.031729914           32 
 4801000   0.47975721   -4.9151073    1929.3445  0.033488588   0.03172165           52 
 4802000   0.48370358    -4.920462    1930.0305  0.033493518  0.031713387           33 
 4803000   0.48394386   -4.9078286    1929.8171  0.033482843  0.031705108           32 
 4804000   0.48779223   -4.8950007    1928.4685  0.033452479  0.031696848           17 
 4805000   0.48451509   -4.9204329    1930.5816  0.033482164  0.031688572           35 
 4806000    0.4877446    -4.915661    1924.4325  0.033368575  0.031680297           29 
 4807000   0.48930172   -4.9178046    1929.3896  0.033447569   0.03167202           36 
 4808000   0.47884629   -4.9030461     1931.535  0.033477797  0.031663742           27 
 4809000   0.48098116   -4.9057922    1928.6711  0.033421208  0.031655477           31 
 4810000   0.48037931   -4.9148183    1928.3021  0.033407868  0.031647184           20 
 4811000   0.48557914   -4.9434002     1935.228  0.033520889  0.031638876            9 
 4812000   0.48722866   -4.9147327    1927.1769  0.033374496   0.03163061           25 
 4813000   0.48157729   -4.9029989      1931.07  0.033434968  0.031622343           35 
 4814000   0.47921573   -4.9120505     1930.884  0.033424803  0.031614086           50 
 4815000   0.47880494   -4.9101174    1934.4579  0.033479715  0.031605818           42 
 4816000   0.47910428   -4.9083504    1932.4789   0.03343852  0.031597586           33 
 4817000   0.47861765   -4.9102327    1931.3952  0.033412829  0.031589369           30 
 4818000   0.48577868   -4.8981728    1927.7384  0.033342646  0.031581143           26 
 4819000   0.49285127   -4.9177218    1929.7683  0.033370828  0.031572909           29 
 4820000   0.47012196   -4.9034903    1933.1281  0.033421994  0.031564664           11 
 4821000    0.4829476   -4.9142047    1933.6789  0.033424582  0.031556442           13 
 4822000   0.48993213   -4.9300179    1926.2868  0.033289901  0.031548225           40 
 4823000   0.47554111   -4.9128833    1933.1576  0.033401714  0.031539994           34 
 4824000   0.48719642   -4.9137081    1928.5212  0.033314698  0.031531766           44 
 4825000   0.47445332   -4.9139819    1927.7145   0.03329386  0.031523549           25 
 4826000   0.47694726   -4.9091051    1930.9148  0.033342223   0.03151533           46 
 4827000   0.48176534   -4.8967512     1928.098  0.033286686  0.031507103           28 
 4828000   0.46545878   -4.9069608    1931.1656  0.033332739  0.031498887           15 
 4829000   0.48395731   -4.9077129    1931.8743  0.033338067  0.031490685           11 
 4830000   0.47909532   -4.9124596    1932.2028  0.033336832  0.031482483           14 
 4831000   0.47631638   -4.9142871    1930.9505   0.03330833  0.031474266           18 
 4832000   0.48621325   -4.9229621     1929.011  0.033267988  0.031466054           16 
 4833000   0.48596125   -4.9125659    1930.6659   0.03328964  0.031457842           12 
 4834000   0.48167752   -4.9037777     1927.618  0.033230209  0.031449599           19 
 4835000   0.48695496    -4.904462    1932.2183  0.033302625  0.031441388           22 
 4836000   0.47214362   -4.9139256    1932.0808  0.033293368  0.031433195           16 
 4837000   0.48313109    -4.904046    1932.3881  0.033291781  0.031425019           16 
 4838000   0.47554472    -4.927229    1927.2208  0.033195894  0.031416827           13 
 4839000   0.48679188   -4.9179006    1929.2779   0.03322446  0.031408632           21 
 4840000   0.47606892   -4.9203236    1931.1988  0.033250669  0.031400449            7 
 4841000   0.47605178   -4.9163386     1927.723  0.033183968  0.031392266           23 
 4842000   0.48122734   -4.9256551    1928.0856  0.033183354  0.031384066           17 
 4843000    0.4694412   -4.9186069    1928.1818  0.033178158  0.031375857           13 
 4844000   0.48157237   -4.9310431    1926.4349  0.033141255  0.031367661           11 
 4845000   0.47174747   -4.9165651     1927.975  0.033160905  0.031359441           27 
 4846000   0.48016676    -4.928533    1931.2142  0.033209765  0.031351233           18 
 4847000   0.47234525   -4.9101839    1927.9034   0.03314599  0.031343034           50 
 4848000   0.47565501   -4.9334461    1931.7821  0.033205826  0.031334855           16 
 4849000   0.47635349    -4.919677    1928.1678  0.033136864  0.031326689           22 
 4850000   0.49123757   -4.9290348    1926.7377  0.033105458  0.031318511           22 
 4851000   0.47796182    -4.926265     1931.227  0.033175753  0.031310317           21 
 4852000   0.46851111   -4.9163439    1929.4626  0.033138612  0.031302151           16 
 4853000   0.48325553   -4.9289569    1927.7592  0.033102534  0.031294001           25 
 4854000   0.46580508   -4.9173881    1929.6958  0.033128963  0.031285825           25 
 4855000   0.48784819   -4.9304345    1927.1009  0.033077599  0.031277651           15 
 4856000   0.47343938   -4.9296454    1929.8492   0.03311795  0.031269471           18 
 4857000   0.47509382   -4.9204656    1927.9714  0.033078914  0.031261277           18 
 4858000   0.47407089   -4.9177395    1928.0828  0.033074015  0.031253091           16 
 4859000   0.45940666   -4.9228812    1932.1148  0.033136358  0.031244911           18 
 4860000   0.48016341   -4.9182419    1931.8953  0.033125776  0.031236732           33 
 4861000   0.47583377   -4.9366842    1927.3858  0.033041655  0.031228537           13 
 4862000   0.46829814   -4.9007389    1925.0308  0.032994495  0.031220331           48 
 4863000   0.46745393    -4.926696    1931.9889  0.033106945  0.031212157           28 
 4864000   0.47575698   -4.9226887    1929.8039  0.033062704  0.031203976           18 
 4865000   0.48045494   -4.9329297     1929.324  0.033047688  0.031195796           18 
 4866000   0.46155659   -4.9482402    1929.6767  0.033046936  0.031187605           55 
 4867000   0.48893016   -4.9397616    1926.0363  0.032977815  0.031179392           30 
 4868000   0.47148995   -4.9403753     1924.551  0.032945614  0.031171165           44 
 4869000   0.46992284   -4.9480145    1924.8007  0.032943122   0.03116296           23 
 4870000   0.46934028   -4.9185279    1926.0568   0.03295785  0.031154746           22 
 4871000   0.47508624   -4.9380938    1925.7467  0.032945779  0.031146533           49 
 4872000   0.47399286   -4.9341075    1926.8744  0.032958307  0.031138351           42 
 4873000   0.48003516   -4.9275676     1928.983  0.032987602  0.031130176           24 
 4874000   0.48006503   -4.9231039    1928.1376  0.032966379  0.031122001           49 
 4875000   0.47072188   -4.9267824    1930.5085  0.033000145  0.031113831           64 
 4876000   0.46324461   -4.9490387    1924.7441  0.032894861  0.031105651           48 
 4877000   0.46988505    -4.923778     1926.755  0.032922476  0.031097447           53 
 4878000   0.47214996   -4.9390923    1927.3702  0.032926237  0.031089284           74 
 4879000   0.47164735   -4.9510459    1927.6091  0.032923568  0.031081082           63 
 4880000    0.4764348   -4.9473311    1924.6588  0.032866441  0.031072874           66 
 4881000   0.46153999   -4.9336556    1928.7125  0.032928917  0.031064672           42 
 4882000   0.46191078   -4.9481402    1926.0044  0.032875946  0.031056481           76 
 4883000   0.47456615   -4.9427859    1925.6118  0.032862513  0.031048272           59 
 4884000    0.4736916    -4.940619    1926.3208  0.032867881  0.031040091           48 
 4885000   0.45996504   -4.9532308    1925.8154  0.032852531  0.031031922           53 
 4886000   0.47713766   -4.9310647    1926.0407  0.032849651  0.031023753           37 
 4887000   0.47131469   -4.9470557    1927.5568  0.032868781  0.031015585           66 
 4888000   0.46918841   -4.9389903    1925.0218  0.032818839  0.031007421           33 
 4889000    0.4675611   -4.9419572    1928.9257  0.032878667  0.030999271          136 
 4890000   0.46859769   -4.9301027    1926.9553  0.032838365  0.030991112           63 
 4891000   0.47194082     -4.95114    1923.7826  0.032777596  0.030982957           49 
 4892000   0.47188306   -4.9452854    1926.9719  0.032825224  0.030974792          141 
 4893000   0.47041267   -4.9452815    1925.8118  0.032798757   0.03096664          164 
 4894000   0.47028445     -4.95379    1927.2697  0.032816879   0.03095849           76 
 4895000    0.4650965   -4.9252006    1924.3523  0.032760508  0.030950331          100 
 4896000   0.46414364   -4.9294421    1926.2782  0.032786599  0.030942183          108 
 4897000   0.46752486   -4.9425096    1924.3832  0.032747656  0.030934032          118 
 4898000    0.4690582   -4.9339857    1928.9711  0.032819026  0.030925889           72 
 4899000   0.47156434    -4.922032    1927.1999  0.032782199  0.030917754           46 
 4900000     0.471429   -4.9309006    1925.9053  0.032753491   0.03090962           64 
 4901000    0.4606781   -4.9474009    1926.3734  0.032754768  0.030901496           49 
 4902000   0.46178972   -4.9481509    1926.4991  0.032750222  0.030893365           27 
 4903000   0.47195871   -4.9451744    1922.8087   0.03268082  0.030885218           45 
 4904000   0.47610904   -4.9394673    1924.2359  0.032698407  0.030877068           46 
 4905000   0.46566437   -4.9413428     1927.054  0.032739619  0.030868929           47 
 4906000   0.46464341   -4.9441152    1927.2161    0.0327357  0.030860825           27 
 4907000   0.47191354   -4.9399611    1925.5401  0.032700565   0.03085269           22 
 4908000   0.46719357   -4.9381124    1923.1918   0.03265403  0.030844579           53 
 4909000   0.46391057   -4.9586713    1928.5212  0.032737848  0.030836453           48 
 4910000   0.46125231   -4.9472172    1930.2517  0.032760551  0.030828332           24 
 4911000   0.46537278   -4.9341516    1926.7295  0.032694113  0.030820212           25 
 4912000   0.45376338   -4.9373993    1924.8614  0.032655765  0.030812101           32 
 4913000    0.4720616   -4.9559496    1923.9619  0.032633861  0.030803981           42 
 4914000   0.45421744     -4.95081    1927.0321  0.032679286  0.030795869           39 
 4915000   0.46684596   -4.9360114    1926.7302  0.032667517  0.030787765           34 
 4916000   0.46258682   -4.9650857    1925.8296  0.032645606  0.030779656           37 
 4917000   0.46107613   -4.9490961    1925.3899  0.032631515  0.030771536           13 
 4918000   0.46826133   -4.9398516    1922.9379  0.032583332  0.030763426           19 
 4919000   0.47307523   -4.9504985    1923.8566  0.032592271  0.030755329           29 
 4920000   0.46479152   -4.9457628    1924.2399  0.032592139  0.030747235           12 
 4921000   0.46099743   -4.9375375    1928.3039  0.032654337  0.030739135           17 
 4922000    0.4647649   -4.9425031    1928.0834  0.032643969  0.030731059           22 
 4923000   0.46353917   -4.9283297    1926.0726  0.032603301   0.03072298           37 
 4924000   0.47123727   -4.9470773    1927.8849  0.032627351  0.030714901           49 
 4925000   0.46942946   -4.9471472    1927.2771  0.032610441  0.030706808           34 
 4926000   0.44704594   -4.9440427    1926.4601      0.03259  0.030698724           41 
 4927000   0.46979165   -4.9594929    1923.5623  0.032534374  0.030690633           40 
 4928000    0.4581521   -4.9436718    1928.1037  0.032604567  0.030682539           27 
 4929000   0.46062326   -4.9513476    1920.1387   0.03246329  0.030674434           30 
 4930000   0.45936813   -4.9637851    1926.0629  0.032556844   0.03066635           28 
 4931000   0.45403717   -4.9402903    1919.7012   0.03244273  0.030658243           28 
 4932000   0.45731884   -4.9489419     1923.006  0.032491991  0.030650133           19 
 4933000   0.46506246   -4.9528712    1925.0536  0.032519995  0.030642007           35 
 4934000   0.47508293   -4.9745628    1924.6494  0.032506576  0.030633909           22 
 4935000   0.46767483   -4.9541849    1927.0883  0.032541174  0.030625827           16 
 4936000   0.45552536   -4.9569364    1921.0562  0.032432742  0.030617751           22 
 4937000   0.46386216   -4.9520828    1922.2997  0.032447163   0.03060968           27 
 4938000   0.45822509   -4.9477764    1925.5711    0.0324958  0.030601601           39 
 4939000   0.45651448   -4.9398248    1925.1898  0.032482786  0.030593542           69 
 4940000     0.453314   -4.9601882     1930.222    0.0325611  0.030585469           62 
 4941000   0.46550637   -4.9493528    1923.6158  0.032443092  0.030577401           22 
 4942000    0.4548277   -4.9510312    1922.5074  0.032417838  0.030569317           16 
 4943000   0.46896009   -4.9486428    1923.3229  0.032425028  0.030561258           17 
 4944000   0.45734583   -4.9679503    1925.7242  0.032458944  0.030553176           27 
 4945000   0.46775248   -4.9547102     1922.594   0.03239963  0.030545089           32 
 4946000   0.46640441   -4.9633467    1925.7686  0.032446567  0.030537031           21 
 4947000   0.45184793   -4.9518537    1927.1462  0.032463214  0.030528962           46 
 4948000   0.46319019   -4.9675183    1925.9161  0.032435936  0.030520881           52 
 4949000   0.45647806   -4.9823015    1923.6982  0.032392035  0.030512806           45 
 4950000   0.45037614   -4.9612646    1922.9129   0.03237227  0.030504721           52 
 4951000   0.46333748   -4.9528029    1924.2393  0.032388057  0.030496642           46 
 4952000   0.45887334   -4.9548186    1922.9214  0.032359339  0.030488576           71 
 4953000   0.45231108    -4.935206    1926.8798  0.032419407  0.030480529           64 
 4954000   0.46051052   -4.9404327    1923.9903  0.032364257  0.030472494           43 
 4955000   0.46493757   -4.9510152    1926.2859  0.032396333  0.030464462           42 
 4956000   0.46700225    -4.958779    1923.7055  0.032346406  0.030456441           36 
 4957000   0.46328129   -4.9408583    1927.0439  0.032396005  0.030448433           27 
 4958000   0.45864175   -4.9724814    1929.0264  0.032422791  0.030440415           17 
 4959000   0.45714888   -4.9707792    1925.0041  0.032348661  0.030432375           27 
 4960000   0.47138855   -4.9655515     1925.753  0.032354721  0.030424343           13 
 4961000   0.46019243   -4.9681417    1926.0141  0.032352585  0.030416304           20 
 4962000   0.45252193   -4.9702929    1926.5233  0.032354616  0.030408249           26 
 4963000   0.45906219   -4.9516564    1921.9743  0.032271715  0.030400204           16 
 4964000   0.45517965   -4.9689361    1922.3297   0.03227118  0.030392169           33 
 4965000   0.45265186   -4.9586034    1925.3861  0.032315981  0.030384127           16 
 4966000    0.4525153   -4.9690169    1923.0568  0.032270385  0.030376085           43 
 4967000   0.45754778   -4.9721417     1920.144  0.032215018  0.030368032           69 
 4968000   0.46033505    -4.973726     1926.694  0.032318404  0.030359997           50 
 4969000   0.45760727   -4.9558456    1918.9045  0.032181265  0.030351965           29 
 4970000   0.45893213   -4.9585417    1923.1862  0.032246582   0.03034394           39 
 4971000   0.46327006   -4.9609092    1922.1916  0.032223423  0.030335923           53 
 4972000   0.45965008   -4.9682893    1926.2789  0.032285447  0.030327919           51 
 4973000   0.46298072   -4.9503107    1928.7205  0.032319868  0.030319904           33 
 4974000   0.44944697   -4.9459265    1926.2917  0.032272679  0.030311894           29 
 4975000   0.44986395   -4.9643996    1921.4161  0.032184524  0.030303881           30 
 4976000   0.46627616   -4.9749643    1922.4908  0.032196054  0.030295856           37 
 4977000   0.45177845   -4.9675908    1926.1526  0.032250898  0.030287831           55 
 4978000   0.45462005   -4.9807339    1921.4516  0.032165722  0.030279813           33 
 4979000   0.45028128   -4.9687879    1922.2626  0.032172836  0.030271798           58 
 4980000   0.44752605   -4.9581502    1926.8483  0.032243111  0.030263795           27 
 4981000   0.45791015     -4.96261    1926.3207  0.032227811  0.030255796           59 
 4982000   0.45691672   -4.9623829    1922.2692  0.032153573  0.030247788           46 
 4983000   0.45578828   -4.9778932       1926.4  0.032216202  0.030239794           50 
 4984000   0.45799481   -4.9591628    1926.2585  0.032207371  0.030231803           65 
 4985000   0.44295105   -4.9630996    1921.7411  0.032125395  0.030223795           61 
 4986000   0.45178581   -4.9697504     1919.675  0.032084419  0.030215799           24 
 4987000   0.46455062   -4.9628576    1923.2866  0.032138337  0.030207795           45 
 4988000   0.44845865   -4.9632069     1923.128  0.032129243    0.0301998           88 
 4989000   0.46164474   -4.9582371    1923.1155  0.032122595  0.030191784           30 
 4990000   0.45871209   -4.9768477    1925.1153  0.032149553  0.030183797           57 
 4991000   0.44645588   -4.9685147    1923.2707  0.032112314  0.030175807           71 
 4992000   0.44603965   -4.9768039    1924.8433  0.032132133  0.030167792           55 
 4993000   0.45542607   -4.9726068    1922.6913   0.03208978  0.030159785           46 
 4994000   0.45580671    -4.967007    1923.8266    0.0321023  0.030151786           36 
 4995000   0.44495814   -4.9710258    1921.5544  0.032057965  0.030143786           67 
 4996000   0.45168382   -4.9740145    1924.4744  0.032100253  0.030135799           42 
 4997000   0.45188183   -4.9872999    1922.0605  0.032053574  0.030127799           92 
 4998000   0.45616121   -4.9779373    1921.8464   0.03204359  0.030119816           73 
 4999000   0.45215817    -4.969432    1924.9763  0.032089356  0.030111827           17 
 5000000   0.45841401   -4.9800862    1925.7401  0.032095669  0.030103842           36 
 5001000   0.45773084   -4.9919786    1921.3493  0.032016085  0.030095862           47 
 5002000   0.44539232   -4.9633996     1925.427   0.03207762  0.030087894           53 
 5003000   0.44884943   -4.9686095    1921.0982  0.031999104  0.030079925           65 
 5004000   0.45054068   -4.9929412    1918.2157  0.031944706  0.030071953           37 
 5005000    0.4549252   -4.9693976    1924.7518   0.03204715   0.03006399           24 
 5006000   0.45051031   -4.9665679     1920.909  0.031976777  0.030056018           32 
 5007000   0.45929193   -4.9755648    1923.1919  0.032008386  0.030048047           19 
 5008000   0.43983499   -4.9706691    1920.3672  0.031954992  0.030040079           19 
 5009000   0.46304937   -4.9761649     1921.572  0.031968657  0.030032104           29 
 5010000   0.45486472   -4.9614468    1923.1922  0.031989224  0.030024125           39 
 5011000   0.45424797   -4.9836393    1921.2988  0.031951354  0.030016142           28 
 5012000   0.44265116   -4.9930982    1923.4865  0.031981354  0.030008156           32 
Loop time of 12826 on 48 procs for 5000000 steps with 4000 atoms

Performance: 67363.214 tau/day, 389.833 timesteps/s
99.4% CPU use with 48 MPI tasks x no OpenMP threads

MPI task timing breakdown:
Section |  min time  |  avg time  |  max time  |%varavg| %total
---------------------------------------------------------------
Pair    | 879.09     | 932.85     | 1007.2     | 103.4 |  7.27
Neigh   | 84.637     | 87.348     | 90.367     |  16.0 |  0.68
Comm    | 781.69     | 868.84     | 928.95     | 124.6 |  6.77
Output  | 16.17      | 16.175     | 16.269     |   0.3 |  0.13
Modify  | 10772      | 10803      | 10830      |  13.9 | 84.23
Other   |            | 117.4      |            |       |  0.92

Nlocal:        83.3333 ave          92 max          77 min
Histogram: 4 6 5 6 12 2 7 0 5 1
Nghost:        2280.40 ave        2302 max        2257 min
Histogram: 1 2 4 8 9 6 6 6 4 2
Neighs:        15381.8 ave       16997 max       13601 min
Histogram: 3 3 4 6 6 6 8 4 5 3
FullNghs:      30763.3 ave       34041 max       28439 min
Histogram: 6 4 6 9 8 3 6 1 3 2

Total # of neighbors = 1476640
Ave neighs/atom = 369.16000
Neighbor list builds = 269939
Dangerous builds = 2

#clear
#
#next RN
#
#jump SELF
Total wall time: 3:33:49
