
units lj                  # Use reduced LJ style units
atom_style atomic         # Uncharged point particles
atom_modify map hash      # Needed for indexing of clusters etc
                          # Used to be able to find where atoms are in relation to each other.

lattice fcc 1.0 spacing 1 1 1
Lattice spacing in x,y,z = 1.5874011 1.5874011 1.5874011
region box block 0 10 0 10 0 10 units lattice
create_box 2 box
Created orthogonal box = (0.0000000 0.0000000 0.0000000) to (15.874011 15.874011 15.874011)
  3 by 4 by 4 MPI processor grid
create_atoms 1 box
Created 4000 atoms
  using lattice units in orthogonal box = (0.0000000 0.0000000 0.0000000) to (15.874011 15.874011 15.874011)
  create_atoms CPU = 0.003 seconds
set type 1 type/fraction 2 0.58 78393
Setting atom values ...
  2338 settings made for type/fraction
mass 1 1.0
mass 2 1.0
pair_style lj/cut  3.5
pair_modify tail  yes
pair_coeff 1  1  1.0  1.0   # Intearaction between 1 and 1 set with epsilon = 1 and sigma = 1
pair_coeff 1  2  1.5  0.8
pair_coeff 2  2  0.5  0.88

write_data data.0
System init for write_data ...
Neighbor list info ...
  update every 1 steps, delay 10 steps, check yes
  max neighbors/atom: 2000, page size: 100000
  master list distance cutoff = 3.8
  ghost atom cutoff = 3.8
  binsize = 1.9, bins = 9 9 9
  1 neighbor lists, perpetual/occasional/extra = 1 0 0
  (1) pair lj/cut, perpetual
      attributes: half, newton on
      pair build: half/bin/atomonly/newton
      stencil: half/bin/3d
      bin: standard
WARNING: Not all mixed pair coeffs generated from mixing. Use write_data with 'pair ij' option to store all pair coeffs. (../write_data.cpp:312)


#############################
#   M E L T   S Y S T E M   #
#############################

velocity all create 2.4 8172548 mom yes dist gaussian # Assign velocities
                                                    # Temperature 2.4, random number seed, zero linear momentum
                                                                                # Gaussian distribution

timestep 0.002   # simulation timestep
thermo 1000       # output thermodynamic data every 1000 steps bf 100

# Define a fix  in this case with index 1 applied to all
# particles in the simulation. This fix is for simulations
# in the anisotropic NPT ensemble. Note that we use the MTK
# correction.
fix 1 all npt temp 2.4 2.4 0.1 iso 5.68 5.68 0.5 mtk yes tchain 5 pchain 5 # Use NPT ensemble
                                                                         # Set temperature and pressure and damping
                                                                         # Numbers of thermostats in chain and in barostat
run 10000          # run for 10000 steps
Per MPI rank memory allocation (min/avg/max) = 3.642 | 3.644 | 3.648 Mbytes
Step Temp E_pair E_mol TotEng Press Volume 
       0          2.4   -4.8268882            0   -1.2277882   -4.1002737         4000 
    1000    2.4691428   -4.5277738            0  -0.82498551    5.7737228    3637.8154 
    2000    2.4150423   -4.5753051            0  -0.95364724     5.779966     3615.292 
    3000    2.4034444   -4.5092609            0  -0.90499566    5.6160688    3648.8925 
    4000    2.3737311    -4.546293            0  -0.98658656    5.4405047    3640.8933 
    5000     2.378848   -4.5103456            0  -0.94296562    6.0679765    3612.1912 
    6000    2.5042263    -4.560363            0  -0.80496262    5.5390802    3642.8829 
    7000      2.43197   -4.5632508            0  -0.91620783    5.6091712    3625.7834 
    8000    2.3942779   -4.5618411            0  -0.97132214    5.6574361    3617.0468 
    9000    2.4291029   -4.6219007            0  -0.97915722    5.7143999    3589.8668 
   10000    2.4398117   -4.5867438            0   -0.9279412    5.6082438    3623.6892 
Loop time of 2.85494 on 48 procs for 10000 steps with 4000 atoms

Performance: 605265.980 tau/day, 3502.697 timesteps/s
99.5% CPU use with 48 MPI tasks x no OpenMP threads

MPI task timing breakdown:
Section |  min time  |  avg time  |  max time  |%varavg| %total
---------------------------------------------------------------
Pair    | 1.1964     | 1.2803     | 1.3649     |   3.3 | 44.84
Neigh   | 0.21509    | 0.22581    | 0.24104    |   1.1 |  7.91
Comm    | 0.85933    | 0.98362    | 1.0916     |   5.8 | 34.45
Output  | 0.00025562 | 0.00026156 | 0.00033646 |   0.0 |  0.01
Modify  | 0.26938    | 0.34923    | 0.42359    |   7.3 | 12.23
Other   |            | 0.01576    |            |       |  0.55

Nlocal:        83.3333 ave          91 max          73 min
Histogram: 2 1 1 4 5 7 15 8 3 2
Nghost:        1752.46 ave        1781 max        1728 min
Histogram: 4 3 8 7 6 4 5 6 2 3
Neighs:        10538.0 ave       11516 max        8965 min
Histogram: 3 0 0 4 5 7 8 14 4 3

Total # of neighbors = 505822
Ave neighs/atom = 126.45550
Neighbor list builds = 909
Dangerous builds = 231

# Equilibrate just above the melting temperature to avoid step fn in T

fix 1 all npt temp 1.25 1.25 0.1 iso 5.68 5.68 0.5 mtk yes tchain 5 pchain 5
run 2000
Per MPI rank memory allocation (min/avg/max) = 3.644 | 3.646 | 3.650 Mbytes
Step Temp E_pair E_mol TotEng Press Volume 
   10000    2.4398117   -4.5867438            0   -0.9279412    5.6082438    3623.6892 
   11000    1.2595386   -6.6320123            0   -4.7431767    5.6958176    2786.8411 
   12000    1.2210134   -6.7245379            0   -4.8934757    5.9660946    2754.0301 
Loop time of 0.652216 on 48 procs for 2000 steps with 4000 atoms

Performance: 529886.042 tau/day, 3066.470 timesteps/s
99.6% CPU use with 48 MPI tasks x no OpenMP threads

MPI task timing breakdown:
Section |  min time  |  avg time  |  max time  |%varavg| %total
---------------------------------------------------------------
Pair    | 0.29767    | 0.32502    | 0.35118    |   1.7 | 49.83
Neigh   | 0.041916   | 0.044472   | 0.047151   |   0.5 |  6.82
Comm    | 0.20368    | 0.23367    | 0.26404    |   2.3 | 35.83
Output  | 5.2044e-05 | 5.3563e-05 | 6.7554e-05 |   0.0 |  0.01
Modify  | 0.040937   | 0.044148   | 0.047701   |   1.0 |  6.77
Other   |            | 0.004858   |            |       |  0.74

Nlocal:        83.3333 ave          90 max          77 min
Histogram: 4 2 5 6 9 4 10 3 2 3
Nghost:        2118.00 ave        2140 max        2095 min
Histogram: 1 4 6 5 8 5 8 5 3 3
Neighs:        13843.7 ave       15464 max       12477 min
Histogram: 1 8 5 5 10 6 6 2 4 1

Total # of neighbors = 664499
Ave neighs/atom = 166.12475
Neighbor list builds = 145
Dangerous builds = 13

#############################
# L I N E A R  Q U E N C H  #
#############################

# Define solid atoms. This closely follows ten Wolde  Ruiz-Montero and Frenkel  Faraday Discuss  1996  104  93-110
# Compute components of the per-atom q6 vector
compute q6 all orientorder/atom degrees 1 6 components 6 nnn NULL cutoff 1.3 # compute the Q6 parameter.
                                                                             # Use all neighbours within 1.3 unit cell.

# get number of connections
compute coord_number all coord/atom orientorder q6 0.5

# An atom is solid if it has 8 or more connections (of a possible 14)
variable is_solid atom c_coord_number>=8
group solid dynamic all var is_solid    # Must be dynamic to update
dynamic group solid defined

# do clustering
compute cluster solid cluster/atom 1.3 # Create a cluster where all atoms within are solid and max 1.3 units from another member

# define chunks one chunk per cluster
compute clus_chunks solid chunk/atom c_cluster nchunk every compress yes  # Says which atoms are in which chunk

# count the size of each chunk
compute size_chunks solid property/chunk clus_chunks count


# Find the maximum entry in the vector of chunk sizes
variable max_n equal max(c_size_chunks)


# Thermo style which includes this variable
# thermo_style custom step temp pe vol v_max_n

thermo ${N}  # Print the thermo information every 100 steps
thermo 1000  

# Reset the npt fix at a lower temperature (below freezing)
fix 1  all npt temp  ${temp} ${temp}  0.1  iso  5.68  5.68  0.5  mtk yes tchain  5  pchain  5
fix 1  all npt temp  0.45 ${temp}  0.1  iso  5.68  5.68  0.5  mtk yes tchain  5  pchain  5
fix 1  all npt temp  0.45 0.45  0.1  iso  5.68  5.68  0.5  mtk yes tchain  5  pchain  5

dump dmp2 all dcd ${N} traj.dcd
dump dmp2 all dcd 1000 traj.dcd


compute msd all msd com yes
variable twopoint equal c_msd[4]/6/(step*dt+1.0e-6)
fix 9 all vector 10 c_msd[4]
variable fit equal slope(f_9)/6/(10*dt)
thermo_style custom step temp pe c_msd[4] v_twopoint v_fit v_max_n

fix 1 all npt temp 1.25 ${temp} 0.1 iso 5.68 5.68 0.5 mtk yes tchain 5 pchain 5
fix 1 all npt temp 1.25 0.45 0.1 iso 5.68 5.68 0.5 mtk yes tchain 5 pchain 5
run 5000000 # 5000000  # Run for this many steps
Neighbor list info ...
  update every 1 steps, delay 10 steps, check yes
  max neighbors/atom: 2000, page size: 100000
  master list distance cutoff = 3.8
  ghost atom cutoff = 3.8
  binsize = 1.9, bins = 8 8 8
  4 neighbor lists, perpetual/occasional/extra = 1 3 0
  (1) pair lj/cut, perpetual
      attributes: half, newton on
      pair build: half/bin/atomonly/newton
      stencil: half/bin/3d
      bin: standard
  (2) compute orientorder/atom, occasional
      attributes: full, newton on
      pair build: full/bin/atomonly
      stencil: full/bin/3d
      bin: standard
  (3) compute coord/atom, occasional
      attributes: full, newton on
      pair build: full/bin/atomonly
      stencil: full/bin/3d
      bin: standard
  (4) compute cluster/atom, occasional
      attributes: full, newton on
      pair build: full/bin/atomonly
      stencil: full/bin/3d
      bin: standard
Per MPI rank memory allocation (min/avg/max) = 9.847 | 9.851 | 9.856 Mbytes
Step Temp PotEng c_msd[4] v_twopoint v_fit v_max_n 
   12000    1.2210134   -6.7245379 2.4955615e-30 1.7330287e-32 8.3333333e+20            2 
   13000    1.2584312   -6.7013249   0.47783022 0.0030630141   0.03894925            1 
   14000    1.2785506   -6.7873308   0.89150593 0.0053065827  0.036316897            2 
   15000    1.2229455   -6.7549482     1.330116  0.007389533  0.036024474            2 
   16000    1.2462313   -6.7536415    1.8002886 0.0093765029  0.036660369            4 
   17000    1.2595976   -6.7235868    2.2303431  0.010933054  0.036851333            3 
   18000    1.2693574   -6.7577699    2.6257421  0.012156213  0.036543967            3 
   19000    1.2494474   -6.7414753    2.9700156  0.013026384  0.035754112            4 
   20000    1.2517979   -6.7533548    3.4293392  0.014288913  0.035118377            2 
   21000    1.2369941    -6.780871    3.8732291  0.015369956  0.035111243            2 
   22000    1.2529009   -6.7889415    4.2612718  0.016141181  0.035075752            2 
   23000    1.2721298   -6.7490134    4.7127482  0.017075174  0.035091937            2 
   24000    1.2530001   -6.7734019    5.1379489    0.0178401  0.035090961            3 
   25000    1.2525931    -6.761333    5.6362367  0.018787455  0.035290285            3 
   26000    1.2805431   -6.7522841    6.0160486  0.019282207   0.03540731            1 
   27000    1.2585755   -6.7902679     6.377341  0.019683151  0.035373557            1 
   28000    1.2516988   -6.7705472    6.8341402  0.020339703  0.035325859            3 
   29000    1.2245631   -6.7415336    7.3232419  0.021043798   0.03538157            3 
   30000    1.2479835   -6.7582619    7.8751342  0.021875372  0.035509126            4 
   31000    1.2629754   -6.7731788    8.4423089  0.022694378  0.035816451            3 
   32000     1.222903   -6.7586681    8.8498394  0.023046457  0.036099855            1 
   33000    1.2592415    -6.795755    9.3803245  0.023687688  0.036358732            2 
   34000    1.2590543   -6.7528072    9.9016201  0.024268676   0.03666186            2 
   35000    1.2471156   -6.7374381    10.454471  0.024891597  0.036960486            3 
   36000     1.244555   -6.8032748    10.880026  0.025185246  0.037228101            4 
   37000    1.2311119   -6.8349657    11.421445  0.025723975  0.037483429            2 
   38000     1.236123   -6.7969272     11.90049  0.026097567  0.037707727            2 
   39000    1.2517029   -6.7903859    12.359075  0.026408279  0.037901893            2 
   40000    1.2362281   -6.7819579    12.792124  0.026650257   0.03807259            1 
   41000    1.2206624    -6.795121      13.0972  0.026620324  0.038142698            1 
   42000    1.2407216    -6.771412    13.526326  0.026837948  0.038149624            3 
   43000     1.237586   -6.7268712    14.052219  0.027232982  0.038155737            1 
   44000    1.2362615   -6.8092481    14.376336  0.027227909  0.038133709            2 
   45000    1.2328169    -6.784477    14.761716  0.027336511  0.038077502            1 
   46000    1.2113599   -6.7535579    15.240352  0.027609333  0.038016137            1 
   47000    1.2558617   -6.7630067    15.805468  0.028023879  0.037981184            2 
   48000    1.2439215   -6.7739707    16.224874  0.028168184  0.037995725            2 
   49000    1.2516312   -6.7006472    16.667957  0.028346866  0.038005311            4 
   50000    1.2290558   -6.7800409    17.013521  0.028355867  0.037990306            3 
   51000    1.2360406   -6.7793219    17.454848  0.028520993  0.037954512            2 
   52000    1.2219305   -6.7361633     17.84152  0.028592179  0.037907569            4 
   53000    1.2399064   -6.7426988      18.0941  0.028449843   0.03781755            4 
   54000    1.2377628   -6.7656302    18.373807  0.028354639  0.037689963            4 
   55000    1.2374762   -6.7752506    18.773902  0.028445306  0.037551451            6 
   56000    1.2458199   -6.8159127    19.084372  0.028399362  0.037405769            2 
   57000    1.2469402   -6.8160718     19.49948  0.028508012  0.037270255            3 
   58000    1.2409074   -6.7602392    19.903185   0.02859653  0.037135882            3 
   59000    1.2404091   -6.7921519    20.222179    0.0285624  0.036993943            1 
   60000    1.2271577   -6.7831908      20.8087  0.028900972  0.036883728            3 
   61000    1.2791311   -6.7764006    21.196679  0.028957211  0.036774475            1 
   62000    1.2621411   -6.7567722    21.840254   0.02935518  0.036698228            2 
   63000    1.2383047   -6.7431336    22.269614  0.029457161  0.036639534            1 
   64000    1.2345161   -6.7993241    22.560263  0.029375342  0.036590795            2 
   65000    1.2509051   -6.8057221    22.921818  0.029386946  0.036532866            1 
   66000    1.2464466   -6.7680347    23.349249  0.029481375  0.036476218            3 
   67000    1.2608655   -6.7969108    23.709949  0.029489986  0.036404525            4 
   68000    1.2367826   -6.7967479    24.200096   0.02965698  0.036340002            8 
   69000    1.2324565   -6.7856091    24.468922  0.029551837  0.036271654            2 
   70000    1.2531409   -6.8183187    24.836035  0.029566708  0.036201854            3 
   71000    1.2498521   -6.7977973    25.147138   0.02951542  0.036123333            3 
   72000    1.2002034   -6.7662643    25.821013  0.029885432  0.036053575            2 
   73000    1.2339744   -6.7949521    26.204312  0.029913598  0.036005926            1 
   74000    1.2569358   -6.7778104    26.571159  0.029922476   0.03595328            5 
   75000    1.2280214   -6.8151315    26.708763  0.029676403  0.035888404            1 
   76000    1.2554076   -6.7556358    27.255933  0.029885891  0.035811195            1 
   77000    1.2359909   -6.7757313    27.594468  0.029864142  0.035740589            5 
   78000     1.225142   -6.8124235    27.889463  0.029796435  0.035668836            4 
   79000    1.2343705   -6.7773839     28.32316   0.02987675  0.035598455            3 
   80000    1.2349569   -6.8016812    28.740235  0.029937745  0.035533483            3 
   81000    1.2693523   -6.7776485    29.100148  0.029938424   0.03546991            4 
   82000    1.2397075   -6.8086221    29.537764  0.030018053  0.035408848            1 
   83000    1.2187584   -6.7693268    30.085416  0.030206241  0.035354124            3 
   84000    1.2503618   -6.7652372    30.512673  0.030270509  0.035308961            3 
   85000    1.2194605   -6.7779936    31.096962  0.030487218  0.035272959            2 
   86000    1.2602672   -6.7437913    31.524457  0.030546954  0.035244326            4 
   87000    1.2433006   -6.7558621    31.752063  0.030413853  0.035214432            2 
   88000    1.2237105   -6.7807328    32.169868   0.03046389  0.035190215            3 
   89000    1.2192594   -6.7866689    32.759928   0.03067409  0.035170815            1 
   90000    1.2486343    -6.787804    33.332984  0.030863874  0.035163119            1 
   91000    1.2496579   -6.8038094    33.544592   0.03071849  0.035153082            2 
   92000    1.2168952   -6.8474502    33.897075  0.030703872  0.035140729            3 
   93000    1.2364482   -6.8329985    34.479276  0.030895408  0.035128635            2 
   94000    1.2302038    -6.812605    34.751695   0.03080824  0.035115331            2 
   95000    1.2555504   -6.7720532    35.225442   0.03089951  0.035096008            1 
   96000    1.2157954   -6.7825946    35.576365  0.030882261  0.035077652            2 
   97000     1.243776   -6.8245788    36.176611  0.031079563  0.035068728            3 
   98000    1.2439041   -6.7582428    36.810761  0.031301667  0.035061536            2 
   99000    1.2025715   -6.8423043    37.142559   0.03126478  0.035069686            4 
  100000    1.2302034   -6.7753701     37.70741  0.031422841  0.035074781            4 
  101000    1.2522199   -6.7999459    37.977839  0.031334851  0.035076247            4 
  102000    1.2550402   -6.7930412    38.384345  0.031359759  0.035077984            3 
  103000    1.2362658   -6.8400793    38.630865  0.031254745  0.035074311            4 
  104000    1.2409509   -6.8164592     39.11918  0.031345497  0.035072184            1 
  105000    1.2584659   -6.7827261    39.548383  0.031387605  0.035068135            3 
  106000    1.2609375   -6.8287814    40.020491   0.03146265  0.035067797            2 
  107000    1.2140275   -6.7766278    40.641586  0.031652326  0.035069405            4 
  108000    1.2121036   -6.8264111    40.706291  0.031409175  0.035069439            3 
  109000    1.2370394   -6.8249016    41.192214  0.031492519  0.035062939            3 
  110000    1.2348348   -6.8241415    41.631818  0.031539256  0.035057277            1 
  111000    1.2309904   -6.7988556    42.099826  0.031606476  0.035050167            2 
  112000    1.2243485   -6.8353325     42.29792  0.031471666    0.0350439            2 
  113000    1.2248369   -6.8180935    42.876374  0.031619744  0.035041219            2 
  114000    1.2274652   -6.8552706    43.167202  0.031554972  0.035037496            3 
  115000    1.2023648   -6.7896746    43.769849  0.031717282  0.035033219            1 
  116000    1.2149785   -6.7759231    44.233848   0.03177719  0.035029482            2 
  117000    1.2385266   -6.7930243    44.544123  0.031726584  0.035021612            2 
  118000     1.239216   -6.7867901    44.766838  0.031614998  0.035015407            2 
  119000    1.2184059   -6.8691604    45.077211  0.031566674  0.035006935            5 
  120000    1.2347941   -6.8261707    45.791271  0.031799493  0.035000539            2 
  121000    1.2490823    -6.819941    46.151641  0.031784877  0.034997521            2 
  122000    1.2057186   -6.8692626    46.671738  0.031879602  0.034998643            3 
  123000    1.2121785   -6.7887731    47.229628  0.031998393  0.035005659            3 
  124000    1.2258228   -6.8096311     47.75817  0.032095544  0.035010548            8 
  125000    1.2378487   -6.8241706    48.426744  0.032284496  0.035023186            2 
  126000    1.2146748   -6.8228095    48.696318   0.03220656  0.035034845            2 
  127000    1.2371094    -6.854747    48.665798  0.031932938  0.035041747            3 
  128000     1.250816   -6.7669064    49.078367  0.031952062   0.03503838            8 
  129000     1.212342   -6.8096929     49.45174  0.031945568  0.035030488            2 
  130000    1.2414639   -6.8058065    49.712161   0.03186677  0.035016194            3 
  131000    1.2380874   -6.7940111    50.350332  0.032029473  0.035006538            1 
  132000    1.2438936    -6.846193     50.47725   0.03186695  0.034995903            2 
  133000    1.2352466   -6.7777285    50.825367  0.031845468  0.034982329            4 
  134000    1.2252941   -6.8276026    51.120866  0.031791583  0.034962861            2 
  135000    1.2157303   -6.8183773    51.590845    0.0318462  0.034945612            2 
  136000    1.2201064   -6.9003225    51.702882  0.031680687  0.034928347            2 
  137000     1.234015   -6.8357518    52.123623  0.031705367  0.034906031            1 
  138000     1.218715   -6.8366834    52.635795    0.0317849  0.034888197            2 
  139000    1.2143767   -6.8146676    53.208441  0.031899545  0.034871956            4 
  140000    1.2401521   -6.8318911    53.598296  0.031903748  0.034858171            1 
  141000    1.2332057   -6.8253089    53.837066  0.031818597  0.034840521            3 
  142000    1.2393025   -6.7935079     54.67467  0.032086074   0.03482575            2 
  143000    1.2552597    -6.802179    55.129992  0.032127035  0.034823395            1 
  144000    1.2213749   -6.8368026    55.506865  0.032122028  0.034821094            3 
  145000    1.2326194   -6.8441078    56.074777  0.032226883  0.034818515            4 
  146000    1.2088909   -6.8395718    56.405957  0.032195181  0.034814228            1 
  147000    1.2052527   -6.8211924    56.995308  0.032310265  0.034810637            3 
  148000    1.2373251   -6.7925667    57.438839  0.032341688  0.034810807            3 
  149000    1.2224594   -6.8282101    57.712721  0.032277808  0.034808713            2 
  150000    1.2215961   -6.8181127    58.308878  0.032393821  0.034804361            3 
  151000    1.2404697   -6.7882656    58.981945  0.032550742  0.034806886            3 
  152000    1.2323329   -6.7927179    59.460639  0.032599034  0.034812939            2 
  153000    1.2487288   -6.8066359     59.43255   0.03237067  0.034814928            3 
  154000    1.2340381   -6.8392632    59.661683   0.03228446   0.03481159            2 
  155000    1.2369897   -6.8146145    60.174143   0.03235169  0.034810169            2 
  156000    1.2376492   -6.8405961    60.382435  0.032255574  0.034802882            2 
  157000    1.2269227   -6.8514405    60.757499  0.032249203  0.034794285            4 
  158000    1.2324012   -6.7893778    61.304487   0.03233359   0.03478529            2 
  159000    1.2626711   -6.8280382    61.371081  0.032165137  0.034773049            2 
  160000    1.2131271   -6.7973201    61.769001  0.032171355  0.034761834            3 
  161000    1.1966043   -6.8539866    62.118095  0.032152223  0.034749993            2 
  162000    1.1998548   -6.8495292    62.334691   0.03206517  0.034733957            3 
  163000    1.2548249   -6.8338952    62.869523  0.032141883  0.034718688            2 
  164000    1.2476577    -6.860178     63.22135   0.03212467  0.034705205            2 
  165000    1.2311449   -6.8896452    63.389797  0.032015049  0.034689811            4 
  166000     1.245538   -6.7780919    64.042381  0.032149789  0.034676501            2 
  167000    1.2248689   -6.7911501    64.696127  0.032283496  0.034663146            2 
  168000    1.2082038   -6.8341475    64.693554  0.032090056  0.034646452            1 
  169000    1.2255108   -6.8476816    65.083764  0.032092586  0.034631231            3 
  170000    1.2102423   -6.8543751    65.455418  0.032085989  0.034614007            3 
  171000    1.2196615    -6.871116     65.45583  0.031898552  0.034594519            2 
  172000    1.1868351   -6.8655688    65.924538  0.031940183  0.034573627            5 
  173000    1.2227694   -6.8391691    66.617224  0.032089222  0.034552179           10 
  174000    1.2314324   -6.8229124     66.95788   0.03206795  0.034533763            1 
  175000    1.2267474   -6.8335098    67.343539  0.032068352  0.034515502            2 
  176000    1.2434507   -6.8512407     67.75227  0.032079673  0.034497776            3 
  177000    1.2344225   -6.8663147    68.410283  0.032208231  0.034484758            2 
  178000    1.1994572   -6.8132628    68.806507  0.032212784  0.034474732            1 
  179000     1.211713   -6.7901607    69.378552  0.032299139  0.034464584            1 
  180000    1.2153313   -6.8075627    69.472906  0.032163382  0.034452911            3 
  181000    1.2391288   -6.8181409    69.776063  0.032125259  0.034439444            4 
  182000    1.2081285   -6.8422116    70.329798  0.032202288  0.034422021            3 
  183000    1.2051206   -6.8156254     70.40326  0.032059772  0.034402398            2 
  184000    1.1975085   -6.8229558    70.834358  0.032080778  0.034386992            3 
  185000    1.2131659   -6.8534901    71.489629  0.032202535  0.034374507            3 
  186000     1.214874   -6.8247504    71.920258  0.032222338   0.03436271            2 
  187000    1.2319791   -6.7967408    72.397905  0.032262881  0.034349995            4 
  188000    1.2238719   -6.7723341    72.641451  0.032199225  0.034333814            9 
  189000    1.2333991   -6.8605758    72.326974    0.0318902   0.03431639            4 
  190000    1.2203708   -6.8418176    72.644772  0.031861742  0.034293843            2 
  191000    1.2310886   -6.8561934    73.152849  0.031916601   0.03427076            4 
  192000    1.2419807   -6.8259454    73.474862  0.031890131  0.034249073            2 
  193000     1.260058   -6.8508752     73.88482  0.031901908  0.034228764            3 
  194000    1.2301136   -6.8107006    74.548584  0.032022588  0.034208484            2 
  195000    1.2334433   -6.8236581    75.067984  0.032080335  0.034190775            2 
  196000     1.220403    -6.831975    75.434146  0.032072341  0.034171971            1 
  197000    1.2214098   -6.8531254    75.710789  0.032026561  0.034156318            2 
  198000    1.2104284   -6.8493538    75.882076  0.031936901   0.03413998            2 
  199000    1.2292065   -6.8447043    76.070453  0.031855299  0.034120109            4 
  200000    1.2240965    -6.828925    76.636255  0.031931773  0.034100584            2 
  201000    1.2311969   -6.8547615    76.794191  0.031838388   0.03407966            1 
  202000    1.2327574   -6.8775787    77.226387  0.031859071  0.034057782            3 
  203000    1.2326784   -6.8460436    77.232115  0.031704481   0.03403469            3 
  204000    1.2268726   -6.8519013    77.506671  0.031661222  0.034010212            2 
  205000    1.2291112   -6.7778133    78.130047  0.031760182  0.033984825            5 
  206000    1.1980239   -6.8931751    78.248761  0.031654029   0.03395899            4 
  207000    1.2208537   -6.8220245    78.943622  0.031780846  0.033934139            2 
  208000    1.1907257   -6.8616673     79.02142  0.031659223  0.033909981            2 
  209000    1.2268079   -6.7875944    80.125766  0.031948073  0.033888975            2 
  210000    1.2281687   -6.8462104     79.92794  0.031717436  0.033868825            2 
  211000    1.2313542   -6.8571103    80.228799  0.031685939  0.033846224            2 
  212000    1.1802626   -6.8620028    80.608319   0.03168566  0.033824445            2 
  213000    1.2046267   -6.8373259    81.193965  0.031766027  0.033804652            2 
  214000    1.2105432   -6.8649034    81.457949  0.031720385  0.033788035            1 
  215000    1.2253429   -6.7577474    82.673684  0.032044064  0.033772472            1 
  216000    1.2501152   -6.8471073    82.483542  0.031822354   0.03375599            2 
  217000    1.2119443    -6.871916     82.69431  0.031756647  0.033738717            4 
  218000    1.2215879   -6.8622752    83.417525  0.031887433  0.033722371            2 
  219000    1.2343626   -6.8587806    83.843068  0.031903755  0.033705879            1 
  220000    1.2250203   -6.8214909    84.522746  0.032016191  0.033690957            2 
  221000    1.1925434    -6.821927    84.810128  0.031979686  0.033677349            2 
  222000    1.2016936   -6.8179641    85.343077   0.03203569  0.033665978            4 
  223000    1.2408213   -6.8548437    85.542029  0.031966379  0.033655254            3 
  224000     1.202234   -6.8592939    85.611737  0.031849604  0.033641489            2 
  225000     1.213715   -6.8536696    85.855047  0.031798165  0.033626714            2 
  226000    1.2299124   -6.8417987    86.531359  0.031906843  0.033611397            3 
  227000    1.2072124   -6.8427964    87.015203  0.031943907  0.033595963            2 
  228000    1.2035415   -6.8521087    87.602225  0.032018357  0.033583485            3 
  229000     1.215585   -6.8584338    87.861006   0.03197271  0.033572173            4 
  230000     1.183319   -6.9013209    88.131906   0.03193185  0.033562395            2 
  231000    1.1946776   -6.8605343    88.984188  0.032101078  0.033553463            2 
  232000    1.2058293   -6.8747488    89.599914  0.032183877  0.033549417            2 
  233000    1.1929287   -6.8620277    90.067365  0.032212934  0.033546612            4 
  234000    1.2425923   -6.8002148    90.717163  0.032306682  0.033542861            3 
  235000    1.2145082   -6.8656797    90.568631  0.032116536  0.033538168            2 
  236000    1.2266585   -6.8885686    90.866823  0.032085742  0.033530237            2 
  237000    1.2069689   -6.8047338      91.4687   0.03216199  0.033523247            5 
  238000    1.2046541   -6.8365984    91.715136  0.032113143  0.033518507            1 
  239000    1.1906683   -6.8822003    91.972515   0.03206852  0.033512917            3 
  240000    1.2282991   -6.8745045    92.320631  0.032055775  0.033505989            2 
  241000    1.1901066   -6.8326512    92.714585  0.032058985  0.033497785            2 
  242000    1.1893579   -6.8443559    92.891375  0.031987388   0.03349091            3 
  243000    1.1887914   -6.8531493    92.910639  0.031862359  0.033484102            3 
  244000    1.2266622   -6.8691743    94.116908  0.032143753  0.033474112            4 
  245000    1.2487477   -6.8301577     94.50903  0.032145928   0.03346722            2 
  246000    1.2146581   -6.8039348    95.406031  0.032319116  0.033463616            1 
  247000    1.2012546   -6.8706899    95.341676  0.032166557  0.033459834            3 
  248000    1.2241283   -6.8973673    95.692228  0.032154647  0.033456677            4 
  249000    1.2221148   -6.8529044    96.089127  0.032158342  0.033453371            5 
  250000    1.2385655   -6.8806549    96.657468  0.032219156  0.033447645            6 
  251000    1.2009799   -6.9025189    96.922072  0.032178643  0.033442643            3 
  252000    1.2267977   -6.8289204    97.642896  0.032289318  0.033439284            3 
  253000    1.2198391   -6.8043663    98.111339  0.032315988  0.033434637            6 
  254000    1.2105032   -6.8649881    98.036668  0.032164261  0.033427889            4 
  255000     1.208492   -6.8647112    98.128384  0.032068099  0.033419627            2 
  256000    1.2214142   -6.9108257    98.729684  0.032138569  0.033412533            2 
  257000    1.2158058   -6.8353276    99.260544   0.03218565   0.03340671            4 
  258000    1.2355831   -6.8632191     99.34928  0.032089561   0.03340056            3 
  259000    1.1906986   -6.8457547    100.16307  0.032227498  0.033395214            2 
  260000    1.1918015   -6.8738909    100.55726  0.032229889  0.033390414            6 
  261000    1.2133133   -6.8176481    100.78285  0.032178433  0.033385972            5 
  262000     1.190491   -6.8515321    101.48855  0.032280072  0.033382468            2 
  263000    1.2036485   -6.8912341    101.19808  0.032065298  0.033376934            1 
  264000    1.1888842   -6.8944291    101.93801  0.032177401  0.033371388            4 
  265000    1.2136855   -6.8839563    102.10175  0.032107469  0.033364701            2 
  266000    1.2081287   -6.9004557    102.96905  0.032258475  0.033358592            3 
  267000    1.2043438   -6.8578655    103.09318  0.032176399  0.033352616            1 
  268000    1.2314457   -6.9182519    102.89167   0.03199368  0.033345655            3 
  269000    1.2091552   -6.8492602    103.93018  0.032196461  0.033340356            2 
  270000    1.2019889   -6.8671343    104.48253  0.032247693  0.033336827            1 
  271000    1.1970241    -6.877164    104.66517  0.032184861  0.033333033            2 
  272000    1.1962947   -6.8758831    104.78692  0.032103835  0.033327676            3 
  273000     1.166989   -6.8749696    105.40153  0.032173849  0.033320914            7 
  274000    1.2071176   -6.8248876    105.61922  0.032122633  0.033315763            2 
  275000    1.2296499   -6.8655547    106.03501   0.03213182  0.033310121            2 
  276000    1.2081516   -6.8938269    106.00225   0.03200551  0.033303461            3 
  277000    1.1980695   -6.8796786    106.25106  0.031964819   0.03329494            1 
  278000     1.204686   -6.8739493    107.23697  0.032145375  0.033285802            2 
  279000    1.1977006   -6.8394342    107.58598  0.032134403  0.033277992            2 
  280000    1.2123418   -6.8577375    107.62809  0.032032169  0.033270003            3 
  281000    1.2042566    -6.845533    108.17352   0.03207993  0.033262536            4 
  282000    1.2002408    -6.880383    107.82094   0.03186198  0.033255516            3 
  283000    1.2013639   -6.8932413    108.59461   0.03197721  0.033246021            5 
  284000    1.1884211    -6.852752    109.11642  0.032017729  0.033237766            1 
  285000    1.2294215   -6.8694806    109.00791  0.031873659   0.03322976            3 
  286000    1.1811294   -6.8364787    109.95036  0.032036817  0.033220802            2 
  287000     1.203036    -6.856735    110.10161  0.031969108  0.033211545            1 
  288000    1.1903806    -6.854773     110.4207  0.031950433  0.033203046            4 
  289000    1.2003263   -6.8591738    110.71427   0.03192453  0.033194029            1 
  290000    1.2247089   -6.8234455    111.53367  0.032049905  0.033185424            2 
  291000    1.2121695   -6.8874189    111.38314  0.031896661  0.033176662            3 
  292000    1.1855766   -6.8874292    111.80277  0.031907182  0.033166756            4 
  293000     1.184707   -6.8852302    111.98522  0.031850177  0.033157355            2 
  294000    1.1926045   -6.8490744    113.19208  0.032083923   0.03314886            5 
  295000     1.216509   -6.9038189    113.20393  0.031978512   0.03313996            3 
  296000    1.1788997   -6.8741409    113.62001  0.031987615  0.033132787            4 
  297000    1.2056919   -6.8554594    114.46488   0.03211697  0.033125919            3 
  298000    1.2364564   -6.8980727    114.53398  0.032028518  0.033119651            2 
  299000    1.2343772   -6.9629327    114.40794  0.031886272  0.033112313            3 
  300000    1.1710615    -6.880457    115.38724  0.032052012  0.033105433            4 
  301000    1.2138971   -6.9055417    115.82262  0.032066062  0.033098725            4 
  302000    1.1899939    -6.854734    116.14905  0.032049959  0.033092046            4 
  303000    1.2301221   -6.8763739    116.64498  0.032080579  0.033086286            2 
  304000    1.1958582   -6.9014861    117.02074  0.032078053  0.033081333            2 
  305000    1.2065994   -6.8782716    116.69079  0.031882729   0.03307461            5 
  306000    1.2270589   -6.9095156    117.19614  0.031916159  0.033064907            2 
  307000    1.1841234   -6.8744759    117.72646  0.031956152  0.033057001            2 
  308000    1.1707141   -6.8963758    117.46647  0.031782052  0.033048058            4 
  309000    1.1663456   -6.8578538    117.84113  0.031780241  0.033038099            4 
  310000    1.2081881   -6.9317213    118.25599  0.031789244  0.033027914            2 
  311000    1.2240255   -6.9088192    118.86211  0.031849439   0.03301852            2 
  312000    1.2211749   -6.9147199     119.0807  0.031805743  0.033008754            3 
  313000    1.2077189   -6.9010904    119.32648  0.031769563  0.032998678            2 
  314000    1.2033208   -6.8851998    119.76271   0.03178416   0.03298898            3 
  315000    1.2113345   -6.8928636    120.31101   0.03182831  0.032978744            3 
  316000    1.2084442   -6.8892735      120.394  0.031749471  0.032967068            3 
  317000    1.2153637   -6.8187329    120.90331  0.031783206  0.032955301            2 
  318000    1.1967958   -6.8842462    120.92633  0.031689289  0.032943788            4 
  319000    1.2184743   -6.8620499    121.28133  0.031682687  0.032931733            1 
  320000    1.1814546   -6.9153215    121.49142  0.031638391  0.032919092            2 
  321000    1.1949635   -6.8546711    121.93723  0.031655564  0.032907157            5 
  322000    1.2058349   -6.8478461    121.98382  0.031569311  0.032894939            2 
  323000     1.183938   -6.8959717    122.25878  0.031542513  0.032882375            2 
  324000    1.1630104    -6.902899    122.35624  0.031470227  0.032869233            2 
  325000    1.2204677   -6.8592908    123.75007  0.031730788  0.032856933            4 
  326000    1.1916013   -6.9038493    123.83827  0.031655999   0.03284547            4 
  327000    1.2094242   -6.8798482     123.8023  0.031550026  0.032833509            3 
  328000    1.1902837   -6.9306543    124.21583  0.031558899  0.032820819            2 
  329000    1.1957341   -6.8884395    125.38713  0.031759659  0.032808485            3 
  330000    1.2263091   -6.9321658    125.16764   0.03160799  0.032796865            2 
  331000    1.2041578   -6.8950148     125.6964   0.03164562  0.032786661            3 
  332000    1.2255778   -6.9032216    126.20753  0.031678597  0.032777165            3 
  333000    1.2219274   -6.8519726    126.88368  0.031752673   0.03276849            1 
  334000    1.2345128   -6.9308985    126.59098  0.031584575  0.032759577            6 
  335000    1.2125122   -6.9065699    127.37792  0.031686051  0.032750085            3 
  336000    1.1893564   -6.8805401    128.17085  0.031788404  0.032742392            3 
  337000    1.2036695   -6.8916902    128.57104  0.031793038  0.032735166            4 
  338000    1.2028103   -6.9360771    128.37639  0.031650985  0.032727458            1 
  339000    1.2100447   -6.8853024    129.12493  0.031741626  0.032720127            6 
  340000    1.1944682   -6.9176191    130.16759  0.031903821  0.032714697            2 
  341000    1.1931051   -6.8884224    130.19319  0.031816519  0.032709093            1 
  342000    1.2153876   -6.8776281     131.3956  0.032016471    0.0327054            1 
  343000     1.181432   -6.8917961    131.21035  0.031878121  0.032701065            2 
  344000    1.2031368   -6.9345033    131.49398  0.031854162  0.032696436            2 
  345000    1.1795752   -6.8171104    132.30934  0.031958778  0.032691402            4 
  346000    1.1972356   -6.8494697    132.94909  0.032020494  0.032686811            4 
  347000    1.1864961   -6.8882877    132.77165  0.031885603  0.032682405            3 
  348000       1.1893   -6.8615069    133.27677  0.031914935  0.032678588            1 
  349000    1.1977621    -6.871609    133.30606  0.031830483  0.032673986            3 
  350000    1.2195557   -6.8528035    134.23693  0.031961174  0.032669436            2 
  351000    1.2075531   -6.9466318    134.34304  0.031895308  0.032664324            8 
  352000     1.189989   -6.8801129    134.78396  0.031909082  0.032658909            2 
  353000    1.1890584   -6.9011274    134.27481  0.031698492   0.03265393            2 
  354000    1.1914998   -6.9009266    135.21033  0.031829174  0.032648044            4 
  355000    1.1820956   -6.9190261     135.4182   0.03178831  0.032642542            3 
  356000     1.200657   -6.9368639     136.0557  0.031848244  0.032637742            5 
  357000    1.1914276   -6.9281144    136.51707  0.031866731  0.032632327            2 
  358000     1.217062   -6.9556546    136.72389  0.031825858  0.032627312            2 
  359000    1.2013979   -6.9335471    136.49543  0.031684177  0.032620705            3 
  360000    1.1824679   -6.9134538    137.78952  0.031895721  0.032615016            4 
  361000    1.1880899   -6.9446593    137.61187  0.031766359  0.032610971            5 
  362000    1.1759932   -6.8780722    138.85341  0.031964412  0.032607066            2 
  363000    1.1871749   -6.8885545     138.9928  0.031908356  0.032603342            3 
  364000    1.2003657   -6.8716076    139.56211  0.031951034  0.032599827            1 
  365000    1.2022063   -6.9057632    139.82453  0.031923408  0.032597246            2 
  366000    1.1824844    -6.870477    140.66654    0.0320279  0.032593774            4 
  367000     1.191014   -6.8636055    140.82815  0.031977327  0.032589903            5 
  368000    1.1995447   -6.9505355    139.82621  0.031663543   0.03258538            4 
  369000     1.171375   -6.9340946    140.58806  0.031749788  0.032579118            1 
  370000    1.1915553    -6.919344    140.68981  0.031686895  0.032572621            4 
  371000     1.180916   -6.9500714    141.51936  0.031787816  0.032566921            3 
  372000    1.1870043   -6.9175887    141.83911  0.031773994  0.032560193            3 
  373000    1.1520002   -6.9043004     141.8207  0.031684696  0.032553474            2 
  374000    1.1722658   -6.8476391    143.04153  0.031871998  0.032546848            3 
  375000    1.1720516   -6.8674442    143.02843  0.031784096  0.032540403            2 
  376000    1.1839391   -6.9265438     142.9201  0.031675555  0.032532911            3 
  377000    1.1778676   -6.9329232    142.95492  0.031599231  0.032524118            2 
  378000    1.1929163   -6.9474462    143.27388  0.031585952  0.032515851            5 
  379000     1.164416   -6.9130563    143.39317  0.031528841  0.032506488            2 
  380000    1.1772812   -6.9518699    143.47445  0.031463695  0.032496405            3 
  381000    1.2008205   -6.8653682    144.70622  0.031650529  0.032487646            1 
  382000    1.1878864   -6.8927396    145.16481  0.031667717  0.032480236            4 
  383000    1.1685508   -6.9009474    145.34283  0.031623767  0.032473548            2 
  384000    1.2119546   -6.9560148    145.61347  0.031600145  0.032465714            3 
  385000     1.190305   -6.9210956    145.35307  0.031461703  0.032457776            3 
  386000    1.1950486   -6.9213752    146.35185  0.031595822  0.032450325            3 
  387000    1.1716618   -6.9220654    146.50242  0.031546603  0.032443158            3 
  388000    1.2112039   -6.9108783    146.15753  0.031391223  0.032435612            3 
  389000    1.1709692   -6.9230674    147.16477  0.031526301  0.032427244            2 
  390000    1.2103058   -6.9444995    147.47362  0.031511457  0.032419651            2 
  391000    1.1909218   -6.9002324    148.52873   0.03165574  0.032412649            4 
  392000     1.207581   -6.9187045    148.46142  0.031560675  0.032405053            4 
  393000    1.2303396   -6.9025523    149.22125  0.031641486   0.03239789            4 
  394000    1.1819275   -6.9564037    149.49747  0.031619601   0.03239125            5 
  395000    1.1759246   -6.9200376    150.06032  0.031658295  0.032384552            3 
  396000    1.1908098   -6.9019935    150.69891  0.031712734  0.032378474            4 
  397000    1.1952732   -6.9338114     150.3321  0.031555856  0.032372101            6 
  398000    1.1872369   -6.8804801    151.53475  0.031728381  0.032366385            2 
  399000    1.1496453   -6.9113837    151.79736  0.031703708  0.032360755            5 
  400000    1.1812467   -6.9058637    152.08784  0.031684966  0.032355585            2 
  401000    1.1889025   -6.8964466    152.36436  0.031663417  0.032349658            2 
  402000    1.1828914    -6.861931    152.95241  0.031706553  0.032343463            2 
  403000    1.1829468   -6.8884237    153.50601   0.03174235   0.03233815            7 
  404000    1.2012031   -6.9409701     153.3722  0.031636181  0.032333497            4 
  405000    1.1793452   -6.9050826    154.33587  0.031756353  0.032329145            4 
  406000    1.1739108   -6.9439652    155.11476  0.031838004  0.032325112            2 
  407000    1.1756724   -6.9037583    154.79116  0.031693522  0.032320442            2 
  408000    1.1664486   -6.9229189    154.72484  0.031602296  0.032315091            4 
  409000    1.2036371   -6.9264877    155.11373  0.031604265  0.032308517            2 
  410000    1.1866678   -6.9051084    154.94594  0.031493076  0.032302118            6 
  411000    1.1834713   -6.9170193    156.02898  0.031636046  0.032296124            4 
  412000    1.1882343   -6.9014243    156.06737  0.031567025  0.032290006            3 
  413000    1.1824927   -6.9494338    156.07924  0.031492987  0.032284015            2 
  414000    1.1933313   -6.9200805    156.76293  0.031554536  0.032277932            3 
  415000    1.1765224   -6.9630975    157.04782  0.031535708  0.032272119            2 
  416000    1.1833282   -6.9439716    157.43581  0.031537623  0.032266174            3 
  417000    1.1958009   -6.9203919    157.92489  0.031559731  0.032259917            2 
  418000    1.2107786    -6.983231    157.97649  0.031494515  0.032254222            2 
  419000    1.1928488   -6.9196628    159.30274  0.031683122  0.032248903            3 
  420000    1.1571188   -6.9105332    159.23385  0.031594018  0.032244062            4 
  421000    1.1715009   -6.9437216      158.496  0.031372922  0.032238266            1 
  422000     1.189527   -6.9035706    159.72104  0.031540491  0.032231752            1 
  423000    1.1941115   -6.9619683    159.35372  0.031393562   0.03222484            4 
  424000    1.1917786   -6.9031081    160.48626  0.031542111  0.032218235            1 
  425000    1.1833048   -6.8781149    160.65836  0.031501639  0.032211995            5 
  426000    1.1797353   -6.9506549    160.72125  0.031439994  0.032206075            2 
  427000    1.1785994   -6.9210909    162.11741   0.03163884  0.032199946            4 
  428000    1.1786147   -6.9538443    161.68195  0.031480131  0.032194212            5 
  429000    1.2015305   -6.9152414    162.22543  0.031512322  0.032187922            2 
  430000    1.1548967   -6.9134542    162.38751  0.031470449  0.032180712            4 
  431000    1.1842288   -6.9497026     162.4269  0.031405047  0.032172627            3 
  432000    1.1891163   -6.9446937    162.88935  0.031421557  0.032165437            3 
  433000    1.1881902   -6.9188329    163.72145  0.031509132  0.032159003            2 
  434000    1.1491105   -6.9495699    163.79335  0.031450336  0.032151919            4 
  435000    1.1751427   -6.9487813    163.86885    0.0313925  0.032145192            2 
  436000    1.1705392   -6.8809325    165.14222   0.03156388  0.032138875            2 
  437000    1.2136654   -6.9602794    164.63692  0.031395293  0.032132365            3 
  438000    1.1957512   -6.9756295    165.18752  0.031428372  0.032125471            2 
  439000    1.2111686   -6.9279701    165.64413  0.031443457  0.032118965            2 
  440000    1.1640986   -6.9212178    166.07802   0.03145417  0.032114124            4 
  441000    1.1754867   -6.9588495    166.01158   0.03137029  0.032108087            4 
  442000    1.1928496     -6.94928    166.67056   0.03142356  0.032101995            3 
  443000    1.1746989   -6.9389595    166.84571  0.031385575  0.032095288            4 
  444000    1.1760714   -6.8870018    167.76501  0.031487427  0.032089542            3 
  445000    1.1850849   -6.9367224    168.18902  0.031496071  0.032083787            4 
  446000    1.1806523   -6.9428838    168.25464  0.031437713  0.032078284            4 
  447000     1.178168   -6.9320761     168.7625  0.031462061  0.032072325            4 
  448000      1.18006   -6.9529095    169.01992  0.031439717  0.032066244            6 
  449000     1.179809   -6.9618856    168.80159  0.031329175   0.03205912            2 
  450000    1.1924941   -6.9391871    169.39446  0.031369344  0.032051925           12 
  451000     1.154387   -6.9216611    169.88851  0.031391078  0.032045068            3 
  452000    1.1846754   -6.9465975    170.23782  0.031386029  0.032038572            3 
  453000    1.1776839   -6.9622685    170.55565  0.031375212  0.032031832            1 
  454000    1.1702122   -6.9491337    170.46854  0.031290113  0.032025078            3 
  455000    1.1987186   -6.9019091    171.25576  0.031365523  0.032018128            2 
  456000    1.1880911   -6.9365332    171.83023  0.031401723  0.032011988            1 
  457000     1.182382   -6.9424476    172.10278   0.03138271  0.032005989           12 
  458000    1.1909523   -6.9667329    171.94544  0.031285561  0.031999018            4 
  459000    1.1696689   -6.9445264    172.94022  0.031398006  0.031992051            3 
  460000    1.1518103   -6.9555992    173.26191  0.031388026   0.03198554            3 
  461000    1.1626706   -6.9541156    173.46223  0.031356152  0.031978914            3 
  462000    1.1867504   -6.9304732    173.94442  0.031375255  0.031972434            4 
  463000    1.1662481   -6.9120557    174.61057  0.031427389  0.031966915            2 
  464000    1.1416632    -6.975725    174.38395  0.031318957  0.031960362            1 
  465000    1.1822784   -6.9300314    174.81889   0.03132955  0.031953506            5 
  466000    1.1782606   -6.9466947     174.9933  0.031293508  0.031946214            2 
  467000    1.1723397   -6.9828484    175.15381  0.031255141  0.031939342            2 
  468000    1.2004172   -6.9462736    175.83506  0.031309662  0.031933659            2 
  469000    1.1665444   -6.9629284     176.3773   0.03133925  0.031927184            2 
  470000    1.1804135   -6.9747738    176.96442  0.031376671  0.031920462            2 
  471000    1.1744919   -6.9598919    176.79321  0.031279761  0.031913792            2 
  472000    1.1920763   -6.9563035    177.14739  0.031276022  0.031907366            6 
  473000    1.1716235   -6.9427698    177.71389  0.031309706   0.03190146            4 
  474000    1.1456285   -6.9613216    178.07093  0.031306422  0.031895315            2 
  475000    1.1791301   -6.9708662    177.95825  0.031220746  0.031888778            3 
  476000    1.1763733   -6.9551274    178.94993   0.03132877  0.031882532            2 
  477000    1.1803586   -6.9584201    178.72452   0.03122371  0.031876592            2 
  478000    1.1824946    -6.941828    179.26596  0.031252782   0.03187067            5 
  479000    1.1703168   -6.9570234    179.66738  0.031257373  0.031864805            3 
  480000    1.1577912    -6.935042    180.41054  0.031321275  0.031859152            2 
  481000    1.1926921   -6.9522677    180.39952  0.031254249  0.031853943            8 
  482000    1.1467302   -6.9259235    181.16886  0.031322416  0.031848883            2 
  483000    1.1888284   -6.9272256    181.45358   0.03130669  0.031844098            4 
  484000    1.1712942   -6.8601072    182.15877  0.031363424  0.031839628            3 
  485000    1.1560864   -6.9404813    181.73834  0.031226519   0.03183421            5 
  486000     1.192188   -6.9548855    182.36575  0.031269848  0.031828412            8 
  487000    1.1554457   -6.9880629    182.41978  0.031214884  0.031821375            2 
  488000    1.1838305   -6.9434157    182.78585  0.031213431   0.03181484            2 
  489000    1.1754323   -6.9424225     183.1811  0.031216956  0.031808256            3 
  490000     1.177268   -6.9637273    183.60029  0.031224538  0.031801988            2 
  491000    1.1667837   -7.0048306    183.39258  0.031125693  0.031795453            3 
  492000    1.1533152   -6.9335394    184.36935   0.03122787  0.031788449            3 
  493000    1.1718164   -6.9199549    184.49328  0.031185477  0.031782077            1 
  494000    1.1891005    -6.942802    185.52227   0.03129593  0.031776066            2 
  495000    1.1720847   -6.9499964    184.89386  0.031126912  0.031770125            3 
  496000    1.1687744   -6.9257543    185.95028  0.031241646   0.03176451            1 
  497000    1.1797184   -6.9821384    186.34856  0.031245567  0.031759176            2 
  498000    1.1802311   -6.9686485    186.59353  0.031223817  0.031753401            4 
  499000    1.1768574   -6.9997921     185.7785  0.031025133  0.031746878            2 
  500000    1.1786564   -6.9253366    187.50679  0.031251132  0.031740672            1 
  501000    1.1688942   -6.9489041    187.96639  0.031265201  0.031734665            5 
  502000     1.171551   -7.0001392    187.01569  0.031045102  0.031728289            4 
  503000    1.1508657   -6.9465767    187.88196  0.031126899  0.031721216            5 
  504000    1.1621258   -6.9329523    187.61647  0.031021242  0.031714027            2 
  505000    1.1684963   -7.0210261    187.82295  0.030993887  0.031706293            1 
  506000    1.1428818   -6.9555222     188.3778  0.031024012  0.031699379            4 
  507000    1.1603528   -6.9574441    189.14861  0.031089515  0.031692442            3 
  508000      1.16329   -6.9529347    189.65521  0.031111419  0.031685983            7 
  509000     1.187289   -6.9868936    189.91354  0.031092589  0.031679361            2 
  510000    1.1748695   -6.9586156    190.93552  0.031198614   0.03167312            2 
  511000    1.1642881   -6.9881279    190.17192  0.031013033  0.031666369            4 
  512000    1.1742177   -6.9803589    190.93468  0.031076609  0.031659156            5 
  513000     1.179712   -6.9296391    191.39474  0.031090763  0.031652324            3 
  514000    1.1559792   -6.9501647    191.40073  0.031031247  0.031645353            3 
  515000    1.1788899   -6.9402987    191.76125  0.031029328    0.0316383            4 
  516000    1.1539677   -6.9783284     190.9529  0.030838647  0.031630875            4 
  517000    1.1819771   -6.9477946    192.09607  0.030963261  0.031623758            1 
  518000    1.1676468   -6.9707325    192.11275   0.03090617  0.031615887            2 
  519000    1.1400029   -6.9822727    192.85379  0.030965605  0.031608123            2 
  520000    1.1426972   -6.9485382    193.64496  0.031032845  0.031600258            2 
  521000    1.1592642   -7.0129432    192.98114  0.030867105  0.031592577            2 
  522000     1.189936   -6.9487825    193.86044  0.030948347  0.031584888            2 
  523000     1.191284   -6.9555329    194.25245  0.030951633  0.031577242            3 
  524000    1.1937852   -6.9950912    194.14559  0.030875571  0.031569783            3 
  525000    1.1665052   -6.9970798    195.20941  0.030985621  0.031562116            3 
  526000    1.1601421   -6.9903835    194.53341  0.030819614  0.031554978            5 
  527000    1.1726004   -6.9525606    195.65566  0.030938593  0.031548317            2 
  528000    1.1931721   -6.9644319     195.6326  0.030876357  0.031540717            2 
  529000    1.1649346    -6.965942    196.25052  0.030915331  0.031533489            4 
  530000    1.1784696   -7.0137365    196.17917  0.030845782   0.03152594            2 
  531000    1.1695727   -6.9531807    196.79579  0.030884461  0.031518548            3 
  532000    1.1631569   -6.9800538    196.48991  0.030778495  0.031510547            5 
  533000    1.1696671   -6.9746932    196.93666  0.030790598  0.031502702            2 
  534000    1.1691201   -7.0094814    196.45547  0.030657845  0.031493523            2 
  535000     1.180289   -6.9490767    198.00657  0.030842145  0.031485056            4 
  536000    1.1659922   -6.9714066    197.50578  0.030706745  0.031476398            3 
  537000    1.1708156   -6.9828656    197.58138  0.030661294  0.031467731            1 
  538000    1.1639845   -6.9729617    199.15378  0.030847859  0.031459405            3 
  539000    1.1747519    -6.989168    198.96497  0.030761436  0.031451411            4 
  540000    1.1648245   -7.0431639    198.70707  0.030664671  0.031442847            3 
  541000    1.1580054   -6.9551629    199.56698  0.030740446  0.031434318            3 
  542000    1.1478596   -7.0100516    199.13825  0.030617813  0.031425603            4 
  543000    1.1901574   -6.9917958    199.85777   0.03067185  0.031416974            2 
  544000    1.1845747   -6.9761482    200.35724  0.030691979  0.031408285            2 
  545000    1.1559342   -6.9625519    200.68294  0.030685464  0.031399782            2 
  546000    1.1476113   -7.0018009    200.60589  0.030617504  0.031390919            3 
  547000    1.1533116   -6.9945022    200.90248  0.030606715  0.031381717            5 
  548000    1.1615826   -6.9770654    201.90861  0.030703864   0.03137279            1 
  549000     1.157322   -6.9595804    202.12387  0.030680611  0.031363578            2 
  550000    1.1653136   -6.9938524    202.17799  0.030633029  0.031354649            7 
  551000    1.1437759   -6.9440393    201.69357   0.03050417  0.031345411            5 
  552000    1.1814434   -6.9643058    202.14647  0.030517281  0.031335807            5 
  553000    1.1476129   -6.9939221    202.78106  0.030557725  0.031326208            2 
  554000    1.1554257   -6.9717051    202.72806  0.030494593  0.031316877            2 
  555000    1.1898561   -6.9916445    203.54827  0.030562803  0.031307545            5 
  556000    1.1621317   -7.0170031    203.84826  0.030552797  0.031298285            4 
  557000    1.1401505   -7.0243326    204.78681  0.030638362  0.031289654            1 
  558000    1.1535599   -6.9208164    205.39068  0.030673638  0.031281141            3 
  559000    1.1497701   -6.9719187    205.21123  0.030592013  0.031273325            2 
  560000    1.1697283   -7.0084441    206.32624  0.030703309  0.031265525            2 
  561000    1.1682274   -7.0460281    205.79635  0.030569867  0.031257483            2 
  562000    1.1412391   -6.9346572    206.94491  0.030685782  0.031249564            3 
  563000    1.1495034   -6.9842518    206.71299   0.03059695  0.031241797            2 
  564000    1.1693551   -6.9995659    207.41404  0.030646282  0.031233952            2 
  565000     1.149112   -6.9886181    207.42563   0.03059375  0.031225996            3 
  566000     1.144928   -6.8984458    208.93606  0.030762082  0.031218605            2 
  567000    1.1656068   -7.0174999    207.63315  0.030516336  0.031211337            2 
  568000    1.1584002   -6.9826021    208.63511  0.030609611  0.031203441            2 
  569000    1.1659941   -6.9760118    209.13586  0.030629153  0.031195855            1 
  570000    1.1743615   -6.9670057    209.36173   0.03060844  0.031187988            2 
  571000    1.1651762    -6.999632    208.60247  0.030444027  0.031180327            5 
  572000    1.1774836   -6.9970433    210.37122  0.030648488  0.031172368            4 
  573000    1.1642781   -6.9760252    210.31195   0.03058638  0.031164953            5 
  574000    1.1777847   -7.0036194    210.68507  0.030587264  0.031157305            4 
  575000    1.1512057   -7.0223993    210.76607  0.030545808  0.031149803            3 
  576000    1.1403913   -7.0078746    211.60663  0.030614385  0.031142535            2 
  577000    1.1531641   -6.9601747    211.65198  0.030567877  0.031134943            5 
  578000    1.1403126   -7.0316098     211.6982  0.030521655  0.031127695            4 
  579000     1.151887   -7.0180891    213.66522  0.030752047  0.031120632            2 
  580000    1.1726782   -6.9424022    214.48347   0.03081659  0.031114511            2 
  581000    1.1497632   -7.0186398    212.97894  0.030547754  0.031108456            1 
  582000    1.1590195   -7.0165527    214.07371  0.030652021  0.031102322            6 
  583000    1.1381668    -6.987405    214.91853  0.030720201  0.031096721            2 
  584000    1.1495788   -6.9613466    215.23765  0.030713134  0.031090619            3 
  585000    1.1495207   -7.0330621    214.96129  0.030621266  0.031085288            2 
  586000    1.1657073   -6.9785037    215.47017  0.030641377  0.031079285            1 
  587000    1.1881945   -7.0002423    216.31829  0.030709581  0.031073237            3 
  588000    1.1658573   -6.9753276    216.86837  0.030735313  0.031068025            3 
  589000     1.146402   -7.0310969    217.00694  0.030702736  0.031062658            5 
  590000    1.1628254   -6.9927729     217.7477  0.030755324  0.031057858            2 
  591000     1.152169   -6.9845134    218.61321  0.030825326  0.031053064            1 
  592000    1.1718224    -7.028967     218.2996   0.03072911  0.031048606            5 
  593000    1.1308079   -7.0285698    218.21956  0.030666043  0.031043694            1 
  594000     1.185855   -7.0211504    218.58082  0.030665098  0.031038828            5 
  595000    1.1574257    -6.999873    219.78354  0.030782008  0.031033718            2 
  596000    1.1647676   -6.9777617    219.96261  0.030755399  0.031029251            3 
  597000    1.1788921   -7.0244946    219.76695   0.03067657  0.031024226            3 
  598000    1.1387917   -7.0376177    219.88535  0.030641771  0.031018919            2 
  599000     1.152176   -7.0175746    219.76664  0.030574101  0.031013086            2 
  600000    1.1782036   -7.0428954    220.34465  0.030603423  0.031007666            2 
  601000    1.1941322    -7.061654    220.14351  0.030524614  0.031001288            3 
  602000    1.1513168   -7.0273185    221.16925  0.030615898  0.030995042            2 
  603000     1.158915   -6.9874443    222.47709  0.030745867  0.030989524            4 
  604000    1.1675784   -7.0532535       221.18  0.030516005  0.030984225            4 
  605000    1.1625359   -7.0570563    221.69027   0.03053585  0.030978538            5 
  606000     1.168723   -6.9959419    221.50721  0.030460287  0.030973205            4 
  607000    1.1541892   -7.0124949     222.7804  0.030584898  0.030967269            1 
  608000    1.1499781   -6.9857976    222.70133  0.030523757  0.030961325            3 
  609000    1.1631229   -6.9597284    223.92134  0.030640578  0.030955734            2 
  610000    1.1361326   -7.0293498    223.42907  0.030523097  0.030949934            2 
  611000    1.1104192   -6.9950026    223.84371  0.030529693  0.030943816            2 
  612000    1.1602286   -7.0026907    224.23923  0.030533664  0.030937609            2 
  613000    1.1774746   -6.9872753    225.22633  0.030618044   0.03093155            3 
  614000    1.1394411   -7.0659078    223.96998  0.030397662  0.030925986            2 
  615000    1.1431351   -6.9478883     225.9564  0.030617398  0.030920255            4 
  616000    1.1658064   -7.0311592    225.51684  0.030508231  0.030915261            5 
  617000    1.1551576   -7.0163129    225.71595  0.030485676  0.030909631            3 
  618000    1.1499183   -7.0475746    226.50637   0.03054293   0.03090366            5 
  619000    1.1552405    -7.036861     227.1949  0.030586281  0.030897907            3 
  620000    1.1330237   -7.0644887    226.43072  0.030434237  0.030892105            8 
  621000    1.1470149   -6.9802489    228.26172  0.030630934  0.030886305            2 
  622000    1.1407433   -7.0014099    227.70344  0.030506891  0.030880704            2 
  623000    1.1560708   -7.0383569    228.20877  0.030525518  0.030875073            3 
  624000    1.1390239   -7.0339374     228.1844  0.030473344  0.030869637            2 
  625000    1.1604166   -7.0162137     229.0933  0.030545773  0.030864178            4 
  626000    1.1601856   -7.0257967    229.39652  0.030537342  0.030858674            4 
  627000    1.1539129   -6.9809807    230.14582  0.030588227  0.030853393            1 
  628000    1.1584755    -7.018156    230.42443  0.030576491  0.030848177            1 
  629000    1.1487517   -6.9711675    230.33737  0.030516345  0.030842822            5 
  630000    1.1473577   -7.0290485    230.27563  0.030459739  0.030837437            2 
  631000    1.1457522    -7.012684    229.88019  0.030359244  0.030831842            5 
  632000    1.1699554   -7.0029435    231.13646  0.030476854  0.030825577            3 
  633000    1.1450546   -7.0119289    230.84313  0.030390091  0.030819688            2 
  634000    1.1395223    -7.088021    230.39254  0.030282932  0.030813392            2 
  635000    1.1865456   -7.0126484    232.14692  0.030465475  0.030807672            2 
  636000    1.1468317   -6.9802054    232.94237  0.030521798  0.030802302            6 
  637000    1.1470013   -6.9895559    232.79974  0.030455225  0.030796761            5 
  638000    1.1396469   -7.0426902     233.0236   0.03043673  0.030791333            2 
  639000     1.137675   -6.9839514    234.43206  0.030572777  0.030785745            2 
  640000    1.1368252   -7.0251603    233.58117  0.030414215  0.030780056            6 
  641000    1.1537677   -6.9939067    234.05686  0.030428609  0.030774559            5 
  642000    1.1405374   -6.9665378    234.40928  0.030426958  0.030768396            5 
  643000    1.1466758   -6.9649751    234.50225  0.030391686  0.030761883            4 
  644000    1.1585816   -7.0222602    234.28007  0.030315744  0.030755134            2 
  645000    1.1359981   -7.0085042    234.21001  0.030259691  0.030748343            3 
  646000    1.1638039   -7.0194043    234.65674  0.030270478  0.030741765            3 
  647000    1.1243443   -7.0032575    235.46697  0.030328048  0.030735567            4 
  648000    1.1292278   -7.0627328    235.81393  0.030325865  0.030728921            1 
  649000    1.1173639   -7.0500748    235.05487  0.030181672  0.030722159            2 
  650000    1.1357316   -7.0664703    235.81212  0.030232323   0.03071567            6 
  651000    1.1548754   -7.0281231    236.57664  0.030283748  0.030709132            4 
  652000    1.1414666   -7.0004409    237.83182  0.030397728  0.030703232            3 
  653000    1.1493077   -7.0175759    238.03859  0.030377564  0.030697076            3 
  654000    1.1704016   -7.0556304    237.77612  0.030297671   0.03069062            2 
  655000    1.1262675   -7.0334953    237.77232  0.030250931  0.030684159            2 
  656000    1.1393059   -7.0234359    238.41246  0.030286136  0.030677754            2 
  657000       1.1592   -7.0147242    238.16681  0.030208879  0.030671225            2 
  658000    1.1411198   -7.0042676    239.06267  0.030276427  0.030665228            5 
  659000    1.1689872   -6.9855899    239.86294  0.030331682  0.030659921            2 
  660000    1.1368671   -7.0212673    241.14831  0.030448019  0.030654505            5 
  661000    1.1267005   -7.0224652    241.04936   0.03038948  0.030648745            4 
  662000    1.1412631   -7.0341178    240.51132  0.030275846  0.030642769            5 
  663000    1.1477045   -7.0371151      240.185  0.030189166  0.030637081            3 
  664000    1.1268894     -7.02542    240.77373  0.030217586   0.03063107            3 
  665000    1.1530085   -7.0462575    241.65799  0.030282956  0.030625101            5 
  666000    1.1648855   -7.0184415    242.44036   0.03033538   0.03061996            6 
  667000    1.1576656   -7.0321681    242.48773  0.030295818  0.030614697            2 
  668000    1.1276921   -6.9986471    243.29123  0.030350703  0.030609135            1 
  669000    1.1624363   -7.0533951    243.69284  0.030355362  0.030603743            3 
  670000    1.1358688   -7.0145055    243.78315  0.030321287   0.03059831            3 
  671000    1.1361653   -7.0389659    244.33136  0.030344182  0.030593402            2 
  672000    1.1688551   -7.0240734    244.01343  0.030259602  0.030588022            3 
  673000    1.1376328   -7.0026775     244.7165  0.030301697  0.030582767            3 
  674000    1.1537498   -7.0045357    244.84584   0.03027273  0.030577286            2 
  675000    1.1551072   -7.0512846    244.68059  0.030207481  0.030571708            2 
  676000    1.1466813   -7.0805693    244.51569  0.030142467    0.0305659            2 
  677000    1.1499069   -7.0308304    245.70266   0.03024405  0.030560102            3 
  678000    1.1743456   -7.0699405    245.05029  0.030119259  0.030554795            4 
  679000    1.1198518   -7.0526812    245.95014  0.030185339  0.030549276            3 
  680000    1.1492799   -7.0230119    246.48259    0.0302062  0.030544054            2 
  681000    1.1417955    -7.020129    247.43222   0.03027805  0.030538685            2 
  682000    1.1637337   -7.0399447    246.40269  0.030107855  0.030532954            6 
  683000    1.1450206   -7.0542361    247.28728  0.030171704  0.030527097            3 
  684000    1.1187791   -7.0476985      248.104  0.030227095  0.030521239            2 
  685000     1.138527   -7.0666201    247.59511  0.030121059  0.030515616            4 
  686000    1.1548202   -7.0463708    247.52494  0.030068627  0.030509936            2 
  687000    1.1381315   -6.9936553    249.63081  0.030280302  0.030504011            3 
  688000    1.1193165   -7.0572909    249.61348  0.030234191  0.030498691            4 
  689000    1.1323609   -7.0449327    249.36181   0.03015987  0.030493161            3 
  690000    1.1566719   -7.0292152    250.14421  0.030210653     0.030488            2 
  691000    1.1333461   -7.0696105    249.84175  0.030130457   0.03048269            3 
  692000    1.1496138   -7.0434082     251.0727  0.030235152  0.030477176            3 
  693000     1.155991   -7.0775351    251.17738   0.03020411  0.030472135            2 
  694000     1.130458   -7.0690449    251.11239  0.030152784   0.03046692            3 
  695000    1.1266319   -7.0016178    251.77969  0.030189411  0.030461329            2 
  696000    1.1194344   -7.0447911    251.72089  0.030138995  0.030455927            4 
  697000     1.134425   -7.1165251     250.6677  0.029969835  0.030449423            3 
  698000    1.1456158   -7.0095912    252.05635  0.030092687  0.030443584            3 
  699000    1.1208573   -7.0414586    252.25426  0.030073231  0.030437983            3 
  700000    1.1362347   -7.0691721    252.34546  0.030041126  0.030432038            2 
  701000    1.1445474   -7.0701949    252.28775  0.029991411  0.030426093            6 
  702000     1.137305   -6.9856735     253.6436  0.030109639  0.030420473            3 
  703000    1.1378314   -7.0991428    252.80718   0.02996766  0.030414419            8 
  704000     1.139193      -7.0649    254.69351  0.030148379  0.030407936            3 
  705000    1.1334842    -7.036085    254.75391  0.030112756  0.030401278            1 
  706000    1.1390944   -7.0116107    254.50385  0.030040587  0.030394991            2 
  707000    1.1097222   -7.0832131    253.98795  0.029937288  0.030388914            3 
  708000    1.1357045   -7.0508464    255.19208  0.030036733  0.030382866            5 
  709000    1.1398662   -7.0366885     255.5392  0.030035167  0.030376812            4 
  710000     1.126683   -7.0698728     255.1488  0.029947043  0.030370559            5 
  711000    1.1260314   -7.0948276    255.46585  0.029942082  0.030364066            3 
  712000    1.1541104   -7.0764119    255.67316  0.029924293  0.030357419            5 
  713000    1.1212199   -7.0265019    256.48573  0.029977294  0.030351335            2 
  714000    1.1472001   -7.0734105    257.11732  0.030009025  0.030345242            2 
  715000     1.130678   -7.0212261    257.55623  0.030018209  0.030339336            3 
  716000    1.1473996   -7.0398605     257.9475  0.030021822  0.030333059            2 
  717000    1.1499842   -7.0463144    257.30229  0.029904962  0.030326409            4 
  718000    1.1281025   -7.0576258    257.67275  0.029906308  0.030320049            3 
  719000    1.1449325   -7.0569273    258.11012  0.029915406  0.030313604            4 
  720000    1.1530218   -7.0739101    258.14858  0.029878307  0.030307347            2 
  721000    1.1432823   -7.0631458    259.55189  0.029999062   0.03030093            5 
  722000    1.1503147   -7.0919402    259.08768  0.029903933  0.030294792            6 
  723000    1.1285858   -7.0386518    260.13834  0.029983673  0.030288624            3 
  724000    1.1227333   -7.0888194    259.41772  0.029859314  0.030282384            3 
  725000    1.1441788   -7.0681801    259.47554  0.029824774  0.030276196            2 
  726000     1.116892   -7.0477228    259.77919  0.029818548   0.03026973            2 
  727000    1.1156587   -7.0603895    260.43004  0.029852136  0.030263206            3 
  728000    1.1551389   -7.0917423    261.05089  0.029882198  0.030256869            2 
  729000    1.1398779   -7.0487293    261.06239  0.029842523  0.030250662            4 
  730000    1.1686972   -7.0898011    262.05949  0.029915467  0.030244855            7 
  731000    1.1110181   -7.0419725    262.35553  0.029908291  0.030238911            3 
  732000    1.1445375   -7.0003196    264.17996  0.030075133  0.030233099            2 
  733000    1.1400362   -7.0255324     263.3046  0.029934583  0.030227506            3 
  734000    1.1481312   -7.0134312    263.61387  0.029928913  0.030221916            6 
  735000    1.1413598   -7.0581284    263.73742  0.029902201  0.030216247            2 
  736000    1.1295194   -7.0215616    264.13376   0.02990645  0.030210314            2 
  737000    1.1475144   -7.1288896    263.63326  0.029809278  0.030204288            3 
  738000     1.147487   -7.0740186    264.59763  0.029877781  0.030198481            4 
  739000    1.1121751   -7.0398363    264.44188  0.029819788  0.030192671            1 
  740000    1.1111444   -7.0789294    264.97104  0.029839081  0.030186817            3 
  741000    1.1213536   -7.0810005    264.44136  0.029739245  0.030180912            2 
  742000    1.1685028   -7.0363617    267.07154  0.029994557  0.030175357            2 
  743000    1.1260353   -7.0492169    266.71147  0.029913804  0.030170014            6 
  744000    1.1353672   -7.0672832    266.83673  0.029887627  0.030164702            2 
  745000    1.1317817   -7.0708447    266.30518  0.029788051  0.030158964            2 
  746000    1.0967154    -7.082988    267.19038  0.029847004  0.030153668            5 
  747000    1.1179282   -7.0645415    268.09918  0.029908432  0.030148458            1 
  748000    1.1266412   -7.0610627     267.4473  0.029795822  0.030143039            3 
  749000    1.1162452   -7.0825586     266.8026  0.029684312  0.030137219            2 
  750000    1.1356343   -7.1067621    268.02089  0.029780099  0.030131456            3 
  751000     1.130008    -7.090229    268.74774  0.029821099  0.030125997            2 
  752000    1.1357141   -7.0978059    268.79213  0.029786362  0.030120633            3 
  753000    1.1352932   -7.1095097    269.29578  0.029802543  0.030115255            2 
  754000    1.1069298   -7.0787225    269.98561  0.029839259  0.030109993            6 
  755000    1.1301842   -7.0964296    269.98086  0.029799211  0.030104607            6 
  756000    1.1339857   -7.0767459    270.35238  0.029800748  0.030099315            2 
  757000    1.1051567   -7.0251307    271.55494  0.029893762  0.030094108            2 
  758000    1.1532692   -7.0821959     271.2959  0.029825847  0.030088692            2 
  759000    1.1348071   -7.0597323    271.44976  0.029803443  0.030083235            2 
  760000    1.1154308   -7.0788697    271.43251  0.029762337  0.030077312            2 
  761000    1.1522703   -7.0721473    272.34982  0.029823677  0.030071696            2 
  762000    1.1419869   -7.0854898    271.66438  0.029709578  0.030066018            5 
  763000    1.1414159   -7.0200574    273.19808  0.029838148  0.030060388            3 
  764000     1.102758   -7.0710136    272.56133  0.029729639  0.030054717            3 
  765000    1.1255048   -7.1223834    272.95246  0.029733384  0.030049002            3 
  766000    1.1643075   -7.1090474    273.45156  0.029748865  0.030043093            3 
  767000    1.1102476   -7.1132596    274.11344  0.029781991  0.030037484            2 
  768000    1.1380448   -7.1010817    274.38197  0.029772349  0.030032085            4 
  769000    1.1251288   -7.0560408    274.78432  0.029777234  0.030026641            3 
  770000    1.1137507   -7.0659125    274.53467  0.029711545  0.030020576            4 
  771000    1.1294582   -7.0783881    275.17088  0.029741772  0.030014784            5 
  772000    1.1309487   -7.0832047    276.03381  0.029796395   0.03000891            2 
  773000    1.1170363   -7.0724317    275.61059  0.029712224  0.030003248            2 
  774000    1.1544782   -7.0830611    275.85242  0.029699873   0.02999748            3 
  775000    1.0913202   -7.0572959    276.53523  0.029734971   0.02999193            2 
  776000    1.0947535    -7.068696    276.98264    0.0297447  0.029986561            3 
  777000    1.1176604   -7.0749683    276.88079  0.029695494  0.029980695            4 
  778000    1.1134762   -7.0815254    276.92593   0.02966216  0.029975274            2 
  779000    1.1464421   -7.0845402    277.81544  0.029719239  0.029969904            2 
  780000    1.1308275   -7.0915247    278.08846  0.029710305  0.029964765            4 
  781000    1.1139966   -7.0812964    278.15468   0.02967933  0.029958971            2 
  782000    1.1205976   -7.0514452    278.37357  0.029664703  0.029952891            4 
  783000    1.1152686   -7.0839822    278.21619  0.029610067  0.029947019            3 
  784000    1.1253437   -7.0163071    280.35751  0.029799905  0.029941145            2 
  785000    1.1596793    -7.037945    279.01574  0.029619506  0.029935333            3 
  786000    1.1179416   -7.0635886    279.81713  0.029666787  0.029929213            2 
  787000    1.1142821   -7.0635191    280.19249  0.029668836  0.029923544            3 
  788000    1.1282787   -7.1153179    280.43822  0.029657172  0.029917839            2 
  789000    1.1211367   -7.1118725    280.07596  0.029581322  0.029911931            3 
  790000    1.1265701   -7.1050839    280.78443  0.029618611  0.029905861            6 
  791000    1.1079307    -7.080441     280.5536  0.029556848  0.029899965            2 
  792000    1.1226134   -7.0627836      281.337  0.029601957  0.029894136            1 
  793000    1.1563558    -7.040886    282.35075  0.029671159  0.029888251            3 
  794000    1.1325036    -7.059357    282.77191  0.029677992  0.029882595            2 
  795000    1.1171218   -7.1067859    282.58324  0.029620884  0.029877062            4 
  796000    1.1219484   -7.1372875    282.23786  0.029547515  0.029871364            5 
  797000    1.1268418    -7.051482    283.62129  0.029655091  0.029865751            4 
  798000      1.11802     -7.04962    283.83407   0.02964015  0.029860296            3 
  799000    1.1422416   -7.0968288    283.35095  0.029552665   0.02985472            2 
  800000     1.114696     -7.06766    283.81439  0.029563999  0.029848358            2 
  801000    1.1381763   -7.1099618    283.85422  0.029531233  0.029842399            2 
  802000    1.1290952   -7.0664311    284.99187  0.029612622  0.029836324            3 
  803000    1.1142591   -7.1057104    284.63136  0.029538331  0.029830413            4 
  804000    1.1223417   -7.1100672    284.78415  0.029517428  0.029824014            2 
  805000    1.1173716   -7.0732539    284.84262  0.029486814  0.029818044            3 
  806000    1.0916799   -7.0681486    285.22922    0.0294902  0.029811631            3 
  807000    1.1316219    -7.145532     285.2833  0.029459242  0.029805393            4 
  808000    1.1275015   -7.0722061    285.43069  0.029437983  0.029798981           10 
  809000    1.1218263   -7.0808072    286.16698  0.029477439  0.029792656            3 
  810000    1.1196293   -7.0570457      286.246  0.029449176  0.029786301            8 
  811000    1.1135259   -7.1207174    285.94652  0.029382092  0.029779565            2 
  812000     1.134818   -7.1263514    285.92729  0.029343934  0.029772608            5 
  813000    1.1072365   -7.0804981    286.59253  0.029376028   0.02976582            3 
  814000    1.1326052    -7.035069    287.81991  0.029465593  0.029759325            3 
  815000      1.12513   -7.0931511    286.82733  0.029327948  0.029752359            2 
  816000    1.1246193   -7.1344503    286.80607  0.029289835   0.02974556            3 
  817000    1.1161089   -7.1246718    287.59183  0.029334132  0.029738858            9 
  818000     1.133621   -7.1268703    287.79633  0.029319105   0.02973222            2 
  819000    1.1213985   -7.0780378    289.40805  0.029447298  0.029725764            4 
  820000    1.1083501   -7.0787192    290.43044  0.029515289  0.029719608            2 
  821000    1.1270818   -7.1140537    289.13083  0.029347425  0.029713635            3 
  822000    1.1200771   -7.1202913     289.4743  0.029346543  0.029706839            7 
  823000    1.0974946   -7.1060251    289.42035  0.029305422  0.029700268            3 
  824000     1.135001     -7.12636    289.86606  0.029314934  0.029693791            2 
  825000    1.1184941   -7.0505976     291.5386  0.029448343  0.029687585            2 
  826000    1.1230362   -7.0642605    291.94472  0.029453664  0.029681456            5 
  827000    1.1020896   -7.1178988    291.01784  0.029324651  0.029675378            4 
  828000    1.1191275   -7.1236448    290.92408  0.029279799  0.029669053            8 
  829000    1.1272315    -7.127258    292.28577   0.02938136  0.029662656            5 
  830000    1.1398301   -7.1108545    291.61778  0.029278893  0.029656358            2 
  831000    1.1162498     -7.06563    291.26719  0.029208503  0.029650026            3 
  832000    1.1034282   -7.1295989    291.68891  0.029215636   0.02964334            4 
  833000     1.117527   -7.1087055    292.24322  0.029236016  0.029636948            2 
  834000    1.1114954   -7.0637598    292.93365  0.029269949  0.029630083            5 
  835000    1.1157822   -7.0945294    293.00302  0.029241819  0.029623667            5 
  836000    1.1248814   -7.1142051    292.72345  0.029178973  0.029616738            4 
  837000    1.1263724   -7.1008841    293.98439  0.029269653  0.029610113            9 
  838000    1.1295038    -7.160277    293.51056  0.029187605  0.029603152            3 
  839000    1.1329431   -7.0969529    293.22557   0.02912451  0.029595901            4 
  840000      1.11674   -7.0681218    295.11627  0.029277407  0.029589019            4 
  841000    1.1099407   -7.1395822    294.00788  0.029132767  0.029581798            4 
  842000    1.1273482   -7.0784676    295.21821  0.029217954    0.0295746            4 
  843000    1.1209633    -7.100671    294.27741  0.029090294  0.029567559            2 
  844000    1.1041726   -7.1262303    294.58406  0.029086104  0.029560628            2 
  845000    1.1130539    -7.077437     295.7745  0.029169083  0.029553651            3 
  846000    1.1121124    -7.144618    295.11319  0.029069463  0.029546508            1 
  847000    1.1208883   -7.1282143     295.5217  0.029075334  0.029539311            2 
  848000    1.1374943   -7.0936005    296.35181  0.029122623  0.029531979            3 
  849000     1.095891   -7.1279242    295.54977  0.029009597  0.029524632            3 
  850000    1.1186063   -7.1072725    295.06407   0.02892785  0.029517042            2 
  851000    1.1322061   -7.0707903    296.66099  0.029050234  0.029509591            5 
  852000    1.1169524   -7.0946101    297.62478  0.029110405  0.029502432            3 
  853000    1.1202412   -7.1062223    297.47907  0.029062043  0.029495063            4 
  854000    1.1272664   -7.1178357    297.05958  0.028987078  0.029487836            4 
  855000    1.1040368     -7.14292    297.35484  0.028981953  0.029480577            2 
  856000     1.079093   -7.1754937    297.23436  0.028936367  0.029472942            2 
  857000    1.1262589   -7.1238635     298.0244  0.028979425  0.029465455            5 
  858000    1.0905093   -7.1711551    297.92903  0.028936386  0.029458168            3 
  859000    1.1132466   -7.1407655    297.54521  0.028865465  0.029450712            3 
  860000    1.1114308   -7.1178093    299.35871  0.029007627  0.029443443            8 
  861000    1.1308505    -7.133102    298.92392  0.028931855  0.029435926            2 
  862000    1.1018843   -7.1216485    299.55138   0.02895895  0.029428629            2 
  863000    1.1281718   -7.1351427     299.7701  0.028946515   0.02942129            4 
  864000    1.1108123   -7.0862815    299.88851  0.028924432  0.029413889            4 
  865000    1.1311147   -7.0650967    300.49625  0.028949542   0.02940659            2 
  866000    1.1152701   -7.1200064    300.31573  0.028898743  0.029399166            8 
  867000    1.0766358   -7.1280142    300.93088  0.028924537  0.029391765            4 
  868000    1.1296824   -7.1554024    301.13717  0.028911018  0.029384528            3 
  869000    1.1064482    -7.097159    302.16985  0.028976778  0.029377277            3 
  870000    1.1021235     -7.16892    301.13887   0.02884472  0.029370286            6 
  871000    1.1182979   -7.1521082    303.40738  0.029028644  0.029363365            2 
  872000    1.1163181   -7.1180488    303.72079  0.029025305  0.029356477            3 
  873000    1.1213944   -7.0798478    303.50727  0.028971675  0.029349779            2 
  874000    1.0991708   -7.1557476    302.39076  0.028832071  0.029342878            2 
  875000    1.0994867   -7.1173528    303.75921  0.028929448  0.029335865            3 
  876000    1.1182947   -7.1614704    303.43321  0.028865412  0.029328601            3 
  877000    1.1229977    -7.097046    304.41674  0.028925954  0.029321207            4 
  878000    1.1029352   -7.1271035    304.64311  0.028914495  0.029314038            2 
  879000     1.097288   -7.1535929    304.57282  0.028874936  0.029306808            6 
  880000    1.1253512   -7.1671069    304.49076  0.028834352  0.029299586            3 
  881000    1.1017382   -7.1523295    305.88178  0.028933199  0.029292791            2 
  882000    1.1105708   -7.1358578    305.78436   0.02889119   0.02928605            2 
  883000    1.1139779    -7.055437    307.77762  0.029046585  0.029279394            2 
  884000    1.0927192     -7.17494      305.561   0.02880477  0.029272824            4 
  885000    1.1041425   -7.1455433    307.84618  0.028987399  0.029265943            5 
  886000    1.1195439   -7.1272238    307.50394  0.028922493  0.029259348            2 
  887000     1.104319   -7.1452779    307.81634  0.028919235  0.029252599            4 
  888000    1.1080172   -7.1212629    308.07484  0.028910927  0.029245637            5 
  889000     1.119135   -7.1605486    308.81848  0.028948114  0.029238898            5 
  890000    1.0974793   -7.1261549     308.1853  0.028856301  0.029231853            2 
  891000    1.0945297     -7.13663     308.1221  0.028818004  0.029224953            6 
  892000    1.1120877   -7.0912369    308.36101  0.028808017  0.029218151            3 
  893000    1.1372024   -7.1089752    309.16918  0.028851174  0.029211323            2 
  894000    1.1018833   -7.1108121    308.77471  0.028782132  0.029204324            3 
  895000    1.1054706   -7.1594047    309.68029  0.028834292  0.029197426            2 
  896000     1.079954   -7.1474984    310.42266  0.028871155  0.029190556            2 
  897000    1.1097751   -7.1218066    310.08449  0.028807552  0.029183376            1 
  898000    1.1067882   -7.1250171    311.56821   0.02891316  0.029176439            2 
  899000    1.1090898   -7.1571569    310.28508  0.028762058  0.029169612            4 
  900000    1.1058086   -7.1405666    311.41729  0.028834934  0.029162531            3 
  901000    1.1231069    -7.150584    311.89048  0.028846696  0.029155377            3 
  902000     1.091043   -7.1172461    311.44036   0.02877313  0.029148548            2 
  903000    1.1180566    -7.148316    312.22469  0.028813648  0.029141584            4 
  904000    1.1108028   -7.1337007      311.196  0.028686947  0.029134678            3 
  905000    1.1009294   -7.1472787    312.04059  0.028733019  0.029127474            3 
  906000    1.1051831   -7.1246447    313.67276  0.028851431  0.029120696            3 
  907000    1.1167838   -7.1448996    312.91989   0.02875045  0.029114116            5 
  908000    1.0877865   -7.0895636    314.03904  0.028821498  0.029107604            1 
  909000    1.1076834   -7.1166944    312.99788  0.028694342  0.029100646            2 
  910000    1.0827788   -7.1543519    313.15846  0.028677514  0.029093921            6 
  911000    1.0850804   -7.1333784    312.44205  0.028580502  0.029086793            4 
  912000    1.1088477   -7.1188893    313.97473  0.028689211    0.0290796            1 
  913000    1.0835732   -7.1249552    314.65001  0.028719424  0.029072478            3 
  914000    1.0972664   -7.1303156    313.76169   0.02860701  0.029065092            2 
  915000    1.1384429   -7.1437884    314.56943   0.02864931   0.02905765            4 
  916000     1.118199   -7.1351997    313.97304  0.028563777   0.02905041            5 
  917000    1.1144896   -7.1705086    314.64702  0.028593877  0.029042826            3 
  918000    1.0971493   -7.1535196    314.29084  0.028530396  0.029035738            5 
  919000    1.1018566   -7.1275091    315.78738  0.028635055  0.029028367            3 
  920000    1.1160658   -7.1276737     315.9025  0.028614356  0.029021071            3 
  921000      1.08133   -7.1461031    316.40735  0.028628968  0.029013708            4 
  922000    1.0933535   -7.1582577    315.71236  0.028535101  0.029005965            5 
  923000    1.1044167   -7.1278065    316.27835  0.028555286  0.028998448            2 
  924000    1.0910734   -7.1079244    316.92726  0.028582906   0.02899106            2 
  925000    1.1161097   -7.1342055    317.73037  0.028624358  0.028983556            3 
  926000    1.1196312   -7.1646609     316.4459  0.028477852  0.028975974            2 
  927000    1.1035288   -7.1541143    317.20875  0.028515709  0.028968536            3 
  928000    1.1210853   -7.1627327    317.49487  0.028510674  0.028961056            4 
  929000    1.1197322   -7.1573987    318.40189  0.028561346   0.02895335            9 
  930000    1.1140613   -7.1207852    317.74024  0.028471347   0.02894592            5 
  931000    1.1066685   -7.1373074    318.84626  0.028539766  0.028938456            3 
  932000    1.0999459   -7.1406218    319.17644  0.028538666  0.028930759            7 
  933000    1.1133292   -7.1468889    318.80689   0.02847507  0.028923134            3 
  934000    1.1118618   -7.1535049    318.75695  0.028440128  0.028915381            5 
  935000     1.083337   -7.1299477    318.97589  0.028429223  0.028907531            2 
  936000    1.1351015   -7.2070824    317.96117  0.028308509  0.028899476            7 
  937000    1.0946826   -7.1700989    319.55169  0.028419752  0.028891506            5 
  938000     1.105256   -7.1582501    319.54107   0.02838851  0.028883459            3 
  939000    1.1057554   -7.1408144    319.70688  0.028372993  0.028875738            5 
  940000    1.1013058   -7.1557557    320.69289  0.028430221    0.0288681            2 
  941000    1.0785755   -7.0941021    321.19091  0.028444112  0.028860226            3 
  942000    1.1094913   -7.1578561    321.16599  0.028411712  0.028852454            2 
  943000    1.1028523   -7.1625022    320.71215  0.028341476  0.028844734            2 
  944000    1.0815786   -7.1829299    321.16118  0.028351093  0.028837096            4 
  945000    1.1051641   -7.1733907    320.98959   0.02830596   0.02882919            4 
  946000    1.1240177   -7.0978694    322.37435  0.028398023   0.02882152            2 
  947000    1.0959047     -7.17163    321.16378  0.028261508   0.02881337            1 
  948000    1.0976131   -7.1481213    322.14464  0.028317919  0.028805043            3 
  949000    1.0916701   -7.1693908    321.59562  0.028239868  0.028796712            3 
  950000    1.0898269   -7.1175756    322.32508   0.02827413  0.028788107            3 
  951000    1.1267024   -7.2015216    321.48204  0.028170525  0.028779535            5 
  952000    1.1135388   -7.1482904    323.12395   0.02828466  0.028771217            3 
  953000    1.0865587   -7.1693668    321.46086  0.028109554   0.02876281            6 
  954000    1.0819448   -7.1943823     321.3508  0.028070475  0.028754131            4 
  955000    1.1051276   -7.1175002    323.89607  0.028263183  0.028745784            3 
  956000    1.1155307   -7.1711333    323.61752  0.028209337  0.028737461            6 
  957000    1.1237422   -7.1847239    323.56994  0.028175718  0.028729209            2 
  958000    1.1026086   -7.1429745    324.50197   0.02822738  0.028721099            3 
  959000     1.120417   -7.1556835    324.24067  0.028175241  0.028713015            1 
  960000    1.0953929   -7.1300855     325.8633  0.028286745  0.028704945            3 
  961000    1.0908925   -7.1355443    325.46457  0.028222734  0.028697107            4 
  962000    1.1150297   -7.1635646    326.35122  0.028270203  0.028688937            3 
  963000    1.0912392   -7.1460401    325.02205  0.028125826  0.028680662            6 
  964000    1.0939905    -7.146868    325.67756  0.028153316  0.028672402            1 
  965000    1.1033684   -7.1500615    325.33718  0.028094748  0.028664075            3 
  966000    1.0924724   -7.1307764    325.60131   0.02808845   0.02865583            2 
  967000    1.0885501    -7.201757    326.21638  0.028112408  0.028647601            4 
  968000    1.0704889   -7.1727822     326.0808  0.028071695  0.028639329            6 
  969000    1.1107185   -7.1640501    326.81882  0.028106193  0.028631256            4 
  970000    1.1146738   -7.1933623    326.11535  0.028016783  0.028623014            2 
  971000     1.099103   -7.1771333     328.1553  0.028163002  0.028615064            4 
  972000    1.1107561    -7.181833    329.52505  0.028251461  0.028607151            4 
  973000    1.1126028   -7.1407349    328.10866  0.028101119  0.028599099            2 
  974000    1.1044828   -7.1769608    328.80511  0.028131854  0.028591319            2 
  975000     1.106272   -7.1546837    328.45465  0.028073047  0.028583374            4 
  976000    1.1071138   -7.1444535    329.38439  0.028123667  0.028575489            3 
  977000    1.0935146   -7.2113189    327.83271  0.027962531  0.028567453            3 
  978000    1.0723535   -7.1532341    328.44012  0.027985695  0.028559363            2 
  979000    1.0825179    -7.175759    329.58707  0.028054738  0.028551286            5 
  980000    1.0974934   -7.1760393    329.77774  0.028042324   0.02854305            5 
  981000    1.1156517   -7.1824952    329.27269  0.027970837  0.028534802            3 
  982000    1.1183792   -7.1452887    331.40615  0.028123401  0.028527152            2 
  983000    1.0724475   -7.1749891    331.37329  0.028092005  0.028519575            6 
  984000    1.0641855   -7.1271255    332.73219  0.028178539  0.028511905            4 
  985000     1.096284   -7.1702615    331.49436  0.028045208  0.028504319            4 
  986000    1.0747196   -7.1632014    332.77321  0.028124849    0.0284968            3 
  987000    1.0756386   -7.1549174     333.8103  0.028183916  0.028489574            3 
  988000    1.0988712   -7.1660762      334.178  0.028186404  0.028482353            1 
  989000    1.0822996   -7.1373164    334.28362  0.028166803  0.028475313            3 
  990000    1.1016269    -7.179075    333.46376   0.02806934  0.028468393            5 
  991000    1.0705083   -7.1604844    334.26593  0.028108471  0.028461131            2 
  992000    1.0814493   -7.1227677    335.82901  0.028211442  0.028454095            3 
  993000    1.1225767   -7.1598583    335.63951  0.028167129  0.028447119            5 
  994000    1.0878253   -7.1718617    335.54344  0.028130738  0.028440258            2 
  995000    1.0812242   -7.1916179     334.8735  0.028046357  0.028433032            6 
  996000    1.1035988   -7.1609615    335.72729  0.028089632  0.028425847            2 
  997000     1.097869   -7.2132454    334.88354  0.027990935  0.028418732            3 
  998000     1.074892   -7.1753114    336.14758  0.028068435  0.028411637            3 
  999000    1.0929233    -7.205407    336.42806  0.028063735  0.028404385            3 
 1000000    1.0993757    -7.178344    337.07275  0.028089396  0.028397218            2 
 1001000    1.0895443   -7.1812843    337.25847  0.028076796  0.028390013            3 
 1002000    1.1031563    -7.178529    337.66252  0.028082378  0.028382863            4 
 1003000    1.0705164   -7.2117617    337.02784  0.028001648  0.028375652            3 
 1004000    1.0878778   -7.1977732    337.14659  0.027983615  0.028368548            3 
 1005000    1.0977435   -7.1681632    337.88706  0.028017169  0.028361392            3 
 1006000    1.0683359     -7.17877    338.25775  0.028020025  0.028354175            3 
 1007000    1.0787678   -7.1518433    338.95798  0.028050147  0.028347033            3 
 1008000     1.075136   -7.1772763    339.00667  0.028026345   0.02833986            4 
 1009000    1.0799699   -7.1606665    338.98837  0.027997057  0.028332688            3 
 1010000    1.1026197   -7.1637749    338.63916  0.027940525  0.028325458            4 
 1011000     1.071399   -7.1718874    339.43528   0.02797851   0.02831811            2 
 1012000    1.0972761   -7.2218286    338.68053  0.027888713  0.028310697            5 
 1013000    1.1322592   -7.1953043    339.34213  0.027915608  0.028303611            4 
 1014000    1.0914745   -7.1666252    340.55229  0.027987532  0.028296292            3 
 1015000    1.0827517   -7.1815147    340.47698  0.027953775  0.028289108            4 
 1016000    1.0848475   -7.1867072    340.58474    0.0279351  0.028281728            1 
 1017000    1.1114174   -7.1514048    341.53472  0.027985474  0.028274365            3 
 1018000    1.0763456   -7.1836268    341.35226  0.027943047  0.028267139            3 
 1019000    1.0961395   -7.1339736    341.62033  0.027937547  0.028259923            2 
 1020000    1.0712162   -7.1420104    342.97992  0.028021235  0.028252789            6 
 1021000    1.0680431   -7.1875814    341.47972  0.027871345  0.028245612            3 
 1022000    1.0776059     -7.21125     341.4783  0.027843958  0.028238188            3 
 1023000    1.0927719   -7.1784858    342.03142  0.027861797  0.028230798            4 
 1024000    1.1123781   -7.2088194    341.47506  0.027789312   0.02822319            2 
 1025000    1.1086978   -7.2093372    341.86206  0.027793663  0.028215358            6 
 1026000    1.0979516   -7.1639461    342.58982  0.027825684  0.028207642           10 
 1027000    1.0981493   -7.2076105    342.30698   0.02777564   0.02819998            4 
 1028000    1.0789934   -7.2538031     341.3222   0.02766879  0.028192149            4 
 1029000     1.088972   -7.2421588    342.67968  0.027751837  0.028184322            3 
 1030000    1.1107605   -7.2056315    343.14163  0.027762268  0.028176349            2 
 1031000     1.082358   -7.1936559    342.97071  0.027721525  0.028168547            3 
 1032000    1.0939555   -7.1645195    343.72542  0.027755606  0.028161033            2 
 1033000     1.061916   -7.1901395    343.88093  0.027741282  0.028153534            4 
 1034000    1.0927154   -7.1756489     344.8539  0.027792867  0.028145855            2 
 1035000    1.0706623   -7.1707106    344.81596   0.02776296  0.028138144            4 
 1036000    1.0936756   -7.2342019    343.08333  0.027596793  0.028130285            3 
 1037000    1.0920509     -7.21353    344.65709  0.027696648  0.028122443            5 
 1038000    1.0867775   -7.2099204    345.14679   0.02770928  0.028114629            5 
 1039000    1.0955508   -7.2558573    344.51072  0.027631595  0.028106805            5 
 1040000    1.1011216    -7.170847    345.16259  0.027657259  0.028098915            2 
 1041000    1.1081389   -7.2189742    344.85197  0.027605825  0.028091232            5 
 1042000    1.0966017     -7.18718    345.59584  0.027638823  0.028083115            5 
 1043000    1.0965207   -7.1625916    346.15079  0.027656662  0.028075209            3 
 1044000     1.090174   -7.1468061    347.62716  0.027748017  0.028067388            3 
 1045000    1.1006098   -7.1452596    346.66019  0.027644354  0.028059516            4 
 1046000    1.0921054   -7.1696864    347.72395  0.027702673   0.02805168           10 
 1047000    1.1140814   -7.1422549    346.95704  0.027615174  0.028043894            1 
 1048000    1.0953919   -7.1644151    346.49094   0.02755176  0.028035917            2 
 1049000    1.0680622   -7.1952382    346.92046  0.027559617  0.028027816            4 
 1050000    1.0786666   -7.2302028    346.77933  0.027522169   0.02801955            4 
 1051000    1.0632424   -7.2009629    346.86041  0.027502411  0.028011228            4 
 1052000    1.0778696   -7.1915025    347.61565  0.027536094   0.02800293            7 
 1053000    1.0928783   -7.1861024    348.74055  0.027598968  0.027994705            4 
 1054000    1.0941594   -7.1804431    347.58763  0.027481628  0.027986427            2 
 1055000    1.0639432   -7.2361307    347.47752  0.027446881  0.027978152            5 
 1056000    1.0757791   -7.2072928    348.41173  0.027494613  0.027969893            3 
 1057000    1.0820542   -7.2027296    348.48483  0.027474364   0.02796168            7 
 1058000    1.0705644   -7.1711793    348.17366  0.027423886  0.027953712            1 
 1059000    1.0996371   -7.2355222    348.48647  0.027422605  0.027945617            2 
 1060000     1.085507   -7.1875917    349.62539  0.027486273  0.027937492            3 
 1061000    1.0741492   -7.2150725    348.83062  0.027397944  0.027929387            6 
 1062000    1.0848474     -7.23641    348.88802  0.027376649  0.027920785            2 
 1063000     1.085779   -7.2011582    350.57283  0.027482975  0.027912432            5 
 1064000    1.0805201   -7.1732806     350.7515  0.027471139  0.027904101            2 
 1065000    1.0764596   -7.1679018    350.84944  0.027453008  0.027896078            3 
 1066000    1.0839669   -7.2103617    349.41428  0.027315062  0.027887917            2 
 1067000    1.0891147   -7.1958169    350.25793  0.027355352  0.027879655            3 
 1068000    1.0698206   -7.1907928    351.76641  0.027447441  0.027871501            2 
 1069000    1.0782649     -7.14563    351.71733   0.02741794  0.027863227            2 
 1070000    1.0958108   -7.1893479    351.69786  0.027390799  0.027855127            4 
 1071000    1.0598251    -7.207736    350.80551  0.027295791  0.027846714            4 
 1072000      1.08045   -7.2050966    350.70255  0.027262325  0.027838065            2 
 1073000    1.0707764   -7.2043604    351.36165  0.027288106   0.02782947            4 
 1074000    1.0722995   -7.2027362    351.92068  0.027306074  0.027820922            3 
 1075000    1.0790911   -7.1985719    353.14764  0.027375786  0.027812623            2 
 1076000    1.0654084     -7.20388    352.92112    0.0273328  0.027804357            5 
 1077000    1.0825212   -7.2493437    352.88361   0.02730452  0.027795938            2 
 1078000    1.0754597   -7.2361141    352.86993  0.027278133  0.027787612            6 
 1079000    1.0418737   -7.2114594    353.77198  0.027322519   0.02777962            5 
 1080000    1.0814395   -7.2119766    354.58902  0.027360264  0.027771263            3 
 1081000    1.0674013   -7.2063152    353.43676  0.027246127  0.027762806            4 
 1082000    1.0565829   -7.2528396     351.9316  0.027105022  0.027754137            2 
 1083000    1.0898326   -7.1540271    355.96161   0.02739009    0.0277458            4 
 1084000    1.0542507   -7.1891808    354.74818  0.027271539   0.02773746            2 
 1085000    1.1010659   -7.1996081    353.52441  0.027152412  0.027728905            4 
 1086000    1.0808877   -7.1772034    354.34205  0.027190151  0.027720518            3 
 1087000    1.0786543   -7.1562494    355.54532  0.027257384  0.027711968            4 
 1088000    1.0613401    -7.250928    354.90695  0.027183437  0.027703547            6 
 1089000    1.0656078   -7.2680088     354.0446  0.027092485  0.027694969           11 
 1090000     1.090173   -7.2399786    355.06086  0.027145326  0.027686495            7 
 1091000    1.0810778   -7.2434531    354.87393  0.027106167  0.027677887            2 
 1092000    1.0908343   -7.1916339    356.08916  0.027174081  0.027669336            4 
 1093000    1.0649648   -7.2568162    355.59656  0.027111662  0.027660731            8 
 1094000     1.098674   -7.2549064    355.22093  0.027058267   0.02765212            6 
 1095000    1.0579675   -7.1951423     356.8313  0.027156111  0.027643564            3 
 1096000    1.0724427   -7.2509773    355.81991  0.027054434  0.027634968            3 
 1097000    1.0918931   -7.2235023    357.55918  0.027161894  0.027626678            6 
 1098000    1.0597899   -7.1939973    357.63316  0.027142771  0.027618579            2 
 1099000    1.0872721    -7.250953    357.11136  0.027078508   0.02761025            2 
 1100000     1.049586   -7.2000325    358.79838  0.027181695  0.027602006            3 
 1101000    1.0811361   -7.2569378    357.87468  0.027087093  0.027593649            5 
 1102000    1.0834451    -7.260196    358.10683  0.027080069   0.02758511            2 
 1103000    1.0707265    -7.251497    358.06707  0.027052514  0.027576599            5 
 1104000    1.0806509   -7.1778498     360.3901  0.027203359  0.027568343            3 
 1105000    1.0936453   -7.2350305    358.20151  0.027013689   0.02756011            4 
 1106000    1.0909572   -7.2338508    359.28764    0.0270711  0.027551697            2 
 1107000    1.0862095   -7.2632058     359.0741   0.02703057    0.0275432            2 
 1108000    1.0826163   -7.2373001    359.43392  0.027033237  0.027534624            3 
 1109000    1.1127209   -7.2955288    358.46788   0.02693627  0.027526004            6 
 1110000     1.092192   -7.2174333    359.34737  0.026978031  0.027517404            5 
 1111000    1.0725593   -7.2706041    358.33337  0.026877691  0.027508727            7 
 1112000    1.0648867   -7.2637127    359.08552  0.026909886  0.027499576            2 
 1113000    1.0886208   -7.2166412    360.33878  0.026979544  0.027490841            3 
 1114000    1.0643932   -7.2412932    360.33626  0.026955136  0.027482114            2 
 1115000    1.0713273   -7.2730227    360.08344  0.026912066  0.027473275            5 
 1116000    1.0863759   -7.2538178    360.74827  0.026937595  0.027464546            7 
 1117000    1.0705122   -7.2643575    360.32078  0.026881586  0.027455839            3 
 1118000    1.0643278   -7.2365595    360.24289  0.026851736  0.027447118            5 
 1119000    1.0921559   -7.2100988    361.16304  0.026896265  0.027438435            3 
 1120000    1.0658602    -7.229247     361.2749  0.026880573  0.027429603            6 
 1121000    1.0595842   -7.2310909    362.15631  0.026922116  0.027420832            4 
 1122000    1.0820373   -7.2668605    361.43028  0.026844198  0.027412039            4 
 1123000     1.082839    -7.290872     361.4615   0.02682261  0.027403197            4 
 1124000    1.0586958   -7.2211716    362.62655  0.026885124  0.027394466            4 
 1125000    1.0883567   -7.2514231    362.39671    0.0268442  0.027385709            4 
 1126000    1.0755378   -7.1911814    363.60864  0.026910053  0.027377066            2 
 1127000    1.0729939   -7.2069661    364.22314  0.026931613  0.027368559            5 
 1128000    1.0575048   -7.2193927    363.24687  0.026835614  0.027359986            4 
 1129000     1.084955   -7.2539475    363.59816  0.026837774  0.027351403            5 
 1130000    1.0744445    -7.239888     362.6766  0.026746062  0.027342473            3 
 1131000     1.065392   -7.2255611     362.8853  0.026737791  0.027333601            2 
 1132000    1.0633815   -7.2410011    362.98761  0.026721703  0.027324514            3 
 1133000    1.0720747   -7.2309871    362.80801  0.026684908  0.027315526            2 
 1134000    1.0792197   -7.2355217    364.16458  0.026761065  0.027306551            2 
 1135000    1.0767042    -7.220466    364.30016  0.026747442  0.027297508            7 
 1136000     1.083799    -7.225193    364.50474  0.026738904  0.027288648            4 
 1137000    1.1074623   -7.2141629    365.40261  0.026781194  0.027279904            3 
 1138000    1.0696664   -7.2412517    364.99634   0.02672791  0.027271147            3 
 1139000    1.0747174   -7.2346062    365.34115  0.026729671  0.027262522            5 
 1140000    1.0487265   -7.2245276    365.98913  0.026753592  0.027253959            6 
 1141000    1.0688016   -7.2793211    364.89274  0.026650069  0.027245221           15 
 1142000    1.0799622   -7.2695977    364.39822  0.026590647    0.0272365            3 
 1143000       1.0567   -7.2763362    366.20151  0.026698856  0.027227789           10 
 1144000    1.0633581   -7.2210125    366.74456  0.026715076  0.027219155            3 
 1145000    1.0619617   -7.2614892    366.51041  0.026674702  0.027210528            3 
 1146000    1.0818937   -7.2255767    367.36391  0.026713489  0.027201714            4 
 1147000    1.0833422   -7.2560527    365.68637  0.026568321    0.0271931            4 
 1148000    1.0776911    -7.285806    366.14852  0.026578725  0.027184141            3 
 1149000    1.0825403   -7.3023127    365.99278  0.026544298  0.027175186            2 
 1150000    1.0746761   -7.2487662    367.86501  0.026656885  0.027166369            5 
 1151000    1.0827859   -7.2483361    366.76163  0.026553839  0.027157568            4 
 1152000    1.0642152   -7.2586794    367.91576  0.026614276  0.027148645            3 
 1153000    1.0563483   -7.2422588    368.40718  0.026626712  0.027139717            1 
 1154000    1.0595287   -7.2361178    366.59207  0.026472564  0.027130716            3 
 1155000    1.0662771    -7.190597    369.25187  0.026641549  0.027121941            3 
 1156000    1.0740795   -7.2170238    368.30979   0.02655059  0.027113258            6 
 1157000    1.0618911   -7.2615514    368.21999  0.026521175   0.02710439            2 
 1158000     1.059272   -7.2370831    370.74336  0.026679862  0.027095566            8 
 1159000    1.0822772   -7.2586784    368.33337  0.026483561  0.027086877            3 
 1160000     1.066087   -7.2343894    370.28699  0.026601077  0.027078201            3 
 1161000     1.054617   -7.2381385    369.88363  0.026549212  0.027069545            3 
 1162000     1.078942   -7.2258713    370.59542  0.026577411  0.027060801            8 
 1163000    1.0302924   -7.2711688     370.0863  0.026518079  0.027051958            4 
 1164000    1.0568162    -7.217881    371.12439  0.026569616  0.027043107            4 
 1165000    1.0615435   -7.1991877    372.79544  0.026666341  0.027034345            2 
 1166000    1.0671447   -7.2492358    370.45986  0.026476548  0.027025903            4 
 1167000     1.057928   -7.2827139    370.34719  0.026445815  0.027017267            6 
 1168000    1.0505758   -7.2684747    370.93495  0.026465108   0.02700848            5 
 1169000    1.0514239   -7.2089741    371.52492  0.026484525   0.02699981            3 
 1170000    1.0582271   -7.2323907    372.76347  0.026550104  0.026991365            3 
 1171000    1.0683247   -7.2729227     371.8388  0.026461628  0.026982635            2 
 1172000    1.0607302   -7.2580981    372.43132   0.02648118  0.026973837            2 
 1173000    1.0603655   -7.2487558    371.53297  0.026394783  0.026965094            4 
 1174000     1.076385   -7.2351665    373.35611  0.026501711  0.026956426            5 
 1175000    1.0839652   -7.2690881    372.70406  0.026432912  0.026947651            2 
 1176000    1.0730913   -7.2954397    371.89991  0.026353452  0.026938838            5 
 1177000     1.082343    -7.240428    372.50253  0.026373728   0.02692975            6 
 1178000    1.0587861    -7.261644    372.70037  0.026365335  0.026920677            5 
 1179000    1.0576543   -7.2403052    372.58191  0.026334599  0.026911701           10 
 1180000    1.0583704   -7.2077124     373.6431  0.026387225   0.02690269            2 
 1181000    1.0591271   -7.2697372    372.95066  0.026316022  0.026893472            3 
 1182000    1.0610577    -7.285586    373.19677  0.026311109  0.026884435            2 
 1183000    1.0486184   -7.2163645    374.30288  0.026366785  0.026875408            2 
 1184000    1.0608557   -7.2801288    374.66515  0.026370013  0.026866351            3 
 1185000    1.0641772   -7.2725451    374.57902  0.026341703  0.026857197            4 
 1186000    1.0793147   -7.2769504    373.53518  0.026246148  0.026848045            7 
 1187000    1.0734283   -7.2344049    373.94982  0.026253147   0.02683898            5 
 1188000    1.0673849   -7.2409255    375.67818  0.026352285  0.026830095            3 
 1189000    1.0624636   -7.2525416    375.50484  0.026317973  0.026821328            5 
 1190000    1.0566126   -7.2729905    375.03191  0.026262739  0.026812583            4 
 1191000    1.0648355   -7.2783721    375.20203  0.026252591  0.026803801            2 
 1192000    1.0483988   -7.3018219    374.56417  0.026185974  0.026794875            6 
 1193000    1.0849736   -7.2576772     375.1692  0.026206287  0.026785832            1 
 1194000    1.0543851   -7.2798966     374.9081  0.026166115  0.026776874            3 
 1195000    1.0684283   -7.2917989    375.11189   0.02615843  0.026767946            4 
 1196000    1.0641012   -7.3021827    375.34123  0.026152538  0.026758839            4 
 1197000    1.0471608   -7.2935271    376.00383  0.026176819  0.026749772            4 
 1198000    1.0596739   -7.2903772    376.56543  0.026194034  0.026740886            2 
 1199000    1.0473559   -7.2708832    376.94225  0.026198377   0.02673206            6 
 1200000    1.0799911   -7.2721651    377.82375   0.02623776  0.026723282            2 
 1201000    1.0714096   -7.3287661    376.31872  0.026111485  0.026714365            5 
 1202000    1.0657161   -7.2889638    377.36868  0.026162554  0.026705341            4 
 1203000    1.0575214   -7.3186757     376.9801  0.026113889  0.026696415            3 
 1204000    1.0676296   -7.2640625    379.18317  0.026244682  0.026687557            5 
 1205000     1.074154    -7.252611    378.28115  0.026160522  0.026678805           10 
 1206000    1.0599003   -7.2570625    378.40746  0.026147558  0.026669826            3 
 1207000    1.0576081   -7.2730859    378.85856   0.02615704  0.026660975            6 
 1208000    1.0723531   -7.3108171    378.14777  0.026086353  0.026652007            3 
 1209000    1.0614292    -7.273524    378.07718   0.02605991  0.026643208            2 
 1210000    1.0705899   -7.2507375    378.67057   0.02607924  0.026634373            4 
 1211000     1.051544   -7.2932235    379.32382  0.026102657  0.026625409            4 
 1212000    1.0591587     -7.28629    380.14429  0.026137534  0.026616511            8 
 1213000    1.0586472   -7.2685078     379.7617  0.026089702  0.026607714            9 
 1214000    1.0736892   -7.2939107    378.92963  0.026011095  0.026598937            2 
 1215000    1.0497013   -7.2459757    381.15631  0.026142408  0.026590255            3 
 1216000    1.0577042   -7.2649729    381.89576  0.026171584  0.026581705            7 
 1217000    1.0660154   -7.2759148    381.65969  0.026133915     0.026573            3 
 1218000    1.0673895   -7.2973005    381.54053  0.026104305  0.026564393            4 
 1219000    1.0574415   -7.2753692     381.6911  0.026093184  0.026555765            4 
 1220000    1.0594947   -7.2835013    381.68205  0.026071178  0.026547189            4 
 1221000    1.0490919   -7.2821105    382.51994  0.026107012  0.026538706            3 
 1222000    1.0140849    -7.311373    381.30162  0.026002566  0.026530278            3 
 1223000    1.0528137   -7.2740186    382.93469  0.026092579  0.026521519            3 
 1224000    1.0588027   -7.2970536    383.07283  0.026080667  0.026513022            3 
 1225000    1.0496984   -7.2771678    383.98127  0.026121175  0.026504485            2 
 1226000    1.0607456   -7.3378041    383.59552  0.026073649  0.026496013            2 
 1227000    1.0670813    -7.289176    382.59895  0.025984716  0.026487696            3 
 1228000    1.0256248   -7.2926812    382.80124  0.025977283  0.026479339            4 
 1229000     1.042492   -7.2438503    384.53257   0.02607354  0.026471201            4 
 1230000    1.0541089    -7.248362    385.36935  0.026109034  0.026463056            4 
 1231000    1.0667533   -7.2749046    385.15553   0.02607335  0.026454822            4 
 1232000    1.0513941   -7.2675156    384.75248  0.026024924  0.026446666            4 
 1233000    1.0627042   -7.2573326    385.44455  0.026050591  0.026438438            6 
 1234000    1.0434843   -7.2672741    385.39891  0.026026399  0.026430362            4 
 1235000    1.0491919   -7.2982419      384.231  0.025926518  0.026422119            3 
 1236000    1.0496091   -7.2792332    385.74182  0.026007404  0.026413648            3 
 1237000    1.0423541   -7.2735712    386.72899  0.026052883  0.026405171            3 
 1238000    1.0367734   -7.2623243    385.44549  0.025945442  0.026396829            4 
 1239000    1.0390727   -7.3167367    386.42111  0.025990121  0.026388478            3 
 1240000    1.0860702   -7.2640843    386.56277   0.02597868   0.02638007            5 
 1241000    1.0493157    -7.298604    387.35693  0.026011075  0.026371663            5 
 1242000    1.0790034   -7.2711051    387.78875  0.026019106  0.026363418            5 
 1243000    1.0443492   -7.2706321    387.27245  0.025963559  0.026355218            4 
 1244000    1.0382949   -7.3396193    385.55819  0.025827853  0.026346917            5 
 1245000    1.0324558   -7.2854264    386.93125  0.025899013  0.026338482            4 
 1246000    1.0454578   -7.2909034    388.48071  0.025981856  0.026330123            2 
 1247000    1.0666177   -7.3050014    388.38354  0.025954527  0.026321811            4 
 1248000    1.0456187   -7.2921915    389.30325  0.025995142   0.02631356            4 
 1249000    1.0691289   -7.2847473    387.40986  0.025848002  0.026305304            6 
 1250000    1.0421357   -7.2700222    388.97772  0.025931848  0.026297066           16 
 1251000    1.0651263   -7.3117234    387.92566  0.025841038  0.026288849            5 
 1252000    1.0621883   -7.2767558    389.78321  0.025944037  0.026280619            5 
 1253000    1.0484731   -7.3324429    390.09538  0.025944093  0.026272361            4 
 1254000    1.0734111   -7.3179501    388.97722  0.025849097  0.026263932            4 
 1255000    1.0472682   -7.3051782    389.50646  0.025863643  0.026255642            4 
 1256000    1.0917541   -7.2880277    389.43489  0.025838302  0.026247369            2 
 1257000    1.0436585   -7.3111846      389.298  0.025808672  0.026239122            5 
 1258000    1.0623799   -7.2616886    390.62781  0.025876246  0.026230919            3 
 1259000    1.0271908   -7.2777525    390.95974  0.025877663  0.026222731            4 
 1260000    1.0512735   -7.2614574    390.32557  0.025815183  0.026214599            3 
 1261000    1.0445285   -7.2253556     391.6348  0.025881232  0.026206457            6 
 1262000    1.0636363   -7.2802336    391.59705  0.025858231  0.026198204            3 
 1263000    1.0388013   -7.2085351    393.47977   0.02596198  0.026190233            3 
 1264000      1.04527   -7.2910599    392.67622  0.025888464  0.026182265            3 
 1265000    1.0722806   -7.3028827    392.09909  0.025829979  0.026174255            3 
 1266000    1.0742074   -7.2629064    392.05691    0.0258068  0.026166234            5 
 1267000    1.0370318   -7.3464013     391.5099  0.025750454  0.026158106            6 
 1268000    1.0629664   -7.2762365    392.76842  0.025812856  0.026149918            5 
 1269000    1.0670494   -7.3215087    392.24904  0.025758408  0.026141623            2 
 1270000    1.0418537   -7.2931049    392.83846  0.025776802  0.026133327            8 
 1271000    1.0472953   -7.2594689    394.26921  0.025850329  0.026125238            2 
 1272000    1.0512585   -7.3020928    393.96743  0.025810235  0.026117193            3 
 1273000    1.0381068   -7.2643428    393.94966  0.025788797  0.026109273            2 
 1274000    1.0249259    -7.303907    393.81693  0.025759873  0.026101365            2 
 1275000    1.0359418    -7.320855    393.58255   0.02572435  0.026093319            4 
 1276000    1.0587805   -7.3336703    393.21722  0.025680331  0.026085225            4 
 1277000     1.047477   -7.2849242    394.94863  0.025773207  0.026077208            2 
 1278000    1.0507654   -7.2863786    395.73207  0.025804126  0.026069258            5 
 1279000    1.0485732   -7.2956278    394.89956  0.025729708  0.026061256            4 
 1280000     1.028452   -7.2738231    396.86884  0.025837815  0.026053172            2 
 1281000     1.044176   -7.2763617    395.30276  0.025715766  0.026045142            5 
 1282000    1.0589785   -7.3334841    395.20761  0.025689522  0.026037155            6 
 1283000    1.0646277   -7.2869441    396.45821  0.025750728  0.026029104            4 
 1284000     1.059446   -7.2901269    397.29373  0.025784899  0.026021078            3 
 1285000    1.0550177   -7.2865957    396.82475   0.02573442  0.026013088            3 
 1286000    1.0465938   -7.2775573    396.08229  0.025666297  0.026005067            3 
 1287000    1.0451423   -7.3249109    396.22555   0.02565563  0.025997049            3 
 1288000    1.0645156   -7.2938218    395.98835  0.025620364  0.025989038            4 
 1289000    1.0379797   -7.3067635    397.26098  0.025682763  0.025980865            4 
 1290000    1.0633624   -7.3362977    395.71037  0.025562685  0.025972747            5 
 1291000     1.051726   -7.2889231    397.75674  0.025674976  0.025964671            9 
 1292000    1.0263959   -7.3435087    397.70304  0.025651641  0.025956729            9 
 1293000    1.0587072   -7.2934325     398.7138  0.025696945  0.025948857            5 
 1294000    1.0436112   -7.2991461     398.8447  0.025685516  0.025940969            2 
 1295000    1.0355485   -7.3341402     398.5145  0.025644433  0.025932968            1 
 1296000    1.0302176   -7.3175159    398.56456  0.025627865   0.02592509            5 
 1297000    1.0601331   -7.2914739    398.54126  0.025606609  0.025917168            5 
 1298000     1.035921   -7.2791741    399.94439  0.025676964  0.025909375            3 
 1299000     1.017883   -7.3207976     398.4681   0.02556249  0.025901477            3 
 1300000    1.0565685   -7.2768007    400.12419  0.025648987  0.025893555            3 
 1301000    1.0423193   -7.3096389     400.1009   0.02562778  0.025885653            4 
 1302000    1.0438014   -7.2710151    400.63868  0.025642517  0.025877747            3 
 1303000     1.068072   -7.2947977    399.99083  0.025581404  0.025869755            4 
 1304000    1.0235771   -7.2984209    401.10045  0.025632697  0.025861695            2 
 1305000    1.0599216   -7.3058854    399.02943  0.025480806  0.025853778            2 
 1306000    1.0459586   -7.3638687    399.02281  0.025460874  0.025845704            7 
 1307000    1.0243194   -7.3305311    400.96803  0.025565419  0.025837547            6 
 1308000     1.022302     -7.28425    401.55106  0.025583019  0.025829652            4 
 1309000    1.0240785   -7.3377318    401.35348  0.025550896  0.025821631            5 
 1310000    1.0453001   -7.3228914     401.1111  0.025515973  0.025813745            3 
 1311000    1.0492512   -7.3341831    400.84679   0.02547971  0.025805766            3 
 1312000    1.0278782   -7.2965342    401.60466  0.025508426  0.025797934            3 
 1313000    1.0566557   -7.2648534    402.79895  0.025564798  0.025790049            5 
 1314000    1.0371913   -7.2687723    403.27876  0.025575771  0.025782463            4 
 1315000    1.0599562   -7.3111772    402.50595  0.025507348   0.02577463            4 
 1316000    1.0404523   -7.3365524    401.90247  0.025449751  0.025766758            4 
 1317000    1.0491627   -7.3321509    403.65698  0.025541444  0.025758932            5 
 1318000    1.0063556   -7.3107119    403.45978  0.025509597  0.025751053            3 
 1319000     1.048797   -7.2807595    403.49833  0.025492692   0.02574323            3 
 1320000    1.0324005   -7.2941976    403.17319  0.025452853  0.025735433            3 
 1321000    1.0488839   -7.2981945    403.24324  0.025438004  0.025727349            7 
 1322000    1.0206363   -7.3704884     403.2132  0.025416869  0.025719376            3 
 1323000    1.0493094   -7.3134754    402.86186  0.025375526  0.025711377            2 
 1324000    1.0314923    -7.332942    402.72882  0.025347987  0.025703325            6 
 1325000    1.0093551   -7.3219909    404.88488  0.025464458  0.025695472            3 
 1326000    1.0511858   -7.3389708    403.72382  0.025372286  0.025687534            4 
 1327000    1.0625987   -7.2725384    405.25167  0.025449113  0.025679651            2 
 1328000    1.0325912   -7.3072715    403.42041  0.025315036  0.025671735            4 
 1329000    1.0206852   -7.3188274    404.91402  0.025389643  0.025663892            9 
 1330000     1.046232   -7.2930443    405.25808   0.02539211  0.025655968            5 
 1331000    1.0560729   -7.3460784    403.93626  0.025290274  0.025647954            4 
 1332000    1.0433751   -7.3177635    405.76298  0.025385572  0.025640046            1 
 1333000    1.0388424   -7.3555327    404.52693  0.025289256  0.025632087            1 
 1334000    1.0455689   -7.3199384    404.27355  0.025254469  0.025624072            5 
 1335000    1.0105025     -7.34305    405.98014  0.025342081  0.025616001            6 
 1336000    1.0213063   -7.3464508    404.57894  0.025235713  0.025607911            2 
 1337000    1.0475078   -7.3762254    404.43225  0.025207694  0.025599816            8 
 1338000    1.0385955   -7.3529065    405.57829  0.025260232   0.02559177            5 
 1339000    1.0340725   -7.3560525    406.53295  0.025300781  0.025583625            4 
 1340000    1.0487924   -7.3492276    405.89236  0.025242062  0.025575647            4 
 1341000    1.0526533   -7.3271945    405.31471  0.025187342  0.025567615            8 
 1342000    1.0354975   -7.3536638    407.47625  0.025302798  0.025559711            3 
 1343000     1.045814   -7.3375249    406.88318  0.025247157  0.025551777           11 
 1344000    1.0353679   -7.2902931    406.86115  0.025227006   0.02554383            4 
 1345000    1.0167107   -7.3487402    407.20334  0.025229451  0.025535912            6 
 1346000    1.0604425   -7.3364043    407.78848  0.025246934   0.02552799            5 
 1347000    1.0386865   -7.3339908    406.69112  0.025160302  0.025520061            3 
 1348000    1.0380061   -7.3250309    408.39474  0.025246955  0.025512199            4 
 1349000    1.0245944   -7.3224641     407.2789  0.025159309  0.025504351            5 
 1350000    1.0267849    -7.343708    407.63289  0.025162524  0.025496337            3 
 1351000    1.0321534   -7.3537572    408.17217  0.025177163  0.025488344            2 
 1352000    1.0285627   -7.3271846    409.86284  0.025262749  0.025480404            4 
 1353000    1.0267976   -7.2879452    411.23687  0.025328706  0.025472607            3 
 1354000    1.0331053   -7.3547731    409.02159  0.025173658  0.025464883            2 
 1355000     1.065291   -7.3207702    408.56888  0.025127238  0.025456939            2 
 1356000    1.0166364   -7.3663274    407.17353  0.025022955  0.025448721            4 
 1357000    1.0378733   -7.3103013    408.54456  0.025088711  0.025440498            4 
 1358000    1.0521198   -7.3748631    407.39722  0.024999829   0.02543218            4 
 1359000    1.0375079   -7.3520176    408.00198  0.025018518  0.025423841            3 
 1360000    1.0283273   -7.3418937    408.82584  0.025050603  0.025415568            3 
 1361000    1.0617227   -7.3570208    409.36011   0.02506491  0.025407291            5 
 1362000    1.0374333   -7.3394801    408.75522  0.025009497  0.025398922            4 
 1363000    1.0397513   -7.3744582    408.94732  0.025002893  0.025390516            5 
 1364000     1.050401   -7.3863525     409.0566  0.024991239  0.025382072            6 
 1365000    1.0188707   -7.3827231    408.44911  0.024935843   0.02537361            2 
 1366000    1.0269445   -7.3698559    410.52486   0.02504422  0.025365102            5 
 1367000     1.023949   -7.3363516    409.60258  0.024969677  0.025356875            3 
 1368000    1.0067526   -7.3694764    410.26089  0.024991526  0.025348381            2 
 1369000    1.0203825   -7.3417205    410.35005  0.024978698  0.025339936            3 
 1370000    1.0376363   -7.3629226    410.49238  0.024969123  0.025331584            4 
 1371000    1.0030464   -7.3588963    409.82075  0.024910087  0.025323192            6 
 1372000    1.0108828   -7.3666545    410.32026   0.02492227  0.025314566            3 
 1373000     1.040791   -7.3394913    411.40934  0.024970219  0.025306094            8 
 1374000    1.0378803    -7.354479    411.12932  0.024935063  0.025297681            4 
 1375000    1.0168155   -7.3237078    411.32482  0.024928777  0.025289222            3 
 1376000    1.0114329   -7.3480107    410.82039  0.024880111  0.025280851            3 
 1377000    1.0543904   -7.3613026    410.84483  0.024863522  0.025272467            4 
 1378000    1.0340179    -7.321538    411.58281  0.024890107  0.025264125            5 
 1379000    1.0191375   -7.3104139    410.80561  0.024825091  0.025255758            8 
 1380000    1.0217939   -7.3820736    411.84931  0.024870127  0.025247499            2 
 1381000    1.0445292   -7.3692887    412.54879  0.024894327  0.025239199            5 
 1382000    1.0437778    -7.353307    412.66028  0.024883037  0.025230878            3 
 1383000    1.0296836   -7.3740111    412.93415  0.024881547  0.025222733            2 
 1384000    1.0301814   -7.3918726    413.59512  0.024903367  0.025214575            2 
 1385000    1.0197587   -7.3501304    413.97374  0.024908167  0.025206387            4 
 1386000    1.0430339   -7.3655216    414.22046   0.02490503  0.025198253            6 
 1387000    1.0257743   -7.4032112    414.79978  0.024921881  0.025190141            4 
 1388000    1.0345381   -7.3361857    415.27322   0.02493235  0.025181961            7 
 1389000    1.0382004   -7.3525453    415.27901  0.024914747  0.025173905            2 
 1390000    1.0561288   -7.3516857    414.61092   0.02485677  0.025165718            3 
 1391000    1.0439829   -7.3413549    415.24961  0.024877163  0.025157617            3 
 1392000    1.0110852   -7.3736065    413.85297  0.024775681  0.025149431            4 
 1393000    1.0179145   -7.3677697    413.58418  0.024741815  0.025141228            4 
 1394000    1.0522463   -7.3815204    414.23779  0.024763139  0.025132784            2 
 1395000    1.0098911   -7.3724901    414.47875  0.024759782  0.025124365            8 
 1396000     1.078222   -7.3600195    414.15637  0.024722802  0.025115995            5 
 1397000    1.0214733    -7.420507    413.63456  0.024673978  0.025107589            3 
 1398000    1.0306245   -7.3895339    415.66595  0.024777417  0.025099178           10 
 1399000   0.99538643   -7.3781462    415.17495  0.024730459  0.025090766            4 
 1400000    1.0293755   -7.3390942    415.94142  0.024758418   0.02508224            3 
 1401000    1.0195454   -7.3669921    414.64799  0.024663811  0.025073816            2 
 1402000    1.0242809   -7.3834498    416.68332  0.024767197  0.025065344            5 
 1403000    1.0126767    -7.395155    414.53425  0.024621896  0.025056857            2 
 1404000    1.0260965   -7.3380511    415.03047  0.024633812  0.025048283            2 
 1405000    1.0230583   -7.3821032    415.93266   0.02466979  0.025039801            7 
 1406000    1.0134542   -7.3666096    416.45476  0.024683189  0.025031298            2 
 1407000    1.0437998   -7.3181771    416.87868  0.024690754  0.025022974            2 
 1408000    1.0164643   -7.3514697     416.3495  0.024641897  0.025014599            3 
 1409000    1.0295821   -7.3736401    416.20756  0.024616013  0.025006122            3 
 1410000    1.0514155   -7.4125427    416.40029  0.024609946  0.024997563            7 
 1411000    1.0071616   -7.3817829    415.57894  0.024543996  0.024989039            8 
 1412000    1.0255766    -7.314193    418.99729  0.024728358  0.024980552            3 
 1413000    1.0279544     -7.37129    416.35446  0.024554993  0.024972184            6 
 1414000    1.0459071    -7.354396    417.10215  0.024581692    0.0249637            2 
 1415000    1.0309738   -7.3423083    416.43041  0.024524759  0.024955151            3 
 1416000      1.01705    -7.373123    416.31285  0.024500521  0.024946551            5 
 1417000    1.0305536   -7.3410111    418.19381  0.024593849   0.02493806            8 
 1418000    1.0246174   -7.3811708    417.63297  0.024543545  0.024929747            5 
 1419000    1.0005706   -7.3494063    419.06076  0.024610099  0.024921312            2 
 1420000    1.0334842    -7.344366    418.64878   0.02456859  0.024912961            6 
 1421000    1.0362564   -7.3730176    418.81679  0.024561154  0.024904713            5 
 1422000    1.0281372   -7.3820691    418.59226  0.024530723  0.024896401            5 
 1423000    1.0254122   -7.3663642    419.93027  0.024591841  0.024888054            4 
 1424000    1.0559574   -7.3772865    418.92447  0.024515711  0.024879672            4 
 1425000    1.0204649    -7.353049    419.50362  0.024532375  0.024871389            5 
 1426000    1.0207504   -7.3561194    419.15097  0.024494563  0.024862957            7 
 1427000    1.0382644   -7.3718228    419.71109  0.024510108  0.024854501            5 
 1428000    1.0317732   -7.3654892    419.20601  0.024463469  0.024846011            8 
 1429000    1.0475422   -7.3694866    418.18925  0.024387057  0.024837575            3 
 1430000   0.99785714   -7.4015508    420.08059  0.024480221  0.024829036            5 
 1431000   0.98638795   -7.3610949    420.25226  0.024473111  0.024820419            9 
 1432000    1.0133703   -7.3563141    419.91011   0.02443611  0.024811906            3 
 1433000     1.017159     -7.38277    419.83176  0.024414501   0.02480335            5 
 1434000    1.0111627   -7.4291973    418.03937  0.024293315  0.024794626            3 
 1435000    1.0312405   -7.3427325     419.8228  0.024379953  0.024786037            3 
 1436000    1.0193607    -7.361707     421.3523  0.024451735  0.024777506            5 
 1437000    1.0355858   -7.3919492    420.20499  0.024368185  0.024769006            3 
 1438000    1.0230048   -7.3547398    420.59151  0.024373639  0.024760359            3 
 1439000     1.042015   -7.3842319    419.58884  0.024298636  0.024751659            5 
 1440000     1.014309   -7.3549317    421.68167  0.024402875  0.024743069            3 
 1441000   0.99489157   -7.3927015    421.17813   0.02435682  0.024734596            2 
 1442000    1.0173723   -7.4072994     420.4265  0.024296492   0.02472592            3 
 1443000    1.0253201   -7.3823758    420.54473  0.024286483  0.024717283            5 
 1444000    0.9944716    -7.395948    421.36839  0.024317197   0.02470858            3 
 1445000    1.0240874   -7.4106414    420.67304  0.024260268  0.024699918            3 
 1446000    1.0304721   -7.3615838     421.0668  0.024266183  0.024691311            2 
 1447000     1.028401   -7.4362094    420.82447  0.024235457  0.024682781            7 
 1448000    1.0273178     -7.36938    423.23105   0.02435722  0.024674286            8 
 1449000     1.020756   -7.3676915    421.60962   0.02424716   0.02466573            4 
 1450000    1.0135295    -7.356943    423.57622  0.024343461  0.024657327            7 
 1451000    1.0350106   -7.3780152    422.55981   0.02426831  0.024648812            4 
 1452000     1.022605   -7.3732339    423.51216  0.024306254  0.024640316            4 
 1453000    1.0122188   -7.3492216    424.81602  0.024364305  0.024631804            2 
 1454000    1.0076491   -7.3565983    423.73462   0.02428557    0.0246233            3 
 1455000    1.0212939   -7.3601633    423.42465  0.024251125  0.024614974            6 
 1456000    1.0057517   -7.4023415    423.53251  0.024240643  0.024606695            2 
 1457000    1.0190925   -7.4191816    423.41229   0.02421713  0.024598285            4 
 1458000    1.0186651   -7.4082325    423.28429  0.024193203  0.024589926            5 
 1459000    1.0260703   -7.3987893    423.58606  0.024193858  0.024581592            4 
 1460000    0.9893472   -7.3869091    424.48982  0.024228871  0.024573332            9 
 1461000    1.0032004   -7.3811392    424.80733  0.024230398   0.02456497            3 
 1462000    1.0152023   -7.3898066    423.85015  0.024159265   0.02455649            4 
 1463000    1.0048375   -7.4049658    424.18274  0.024161696  0.024548076            3 
 1464000    1.0347523   -7.4169972    425.20573  0.024203423  0.024539583            3 
 1465000    1.0117678   -7.3727398    425.86606  0.024224463  0.024531245            3 
 1466000   0.99406402    -7.386875    424.98544  0.024157881  0.024522905            6 
 1467000    1.0391154   -7.4217142    425.89509  0.024193086  0.024514502            5 
 1468000    1.0092053   -7.4067158    425.73603  0.024167576  0.024506057            4 
 1469000    1.0297476   -7.3669375    426.36255  0.024186666   0.02449767            7 
 1470000    1.0000967   -7.4060119    425.59305   0.02412659   0.02448933            3 
 1471000    1.0179356   -7.3898582    426.44837  0.024158643  0.024481104            4 
 1472000    1.0239939   -7.4015555    426.99465  0.024173157  0.024472979            3 
 1473000     1.020562   -7.4279944    427.64816  0.024193718  0.024464743            3 
 1474000    1.0246306    -7.414912    426.78171  0.024128319  0.024456559            4 
 1475000   0.99851637   -7.4202243    427.47207  0.024150964  0.024448267            3 
 1476000    1.0156661   -7.3732984    428.00751  0.024164832  0.024440137            7 
 1477000    1.0107173   -7.4062863    427.29363  0.024108194  0.024432054            4 
 1478000   0.98866217   -7.4013975    427.51336  0.024104271  0.024423837            7 
 1479000    1.0203223    -7.401961    428.27219   0.02413073  0.024415551            6 
 1480000    1.0400645   -7.4274356    427.82602  0.024089303  0.024407284            2 
 1481000    1.0000403   -7.4312996    427.64108  0.024062631  0.024398953            7 
 1482000   0.99363624   -7.4082946    427.49919  0.024038416  0.024390609           11 
 1483000    1.0157639   -7.3971221    429.54236  0.024137017  0.024382458            4 
 1484000    1.0190128   -7.3947027    428.10019  0.024039768  0.024374308            3 
 1485000   0.99860179    -7.424455    427.40775  0.023984722  0.024365885            4 
 1486000   0.99597413   -7.4123202    427.60807  0.023979815  0.024357684            3 
 1487000    1.0201572   -7.4205952    428.30865   0.02400295  0.024349409           12 
 1488000    1.0158273   -7.4097711    428.86719    0.0240181  0.024340969            5 
 1489000    1.0226918   -7.4115755    429.83599  0.024056189  0.024332568            2 
 1490000     1.016511   -7.4371412    429.38244  0.024014678  0.024324262            2 
 1491000    1.0138353   -7.4106373    430.15919  0.024041984  0.024316008            4 
 1492000    1.0089639   -7.4413206    429.88134  0.024010352  0.024307668            2 
 1493000    1.0163653   -7.4316035     429.1776   0.02395499  0.024299304            7 
 1494000    1.0235228   -7.4273008     429.9825  0.023983852  0.024290897            3 
 1495000    1.0164148    -7.447021    428.42598  0.023881047  0.024282472            9 
 1496000    1.0026145   -7.4283778    429.78812   0.02394096  0.024273946            4 
 1497000    1.0020081   -7.3813094     431.0986  0.023997918  0.024265623            7 
 1498000   0.99604728   -7.4293425    430.36064  0.023940845  0.024257321            2 
 1499000    1.0307224   -7.4301814    431.11251  0.023966673  0.024249017            4 
 1500000    1.0207021   -7.3689202     430.6588  0.023925489  0.024240758            4 
 1501000    1.0284564   -7.4024857    429.93202  0.023869199  0.024232394            4 
 1502000    1.0048743   -7.4385088    429.82169  0.023847186   0.02422407            3 
 1503000    1.0171908   -7.4095191    431.26934  0.023911584  0.024215691            8 
 1504000    1.0084487   -7.3680105    431.65917  0.023917286  0.024207378           13 
 1505000    1.0118573   -7.3811271    432.66307  0.023956981  0.024199016            2 
 1506000    1.0203543   -7.4167658    430.40117  0.023815913  0.024190714            4 
 1507000   0.99398809   -7.3951422    431.86076  0.023880821  0.024182287            8 
 1508000    1.0251269   -7.4214134    432.50386  0.023900522  0.024173872            8 
 1509000    1.0142989   -7.4071796    431.05236  0.023804526  0.024165532            5 
 1510000   0.99108449   -7.4273181     431.3799  0.023806838  0.024157269            4 
 1511000   0.98420536   -7.4003168    431.99104  0.023824787   0.02414892            2 
 1512000    1.0116722   -7.4100433    432.86873  0.023857404  0.024140746            7 
 1513000   0.99856166   -7.3971602    433.82071  0.023894069  0.024132564           16 
 1514000   0.98509885   -7.4261595    433.22706  0.023845611  0.024124485            3 
 1515000    1.0047922   -7.4243527    434.52818   0.02390144  0.024116281            8 
 1516000    1.0275118   -7.3918495    434.51318  0.023884849  0.024108192            5 
 1517000    1.0168717   -7.4384815    433.79605   0.02382971  0.024100116            4 
 1518000    1.0269839   -7.4127469    434.60801  0.023858586   0.02409199            1 
 1519000    1.0193948   -7.4068754    435.06664   0.02386804  0.024083888            3 
 1520000    1.0093693    -7.426482    435.06886   0.02385246  0.024075962            5 
 1521000    1.0268113   -7.4217949    434.59641  0.023810893  0.024067917            5 
 1522000    1.0195354    -7.431232    434.58446  0.023794594  0.024059886            3 
 1523000    1.0057226   -7.3750064    435.76805  0.023843732  0.024051879            4 
 1524000    1.0285314   -7.4241783    435.22012  0.023798125  0.024043943            5 
 1525000    1.0297033   -7.4428369    435.88031  0.023818596  0.024035837            6 
 1526000   0.98661364   -7.3678897    436.42195  0.023832566  0.024027794            7 
 1527000   0.99872829   -7.4266802    434.70706  0.023723372  0.024019765            2 
 1528000    1.0316474   -7.4235027    435.43021  0.023747285  0.024011678            4 
 1529000   0.99877998   -7.4406449    436.85585  0.023809453  0.024003649            6 
 1530000    1.0212398    -7.400371    436.35997  0.023766883  0.023995692            5 
 1531000     1.005156   -7.4478891    437.65547  0.023821874  0.023987769            5 
 1532000    1.0023691   -7.4009682    436.68158   0.02375335  0.023979854            3 
 1533000    1.0198515   -7.4089081    438.22206  0.023821595  0.023971929            7 
 1534000    1.0184998   -7.4264206    437.03924   0.02374181  0.023963948           10 
 1535000   0.99735945   -7.4423702    435.58511    0.0236474  0.023955969            4 
 1536000    1.0169332   -7.4066369    436.32604  0.023672202  0.023947998            3 
 1537000    1.0114926   -7.3995951    438.53324  0.023776471  0.023940127            2 
 1538000    1.0171435   -7.4464853    437.01658  0.023678835  0.023932133            4 
 1539000    1.0211676   -7.3920799    437.72993  0.023702076  0.023924168            3 
 1540000    1.0293772    -7.398435    439.03679  0.023757402    0.0239162            2 
 1541000    1.0303077   -7.3711429    439.63275  0.023774213  0.023908321            3 
 1542000   0.99768256   -7.4157324    438.96418  0.023722664  0.023900461            3 
 1543000   0.97833883   -7.4036528    439.26008  0.023723271  0.023892603            7 
 1544000   0.98802687   -7.4094804    440.41915  0.023770464  0.023884824            3 
 1545000    1.0120517    -7.431483    438.72285  0.023663584  0.023877102            3 
 1546000    1.0143038   -7.4039986    439.86366   0.02370977  0.023869267            5 
 1547000   0.99485325   -7.3909775    439.56164  0.023678175  0.023861486            9 
 1548000   0.98616786    -7.391949    439.69609  0.023670117  0.023853595            4 
 1549000    1.0135659   -7.4018237    438.73012  0.023602869    0.0238457            8 
 1550000    1.0030529   -7.4614521    437.92864   0.02354455  0.023837723            9 
 1551000     1.011558   -7.4297768    439.30157  0.023603136  0.023829726            4 
 1552000    1.0049542   -7.4590746    439.52869  0.023600123  0.023821812            3 
 1553000    1.0062763   -7.3889801     440.6982  0.023647682   0.02381399            7 
 1554000   0.97332369   -7.4350197    440.70185   0.02363266  0.023806186            6 
 1555000    1.0116909   -7.3987669    441.19636  0.023643963  0.023798275            5 
 1556000    1.0141407   -7.4405239    439.55373  0.023540795  0.023790273            2 
 1557000    1.0035164   -7.4702822     440.3555  0.023568588  0.023782373            4 
 1558000    1.0164374   -7.4035852    440.51927  0.023562221  0.023774505            3 
 1559000   0.98332003   -7.4210547    440.98075  0.023571774  0.023766634            3 
 1560000    1.0246568   -7.4329221    442.27063  0.023625568  0.023758808            3 
 1561000    1.0010351   -7.4203401    440.71303  0.023527281  0.023750996            2 
 1562000   0.96483216    -7.439743    441.37747  0.023547667  0.023743061            3 
 1563000    1.0025163   -7.4533492     440.6503  0.023493832  0.023735182           13 
 1564000    0.9831218   -7.4830959    440.87892  0.023490991   0.02372724            5 
 1565000   0.99891375   -7.4823316     440.6687  0.023464787  0.023719314            4 
 1566000    1.0032634   -7.4232024      442.878  0.023567369  0.023711433            5 
 1567000    1.0036581   -7.4797638    441.29375  0.023468079  0.023703449            5 
 1568000     0.986884   -7.4451739    441.79247  0.023479617  0.023695612            7 
 1569000   0.98532118   -7.4937679    441.29598  0.023438282   0.02368754            6 
 1570000    1.0021372   -7.4171796    442.22624   0.02347273  0.023679448            3 
 1571000    1.0000972   -7.4711633    441.04276  0.023395012  0.023671492            4 
 1572000    1.0036337    -7.458461    441.81398  0.023421012  0.023663421            9 
 1573000    1.0021134   -7.4502015    442.56901  0.023446122  0.023655509            9 
 1574000     1.014491   -7.4063128    443.08926  0.023458771  0.023647561            4 
 1575000    1.0005465    -7.476383    441.49391  0.023359466  0.023639606            2 
 1576000    1.0036605   -7.4427001     442.7041  0.023408635  0.023631564            7 
 1577000   0.98067795   -7.4471811     444.2564  0.023475819  0.023623594            4 
 1578000    1.0057192   -7.4838711    442.69117  0.023378283  0.023615669            7 
 1579000    1.0164004   -7.4626947    442.70286  0.023364095  0.023607651            6 
 1580000    1.0059695   -7.4669964     442.6062  0.023344209   0.02359968            3 
 1581000    1.0082966   -7.4422987    444.24888  0.023416028  0.023591769            4 
 1582000   0.99865799    -7.421864    444.18096  0.023397649  0.023583833            4 
 1583000   0.98086256   -7.4570042    442.67644  0.023303666  0.023575864            5 
 1584000   0.99943428   -7.4157538    444.14723  0.023366332   0.02356795            7 
 1585000    1.0005815    -7.449986    445.46052  0.023420637  0.023560132            8 
 1586000   0.99550815   -7.4508306    444.18863  0.023339041  0.023552239            3 
 1587000    1.0057506   -7.4284434     445.3399  0.023384788  0.023544291            3 
 1588000   0.99520994   -7.4488014    444.60339  0.023331412  0.023536425            8 
 1589000   0.98582276   -7.4100935    446.92658  0.023438566   0.02352862            5 
 1590000    0.9858036   -7.4162427    445.40343  0.023343995  0.023520932            4 
 1591000    0.9958303   -7.4670066    445.24783  0.023321173  0.023513125            6 
 1592000    1.0159637   -7.4606009    445.81838  0.023336389  0.023505293            4 
 1593000   0.97062217   -7.4076427    446.48229  0.023356471  0.023497382            3 
 1594000   0.98272311   -7.4490243    445.61544  0.023296499  0.023489443            4 
 1595000   0.99357474   -7.4785424    445.19883  0.023260127  0.023481493            2 
 1596000   0.99844543   -7.4335482    445.37506  0.023254754  0.023473569            6 
 1597000   0.99198898   -7.4695658    445.47306  0.023245307  0.023465621            3 
 1598000   0.98789934   -7.4252856     447.2705  0.023324494  0.023457626            6 
 1599000    1.0213507   -7.4393534    445.90178  0.023238575  0.023449564            4 
 1600000   0.98461944   -7.3946193    446.40827  0.023250431  0.023441595            6 
 1601000   0.99956542   -7.4592316    444.84291   0.02315443  0.023433569            3 
 1602000   0.98926188   -7.4231254    445.81445  0.023190515  0.023425442           10 
 1603000   0.98786651   -7.4814308    445.42415  0.023155757  0.023417389            3 
 1604000   0.99349671   -7.4827591    444.95653  0.023117027  0.023409333            5 
 1605000   0.97512858   -7.4829695    446.10711  0.023162363   0.02340123            2 
 1606000   0.99608742   -7.4734674     446.4991   0.02316828  0.023393175            6 
 1607000    1.0067124   -7.4450657     446.2873   0.02314288  0.023385126           20 
 1608000   0.99807654   -7.4511998     446.5567  0.023142449  0.023377094            6 
 1609000   0.99893099   -7.4403742    446.65687  0.023133254  0.023369073            3 
 1610000    1.0269452   -7.4698588    446.20926  0.023095717  0.023360981            4 
 1611000   0.99584423   -7.4598057    446.34757  0.023088536  0.023352824           13 
 1612000   0.99960829   -7.5339918    444.79186  0.022993789  0.023344588           10 
 1613000    1.0041206   -7.4860347    446.21306  0.023052958  0.023336281            4 
 1614000    1.0013245    -7.467547    446.96846  0.023077677  0.023328081           10 
 1615000   0.97737426   -7.4968868    446.63265   0.02304606  0.023319888            8 
 1616000   0.99581459   -7.4481413    446.27248  0.023013226  0.023311733            6 
 1617000   0.98488937   -7.5051561    447.08335  0.023040783  0.023303609            7 
 1618000   0.97978671    -7.435388    447.71607   0.02305913  0.023295388            4 
 1619000   0.97463378   -7.4832242    446.93515  0.023004692  0.023287245            5 
 1620000   0.99704114   -7.4806185    445.92606  0.022938583  0.023279028            4 
 1621000   0.99862059   -7.4823118    447.79821  0.023020677  0.023270783           10 
 1622000   0.98443429   -7.4289367    448.59206   0.02304727  0.023262537            6 
 1623000    0.9940868   -7.4856074    447.83615  0.022994257  0.023254353            7 
 1624000    1.0026731   -7.4140709    447.80929   0.02297872    0.0232461            2 
 1625000   0.98502175   -7.4614867    448.24836  0.022987096  0.023237986            9 
 1626000   0.98548104   -7.4611407    447.45674  0.022932387  0.023229782            3 
 1627000   0.99257492   -7.4551565    447.85272  0.022938574  0.023221591            3 
 1628000    0.9794814     -7.49644    448.68641  0.022967158  0.023213372            6 
 1629000   0.98820475   -7.4563084     449.1141  0.022974938  0.023205218            8 
 1630000   0.96562018   -7.4592805    449.74828  0.022993266  0.023197112            5 
 1631000   0.98523026   -7.4986456    448.57999  0.022919476  0.023188948            9 
 1632000    0.9915634   -7.4772984    450.06861  0.022981445  0.023180884            3 
 1633000    1.0117677   -7.4771382    450.52165   0.02299049  0.023172763            5 
 1634000    1.0011076   -7.4275147    450.71769  0.022986418  0.023164774            4 
 1635000   0.98131324   -7.4768526    449.62366  0.022916599  0.023156733            5 
 1636000   0.97756437   -7.4506743     448.8011  0.022860692  0.023148612            3 
 1637000   0.99779167   -7.4326103    450.83662  0.022950347  0.023140436            2 
 1638000   0.95948112   -7.4814943    449.07911  0.022846922  0.023132325            4 
 1639000   0.99158142   -7.4844565    450.02452  0.022881051  0.023124078            6 
 1640000   0.97513305   -7.4641705    449.93673  0.022862639  0.023115911            4 
 1641000    1.0033872   -7.5016563    449.87311  0.022845476  0.023107651            8 
 1642000    1.0223705   -7.4818865    449.54221  0.022814769  0.023099402            3 
 1643000   0.98981348   -7.4742622    450.60951  0.022855017  0.023091207            3 
 1644000   0.99559955   -7.4373909     451.6972  0.022896249    0.0230831            3 
 1645000    1.0002632   -7.4556037    451.82409  0.022888758  0.023074974            5 
 1646000    1.0049761   -7.4652534    451.73742  0.022870465  0.023066932            3 
 1647000      1.00224   -7.4717382    451.74752   0.02285709  0.023058806            6 
 1648000   0.97177954   -7.4622896    450.99626  0.022805231  0.023050721            3 
 1649000   0.98778133   -7.4789924    452.01406  0.022842837  0.023042668            3 
 1650000   0.97557686   -7.4709107    451.99422  0.022827991  0.023034514            3 
 1651000   0.97670797   -7.4426705    452.68444  0.022849003  0.023026471            4 
 1652000   0.96028868   -7.4472587    452.33519  0.022817554  0.023018403            3 
 1653000      1.00012   -7.4839786    451.12736   0.02274286  0.023010319            7 
 1654000   0.97016343   -7.4319789    452.59707  0.022803157  0.023002209            2 
 1655000    1.0086012   -7.4316862    454.15529   0.02286784  0.022994261            6 
 1656000   0.97889802   -7.4671599    452.85113  0.022788402  0.022986271           10 
 1657000   0.96594132   -7.4850498     451.2498  0.022694116  0.022978139            5 
 1658000   0.98798244   -7.4854946    452.65447  0.022751029  0.022970031            4 
 1659000    1.0093219   -7.5139547    451.92244  0.022700545  0.022961987            4 
 1660000   0.96434291   -7.4949645    453.27179  0.022754608  0.022953907            7 
 1661000   0.98349024   -7.4364057    453.10622  0.022732602  0.022945919            3 
 1662000   0.98331202   -7.5465964    452.53193  0.022690129  0.022937903            2 
 1663000   0.97951317   -7.5130512    453.66483  0.022733255  0.022929809            9 
 1664000    1.0003205   -7.4717394    453.48074  0.022710374  0.022921793            2 
 1665000    0.9896759   -7.5186557    453.59102  0.022702253  0.022913738            4 
 1666000   0.97022672   -7.4671475    454.73068  0.022745632  0.022905623            2 
 1667000    1.0049019   -7.4415942    454.48804  0.022719858  0.022897627            3 
 1668000   0.99368457   -7.4415243    455.59201  0.022761391  0.022889795            5 
 1669000   0.99954218   -7.4309416    454.24873  0.022680684   0.02288195            8 
 1670000   0.96793524   -7.4516956     455.6531  0.022737181  0.022874129            7 
 1671000   0.96593289   -7.5312114    452.96541  0.022589538  0.022866071            3 
 1672000   0.99705332   -7.4522729    454.59428  0.022657211  0.022858075            3 
 1673000   0.96836984    -7.510264    454.99458  0.022663607  0.022850127           11 
 1674000   0.99498595   -7.5263553    453.90955  0.022596055  0.022842047            5 
 1675000   0.98592577   -7.5411121     454.0325  0.022588682  0.022833917            5 
 1676000   0.97862649   -7.5028165    455.13839   0.02263019  0.022825791            4 
 1677000     0.980484   -7.4833356    455.23346   0.02262142  0.022817689            4 
 1678000    1.0017599   -7.5074673    454.87892  0.022590332  0.022809691            8 
 1679000    0.9837224   -7.4950891    456.05604  0.022635301  0.022801689            4 
 1680000     0.970581   -7.5254696    454.42156  0.022540752  0.022793655            7 
 1681000   0.97126602   -7.5095565    456.35243  0.022623063  0.022785644            3 
 1682000      1.00548   -7.5237507     455.1172  0.022548414  0.022777694            3 
 1683000   0.96457364   -7.5298705    454.32296   0.02249569  0.022769586            6 
 1684000   0.96637834   -7.5224167    454.56673  0.022494395  0.022761412            4 
 1685000   0.98239594   -7.5538732    454.49213  0.022477356  0.022753249            7 
 1686000    1.0220212   -7.5172562     456.2254  0.022549693  0.022745219            6 
 1687000   0.99338631   -7.5003417    456.40718  0.022545306  0.022737163            3 
 1688000   0.99713643   -7.5011046    456.01494  0.022512586  0.022729182            5 
 1689000   0.96826373   -7.5125406    456.11362  0.022504126   0.02272125            9 
 1690000   0.99859519   -7.5029608    455.66366  0.022468622  0.022713246            6 
 1691000   0.96054012   -7.4895136    456.32379  0.022487867  0.022705256            5 
 1692000   0.95903891   -7.5469002    456.09979  0.022463544  0.022697081            5 
 1693000    1.0073766   -7.4937565    457.68047   0.02252808  0.022688939            3 
 1694000   0.98542913   -7.5238022    454.91673  0.022378824   0.02268087            5 
 1695000   0.97180383     -7.47766    455.99945  0.022418852  0.022672752            4 
 1696000   0.98308998   -7.4839402    456.86547  0.022448186  0.022664622            8 
 1697000   0.96132294   -7.4927246    456.78236  0.022430876  0.022656438            3 
 1698000   0.96321064   -7.4762353    457.61531  0.022458545  0.022648235            5 
 1699000    0.9653345     -7.49873    456.45462  0.022388396  0.022640104            2 
 1700000   0.97269091   -7.5443148    456.99556  0.022401743  0.022631884            4 
 1701000   0.97696334   -7.4809833    457.39724  0.022408252  0.022623673            6 
 1702000   0.99324829    -7.478989    457.80973  0.022415283  0.022615527            5 
 1703000   0.97192891   -7.4759155    458.30922  0.022426562  0.022607456            5 
 1704000   0.97122932   -7.5132825    457.76335  0.022386705  0.022599417            5 
 1705000   0.99420549   -7.5241503    457.99172  0.022384737  0.022591252            3 
 1706000   0.97899695   -7.5037143    456.08807  0.022278628  0.022583093            8 
 1707000   0.97662546     -7.49956    457.02567  0.022311349  0.022574936            3 
 1708000   0.98143439    -7.519413    458.33148  0.022361996  0.022566765            2 
 1709000   0.99762868   -7.4750179    459.14568  0.022388613  0.022558702            4 
 1710000    1.0001578   -7.5082866    458.69646  0.022353629  0.022550519            6 
 1711000   0.96967764   -7.5054658    456.87099  0.022251656  0.022542296            7 
 1712000    1.0107611   -7.5172865    457.69763  0.022278896  0.022534125            3 
 1713000   0.98936059   -7.5457708    457.38342  0.022250604  0.022525897            4 
 1714000   0.98168252     -7.54995    458.44956  0.022289457  0.022517701            7 
 1715000    0.9721318   -7.4967573    457.63865  0.022237058   0.02250962            6 
 1716000   0.97120815   -7.5286816    457.63869  0.022224101  0.022501523            5 
 1717000   0.97356496   -7.5146031    457.98535  0.022227982  0.022493305            5 
 1718000   0.97088365    -7.520118    457.22396  0.022178112  0.022485014            4 
 1719000   0.98430135   -7.4973677    458.13533  0.022209391  0.022476737            2 
 1720000   0.97691264   -7.5078832    458.01571  0.022190684  0.022468566            4 
 1721000   0.96088709   -7.5315289    459.42753  0.022246152  0.022460298            8 
 1722000   0.96497128   -7.5341592     458.5884  0.022192625  0.022452047            3 
 1723000    0.9781771   -7.5199369    459.00718  0.022199999  0.022443759            6 
 1724000    0.9762897   -7.5119218    458.48489  0.022161876  0.022435525           11 
 1725000   0.96902171   -7.4965008    459.82495  0.022213766  0.022427314            2 
 1726000   0.96705664   -7.5028727    459.74534  0.022197052  0.022419231            8 
 1727000   0.95286924   -7.5202215    459.03189  0.022149773  0.022411087            5 
 1728000   0.98341546   -7.4910211     459.7368  0.022170949  0.022402899            3 
 1729000   0.97827921   -7.5253194    459.11014  0.022127923  0.022394728            7 
 1730000   0.95615257   -7.5182026    459.49091  0.022133473    0.0223865            6 
 1731000    0.9756032   -7.5473592    459.58796  0.022125359  0.022378236            3 
 1732000    0.9818247   -7.5254808    458.33135  0.022052124   0.02236998            3 
 1733000   0.96164127   -7.5082498    459.29548  0.022085761  0.022361779            3 
 1734000     0.959229   -7.5267557    459.32878  0.022074624  0.022353527            3 
 1735000   0.96536795   -7.5220908    459.39415  0.022065041   0.02234531            3 
 1736000   0.97695411   -7.5399726     460.4839  0.022104642  0.022337011            4 
 1737000   0.95985804   -7.4902197    460.05087  0.022071141  0.022328739            6 
 1738000    0.9855127   -7.5130703    460.59634  0.022084596  0.022320536            6 
 1739000   0.98976288   -7.4829251     462.1576  0.022146713  0.022312465            6 
 1740000   0.96753741   -7.4887726    461.31258  0.022093515  0.022304415           18 
 1741000   0.98683029   -7.4877242    461.10351  0.022070817  0.022296288            7 
 1742000   0.94706757   -7.4981278    462.00399  0.022101224  0.022288228            5 
 1743000    0.9889864   -7.5368201    460.30851  0.022007483  0.022280071            5 
 1744000   0.97204697   -7.5342023    460.53731  0.022005797  0.022271855            5 
 1745000    0.9816802   -7.5193888    461.97386  0.022061789  0.022263632            6 
 1746000   0.98147755    -7.503215    460.58018  0.021982636  0.022255402            5 
 1747000   0.96025769   -7.5504225    461.71075  0.022023982  0.022247209            5 
 1748000   0.96193346   -7.5386038    461.53782  0.022003138  0.022239043            9 
 1749000   0.98438486   -7.5177228     461.2083  0.021974857  0.022230926            4 
 1750000   0.97212729   -7.5376152    463.30169  0.022061985  0.022222879            6 
 1751000   0.98419028   -7.5713646    461.69056  0.021972709  0.022214776            8 
 1752000   0.94951366    -7.557045    460.89756  0.021922448  0.022206601            4 
 1753000   0.98092042   -7.5500498    462.34166  0.021978592  0.022198408            2 
 1754000   0.96525848   -7.5476406    462.87885  0.021991584  0.022190289            5 
 1755000   0.96670935   -7.5012639    463.53574  0.022010244  0.022182177           11 
 1756000   0.97538364   -7.5114429     463.1845  0.021981041  0.022174048           16 
 1757000   0.94304301   -7.5365048     462.6225  0.021941875  0.022165905            5 
 1758000    0.9727375   -7.5383145    462.99855   0.02194722  0.022157876            9 
 1759000   0.98678954   -7.5265611    463.76879  0.021971233  0.022149813            5 
 1760000   0.99417517   -7.5021697     463.9548  0.021967557  0.022141815            6 
 1761000   0.95949041    -7.553185    462.00963  0.021863034  0.022133822            5 
 1762000   0.97250052   -7.5289255    463.63283  0.021927394  0.022125797            2 
 1763000   0.97081971   -7.5188831    463.32726  0.021900513  0.022117719           13 
 1764000   0.95180828   -7.5506716    463.58303  0.021900181  0.022109628            6 
 1765000   0.96669119   -7.5225268    463.99971  0.021907446  0.022101602            8 
 1766000    0.9975325    -7.516018    464.50317  0.021918798  0.022093637            7 
 1767000   0.96330941   -7.5078915     465.1472  0.021936767  0.022085727            3 
 1768000   0.97212701   -7.5488832    465.55803  0.021943723  0.022077795            6 
 1769000   0.98167991   -7.5480969    465.27776  0.021918116  0.022069882            6 
 1770000   0.96656598   -7.5252212    465.74339  0.021927655   0.02206196            8 
 1771000   0.98511526   -7.5442887    465.09349  0.021884693  0.022054041            3 
 1772000   0.95975052   -7.5067531    465.39533  0.021886537  0.022046175            3 
 1773000   0.97957168   -7.5506029    467.12115  0.021955309  0.022038247            4 
 1774000    0.9762321   -7.5600877    465.79909  0.021880829   0.02203029            3 
 1775000    0.9792598   -7.5343372     466.1891  0.021886812  0.022022433            4 
 1776000   0.98183446   -7.5444328    465.70424  0.021851738   0.02201451            6 
 1777000    0.9837828   -7.5411658    465.65738  0.021837244  0.022006604            4 
 1778000    0.9646182   -7.5125137    466.83176  0.021880004  0.021998641            2 
 1779000   0.95702535   -7.5154594    466.44591  0.021849631  0.021990804            3 
 1780000   0.96333945   -7.5440221    466.18509  0.021825144  0.021982981            9 
 1781000   0.97446091   -7.5355145    467.03855  0.021852824  0.021975129            6 
 1782000   0.96856686   -7.5515557    466.54123  0.021817304  0.021967286            4 
 1783000   0.96452023   -7.5683113    465.68255  0.021764935  0.021959436            7 
 1784000   0.98256042   -7.5555585    466.33003   0.02178298  0.021951482            4 
 1785000   0.97129497   -7.5536627    466.60797  0.021783752  0.021943554            3 
 1786000   0.97456119   -7.5507831    467.76427  0.021825507   0.02193557            4 
 1787000   0.94054314      -7.6228    465.17564  0.021692578  0.021927496           13 
 1788000   0.97564409   -7.5530934    467.24559   0.02177692  0.021919423            5 
 1789000     0.953485   -7.6047065    465.60716  0.021688428  0.021911469            3 
 1790000   0.96790308   -7.5664564    466.09013  0.021698796  0.021903435            6 
 1791000   0.95499269   -7.5613281    466.37226  0.021699807  0.021895492            3 
 1792000   0.98574467   -7.5481555    467.01468  0.021717573  0.021887545            4 
 1793000   0.97359397   -7.5653568    468.04631  0.021753407  0.021879525            4 
 1794000   0.94993483   -7.5246938     468.0304  0.021740542   0.02187155            5 
 1795000   0.94414659   -7.5373974    468.47971   0.02174929  0.021863605            3 
 1796000   0.97141374   -7.5877874    466.16981  0.021630002  0.021855587            4 
 1797000   0.95750239   -7.5977151    466.36576  0.021627052   0.02184745            7 
 1798000   0.95334184   -7.5926687    467.21897  0.021654569   0.02183934            4 
 1799000   0.97800915   -7.5354762    468.53268  0.021703385  0.021831375            5 
 1800000   0.95541382    -7.573473    468.36432  0.021683533  0.021823461           11 
 1801000   0.96346023   -7.5604482    468.76091  0.021689844  0.021815586            2 
 1802000   0.97380939   -7.5440328    469.53575   0.02171364  0.021807775            5 
 1803000   0.98150883   -7.5835766    468.10912  0.021635659  0.021799957            5 
 1804000   0.96519545    -7.499433    470.28366  0.021724116  0.021792073            8 
 1805000   0.98220654   -7.5188496    469.60459  0.021680729  0.021784214            5 
 1806000   0.95001432   -7.5721646    468.29577  0.021608332   0.02177637           13 
 1807000   0.97331748    -7.589865    469.28091  0.021641806  0.021768612           12 
 1808000    0.9394688   -7.5770614    470.08393  0.021666848  0.021760732           11 
 1809000    0.9590682   -7.5312734    470.16459  0.021658586  0.021752893            9 
 1810000   0.96090582   -7.5781795    469.68604  0.021624588  0.021745095            4 
 1811000   0.95443924    -7.596418    468.62863   0.02156399  0.021737211            6 
 1812000   0.96611519   -7.5898235    468.29801  0.021536884  0.021729326            9 
 1813000   0.94641049   -7.5959827    469.10806  0.021562238  0.021721374            5 
 1814000   0.97138203   -7.6028745    467.77968  0.021489327  0.021713406            6 
 1815000   0.97433895   -7.5765061    470.12018  0.021584949  0.021705464            5 
 1816000   0.97552224   -7.6087715    468.98053  0.021520766  0.021697587            4 
 1817000   0.95075555   -7.5328568    469.75562   0.02154447  0.021689762            7 
 1818000    0.9636755   -7.4957486    472.19958  0.021644645  0.021681983            7 
 1819000   0.95736058   -7.5552425    468.90942  0.021482015  0.021674131            6 
 1820000    0.9461942   -7.5718095    470.21535  0.021530007  0.021666279            3 
 1821000   0.96323757    -7.602692      468.569  0.021442843  0.021658435            5 
 1822000    0.9640328   -7.5614306    471.12426  0.021547945  0.021650697            5 
 1823000   0.95497254   -7.5437641    470.99094   0.02153003   0.02164298            4 
 1824000   0.95426318   -7.5499544    472.33391  0.021579583  0.021635293            6 
 1825000   0.96177244   -7.5281696    471.83014  0.021544755  0.021627606            6 
 1826000   0.96556921   -7.5554857    471.18759  0.021503632  0.021619894            5 
 1827000   0.97070422   -7.5300845    472.32418  0.021543704  0.021612189            8 
 1828000   0.93347611   -7.5564805    471.18921  0.021480179  0.021604429            7 
 1829000   0.95204022    -7.583052    471.32014    0.0214744  0.021596664            7 
 1830000   0.96109549   -7.5701441    472.27117  0.021505973   0.02158889            4 
 1831000   0.95204924   -7.5616047    472.89384  0.021522567  0.021581073            6 
 1832000   0.97224333   -7.5391488    472.52919  0.021494232  0.021573343            5 
 1833000   0.95384557   -7.5770674     471.2824  0.021425823  0.021565575            5 
 1834000    0.9505738   -7.5417429    472.11377  0.021451916   0.02155785           10 
 1835000   0.93880058   -7.5850335    470.28121  0.021357003  0.021550135           10 
 1836000   0.94409034   -7.5747004    472.13702  0.021429603    0.0215424            4 
 1837000   0.96219899    -7.562656    471.88682  0.021406588   0.02153467            6 
 1838000   0.97164635   -7.5804213    472.63843  0.021429018  0.021526895            4 
 1839000   0.95535708   -7.6070245    470.72315  0.021330576  0.021519117            4 
 1840000   0.95471818   -7.5591595     471.6453  0.021360747  0.021511398            6 
 1841000   0.94180454   -7.5373749    473.83417  0.021448224  0.021503691            2 
 1842000   0.95694596   -7.5805578    472.70407  0.021385454  0.021495976            6 
 1843000   0.97453997   -7.5506555    471.60676  0.021324234  0.021488303            5 
 1844000   0.97294477   -7.5321682    474.39191  0.021438535   0.02148064            8 
 1845000   0.95283368   -7.5519759    472.11221  0.021323948  0.021472943            7 
 1846000   0.96666315   -7.5791337    472.71129  0.021339441  0.021465115            7 
 1847000   0.96271154   -7.6249385     472.5302  0.021319717  0.021457423            9 
 1848000   0.96460369   -7.5539811    475.13266  0.021425535  0.021449797            7 
 1849000   0.95919728   -7.5382917    473.71683  0.021350137  0.021442161            6 
 1850000     0.966832   -7.5464057    475.19551  0.021405203  0.021434578            4 
 1851000   0.96792872    -7.584659     473.2198  0.021304691   0.02142698            6 
 1852000   0.96684126   -7.5399594    474.60843  0.021355671  0.021419357            3 
 1853000   0.93763835   -7.5933503    473.05627  0.021274342  0.021411644           13 
 1854000    0.9642435   -7.5774965    473.62125  0.021288262  0.021403942            4 
 1855000   0.96099731   -7.5587169    474.84266  0.021331656  0.021396221            3 
 1856000   0.95939474    -7.620298    474.60871  0.021309658  0.021388572            4 
 1857000   0.94835081   -7.5874863    474.11269  0.021275924  0.021380917            3 
 1858000   0.95648796   -7.5663269    475.56118   0.02132944  0.021373248            4 
 1859000   0.95915739   -7.5644612    474.68306  0.021278602  0.021365621            7 
 1860000   0.93333151   -7.5749646    475.95726   0.02132425  0.021358086            2 
 1861000   0.94291261   -7.5924147    475.93018  0.021311579  0.021350465            1 
 1862000   0.96995205   -7.5847896      474.455  0.021234112    0.0213428            7 
 1863000   0.96300291   -7.5848005    474.98228    0.0212463  0.021335128            7 
 1864000   0.96890681   -7.5800215    475.19003  0.021244189  0.021327436            8 
 1865000   0.95201243   -7.6052639      474.736  0.021212511  0.021319743            7 
 1866000   0.97581993   -7.5935448    475.88099  0.021252277  0.021312114            3 
 1867000   0.95286872   -7.5999775      475.428  0.021220675  0.021304419            6 
 1868000   0.96039466   -7.5859163    476.88067   0.02127412  0.021296853            5 
 1869000   0.93843811   -7.5788692    476.31708  0.021237608  0.021289224            5 
 1870000   0.98702646   -7.5975614    475.97435  0.021210978  0.021281586            8 
 1871000   0.95468062   -7.5827668    477.97016  0.021288534   0.02127394           19 
 1872000   0.95340278   -7.5520864      476.681  0.021219774  0.021266392           13 
 1873000   0.94979125   -7.5758037    478.01498  0.021267796   0.02125888            6 
 1874000   0.96604234   -7.5597222    477.04029  0.021213104  0.021251312            4 
 1875000   0.95270293   -7.5873874    476.91955  0.021196425  0.021243824            6 
 1876000   0.94725965   -7.5754036    477.50397  0.021211086  0.021236328            5 
 1877000   0.94070129   -7.6089438    477.65326  0.021206414  0.021228769            5 
 1878000   0.94436443    -7.545115    478.09305  0.021214637  0.021221244            5 
 1879000   0.96092163   -7.5667919    478.16033   0.02120633   0.02121372            4 
 1880000   0.94707751   -7.5580246    479.01784   0.02123306  0.021206256            4 
 1881000   0.95193786   -7.5589804    478.14472  0.021183091  0.021198727            7 
 1882000   0.93841663   -7.5631081    478.18425  0.021173585  0.021191302            5 
 1883000   0.98184039   -7.6239074    477.52346  0.021133097  0.021183791            5 
 1884000   0.94252549   -7.6169167    477.44802  0.021118543  0.021176144            5 
 1885000   0.95033207   -7.5649111     478.0135  0.021132339  0.021168539            4 
 1886000     0.926725   -7.5891678    478.48901  0.021142144  0.021160947            7 
 1887000   0.93770101   -7.5816993    477.55251  0.021089583  0.021153417           10 
 1888000   0.95315963   -7.5731087    477.84453  0.021091302  0.021145785            5 
 1889000   0.93730658   -7.5756671    478.68603  0.021117259  0.021138238            5 
 1890000   0.93763073   -7.6005451    479.30024  0.021133168  0.021130708            8 
 1891000   0.94784523   -7.5523797    477.81094  0.021056361  0.021123106            5 
 1892000   0.95297118   -7.5649595    478.34074  0.021068567  0.021115394            5 
 1893000   0.96470417   -7.5646221    479.52382  0.021109519  0.021107826           13 
 1894000   0.93910141   -7.5940407    478.59104  0.021057332  0.021100275            3 
 1895000   0.94237067   -7.5682106    479.65245  0.021092896  0.021092734            7 
 1896000    0.9463226   -7.5936965    478.90106  0.021048746  0.021085158            6 
 1897000   0.94921282   -7.5698945    479.98297  0.021085177  0.021077578            5 
 1898000    0.9447178   -7.6001238    477.93429  0.020984119  0.021069844            7 
 1899000   0.95139477   -7.5976879    479.20707  0.021028922  0.021062199            5 
 1900000   0.95633739   -7.6153556    477.74856  0.020953884  0.021054477           10 
 1901000   0.97355708   -7.6071147    478.73573  0.020986136  0.021046799           18 
 1902000   0.95831384   -7.5653531    480.36387  0.021046437  0.021039223            9 
 1903000      0.94376   -7.6226335    479.49424  0.020997296   0.02103161            6 
 1904000   0.95113342   -7.5857621    479.13322  0.020970467  0.021024027            3 
 1905000   0.94362355    -7.582657    480.48344  0.021018523  0.021016434            8 
 1906000   0.96093108   -7.6278862    479.96913  0.020985009  0.021008851            5 
 1907000   0.94466555   -7.5948909    478.63235   0.02091559  0.021001271            7 
 1908000   0.93251484   -7.5874824    479.22345  0.020930444  0.020993765           11 
 1909000   0.94662476   -7.6134941    480.66752  0.020982518  0.020986151            4 
 1910000    0.9319599   -7.6223395    479.53154  0.020921969  0.020978502           17 
 1911000   0.94011498   -7.6361132    478.36582  0.020860187  0.020970843            8 
 1912000   0.92709086    -7.634716    479.87191  0.020914919  0.020963185           16 
 1913000   0.94607018   -7.6223014    479.67947  0.020895603  0.020955589            5 
 1914000    0.9276732    -7.613272    479.55946  0.020879461  0.020947986            3 
 1915000   0.95358365   -7.5933904     480.6755  0.020917123  0.020940349            3 
 1916000   0.92530979   -7.5969362    480.12289  0.020882171  0.020932757            5 
 1917000   0.94397822   -7.5876135    481.13957  0.020915474  0.020925203            3 
 1918000   0.95902828   -7.5938971    480.99857  0.020898443  0.020917592            5 
 1919000   0.95450895   -7.6270168    479.10836   0.02080547  0.020909967           10 
 1920000   0.94090336   -7.6310906    478.91262  0.020786138  0.020902386           17 
 1921000   0.94507577   -7.6318574    479.97009  0.020821191  0.020894751           11 
 1922000    0.9412046   -7.5984339     480.6029  0.020837795  0.020887149            3 
 1923000   0.93094656   -7.6246307    480.79384  0.020835233  0.020879494            9 
 1924000   0.95641756   -7.5972064    480.40725   0.02080766   0.02087182            7 
 1925000   0.93601133   -7.5782176    481.13897  0.020828527  0.020864194            8 
 1926000   0.93851531   -7.6214004    479.26987  0.020736841  0.020856522            9 
 1927000   0.94323745   -7.5948417    480.35957  0.020773204  0.020848936            7 
 1928000   0.93350179   -7.5980816    482.26139  0.020844631  0.020841332            7 
 1929000   0.96139504   -7.6309812      482.654  0.020850786  0.020833704            3 
 1930000   0.95798082   -7.6326632    480.18081  0.020733195  0.020826031            4 
 1931000   0.92738302   -7.6349162     481.9485  0.020798744    0.0208184            5 
 1932000   0.96076106   -7.6013095    482.17028  0.020797545  0.020810821            5 
 1933000   0.95543287   -7.6055108    481.49242  0.020757562  0.020803261            3 
 1934000   0.94809904   -7.6148213    481.87001    0.0207631  0.020795745            4 
 1935000   0.94370957   -7.5989604    481.79641    0.0207492  0.020788224            9 
 1936000   0.92654201   -7.6334841    482.10804  0.020751896  0.020780632            5 
 1937000    0.9275433   -7.6186733    481.42501  0.020711797  0.020773034           14 
 1938000   0.95094818   -7.5657525    483.30252  0.020781842  0.020765508            6 
 1939000   0.93801179   -7.5747387    482.48874   0.02073615  0.020758002            3 
 1940000   0.92908742   -7.5832978    481.82512  0.020696956  0.020750412            6 
 1941000   0.94188566   -7.6370143    481.36101  0.020666367  0.020742836            4 
 1942000   0.94342951   -7.6070462    482.82033  0.020718346  0.020735187            4 
 1943000   0.92785219   -7.5826925    482.13536  0.020678305  0.020727586           11 
 1944000   0.95980943   -7.6176184    481.47766  0.020639474  0.020720037            7 
 1945000   0.93959444   -7.6338579    482.32724  0.020665263  0.020712504            8 
 1946000   0.92354896   -7.6455991    480.82681  0.020590391  0.020704867            3 
 1947000   0.93237456   -7.6059785    481.71122  0.020617669  0.020697183            2 
 1948000   0.93479676   -7.6399969    481.09606  0.020580769  0.020689488            4 
 1949000   0.92783234   -7.6267409    480.52074   0.02054561  0.020681782            6 
 1950000   0.94951041   -7.6670353    481.59179  0.020580846  0.020674053            4 
 1951000   0.95055252   -7.6553828    481.37938  0.020561224  0.020666326            5 
 1952000   0.95224691   -7.6741438    480.28267  0.020503871  0.020658587            3 
 1953000   0.91445754   -7.6630637    481.64389  0.020551455   0.02065085            6 
 1954000   0.94543954   -7.6580129    482.43598  0.020574718  0.020643102            5 
 1955000   0.92105802   -7.6250831    482.93771   0.02058558  0.020635435            6 
 1956000   0.93778637   -7.6373644    482.96421  0.020576185  0.020627762            4 
 1957000   0.92442865   -7.5919921    483.40394  0.020584395  0.020620095            6 
 1958000   0.93070952   -7.6683304    482.36074  0.020529484  0.020612494            8 
 1959000   0.94322307   -7.6437784    483.77351  0.020579101  0.020604807            6 
 1960000   0.93194804   -7.6669053    482.64715  0.020520712  0.020597182            6 
 1961000   0.94602887   -7.6292447    483.99305  0.020567442  0.020589588            5 
 1962000   0.91778584   -7.6528455    483.60072  0.020540296  0.020582009            4 
 1963000   0.94799807   -7.6264855    484.26049  0.020557841  0.020574445            3 
 1964000   0.93662908   -7.6499103    483.47973  0.020514245  0.020566899            5 
 1965000   0.93855196   -7.6195472    484.77362  0.020558678  0.020559378            9 
 1966000   0.93093043   -7.6317434    483.94359  0.020513038  0.020551864            7 
 1967000   0.93236963   -7.6346463    483.99386  0.020504739  0.020544287           14 
 1968000   0.93652488   -7.6371254    483.44204  0.020470954  0.020536676            5 
 1969000   0.94144241   -7.6200429      482.743  0.020430972  0.020528997           10 
 1970000   0.95486449    -7.587126    484.19175  0.020481885  0.020521351            9 
 1971000    0.9429286   -7.6241299    484.31138  0.020476551  0.020513744            8 
 1972000   0.93809291   -7.6243164    483.97528  0.020451964  0.020506129            5 
 1973000   0.96608497   -7.5898893    486.50678  0.020548521  0.020498525            6 
 1974000   0.94198025   -7.6177859    483.86704  0.020426674  0.020490965            7 
 1975000   0.92800634   -7.6379636    484.37989   0.02043797  0.020483398            7 
 1976000   0.93541891   -7.6792715     484.2205  0.020420905  0.020475853            2 
 1977000   0.93913272   -7.6249552    485.20463  0.020452058  0.020468274            4 
 1978000   0.94225492   -7.6278835     485.8548   0.02046911  0.020460733            5 
 1979000   0.93526044   -7.6357982     484.6624  0.020408556  0.020453219            6 
 1980000   0.91378417   -7.6393183    485.39207  0.020428959  0.020445615            6 
 1981000   0.94383578    -7.593225    485.39396  0.020418726  0.020438063            4 
 1982000   0.93627241   -7.5883608    486.03257  0.020435275   0.02043054            4 
 1983000   0.92788303   -7.6213933    485.28074  0.020393374  0.020423025            4 
 1984000   0.92123837   -7.6428811    485.05293  0.020373527  0.020415425            4 
 1985000   0.94893258   -7.5852986    486.13652  0.020408754  0.020407861            2 
 1986000   0.93454142   -7.6125705    486.06829  0.020395615  0.020400325            4 
 1987000   0.92712862    -7.598633    486.12121   0.02038757  0.020392747            5 
 1988000   0.94085611   -7.5962171    486.10755  0.020376742  0.020385243            8 
 1989000    0.9317978   -7.6496561    486.00775  0.020362316  0.020377757            5 
 1990000   0.90531872   -7.6134554    485.68726  0.020338663  0.020370207            9 
 1991000   0.95434385   -7.6205562    487.70359  0.020412841  0.020362724            5 
 1992000   0.93270772   -7.6486448    486.45867  0.020350513  0.020355251            7 
 1993000   0.93398057   -7.6223355    486.12879  0.020326509  0.020347775            7 
 1994000   0.95007218   -7.6170357    485.91603  0.020307424  0.020340305            3 
 1995000   0.94289683   -7.6375785    486.26715  0.020311911  0.020332873            3 
 1996000   0.93555834   -7.5707208    488.39337  0.020390505  0.020325413            6 
 1997000   0.93864148   -7.6514028    487.69842  0.020351295  0.020317946            6 
 1998000   0.92168581   -7.6824308    487.08776  0.020315639  0.020310366            4 
 1999000   0.95720364   -7.6356055    486.56925  0.020283861   0.02030282           13 
 2000000   0.91996419   -7.6781163    486.93907  0.020289128  0.020295354           10 
 2001000   0.92677128   -7.6520572    487.83369  0.020316246  0.020287828            6 
 2002000   0.91055274   -7.7214212    484.96568  0.020186717  0.020280273            5 
 2003000   0.92392975   -7.6691593      486.704   0.02024896  0.020272709            4 
 2004000   0.92740602   -7.6601612    486.86733  0.020245647  0.020265253            5 
 2005000   0.94137483   -7.6330218    487.77268  0.020273179  0.020257784            6 
 2006000   0.95557251   -7.6549062    486.97704   0.02023002  0.020250366            9 
 2007000   0.91741618   -7.6652641    487.64675  0.020247748  0.020242904            5 
 2008000   0.92767725   -7.6466749    487.13614  0.020216473  0.020235389            8 
 2009000   0.92333872   -7.6557897    487.24473  0.020210915  0.020227974           14 
 2010000   0.91548266   -7.6863342     486.6929  0.020177981  0.020220501            2 
 2011000   0.92386929    -7.668242    487.70878  0.020210044   0.02021305           16 
 2012000   0.94340234   -7.6781028    487.35251  0.020185243  0.020205604           13 
 2013000   0.94297219   -7.6731149    487.37876  0.020176302  0.020198139            4 
 2014000   0.92486239   -7.6511795    487.63709  0.020176973  0.020190608           13 
 2015000   0.95249969   -7.6623058    488.68033  0.020210105  0.020183129            5 
 2016000   0.91844616   -7.6430679    489.28406  0.020225036  0.020175712            5 
 2017000   0.92143573   -7.6926772    488.06995  0.020164847  0.020168284            5 
 2018000   0.92199317   -7.6867001    488.58897  0.020176287  0.020160838            3 
 2019000   0.92793805   -7.6512173    487.25935  0.020111415  0.020153382            3 
 2020000   0.93119662   -7.6800641    487.94689  0.020129822  0.020145852           13 
 2021000    0.9376232   -7.6720158    488.46927  0.020141402  0.020138366            5 
 2022000   0.92567129   -7.6700872     488.2432  0.020122124  0.020130876            5 
 2023000   0.92114931   -7.6823741    486.64517  0.020046349   0.02012335            6 
 2024000   0.92659048   -7.6606445    488.50044  0.020112831  0.020115825            6 
 2025000    0.9342323   -7.6612278    488.63786  0.020108554  0.020108362            3 
 2026000   0.92233738    -7.691802    487.35063  0.020045682  0.020100928            4 
 2027000   0.91201659   -7.6259419    490.58243  0.020168658  0.020093486            7 
 2028000   0.92609086   -7.6219453    490.02565  0.020135834  0.020086132            4 
 2029000   0.92159187    -7.687349    488.70465  0.020071655  0.020078684            3 
 2030000   0.93373432   -7.6466262    488.87922  0.020068934  0.020071204            7 
 2031000   0.93071048   -7.6598836    489.09776  0.020068019  0.020063771           12 
 2032000   0.93280564   -7.6427445    489.63379  0.020080126  0.020056268           17 
 2033000   0.94231769   -7.7064898     487.8186  0.019995844  0.020048762            6 
 2034000   0.92489402   -7.6611194    489.31947  0.020047504  0.020041213            9 
 2035000   0.92855917   -7.6446497    490.18322  0.020073023  0.020033722           12 
 2036000   0.93572503   -7.6840465    489.44909  0.020033116  0.020026315            7 
 2037000   0.92153971   -7.6502016     490.3338  0.020059475  0.020018858            5 
 2038000   0.94897602   -7.6476568    489.52941  0.020016741  0.020011363            5 
 2039000   0.91536225   -7.6359035    489.33821  0.019999109  0.020003908           10 
 2040000   0.93377232   -7.6695508     490.1585  0.020022814  0.019996446           10 
 2041000   0.91078239   -7.7079327    487.69228  0.019912309  0.019988979            8 
 2042000   0.92970674   -7.6626484    489.92914  0.019993844  0.019981604           10 
 2043000   0.91747034   -7.6581555    491.05588  0.020030016  0.019974131            2 
 2044000   0.93015115   -7.6620109    489.52681  0.019957877  0.019966703            8 
 2045000   0.94258154   -7.6760876    490.76307  0.019998495   0.01995928            5 
 2046000   0.91994939   -7.7079555    488.99288  0.019916621  0.019951811            6 
 2047000   0.92222208   -7.6991198    489.76455  0.019938306  0.019944366            9 
 2048000   0.93740141   -7.6622378    489.89528   0.01993389  0.019936837            7 
 2049000    0.9328601   -7.6663258    491.04281  0.019970832  0.019929373            5 
 2050000   0.92777136   -7.6668771    491.13036  0.019964649  0.019921982            4 
 2051000   0.92314525   -7.7048235    490.34374  0.019922954  0.019914532            6 
 2052000   0.93239149    -7.709079    489.67486  0.019886081  0.019907038            7 
 2053000   0.94022196   -7.6534133    491.03616  0.019931651  0.019899523            2 
 2054000   0.93162938   -7.6952214    490.34635  0.019893961  0.019892033            6 
 2055000   0.91030876   -7.6889021    489.72358  0.019859026  0.019884504            4 
 2056000   0.90768951   -7.6956426    489.24497  0.019829968  0.019877019            5 
 2057000   0.90910329   -7.7193193    490.04338  0.019852673  0.019869524            5 
 2058000   0.89476957   -7.6959049    490.50864  0.019861866   0.01986201            9 
 2059000   0.92068508   -7.7019795    490.20912  0.019840097    0.0198545           10 
 2060000   0.91210003   -7.7100817    490.12711  0.019827148  0.019847023            6 
 2061000   0.92708648   -7.7025223    489.93478  0.019809752  0.019839505            8 
 2062000   0.92372875   -7.6723975    490.17091  0.019809687  0.019832041            6 
 2063000   0.91468447   -7.6897605    491.04636  0.019835448  0.019824609            4 
 2064000   0.93481139   -7.6913405    490.88293   0.01981924  0.019817127            3 
 2065000   0.93030408   -7.6854121    491.17175  0.019821297  0.019809716            3 
 2066000   0.92511405    -7.658827    492.28912  0.019856773  0.019802331            2 
 2067000   0.90849222   -7.6535976    492.29724  0.019847494  0.019794995            5 
 2068000   0.92620813   -7.6764477    492.17717  0.019833058  0.019787606            4 
 2069000   0.90000393   -7.6843223    491.34848  0.019790095  0.019780237            6 
 2070000   0.92803679   -7.6522449    492.77397  0.019837922  0.019772833            7 
 2071000   0.92486631   -7.7134843    490.68663  0.019744352   0.01976541            8 
 2072000   0.92013016   -7.7090778    492.43679  0.019805212     0.019758            4 
 2073000   0.92102477   -7.6640405    492.30452  0.019790341  0.019750605            9 
 2074000   0.92748706   -7.6827161    493.60442  0.019833029  0.019743266           15 
 2075000   0.91829768    -7.658371    492.88943  0.019794756  0.019735971            3 
 2076000   0.90629885   -7.6783368    492.10556  0.019753756  0.019728691            9 
 2077000   0.93427994   -7.6767592    492.63903  0.019765649  0.019721373            8 
 2078000   0.93148965   -7.7058494    492.14305  0.019736247  0.019714032            9 
 2079000   0.90377495   -7.7370778    493.15385   0.01976727  0.019706686           14 
 2080000    0.9175702   -7.7032469    492.39271  0.019727272  0.019699259            7 
 2081000   0.93866216   -7.7080337    493.86914  0.019776916  0.019691924            6 
 2082000   0.91498795   -7.7095099    492.44154  0.019710276  0.019684585            4 
 2083000    0.9204041   -7.6798418    493.11442  0.019727733  0.019677248            4 
 2084000   0.91849109   -7.6737806    494.48687  0.019773147  0.019670021            9 
 2085000   0.92933543   -7.6969649    493.19088  0.019711866  0.019662767            4 
 2086000   0.92378552   -7.6790024    493.34634  0.019708627  0.019655543            4 
 2087000   0.91773941    -7.738334    492.33037  0.019658616  0.019648213            7 
 2088000   0.91221026   -7.6711293    494.22783  0.019724929   0.01964095            5 
 2089000   0.92646878   -7.6899032    494.26013  0.019716775  0.019633692            8 
 2090000   0.90683904   -7.6831852    493.67538  0.019684026  0.019626454            4 
 2091000   0.91724709   -7.7309797    495.01022   0.01972781  0.019619198            6 
 2092000   0.92252511    -7.696718     494.3153  0.019690699  0.019611954            5 
 2093000   0.93806728   -7.7167786     493.3845  0.019644231  0.019604721            6 
 2094000   0.92135542   -7.7003561    495.86857  0.019733706  0.019597532            8 
 2095000   0.90571786   -7.6968679    492.97109  0.019609033  0.019590272            3 
 2096000   0.92040915   -7.6647454     495.0187  0.019681087  0.019583057           10 
 2097000   0.93084251   -7.7082829    495.04982  0.019672938  0.019575839           13 
 2098000   0.91014622   -7.6791854    496.76605  0.019731731  0.019568614            6 
 2099000   0.91048216   -7.6840715    495.31542  0.019664738  0.019561385           11 
 2100000   0.92774879   -7.6964102    495.86114  0.019677029  0.019554189            6 
 2101000   0.89808683   -7.7025648    495.07935  0.019636655  0.019546975            4 
 2102000   0.91609261   -7.7130496     495.8138   0.01965643  0.019539752            5 
 2103000   0.90919626   -7.7097077    494.98021  0.019614052  0.019532545            6 
 2104000   0.91076261   -7.7324342    493.66969  0.019552824  0.019525303            7 
 2105000   0.89987863   -7.7165334    494.72467    0.0195853  0.019518051            8 
 2106000    0.9307838   -7.7117425    495.88992  0.019622108  0.019510804            6 
 2107000   0.90246866   -7.7435103    494.79897  0.019569648  0.019503605           11 
 2108000    0.8963104   -7.7227058    495.59114   0.01959168  0.019496396            5 
 2109000   0.92797438   -7.7147087    494.86697  0.019553776  0.019489166            3 
 2110000   0.90926966   -7.6946871    496.16633  0.019595827   0.01948193            4 
 2111000   0.89052181   -7.7262336    496.07291  0.019582856  0.019474714            5 
 2112000   0.91444445   -7.7184121    496.63587  0.019595797  0.019467487            8 
 2113000   0.91879162   -7.6932834    497.01295  0.019601394  0.019460368            5 
 2114000   0.91332774   -7.7266784    496.50842  0.019572233  0.019453235            6 
 2115000   0.90985019   -7.6920008    497.21691  0.019590895   0.01944615            7 
 2116000   0.90853346   -7.6728003    497.36674  0.019587537  0.019439067            4 
 2117000   0.92722989   -7.6889093    495.93958  0.019522106  0.019431922            6 
 2118000   0.91189486   -7.7065304    495.19822   0.01948372  0.019424778            9 
 2119000   0.90519484   -7.7128218    495.29221  0.019478221  0.019417591           13 
 2120000   0.92295037   -7.7402044    495.85735  0.019491248  0.019410392            9 
 2121000   0.91017357   -7.7397146    496.07116  0.019490459  0.019403173            6 
 2122000   0.92628191   -7.7059393    496.49867  0.019498063  0.019396039            8 
 2123000    0.9117254   -7.7277902    496.52166  0.019489781  0.019388872           14 
 2124000    0.9211514   -7.7126322     496.9863  0.019498835  0.019381694            9 
 2125000   0.89506201   -7.7117676    496.93485  0.019487641  0.019374535            4 
 2126000    0.9107629   -7.7544413    495.65629  0.019428359  0.019367344           17 
 2127000   0.91301872   -7.6588135    498.17047  0.019517727  0.019360215            8 
 2128000   0.90933937    -7.716888    495.53321  0.019405279  0.019353073            3 
 2129000   0.90244385   -7.6922365    498.59896  0.019516164  0.019345951            5 
 2130000   0.90978327   -7.6762034    498.34907  0.019497225  0.019338816            7 
 2131000   0.91453955   -7.6955582    498.01386  0.019474967   0.01933183            4 
 2132000   0.92113382   -7.7035026    497.11738  0.019430792  0.019324791            7 
 2133000   0.91922993   -7.6847449    498.39162  0.019471465  0.019317773            5 
 2134000   0.92110817   -7.6726334    498.74353  0.019476083   0.01931067            3 
 2135000   0.90932773   -7.7249697    498.92896  0.019474198  0.019303598            3 
 2136000   0.91766387   -7.6975061    498.18162  0.019435925  0.019296561            5 
 2137000   0.90851239   -7.6978576    498.62547  0.019444138  0.019289542            7 
 2138000   0.89967442   -7.6701962     500.1408  0.019494107  0.019282545           10 
 2139000   0.91197166   -7.6945432    499.13703  0.019445887  0.019275672            3 
 2140000   0.92417522    -7.677327    500.05557  0.019472569  0.019268737            7 
 2141000   0.91202403   -7.7431472    498.54264  0.019404587  0.019261787            5 
 2142000   0.93555648   -7.6975321    499.42738  0.019429948  0.019254848           11 
 2143000    0.9163735   -7.6942828    499.42397  0.019420749  0.019247879            6 
 2144000   0.90831502   -7.7304882    498.21724  0.019364787  0.019240888            7 
 2145000   0.90408681   -7.7517563    498.37744  0.019361983  0.019233861            9 
 2146000   0.93199081   -7.7076485     498.1075  0.019342478  0.019226807            9 
 2147000   0.89808925   -7.6970212    499.96583  0.019405598  0.019219812            5 
 2148000   0.91360559   -7.7127099    499.82225  0.019390994  0.019212774           10 
 2149000    0.9143491   -7.7620443    497.49239  0.019291624  0.019205684           10 
 2150000   0.90779441   -7.7251872    498.31526  0.019314545    0.0191986           14 
 2151000   0.89247087   -7.7391443    498.36066  0.019307324  0.019191515            7 
 2152000   0.88606666   -7.7108173     501.3017  0.019412241  0.019184406           13 
 2153000   0.90627168   -7.7246541     498.4978  0.019294697  0.019177325            7 
 2154000   0.92068124   -7.7362823    498.34472  0.019279817  0.019170206            6 
 2155000   0.89931365   -7.7336545    497.85482  0.019251927  0.019163102            9 
 2156000   0.91029923   -7.7482982    498.86729  0.019282131  0.019156009           16 
 2157000   0.91348394   -7.7264363    497.28723  0.019212148  0.019148895            7 
 2158000   0.89098949   -7.7409145    498.18316  0.019237842  0.019141773            4 
 2159000   0.89953213   -7.7220759    499.66242  0.019286028  0.019134712            5 
 2160000   0.92984286   -7.7142192    497.83553  0.019206618  0.019127652            4 
 2161000   0.92112165   -7.7463156    498.62586  0.019228207  0.019120611            8 
 2162000   0.90263404   -7.7631608    499.39883  0.019249107  0.019113551            9 
 2163000   0.89015993   -7.7334274    499.65907  0.019250234  0.019106402            6 
 2164000   0.91575196   -7.7676398    497.62769  0.019163112  0.019099259            9 
 2165000   0.89312703   -7.7665431    497.67501  0.019156082  0.019092118            8 
 2166000   0.90184128   -7.7405532      500.345  0.019249962  0.019085006           11 
 2167000   0.91755316   -7.7417913    499.26344  0.019199486  0.019077945            8 
 2168000   0.89057349   -7.7603795    499.77316  0.019210223  0.019070853           10 
 2169000   0.89453665   -7.7359128    499.73822  0.019200024  0.019063773           17 
 2170000   0.91191804   -7.7275048    500.45454  0.019218684   0.01905673            6 
 2171000   0.88990497   -7.6879746    500.66423  0.019217881  0.019049697           10 
 2172000   0.89021839   -7.7164619    500.64918  0.019208455   0.01904268           17 
 2173000   0.88913494   -7.7480969    499.48563  0.019154994  0.019035639            5 
 2174000   0.91295812   -7.7387503     499.7095  0.019154765  0.019028532            4 
 2175000   0.90919946   -7.7341645    500.21557  0.019165348  0.019021482           10 
 2176000   0.89194237   -7.7752847    500.29422  0.019159552  0.019014386            6 
 2177000   0.92416044   -7.7231625    499.96499  0.019138149  0.019007269            7 
 2178000   0.90822772   -7.7554949    500.27769  0.019141326  0.019000176            5 
 2179000   0.91706079   -7.7156495    500.00152  0.019121979   0.01899313            6 
 2180000   0.90842111   -7.7170749    500.72694  0.019140938  0.018986118            7 
 2181000   0.91569996   -7.7556041    499.10754  0.019070286  0.018979107            9 
 2182000    0.9075813   -7.7294464    500.55318  0.019116757  0.018972016            5 
 2183000    0.8958909   -7.7736016     499.6897  0.019075038  0.018964983            7 
 2184000   0.91664402    -7.735122    500.42346  0.019094302  0.018957951           19 
 2185000   0.89822957    -7.749136    500.22347  0.019077935  0.018950882           11 
 2186000   0.90718113   -7.7762841    500.97733  0.019097946    0.0189438            5 
 2187000   0.89812517   -7.7532623    501.85021  0.019122474  0.018936733           11 
 2188000   0.90795829   -7.7510949    501.18507  0.019088401  0.018929678           12 
 2189000   0.88964349   -7.7522537    501.72691  0.019100309  0.018922579           14 
 2190000   0.88622864   -7.7229154    500.21733  0.019034145  0.018915491            4 
 2191000   0.89993036   -7.7442196    500.51556    0.0190368  0.018908442           13 
 2192000   0.90400679   -7.7177353    501.84073  0.019078495  0.018901361            6 
 2193000   0.90604722   -7.7427364    500.89693  0.019033931  0.018894289            4 
 2194000    0.9033755   -7.7479598    501.02321  0.019030052  0.018887235            6 
 2195000   0.90051131   -7.7173802    502.17604   0.01906515  0.018880231            4 
 2196000   0.88657758   -7.7220564    502.00437  0.019049953  0.018873176            6 
 2197000   0.88775657   -7.7451077    501.51464  0.019022707  0.018866167            4 
 2198000   0.90098385   -7.7437179    502.60126  0.019055249  0.018859244            6 
 2199000   0.90325868   -7.6784104     502.3754  0.019038025   0.01885231            5 
 2200000   0.90139737   -7.7582816    501.43732  0.018993838  0.018845332            6 
 2201000   0.90173159   -7.7205538    503.49072  0.019062953  0.018838349            6 
 2202000   0.88270977   -7.7565128    501.93241  0.018995323  0.018831365            4 
 2203000   0.90230699   -7.7297953    501.87124  0.018984386  0.018824411           14 
 2204000   0.90316015   -7.7457879    502.26477  0.018990652  0.018817487            8 
 2205000   0.90556121   -7.7645111    501.93027  0.018969398  0.018810536           11 
 2206000   0.90144933   -7.7586786    502.07255  0.018966174   0.01880354            8 
 2207000   0.89898261   -7.7533186    501.15914  0.018923091  0.018796548            6 
 2208000   0.88957875     -7.76831    502.24584  0.018955534  0.018789555            5 
 2209000   0.89623717   -7.7829408    501.35291  0.018913268  0.018782533            4 
 2210000   0.89932195   -7.7734592     502.9212  0.018963846  0.018775455            9 
 2211000    0.8962205   -7.7025773    501.83387  0.018914287  0.018768446           13 
 2212000   0.89685451   -7.7368754     502.2913  0.018922969   0.01876145            8 
 2213000   0.90819298   -7.7556654    502.58323  0.018925412  0.018754396            3 
 2214000   0.89590453   -7.7174391    503.32687  0.018944853  0.018747401            4 
 2215000   0.89055555   -7.7336676    503.32986  0.018936413  0.018740359            5 
 2216000   0.89919773   -7.7557242    502.80442  0.018908109  0.018733369            4 
 2217000    0.9022312   -7.7744322    501.32348  0.018843914   0.01872635            8 
 2218000   0.90263305   -7.7099445    503.05547  0.018900491  0.018719304            4 
 2219000    0.9159523   -7.7394282    503.32407  0.018902061  0.018712273            3 
 2220000   0.88550548   -7.7285806    502.87584  0.018876721  0.018705267            9 
 2221000   0.91287549   -7.7535473    501.35722  0.018811242  0.018698225            5 
 2222000   0.90080568   -7.7700693    502.60157  0.018849444  0.018691185            7 
 2223000   0.87966771   -7.7857022     501.8096  0.018811276  0.018684138            8 
 2224000   0.88751069   -7.7978562     501.3274   0.01878475  0.018677085            7 
 2225000   0.89555378   -7.7609389    502.82446  0.018832377  0.018670027           15 
 2226000    0.8902503   -7.7798208    503.28162  0.018841031  0.018663044            8 
 2227000    0.8977662   -7.7734307    502.83576  0.018815887  0.018656114           10 
 2228000   0.91295104   -7.7570489    502.76383  0.018804751  0.018649114            4 
 2229000   0.90785343   -7.8178584    502.04938  0.018769605  0.018642066            4 
 2230000   0.89970536   -7.8274419    500.19611  0.018691932  0.018635033            9 
 2231000   0.90198224   -7.7959047    502.50552  0.018769816  0.018628018            9 
 2232000   0.89331585   -7.7497498    504.94083  0.018852331  0.018621052           10 
 2233000   0.90864816   -7.7744145    502.76305  0.018762616  0.018614094            3 
 2234000   0.88645314   -7.7755775    504.66965  0.018825338  0.018607135            8 
 2235000   0.91514374    -7.770201    503.74907   0.01878259  0.018600257            9 
 2236000   0.88538916   -7.7540207    504.88866  0.018816661  0.018593347            6 
 2237000   0.89688041   -7.7504257    505.09568  0.018815962  0.018586423            8 
 2238000    0.8883612   -7.7849042    503.48889  0.018747725  0.018579497            5 
 2239000   0.87454438   -7.7720885    503.23482  0.018729895  0.018572522            7 
 2240000   0.87816952   -7.7888739    502.71871  0.018702333  0.018565535           18 
 2241000     0.899994   -7.7466389    503.66948  0.018729343  0.018558548           20 
 2242000   0.87670526   -7.8094947    502.18451  0.018665794  0.018551506           22 
 2243000    0.8786986    -7.783265    503.37463  0.018701688  0.018544475           20 
 2244000   0.89998895   -7.7878083    503.20967  0.018687228  0.018537468           11 
 2245000   0.90669536   -7.7690743    504.03012  0.018709358  0.018530499           12 
 2246000   0.89093363   -7.7802551    503.02733  0.018663822   0.01852354           10 
 2247000   0.87617743   -7.7460345    505.77786  0.018757523  0.018516544           14 
 2248000   0.90518044   -7.7751665    502.80092  0.018638824   0.01850955            9 
 2249000   0.89418428   -7.7963061    503.30589  0.018649247  0.018502539            8 
 2250000   0.88250071   -7.7725629    504.27588  0.018676884  0.018495546           15 
 2251000   0.88194842   -7.7544639    504.58709  0.018680109  0.018488547            3 
 2252000   0.90688179   -7.7196141    504.66814  0.018674813  0.018481587           13 
 2253000    0.8852594   -7.7491252    505.48418  0.018696707  0.018474664            5 
 2254000   0.88718638   -7.6851043    505.13691  0.018675574  0.018467793            5 
 2255000   0.90295492   -7.7410459    505.33104  0.018674466  0.018460942            9 
 2256000   0.87921844   -7.7817675     504.8765  0.018649398  0.018454085           11 
 2257000   0.90897845   -7.7579426    505.05372  0.018647678  0.018447213            9 
 2258000   0.89234841   -7.7350728    504.79983   0.01863005   0.01844036            7 
 2259000   0.87718274   -7.7997316    504.22672  0.018600661  0.018433452            6 
 2260000   0.89128397   -7.8067672    504.44614  0.018600521  0.018426519            6 
 2261000    0.8891116   -7.7834978    504.97163  0.018611663  0.018419575           11 
 2262000   0.90489604   -7.7741824    504.35943  0.018580881  0.018412626            8 
 2263000   0.89084751   -7.8006854    505.81403  0.018626235  0.018405664            4 
 2264000   0.86554556   -7.8057335     502.8533  0.018509029  0.018398657           11 
 2265000   0.89663934   -7.8030358    504.69897  0.018568763  0.018391721            6 
 2266000   0.90985477   -7.7989383    504.54558  0.018554927  0.018384828            9 
 2267000   0.85924327   -7.7929568    504.54724  0.018546803  0.018377894            4 
 2268000   0.88652022   -7.7923051    505.45265  0.018571893  0.018370962            5 
 2269000   0.89073937     -7.76511    504.38849  0.018524625  0.018364069            5 
 2270000   0.90654674   -7.7840347    505.65482  0.018562952  0.018357196            5 
 2271000   0.88175154   -7.7693386    507.00751  0.018604415  0.018350329            3 
 2272000   0.88776029   -7.7789612    505.82848  0.018552981  0.018343449           15 
 2273000   0.89484065   -7.7525657    505.03432  0.018515703  0.018336574            8 
 2274000   0.89059496    -7.820083    505.53133  0.018525774  0.018329668            5 
 2275000   0.88372212    -7.852161    504.69548  0.018487014  0.018322738            4 
 2276000   0.86073314     -7.75135    506.47333  0.018543986  0.018315843           11 
 2277000   0.90169191    -7.771986      505.963  0.018517164  0.018308984            7 
 2278000   0.88723492   -7.7513255     506.6973  0.018535898  0.018302095            8 
 2279000   0.90056552   -7.7447698    506.72647  0.018528831  0.018295278           11 
 2280000   0.89722644   -7.7779885     506.2891  0.018504718  0.018288458            6 
 2281000   0.87950215   -7.7945495    506.31581  0.018497582  0.018281604            7 
 2282000   0.90198946   -7.7857249    504.73253  0.018431658  0.018274719           11 
 2283000   0.89297631   -7.7969082    506.08208  0.018472846  0.018267895            8 
 2284000   0.88867968   -7.7812309    508.46562  0.018551723  0.018261093            8 
 2285000   0.89201093   -7.8357134    505.67671  0.018441893  0.018254265           16 
 2286000   0.88153534   -7.8310222    505.59767  0.018430944  0.018247414           11 
 2287000   0.89653868   -7.7892799     506.3619  0.018450732  0.018240564           15 
 2288000   0.88010538   -7.8116619    505.40115  0.018407676  0.018233731            9 
 2289000   0.89998835   -7.8212668    505.81995  0.018414881  0.018226862            6 
 2290000   0.87991526    -7.790338    507.38049  0.018463628   0.01822007            7 
 2291000   0.88045581   -7.7750658     507.5321  0.018461083  0.018213306            6 
 2292000   0.87910565   -7.7751282    508.28326   0.01848034   0.01820656            9 
 2293000   0.89407793   -7.7712986    508.83956  0.018492497  0.018199835            6 
 2294000   0.87730613   -7.7592616    508.53942  0.018473533   0.01819314            7 
 2295000   0.88227447   -7.7980983      508.671  0.018470262  0.018186451            4 
 2296000   0.87468563    -7.786522    507.78976  0.018430232  0.018179728            6 
 2297000   0.87178406   -7.7625454    508.37852  0.018443568  0.018173006            9 
 2298000    0.8856469   -7.7585102    508.09459  0.018425246  0.018166286           11 
 2299000   0.88317961   -7.8187423    506.55723  0.018361506  0.018159593           20 
 2300000   0.87832455   -7.7645573    509.32929   0.01845396   0.01815289           10 
 2301000   0.87740555   -7.7793945    508.16678  0.018403838   0.01814621           10 
 2302000   0.89281814    -7.791331    507.80249  0.018382656  0.018139544            8 
 2303000   0.88488723   -7.7851345    508.80123  0.018410813  0.018132893           11 
 2304000    0.8904304   -7.7904712     509.1591  0.018415766  0.018126237           11 
 2305000   0.88499251   -7.7795125    509.88324  0.018433957  0.018119529            5 
 2306000   0.87518676   -7.8147083    509.96345  0.018428861  0.018112811            4 
 2307000   0.88185135   -7.7958303     509.4263   0.01840147  0.018106141           14 
 2308000   0.90233347   -7.7913734    509.21763  0.018385963  0.018099492            8 
 2309000   0.87064924   -7.7495972    511.09603  0.018445793  0.018092869            6 
 2310000   0.89216092   -7.7874628    510.48378  0.018415721  0.018086216            8 
 2311000   0.88009947   -7.7640236    510.57427  0.018411015  0.018079592            6 
 2312000   0.87070676   -7.7853978    509.74926  0.018373315  0.018072989            9 
 2313000   0.89467383   -7.8000831    509.44633  0.018354458    0.0180664           25 
 2314000   0.88788283   -7.8289216    508.78646  0.018322762  0.018059797            5 
 2315000   0.88296401   -7.8014012    509.36425  0.018335646  0.018053121            6 
 2316000   0.89389237   -7.8340295    507.66313   0.01826652  0.018046442            7 
 2317000   0.89028908   -7.8259187    509.18791  0.018313477  0.018039747           10 
 2318000   0.88447391   -7.8352086    509.19222  0.018305731  0.018033055            6 
 2319000   0.87346862   -7.8042428     508.2849  0.018265233   0.01802634            6 
 2320000   0.88896084   -7.8063531    509.22765  0.018291223  0.018019657            4 
 2321000   0.89285019   -7.8495843    508.22076  0.018247191   0.01801294            7 
 2322000   0.86812814   -7.8211837    508.57613  0.018252086   0.01800619           14 
 2323000   0.87983781   -7.8523932    508.42513  0.018238812  0.017999425           23 
 2324000   0.86550623   -7.8395952    508.81779  0.018245044  0.017992681            4 
 2325000   0.87345453   -7.8242506       510.28  0.018289606  0.017985984            5 
 2326000   0.88152597   -7.8292746    509.76099  0.018263148   0.01797927           12 
 2327000   0.86883001   -7.7953335    509.73715  0.018254446  0.017972501            4 
 2328000   0.87085429   -7.8406676     509.5109  0.018238506  0.017965805            7 
 2329000   0.86509405   -7.7875119    510.38583  0.018261981  0.017959139           10 
 2330000   0.88178463   -7.8225242    510.09358   0.01824369  0.017952448           11 
 2331000   0.88998602   -7.8096549    510.70196  0.018257613  0.017945805            5 
 2332000   0.87382833   -7.7761466    509.89677  0.018221011  0.017939184           11 
 2333000   0.88786147   -7.8134525    509.96168  0.018215519  0.017932561            6 
 2334000   0.87256752   -7.8135403    510.63109  0.018231616  0.017925908            8 
 2335000   0.89310442   -7.8080453     509.6403  0.018188448  0.017919266            8 
 2336000   0.86633725    -7.783008    511.37591  0.018242577  0.017912645           10 
 2337000   0.88990123   -7.8083922    510.52864  0.018204559  0.017906052            5 
 2338000   0.88580661   -7.8304973    509.91904  0.018175044  0.017899431            6 
 2339000   0.87789741   -7.8396643    509.65848  0.018157991  0.017892805            4 
 2340000   0.87274178   -7.8242036    511.26091  0.018207297  0.017886188           13 
 2341000   0.86403982   -7.8580376    509.58942  0.018140019  0.017879554            7 
 2342000   0.87375894   -7.8446177    510.38631  0.018160629  0.017872944            6 
 2343000   0.88394578   -7.8054815    509.93099  0.018136683  0.017866384           15 
 2344000   0.86035255   -7.8191496    511.05701  0.018168978  0.017859853            4 
 2345000   0.89822524   -7.8049159    511.46974  0.018175897  0.017853283           14 
 2346000    0.8884069   -7.8100105    511.36654  0.018164484  0.017846711            4 
 2347000   0.88590116   -7.8154174     510.9642  0.018142458  0.017840147            8 
 2348000   0.88005846   -7.8531545    509.66439    0.0180886  0.017833584            7 
 2349000   0.88410941   -7.8720634    512.84327  0.018193673  0.017827002           10 
 2350000   0.88616865   -7.8483195    511.12967  0.018125166  0.017820392            8 
 2351000   0.88209045   -7.8302199    511.44779  0.018128732  0.017813775           10 
 2352000   0.85570529   -7.8651187    510.27572  0.018079497  0.017807173           12 
 2353000   0.86601593   -7.8572607    511.46084  0.018113785  0.017800607            3 
 2354000   0.88334921   -7.8326624     512.0592  0.018127273  0.017794038           13 
 2355000    0.8885667    -7.853296    512.83308  0.018146959  0.017787497            7 
 2356000   0.87961665   -7.8573383    511.58941  0.018095268  0.017780924           11 
 2357000    0.8592417   -7.8466332    512.26499  0.018111476  0.017774414           14 
 2358000   0.88987187   -7.8518489    510.40762  0.018038155   0.01776783            5 
 2359000   0.86723378   -7.8280369    512.90102  0.018118589  0.017761312           23 
 2360000   0.87808975   -7.8502697    511.57079   0.01806394  0.017754794           10 
 2361000   0.88455916   -7.8437083    512.62437  0.018093476  0.017748285           35 
 2362000   0.88465137     -7.85093    512.88154  0.018094889  0.017741761           18 
 2363000   0.86308037   -7.8372544    513.44468  0.018107091  0.017735243           15 
 2364000    0.8605296   -7.8443895    511.60182  0.018034469  0.017728768            7 
 2365000   0.88671646   -7.8233949    513.71896  0.018101443  0.017722294            9 
 2366000   0.85769796    -7.791483    513.49123  0.018085772  0.017715852           33 
 2367000   0.86798815   -7.8720504    512.29424  0.018035989  0.017709387            5 
 2368000   0.88669618   -7.8430966    513.58877  0.018073929  0.017702913           17 
 2369000   0.88188515   -7.8471658    511.70752  0.018000124  0.017696417           35 
 2370000   0.87324948   -7.8438723    512.78765  0.018030508  0.017689958           12 
 2371000   0.87418341   -7.8712717    512.97969  0.018029653  0.017683494           18 
 2372000   0.89083616    -7.832083    513.49903  0.018040298  0.017676994           14 
 2373000   0.87643997   -7.8657179    512.62737  0.018002085  0.017670531           19 
 2374000   0.88492755   -7.8327397    513.48026   0.01802444  0.017664089           12 
 2375000   0.87884017    -7.829346    514.50218  0.018052708  0.017657622           11 
 2376000    0.8766053   -7.8529336    512.23965  0.017965756  0.017651172           16 
 2377000    0.8687731   -7.8556719    513.02973  0.017985897  0.017644687            9 
 2378000   0.87627171   -7.8475679    514.38337   0.01802577  0.017638235            6 
 2379000   0.88779395   -7.8743414    513.33138  0.017981343  0.017631763           12 
 2380000   0.88707426   -7.8761669    512.18099  0.017933508  0.017625266           19 
 2381000   0.88476175   -7.8485784    513.39913   0.01796861  0.017618806            9 
 2382000   0.86152348   -7.8569001     511.9282  0.017909607  0.017612313           14 
 2383000   0.88333736   -7.8578732    513.70754  0.017964314  0.017605818            5 
 2384000   0.87682656   -7.8743599    512.10966  0.017900925  0.017599261           10 
 2385000   0.87480328   -7.8637707    513.34541  0.017936597  0.017592761           12 
 2386000   0.86701836   -7.8592559    513.73107  0.017942549  0.017586278            6 
 2387000    0.8799176   -7.8629141    513.36313  0.017922187   0.01757979            6 
 2388000   0.86521596   -7.8860906    513.31399  0.017912967  0.017573284           22 
 2389000   0.86989428   -7.8675449    513.61693  0.017916037  0.017566794           29 
 2390000   0.89455363   -7.8549256     513.6048  0.017908117   0.01756034           26 
 2391000   0.84806734   -7.8818811    514.43764  0.017929654  0.017553879           20 
 2392000   0.88100543   -7.8670559    514.15767  0.017912405  0.017547417            7 
 2393000   0.86691733   -7.8519009    514.15377  0.017904784  0.017540932           12 
 2394000   0.87942689   -7.8665228    514.00373  0.017892082  0.017534487           19 
 2395000   0.87213414   -7.8744912    514.14776  0.017889623  0.017528038           18 
 2396000   0.85255089   -7.8660094    513.26787  0.017851554  0.017521524           10 
 2397000   0.87422229   -7.8171023    514.65527   0.01789234  0.017515056           11 
 2398000   0.85753993   -7.8527447    514.76857  0.017888816   0.01750861            8 
 2399000   0.86433652   -7.8663608    514.43733  0.017869853  0.017502173            5 
 2400000   0.87028382   -7.8403744    515.02071  0.017882663  0.017495723            7 
 2401000   0.87478764   -7.8566391    514.36999   0.01785263  0.017489257           12 
 2402000     0.871633   -7.8708341    514.65121  0.017854954  0.017482779           10 
 2403000    0.8607101   -7.8819726    513.71025  0.017814893  0.017476271           29 
 2404000   0.87059906   -7.8637127    512.66954  0.017771407  0.017469778           19 
 2405000   0.86703198   -7.8602852    514.43218  0.017825093  0.017463276           21 
 2406000   0.85263752   -7.8818817    514.61864  0.017824142  0.017456774           24 
 2407000   0.86655691   -7.8836821      513.687  0.017784483  0.017450279           19 
 2408000   0.87312236   -7.8860067    514.41738  0.017802373  0.017443832            9 
 2409000   0.88292647   -7.8770415    514.02256  0.017781325  0.017437392           11 
 2410000   0.85908979   -7.8773513    515.39326  0.017821344  0.017430945            8 
 2411000   0.87212769   -7.8580768    514.36246  0.017778324  0.017424496           14 
 2412000   0.85478931   -7.9061224     515.1171  0.017797025  0.017418045            7 
 2413000   0.87272828   -7.8705739    516.06421  0.017822358  0.017411629           13 
 2414000    0.8518408   -7.8991203    513.22194  0.017716858  0.017405173           14 
 2415000   0.86516432   -7.9025528      514.721  0.017761249  0.017398726           22 
 2416000   0.85918704   -7.8630781    514.81545  0.017757155  0.017392299           10 
 2417000   0.86851214   -7.8585372    515.84581  0.017785333  0.017385905            9 
 2418000   0.86677165   -7.8715126    515.30917  0.017759483   0.01737955           11 
 2419000    0.8648052   -7.8294896    515.51741  0.017759316  0.017373159            9 
 2420000   0.85953853   -7.8284916    517.43188  0.017817902  0.017366845            7 
 2421000   0.84543604   -7.8532418    516.52424  0.017779301  0.017360503            9 
 2422000   0.84095173   -7.8667612    515.97708  0.017753134  0.017354118            7 
 2423000   0.86935858   -7.8570719    515.34309  0.017724002  0.017347742           10 
 2424000    0.8540771   -7.8099321    515.89072  0.017735517  0.017341456            5 
 2425000    0.8716555   -7.8615782    514.16542  0.017668915  0.017335096            5 
 2426000   0.87125868   -7.8597662    515.63368  0.017712066   0.01732875           11 
 2427000   0.86906534   -7.8606465    515.27882  0.017692584  0.017322395           23 
 2428000    0.8685669   -7.8542152    516.92565  0.017741819   0.01731603           10 
 2429000   0.88656428   -7.8639467    515.67709   0.01769168  0.017309656            7 
 2430000   0.86358109   -7.8543721    516.88863  0.017725948  0.017303277           20 
 2431000   0.87564205   -7.8833231    514.74713  0.017645246  0.017296907           20 
 2432000   0.85277191   -7.8841208    516.03109  0.017681986  0.017290519           11 
 2433000   0.87379458   -7.8112076    516.34418  0.017685442  0.017284165           10 
 2434000   0.88438813   -7.8610425    516.83904  0.017695119  0.017277824           22 
 2435000    0.8694235   -7.8632713    516.31591  0.017669949  0.017271467            7 
 2436000   0.84537919   -7.8719848    517.95614  0.017718806  0.017265098            8 
 2437000   0.87003011   -7.8972483    515.89609  0.017641092  0.017258711            6 
 2438000   0.85416131   -7.8894567    514.04618  0.017570624  0.017252347            7 
 2439000   0.87903386   -7.8528135    516.25509  0.017638892  0.017245957            6 
 2440000   0.86263612   -7.8581952    516.50194  0.017640094  0.017239571            3 
 2441000   0.85141599   -7.8673448    515.92052  0.017613018  0.017233221           10 
 2442000   0.85722334   -7.8656909    516.03099  0.017609575  0.017226882            5 
 2443000   0.84772227   -7.8616023    516.71985  0.017625865  0.017220543           10 
 2444000   0.86970779   -7.8678279    515.36814  0.017572564  0.017214182            6 
 2445000    0.8551721   -7.8584277    515.99314  0.017586678  0.017207855            8 
 2446000   0.85817935   -7.8557075    515.21345  0.017552925  0.017201482            8 
 2447000   0.84591125   -7.8523734    516.90291  0.017603287  0.017195137           27 
 2448000   0.86289722   -7.8344198    516.59374  0.017585571  0.017188786            7 
 2449000    0.8752395    -7.879188    516.56564  0.017577434  0.017182489            7 
 2450000   0.86169077   -7.8920948    515.81352  0.017544677  0.017176163            9 
 2451000   0.87416558    -7.845147    516.46891  0.017559802  0.017169834            8 
 2452000   0.86970122   -7.8942938    515.60858  0.017523402  0.017163497            9 
 2453000    0.8632646   -7.8594125    515.78585  0.017522281  0.017157167            6 
 2454000   0.87553709   -7.8461471     517.7731  0.017582624  0.017150821           19 
 2455000   0.85320743   -7.8780469    516.65086  0.017537368  0.017144446           20 
 2456000   0.85071586   -7.9143664    515.09484  0.017477431  0.017138048           12 
 2457000   0.87081135   -7.8636644     514.6004  0.017453548  0.017131627           12 
 2458000   0.86846116   -7.8584731    516.18159  0.017500054  0.017125221           11 
 2459000   0.85682797   -7.8592739    516.18749  0.017493137  0.017118853            7 
 2460000   0.86981955   -7.8910721    515.84697  0.017474491  0.017112501            4 
 2461000   0.88033729   -7.8897528    516.13907  0.017477281  0.017106099           15 
 2462000   0.86090683   -7.8851384    516.68793   0.01748876  0.017099691            7 
 2463000   0.84975787   -7.8780769    517.23811  0.017500274   0.01709329            5 
 2464000   0.88120694   -7.8883858    515.70652  0.017441373  0.017086857            9 
 2465000   0.86049452   -7.8816927    516.32041  0.017455051  0.017080432           32 
 2466000   0.87134899   -7.8900265    516.26789  0.017446198  0.017074022           11 
 2467000    0.8331563   -7.9193567    516.41955  0.017444249  0.017067598           12 
 2468000   0.84694211   -7.8697941    516.69801  0.017446583  0.017061179            9 
 2469000   0.84156351   -7.9125288    514.79302   0.01737522  0.017054778           11 
 2470000   0.86618605   -7.8486787     516.9189  0.017439909  0.017048409            7 
 2471000    0.8792553   -7.8809049    517.43468  0.017450245  0.017042063            9 
 2472000   0.85218684   -7.8843839    516.63657  0.017416281  0.017035677           22 
 2473000   0.87401217   -7.8560844    516.52431  0.017405456  0.017029289           14 
 2474000   0.85806199   -7.9177607    515.50669  0.017364143  0.017022904           24 
 2475000   0.84009152    -7.910747    516.57605  0.017393133    0.0170165            4 
 2476000   0.85140187   -7.8952298    516.90364  0.017397134  0.017010093           13 
 2477000   0.85592392   -7.9155612    515.37875  0.017338809  0.017003675            8 
 2478000   0.85388892   -7.8935019    516.00001  0.017352704  0.016997281           12 
 2479000   0.85343424   -7.8972387    517.04631  0.017380876   0.01699088           20 
 2480000   0.85476588   -7.8802508    516.92189  0.017369687   0.01698449           12 
 2481000   0.87398499   -7.9208072    516.54709  0.017350097  0.016978106            7 
 2482000   0.84813965   -7.9048468    515.60843  0.017311591  0.016971699            8 
 2483000   0.85345355   -7.9084829    515.66549  0.017306534  0.016965269           10 
 2484000   0.84890567   -7.9195998    515.66425  0.017299525  0.016958878           11 
 2485000   0.86011077   -7.9134002    516.02656  0.017304713  0.016952462            9 
 2486000   0.84568401   -7.8901021    516.53199  0.017314695  0.016946079            6 
 2487000   0.85368233   -7.9133624    516.92226   0.01732081  0.016939734           10 
 2488000   0.84761514   -7.8900464    516.84856   0.01731138  0.016933403           25 
 2489000   0.83588438    -7.857673    518.36856  0.017355315  0.016927072            9 
 2490000   0.85769264   -7.8718134    518.81614  0.017363325  0.016920751            9 
 2491000   0.86049385   -7.8942443    517.50937  0.017312638  0.016914452           11 
 2492000   0.87575296   -7.9213605    516.10945  0.017258877  0.016908117           34 
 2493000   0.84371632   -7.9286929    517.98085  0.017314509  0.016901759           25 
 2494000     0.865112   -7.9307785    516.20995  0.017248394  0.016895381           17 
 2495000   0.84634179   -7.9102933    518.48721  0.017317542  0.016889004           18 
 2496000   0.83800215   -7.9220492    517.25738  0.017269544  0.016882659           19 
 2497000    0.8480453   -7.9378054    516.89788   0.01725063    0.0168763           18 
 2498000   0.85916966   -7.9193173    516.85322  0.017242234  0.016869962           16 
 2499000   0.87312807   -7.9068952    517.82717  0.017267813  0.016863612           23 
 2500000   0.85751615    -7.915854    516.71748  0.017223916  0.016857287           15 
 2501000   0.83062043   -7.8696032    519.23359  0.017300866   0.01685095           13 
 2502000   0.84926442   -7.9002099    517.66393  0.017241671  0.016844641            6 
 2503000   0.85641917   -7.9081561    516.94748  0.017210929   0.01683831            7 
 2504000   0.84426974   -7.8932033    518.22439  0.017246552  0.016832002            5 
 2505000    0.8510384   -7.8855941    518.06537  0.017234377   0.01682573           13 
 2506000     0.855972   -7.8721413    518.35898  0.017237263  0.016819448            7 
 2507000   0.84686993   -7.9001028    518.28196  0.017227827   0.01681318           34 
 2508000   0.83961948   -7.8614875     518.0948   0.01721474  0.016806852            9 
 2509000   0.85573844   -7.8809913    518.29162  0.017214415  0.016800511           14 
 2510000   0.86141476   -7.9102334    517.37512  0.017177129  0.016794157            8 
 2511000   0.84284001   -7.9105553    517.96975  0.017190022  0.016787796            5 
 2512000   0.84862442   -7.9011921    517.24958  0.017159288  0.016781421           13 
 2513000    0.8749463    -7.944669    518.08056  0.017180016   0.01677504            5 
 2514000   0.85796868   -7.9059414    516.82431  0.017131541   0.01676867            7 
 2515000   0.86518021   -7.8950692    518.02648  0.017164562  0.016762268            6 
 2516000   0.85091774   -7.9260347    517.29983  0.017133672   0.01675589           33 
 2517000   0.84546431   -7.9394176     516.9136  0.017114078  0.016749464           28 
 2518000   0.84980607   -7.9294192    517.41505  0.017123877  0.016743071           16 
 2519000   0.85555901   -7.9204095    516.44007  0.017084824  0.016736692           14 
 2520000    0.8371693   -7.9250795    516.68977  0.017086302  0.016730301            9 
 2521000   0.84338017   -7.9474085    515.89574  0.017053277  0.016723873            8 
 2522000   0.84979174   -7.9338721    517.20626  0.017089818  0.016717466           11 
 2523000   0.85022534   -7.9367729    516.94933  0.017074558  0.016711035           14 
 2524000   0.86643368   -7.9130369    517.85732  0.017097772   0.01670462           12 
 2525000   0.86337384   -7.9640912    516.13818  0.017034263  0.016698213           16 
 2526000   0.84711789    -7.947015    515.52134   0.01700717   0.01669175           26 
 2527000    0.8518543   -7.9522609    516.23268  0.017023898  0.016685277           22 
 2528000   0.86358235   -7.9460401    515.61744  0.016996883  0.016678776           37 
 2529000   0.84596219    -7.935632    516.91468  0.017032908  0.016672306           20 
 2530000   0.86289961   -7.9795763    516.48639  0.017012068  0.016665835           12 
 2531000   0.81122992   -7.9379099    516.70885  0.017012671  0.016659347           16 
 2532000   0.83146308   -7.9521359    516.26666  0.016991399  0.016652897           15 
 2533000    0.8502426   -7.9354986    516.12642  0.016980077  0.016646454           19 
 2534000   0.85697165   -7.9688587    516.39162  0.016982097  0.016639977           22 
 2535000   0.85245276   -7.9868511    516.52249  0.016979701  0.016633497           23 
 2536000   0.83478771   -7.9383322    515.96091  0.016954552  0.016627044           16 
 2537000   0.84976826    -7.946949    516.71765  0.016972725  0.016620592           21 
 2538000   0.83953468   -7.9486831    517.37086  0.016987486  0.016614144           17 
 2539000   0.85588962   -7.9565631    516.50207   0.01695228  0.016607686           19 
 2540000   0.85561242   -7.9623526    515.82581  0.016923419  0.016601254           47 
 2541000   0.84591466   -7.9547279    516.03671  0.016923675  0.016594813           31 
 2542000   0.84083105   -7.9347631    516.98096  0.016947973  0.016588383           18 
 2543000   0.84509639    -7.973663     516.0128  0.016909582  0.016581918           20 
 2544000   0.85437269   -7.9545131    515.83036  0.016896959  0.016575451           29 
 2545000   0.84691916   -7.9215663    517.29371  0.016938236  0.016568979           13 
 2546000   0.84083553   -7.9193148    518.19994  0.016961244  0.016562542           23 
 2547000   0.83494739   -7.9462731    518.01341  0.016948482  0.016556128           11 
 2548000   0.83407443   -7.9278784    517.05176   0.01691038  0.016549728           12 
 2549000   0.83395081   -7.9618925    516.96858  0.016901026  0.016543342           24 
 2550000    0.8306718   -7.9599868     516.7642  0.016887719  0.016536913           11 
 2551000   0.84224448   -7.9684891    517.49438  0.016904952  0.016530505           17 
 2552000   0.83732596   -7.9799947    516.46435  0.016864693  0.016524066           11 
 2553000    0.8490549    -7.935912    516.33676  0.016853922  0.016517651           15 
 2554000    0.8569408   -7.9057793    517.58057  0.016887907  0.016511248           10 
 2555000   0.85828868   -7.9461323    517.77566   0.01688766  0.016504842            8 
 2556000   0.82568684    -7.895983    516.97714  0.016855019  0.016498479           11 
 2557000   0.84812005   -7.9223822    517.22582  0.016856532  0.016492101            6 
 2558000   0.82512722   -7.9131514    517.53665  0.016860068  0.016485751           13 
 2559000   0.83572791   -7.9241141    516.60202  0.016823044  0.016479361            7 
 2560000   0.84001264   -7.9505691    516.79338  0.016822701   0.01647295           11 
 2561000   0.85236169   -7.9376172    516.35804  0.016801967  0.016466558            6 
 2562000   0.84588611   -7.9339103    516.99156  0.016816015  0.016460168            7 
 2563000   0.84843516   -7.9684545    517.51136  0.016826354  0.016453777           20 
 2564000   0.84441969   -7.9847251    516.61122  0.016790536  0.016447383           10 
 2565000      0.84897    -7.966905    517.38358  0.016809083  0.016440953            6 
 2566000   0.83634034   -7.9626947    516.22242  0.016764823  0.016434539           10 
 2567000   0.82136057   -7.9607711    517.25453  0.016791797  0.016428133            8 
 2568000    0.8516195   -7.9886334    517.43982  0.016791272  0.016421734           10 
 2569000   0.84420504   -7.9894985    516.09173  0.016741006  0.016415305           15 
 2570000   0.83803962   -7.9384593    517.15196   0.01676887   0.01640887           17 
 2571000   0.83622329   -7.9826728     516.7265  0.016748558  0.016402453           11 
 2572000   0.85854507   -7.9231403    517.85177  0.016778505  0.016396075           15 
 2573000   0.84113799   -7.9380139    518.29004  0.016786178  0.016389728           20 
 2574000    0.8351886   -7.9751998     515.4447  0.016687539  0.016383359           36 
 2575000    0.8286688   -7.9412797    518.06171  0.016765751  0.016376943           38 
 2576000   0.84195072   -7.9272182    517.73173  0.016748568   0.01637057           21 
 2577000   0.84471515    -7.969507    516.31945  0.016696399  0.016364195           36 
 2578000   0.84117736   -7.9921899    516.95056  0.016710323   0.01635781           19 
 2579000   0.82731395   -7.9522853    518.69287  0.016760142   0.01635148           24 
 2580000   0.82730746   -7.9267032    517.38874  0.016711522  0.016345129           43 
 2581000   0.83042836   -7.9781862     518.0737  0.016727163  0.016338785           33 
 2582000   0.84094228   -7.9768186    516.84329  0.016680974  0.016332418           37 
 2583000   0.83158441   -7.9142201    518.17586  0.016717507  0.016326097           17 
 2584000   0.83179367   -7.9379556    517.68001  0.016695047  0.016319788           13 
 2585000   0.82879226   -7.9570896    517.08018  0.016669251  0.016313472           22 
 2586000    0.8442045   -7.9776407    518.28729  0.016701704  0.016307113           28 
 2587000    0.8433112    -7.970003    516.97749  0.016653057  0.016300712           36 
 2588000   0.84673676   -7.9576351    517.48943  0.016663106  0.016294341           49 
 2589000   0.83491086   -7.9505583    518.39516  0.016685823  0.016288001           43 
 2590000   0.84038149   -7.9583522    517.20699  0.016641152  0.016281649           32 
 2591000   0.84167235   -7.9850922    518.24811  0.016668214  0.016275285           51 
 2592000   0.84134671   -7.9629479    517.69741  0.016644078  0.016268956           52 
 2593000   0.84371534   -7.9817145    517.96756  0.016646341  0.016262634           53 
 2594000   0.81882905   -7.9594763     517.8795  0.016637095  0.016256309           40 
 2595000   0.84620573   -7.9486349    518.99302  0.016666443  0.016249994           40 
 2596000   0.82303552   -7.9684069    517.76525   0.01662061   0.01624367           41 
 2597000   0.83236073   -7.9522935    518.00545  0.016621918  0.016237347           15 
 2598000   0.83869733   -7.9551356     518.0102  0.016615672  0.016231047           11 
 2599000   0.82014826   -7.9672805    518.38081  0.016621162  0.016224734           29 
 2600000   0.85281499   -7.9955765    518.04514  0.016604011  0.016218385           22 
 2601000   0.84663331   -7.9999804    517.72367  0.016587328  0.016212046           14 
 2602000   0.83819898   -7.9770137    518.14286  0.016594378  0.016205726           13 
 2603000   0.85270151   -7.9759306    518.45395  0.016597962  0.016199411            7 
 2604000    0.8185896   -7.9556179    518.47058   0.01659212  0.016193103           15 
 2605000   0.83213053   -7.9417347    519.24219  0.016610435   0.01618682           11 
 2606000   0.82817905   -7.9721059    517.85811  0.016559801  0.016180516            5 
 2607000    0.8301248   -7.9997095    517.05765  0.016527863  0.016174195           11 
 2608000   0.82577231   -7.9661144    518.05875  0.016553513  0.016167865            7 
 2609000   0.85017539   -7.9708777    517.80874  0.016539183  0.016161568            7 
 2610000   0.83764394   -7.9944087    518.63668  0.016559281  0.016155271            9 
 2611000   0.83466263    -7.992914    519.08418  0.016567221  0.016148963           11 
 2612000   0.82157896   -7.9651083    519.02207  0.016558897  0.016142623           16 
 2613000   0.82654247   -7.9912555    518.15407  0.016524878  0.016136304           11 
 2614000   0.84853815   -7.9819576    518.00624  0.016513843  0.016129982            8 
 2615000   0.85022194   -7.9678249     518.2643  0.016515752  0.016123695           16 
 2616000   0.82521937   -7.9722695    518.24154  0.016508714  0.016117425           17 
 2617000   0.82546088   -7.9347164    520.01035   0.01655873  0.016111147            8 
 2618000   0.83670367   -8.0055203     518.3172   0.01649851  0.016104871            6 
 2619000   0.85857822   -8.0001493    519.42834  0.016527566    0.0160986           11 
 2620000   0.83061397   -7.9722845    517.76316  0.016468294  0.016092325            5 
 2621000    0.8327283   -7.9387432    520.91853  0.016562334  0.016086073            7 
 2622000    0.8332831   -7.9377714    519.93653  0.016524807  0.016079846            8 
 2623000   0.84498467   -7.9586625     520.3808  0.016532622  0.016073629            5 
 2624000     0.823987   -7.9419573    520.22978  0.016521525  0.016067409           12 
 2625000   0.83400466    -7.948397    518.97895  0.016475522  0.016061156           21 
 2626000   0.85911973   -7.9985672     518.9119  0.016467121  0.016054903           20 
 2627000   0.83556214   -7.9756352    519.04925  0.016465209  0.016048667           34 
 2628000   0.85855104   -8.0024042    517.99768  0.016425599  0.016042417           32 
 2629000   0.83517007   -7.9722943    518.79769  0.016444709  0.016036163           11 
 2630000   0.83839139   -7.9596949     520.0112  0.016476907  0.016029921           25 
 2631000   0.80224001   -7.9671831    519.48364  0.016453935  0.016023711           26 
 2632000   0.81040413   -7.9744292    519.27116  0.016440956  0.016017502           19 
 2633000   0.81396549     -7.98842     518.9261  0.016423791   0.01601129           23 
 2634000   0.82790651   -8.0000344    518.27917  0.016397088  0.016005087           17 
 2635000   0.82269773   -8.0018192     519.4696  0.016428514  0.015998869           17 
 2636000   0.83786044   -7.9609054    519.25317  0.016415439  0.015992636           26 
 2637000    0.8290675   -7.9978524    518.12966  0.016373709  0.015986396           32 
 2638000   0.84536295   -8.0055058    519.38037  0.016407012  0.015980189           41 
 2639000   0.82894602   -7.9982637    520.30807   0.01643009  0.015973949           39 
 2640000   0.84510578   -7.9873957    518.89554  0.016379278  0.015967737           35 
 2641000   0.83131992   -7.9824305    520.22618  0.016415063  0.015961572           31 
 2642000   0.83466512   -7.9928869    519.29233  0.016379395  0.015955355           37 
 2643000   0.83767185   -7.9913094    519.16253  0.016369105  0.015949154            8 
 2644000   0.83675568   -8.0096989    520.15614   0.01639423  0.015942938           38 
 2645000   0.81279892   -7.9574221    521.43909  0.016428453  0.015936738           16 
 2646000   0.82301735   -7.9866952     519.1159  0.016349077   0.01593055           35 
 2647000   0.83062652   -7.9789037    519.34826  0.016350216  0.015924378           41 
 2648000   0.81668896   -7.9969613    520.21342  0.016371268  0.015918194           65 
 2649000   0.82258645   -7.9676723    519.42877  0.016340404  0.015912043           51 
 2650000   0.82080285   -7.9739553    521.33689  0.016394242  0.015905869           44 
 2651000   0.83506522   -8.0288198    518.81216  0.016308693  0.015899689           42 
 2652000   0.83007916      -7.9868    520.37806  0.016351749  0.015893485           34 
 2653000   0.83044366   -7.9811518    519.79057  0.016327132  0.015887287           45 
 2654000   0.82394569   -8.0020051    519.55303  0.016313522  0.015881087           71 
 2655000   0.83407859   -8.0280273    518.97212  0.016289144  0.015874894           72 
 2656000   0.83441625   -7.9736414    520.44075   0.01632909   0.01586872           72 
 2657000   0.84062518   -8.0087105    519.34564  0.016288597  0.015862526           64 
 2658000   0.81220063    -7.993115    520.00987  0.016303294  0.015856324           42 
 2659000    0.8252449   -8.0269298    519.81208  0.016290964  0.015850119           30 
 2660000   0.81767706    -8.023643    519.71344  0.016281749  0.015843928           55 
 2661000   0.82624995   -8.0317316    518.70651  0.016244097  0.015837699           45 
 2662000   0.81918772    -8.044938    519.51623  0.016263343  0.015831482           49 
 2663000   0.81520708   -8.0435458    519.59527  0.016259709  0.015825263           75 
 2664000   0.81820052   -8.0036403    521.05737  0.016299342  0.015819081           80 
 2665000   0.82727763   -7.9914181     521.6406  0.016311463   0.01581292           68 
 2666000   0.81553227   -7.9746814    521.58294  0.016303543   0.01580676           48 
 2667000   0.81727677   -8.0325017    519.84769   0.01624321  0.015800618           56 
 2668000   0.82093252   -8.0291629    518.83292  0.016205426  0.015794439           65 
 2669000   0.81615654   -8.0122685    520.72825  0.016258532  0.015788282           81 
 2670000   0.83958769   -8.0003614    520.29938  0.016239057  0.015782123           55 
 2671000    0.8439339   -8.0270627    519.99019   0.01622333  0.015775986           64 
 2672000   0.81794257   -8.0279359    521.04973  0.016250303  0.015769838           53 
 2673000   0.84103092   -8.0077617    520.78223  0.016235885  0.015763684           38 
 2674000   0.83537839   -8.0422126    519.77634  0.016198465  0.015757538           69 
 2675000   0.81470119   -8.0525573    520.21269  0.016206003  0.015751357           60 
 2676000   0.81038593   -8.0243001    520.19979  0.016199545  0.015745193           48 
 2677000   0.81871666   -8.0204377    520.57197  0.016205079  0.015739055           73 
 2678000   0.82807884    -8.047458     519.7129  0.016172296    0.0157329           53 
 2679000   0.81238423   -8.0160701    520.18506  0.016180946  0.015726767           46 
 2680000   0.84266019   -8.0379134    519.84786  0.016164423   0.01572062           57 
 2681000   0.81927476   -8.0565678    520.03771  0.016164295  0.015714477           80 
 2682000   0.84222743   -8.0271115    520.94692  0.016186519  0.015708362           67 
 2683000   0.83471665   -8.0362098    521.57701  0.016200056  0.015702241           50 
 2684000   0.82588006   -8.0125056    521.18303  0.016181788  0.015696124           55 
 2685000   0.80626701   -8.0285261    520.31626   0.01614886  0.015690008           84 
 2686000   0.81645123   -8.0398564    520.11394   0.01613657  0.015683877          142 
 2687000   0.83003521   -8.0666872    520.20085  0.016133261  0.015677737          187 
 2688000    0.8159533   -8.0288085    521.63565   0.01617174  0.015671625          156 
 2689000   0.82906996   -8.0538196    519.78876   0.01610849  0.015665509          116 
 2690000   0.82161845   -8.0263728    520.14391  0.016113504  0.015659369          174 
 2691000   0.82283529   -8.0077474    520.94802  0.016132417  0.015653276          161 
 2692000   0.82268609   -8.0400938    521.38829  0.016140054  0.015647168          131 
 2693000   0.82529011    -8.025198    521.05739  0.016123821  0.015641034          106 
 2694000   0.82779061     -8.02153    520.87596  0.016112223  0.015634942          131 
 2695000   0.80940299   -8.0188047    520.32984  0.016089358  0.015628871           65 
 2696000   0.82606725   -7.9723491    522.18609  0.016140767  0.015622789           66 
 2697000   0.81412404   -8.0178713    520.52365  0.016083415  0.015616709           66 
 2698000   0.84159772   -8.0293535    521.49103  0.016107333  0.015610615          130 
 2699000   0.81779833   -8.0361736    521.38011  0.016097941  0.015604489           93 
 2700000   0.81002133   -8.0496956     520.1829  0.016055028  0.015598358          247 
 2701000   0.84268769   -8.0518578    519.21356  0.016019177   0.01559222           74 
 2702000    0.7987698   -8.0574981    520.54406  0.016054283  0.015586078          223 
 2703000   0.82970913   -8.0504641    519.62371  0.016019969  0.015579891           74 
 2704000   0.82086781   -8.0497663    519.42665  0.016007971  0.015573721           88 
 2705000   0.80833145   -8.0402345    518.92929  0.015986731  0.015567567          230 
 2706000   0.82704171   -8.0832784    519.21276  0.015989553  0.015561343          233 
 2707000   0.82335602   -8.0843612    518.86319  0.015972885  0.015555126          238 
 2708000   0.82561225   -8.0748443    520.18047  0.016007523  0.015548916          193 
 2709000   0.82856012   -8.0962286    518.92465  0.015962983  0.015542693          250 
 2710000   0.82377907   -8.0816179    519.16537  0.015964495  0.015536465          118 
 2711000   0.82522467   -8.0988664    519.06081  0.015955392   0.01553024          307 
 2712000   0.82800367   -8.0680594    519.68884  0.015968806  0.015524033          261 
 2713000   0.82167631   -8.0820226    519.18964  0.015947587  0.015517834          334 
 2714000   0.80452762   -8.0739239    519.50746   0.01595147  0.015511638          298 
 2715000   0.79242676   -8.0950727    519.11136  0.015933436  0.015505453          300 
 2716000   0.81305307   -8.0732586    518.66172  0.015913774   0.01549928          246 
 2717000   0.81477465   -8.0842436    518.60574    0.0159062  0.015493122          295 
 2718000   0.81097462   -8.0524289    520.44792  0.015956829  0.015486978          352 
 2719000   0.82157801   -8.1084832    520.61049  0.015955942  0.015480808          306 
 2720000   0.81574427    -8.092427    519.62379  0.015919846  0.015474666          299 
 2721000   0.79487263   -8.0765485    520.35661  0.015936439  0.015468532          359 
 2722000   0.81102914   -8.0781261    519.90641  0.015916802   0.01546243          291 
 2723000   0.82512502   -8.0814512    520.81656   0.01593881  0.015456316          344 
 2724000   0.81327013   -8.0482118    520.51629  0.015923773  0.015450197          334 
 2725000   0.81616711   -8.0936703    519.92573  0.015899869  0.015444072          346 
 2726000   0.79820827   -8.0842983     521.3651  0.015938038  0.015437947          406 
 2727000   0.81958226   -8.0778905    519.17235  0.015865186  0.015431823          338 
 2728000   0.80723236   -8.1005728    518.24398  0.015831011  0.015425688          421 
 2729000   0.82413727   -8.0886964    520.08645  0.015881472  0.015419564          467 
 2730000   0.81569528   -8.0924016    518.66214  0.015832178  0.015413439          484 
 2731000   0.81075466    -8.067082    520.45377   0.01588105  0.015407337          572 
 2732000   0.82395166   -8.1004482     518.5401  0.015816865  0.015401228          524 
 2733000   0.82004835   -8.0821659    519.88533  0.015852096  0.015395129          501 
 2734000   0.82828057     -8.07747     520.4184  0.015862546  0.015388995          465 
 2735000   0.83577598   -8.0920414    519.54034  0.015829992  0.015382851          526 
 2736000   0.81665264   -8.1395524    519.07736  0.015810105  0.015376713          565 
 2737000    0.8008983   -8.1304868    519.12621  0.015805816  0.015370527          668 
 2738000    0.8182213   -8.1671504    519.11034   0.01579956  0.015364338          523 
 2739000   0.81780195   -8.1412297    518.77896  0.015783709  0.015358131          593 
 2740000   0.81934628   -8.1486668    518.34571  0.015764772   0.01535191          707 
 2741000   0.80721176   -8.1327192    519.33233  0.015789016  0.015345702          600 
 2742000   0.81280388   -8.1782158     517.9199  0.015740332    0.0153395          594 
 2743000   0.80653489   -8.1573386    519.84251  0.015793004  0.015333284          569 
 2744000   0.80842359   -8.1873475    518.84018  0.015756808  0.015327086          703 
 2745000   0.82019898    -8.163527    517.15735   0.01569998  0.015320871          723 
 2746000   0.80551909   -8.1952441    517.53059   0.01570559  0.015314631          785 
 2747000   0.81095449   -8.2014444    518.18862  0.015719834  0.015308422          720 
 2748000    0.8061213   -8.1949244    518.43411  0.015721558  0.015302207          687 
 2749000   0.82779352   -8.1897996    516.66918  0.015662337  0.015295986          690 
 2750000   0.81566588   -8.1751683    517.98365  0.015696474  0.015289748          828 
 2751000   0.80617098   -8.1735471    519.21775  0.015728152  0.015283525          719 
 2752000   0.82186242   -8.1646943    518.09044  0.015688301  0.015277306          799 
 2753000   0.82291681   -8.2102475     517.8712  0.015675966  0.015271078          818 
 2754000   0.79611674   -8.1962181    517.99621  0.015674056  0.015264831          862 
 2755000   0.82495956   -8.1729926    518.77418  0.015691899  0.015258621          853 
 2756000   0.81222879   -8.2068449    517.06548  0.015634539  0.015252393          888 
 2757000   0.80960313    -8.194933    517.67021  0.015647147  0.015246154          872 
 2758000   0.79114213   -8.1711383    518.67272  0.015671764   0.01523993          872 
 2759000   0.82372301   -8.2003659    517.77062  0.015638837  0.015233699         1074 
 2760000   0.79443906   -8.2098868     517.7174  0.015631564  0.015227465         1087 
 2761000   0.81386869   -8.1974567    517.06568  0.015606232  0.015221225         1097 
 2762000   0.81888472   -8.2098949    517.57001  0.015615798  0.015214985         1024 
 2763000   0.80154412   -8.2285129     516.8505  0.015588445  0.015208739         1154 
 2764000   0.82056235   -8.2349877    517.35578   0.01559804  0.015202466         1105 
 2765000   0.80217163   -8.2592683    516.87551  0.015577924  0.015196191         1178 
 2766000   0.81648171   -8.2308428    516.19603  0.015551821  0.015189899         1174 
 2767000   0.81920944   -8.2538854    516.23214  0.015547288  0.015183587         1283 
 2768000    0.8321415   -8.2494513    515.69004   0.01552535  0.015177299         1341 
 2769000   0.80291753   -8.2859351    516.91557  0.015556626  0.015170998         1330 
 2770000   0.81924218   -8.2662476    516.28278  0.015531973  0.015164699         1396 
 2771000   0.80653082   -8.2824633    515.75659  0.015510543  0.015158391         1483 
 2772000   0.81818779   -8.2869583    516.67005  0.015532409  0.015152078         1417 
 2773000   0.80684431   -8.2837065    516.32552  0.015516454  0.015145777         1412 
 2774000   0.81453682   -8.2919844    515.97266   0.01550026  0.015139453         1511 
 2775000   0.78797019    -8.265914    516.03696  0.015496605  0.015133137         1507 
 2776000    0.8032537   -8.2844992    515.16635  0.015464888  0.015126831         1490 
 2777000   0.80780343   -8.2872676    516.33628  0.015494427  0.015120483         1518 
 2778000   0.79997309   -8.3028933    515.38175  0.015460216  0.015114145         1544 
 2779000    0.8112769   -8.3161939    515.33252  0.015453176  0.015107799         1668 
 2780000   0.81306914   -8.2890163     515.3777  0.015448972  0.015101478         1626 
 2781000   0.80348744   -8.3007955    515.25719  0.015439805   0.01509514         1704 
 2782000   0.81818038   -8.3188551    515.48447  0.015441064  0.015088763         1755 
 2783000    0.8250939   -8.2847274    515.06659  0.015423003  0.015082386         1804 
 2784000   0.78925058   -8.3280185    514.49811  0.015400446  0.015075992         1808 
 2785000   0.80342728   -8.3773828    513.56534  0.015367006  0.015069584         1805 
 2786000    0.8094596   -8.3646493    514.21448  0.015380907  0.015063155         1899 
 2787000   0.78853464   -8.3763606    513.55604    0.0153557  0.015056725         1863 
 2788000   0.82379945   -8.3800174    512.54572  0.015319994  0.015050274         1990 
 2789000   0.78909158   -8.3810882    514.35311  0.015368505  0.015043806         2003 
 2790000   0.81452842   -8.3876502    513.51612  0.015337996  0.015037335         2020 
 2791000   0.81786237   -8.3903545    512.20106  0.015293236   0.01503086         2103 
 2792000   0.79559544   -8.4053352    513.06866  0.015313654  0.015024388         2105 
 2793000   0.80679705   -8.4181121    512.10795  0.015279507  0.015017891         2110 
 2794000   0.80195426   -8.4178323    511.14903  0.015245438  0.015011388         2145 
 2795000   0.81067716   -8.4078068    513.55269  0.015311649  0.015004874         2389 
 2796000   0.79018132   -8.4283604    512.09037  0.015262588  0.014998334         2292 
 2797000   0.80348634   -8.4333869    511.73374  0.015246506  0.014991809         2294 
 2798000   0.79616557    -8.429623    512.43264  0.015261873  0.014985281         2423 
 2799000   0.79944885   -8.4204377    513.46927  0.015287283  0.014978753         2313 
 2800000   0.81172673    -8.439731    511.11826  0.015211853  0.014972214         2419 
 2801000   0.79957755   -8.4685032    511.38278  0.015214292  0.014965654         2430 
 2802000   0.82622592   -8.4652739     510.4549  0.015181266  0.014959076         2481 
 2803000   0.79543085    -8.485284     509.7698  0.015155482  0.014952486         2629 
 2804000   0.79494149   -8.4679948    511.11972  0.015190196  0.014945868         2586 
 2805000   0.81243559   -8.4683876    509.63469  0.015140662  0.014939234         2619 
 2806000   0.79262177   -8.4917615    510.11805  0.015149621  0.014932621         2714 
 2807000   0.79239965   -8.4938337    509.45745  0.015124613  0.014925989         2683 
 2808000   0.81850041    -8.525743    510.17382  0.015140486  0.014919366         2761 
 2809000   0.81364533   -8.4983027    510.11617  0.015133386  0.014912719         2848 
 2810000   0.80781493   -8.5338722    509.43997  0.015107947  0.014906052         2950 
 2811000   0.81524843   -8.5507822    508.12193  0.015063499  0.014899355         3022 
 2812000   0.79846671   -8.5677153    508.16517  0.015059423  0.014892642         3050 
 2813000    0.8052341   -8.5623439    508.56604  0.015065945  0.014885927         3146 
 2814000   0.80155872   -8.5909068     507.9385  0.015042007    0.0148792         3094 
 2815000   0.80070854   -8.5957881     508.1309   0.01504236  0.014872477         3210 
 2816000    0.8061355   -8.5609187    508.90144   0.01505982  0.014865745         3088 
 2817000   0.79208682   -8.5769924    507.87254  0.015024037  0.014858997         3199 
 2818000   0.80063975   -8.6039695     507.3406  0.015002975  0.014852239         3243 
 2819000   0.81956943   -8.6029627    506.68886  0.014978387  0.014845485         3261 
 2820000   0.81015832   -8.6206425    506.96143   0.01498113  0.014838698         3341 
 2821000     0.799774   -8.6393463     506.8027   0.01497113  0.014831891         3377 
 2822000   0.80148691   -8.6298465    506.98877   0.01497132  0.014825094         3442 
 2823000   0.80668976   -8.6456779    505.31526  0.014916615  0.014818287         3428 
 2824000   0.80849959   -8.6307401    506.63159  0.014950177  0.014811477         3346 
 2825000   0.79695384   -8.6387307    506.53911  0.014942156  0.014804665         3431 
 2826000   0.80024008   -8.6482766    505.76713  0.014914105  0.014797841         3411 
 2827000   0.80558431   -8.6372755    506.21299  0.014921972  0.014791026         3445 
 2828000   0.78937201   -8.6667287    506.52482  0.014925885  0.014784201         3514 
 2829000   0.79050908   -8.6616765    506.13909  0.014909246  0.014777365         3546 
 2830000   0.80206075   -8.6505579    505.15123  0.014874889   0.01477051         3579 
 2831000   0.81086823    -8.659835    505.75411  0.014887381  0.014763679         3563 
 2832000   0.80369495   -8.6591811    506.76001  0.014911724  0.014756835         3589 
 2833000   0.80120268   -8.6933378    504.68477  0.014845416  0.014749984         3608 
 2834000   0.81176537   -8.6760302    505.49436  0.014863984  0.014743149         3629 
 2835000    0.7987858   -8.6416715     505.7031  0.014864877  0.014736319         3554 
 2836000   0.79601749   -8.6723047    505.56352  0.014855534  0.014729481         3646 
 2837000    0.7983915   -8.6538924    505.46517  0.014847408  0.014722637         3604 
 2838000   0.81177524    -8.693568    505.48649  0.014842803  0.014715806         3614 
 2839000   0.78952676   -8.6711141    505.35205  0.014833628  0.014708979         3604 
 2840000    0.7878066   -8.7108297    504.96605  0.014817079  0.014702147         3618 
 2841000   0.79936082   -8.6747348    505.74848  0.014834814  0.014695318         3592 
 2842000   0.79629796   -8.6923473     504.6141  0.014796332  0.014688505         3678 
 2843000   0.78350085    -8.675356     505.2074  0.014808518  0.014681683         3566 
 2844000   0.80768817   -8.6818088     506.6384  0.014845241  0.014674869         3576 
 2845000   0.80061772   -8.6907598    505.22305  0.014798566  0.014668052         3646 
 2846000    0.7773706   -8.6821517    505.70874  0.014807588  0.014661251         3602 
 2847000   0.80042745   -8.6909794    504.93342  0.014779693  0.014654439         3638 
 2848000   0.78288864   -8.7091187    505.13817  0.014780494  0.014647621         3643 
 2849000   0.81077402   -8.7073856    505.25525  0.014778731  0.014640809         3703 
 2850000   0.78928112   -8.6650547    504.85266  0.014761774  0.014633998         3529 
 2851000   0.80155388   -8.7101945    504.16617   0.01473653  0.014627202         3678 
 2852000   0.80604664   -8.7034394     506.3125  0.014794077  0.014620397         3674 
 2853000   0.80147516   -8.7138884    504.63448  0.014739878  0.014613591         3660 
 2854000   0.81104001   -8.7078771    504.23469  0.014723041  0.014606782         3689 
 2855000   0.78251631   -8.7054415    504.84045  0.014735565  0.014599964         3623 
 2856000   0.79995902   -8.7023485    504.73058  0.014727199  0.014593139         3726 
 2857000   0.80394681   -8.7201074    503.75684  0.014693643  0.014586324         3666 
 2858000   0.80349156   -8.6967529    504.34136  0.014705545  0.014579509         3697 
 2859000   0.80119024   -8.7123353    503.02336  0.014661984  0.014572698         3693 
 2860000   0.78582034   -8.7251584    504.42795  0.014697784  0.014565888         3752 
 2861000   0.80398415   -8.7271144    502.89304  0.014647939   0.01455907         3713 
 2862000   0.80041991   -8.7047812    504.42619  0.014687462  0.014552265         3709 
 2863000   0.79408339    -8.706908    504.83306  0.014694175  0.014545453         3706 
 2864000   0.79855386    -8.735358    503.85491  0.014660583  0.014538651         3728 
 2865000   0.79337883   -8.7285612    504.20348  0.014665605  0.014531842         3716 
 2866000   0.79441836   -8.7103236    505.34638  0.014693719  0.014525027         3699 
 2867000    0.7975966    -8.736107    504.27448  0.014657438  0.014518215         3670 
 2868000   0.80175702   -8.7328286    502.69027  0.014606296  0.014511412         3717 
 2869000   0.78624222   -8.7246481    503.98411  0.014638786  0.014504613         3673 
 2870000   0.81042991   -8.7195261    503.61346  0.014622923  0.014497811         3697 
 2871000   0.78050635    -8.692921    503.88158  0.014625612  0.014491006         3735 
 2872000   0.81418434   -8.7040019    504.23769  0.014630852  0.014484219         3721 
 2873000    0.7920897   -8.7134625    504.78919  0.014641756  0.014477434         3738 
 2874000   0.79135547   -8.7493186    503.98437  0.014613325  0.014470648         3717 
 2875000   0.79510319   -8.7067498    504.60416  0.014626208  0.014463871         3722 
 2876000   0.80401601   -8.7272804    504.45477  0.014616793  0.014457101         3713 
 2877000   0.78432756   -8.7076006    504.34455   0.01460852   0.01445033         3679 
 2878000   0.79217434   -8.7439157    504.64095  0.014612027  0.014443545         3735 
 2879000   0.77627015   -8.7204178    503.97311   0.01458762  0.014436775         3717 
 2880000   0.80141405   -8.7194248    502.66168  0.014544609  0.014430007         3742 
 2881000    0.7910579   -8.7243358    504.81951  0.014601976  0.014423246         3738 
 2882000   0.80128481   -8.7265863      503.751  0.014566013   0.01441649         3717 
 2883000   0.80334123   -8.7343763    503.84461  0.014563667  0.014409726         3718 
 2884000   0.79409021   -8.7623672    502.78963  0.014528133   0.01440296         3763 
 2885000   0.78681561   -8.7214312    503.10238  0.014532131  0.014396207         3667 
 2886000   0.78475629   -8.7346006    504.28284  0.014561182  0.014389457         3765 
 2887000   0.79249192   -8.7164306    503.84719  0.014543563  0.014382709         3725 
 2888000    0.7881237   -8.7456657    503.63002  0.014532261   0.01437596         3760 
 2889000   0.79082038   -8.7136576    504.40949  0.014549714   0.01436922         3705 
 2890000   0.78302334   -8.7452605    504.30899  0.014541782   0.01436248         3738 
 2891000   0.79177505    -8.725082    504.30904  0.014536753   0.01435574         3698 
 2892000   0.80102551   -8.7077923    504.06403  0.014524666  0.014349011         3732 
 2893000   0.78212273   -8.7466523    503.62788  0.014507082  0.014342283         3718 
 2894000   0.78073164   -8.7387772    503.27852   0.01449201  0.014335567         3671 
 2895000    0.7862221   -8.7405466     502.9779  0.014478351   0.01432885         3755 
 2896000   0.79076871    -8.749594    502.69204  0.014465125  0.014322125         3761 
 2897000   0.76425781   -8.7400992     503.4044  0.014480624  0.014315402         3728 
 2898000   0.77154639   -8.7455152    502.44309  0.014447984  0.014308678         3776 
 2899000   0.79047748   -8.7742265    502.70952  0.014450659  0.014301957         3788 
 2900000   0.78778742   -8.7450052    502.65282  0.014444046   0.01429524         3772 
 2901000   0.78140826   -8.7146154    503.35335  0.014459191  0.014288521         3795 
 2902000   0.78432746   -8.7671214    502.46616  0.014428732  0.014281811         3768 
 2903000   0.77743751    -8.752679    504.30361  0.014476507  0.014275089         3752 
 2904000   0.77119269   -8.7525184    504.03124  0.014463706   0.01426837         3765 
 2905000   0.78578292   -8.7454519    502.37471  0.014411208  0.014261665         3784 
 2906000   0.78743581   -8.7601318    502.61989   0.01441328  0.014254956         3767 
 2907000   0.79641835   -8.7703911    503.23907  0.014426071  0.014248253         3776 
 2908000   0.79740209   -8.7204119    503.20807  0.014420222  0.014241543         3757 
 2909000   0.78507023   -8.7707091    502.98024  0.014408738  0.014234839         3762 
 2910000   0.79782492   -8.7479908    503.56478  0.014420526  0.014228141         3765 
 2911000    0.8126606   -8.7447719    503.86884  0.014424277  0.014221448         3736 
 2912000   0.79297635   -8.7711053    502.90173  0.014391648  0.014214769         3780 
 2913000   0.78264399   -8.7447687    502.87827  0.014386036  0.014208068         3778 
 2914000   0.77328525   -8.7476358    504.05126  0.014414644  0.014201378         3752 
 2915000   0.78826724   -8.7791149     503.9451  0.014406664  0.014194693         3788 
 2916000   0.78158934    -8.752784    503.33989  0.014384428     0.014188         3764 
 2917000    0.7853613   -8.7773631     502.6861  0.014360819   0.01418132         3779 
 2918000   0.78938269   -8.7821644    502.69342  0.014356106  0.014174638         3820 
 2919000   0.80344299   -8.7650528    504.02029  0.014389068  0.014167952         3765 
 2920000   0.78257127   -8.7712612    503.91326  0.014381086  0.014161273         3753 
 2921000   0.78797685   -8.7536002    503.14708  0.014354304  0.014154603         3758 
 2922000   0.76851976   -8.7466603    503.37346  0.014355848  0.014147921         3771 
 2923000   0.78904337   -8.7968178    502.51249  0.014326391  0.014141255         3823 
 2924000   0.78000744   -8.7721894    501.94809  0.014305406   0.01413458         3793 
 2925000   0.77559041    -8.768001     502.9732  0.014329721  0.014127915         3798 
 2926000   0.78089318   -8.7686521     503.2421  0.014332482  0.014121256         3794 
 2927000   0.76206112   -8.7794779    503.40747  0.014332293  0.014114598         3812 
 2928000   0.78342487   -8.7569976    503.02238  0.014316438  0.014107936         3744 
 2929000   0.77430201   -8.7444685    502.98841  0.014310584  0.014101293         3771 
 2930000   0.76744267   -8.7589656    503.34962  0.014315973  0.014094651         3826 
 2931000   0.77500698   -8.7732934    504.36348  0.014339915  0.014088009         3782 
 2932000   0.79609935   -8.7616008    503.51312  0.014310855  0.014081372         3778 
 2933000   0.78260578   -8.7517481    502.65881  0.014281703  0.014074727         3817 
 2934000   0.78768567   -8.7685128    501.82437  0.014253135  0.014068098         3822 
 2935000   0.75607991   -8.7849452    502.89182  0.014278587  0.014061467         3748 
 2936000   0.78572967   -8.7488358    501.77404  0.014241997  0.014054845         3771 
 2937000   0.79285288   -8.7749037    502.42268  0.014255552  0.014048224         3762 
 2938000   0.78356981   -8.7872594    502.83425  0.014262374  0.014041619         3774 
 2939000   0.78725149    -8.756798    502.72543  0.014254435  0.014035007         3831 
 2940000   0.77717589   -8.7774179    503.44838  0.014270079  0.014028393         3792 
 2941000   0.79740874   -8.7837837    504.09053  0.014283422   0.01402179         3767 
 2942000   0.77822605   -8.7768481    502.57634  0.014235677  0.014015195         3793 
 2943000    0.7878765   -8.7887439    502.53451  0.014229655  0.014008596         3783 
 2944000   0.77432052   -8.7703035    503.25587  0.014245241  0.014002003         3813 
 2945000   0.78982932   -8.7683762    503.37503  0.014243776  0.013995414         3797 
 2946000   0.78086356   -8.7596165     502.7663  0.014221721  0.013988816         3804 
 2947000   0.76857346   -8.7731602    502.60335  0.014212288   0.01398223         3778 
 2948000   0.78036097    -8.773455     502.6248  0.014208073  0.013975642         3813 
 2949000   0.79713229   -8.7701988    503.51194  0.014228324  0.013969063         3800 
 2950000   0.77092003   -8.7953769    502.21498  0.014186864  0.013962473         3839 
 2951000   0.77120742   -8.8041858    502.58801   0.01419259  0.013955896         3776 
 2952000   0.77916751   -8.7796607    502.73507  0.014191934  0.013949326         3845 
 2953000   0.78484492   -8.7535568     502.2988  0.014174816  0.013942746         3810 
 2954000   0.77190577   -8.7799075    502.10477  0.014164544  0.013936177         3789 
 2955000    0.7703254   -8.7771065    503.92941  0.014211207  0.013929599         3775 
 2956000   0.77009935   -8.7655818    503.56003  0.014195987  0.013923033         3786 
 2957000   0.78659306   -8.7554973    502.87835  0.014171975  0.013916475         3771 
 2958000    0.7629896   -8.7843252    502.05212  0.014143907   0.01390992         3785 
 2959000   0.78157718   -8.7750416     502.7725  0.014159415  0.013903358         3804 
 2960000   0.75596958   -8.7959138    501.46334  0.014117774  0.013896804         3802 
 2961000    0.7877087   -8.7976179    502.03804   0.01412918  0.013890245         3790 
 2962000   0.78876535   -8.8038032    501.93575  0.014121532  0.013883689         3815 
 2963000   0.78516514   -8.7728743    501.86745  0.014114846  0.013877142         3820 
 2964000   0.77011849   -8.7874218    502.28182  0.014121734  0.013870595         3798 
 2965000   0.77830356    -8.776567    502.81867  0.014132059  0.013864051         3812 
 2966000   0.80794794   -8.7927386     502.9186  0.014130102  0.013857516         3809 
 2967000   0.76059193   -8.7837373      501.713  0.014091478  0.013850979         3810 
 2968000   0.78440487   -8.7751642    502.90853  0.014120298  0.013844432         3778 
 2969000   0.77346843   -8.8107507    502.00688  0.014090235  0.013837904         3802 
 2970000    0.7743024   -8.7737669    502.28951  0.014093421  0.013831371         3793 
 2971000   0.78894086   -8.7667035    501.40154   0.01406377  0.013824847         3821 
 2972000   0.77248584   -8.7723502    502.42981  0.014087871  0.013818323         3846 
 2973000   0.76586099   -8.7621302    502.59285  0.014087702  0.013811797         3820 
 2974000   0.77816508   -8.7869512    502.99657  0.014094277  0.013805281         3836 
 2975000   0.79397098   -8.8150793    502.58897  0.014078123  0.013798771         3806 
 2976000   0.77604046   -8.8010238    500.96851  0.014028016  0.013792262         3859 
 2977000   0.78885843   -8.7902342    502.76851   0.01407369  0.013785748         3852 
 2978000   0.76087079   -8.8162028    501.94606   0.01404595  0.013779239         3839 
 2979000   0.77626823   -8.7905312    501.32315   0.01402381  0.013772736         3827 
 2980000   0.77862885   -8.7915655    501.09953   0.01401285  0.013766249         3853 
 2981000   0.77057839    -8.785801    502.60731  0.014050299   0.01375976         3822 
 2982000   0.77352065   -8.7992309    502.54267  0.014043781  0.013753268         3814 
 2983000   0.78994002   -8.7994884    502.03506  0.014024893  0.013746785         3856 
 2984000   0.76898226   -8.8036483    502.38407  0.014029939  0.013740309         3839 
 2985000   0.78387027   -8.7962186    502.60183  0.014031319   0.01373383         3818 
 2986000   0.77304992    -8.772278    502.04784  0.014011159  0.013727359         3803 
 2987000   0.78391366   -8.8145177    501.74903  0.013998132  0.013720888         3844 
 2988000   0.76131795   -8.7919886    501.51645   0.01398696  0.013714424         3817 
 2989000   0.76875483   -8.8044518    502.15304  0.014000029  0.013707956         3786 
 2990000   0.76425636   -8.7938391    501.75681  0.013984304  0.013701496         3829 
 2991000   0.77595415   -8.7940954    502.30306  0.013994847  0.013695039         3825 
 2992000   0.76646232   -8.7648618    502.93055  0.014007647   0.01368858         3828 
 2993000   0.77851455   -8.8257471    501.55637  0.013964706  0.013682127         3809 
 2994000   0.77425084   -8.7897904    501.12431  0.013948016  0.013675677         3842 
 2995000   0.77428129   -8.7892832    503.50566  0.014009618  0.013669239         3844 
 2996000    0.7711741    -8.820145    501.84861  0.013958851  0.013662788         3824 
 2997000   0.77314348    -8.797728    502.79945  0.013980632   0.01365635         3819 
 2998000   0.77471399   -8.7975603    502.29866  0.013962048   0.01364991         3835 
 2999000   0.76294389   -8.8143182    501.43385  0.013933363  0.013643466         3831 
 3000000   0.76672231   -8.8263337     500.8371  0.013912142  0.013637026         3825 
 3001000   0.76136431   -8.8238898    502.11425   0.01394297  0.013630588         3840 
 3002000   0.77857285   -8.7917774     502.2955  0.013943357  0.013624156         3811 
 3003000   0.76455851   -8.8190822    501.35711  0.013912674  0.013617722         3837 
 3004000   0.76831545   -8.8180697    501.44605   0.01391051  0.013611305         3844 
 3005000   0.77413159   -8.8111182    501.85641   0.01391726  0.013604883         3827 
 3006000   0.77591095   -8.8159691    501.71498   0.01390871  0.013598474         3813 
 3007000   0.76960643   -8.8260841    501.33633  0.013893591  0.013592053         3821 
 3008000   0.78294995     -8.81961    501.51204   0.01389384  0.013585645         3822 
 3009000   0.76062487   -8.7952774    501.42747   0.01388688  0.013579239         3816 
 3010000   0.76037544   -8.8016438    502.45819  0.013910802  0.013572834         3811 
 3011000   0.77660786   -8.8217018    502.16614    0.0138981  0.013566438         3809 
 3012000   0.76325541   -8.8382507     502.4445  0.013901187  0.013560037         3814 
 3013000   0.76237998   -8.8253451    501.93466  0.013882472   0.01355364         3808 
 3014000   0.77102749    -8.811216    502.67674  0.013898384  0.013547244         3837 
 3015000    0.7557288   -8.8020046    501.99897  0.013875041  0.013540852         3798 
 3016000   0.78432432   -8.8027648    502.15713   0.01387481  0.013534478         3806 
 3017000   0.77494674   -8.7937235    502.58844  0.013882125  0.013528103         3830 
 3018000   0.77066758   -8.8097412    502.36542  0.013871367  0.013521726         3822 
 3019000   0.76671441   -8.8328966     502.3401  0.013866073   0.01351535         3846 
 3020000   0.77813171   -8.8162299     502.1069  0.013855047  0.013508984         3795 
 3021000    0.7635944   -8.8145945     500.6015  0.013808935  0.013502624         3817 
 3022000   0.76367823   -8.7936897    502.35062  0.013852598   0.01349627         3819 
 3023000   0.75488647   -8.8080467    502.68916  0.013857348  0.013489911         3836 
 3024000     0.763175   -8.7910859    502.08079  0.013836001   0.01348355         3797 
 3025000   0.77543479   -8.7979381    502.02403  0.013829863  0.013477201         3818 
 3026000   0.77224708   -8.7924942    502.78452  0.013846236  0.013470856         3817 
 3027000    0.7541831    -8.837155    501.00169   0.01379258  0.013464506         3823 
 3028000   0.75975894   -8.8340812    502.36522  0.013825551  0.013458162         3845 
 3029000   0.76855684   -8.8245069    501.99904  0.013810912  0.013451828         3834 
 3030000    0.7733684   -8.8147035    501.54858  0.013793965  0.013445501         3841 
 3031000   0.75423463   -8.8073109     502.0253  0.013802521  0.013439166         3822 
 3032000     0.756141   -8.8637511    501.68912  0.013788729  0.013432831         3818 
 3033000   0.77167776   -8.8079573    502.39798  0.013803659  0.013426502         3834 
 3034000   0.76541511   -8.8023192     502.0415  0.013789318  0.013420177         3799 
 3035000   0.75628315   -8.8345549    500.79416  0.013750526  0.013413862         3835 
 3036000   0.73867448   -8.8178696    502.07537  0.013781164  0.013407543         3829 
 3037000   0.76741843   -8.8148874    501.68885  0.013766021  0.013401228         3816 
 3038000   0.74793219   -8.7868384    502.95116  0.013796115   0.01339492         3780 
 3039000   0.76238665   -8.7987796    501.44748  0.013750342  0.013388609         3829 
 3040000   0.76628927   -8.8184593    502.67871   0.01377957  0.013382305         3825 
 3041000   0.76650032   -8.8013604    502.13053  0.013760017  0.013376003         3806 
 3042000   0.77297294   -8.8136132    501.48268  0.013737746  0.013369714         3814 
 3043000   0.77643045   -8.8353909    500.96469  0.013719046  0.013363426         3855 
 3044000   0.75488865   -8.8197516    501.06726  0.013717347   0.01335714         3792 
 3045000   0.75908121   -8.8044893    502.46978  0.013751225  0.013350855         3798 
 3046000    0.7595311   -8.8195916    500.62018  0.013696109  0.013344574         3828 
 3047000   0.77195389   -8.8406133    500.49934  0.013688309  0.013338303         3847 
 3048000   0.77257509   -8.8292535    501.96031  0.013723762  0.013332031         3797 
 3049000     0.747674   -8.8375196     501.6165  0.013709864  0.013325759         3782 
 3050000     0.765607   -8.8369783    501.30765   0.01369693  0.013319485         3801 
 3051000   0.76393378   -8.7890587    502.81379  0.013733579  0.013313222         3783 
 3052000   0.77571317   -8.8288622    501.27526   0.01368707  0.013306962         3832 
 3053000    0.7540114   -8.8242429    501.53019  0.013689546  0.013300694         3824 
 3054000   0.75848486   -8.8288921    500.45205  0.013655644  0.013294433         3817 
 3055000   0.76748721   -8.8345148    501.85701  0.013689498  0.013288174         3810 
 3056000   0.76333765   -8.8247674     502.7698  0.013709909   0.01328193         3773 
 3057000   0.77881462   -8.8267622    501.36636  0.013667167  0.013275681         3840 
 3058000   0.76907061   -8.8410166    501.87283    0.0136765  0.013269441         3787 
 3059000   0.73907066   -8.8559538    500.91288  0.013645878  0.013263194         3829 
 3060000   0.76495119   -8.8246695    501.72174  0.013663446  0.013256951         3865 
 3061000   0.76064088   -8.8347453    501.54718   0.01365423  0.013250712         3797 
 3062000   0.77104605   -8.8257456    501.46215  0.013647457  0.013244488         3765 
 3063000   0.75164707   -8.8168268    501.50842   0.01364426  0.013238255         3839 
 3064000   0.76026719   -8.8400071    501.44928  0.013638198  0.013232023         3819 
 3065000   0.77509414   -8.8157943     501.5185  0.013635631  0.013225799         3812 
 3066000   0.75755598   -8.7985323    501.51666  0.013631133  0.013219587         3790 
 3067000   0.75776574   -8.8441359    501.85921  0.013635996  0.013213368         3827 
 3068000   0.75620081   -8.8427877    501.36818  0.013618214  0.013207159         3805 
 3069000   0.74928546   -8.8618611    501.06162  0.013605453  0.013200948         3824 
 3070000   0.75667839   -8.8455462    501.15828  0.013603645  0.013194733         3842 
 3071000   0.75004163   -8.8137953     501.9092  0.013619592  0.013188532         3823 
 3072000   0.75001304   -8.8205332    501.94914  0.013616242  0.013182324         3823 
 3073000   0.75926351   -8.8363719    500.31732  0.013567559  0.013176121         3855 
 3074000    0.7522399   -8.8388158    501.31368  0.013590156  0.013169932         3794 
 3075000   0.76862215   -8.8459399    500.50722  0.013563881  0.013163736         3849 
 3076000   0.77280864    -8.810059    501.92673  0.013597928  0.013157552         3838 
 3077000     0.763012   -8.8557606    500.43865  0.013553208  0.013151367         3834 
 3078000   0.76291891   -8.8357203     501.2011  0.013569447  0.013145179         3867 
 3079000   0.75843123   -8.8440074    500.20932  0.013538197  0.013138998         3856 
 3080000   0.74187633    -8.820955    502.33616  0.013591346  0.013132824         3829 
 3081000   0.75880996   -8.8383013    500.99646  0.013550699  0.013126653         3830 
 3082000   0.75279441   -8.8368846    501.13987   0.01355018  0.013120483         3836 
 3083000   0.77850784   -8.8647418    501.52274  0.013556134   0.01311432         3855 
 3084000   0.76186544   -8.8547216    501.47604  0.013550477  0.013108158         3822 
 3085000   0.75086289   -8.8581305    501.28263   0.01354086  0.013101994         3794 
 3086000   0.75025018   -8.8371025    501.85565  0.013551945  0.013095843         3856 
 3087000   0.76597945   -8.8203654    501.35913  0.013534152  0.013089691         3815 
 3088000   0.75593215   -8.8326982     502.2944  0.013555009  0.013083536         3834 
 3089000   0.76091801   -8.8591261    501.92502  0.013540656  0.013077387         3837 
 3090000   0.75915366   -8.8481341     501.3148  0.013519817  0.013071248         3819 
 3091000     0.752133   -8.8259009    500.31156  0.013488395  0.013065106         3821 
 3092000   0.74103707   -8.8107707    502.15159  0.013533624  0.013058972         3789 
 3093000   0.75182315   -8.8264648    501.00465  0.013498347  0.013052829         3813 
 3094000   0.75038443   -8.8409863    501.61903  0.013510532  0.013046704         3833 
 3095000   0.77239273   -8.8879405    500.28251  0.013470181  0.013040574         3866 
 3096000   0.75284469   -8.8448321    501.00973  0.013485404  0.013034446         3826 
 3097000   0.76718154   -8.8547848    501.25907  0.013487759  0.013028317         3840 
 3098000   0.74837878   -8.8247161    502.26509  0.013510466  0.013022201         3814 
 3099000   0.75806671   -8.8410104     501.7593  0.013492506  0.013016084         3869 
 3100000   0.75714997    -8.841435    501.26225  0.013474792  0.013009973         3845 
 3101000   0.74777081   -8.8748184    500.47795   0.01344937  0.013003867         3831 
 3102000   0.76357139   -8.8348435    501.49706  0.013472412  0.012997759         3813 
 3103000    0.7685849   -8.8819241    500.64872  0.013445287  0.012991659         3831 
 3104000   0.76360481   -8.8209789    500.56695   0.01343876  0.012985554         3805 
 3105000   0.75336309   -8.8501711    499.64638  0.013409726  0.012979459         3853 
 3106000   0.76554894   -8.8545215    501.12817  0.013445165  0.012973367         3832 
 3107000   0.74020966     -8.86408    500.08223  0.013412784  0.012967273         3826 
 3108000    0.7491901   -8.8277277    502.00936   0.01346014  0.012961182         3852 
 3109000   0.75137326   -8.8600056    502.29697  0.013463519  0.012955096         3844 
 3110000   0.75291141   -8.8675465    500.30692  0.013405866   0.01294901         3875 
 3111000   0.72980811   -8.8598197    501.03047  0.013420938  0.012942927         3828 
 3112000   0.76413436   -8.8064178    501.66387  0.013433587  0.012936857         3804 
 3113000    0.7412427   -8.8342665    500.96027  0.013410437  0.012930776         3854 
 3114000    0.7430151   -8.8650177    500.83755  0.013402846  0.012924706         3866 
 3115000   0.75240404   -8.8736767    500.40592  0.013386996   0.01291864         3824 
 3116000   0.74663829   -8.8411168    500.53702  0.013386206  0.012912572         3835 
 3117000    0.7635552   -8.8559037    501.44861  0.013406283  0.012906513         3866 
 3118000   0.74793975   -8.8360774    501.36549  0.013399762  0.012900449         3822 
 3119000   0.75045065   -8.8493452    499.28486  0.013339875  0.012894391         3857 
 3120000   0.74592634   -8.8579558    500.77781  0.013375476  0.012888342         3851 
 3121000   0.75392173   -8.8365703    500.66799  0.013368258  0.012882307         3866 
 3122000   0.74807252     -8.83857     500.8106  0.013367782  0.012876261         3836 
 3123000   0.75610045   -8.8269513    501.53251  0.013382765  0.012870233         3815 
 3124000    0.7392223   -8.8735869    500.78444  0.013358526  0.012864192         3830 
 3125000   0.76120361   -8.8635571    500.65552  0.013350814  0.012858156         3812 
 3126000   0.74181363   -8.8404481    500.66427  0.013346776  0.012852129         3843 
 3127000   0.75648474   -8.8619905    501.01598  0.013351881  0.012846103         3845 
 3128000   0.73953981   -8.8584425    501.38583  0.013357466  0.012840081         3844 
 3129000     0.748841   -8.8416196    500.27125  0.013323513  0.012834062         3788 
 3130000   0.73650783    -8.860319    501.44471  0.013350498   0.01282805         3840 
 3131000    0.7501374   -8.8514125    501.56871  0.013349534   0.01282203         3833 
 3132000   0.75379783   -8.8526822    500.15283    0.0133076  0.012816028         3855 
 3133000   0.76440128    -8.854252     501.8494  0.013348478   0.01281003         3860 
 3134000   0.75149658   -8.8354818    500.62143  0.013311567  0.012804026         3843 
 3135000   0.75194154    -8.870949    500.08208  0.013292984  0.012798023         3840 
 3136000   0.73214368   -8.8464096    501.10504  0.013315929  0.012792023         3820 
 3137000   0.74367788   -8.8602006    501.71442  0.013327872  0.012786031         3843 
 3138000   0.76017367   -8.8691095    500.14397   0.01328192  0.012780045         3820 
 3139000   0.73207944   -8.8754337    500.04711  0.013275117   0.01277406         3829 
 3140000   0.72852551   -8.8722497    500.67766  0.013287624  0.012768082         3825 
 3141000   0.75694371   -8.8505258    500.35566   0.01327485  0.012762096         3829 
 3142000   0.73811026   -8.8614303    500.71242  0.013280088  0.012756116         3856 
 3143000   0.74809587   -8.8621774    500.89361  0.013280666  0.012750144         3856 
 3144000    0.7459051   -8.8513429    500.10766   0.01325561  0.012744175         3843 
 3145000    0.7507722   -8.8517299    501.20308  0.013280421  0.012738206         3841 
 3146000   0.73807287    -8.864948    500.14672  0.013248218  0.012732241         3827 
 3147000   0.74096739   -8.8890786    500.91992  0.013264483  0.012726283         3831 
 3148000   0.74270283   -8.8591533    500.25673  0.013242713  0.012720332         3809 
 3149000   0.74886477   -8.8705561    500.43183  0.013243141   0.01271438         3859 
 3150000   0.73766971   -8.8281135    500.24238  0.013233925   0.01270843         3815 
 3151000   0.73511048   -8.8699823    499.88575  0.013220294  0.012702479         3835 
 3152000   0.74547059   -8.8650555    500.90064  0.013242931  0.012696527         3841 
 3153000    0.7371028   -8.8433392    500.02003  0.013215457  0.012690584         3824 
 3154000   0.75001183   -8.8394832    500.98882  0.013236864  0.012684645         3849 
 3155000   0.74880535   -8.8764813    500.00624  0.013206715  0.012678713         3831 
 3156000   0.74403181   -8.8747371    500.13249  0.013205864  0.012672783         3846 
 3157000   0.77663159   -8.8382366    501.09105  0.013226984  0.012666858         3843 
 3158000   0.73790407   -8.8613077    500.31776   0.01320239  0.012660932         3879 
 3159000   0.72352282   -8.8566133    501.58042  0.013231519  0.012655004         3825 
 3160000   0.73663493   -8.8486747    501.01064  0.013212306  0.012649087         3838 
 3161000   0.74642271   -8.8673357     500.2851  0.013188999  0.012643173         3832 
 3162000   0.73557827    -8.868419    501.29701  0.013211496  0.012637269         3822 
 3163000     0.767603   -8.8669921    500.87308   0.01319615  0.012631361         3837 
 3164000   0.74932667   -8.8557829    500.94081  0.013193764  0.012625461         3833 
 3165000   0.74934311   -8.8703485    500.00281  0.013164897  0.012619552         3829 
 3166000   0.74196723   -8.8540346    500.48736  0.013173493  0.012613655         3808 
 3167000   0.73045575   -8.8678278    500.38042   0.01316652  0.012607758         3848 
 3168000   0.74133926   -8.8851261    500.79827  0.013173355  0.012601868         3848 
 3169000   0.74708415   -8.8597508    500.91581  0.013172289  0.012595975         3816 
 3170000   0.74715983   -8.8810281    499.64578  0.013134747  0.012590077         3847 
 3171000   0.75177892   -8.8546337    501.04301  0.013167324  0.012584193         3841 
 3172000   0.76050829   -8.8733459    500.55533  0.013150361  0.012578312         3819 
 3173000   0.73916603   -8.8314221     501.5975  0.013173587  0.012572441         3821 
 3174000   0.74198335   -8.8792551    500.74618  0.013147085   0.01256657         3847 
 3175000   0.74424216   -8.8836986     499.4958  0.013110126  0.012560701         3833 
 3176000    0.7257852   -8.8661793     500.1469  0.013123082  0.012554834         3828 
 3177000   0.74756231   -8.8585665    501.96964  0.013166762  0.012548971         3831 
 3178000   0.74402044    -8.854896    500.74676  0.013130553  0.012543112         3833 
 3179000   0.74796984   -8.8574232    499.98325  0.013106408   0.01253726         3835 
 3180000   0.73363104   -8.8573254     501.0986  0.013131515  0.012531406         3861 
 3181000   0.74781467   -8.8887244    500.74319  0.013118076  0.012525552         3835 
 3182000   0.73037246   -8.8855128    500.35734  0.013103848  0.012519707         3873 
 3183000   0.74536207   -8.8676281    499.72338  0.013083134  0.012513862         3842 
 3184000   0.73859006   -8.8738032     499.5085  0.013073401   0.01250802         3862 
 3185000   0.73134366   -8.8766755     499.7162  0.013074731  0.012502181         3856 
 3186000    0.7455452   -8.8633188    500.62406  0.013094373  0.012496344         3816 
 3187000   0.73636945   -8.9042711    499.70318  0.013066185  0.012490508         3825 
 3188000   0.74243331    -8.875224    500.85177   0.01309211  0.012484681         3829 
 3189000   0.73313987   -8.8755392    499.77825  0.013059952  0.012478856         3811 
 3190000   0.73437341   -8.8717099     500.4878  0.013074394  0.012473031         3827 
 3191000   0.74809364   -8.8901459    499.79534  0.013052213  0.012467207         3806 
 3192000   0.75310897   -8.8680285    500.81088  0.013074637  0.012461393         3843 
 3193000   0.74186684   -8.8794151    499.95197  0.013048125  0.012455579         3808 
 3194000   0.75150953   -8.8688416    500.23754  0.013051491  0.012449768         3861 
 3195000   0.73739496    -8.896505    499.16354  0.013019393  0.012443959         3807 
 3196000   0.74542677   -8.8619343    499.71309  0.013029649  0.012438154         3790 
 3197000   0.73884359   -8.8597756    501.84577  0.013081164  0.012432359         3816 
 3198000   0.73082021   -8.8788993    500.25603  0.013035648  0.012426565         3832 
 3199000   0.74296182   -8.8557563    500.66463  0.013042217  0.012420771         3847 
 3200000   0.74455296   -8.8860318     499.3623  0.013004227  0.012414976         3842 
 3201000   0.73924397   -8.8791022    500.56265  0.013031413  0.012409193         3852 
 3202000   0.74865288    -8.867496    500.25271  0.013019277  0.012403415         3825 
 3203000   0.72732755   -8.8645268    499.59785  0.012998175  0.012397636         3836 
 3204000   0.72928224   -8.8773255    500.07735  0.013006589  0.012391861         3841 
 3205000   0.72345799    -8.891978    500.41377  0.013011278  0.012386087         3846 
 3206000   0.74365729   -8.8747416    500.62323  0.013012665  0.012380319         3833 
 3207000   0.73640669   -8.8795506    501.78681  0.013038842  0.012374549         3816 
 3208000    0.7369327   -8.8881896    499.91616  0.012986185  0.012368782         3828 
 3209000   0.73672903   -8.8530659    502.09555  0.013038734  0.012363023         3792 
 3210000   0.74511424   -8.9091437     500.1012  0.012982897  0.012357269         3851 
 3211000   0.73314801   -8.8738489    500.40668  0.012986782  0.012351517         3841 
 3212000    0.7558423   -8.8645647    500.83956   0.01299397  0.012345767         3835 
 3213000   0.74451022   -8.8830475    500.25441  0.012974749  0.012340023         3852 
 3214000   0.73572433   -8.8806954    500.80642  0.012985024  0.012334285         3856 
 3215000   0.75219877   -8.8723101    500.75281  0.012979596  0.012328549         3854 
 3216000   0.74348775   -8.8922206    500.30129   0.01296386  0.012322809         3835 
 3217000   0.74257926   -8.8546379    500.23095  0.012958008  0.012317077         3796 
 3218000    0.7338517   -8.8855455    500.26692  0.012954913  0.012311346         3822 
 3219000   0.73615543   -8.8811983    500.33708  0.012952705  0.012305624         3838 
 3220000   0.73286644   -8.8735036    501.05406  0.012967237  0.012299902         3817 
 3221000   0.72707068    -8.861116    501.00182   0.01296186  0.012294178         3816 
 3222000   0.73343847   -8.8732864    500.89175   0.01295499  0.012288465         3827 
 3223000   0.73532821    -8.898289    498.48519  0.012888747  0.012282745         3831 
 3224000   0.74966423   -8.8887307    500.14868  0.012927747  0.012277033         3851 
 3225000   0.74056044   -8.8999661    500.68236  0.012937529  0.012271324         3805 
 3226000   0.73036561   -8.8803129    500.12082  0.012919013  0.012265628         3816 
 3227000   0.73655899   -8.9044593    499.85156  0.012908056  0.012259922         3825 
 3228000   0.73273711   -8.8829158    499.77786  0.012902154  0.012254221         3817 
 3229000   0.74201093   -8.8958301    500.26441  0.012910716  0.012248526         3877 
 3230000   0.73710086   -8.8707961    500.79572  0.012920426   0.01224283         3829 
 3231000   0.73530706   -8.8659559    499.66866  0.012887358  0.012237135         3828 
 3232000    0.7347203   -8.8793553     500.4156   0.01290263  0.012231446         3838 
 3233000   0.71772676   -8.8817701    499.29231  0.012869685  0.012225755         3843 
 3234000   0.73613631   -8.8891611    500.16153  0.012888104  0.012220074         3822 
 3235000    0.7267466    -8.903135    499.91366  0.012877735  0.012214389         3827 
 3236000   0.74040805   -8.8876516     499.9449   0.01287456  0.012208708         3849 
 3237000   0.72269267   -8.8914205    499.45507  0.012857972  0.012203037         3804 
 3238000   0.73844303   -8.8510659    500.16832  0.012872358  0.012197374         3793 
 3239000   0.73840063   -8.8909721    500.11483  0.012867007  0.012191701         3841 
 3240000   0.71912858   -8.9095344     499.3747     0.012844   0.01218603         3828 
 3241000   0.73300003   -8.8882779    499.28572  0.012837749  0.012180364         3826 
 3242000   0.74954675   -8.9133379    499.51878   0.01283978  0.012174704         3816 
 3243000    0.7358589   -8.8809796    500.40561  0.012858608  0.012169043         3838 
 3244000   0.71737933   -8.8898839    499.69698  0.012836441  0.012163395         3874 
 3245000   0.73997634   -8.9187081    499.52297  0.012828017  0.012157745         3819 
 3246000   0.74313357    -8.873803    500.23121  0.012842247  0.012152094         3819 
 3247000   0.72006524   -8.8779888    499.93156  0.012830601  0.012146452         3836 
 3248000   0.74571072    -8.889857    499.43437  0.012813895   0.01214081         3809 
 3249000   0.73142501   -8.8895378    500.64088  0.012840897  0.012135172         3808 
 3250000   0.73872236   -8.9030089    500.42918  0.012831518  0.012129541         3845 
 3251000   0.73293165   -8.8898732    500.20966  0.012821944  0.012123903         3838 
 3252000   0.72018337   -8.8663652    499.54159  0.012800881  0.012118276         3855 
 3253000   0.73182819   -8.9150362    499.70746  0.012801195  0.012112664         3851 
 3254000   0.73678012   -8.8954047    499.62443  0.012795135  0.012107045         3874 
 3255000   0.74117295   -8.8718346    499.91168  0.012798558   0.01210143         3842 
 3256000   0.72593242   -8.8714332    499.84609  0.012792949  0.012095816         3855 
 3257000   0.73744186   -8.8767217     499.6819   0.01278482  0.012090206         3798 
 3258000   0.72712814   -8.9133585    499.10648  0.012766178  0.012084606         3842 
 3259000   0.73527496   -8.8931346    499.45044  0.012771055  0.012078999         3857 
 3260000   0.72537799    -8.902311    500.04184  0.012782256  0.012073393         3846 
 3261000   0.73661394   -8.8966474    499.70456  0.012769717  0.012067796         3871 
 3262000   0.73922111   -8.9127845    499.86222   0.01276983  0.012062205         3854 
 3263000    0.7386666    -8.906656    499.79234  0.012764132  0.012056609         3825 
 3264000   0.72278168   -8.8952225    499.65691  0.012756763  0.012051018         3819 
 3265000   0.71554566   -8.9237602    499.91466  0.012759435  0.012045424         3874 
 3266000   0.72821487   -8.9092346    499.34416  0.012740972  0.012039836         3871 
 3267000   0.72039209   -8.8891174    499.54801  0.012742271  0.012034252         3839 
 3268000   0.74016033   -8.9136349    499.67536   0.01274162  0.012028671         3806 
 3269000   0.72786681   -8.9022467    499.56755  0.012734974  0.012023093         3831 
 3270000   0.71274804    -8.895627    499.47692   0.01272877  0.012017521         3833 
 3271000   0.72582968   -8.8752548    499.96358  0.012737276   0.01201195         3804 
 3272000   0.72017728    -8.908833    498.61839  0.012699124  0.012006386         3814 
 3273000   0.73149385   -8.9197512    499.05581  0.012706381  0.012000826         3858 
 3274000   0.73533038   -8.9058858    500.61447  0.012742172  0.011995265         3851 
 3275000   0.74033104   -8.8805632    500.59786  0.012737859  0.011989709         3840 
 3276000   0.71815925   -8.9025659    500.34868  0.012727632  0.011984159         3817 
 3277000   0.72907817   -8.8960553    498.44642  0.012675374  0.011978601         3810 
 3278000   0.70165829   -8.8911165    499.87069  0.012707715  0.011973059         3838 
 3279000   0.72060614    -8.882505     499.2273  0.012687488  0.011967516         3808 
 3280000   0.72247613   -8.9034601    499.48996  0.012690294  0.011961976         3830 
 3281000   0.71862136   -8.8983934    499.84335  0.012695401  0.011956438         3812 
 3282000   0.72794035   -8.9069947     498.6917  0.012662292  0.011950905         3841 
 3283000   0.72983609   -8.9293046    499.23527  0.012672232  0.011945371         3822 
 3284000   0.71156065   -8.8991143    499.46575  0.012674222  0.011939845         3823 
 3285000   0.72030651   -8.8917594    500.59942  0.012699123  0.011934323         3821 
 3286000   0.73845621   -8.9112187    499.20504  0.012659896  0.011928796         3844 
 3287000   0.73779314   -8.8958857    499.65183  0.012667372  0.011923275         3796 
 3288000   0.72140409   -8.9166591    499.39551  0.012657023  0.011917759         3850 
 3289000   0.72600041   -8.9112375    498.56707  0.012632185  0.011912248         3842 
 3290000   0.71059526   -8.9080244    500.60516  0.012679969  0.011906742         3814 
 3291000   0.72990037   -8.9174937    499.62534  0.012651305  0.011901232         3864 
 3292000   0.72862959   -8.9267719    499.67728  0.012648777  0.011895725         3833 
 3293000   0.73076842   -8.9104137    499.42618  0.012638581  0.011890227         3854 
 3294000   0.72894672   -8.8898688    499.73901  0.012642659  0.011884734         3839 
 3295000   0.72973012   -8.8997806    499.50314  0.012632856  0.011879239         3846 
 3296000   0.71588074    -8.893289    500.04933  0.012642833   0.01187375         3823 
 3297000    0.7147267   -8.8630241    499.98786  0.012637445  0.011868261         3818 
 3298000   0.72537796   -8.8875527    500.03356  0.012634768  0.011862774         3831 
 3299000   0.73649694   -8.8965558    500.04162  0.012631141  0.011857296         3830 
 3300000   0.73762944   -8.9099393    499.41806  0.012611567  0.011851819         3828 
 3301000   0.70561039   -8.9046958    499.52837  0.012610531  0.011846335         3860 
 3302000    0.7109101   -8.9168773    499.09846  0.012595863  0.011840859         3832 
 3303000   0.71942013   -8.9143454    500.49511  0.012627286  0.011835386         3818 
 3304000     0.729962   -8.9271235    500.46836   0.01262279  0.011829923         3838 
 3305000   0.69906689    -8.898714    499.05125  0.012583239  0.011824457         3839 
 3306000   0.72611334   -8.9227352    499.63874  0.012594241  0.011818997         3810 
 3307000   0.73377054   -8.9119906     499.2626  0.012580954  0.011813537         3841 
 3308000   0.72673715   -8.9238433     498.6079  0.012560658  0.011808081         3848 
 3309000   0.71936972   -8.9143652    498.78505  0.012561324  0.011802628         3800 
 3310000   0.73512132   -8.9153476    498.86959  0.012559657   0.01179718         3806 
 3311000   0.71778199   -8.9250138    499.29007  0.012566447  0.011791734         3830 
 3312000   0.72119285   -8.9104792     498.9264  0.012553502  0.011786292         3833 
 3313000   0.73714506   -8.8961953    499.24407  0.012557704  0.011780857         3840 
 3314000   0.72741452     -8.90138    498.67571  0.012539623  0.011775422         3841 
 3315000   0.72416851   -8.9227641    499.08921  0.012546235  0.011769994         3818 
 3316000   0.72880022   -8.9318402    499.79493  0.012560186  0.011764568         3855 
 3317000    0.7171979   -8.8926326     500.9506  0.012585434  0.011759142         3824 
 3318000    0.7365238   -8.9131447    498.62556  0.012523246  0.011753721         3821 
 3319000   0.71357914   -8.8844724     499.1492   0.01253262  0.011748303         3826 
 3320000   0.72474507   -8.9099435    499.54684  0.012538826  0.011742892         3845 
 3321000   0.70739544   -8.8846706     499.8285  0.012542118   0.01173748         3823 
 3322000   0.71500295   -8.9291719    499.25864  0.012524048  0.011732072         3800 
 3323000    0.7260881   -8.9099884    499.66749  0.012530532   0.01172666         3822 
 3324000   0.74131959   -8.9177858    499.83048  0.012530848  0.011721254         3849 
 3325000   0.72297948   -8.9090368     499.9104  0.012529083  0.011715848         3780 
 3326000   0.72955277   -8.9183152    499.51723  0.012515465  0.011710445         3846 
 3327000   0.72121817   -8.9143633    499.14269  0.012502322  0.011705048         3803 
 3328000   0.72966236   -8.9065054    499.63968   0.01251101  0.011699654         3807 
 3329000   0.72106182   -8.9264994     498.8204  0.012486743  0.011694268         3848 
 3330000   0.72384722   -8.9123139    500.09704  0.012514941   0.01168888         3830 
 3331000   0.72355206    -8.909195    499.52305  0.012496824  0.011683498         3836 
 3332000   0.71532623   -8.9272553    499.23296  0.012485818   0.01167812         3823 
 3333000   0.72537283   -8.9082179     498.9206  0.012474262  0.011672746         3822 
 3334000   0.73232894   -8.8894574    499.61184  0.012487798  0.011667375         3811 
 3335000   0.71340229   -8.9190011    500.19827  0.012498708  0.011662004         3836 
 3336000   0.71831985   -8.9240124    499.00014  0.012465032  0.011656635         3849 
 3337000    0.7409506   -8.9154635    500.13104  0.012489537   0.01165127         3835 
 3338000   0.72270627   -8.9141889    500.20405  0.012487619   0.01164591         3834 
 3339000   0.70578374   -8.9035179    499.16053  0.012457835  0.011640547         3860 
 3340000   0.71553363   -8.9192914     499.3102  0.012457839   0.01163519         3842 
 3341000   0.70804163   -8.9054026    500.13844  0.012474769  0.011629836         3826 
 3342000   0.71770174   -8.9148672    499.00506  0.012442775  0.011624482         3820 
 3343000   0.71723601   -8.9385695     498.1862  0.012418641  0.011619133         3829 
 3344000   0.70814709   -8.9059196    499.72744  0.012453335  0.011613791         3810 
 3345000   0.72780996   -8.9081576    500.40044  0.012466379  0.011608447         3812 
 3346000   0.72277197   -8.9386622    498.15783    0.0124068   0.01160311         3809 
 3347000   0.71641021   -8.9237464    498.47703   0.01241104  0.011597774         3832 
 3348000   0.71221927   -8.9274075    498.49968  0.012407897  0.011592442         3839 
 3349000   0.71006268   -8.9316121    498.47835  0.012403662  0.011587108         3832 
 3350000   0.72135628   -8.9169555    498.83036  0.012408715  0.011581777         3824 
 3351000   0.72593192    -8.939843     498.4727  0.012396118  0.011576446         3843 
 3352000   0.71671862   -8.9454987    498.92198  0.012403589  0.011571127         3835 
 3353000    0.7029894   -8.9266798    499.02139  0.012402361  0.011565805         3853 
 3354000   0.71810994   -8.9274295    499.52986  0.012411296  0.011560491         3823 
 3355000     0.716482   -8.9223081    498.90202  0.012392003  0.011555177         3855 
 3356000   0.70914686   -8.9096786    499.02276  0.012391308  0.011549864         3864 
 3357000   0.70403566   -8.9287171    498.26907  0.012368908  0.011544559         3836 
 3358000   0.71131201   -8.9407298    498.38754  0.012368164  0.011539252         3830 
 3359000   0.70996246   -8.9142229    499.44838    0.0123908  0.011533956         3845 
 3360000   0.71011593   -8.9332798    497.05407   0.01232773  0.011528652         3871 
 3361000   0.73440941    -8.919015    498.96582  0.012371462  0.011523358         3849 
 3362000   0.71559025   -8.9341434    498.90383  0.012366246  0.011518068         3857 
 3363000   0.71334971    -8.929628    499.09378  0.012367276  0.011512778         3850 
 3364000     0.708466   -8.8959407    499.72454  0.012379225  0.011507498         3819 
 3365000   0.70484456   -8.9405153    499.46939  0.012369227  0.011502215         3851 
 3366000    0.7265981   -8.9359567    499.70967  0.012371501  0.011496935         3829 
 3367000   0.71550467   -8.9005372     499.3535  0.012359011  0.011491663         3832 
 3368000   0.71093076   -8.9115675    499.53029  0.012359716  0.011486388         3845 
 3369000   0.72730341   -8.9221226    499.06432  0.012344522  0.011481119         3828 
 3370000   0.69602585   -8.9257657    499.20944  0.012344447   0.01147585         3825 
 3371000   0.71311574   -8.9041038    498.47717  0.012322683  0.011470583         3822 
 3372000   0.72667108    -8.931725    498.18303  0.012311759  0.011465322         3829 
 3373000   0.72373176   -8.8977603    499.69734  0.012345522  0.011460064         3837 
 3374000    0.7226303   -8.9225683    498.13692  0.012303322  0.011454812         3856 
 3375000   0.70026677   -8.9351351    499.81769  0.012341178  0.011449565         3840 
 3376000   0.70645424   -8.9463186    498.86312  0.012313959  0.011444314         3837 
 3377000   0.71889955   -8.9220795     498.5103  0.012301606  0.011439066         3857 
 3378000   0.71893043   -8.9362771    498.08006  0.012287351  0.011433826         3817 
 3379000   0.71653057   -8.9332446    498.55347   0.01229539  0.011428586         3857 
 3380000   0.73680694   -8.9321118    499.18555  0.012307336  0.011423352         3863 
 3381000   0.72417365   -8.9280831    498.81899  0.012294661  0.011418123         3854 
 3382000    0.7083801   -8.9333727    498.50433  0.012283272  0.011412891         3844 
 3383000   0.71226103   -8.9411928    498.67667  0.012283887  0.011407666         3804 
 3384000    0.6840396   -8.9212677    497.89998   0.01226113  0.011402444         3847 
 3385000    0.7255322   -8.9196194    499.72518  0.012302442  0.011397223         3823 
 3386000   0.70694526   -8.9295928    498.72339  0.012274153  0.011392004         3839 
 3387000   0.72148067    -8.927349    499.29168  0.012284511  0.011386784         3852 
 3388000   0.70531792   -8.9548317    499.03505  0.012274573  0.011381572         3856 
 3389000   0.70435357    -8.959098    498.89785  0.012267578  0.011376361         3842 
 3390000   0.72542898   -8.9317512    498.59102  0.012256416  0.011371145         3872 
 3391000   0.71189151   -8.9228163    499.30649  0.012270385  0.011365941         3849 
 3392000   0.70726643   -8.9120634    498.04091  0.012235675  0.011360736         3846 
 3393000   0.70173387   -8.9453785    499.53758  0.012268827  0.011355541         3837 
 3394000   0.71530828    -8.931813    499.00589  0.012252158  0.011350342         3870 
 3395000   0.69868139   -8.9310299    499.33215  0.012256557  0.011345151         3860 
 3396000   0.69370088   -8.9363248    498.19196   0.01222497  0.011339958         3846 
 3397000   0.70955467   -8.9330262    498.63555  0.012232253  0.011334771         3868 
 3398000   0.71941225   -8.9396013     497.8231  0.012208728  0.011329587         3822 
 3399000   0.70825648   -8.9143457     498.6369  0.012225088  0.011324405         3825 
 3400000   0.69811463   -8.9401358    499.93118  0.012253215  0.011319223         3845 
 3401000   0.69831751    -8.946225    498.67679  0.012218876  0.011314046         3849 
 3402000   0.72297891    -8.931539    498.76318  0.012217401  0.011308873         3845 
 3403000   0.72435168   -8.9261298    498.91735  0.012217586  0.011303703         3862 
 3404000   0.71355729   -8.9339402    498.55763  0.012205191  0.011298537         3814 
 3405000   0.68787024   -8.9343101    498.70402  0.012205189  0.011293378         3840 
 3406000   0.70650059   -8.9299304    499.09906  0.012211271  0.011288218         3829 
 3407000   0.70507097   -8.9278623    499.63649  0.012220832  0.011283068         3831 
 3408000   0.69985528    -8.945856    498.36108  0.012186059  0.011277916         3854 
 3409000   0.70525185   -8.9330887    498.78952  0.012192958  0.011272761         3837 
 3410000   0.69984736   -8.9401532    499.65034  0.012210419   0.01126761         3846 
 3411000   0.70960137   -8.9282004    499.15833  0.012194819  0.011262466         3839 
 3412000   0.71791786   -8.9475433    498.24774  0.012169005  0.011257325         3832 
 3413000   0.69606447     -8.94569    499.10837  0.012186453  0.011252189         3828 
 3414000   0.69588627   -8.9205119    499.52882  0.012193146  0.011247055         3830 
 3415000   0.70751145   -8.9326507    499.05285  0.012177961  0.011241926         3845 
 3416000    0.7045086   -8.9178383    499.34731   0.01218158  0.011236801         3856 
 3417000   0.70049427   -8.9433596    498.18874   0.01214976  0.011231675         3868 
 3418000    0.7266472   -8.9276823    499.41666  0.012176143  0.011226552         3852 
 3419000   0.71552016    -8.937562    498.64969  0.012153887  0.011221428         3832 
 3420000   0.70841319   -8.9396694    498.61532  0.012149496  0.011216307         3849 
 3421000   0.70872373   -8.9296791    498.35707  0.012139654  0.011211193         3857 
 3422000   0.71237141   -8.9231473    498.99545  0.012151652   0.01120608         3839 
 3423000   0.70102081   -8.9395196    498.28771  0.012130872  0.011200969         3836 
 3424000   0.71077627   -8.9475566    498.44743  0.012131217  0.011195859         3856 
 3425000   0.70233904   -8.9470626     498.3279  0.012124766  0.011190753         3871 
 3426000   0.67882009   -8.9439302    497.19552  0.012093684  0.011185647         3837 
 3427000   0.70165204    -8.974275    498.65652  0.012125681  0.011180551         3811 
 3428000    0.7199255   -8.9403821     499.0101  0.012130739  0.011175456         3834 
 3429000   0.70754287   -8.9411271    498.82163  0.012122622  0.011170361         3827 
 3430000   0.69452083   -8.9529826    498.90333  0.012121072  0.011165271         3836 
 3431000   0.70095492   -8.9389809    499.87644  0.012141175   0.01116019         3841 
 3432000   0.72115954   -8.9515487    499.26693  0.012122837  0.011155104         3840 
 3433000   0.71224091   -8.9320442    498.25143  0.012094656  0.011150022         3850 
 3434000   0.69676935   -8.9358852    498.87481  0.012106261  0.011144947         3829 
 3435000   0.71032083   -8.9440103    499.20516  0.012110751  0.011139877         3832 
 3436000    0.7020704   -8.9308669    498.87416  0.012099199  0.011134802         3849 
 3437000   0.70424578   -8.9357205    499.22804  0.012104259  0.011129731         3853 
 3438000   0.69306491   -8.9681796    498.05476  0.012072299  0.011124659         3852 
 3439000    0.6955023   -8.9650414    498.20479  0.012072424  0.011119588         3865 
 3440000    0.7001763   -8.9561872    497.96135  0.012063017  0.011114523         3851 
 3441000   0.70892572   -8.9431559    497.99499  0.012060326  0.011109459         3868 
 3442000   0.70046991   -8.9404542    499.07643  0.012083005  0.011104403         3827 
 3443000   0.69398556    -8.953161    498.44235  0.012064148  0.011099344         3864 
 3444000   0.68579649   -8.9739189    497.86719  0.012046728   0.01109429         3866 
 3445000   0.70709137   -8.9261298    499.28068  0.012077423   0.01108924         3832 
 3446000    0.7117039   -8.9514762    498.98089  0.012066669  0.011084191         3852 
 3447000    0.7144872   -8.9702675    497.62012  0.012030271  0.011079151         3846 
 3448000   0.70545788   -8.9262513    499.12173  0.012063073  0.011074111         3841 
 3449000   0.69888906   -8.9809024     498.8708  0.012053513  0.011069076         3835 
 3450000   0.69503961    -8.964924    498.87255  0.012050062  0.011064043         3883 
 3451000   0.70675896   -8.9386536    498.28157  0.012032299  0.011059007         3846 
 3452000   0.68670866   -8.9538677    498.49357  0.012033931  0.011053976         3866 
 3453000    0.6969707   -8.9281176    498.95566  0.012041598   0.01104895         3881 
 3454000    0.7017388   -8.9664303    498.56913  0.012028786  0.011043925         3852 
 3455000   0.70639041    -8.950098    499.58839  0.012049889  0.011038907         3851 
 3456000   0.69779266   -8.9502086    499.44076  0.012042842  0.011033888         3835 
 3457000   0.70854372   -8.9698287    498.95395  0.012027624  0.011028871         3850 
 3458000   0.69156692   -8.9581834    498.83063  0.012021174  0.011023857         3852 
 3459000   0.70265175   -8.9504533    498.11439  0.012000443  0.011018844         3847 
 3460000   0.69723607   -8.9392721    498.28506  0.012001085   0.01101383         3867 
 3461000    0.6905943   -8.9829084    497.98707  0.011990443   0.01100882         3833 
 3462000   0.70051545   -8.9565676     497.9919  0.011987096  0.011003817         3814 
 3463000   0.69876639   -8.9913295     497.2243  0.011965163  0.010998815         3844 
 3464000   0.69492908    -8.973768    496.90409  0.011954005   0.01099381         3852 
 3465000   0.69820382   -8.9551947    498.04554  0.011978007  0.010988811         3840 
 3466000   0.70700732   -8.9752401    497.56193  0.011962924  0.010983816         3873 
 3467000   0.70633112   -8.9564218    498.64119  0.011985415  0.010978825         3846 
 3468000   0.70794302   -8.9718676    497.78763  0.011961448  0.010973832         3850 
 3469000   0.70455872   -8.9942983    497.66327  0.011955013  0.010968847         3865 
 3470000   0.70122743   -8.9639224    497.87933  0.011956756  0.010963863         3881 
 3471000   0.69854109   -8.9761145    497.19241   0.01193682   0.01095888         3877 
 3472000    0.7040034   -8.9661865    498.63651  0.011968042  0.010953897         3862 
 3473000   0.69318886   -8.9700783    498.53986  0.011962277  0.010948923         3855 
 3474000   0.67739221   -8.9679439    498.39699  0.011955407  0.010943953         3885 
 3475000   0.70514713   -8.9579079    497.84088   0.01193863  0.010938986         3862 
 3476000   0.68700829   -8.9640262    497.73539  0.011932667  0.010934022         3846 
 3477000   0.69724725   -8.9853585    497.04393  0.011912662  0.010929055         3874 
 3478000   0.70247215   -8.9696597    498.07533   0.01193395  0.010924097         3854 
 3479000   0.69260676   -8.9533814    498.78492  0.011947516  0.010919135         3824 
 3480000   0.69827641   -8.9757709    498.10592  0.011927824  0.010914181         3860 
 3481000   0.68486597   -8.9881417    498.53208  0.011934599  0.010909228         3878 
 3482000   0.68825117   -8.9804773    497.82761  0.011914312  0.010904277         3879 
 3483000   0.68704521   -8.9660219    497.86941  0.011911891  0.010899335         3883 
 3484000   0.67741511   -8.9392664    498.25554  0.011917708  0.010894399         3843 
 3485000     0.696496   -8.9720469    496.91937  0.011882338  0.010889451         3864 
 3486000   0.70207487   -8.9544593    497.17732  0.011885096  0.010884512         3856 
 3487000   0.70043306     -8.93623     498.4404  0.011911873  0.010879576         3856 
 3488000   0.70327725    -8.961643    498.65956  0.011913694  0.010874645         3848 
 3489000   0.70049812   -8.9889063    496.85053  0.011867071  0.010869715         3862 
 3490000   0.71192989   -8.9706362    498.26157  0.011897363  0.010864789         3851 
 3491000    0.6981286   -8.9389921    497.65009  0.011879358  0.010859864         3853 
 3492000   0.68918328   -8.9662257    498.18114   0.01188863  0.010854945         3869 
 3493000   0.69176577   -8.9761753    498.46825  0.011892076  0.010850025         3860 
 3494000   0.69569557   -8.9748463    498.36265  0.011886154  0.010845107         3873 
 3495000   0.68454734   -8.9812978    497.76061  0.011868398  0.010840194         3860 
 3496000   0.69192442   -8.9768503    497.21832  0.011852077  0.010835285         3871 
 3497000   0.69560592   -8.9647485    497.67286  0.011859519  0.010830377         3869 
 3498000   0.68585395   -8.9542245    498.48122  0.011875386  0.010825471         3867 
 3499000   0.69725875   -8.9588107    497.87493  0.011857553   0.01082057         3876 
 3500000   0.69844253   -8.9558791      498.009  0.011857357  0.010815673         3857 
 3501000   0.68541437   -8.9704484    497.35635  0.011838435  0.010810779         3873 
 3502000   0.69987634   -8.9564055    498.48976  0.011862026  0.010805884         3864 
 3503000   0.68934917   -8.9495933    498.84081   0.01186699  0.010800993         3847 
 3504000   0.69581057   -8.9805936    497.43413   0.01183015  0.010796105         3863 
 3505000   0.67866973   -8.9990202    497.11684  0.011819231  0.010791219         3827 
 3506000   0.68237315   -8.9871301    497.28329  0.011819816  0.010786332         3867 
 3507000   0.68585112   -8.9500184    497.92735   0.01183175   0.01078145         3875 
 3508000   0.68672501   -8.9506036    497.46344  0.011817357  0.010776571         3850 
 3509000   0.68873098   -8.9835006    497.41029  0.011812727  0.010771697         3859 
 3510000   0.69030991   -8.9542968    498.11161  0.011826012  0.010766824         3864 
 3511000   0.67632081   -8.9550467    498.32638  0.011827741  0.010761958         3833 
 3512000    0.6916566   -8.9653188    497.73353  0.011810306  0.010757096         3879 
 3513000   0.69172654   -8.9826878    497.64617  0.011804872  0.010752232         3867 
 3514000   0.69797174     -8.96766    498.57625  0.011823569  0.010747371         3854 
 3515000   0.69368905   -8.9692902    498.03515  0.011807377  0.010742516         3835 
 3516000   0.66361599   -8.9645911    497.97031  0.011802482  0.010737663         3845 
 3517000   0.69839181   -8.9654597     496.5045  0.011764394  0.010732815         3858 
 3518000   0.68387423   -8.9781565     497.7153  0.011789731  0.010727965         3873 
 3519000   0.68801585   -8.9529851    497.89467  0.011790629  0.010723114         3862 
 3520000   0.69388649   -8.9830793    496.83567  0.011762208  0.010718271         3854 
 3521000   0.68061756   -8.9705921    496.92696  0.011761028   0.01071343         3849 
 3522000   0.69051534   -8.9649075    497.32751  0.011767166  0.010708595         3867 
 3523000   0.69554424   -8.9670187    498.38163   0.01178876  0.010703764         3863 
 3524000   0.69169117   -8.9787286    498.73574  0.011793789  0.010698934         3840 
 3525000   0.67713849   -8.9886703    497.70639  0.011766108  0.010694103         3866 
 3526000   0.66892657   -8.9999572     497.5598  0.011759307  0.010689272         3818 
 3527000   0.67366335   -8.9883207    497.22187  0.011747989  0.010684444         3846 
 3528000   0.69059275    -8.988878    497.33933  0.011747433  0.010679625         3859 
 3529000   0.69579268   -8.9776045    497.69038  0.011752394   0.01067481         3835 
 3530000   0.71717281   -8.9720364    498.03272  0.011757146  0.010669994         3844 
 3531000   0.68305072   -8.9611328    497.67481   0.01174537  0.010665182         3845 
 3532000   0.69566836   -8.9857407    497.14444  0.011729531  0.010660371         3858 
 3533000   0.67159253     -8.98762    498.21545  0.011751473  0.010655563         3857 
 3534000   0.67997308   -8.9847789    497.76294  0.011737477  0.010650754         3830 
 3535000    0.6799886    -8.961949    498.13696  0.011742974  0.010645943         3807 
 3536000   0.69201047   -8.9941155    498.13066  0.011739505  0.010641144         3852 
 3537000   0.68071585   -8.9992259     497.3303  0.011717329  0.010636348         3869 
 3538000   0.69513643   -9.0031464    498.33715  0.011737732   0.01063155         3845 
 3539000   0.69283197    -8.982847    496.76982  0.011697509  0.010626755         3857 
 3540000   0.68557886   -9.0073264    496.93837  0.011698172  0.010621965         3874 
 3541000   0.66828146   -8.9881287    497.10053  0.011698685  0.010617177         3856 
 3542000   0.69180496   -8.9967802    497.48628  0.011704458  0.010612393         3859 
 3543000    0.6857669    -8.991694     498.2832  0.011719898  0.010607607         3855 
 3544000   0.68632734   -9.0215822     496.6843  0.011678995  0.010602824         3835 
 3545000   0.67592973   -9.0046844      496.931    0.0116815  0.010598039         3859 
 3546000   0.67720372   -9.0089647    497.55449  0.011692858  0.010593258         3859 
 3547000   0.69925313   -9.0070917     497.0265  0.011677157  0.010588485         3891 
 3548000   0.69301693   -8.9869688    497.66814  0.011688936  0.010583713         3841 
 3549000   0.67862746    -9.009471    497.11359  0.011672621  0.010578946         3854 
 3550000   0.68838793   -8.9805238    497.99105  0.011689931  0.010574179         3873 
 3551000   0.67203755   -8.9907075    497.00797  0.011663568  0.010569414         3863 
 3552000   0.68912922   -8.9827607    497.48982  0.011671589  0.010564649         3879 
 3553000   0.68412051    -9.003726    497.30934  0.011664071  0.010559893         3855 
 3554000   0.67074691   -8.9942694    497.33358  0.011661358  0.010555137         3834 
 3555000   0.68730307   -8.9947908    496.17685  0.011630962  0.010550387         3840 
 3556000   0.66546021   -8.9873586    497.43879  0.011657264  0.010545633         3882 
 3557000   0.68882054   -8.9859853    497.99294   0.01166697  0.010540884         3856 
 3558000   0.68839263    -8.993579    498.09714  0.011666131  0.010536138         3882 
 3559000   0.70087688   -8.9914368    497.78501  0.011655545  0.010531392         3870 
 3560000   0.67539881   -8.9907192    497.36003  0.011642323  0.010526649         3863 
 3561000   0.67907093   -9.0300874    497.00481  0.011630741  0.010521903         3888 
 3562000   0.66785379   -9.0062206    496.92616  0.011625635  0.010517167         3856 
 3563000   0.68077525   -8.9994951    497.94174  0.011646125  0.010512429         3903 
 3564000    0.6903965   -9.0112871    497.15727  0.011624515  0.010507695         3880 
 3565000   0.67385236   -9.0007452    496.97865  0.011617079  0.010502969         3881 
 3566000   0.69721656   -8.9976306    497.76846  0.011632279  0.010498242         3879 
 3567000   0.67727194   -8.9976855    497.02917  0.011611746  0.010493517         3865 
 3568000   0.68215508   -8.9911326    496.30691  0.011591623  0.010488799         3867 
 3569000   0.67719354   -8.9851813    497.35334  0.011612808   0.01048408         3859 
 3570000   0.67173308   -8.9971651    496.59366  0.011591822  0.010479361         3861 
 3571000   0.68616018   -9.0336652    497.11979  0.011600854  0.010474644         3877 
 3572000    0.6737206   -8.9969572    497.20008  0.011599479  0.010469932         3867 
 3573000   0.67843349   -9.0377271    496.59958  0.011582227  0.010465224         3869 
 3574000   0.70254994   -9.0032801    497.30705  0.011595482  0.010460518         3871 
 3575000   0.69713665   -9.0168362    496.74593  0.011579159  0.010455816         3862 
 3576000   0.67260791   -9.0166772    496.43054  0.011568572  0.010451118         3891 
 3577000   0.67776145   -9.0020056    496.81558  0.011574308  0.010446423         3833 
 3578000   0.67443678   -9.0094553    496.49503  0.011563607  0.010441728         3857 
 3579000   0.67064806   -9.0032364    497.66175  0.011587542  0.010437035         3863 
 3580000   0.67861631   -8.9799531     497.3132  0.011576192  0.010432345         3881 
 3581000   0.67075993   -8.9944307    496.77294  0.011560387  0.010427662         3865 
 3582000   0.67593069   -9.0210142    496.79654  0.011557709  0.010422978         3855 
 3583000   0.68270664   -8.9961935    497.91478  0.011580491  0.010418291         3850 
 3584000   0.67272552   -9.0217371    497.39226   0.01156511   0.01041361         3876 
 3585000   0.69126688   -9.0173585    496.81283  0.011548415  0.010408936         3862 
 3586000   0.66387739   -9.0061861    497.43753  0.011559712  0.010404265         3862 
 3587000   0.68029595   -9.0030827    496.99202  0.011546139  0.010399594         3897 
 3588000   0.67570946   -9.0103839    496.41881  0.011529608  0.010394932         3878 
 3589000   0.68462261   -9.0298442    497.36734   0.01154842  0.010390265         3889 
 3590000   0.68319987   -9.0234802    496.72253  0.011530235  0.010385602         3888 
 3591000   0.68071817    -9.002897    496.60719  0.011524348  0.010380941         3879 
 3592000   0.69274858    -8.994758    496.78349  0.011525229  0.010376284         3873 
 3593000   0.69436448   -9.0075759    497.25323  0.011532917  0.010371631         3883 
 3594000   0.66230154   -8.9992542    497.56327  0.011536896  0.010366979         3859 
 3595000   0.66822133   -9.0110476    496.99364  0.011520483  0.010362331         3898 
 3596000    0.6775668   -9.0003811    497.18256  0.011521657  0.010357686         3886 
 3597000   0.68258294   -9.0204166    497.36524  0.011522687  0.010353044         3846 
 3598000   0.66837986   -9.0245913     497.0207  0.011511504  0.010348407         3883 
 3599000   0.68538508   -8.9951412    496.96201  0.011506947   0.01034377         3896 
 3600000   0.68557494   -9.0149893    496.68351  0.011497303  0.010339135         3898 
 3601000   0.68520255   -9.0183131    496.63877  0.011493075  0.010334501         3875 
 3602000   0.67631136   -9.0206356    496.78425   0.01149325  0.010329871         3891 
 3603000   0.69217849   -9.0275984    496.06386  0.011473399  0.010325246         3880 
 3604000   0.66121535   -8.9951602    497.38103  0.011500671   0.01032062         3887 
 3605000   0.68508744   -9.0169988    496.53837  0.011478002  0.010315998         3860 
 3606000   0.67138266   -9.0310726    496.53725  0.011474793  0.010311382         3896 
 3607000   0.67157055   -8.9929976     496.8342  0.011478472  0.010306766         3898 
 3608000   0.68435107    -9.024478     496.3415  0.011463911  0.010302151         3896 
 3609000   0.68328618   -9.0380097    496.28962  0.011459537  0.010297541         3884 
 3610000   0.67168418   -9.0059494    497.10509  0.011475187  0.010292933         3870 
 3611000   0.65678969   -9.0182607     498.0233  0.011493199  0.010288331         3888 
 3612000   0.67553378   -9.0161396    496.56793   0.01145644  0.010283729         3891 
 3613000   0.68046561   -9.0220317    496.26465  0.011446274  0.010279132         3893 
 3614000   0.67066471   -9.0225189    496.98588  0.011459737  0.010274535         3897 
 3615000   0.66508013   -9.0229413    496.88208  0.011454174  0.010269944         3882 
 3616000   0.68315716   -9.0285498    497.19985   0.01145833  0.010265353         3871 
 3617000   0.67698101   -9.0114292    496.56046  0.011440431  0.010260763         3865 
 3618000   0.67113354   -9.0092272    497.68334  0.011463132  0.010256177         3886 
 3619000   0.67665847   -9.0197225    496.94742  0.011443019  0.010251592         3888 
 3620000   0.66201139   -9.0141721    497.29974  0.011447968  0.010247007         3859 
 3621000   0.66121719   -9.0240616    496.00541  0.011415019  0.010242424         3869 
 3622000   0.66176035   -9.0049075    496.71811  0.011428265  0.010237845         3889 
 3623000   0.67154969   -9.0114952     497.2544  0.011437446  0.010233268         3855 
 3624000    0.6956393   -9.0161697    496.61811  0.011419659  0.010228697         3875 
 3625000   0.68215875   -9.0149095    497.05268  0.011426498  0.010224127         3855 
 3626000   0.67755062   -9.0060377    496.54551  0.011411691  0.010219564         3895 
 3627000   0.67412188   -9.0072583    497.06219  0.011420416  0.010215002         3874 
 3628000   0.67150281   -9.0187891    496.76497  0.011410441  0.010210443         3877 
 3629000   0.68516958   -9.0084251     497.7437  0.011429772  0.010205888         3865 
 3630000   0.66460195   -9.0307317    496.57696  0.011399838  0.010201334         3896 
 3631000   0.66940654   -9.0388699    496.87944  0.011403641   0.01019678         3888 
 3632000   0.65593133   -9.0000324    496.21757  0.011385315  0.010192235         3870 
 3633000   0.66060149   -9.0288274    496.65419  0.011392196  0.010187684         3879 
 3634000    0.6928266     -9.02344    496.04613  0.011375118   0.01018314         3906 
 3635000   0.68953491   -9.0159293    496.86673  0.011390801  0.010178599         3891 
 3636000   0.66475398   -9.0446243    496.81534   0.01138649  0.010174058         3873 
 3637000   0.67036029   -9.0146148     496.7148  0.011381056  0.010169518         3868 
 3638000   0.66171779   -9.0164399    496.40898  0.011370922   0.01016498         3883 
 3639000   0.66019748   -9.0052489    496.89278  0.011378877  0.010160451         3858 
 3640000   0.66608109    -9.002601    497.64158  0.011392893   0.01015592         3878 
 3641000    0.6829357   -9.0174029    496.74886  0.011369332  0.010151395         3854 
 3642000   0.66617789   -9.0145394    496.66526  0.011364298  0.010146873         3873 
 3643000   0.66366328   -9.0167712    496.40307   0.01135518  0.010142358         3879 
 3644000   0.66402494   -9.0175132    496.73267  0.011359602  0.010137838         3900 
 3645000   0.66636714   -9.0180682    496.42375  0.011349423  0.010133325         3867 
 3646000   0.67957586   -9.0018432    497.19679  0.011363978  0.010128809         3897 
 3647000   0.67949837   -9.0318407    495.84363  0.011329943  0.010124303         3893 
 3648000   0.67572495   -9.0093275    497.36135  0.011361507  0.010119793         3881 
 3649000   0.67526239   -9.0389338    497.28733  0.011356703  0.010115286         3857 
 3650000    0.6719272   -9.0229201    496.77159  0.011341817   0.01011078         3849 
 3651000    0.6537629   -9.0332773    496.63449  0.011335581  0.010106273         3880 
 3652000   0.67896933   -9.0412945    496.94343  0.011339527  0.010101777         3892 
 3653000   0.66804566   -9.0198856    495.75855  0.011309393  0.010097282         3902 
 3654000   0.67495248   -9.0384718    496.62803  0.011326127  0.010092793         3885 
 3655000   0.65533137   -9.0542008    495.89158  0.011306238  0.010088299         3893 
 3656000   0.67517693   -9.0553577    496.31009  0.011312684  0.010083809         3865 
 3657000   0.65604857   -9.0420813    495.74476  0.011296709  0.010079323         3883 
 3658000   0.67233622   -9.0198674    496.49764  0.011310772  0.010074837         3871 
 3659000   0.66003941   -9.0415385    495.83063  0.011292489  0.010070358         3885 
 3660000   0.66191758   -9.0228245    496.26229  0.011299233  0.010065881         3880 
 3661000   0.67076707   -9.0143696    496.66833  0.011305389  0.010061403         3889 
 3662000   0.66994612   -9.0188621    496.79235  0.011305123  0.010056931         3886 
 3663000   0.66604517   -9.0513877    497.05218  0.011307948  0.010052462         3906 
 3664000   0.67161549   -9.0348638    496.57793  0.011294076  0.010047991         3886 
 3665000   0.68703617   -9.0316607    496.47323  0.011288614  0.010043527         3865 
 3666000   0.66673962   -9.0270829    496.90928  0.011295446  0.010039058         3849 
 3667000    0.6610085   -9.0002038    497.61635  0.011308434  0.010034601         3873 
 3668000   0.66696884   -9.0170643     496.6221  0.011282763  0.010030146         3891 
 3669000   0.67269009   -9.0254305      496.152  0.011269011  0.010025692         3876 
 3670000   0.65967802   -9.0223119    495.74006  0.011256586  0.010021241         3868 
 3671000   0.65990425   -9.0051049    496.75822  0.011276633  0.010016792         3885 
 3672000   0.66612338   -9.0406674    495.47877  0.011244525  0.010012348         3879 
 3673000   0.66084787   -9.0236165    496.57372  0.011266306  0.010007903         3886 
 3674000   0.65422967   -9.0481795    496.29818   0.01125699  0.010003458         3893 
 3675000   0.66452393   -9.0217006    496.39693  0.011256166 0.0099990175         3884 
 3676000   0.65720896   -9.0384012    497.28228  0.011273175 0.0099945799         3881 
 3677000   0.66026854   -9.0281102     497.1036  0.011266059 0.0099901439         3876 
 3678000   0.66284875   -9.0345229    496.28924  0.011244545 0.0099857112         3851 
 3679000    0.6642623   -9.0499036    496.17241  0.011238842 0.0099812845         3873 
 3680000   0.65681177   -9.0104369    496.48441  0.011242854 0.0099768622         3865 
 3681000   0.66222385   -9.0025066    495.68209  0.011221636 0.0099724364         3869 
 3682000   0.65115393   -9.0295986    496.53663  0.011237928 0.0099680121         3886 
 3683000   0.66321797    -9.017895    496.71514  0.011238916 0.0099635948         3906 
 3684000   0.66820765   -9.0314875    496.70648  0.011235669 0.0099591797         3871 
 3685000   0.67539285   -9.0355118    496.03249  0.011217379 0.0099547653         3896 
 3686000   0.65241247   -9.0284055    497.05713  0.011237501 0.0099503563         3871 
 3687000   0.66821405    -9.044801    495.97384  0.011209968 0.0099459491         3862 
 3688000   0.64261521   -9.0252005    497.12705  0.011232986 0.0099415465         3856 
 3689000   0.65240872   -9.0324829    496.73374  0.011221057 0.0099371449         3867 
 3690000   0.67173412   -9.0646105    495.74916  0.011195781 0.0099327459         3854 
 3691000   0.66339245   -9.0147977    497.24521  0.011226524 0.0099283495         3865 
 3692000   0.65488294   -9.0264942    496.78739   0.01121315 0.0099239522         3877 
 3693000   0.66340584   -9.0469513    495.64038  0.011184231 0.0099195534         3864 
 3694000   0.67515749   -9.0491564    496.97977  0.011211419 0.0099151668         3887 
 3695000    0.6545915   -9.0457924    496.99778  0.011208791 0.0099107801         3892 
 3696000   0.66475301   -9.0514589    496.02672  0.011183864 0.0099063969         3880 
 3697000   0.66591109   -9.0174137    496.58846  0.011193501 0.0099020186         3861 
 3698000   0.66379883   -9.0361207    496.58887  0.011190483 0.0098976354         3881 
 3699000   0.65524575   -9.0199453    496.73029  0.011190644 0.0098932518         3883 
 3700000   0.64195415   -9.0323702    495.51209  0.011160182 0.0098888792         3867 
 3701000   0.65990132   -9.0300959    495.65619  0.011160411 0.0098845054         3883 
 3702000   0.66461343   -9.0378806    496.11983  0.011167833 0.0098801381         3889 
 3703000   0.65297141   -9.0299991    496.92479  0.011182933 0.0098757663         3866 
 3704000   0.64389974   -9.0476094    496.18866  0.011163352 0.0098714022         3891 
 3705000   0.66289024   -9.0300739    497.40428  0.011187681  0.009867039         3847 
 3706000   0.66026381   -9.0397996    496.25628  0.011158848 0.0098626815         3849 
 3707000   0.65456734   -9.0623005    496.21067  0.011154812 0.0098583261         3884 
 3708000   0.65562855   -9.0255464    496.40276  0.011156121 0.0098539661         3884 
 3709000   0.65258546   -9.0372182    496.30303  0.011150872 0.0098496127         3885 
 3710000   0.66356098   -9.0546937    496.10072  0.011143322 0.0098452614         3893 
 3711000   0.65835764   -9.0216907    496.60278  0.011151594 0.0098409163         3892 
 3712000    0.6572164   -9.0458881    494.79003  0.011107894 0.0098365671         3897 
 3713000   0.65759739    -9.053315    496.18783  0.011136274  0.009832226         3902 
 3714000   0.65575777    -9.047853    495.21263  0.011111394 0.0098278857         3885 
 3715000   0.65751815   -9.0473874    496.24059  0.011131462   0.00982355         3883 
 3716000      0.66106   -9.0350766    496.39708  0.011131976 0.0098192139         3845 
 3717000   0.65509753   -9.0486069    496.35397  0.011128015 0.0098148832         3855 
 3718000   0.66046929   -9.0535942    496.95859  0.011138573 0.0098105523         3866 
 3719000   0.63763663   -9.0304316    495.93876  0.011112726 0.0098062217         3897 
 3720000   0.65796552   -9.0321101    496.86112  0.011130401 0.0098018946         3859 
 3721000   0.65656204   -9.0548893    496.37687  0.011116565 0.0097975702         3883 
 3722000   0.66166927   -9.0527066    496.45829  0.011115402 0.0097932498         3899 
 3723000   0.66624508   -9.0156464    496.46364  0.011112536 0.0097889341         3893 
 3724000   0.66031788   -9.0456522    496.06885  0.011100717 0.0097846165         3856 
 3725000   0.65808364   -9.0573213    496.25759   0.01110196 0.0097803048         3892 
 3726000   0.66588481   -9.0511886    496.34521   0.01110094 0.0097759974         3888 
 3727000   0.65865547   -9.0363209    496.34346  0.011097922 0.0097716891         3872 
 3728000   0.64084213    -9.056052    496.30373  0.011094057 0.0097673861         3878 
 3729000   0.64817412   -9.0302056    496.07822  0.011086042 0.0097630855         3860 
 3730000   0.65192239    -9.057352    496.18396  0.011085432 0.0097587841         3868 
 3731000   0.65746656   -9.0601341    495.97057  0.011077695 0.0097544849         3872 
 3732000    0.6541269   -9.0570667    496.34984  0.011083196 0.0097501924         3849 
 3733000   0.66325747   -9.0634434    495.51774  0.011061651 0.0097458948         3891 
 3734000   0.65056152   -9.0439129    496.19898  0.011073893 0.0097416086         3867 
 3735000   0.66501403   -9.0400896    495.73015  0.011060467 0.0097373183         3852 
 3736000   0.66047436   -9.0405921    496.08228  0.011065361 0.0097330307         3865 
 3737000   0.66804127   -9.0542934    495.70932  0.011054083 0.0097287488         3857 
 3738000   0.66718376   -9.0564006    496.19014  0.011061846 0.0097244683         3886 
 3739000   0.65573021     -9.04704    496.85985  0.011073813 0.0097201938         3878 
 3740000   0.65407009   -9.0330277    495.97756  0.011051193 0.0097159192         3875 
 3741000   0.65866886   -9.0379142    497.14614   0.01107427 0.0097116463         3866 
 3742000   0.65232224   -9.0355291    496.44058  0.011055598 0.0097073773         3867 
 3743000   0.63831702   -9.0383483    496.14021  0.011045957   0.00970311         3860 
 3744000   0.65249036   -9.0558162    496.46713  0.011050283 0.0096988477         3877 
 3745000   0.64106365   -9.0761336    496.12524  0.011039725 0.0096945796         3847 
 3746000   0.64637127   -9.0439899    495.85105  0.011030678 0.0096903186         3873 
 3747000   0.66525276     -9.04268    496.43407  0.011040701  0.009686062         3882 
 3748000   0.63693497   -9.0452024     495.7292  0.011022083 0.0096818085         3862 
 3749000   0.65613416   -9.0492985    496.27475  0.011031269 0.0096775517         3868 
 3750000   0.65569161   -9.0396148    496.13291  0.011025176 0.0096733056         3886 
 3751000   0.65686125   -9.0579949    496.10797  0.011021682  0.009669059         3884 
 3752000   0.66733765   -9.0498551    495.90973  0.011014342 0.0096648128         3872 
 3753000   0.65189262   -9.0544607    495.61957  0.011004964 0.0096605677         3878 
 3754000   0.64775285    -9.038765    495.73824  0.011004667 0.0096563283         3873 
 3755000   0.65823215   -9.0487372    496.09457  0.011009644 0.0096520919         3864 
 3756000   0.65757122   -9.0376172    496.38266  0.011013105 0.0096478557         3865 
 3757000    0.6336776   -9.0725846    495.41996   0.01098882 0.0096436195         3878 
 3758000    0.6476865   -9.0445289    495.94881  0.010997623 0.0096393869         3875 
 3759000   0.65809626   -9.0278165     496.5487  0.011007996 0.0096351585         3893 
 3760000   0.64473457   -9.0493095    495.93046  0.010991367 0.0096309272         3868 
 3761000   0.65160977   -9.0354897     495.5416  0.010979828 0.0096267052         3869 
 3762000   0.65234823    -9.045723     495.2809  0.010971135 0.0096224847         3887 
 3763000   0.64652049   -9.0548881    495.36445  0.010970069 0.0096182668         3879 
 3764000   0.63525037   -9.0530843    496.77306  0.010998341 0.0096140506         3871 
 3765000   0.64787671   -9.0482274    496.83155  0.010996714 0.0096098369         3871 
 3766000   0.65426162   -9.0408278    496.01582  0.010975744 0.0096056274         3881 
 3767000   0.64298043   -9.0656345     495.7868  0.010967764  0.009601419         3884 
 3768000   0.64951451    -9.054815    496.74281  0.010985996 0.0095972132         3859 
 3769000   0.65002497   -9.0393817    496.74896  0.010983218 0.0095930109         3862 
 3770000   0.64682905   -9.0433713    495.85508  0.010960546 0.0095888144         3891 
 3771000   0.64285659   -9.0408979    496.46874    0.0109712  0.009584611         3855 
 3772000   0.65017938   -9.0323265     495.8013  0.010953546 0.0095804151         3888 
 3773000    0.6468495   -9.0518717    495.84486  0.010951605 0.0095762232         3869 
 3774000   0.64734938   -9.0583419    495.22607  0.010935039 0.0095720277         3878 
 3775000    0.6540035    -9.056865    495.85649  0.010946059 0.0095678377         3881 
 3776000   0.65756542     -9.06036    495.50268  0.010935352 0.0095636493         3890 
 3777000   0.65311374   -9.0489643    494.81949  0.010917384 0.0095594623         3871 
 3778000   0.65419739   -9.0478987     495.9687  0.010939843 0.0095552774         3861 
 3779000   0.64714695   -9.0648045    495.72165    0.0109315 0.0095510982         3876 
 3780000   0.65423162   -9.0686497    496.33139   0.01094205  0.009546922         3873 
 3781000   0.65488563   -9.0383915    495.94851  0.010930717 0.0095427495         3879 
 3782000   0.65684911   -9.0597904    495.66072  0.010921486 0.0095385777         3865 
 3783000   0.64449388   -9.0628401    496.30496   0.01093279 0.0095344085         3898 
 3784000   0.64603661   -9.0469236    495.51451  0.010912494 0.0095302396         3861 
 3785000   0.65748936   -9.0495581    494.94962  0.010897174 0.0095260733         3871 
 3786000   0.63812245   -9.0651587    496.05325  0.010918587 0.0095219138         3901 
 3787000   0.64551694   -9.0728542    495.39677  0.010901258 0.0095177513         3866 
 3788000   0.64916334   -9.0607952    495.63179  0.010903551  0.009513593         3885 
 3789000   0.64382631   -9.0754697    494.74419  0.010881151 0.0095094326         3900 
 3790000   0.65212073    -9.044341    495.38892  0.010892456  0.009505281         3872 
 3791000    0.6497146   -9.0539196    495.52933   0.01089267 0.0095011286         3887 
 3792000   0.63542161     -9.05905    494.93024  0.010876632 0.0094969807         3889 
 3793000   0.63056855   -9.0680466    495.20376  0.010879773 0.0094928321         3890 
 3794000   0.64424887   -9.0642999    495.27318   0.01087843 0.0094886846         3870 
 3795000    0.6372471     -9.05334    496.43936  0.010901172 0.0094845452         3857 
 3796000    0.6518724   -9.0564658    495.44696  0.010876514 0.0094804054         3877 
 3797000    0.6354785   -9.0642957    496.46089  0.010895902 0.0094762671         3878 
 3798000   0.63825532    -9.071214     495.4579  0.010871026 0.0094721304         3891 
 3799000   0.64932546   -9.0759492    495.95317  0.010879029 0.0094679967         3895 
 3800000   0.64270442   -9.0618126    495.40983  0.010864251 0.0094638687         3888 
 3801000   0.65002677   -9.0776468    495.76014  0.010869073 0.0094597408         3907 
 3802000   0.63179971   -9.0770667    494.98677  0.010849263 0.0094556139         3891 
 3803000    0.6429608   -9.0812975    496.24067  0.010873886 0.0094514864         3895 
 3804000   0.63803904   -9.0647774    495.89369  0.010863426 0.0094473677         3886 
 3805000   0.64941964   -9.0769031    495.25119    0.0108465 0.0094432482         3876 
 3806000   0.64812195   -9.0542393    494.81212  0.010834037  0.009439132         3884 
 3807000   0.64677087   -9.0718262    494.84559  0.010831923 0.0094350179         3901 
 3808000   0.64195186   -9.0706597    495.36135  0.010840366 0.0094309061         3900 
 3809000   0.64912462    -9.071881    495.16614  0.010833249 0.0094267965         3895 
 3810000   0.65283784   -9.0387258    496.26483  0.010854436 0.0094226928         3887 
 3811000   0.64612513   -9.0667149    495.74491  0.010840219  0.009418587         3893 
 3812000    0.6459634   -9.0453914    495.70101  0.010836416 0.0094144801         3876 
 3813000   0.64850707   -9.0740039    495.86778  0.010837219 0.0094103796         3900 
 3814000   0.63532357   -9.0512214    496.12624  0.010840024 0.0094062799         3867 
 3815000   0.62602988   -9.0595836    495.02468  0.010813121 0.0094021809         3897 
 3816000   0.64628504   -9.0467833    495.60039   0.01082286 0.0093980865         3883 
 3817000   0.64622759   -9.0772091    495.24439  0.010812252 0.0093939951         3886 
 3818000   0.64399081   -9.0471109    495.66662  0.010818636  0.009389909         3890 
 3819000   0.64864918   -9.0761563     493.9561  0.010778478 0.0093858261         3897 
 3820000   0.63684816   -9.0601033    495.18164  0.010802392 0.0093817435         3871 
 3821000   0.65683638   -9.0788049    494.92315  0.010793927 0.0093776612         3883 
 3822000   0.64298828   -9.0641414    495.06575  0.010794212 0.0093735781         3883 
 3823000   0.64649064   -9.0730776    494.82284  0.010786094 0.0093695003         3892 
 3824000   0.64201541   -9.0727792    495.08532  0.010788993 0.0093654253         3877 
 3825000   0.63035155   -9.0863724    495.93935  0.010804779 0.0093613533         3896 
 3826000   0.63981513   -9.0568543    495.95402  0.010802274 0.0093572862         3884 
 3827000   0.65276501   -9.0666204    495.66558  0.010793171  0.009353217         3897 
 3828000   0.64017722   -9.0645695    495.34843  0.010783447 0.0093491487         3912 
 3829000   0.63786665   -9.0749566    496.61723  0.010808245 0.0093450887         3886 
 3830000    0.6311307   -9.0445935    495.48082  0.010780697 0.0093410254         3901 
 3831000    0.6349534   -9.0822197    495.56858  0.010779792 0.0093369681         3908 
 3832000   0.64106422   -9.0789021    495.88617  0.010783885 0.0093329097         3889 
 3833000   0.63745011     -9.07988    494.83632  0.010758247 0.0093288516         3895 
 3834000   0.62894115   -9.0772288    494.91679   0.01075719 0.0093247998         3899 
 3835000   0.63364308   -9.0695495    495.05497  0.010757387 0.0093207513         3893 
 3836000   0.64094986   -9.0593724    496.11612  0.010777635 0.0093167055         3885 
 3837000   0.62681113   -9.0686616    495.60525  0.010763731 0.0093126627         3892 
 3838000   0.63044815   -9.0580538    496.40014  0.010778186 0.0093086207         3859 
 3839000   0.64188967   -9.0889905    495.77969   0.01076191 0.0093045826         3891 
 3840000   0.63461601   -9.0884678    495.37812  0.010750393 0.0093005449         3869 
 3841000    0.6299976   -9.0644855    495.71427  0.010754887 0.0092965085         3878 
 3842000   0.64374752   -9.0730938    495.65406  0.010750782 0.0092924757         3898 
 3843000   0.62835332   -9.1023436    494.86327  0.010730837 0.0092884405         3882 
 3844000   0.62843107   -9.0770963    495.97608   0.01075217 0.0092844118         3896 
 3845000   0.63264478   -9.0633655    495.34923  0.010735787  0.009280387         3896 
 3846000   0.61881141   -9.0703428    495.02642  0.010726002 0.0092763604         3893 
 3847000   0.63833412   -9.0864545     495.1789  0.010726516  0.009272339         3897 
 3848000   0.62668784   -9.0762664     495.9238  0.010739861 0.0092683171         3907 
 3849000   0.63016347   -9.0794007    494.98744  0.010716797 0.0092643024         3872 
 3850000   0.65693789   -9.0855117    494.46056   0.01070261 0.0092602874         3885 
 3851000    0.6314659   -9.0509278    495.50876  0.010722513  0.009256275         3907 
 3852000   0.64431343   -9.0846572    494.46348  0.010697116 0.0092522631         3906 
 3853000   0.63472793   -9.0852324    494.57485  0.010696748 0.0092482538         3899 
 3854000   0.62284925   -9.0825012     495.4558  0.010713021 0.0092442462         3880 
 3855000   0.64004862   -9.0943919     495.1638   0.01070393 0.0092402428         3876 
 3856000   0.62335797   -9.0688924    494.17105  0.010679699 0.0092362396         3851 
 3857000   0.63973597   -9.0871505     496.0138  0.010716745 0.0092322437         3869 
 3858000   0.64194094   -9.0832968     495.5523  0.010703998 0.0092282464         3904 
 3859000   0.62724427   -9.0802195    495.84502  0.010707545 0.0092242531         3888 
 3860000   0.62961857   -9.0899958    496.03646  0.010708905 0.0092202597         3882 
 3861000   0.62787916    -9.058657    495.13745  0.010686727  0.009216268         3885 
 3862000   0.64329927    -9.068699    495.15657  0.010684373 0.0092122808         3875 
 3863000   0.61954125   -9.0830654    495.20565  0.010682666 0.0092082939         3857 
 3864000   0.63973504   -9.0757533    495.82669  0.010693295 0.0092043124         3887 
 3865000   0.61870389     -9.09878    494.79964  0.010668384 0.0092003271         3883 
 3866000   0.62961219   -9.0559594    495.62885  0.010683498 0.0091963472         3886 
 3867000   0.64802347   -9.0759472    495.66309  0.010681473 0.0091923715         3888 
 3868000   0.62462963   -9.0870587    495.63103  0.010678021 0.0091883963         3899 
 3869000   0.63555553   -9.0827109    495.82123  0.010679358 0.0091844247         3891 
 3870000    0.6335762   -9.1066344    494.50996  0.010648363 0.0091804532         3860 
 3871000   0.62536186   -9.0930803    494.26845  0.010640413 0.0091764842         3870 
 3872000   0.62412326   -9.0825246    495.10067  0.010655576 0.0091725191         3886 
 3873000   0.63023585   -9.0863867    494.70197  0.010644246  0.009168558         3900 
 3874000    0.6353404    -9.093708    495.25292   0.01065335 0.0091645986         3868 
 3875000   0.62428854   -9.0866968    495.32928  0.010652243 0.0091606403         3887 
 3876000    0.6385338   -9.0911947    495.48559  0.010652855 0.0091566817         3890 
 3877000   0.62340437   -9.0916637    496.40274  0.010669821 0.0091527287         3878 
 3878000     0.639593   -9.0970358    495.24122   0.01064211 0.0091487778         3875 
 3879000   0.63465431   -9.0765064    494.62882   0.01062621 0.0091448284         3864 
 3880000   0.61606088   -9.0877871    494.95555  0.010630489 0.0091408803         3892 
 3881000    0.6332464   -9.0778604    495.21796  0.010633384 0.0091369361         3874 
 3882000   0.63109953   -9.0815575    495.28625  0.010632111 0.0091329932         3864 
 3883000   0.64468315   -9.1009734    494.42127  0.010610809 0.0091290545         3899 
 3884000   0.62677928   -9.0833705    495.25899  0.010626051 0.0091251197         3876 
 3885000   0.62923119   -9.0880619    495.38592  0.010626039 0.0091211876         3874 
 3886000   0.61795632   -9.0860821     495.2035  0.010619392 0.0091172568         3880 
 3887000   0.63854982   -9.0858195    495.23581  0.010617353 0.0091133279         3874 
 3888000    0.6252703   -9.0696893    496.17921  0.010634842 0.0091094011         3905 
 3889000   0.62640291    -9.083789    494.64243  0.010599178 0.0091054764         3873 
 3890000   0.62130354   -9.0948601    494.30799  0.010589289  0.009101554         3885 
 3891000   0.64050068     -9.10268    494.29194  0.010586223 0.0090976301         3885 
 3892000   0.63271704   -9.0834054    495.02636  0.010599228 0.0090937125         3877 
 3893000   0.61467381   -9.0684421    494.51714  0.010585605 0.0090897944         3870 
 3894000   0.60213684   -9.0857814    494.71079  0.010587031 0.0090858791         3890 
 3895000   0.61795101   -9.0826857    495.05003  0.010591571 0.0090819674         3901 
 3896000   0.63941151   -9.0963946    495.97043  0.010608539 0.0090780565         3881 
 3897000   0.63254516    -9.080746    495.50102  0.010595779  0.009074152         3895 
 3898000   0.62541531   -9.0855332    495.58971  0.010594957 0.0090702438         3889 
 3899000   0.61577184   -9.1057577    495.28792  0.010585789 0.0090663386         3887 
 3900000   0.63684229     -9.06775    494.09976  0.010557687 0.0090624373         3889 
 3901000   0.63771315   -9.0887015    494.70855  0.010567986 0.0090585363         3876 
 3902000   0.61464769   -9.0824008    495.11055  0.010573863 0.0090546407         3878 
 3903000   0.62763371   -9.1108363    494.51671  0.010558475 0.0090507413         3885 
 3904000   0.62733051    -9.089109    495.22031  0.010570789 0.0090468479         3885 
 3905000    0.6381405   -9.1025218    494.72033  0.010557412 0.0090429553         3885 
 3906000   0.60844284   -9.0881407    495.07374  0.010562249 0.0090390668         3883 
 3907000   0.63622937   -9.0893248    495.45676  0.010567715 0.0090351791         3855 
 3908000    0.6212069    -9.087961    494.23814  0.010539026 0.0090312937         3877 
 3909000   0.63318449   -9.0946073    495.02566  0.010553118 0.0090274107         3876 
 3910000   0.61021754   -9.0781755    495.01244  0.010550137 0.0090235321         3862 
 3911000   0.62844646   -9.0990467    494.23595  0.010530895 0.0090196534         3890 
 3912000   0.62449573   -9.0603056    494.54546  0.010534796 0.0090157777         3883 
 3913000   0.62301531    -9.110276    494.15578  0.010523805 0.0090118986         3892 
 3914000   0.63189416    -9.082634    495.32501   0.01054601 0.0090080277         3884 
 3915000   0.62556953   -9.0896734    494.82762  0.010532729  0.009004155         3870 
 3916000   0.63260793   -9.0845439    495.20366  0.010538042 0.0090002888         3879 
 3917000   0.61687462   -9.0924374    495.61741  0.010544154 0.0089964248         3878 
 3918000   0.62137654   -9.0969946    495.64478  0.010542045 0.0089925632         3875 
 3919000   0.63697346    -9.060563    494.90306  0.010523583 0.0089887021         3896 
 3920000   0.63406534   -9.0927146    494.76135  0.010517886 0.0089848464         3892 
 3921000   0.61271555   -9.0801872    495.30928  0.010526849 0.0089809902         3901 
 3922000   0.62365472   -9.0934361    495.59999  0.010530341 0.0089771391         3886 
 3923000   0.62784034   -9.0913804    494.87227  0.010512199 0.0089732863         3898 
 3924000   0.62589943   -9.0714091    494.89866   0.01051008 0.0089694382         3889 
 3925000   0.63169461   -9.0836732    495.50405  0.010520256 0.0089655911         3873 
 3926000   0.62347986   -9.1252742    494.49224  0.010496099 0.0089617456         3880 
 3927000   0.63154693   -9.0872479    493.81187  0.010478989 0.0089579019         3874 
 3928000   0.61605591    -9.105737    494.58401  0.010492702 0.0089540601         3869 
 3929000   0.62235504   -9.0944724    494.73091  0.010493147 0.0089502219         3898 
 3930000   0.62940155   -9.0918879    494.49794  0.010485537 0.0089463838         3904 
 3931000   0.62449249   -9.0936093    495.03214  0.010494194 0.0089425484         3894 
 3932000   0.62057621   -9.0853165    496.14627  0.010515138 0.0089387181         3895 
 3933000   0.61606459   -9.0755382     495.3602  0.010495809 0.0089348925         3889 
 3934000   0.63260746   -9.0944496    494.92223  0.010483864 0.0089310666         3870 
 3935000   0.62843339   -9.0894749    495.69134  0.010497487 0.0089272386         3890 
 3936000   0.61380341   -9.1087686    494.54861  0.010470626 0.0089234162         3900 
 3937000   0.62133527   -9.1036839    495.05147   0.01047861 0.0089195943         3910 
 3938000   0.62577046   -9.0978521    494.81703  0.010470988 0.0089157776         3896 
 3939000   0.61964655   -9.0929243    495.04433  0.010473139 0.0089119583         3899 
 3940000   0.63216446   -9.0933636    494.74102  0.010464066 0.0089081432         3887 
 3941000   0.61428745   -9.1026736    494.41462  0.010454509 0.0089043304         3886 
 3942000   0.62748677    -9.083732    494.38616  0.010451255  0.008900516         3901 
 3943000   0.61752867   -9.1030461    495.01231  0.010461838 0.0088967081         3894 
 3944000   0.63002138   -9.0964063    494.28778  0.010443876 0.0088929043         3895 
 3945000   0.62437077   -9.1211939    494.46883  0.010445053 0.0088891036         3883 
 3946000   0.61737587   -9.1001767    494.69143  0.010447107  0.008885303         3876 
 3947000   0.61808305    -9.098826    494.78269  0.010446387 0.0088815062         3896 
 3948000   0.62391865   -9.1114689    494.70507  0.010442103 0.0088777068         3903 
 3949000    0.6283429    -9.096354    495.23542   0.01045065 0.0088739102         3899 
 3950000   0.60255592   -9.1205314    493.11866  0.010403347 0.0088701197         3912 
 3951000   0.63551035   -9.0893863    494.38034  0.010427325 0.0088663298         3901 
 3952000   0.61680979   -9.0996876    495.29058   0.01044388  0.008862542         3881 
 3953000   0.61901901   -9.1072347    494.92393  0.010433509 0.0088587515         3906 
 3954000   0.61750384   -9.1025899    495.02848  0.010433074 0.0088549688         3919 
 3955000   0.62579658   -9.0969815    494.92679  0.010428293 0.0088511891         3884 
 3956000    0.6104461   -9.1083472     493.8036  0.010401997 0.0088474058         3884 
 3957000   0.61451658   -9.1244866     494.5739  0.010415591 0.0088436243         3900 
 3958000   0.61728064   -9.0912826    494.84584  0.010418684 0.0088398488         3898 
 3959000   0.61885567   -9.0870636    495.88906  0.010438012  0.008836074         3875 
 3960000   0.61620594   -9.1123072    495.14988  0.010419821 0.0088323049         3877 
 3961000   0.60279923   -9.1119786    495.13519  0.010416881 0.0088285358         3895 
 3962000   0.62701863   -9.0729868    494.92817  0.010409898 0.0088247659         3879 
 3963000    0.6194744   -9.1121497    493.81589  0.010383882 0.0088210044         3888 
 3964000   0.61262863   -9.0858352    493.88781  0.010382774 0.0088172387         3899 
 3965000    0.6147117   -9.1113967    493.89989   0.01038041 0.0088134743         3870 
 3966000   0.61336729   -9.1031145    494.92224  0.010399274 0.0088097163         3891 
 3967000   0.61344068    -9.124873    494.23464  0.010382208 0.0088059572         3897 
 3968000   0.63089386   -9.1203717     494.7024  0.010389415 0.0088022023         3868 
 3969000    0.6138721   -9.1009749    493.88748  0.010369688   0.00879845         3898 
 3970000   0.60653839   -9.1179948    494.01076  0.010369663 0.0087946988         3903 
 3971000   0.62012471   -9.1220412    494.44015  0.010376063 0.0087909487         3900 
 3972000   0.62715045   -9.0975803    496.30245  0.010412522 0.0087872047         3892 
 3973000    0.5948806   -9.0957605    494.91197  0.010380736 0.0087834623         3889 
 3974000   0.61213791   -9.0955312    495.80451   0.01039684 0.0087797205         3904 
 3975000    0.6121728   -9.1038803    494.38344  0.010364433 0.0087759838         3902 
 3976000   0.61879042   -9.1022134    495.46277  0.010384448 0.0087722471         3885 
 3977000   0.62343059    -9.107213    494.71966  0.010366266 0.0087685122         3890 
 3978000   0.63404695   -9.1129831    494.24901    0.0103538  0.008764778         3872 
 3979000   0.61173279   -9.0975912    493.93157   0.01034455 0.0087610482         3888 
 3980000   0.62402544    -9.111735    493.96141  0.010342576 0.0087573199         3889 
 3981000   0.61830494   -9.1182536    493.90978  0.010338897 0.0087535928         3905 
 3982000   0.61997199   -9.1116091    494.62591  0.010351287 0.0087498663         3874 
 3983000   0.61761022   -9.1154492    494.44379  0.010344878  0.008746143         3886 
 3984000   0.62194253   -9.1107278    494.50007  0.010343459 0.0087424216         3867 
 3985000     0.610661   -9.1211715    494.63035  0.010343587 0.0087386981         3883 
 3986000   0.62044104   -9.1224768    493.80761  0.010323792 0.0087349844         3893 
 3987000   0.62125638   -9.0980603    494.21375  0.010329691 0.0087312697         3891 
 3988000   0.61985462   -9.0954269    494.02133   0.01032308 0.0087275589         3906 
 3989000   0.61821194   -9.1061729    494.38896  0.010328172  0.008723849         3898 
 3990000   0.60753533     -9.10636    493.99123  0.010317277 0.0087201425         3888 
 3991000   0.62071534     -9.10995    494.82799  0.010332164 0.0087164361         3892 
 3992000   0.61545995   -9.1065648    494.45986  0.010321891 0.0087127339         3904 
 3993000   0.60656516   -9.1286264    493.96993  0.010309081 0.0087090295         3877 
 3994000   0.62125879   -9.0989695    494.45825  0.010316689 0.0087053314         3864 
 3995000   0.61122606   -9.1014856    495.20284  0.010329638 0.0087016334         3885 
 3996000   0.61356304   -9.1071185    494.64372  0.010315393 0.0086979366         3880 
 3997000   0.62025921    -9.129918    493.83959  0.010296047 0.0086942422         3889 
 3998000    0.6013187   -9.1165081    493.27025  0.010281604 0.0086905499         3898 
 3999000   0.60546563   -9.1139991    494.28629  0.010300206 0.0086868606         3909 
 4000000    0.6085664   -9.1178913    494.25039  0.010296883 0.0086831723         3874 
 4001000   0.60840515   -9.1106971    494.40189  0.010297465 0.0086794872         3900 
 4002000   0.61489092   -9.0987485    495.44828  0.010316681 0.0086758037         3890 
 4003000    0.6132901   -9.0976378      494.556  0.010295528 0.0086721206         3880 
 4004000   0.60731329   -9.1305617    494.51868   0.01029218 0.0086684425         3898 
 4005000   0.59925494   -9.1122901    494.90864  0.010297725 0.0086647638         3872 
 4006000   0.61392946   -9.1178404    494.81649  0.010293237 0.0086610901         3891 
 4007000   0.61202101   -9.1056943    494.32453  0.010280437 0.0086574166         3874 
 4008000   0.61348635   -9.0979071    495.06024  0.010293169 0.0086537445         3877 
 4009000   0.59725874   -9.1087027    493.94362   0.01026739 0.0086500754         3895 
 4010000   0.61292174    -9.087712    494.99452  0.010286669 0.0086464121         3882 
 4011000   0.61318989   -9.1077626    493.69819  0.010257172 0.0086427473         3897 
 4012000   0.60691599   -9.1061164    494.46441   0.01027053 0.0086390828         3897 
 4013000    0.6065846   -9.1075945    494.44956  0.010267663 0.0086354187         3908 
 4014000   0.60089714   -9.1023012     494.0295  0.010256384  0.008631759         3897 
 4015000   0.60665345   -9.1292445    493.70378  0.010247069 0.0086280999         3892 
 4016000   0.61508888   -9.1142061    494.77653  0.010266777 0.0086244458         3888 
 4017000   0.61701268   -9.1161394     494.4584  0.010257622  0.008620791         3877 
 4018000   0.61930241   -9.1090232    494.90739  0.010264381 0.0086171418         3868 
 4019000   0.62040344   -9.1445796    493.76199  0.010238077 0.0086134935         3898 
 4020000   0.59854842    -9.120039    494.70847  0.010255151 0.0086098475         3903 
 4021000    0.5967523   -9.1152453    494.50563  0.010248397 0.0086062015         3884 
 4022000   0.60909965   -9.0973795    494.33957  0.010242408 0.0086025607         3895 
 4023000   0.59328221   -9.1015259     494.0421    0.0102337 0.0085989213         3896 
 4024000   0.60796629   -9.1023876    494.35417  0.010237619 0.0085952809         3902 
 4025000   0.59327462   -9.1030072    494.48579  0.010237801  0.008591643         3915 
 4026000   0.59211966    -9.123307    494.88825  0.010243589 0.0085880072         3899 
 4027000   0.60453083   -9.1089711    494.95871  0.010242503 0.0085843736         3897 
 4028000   0.60267674   -9.1175631    494.34896  0.010227345 0.0085807425         3883 
 4029000   0.60650697   -9.1143371    493.75464  0.010212514 0.0085771162         3885 
 4030000   0.60669321   -9.1114547     494.2181  0.010219564 0.0085734897         3909 
 4031000   0.61149647   -9.1130678    493.45641  0.010201282 0.0085698648         3886 
 4032000   0.59991733   -9.1240047    493.98012  0.010209576 0.0085662452         3905 
 4033000   0.61283569   -9.1100855    493.55908  0.010198345 0.0085626277         3893 
 4034000   0.59889047    -9.093407    494.82489  0.010221965 0.0085590078         3894 
 4035000   0.61323762   -9.1321501      493.809  0.010198451 0.0085553927         3877 
 4036000   0.60550766   -9.1294235    494.41008  0.010208335 0.0085517795         3898 
 4037000   0.60312364   -9.1152846    493.77229  0.010192641 0.0085481673         3886 
 4038000    0.6057438   -9.0993306    494.89557  0.010213298 0.0085445563         3886 
 4039000   0.61694457   -9.1223691    494.58217  0.010204303 0.0085409508         3897 
 4040000   0.61410481   -9.1217927    493.82177  0.010186093 0.0085373457         3909 
 4041000   0.61319194   -9.1303045    494.50224  0.010197604 0.0085337401         3902 
 4042000    0.6121029   -9.1164236    493.57556  0.010175976  0.008530138         3905 
 4043000   0.60675943   -9.1032335     494.0891  0.010184044 0.0085265389         3896 
 4044000   0.59910469   -9.1099974    494.77714  0.010195704 0.0085229428         3911 
 4045000   0.59837453    -9.110369    494.34808  0.010184344 0.0085193441         3890 
 4046000   0.60157245   -9.1079571    494.44125  0.010183746 0.0085157547         3894 
 4047000   0.60113608   -9.1106036    493.98126  0.010171758 0.0085121654         3877 
 4048000   0.61333757    -9.114363    494.00636  0.010169762 0.0085085759         3878 
 4049000   0.60404064   -9.1051474    493.89952  0.010165051 0.0085049866         3899 
 4050000   0.60746056   -9.1314531    493.61253  0.010156636 0.0085013995         3883 
 4051000    0.6109012   -9.1372517    494.80654  0.010178691  0.008497818         3889 
 4052000   0.60054458   -9.1408952    494.00328  0.010159659 0.0084942405         3893 
 4053000    0.6056168   -9.1281242    493.94876  0.010156032 0.0084906599         3885 
 4054000   0.60199313   -9.1126175    494.90082  0.010173097 0.0084870822         3896 
 4055000   0.59692598   -9.1192457    494.81311  0.010168786 0.0084835043         3888 
 4056000   0.60778742   -9.1102649    494.44446  0.010158704 0.0084799324         3886 
 4057000    0.6025976   -9.1264571    493.48949  0.010136585 0.0084763607         3897 
 4058000   0.60724275   -9.1333461    493.88338  0.010142175 0.0084727948         3900 
 4059000   0.58233692   -9.1286434    494.40519   0.01015039 0.0084692274         3903 
 4060000   0.61444348   -9.1109255    493.18555  0.010122856 0.0084656613         3880 
 4061000    0.5993342   -9.1339458    493.52457   0.01012732 0.0084620987         3881 
 4062000   0.60047341   -9.1090156    493.97855  0.010134141  0.008458537         3910 
 4063000   0.60817088   -9.1266022    492.99336   0.01011144 0.0084549786         3888 
 4064000   0.58525651    -9.140995    493.48694  0.010119073 0.0084514189         3920 
 4065000   0.58402543   -9.1226821     494.2196  0.010131603 0.0084478622         3901 
 4066000   0.59964699   -9.1187428    495.07448  0.010146632   0.00844431         3877 
 4067000    0.6116258   -9.1369107    493.18916  0.010105507 0.0084407574         3885 
 4068000   0.61532957   -9.1284086    494.23726  0.010124493 0.0084372091         3890 
 4069000   0.59291983    -9.109583    494.32766  0.010123856 0.0084336597         3900 
 4070000   0.59513622   -9.1358696    493.11583  0.010096557 0.0084301128         3867 
 4071000    0.6104875   -9.1371401    493.94857  0.010111123 0.0084265703         3877 
 4072000   0.60087492   -9.1337486    494.12016  0.010112151 0.0084230276         3903 
 4073000   0.59803507   -9.1206551    494.29627  0.010113272 0.0084194837         3903 
 4074000   0.59746048   -9.1379969    494.29558  0.010110775 0.0084159425         3901 
 4075000    0.5925971   -9.1337756    494.53407  0.010113171  0.008412407         3882 
 4076000   0.59910056   -9.1055857    494.59715   0.01011198 0.0084088756         3904 
 4077000   0.60250738   -9.1234397    495.22039  0.010122238  0.008405346         3904 
 4078000   0.59881214   -9.1304792    494.18944  0.010098689 0.0084018197         3906 
 4079000   0.59503968   -9.1312217     493.9976  0.010092294 0.0083982927         3895 
 4080000   0.59592494   -9.1230731    494.74041  0.010104992 0.0083947677         3881 
 4081000   0.59926607   -9.1392442    493.56079  0.010078428 0.0083912448         3886 
 4082000   0.59134587   -9.1254908    494.40885  0.010093272 0.0083877245         3886 
 4083000   0.58943851      -9.1309    493.67527  0.010075828 0.0083842005         3903 
 4084000   0.59256043   -9.1353268    493.22131  0.010064098 0.0083806828         3887 
 4085000   0.60634748   -9.1223916    493.36841  0.010064635 0.0083771681         3868 
 4086000   0.59671019   -9.1312931    493.55588  0.010065995 0.0083736555         3875 
 4087000   0.59266375   -9.1328157    493.86546  0.010069845 0.0083701455         3883 
 4088000   0.59890383   -9.1303156    493.64677  0.010062923 0.0083666369         3903 
 4089000   0.60666074   -9.1636863    493.63812  0.010060286 0.0083631254         3895 
 4090000   0.59537624   -9.1403422    493.25245  0.010049968 0.0083596206         3882 
 4091000   0.59031739   -9.1390038    493.88431  0.010060383 0.0083561154         3890 
 4092000   0.59903467    -9.128006    494.25888  0.010065552 0.0083526131         3884 
 4093000    0.5895995   -9.1300166    493.43374  0.010046293 0.0083491134         3891 
 4094000   0.59172811    -9.127255    493.96717  0.010054697 0.0083456146         3906 
 4095000    0.5951785   -9.1507565    493.62565  0.010045292 0.0083421152         3907 
 4096000   0.59034664   -9.1266359    493.65734  0.010043484 0.0083386187         3909 
 4097000   0.59326447   -9.1241339    494.12324  0.010050509  0.008335129         3924 
 4098000   0.59905219   -9.1259045    493.44092  0.010034182 0.0083316361         3922 
 4099000   0.60020497   -9.1388901    493.04652  0.010023715 0.0083281495         3888 
 4100000   0.58864427   -9.1311152    493.83814  0.010037361 0.0083246646         3902 
 4101000   0.58945782   -9.1221843    494.49407  0.010048242  0.008321183         3889 
 4102000   0.59542941   -9.1199068    493.68342  0.010029324 0.0083177008         3873 
 4103000   0.61940036    -9.135237    493.94115  0.010032114 0.0083142188         3883 
 4104000   0.59014143   -9.1387223    493.79871  0.010026777 0.0083107411         3893 
 4105000   0.58015222   -9.1575885    494.16638  0.010031798 0.0083072626         3911 
 4106000   0.59991467   -9.1423599    493.68415  0.010019568 0.0083037876         3906 
 4107000   0.59743174    -9.138737    493.75561  0.010018578 0.0083003163         3891 
 4108000    0.5836799   -9.1455964    493.24621  0.010005806 0.0082968423         3905 
 4109000   0.59781275   -9.1335314    493.57711  0.010010082 0.0082933726         3875 
 4110000   0.60213781   -9.1190726    494.45996  0.010025547 0.0082899061         3914 
 4111000   0.59682469   -9.1361338    492.95549  0.009992611 0.0082864428         3901 
 4112000   0.59380178   -9.1323601    493.95807  0.010010499 0.0082829794         3891 
 4113000   0.59303804   -9.1312203    493.74795  0.010003808 0.0082795164         3917 
 4114000   0.60134545   -9.1495216    493.65644 0.0099995228 0.0082760563         3887 
 4115000   0.60908022   -9.1328123    493.63069 0.0099965714 0.0082726004         3911 
 4116000   0.58563362   -9.1318203    493.73563 0.0099962672 0.0082691455         3882 
 4117000   0.59857081    -9.132991     494.0061 0.0099993138 0.0082656927         3913 
 4118000   0.59087927   -9.1386337    493.98935 0.0099965467 0.0082622396         3915 
 4119000   0.59723688    -9.151461     493.2968 0.0099801085 0.0082587923         3913 
 4120000   0.57867584   -9.1479652    493.99003 0.0099917077 0.0082553422         3902 
 4121000   0.59563307   -9.1320221    493.51622  0.009979702 0.0082518967         3884 
 4122000    0.5806723   -9.1312984    493.59449 0.0099788633  0.008248455         3896 
 4123000   0.59582646   -9.1399531    494.79965  0.010000801 0.0082450143         3887 
 4124000   0.58084202   -9.1518012    493.56873 0.0099735033 0.0082415734         3888 
 4125000   0.60538894   -9.1739064    493.00318 0.0099596603 0.0082381347         3900 
 4126000   0.57946217   -9.1528284     493.4204  0.009965673 0.0082347008         3896 
 4127000   0.60573825   -9.1283507    493.99544 0.0099748696 0.0082312681         3891 
 4128000   0.58049474   -9.1428864    493.86816 0.0099698837 0.0082278384         3918 
 4129000   0.59759795    -9.121194    494.60882 0.0099824175 0.0082244091         3900 
 4130000   0.58057953   -9.1393928    493.82193 0.0099641228 0.0082209829         3913 
 4131000   0.59420318   -9.1418245    494.23556 0.0099700549 0.0082175562         3910 
 4132000   0.59132898   -9.1384943    493.92835 0.0099614463 0.0082141318         3912 
 4133000   0.59552239    -9.126064    494.70295 0.0099746542   0.00821071         3901 
 4134000   0.57956392   -9.1299205    493.33129 0.0099445913 0.0082072886         3883 
 4135000   0.58900622   -9.1605378    493.22713 0.0099400872 0.0082038654         3902 
 4136000   0.57895917   -9.1593637    492.56146 0.0099242718 0.0082004473         3892 
 4137000   0.59998585   -9.1450966    493.89949 0.0099488254 0.0081970325         3913 
 4138000    0.6009943   -9.1414323    493.81158 0.0099446508  0.008193621         3874 
 4139000   0.59394215   -9.1403048    493.59248 0.0099378369 0.0081902093         3899 
 4140000   0.59404518   -9.1444487    493.70072 0.0099376152 0.0081867983         3888 
 4141000   0.57639071   -9.1400504     494.5161 0.0099516241  0.008183386         3883 
 4142000   0.58628654   -9.1557462    493.45989 0.0099279713  0.008179978         3871 
 4143000   0.59708088   -9.1333839    493.53233 0.0099270322 0.0081765735         3890 
 4144000   0.59379379   -9.1332457    494.14701 0.0099369974 0.0081731707         3905 
 4145000    0.5908743   -9.1416047    492.95711 0.0099106778 0.0081697745         3871 
 4146000   0.59095049   -9.1583388    493.62836 0.0099217792 0.0081663766         3894 
 4147000   0.58626335   -9.1351357    493.10438 0.0099088574 0.0081629804         3933 
 4148000   0.60613311    -9.140854    493.48109 0.0099140366 0.0081595876         3915 
 4149000   0.58565741   -9.1506984    493.36076 0.0099092303 0.0081561966         3904 
 4150000   0.59702983   -9.1558907    493.21901 0.0099039962 0.0081528058         3903 
 4151000   0.58321264   -9.1348053    493.55304 0.0099083161 0.0081494226         3910 
 4152000    0.5970473   -9.1413851    493.20885 0.0098990215 0.0081460324         3906 
 4153000   0.58805829   -9.1335457    493.73264 0.0099071483 0.0081426485         3904 
 4154000   0.58641103    -9.160697    493.77032 0.0099055191 0.0081392644         3918 
 4155000   0.58916153   -9.1428384    493.36867 0.0098950796  0.008135883         3898 
 4156000   0.58012252   -9.1480005    494.01005 0.0099055592 0.0081325032         3903 
 4157000   0.59657643   -9.1504091    493.85195 0.0099000071 0.0081291255         3895 
 4158000   0.59290412   -9.1531388    493.97589 0.0099001099 0.0081257492         3884 
 4159000   0.58461658   -9.1688558    493.48814 0.0098879567 0.0081223747         3890 
 4160000   0.58939162   -9.1426594    493.68883    0.0098896 0.0081190023         3895 
 4161000   0.58258995   -9.1477451    493.38686 0.0098811756 0.0081156326         3885 
 4162000   0.56915763    -9.144928    493.97447 0.0098905668 0.0081122652         3901 
 4163000   0.58393778     -9.14731     493.1086 0.0098708584 0.0081088964         3878 
 4164000   0.57704392    -9.131398    493.28318 0.0098719817 0.0081055316         3909 
 4165000   0.59715964   -9.1557025    493.50932  0.009874136  0.008102168         3897 
 4166000   0.58635771   -9.1415332    492.77471 0.0098570714 0.0080988079         3878 
 4167000   0.59588447   -9.1492294    493.51474 0.0098695052 0.0080954519         3907 
 4168000   0.58450396   -9.1309778    493.88627 0.0098745655 0.0080920975         3910 
 4169000    0.5945229   -9.1422333     492.9759 0.0098539998 0.0080887424         3900 
 4170000   0.58475835   -9.1749002     493.1559 0.0098552338 0.0080853888         3917 
 4171000   0.57894321   -9.1575534    493.58644  0.009861473 0.0080820373         3900 
 4172000   0.58104434   -9.1387293     493.6426 0.0098602309 0.0080786907         3903 
 4173000     0.578715    -9.156733    492.79269 0.0098408957 0.0080753409         3907 
 4174000   0.58669895   -9.1525923     492.9513 0.0098417046 0.0080719981         3904 
 4175000   0.58504041   -9.1635314    492.58097 0.0098319554  0.008068652         3896 
 4176000   0.59110696   -9.1569264    492.71144 0.0098322047 0.0080653099         3881 
 4177000   0.58422799   -9.1587309    492.91726  0.009833957  0.008061969         3896 
 4178000   0.57226276   -9.1512959    492.61902 0.0098256546 0.0080586294         3903 
 4179000   0.58962783   -9.1627891    492.78441 0.0098266015 0.0080552936         3878 
 4180000   0.58439563   -9.1523822    493.30286 0.0098345865 0.0080519595         3921 
 4181000   0.57819396   -9.1361867    493.40993 0.0098343684 0.0080486246         3894 
 4182000    0.5811221   -9.1579941    492.71663 0.0098182017  0.008045289         3903 
 4183000   0.57594389   -9.1627404    493.41304 0.0098297282 0.0080419599         3889 
 4184000   0.59299658   -9.1615394    492.93246  0.009817807 0.0080386322         3897 
 4185000   0.59393568   -9.1649283    493.19286 0.0098206464 0.0080353054         3901 
 4186000   0.58210513   -9.1564414     494.1957 0.0098382645 0.0080319827         3891 
 4187000    0.5831631   -9.1680425    493.74166 0.0098268781 0.0080286614         3888 
 4188000   0.57615114   -9.1535006     493.1947 0.0098136481 0.0080253445         3892 
 4189000   0.57860095    -9.155118    493.19403 0.0098112921 0.0080220248         3896 
 4190000   0.58751903   -9.1316372    493.68196 0.0098186548 0.0080187107         3898 
 4191000   0.57947741    -9.174651    492.78745 0.0097985257 0.0080153954         3889 
 4192000    0.5854974   -9.1744997    493.90555 0.0098184151 0.0080120837         3882 
 4193000   0.58516492   -9.1635593    493.41863 0.0098063962 0.0080087755         3881 
 4194000   0.58798237   -9.1636254     492.9269 0.0097942874  0.008005466         3890 
 4195000   0.59041199   -9.1551875    492.67914  0.009787031 0.0080021598         3897 
 4196000    0.5916658   -9.1653594    493.51244 0.0098012479 0.0079988551         3872 
 4197000   0.57266995   -9.1436256    492.98714 0.0097884826 0.0079955537         3904 
 4198000   0.56477948   -9.1509261    492.73338 0.0097811137 0.0079922544         3899 
 4199000   0.58714576   -9.1544499    493.78562 0.0097996671 0.0079889562         3873 
 4200000   0.58162664   -9.1706746     492.9165 0.0097800893 0.0079856573         3889 
 4201000   0.57644668   -9.1630562    493.17763 0.0097829411 0.0079823603         3877 
 4202000   0.56633261   -9.1598503    493.52856 0.0097875726 0.0079790669         3897 
 4203000   0.57625099   -9.1617861    492.63237 0.0097674751 0.0079757744         3897 
 4204000   0.55993652   -9.1458699    493.40965 0.0097805591 0.0079724861         3889 
 4205000   0.58400558   -9.1299804    493.01976 0.0097705065 0.0079691976         3907 
 4206000   0.58430387    -9.162904    493.64133 0.0097804987 0.0079659114         3891 
 4207000   0.57951167   -9.1717142    492.88361 0.0097631648 0.0079626279         3900 
 4208000   0.58721375   -9.1629163    492.99625 0.0097630753 0.0079593432         3920 
 4209000   0.56830116   -9.1624218    493.32384 0.0097672416 0.0079560622         3908 
 4210000   0.57389916   -9.1732241    493.50443 0.0097684963  0.007952782         3902 
 4211000   0.56984965   -9.1369265    492.82258  0.009752683 0.0079495039         3897 
 4212000   0.56151231   -9.1669615    493.07168  0.009755296 0.0079462267         3903 
 4213000   0.57325171   -9.1496701    493.10142 0.0097535687  0.007942951         3910 
 4214000   0.58800859   -9.1809913    492.55335 0.0097404159 0.0079396757         3881 
 4215000   0.57483549   -9.1579529    492.88093 0.0097445814 0.0079364048         3900 
 4216000   0.57440277     -9.17243    492.00208 0.0097248989 0.0079331373         3895 
 4217000   0.57618913   -9.1564331    493.48027 0.0097518037 0.0079298718         3908 
 4218000   0.57927204   -9.1627816    493.01005 0.0097402016 0.0079266047         3934 
 4219000   0.58554071   -9.1622192    493.22205 0.0097420805 0.0079233402         3900 
 4220000   0.57736851   -9.1615447    492.99688 0.0097353255 0.0079200782         3906 
 4221000   0.56424569    -9.154663    493.61331  0.009745189 0.0079168199         3880 
 4222000   0.56799351   -9.1514146    491.77274 0.0097065518 0.0079135618         3906 
 4223000   0.57405333   -9.1598734    492.52565 0.0097191105 0.0079103025         3904 
 4224000   0.59144134   -9.1602679    492.67687  0.009719793 0.0079070491         3881 
 4225000   0.57597353   -9.1742603    493.14057 0.0097266384 0.0079037959         3926 
 4226000   0.58609852   -9.1536249    492.86079 0.0097188197 0.0079005464         3911 
 4227000   0.57726017   -9.1571264    493.13319 0.0097218908 0.0078972935         3899 
 4228000   0.57628301   -9.1568417    492.79749 0.0097129748 0.0078940448         3895 
 4229000   0.57771383    -9.168572    492.71413 0.0097090355 0.0078907988         3884 
 4230000   0.58458347   -9.1799549    493.05768 0.0097135083 0.0078875524         3909 
 4231000   0.56974397   -9.1695316     492.1109 0.0096925649 0.0078843097         3904 
 4232000   0.56927632   -9.1599549    492.64285 0.0097007493 0.0078810716         3922 
 4233000   0.58746665   -9.1663812    492.38888 0.0096934577  0.007877831         3914 
 4234000   0.56781582   -9.1622481    493.28307 0.0097087676 0.0078745944         3897 
 4235000   0.56918595   -9.1658439    493.20964 0.0097050303 0.0078713568         3903 
 4236000   0.56443541   -9.1701996    492.59989 0.0096907438 0.0078681213         3906 
 4237000   0.56625918   -9.1736285    492.76849 0.0096917726 0.0078648895         3886 
 4238000   0.57415093   -9.1686236    493.42611 0.0097024169 0.0078616576         3911 
 4239000   0.57613408   -9.1637974    492.84853 0.0096887734 0.0078584293         3882 
 4240000   0.57513786   -9.1571083    492.60158 0.0096816347 0.0078552047         3897 
 4241000   0.57580508   -9.1781474    492.61454 0.0096796067 0.0078519832         3887 
 4242000   0.56611714   -9.1559624    492.66524 0.0096783208 0.0078487614         3892 
 4243000   0.57381743    -9.166405    493.15263 0.0096856123 0.0078455426         3867 
 4244000    0.5749989   -9.1683377    493.25748 0.0096853888 0.0078423247         3893 
 4245000   0.57335175    -9.165689    492.16338  0.009661629 0.0078391115         3905 
 4246000   0.57451475   -9.1741131    493.23313 0.0096803487 0.0078358961         3906 
 4247000   0.56049813   -9.1646715    492.84769 0.0096705065 0.0078326823         3899 
 4248000   0.57179859   -9.1849426    492.13014 0.0096541537 0.0078294682         3873 
 4249000   0.55840628   -9.1642459    493.37363 0.0096762695 0.0078262597         3899 
 4250000   0.58731978   -9.1637993    493.25355 0.0096716383 0.0078230519         3876 
 4251000   0.58921816   -9.1674406    492.47275 0.0096540569 0.0078198463         3900 
 4252000   0.58690782   -9.1770935    493.01188 0.0096623527 0.0078166412         3893 
 4253000   0.56172738   -9.1865598     492.9661 0.0096591838 0.0078134392         3904 
 4254000   0.56857727   -9.1455242    493.40773 0.0096655644 0.0078102396         3874 
 4255000   0.57176068   -9.1746356    492.28174 0.0096412404 0.0078070422         3896 
 4256000   0.57452685   -9.1783648    493.00137 0.0096530656 0.0078038447         3927 
 4257000   0.58028858   -9.1507491    492.96914 0.0096501671   0.00780065         3900 
 4258000   0.55769963   -9.1683289    492.97248 0.0096479662 0.0077974562         3873 
 4259000    0.5585914   -9.1589354    493.69379 0.0096598143 0.0077942616         3898 
 4260000   0.55971491   -9.1665407    493.25836 0.0096490289 0.0077910691         3891 
 4261000   0.56377846   -9.1690269    492.21509 0.0096263611 0.0077878812         3890 
 4262000   0.57161058   -9.1564983    491.59158  0.009611911 0.0077846964         3901 
 4263000   0.56144108   -9.1620494    492.46059 0.0096266439 0.0077815126         3894 
 4264000   0.56400909    -9.181144    492.63429 0.0096277809 0.0077783301         3895 
 4265000    0.5739914   -9.1881143    492.46386 0.0096221935 0.0077751496         3918 
 4266000   0.58952445   -9.1809867    492.57427 0.0096220947 0.0077719676         3908 
 4267000   0.56835279   -9.1632882    492.58204 0.0096199914 0.0077687901         3885 
 4268000   0.57544797   -9.1862935    492.07224 0.0096077834 0.0077656144         3889 
 4269000   0.56691805   -9.1869388    492.63472 0.0096165128 0.0077624414         3892 
 4270000    0.5537277   -9.1714367    493.50661 0.0096312766 0.0077592655         3876 
 4271000   0.57353106   -9.1753426    492.55951 0.0096105423  0.007756095         3907 
 4272000   0.54991092   -9.1784744    492.53363 0.0096077877 0.0077529254         3904 
 4273000   0.56139396   -9.1841233    492.18654 0.0095987702 0.0077497564         3886 
 4274000   0.56723887   -9.1541631    493.41515 0.0096204795 0.0077465917         3875 
 4275000      0.56851   -9.1945078    493.22239 0.0096144716 0.0077434291         3882 
 4276000   0.57939986   -9.1731281      492.324 0.0095947147 0.0077402675         3900 
 4277000   0.56269995   -9.1699096    492.69407 0.0095996817 0.0077371046         3888 
 4278000   0.57834419   -9.1753194    492.16586 0.0095871485 0.0077339463         3889 
 4279000   0.56619309   -9.1819858    492.59443 0.0095932544 0.0077307886         3912 
 4280000   0.57004912   -9.1717001    493.06526 0.0096001802 0.0077276332         3905 
 4281000   0.57311973   -9.1977781    492.69473 0.0095907251 0.0077244793         3893 
 4282000   0.56195382   -9.1767857    492.85819 0.0095916665 0.0077213288         3909 
 4283000   0.56284084   -9.1870448    492.30708 0.0095787043 0.0077181767         3885 
 4284000   0.56672022   -9.1810213    493.11909 0.0095922637 0.0077150292         3902 
 4285000    0.5618877   -9.1720741    492.14586 0.0095710981 0.0077118811         3893 
 4286000   0.56095925   -9.1892897    492.63119 0.0095783012 0.0077087346         3898 
 4287000   0.55714268   -9.1767317     493.4423 0.0095918338 0.0077055892         3870 
 4288000   0.56347403   -9.1802251    492.96685  0.009580357 0.0077024457         3887 
 4289000   0.56679348   -9.2045775    492.36534 0.0095664362  0.007699308         3902 
 4290000    0.5670303    -9.164208     492.0712 0.0095584927 0.0076961685         3910 
 4291000   0.56124071   -9.1602609    492.84827 0.0095713562 0.0076930326         3905 
 4292000   0.56490946   -9.1661831    492.80275 0.0095682423 0.0076898966         3900 
 4293000   0.56555848   -9.1539927      492.812  0.009566193 0.0076867614         3882 
 4294000   0.57243662   -9.1784954    492.42498 0.0095564544 0.0076836311         3905 
 4295000   0.56122033   -9.1884808    492.12864 0.0095484796 0.0076805018         3903 
 4296000   0.56500639    -9.179351     491.9932 0.0095436297 0.0076773707         3876 
 4297000   0.56454608   -9.1911246    492.31784 0.0095477046 0.0076742437         3901 
 4298000    0.5601677   -9.1792858    492.27678 0.0095446871  0.007671119         3892 
 4299000   0.55782753   -9.1984422    491.93023 0.0095357491 0.0076679935         3906 
 4300000   0.57260233   -9.1589215    492.89625  0.009552253  0.007664872         3902 
 4301000   0.55596654   -9.1690192    493.49665  0.009561665 0.0076617538         3898 
 4302000   0.57695863   -9.1764614     492.6796 0.0095436154  0.007658636         3903 
 4303000   0.55941251   -9.1843121    492.68287 0.0095414608 0.0076555183         3906 
 4304000   0.56106416   -9.1797599    492.58783 0.0095374038 0.0076524019         3899 
 4305000   0.55558551   -9.1772982    493.10841 0.0095452654 0.0076492878         3893 
 4306000   0.55953975   -9.1792154    492.20018 0.0095254718 0.0076461759         3912 
 4307000   0.56507774   -9.1845383    492.61697 0.0095313244 0.0076430654         3920 
 4308000   0.55850161   -9.1798086    492.71193 0.0095309489 0.0076399559         3907 
 4309000   0.56341282   -9.1815065    492.04155 0.0095157722 0.0076368504         3882 
 4310000   0.56192293   -9.1723369    491.66496 0.0095062831 0.0076337437         3884 
 4311000   0.57186111   -9.1842658    493.02244 0.0095303186 0.0076306409         3901 
 4312000   0.55557561   -9.1868753    491.67357 0.0095020402 0.0076275386         3895 
 4313000   0.56716119   -9.1841903    492.16561 0.0095093441  0.007624439         3887 
 4314000   0.56873377   -9.1844706    492.44697 0.0095125747 0.0076213415         3887 
 4315000   0.57567805   -9.1728987    491.79117 0.0094977051 0.0076182438         3882 
 4316000   0.55595498   -9.1927887    492.21807 0.0095037471 0.0076151505         3904 
 4317000   0.55900465   -9.1912409    492.73512 0.0095115264 0.0076120565         3890 
 4318000   0.57098594   -9.1720707    492.85606 0.0095116578 0.0076089661         3903 
 4319000   0.56470371    -9.179552    492.24465 0.0094976586 0.0076058755         3886 
 4320000   0.56287632   -9.1752906    492.17109  0.009494041 0.0076027854         3894 
 4321000   0.56662998   -9.1936476    492.09075 0.0094902944 0.0075997009         3913 
 4322000   0.56141642   -9.1900525    493.04562 0.0095065097 0.0075966157         3913 
 4323000   0.55732404   -9.1823395    492.14545 0.0094869583 0.0075935318         3925 
 4324000   0.54945725   -9.1762353    493.13583 0.0095038512 0.0075904497         3893 
 4325000   0.56081162   -9.1901915    492.83361 0.0094958306 0.0075873714         3914 
 4326000   0.56025666   -9.1902534     491.8961 0.0094755759 0.0075842946         3915 
 4327000   0.55898635    -9.188329     492.5621 0.0094862126 0.0075812199         3897 
 4328000   0.55958451   -9.1917147    492.98201 0.0094921059 0.0075781441         3873 
 4329000   0.55254425   -9.1928294    492.95827 0.0094894562 0.0075750723         3902 
 4330000   0.56731985   -9.2004783    492.22915 0.0094732322 0.0075720018         3891 
 4331000   0.56731175   -9.1902928    491.73258 0.0094614904 0.0075689322         3898 
 4332000   0.55500938   -9.1887777    492.55975 0.0094752184 0.0075658647         3908 
 4333000   0.55228384   -9.2041144    492.82218 0.0094780787 0.0075627976         3889 
 4334000   0.54914784   -9.2046175    491.38008 0.0094481634 0.0075597307         3909 
 4335000   0.55277194   -9.1811727    492.53638 0.0094682119 0.0075566671         3903 
 4336000   0.56422663   -9.1786996    493.26504 0.0094800324 0.0075536056         3910 
 4337000   0.56205111   -9.2032933    492.31723 0.0094596348 0.0075505464         3898 
 4338000    0.5609241   -9.2011886    492.39298 0.0094589093 0.0075474893         3892 
 4339000   0.55308323   -9.1993267    491.91118 0.0094474759 0.0075444345         3902 
 4340000   0.55390055   -9.1831664    492.54587  0.009457486   0.00754138         3903 
 4341000   0.55383926   -9.1828408    492.93518 0.0094627809 0.0075383269         3917 
 4342000   0.54668668   -9.1859386    491.95154  0.009441723 0.0075352768         3893 
 4343000    0.5593897   -9.1950299    493.13785  0.009462312 0.0075322283         3903 
 4344000   0.56960377    -9.201962    492.64439 0.0094506674 0.0075291803         3904 
 4345000   0.56871543   -9.2062349    491.30446 0.0094227936 0.0075261315         3912 
 4346000   0.55909354    -9.185802    492.35674 0.0094408026 0.0075230871         3920 
 4347000   0.54931228   -9.1985388    492.92502  0.009449525 0.0075200468         3910 
 4348000   0.55050929   -9.1812037    492.70073  0.009443053 0.0075170053         3918 
 4349000   0.55169239    -9.195752    492.84383 0.0094436236 0.0075139664         3915 
 4350000    0.5653584   -9.1879174    492.35256 0.0094320414 0.0075109286         3913 
 4351000   0.55011601    -9.192343    492.85783 0.0094395509 0.0075078916         3895 
 4352000   0.55685733   -9.1956901    491.32993 0.0094081251 0.0075048574         3910 
 4353000   0.55575687   -9.1953071    491.69831 0.0094130161 0.0075018267         3925 
 4354000   0.54830507   -9.1773953    492.44882 0.0094252186 0.0074987953         3891 
 4355000   0.55723041   -9.2134086    492.57662 0.0094254998 0.0074957661         3895 
 4356000   0.54739231   -9.1755945    492.16021 0.0094153698 0.0074927383         3878 
 4357000   0.54288306   -9.1764677    492.85414 0.0094264811 0.0074897115         3891 
 4358000   0.54761083   -9.1883395    492.64006 0.0094202245 0.0074866853         3885 
 4359000    0.5532265   -9.2040042     492.3205 0.0094119542 0.0074836621         3902 
 4360000    0.5671053   -9.1948965    492.00507 0.0094037666 0.0074806429         3890 
 4361000   0.56119058   -9.1997134     492.8494 0.0094177444 0.0074776222         3899 
 4362000   0.55689614    -9.191232    492.43291 0.0094076287  0.007474605         3891 
 4363000   0.55877051   -9.1887337    492.08758 0.0093988766 0.0074715899         3881 
 4364000   0.54660154   -9.1789015    492.16373 0.0093981769 0.0074685732         3910 
 4365000   0.55559588    -9.198539    491.37089 0.0093808875 0.0074655573         3894 
 4366000   0.54840048   -9.1950591    492.29635  0.009396403 0.0074625476         3891 
 4367000   0.55907692   -9.1853917    491.48712 0.0093788092 0.0074595384         3893 
 4368000   0.54475798   -9.1829798    492.26604 0.0093915225 0.0074565285         3888 
 4369000   0.55360747    -9.190613    492.32847 0.0093905637 0.0074535255         3918 
 4370000   0.55526693   -9.2029679    491.65385 0.0093755502 0.0074505218         3889 
 4371000   0.55148209   -9.2064308    492.05037 0.0093809648  0.007447519         3909 
 4372000   0.57033461   -9.2023833    491.81703 0.0093743716 0.0074445154         3896 
 4373000   0.54625673   -9.2052012    492.65699 0.0093882344 0.0074415188         3898 
 4374000   0.55279448   -9.2080133    491.06068 0.0093556753 0.0074385218         3887 
 4375000   0.56547885    -9.197297    492.58777 0.0093826242 0.0074355249         3905 
 4376000   0.55048385   -9.1835551    492.03535 0.0093699602 0.0074325295         3897 
 4377000    0.5548519   -9.2037183    492.63281 0.0093791945 0.0074295361         3882 
 4378000   0.54422142   -9.2027377       492.34 0.0093714786 0.0074265431         3910 
 4379000   0.55848013   -9.2194605    492.07469 0.0093642897 0.0074235528         3899 
 4380000     0.542047   -9.1842899    492.44625 0.0093692209  0.007420564         3904 
 4381000    0.5624928   -9.1827425    492.31358 0.0093645587 0.0074175766         3921 
 4382000   0.56247344   -9.1890066    492.56073 0.0093671217 0.0074145943         3910 
 4383000    0.5457249   -9.2072044    492.48862 0.0093636136  0.007411612         3890 
 4384000   0.56338802   -9.2226573    491.87912  0.009349892  0.007408629         3909 
 4385000   0.55550318   -9.2095403     491.3866 0.0093383998 0.0074056509         3899 
 4386000   0.54956602   -9.2035089    491.36265 0.0093358157  0.007402674         3886 
 4387000   0.54660712   -9.2120595    493.03366 0.0093654293 0.0073996982         3917 
 4388000   0.54315337   -9.2127535    492.13939 0.0093463117 0.0073967215         3901 
 4389000   0.55485508   -9.2159421    492.10575 0.0093435436 0.0073937454         3900 
 4390000   0.54726302   -9.2105809    493.09406 0.0093601758 0.0073907737         3903 
 4391000   0.55705967   -9.2041208    492.39664 0.0093448083 0.0073878035         3893 
 4392000   0.55071467   -9.2012192    492.35883 0.0093419631 0.0073848342         3894 
 4393000   0.54388052   -9.2060862    491.59741 0.0093253928 0.0073818668         3905 
 4394000   0.53777915   -9.2179264    492.10181 0.0093328367 0.0073789011         3904 
 4395000   0.55989072   -9.1885593    491.97506 0.0093283097 0.0073759363         3910 
 4396000   0.54459647   -9.2175882    491.46583 0.0093165344  0.007372974         3895 
 4397000   0.53593992   -9.2028143    492.38112 0.0093317625 0.0073700127         3916 
 4398000   0.55291811   -9.2037322    492.55666 0.0093329669 0.0073670539         3901 
 4399000   0.55225755   -9.2066521    491.99294 0.0093201663 0.0073640942         3901 
 4400000   0.55617703   -9.2014539    492.02513 0.0093186578 0.0073611388         3905 
 4401000   0.54534081   -9.2040476    491.49594 0.0093065201 0.0073581833         3904 
 4402000   0.54754207   -9.2147253    491.35047  0.009301652 0.0073552292         3904 
 4403000   0.53367635   -9.2261887    492.16638 0.0093149817 0.0073522764         3904 
 4404000   0.54308132   -9.2025425    491.99691 0.0093096599 0.0073493237         3902 
 4405000   0.54830491   -9.2037321    492.53085 0.0093176475 0.0073463741         3904 
 4406000   0.54686734   -9.2053651    492.19651 0.0093092093 0.0073434237         3892 
 4407000   0.53769916   -9.2069647    491.24169 0.0092890419 0.0073404761         3907 
 4408000   0.54144304   -9.2097863    490.93194 0.0092810787 0.0073375304         3915 
 4409000   0.54492667   -9.2084738     491.6917 0.0092933337 0.0073345879         3907 
 4410000    0.5501158   -9.2001598    492.29069 0.0093025451 0.0073316452         3910 
 4411000   0.55086103   -9.2196359    491.47768 0.0092850767 0.0073287078         3914 
 4412000     0.541853   -9.1966115    491.50308 0.0092834519 0.0073257701         3900 
 4413000   0.54644425   -9.2105281    492.43633 0.0092989714 0.0073228335         3910 
 4414000   0.54331814   -9.2103326    491.69201 0.0092828124 0.0073198997         3925 
 4415000   0.55957349   -9.2223887    491.19129 0.0092712588 0.0073169675         3914 
 4416000   0.54738577   -9.2156581    491.94293 0.0092833433 0.0073140365         3883 
 4417000   0.54077325   -9.1915631    492.48203 0.0092914125 0.0073111064         3888 
 4418000   0.55013142   -9.2108321    491.74067 0.0092753258 0.0073081766         3904 
 4419000   0.55541574   -9.2204904    492.28326 0.0092834589 0.0073052491         3911 
 4420000   0.54380374   -9.1944493    491.37743 0.0092642804 0.0073023227         3897 
 4421000   0.54088203    -9.216821    491.91677 0.0092723512 0.0072993993         3907 
 4422000   0.54130393   -9.1987516    491.06015  0.009254111 0.0072964764         3914 
 4423000   0.54411739    -9.218911    491.36474 0.0092577575 0.0072935542         3902 
 4424000   0.54655622   -9.2168168    491.13143 0.0092512701 0.0072906356         3914 
 4425000   0.53169126   -9.1898863    492.14071 0.0092681867  0.007287717         3884 
 4426000   0.54881731   -9.1993779    491.45793 0.0092532371 0.0072848004         3914 
 4427000   0.54979742   -9.1954737      491.338 0.0092488894 0.0072818854         3913 
 4428000   0.54980186   -9.2056808    491.88488 0.0092570928 0.0072789732         3881 
 4429000   0.54319226   -9.2279482    491.41898 0.0092462365 0.0072760629         3893 
 4430000   0.54850729    -9.210257    492.59611 0.0092662925 0.0072731526         3907 
 4431000   0.53722228   -9.2153778    492.15771 0.0092559564 0.0072702463         3910 
 4432000   0.54748955   -9.2140044    491.57021 0.0092428214 0.0072673405         3886 
 4433000   0.53229975   -9.1965602    492.11669 0.0092510092 0.0072644361         3903 
 4434000   0.54163352   -9.2195287    491.56483 0.0092385512 0.0072615337         3923 
 4435000   0.53623961    -9.220019    491.80923 0.0092410603 0.0072586338         3895 
 4436000    0.5501246   -9.1985388    492.17135 0.0092457799 0.0072557349         3896 
 4437000   0.53826649    -9.203392    491.48448 0.0092307955 0.0072528359         3911 
 4438000   0.54468449   -9.2218169    491.45351  0.009228134 0.0072499403         3920 
 4439000   0.53058156   -9.2273593    491.53694 0.0092276214 0.0072470447         3908 
 4440000   0.54171833   -9.2068216    492.00743 0.0092343737   0.00724415         3899 
 4441000   0.54182567   -9.2410746    492.19451 0.0092358047 0.0072412583         3889 
 4442000   0.53784679   -9.2022208    491.38704 0.0092185772 0.0072383684         3903 
 4443000   0.53552553   -9.2127305    490.84442  0.009206325  0.007235478         3880 
 4444000   0.53908975   -9.2123438    492.09812 0.0092277625 0.0072325888         3896 
 4445000   0.53863113   -9.2317297    491.33093 0.0092113036  0.007229701         3911 
 4446000   0.53633901   -9.2124717    491.81841 0.0092183688 0.0072268167         3895 
 4447000   0.55357676   -9.2077626     491.9994 0.0092196874 0.0072239353         3893 
 4448000   0.54833418   -9.2304796    492.76241 0.0092319097 0.0072210533         3915 
 4449000   0.53037878    -9.218404    491.08999 0.0091985089 0.0072181724         3906 
 4450000   0.53853091   -9.2172119    491.41933 0.0092026092 0.0072152927         3920 
 4451000   0.54368006   -9.2216803    492.05709  0.009212482 0.0072124158         3913 
 4452000   0.54561419   -9.2313248    491.46616 0.0091993515 0.0072095402         3892 
 4453000   0.53950908   -9.2182608    491.74999 0.0092025972 0.0072066668         3896 
 4454000   0.54081463   -9.2207916    491.36932 0.0091934089 0.0072037936         3898 
 4455000   0.52642334   -9.2129421    491.72124 0.0091979281 0.0072009238         3906 
 4456000   0.53825083   -9.2316644    491.63469 0.0091942454 0.0071980539         3915 
 4457000   0.53451357   -9.2116501     492.2502 0.0092036908 0.0071951853         3908 
 4458000   0.52384327   -9.2365198     490.9539 0.0091773945 0.0071923174         3898 
 4459000   0.52852459   -9.2405086    490.96895 0.0091756176 0.0071894509         3904 
 4460000   0.54307877   -9.2213602    492.58861  0.009203823 0.0071865865         3910 
 4461000   0.52000747   -9.2152447    491.22196 0.0091762302 0.0071837241         3899 
 4462000   0.53813286   -9.2332181    491.07035 0.0091713422 0.0071808626         3911 
 4463000   0.53425668   -9.2222783    490.54952 0.0091595623 0.0071780029         3890 
 4464000    0.5287533   -9.2093878     491.3007 0.0091715334 0.0071751473         3890 
 4465000   0.53216478   -9.2253827    491.31703  0.009169784 0.0071722934         3914 
 4466000    0.5389158   -9.2191204    491.30823 0.0091675667 0.0071694398         3886 
 4467000   0.53917771   -9.2248209    491.67104 0.0091722826 0.0071665863         3900 
 4468000     0.541991   -9.2101111    492.32298 0.0091823892 0.0071637363         3904 
 4469000   0.53350817   -9.2119681    491.27218 0.0091607403 0.0071608861         3912 
 4470000   0.53588569   -9.2171547    491.60854 0.0091649615  0.007158037         3895 
 4471000   0.54017096   -9.2221219    492.20857 0.0091740955  0.007155191         3890 
 4472000   0.53627585   -9.2153818    491.90325 0.0091663546 0.0071523448         3905 
 4473000   0.52994055   -9.2138563    491.54874 0.0091577006 0.0071494989         3896 
 4474000   0.54462561   -9.2167374    491.60236 0.0091566524 0.0071466566         3896 
 4475000   0.54064607   -9.2179052    491.51178 0.0091529196 0.0071438162         3903 
 4476000   0.53768876   -9.2233199    492.07445 0.0091613503 0.0071409801         3902 
 4477000   0.54274314   -9.2342669    491.05808 0.0091403857  0.007138142         3912 
 4478000   0.53382588   -9.2259537     491.4675 0.0091459636  0.007135307         3914 
 4479000   0.52741117    -9.237727    491.62323  0.009146819 0.0071324718         3914 
 4480000   0.52987293   -9.2200737    491.17435 0.0091364277 0.0071296391         3883 
 4481000   0.53879106    -9.197399    491.27083 0.0091361829 0.0071268085         3905 
 4482000   0.53329946   -9.2250679    490.91188 0.0091274706 0.0071239794         3900 
 4483000   0.54606908   -9.2132778    491.21703  0.009131107 0.0071211513         3901 
 4484000   0.54719872   -9.2372995    492.18312 0.0091470251 0.0071183247         3911 
 4485000   0.52552359   -9.2331564    492.07437 0.0091429648 0.0071155004         3899 
 4486000    0.5299753   -9.2438783    491.67544 0.0091335161 0.0071126761         3917 
 4487000   0.52199063   -9.2269019    491.74338 0.0091327423 0.0071098531         3911 
 4488000   0.53433702   -9.2171137    491.54194 0.0091269671 0.0071070334         3887 
 4489000    0.5404529   -9.2315669    492.13612 0.0091359642  0.007104217         3908 
 4490000   0.53569628   -9.2285444     491.4564  0.009121314 0.0071013978         3908 
 4491000   0.52303471   -9.2202488    491.77423 0.0091251805  0.007098581         3914 
 4492000   0.52753204   -9.2296944    491.50003 0.0091180624 0.0070957651         3892 
 4493000   0.53201097   -9.2172103    492.19863   0.00912899 0.0070929535         3907 
 4494000   0.53417367   -9.2104297    490.93047  0.009103443 0.0070901431         3896 
 4495000   0.52109161    -9.221896    490.81343 0.0090992479 0.0070873332         3913 
 4496000   0.53789712   -9.2321622    490.61164 0.0090934839 0.0070845242         3914 
 4497000   0.52921049   -9.2272161    491.99126 0.0091170273 0.0070817154         3915 
 4498000   0.52458244   -9.2154553    491.70887 0.0091097686 0.0070789087         3909 
 4499000   0.53219795   -9.2253762    490.72953 0.0090896038  0.007076105         3911 
 4500000   0.52907271   -9.2304076    491.08461 0.0090941595 0.0070733036         3909 
 4501000   0.52609093   -9.2272733    492.12971 0.0091114883 0.0070705043         3909 
 4502000   0.54105846    -9.221338    491.75549 0.0091025375 0.0070677032         3901 
 4503000    0.5384156   -9.2143176     490.9271 0.0090851858 0.0070649057         3903 
 4504000   0.52394517   -9.2253862    491.36592 0.0090912878 0.0070621091         3906 
 4505000   0.52922304   -9.2302625    491.53104  0.009092324  0.007059316         3904 
 4506000   0.53681175   -9.2370146    491.62136 0.0090919766 0.0070565241         3918 
 4507000   0.54066211   -9.2154561    491.73938 0.0090921415 0.0070537344         3914 
 4508000   0.52697869   -9.2246145    491.33444  0.009082639 0.0070509446         3910 
 4509000    0.5185569   -9.2096221    491.73347 0.0090879995 0.0070481561         3899 
 4510000   0.52568586   -9.2149689     491.9796 0.0090905321 0.0070453689         3898 
 4511000   0.53331552   -9.2194102    490.86997 0.0090680184 0.0070425833         3896 
 4512000   0.53178256   -9.2181434    491.53286 0.0090782516 0.0070397981         3906 
 4513000   0.53091956   -9.2253963    491.20456 0.0090701781  0.007037015         3899 
 4514000    0.5299656   -9.2255998    491.53234 0.0090742198 0.0070342353         3893 
 4515000   0.52150458   -9.2175383    491.69762 0.0090752606 0.0070314553         3899 
 4516000   0.53969927     -9.23094    491.37946 0.0090673801 0.0070286765         3909 
 4517000   0.52324602   -9.2389682    491.28795 0.0090636844 0.0070258993         3913 
 4518000    0.5325885   -9.2124198    491.59734 0.0090673849 0.0070231247         3902 
 4519000   0.51340769   -9.2401212    491.42673 0.0090622323   0.00702035         3903 
 4520000   0.53039617    -9.249635    491.60508 0.0090635154 0.0070175763         3914 
 4521000   0.52828067   -9.2299416    491.86048 0.0090662183 0.0070148053         3902 
 4522000   0.53676139   -9.2325485    490.98631 0.0090481039 0.0070120362         3907 
 4523000   0.53384509   -9.2210959    491.78561   0.00906083 0.0070092683         3918 
 4524000   0.52357406    -9.232102     491.6943 0.0090571453 0.0070065011         3922 
 4525000   0.52905279   -9.2398262    491.07482 0.0090437352 0.0070037354         3896 
 4526000   0.52219218    -9.226143    491.48858 0.0090493552 0.0070009702         3902 
 4527000   0.52417043   -9.2369514    490.85253 0.0090356478 0.0069982074         3912 
 4528000    0.5352516   -9.2307648    491.32924 0.0090424257 0.0069954461         3897 
 4529000   0.52846627   -9.2317822    490.94377 0.0090333364 0.0069926879         3918 
 4530000    0.5315926   -9.2410591    490.83276 0.0090293002 0.0069899302         3908 
 4531000   0.51538862   -9.2536143    491.23524 0.0090347098 0.0069871736         3912 
 4532000   0.54692896   -9.2421034     491.7252 0.0090417254 0.0069844177         3931 
 4533000   0.52784768   -9.2387541    490.71221 0.0090211083  0.006981665         3916 
 4534000   0.53818759   -9.2327681     490.5938 0.0090169424 0.0069789136         3912 
 4535000   0.52841183   -9.2317158    491.21778 0.0090264201 0.0069761614         3908 
 4536000   0.50780079   -9.2240208    491.22624 0.0090245855 0.0069734131         3900 
 4537000    0.5290952   -9.2359526    491.05088 0.0090193754  0.006970665         3900 
 4538000   0.51862908   -9.2336007    491.29483 0.0090218677 0.0069679218         3898 
 4539000   0.53308362   -9.2265962    491.43701 0.0090224905 0.0069651779         3892 
 4540000   0.52091159   -9.2371769    490.82628 0.0090092929 0.0069624343         3917 
 4541000   0.52654694   -9.2306596    490.82424 0.0090072715 0.0069596913         3908 
 4542000   0.53286918   -9.2329796    491.09424 0.0090102422 0.0069569506         3922 
 4543000   0.51721137   -9.2322295    491.02141  0.009006923 0.0069542114         3922 
 4544000   0.51378565   -9.2451977    491.48697 0.0090134787 0.0069514736         3893 
 4545000   0.52484192   -9.2388984    490.87632 0.0090002993 0.0069487366         3909 
 4546000   0.52575361   -9.2422585    490.27864 0.0089873633 0.0069460029         3904 
 4547000   0.51602426   -9.2567345    491.02294 0.0089990276 0.0069432703         3909 
 4548000   0.53140913   -9.2747496    490.72318 0.0089915564 0.0069405369         3886 
 4549000   0.53320412   -9.2397343    491.46898  0.009003242 0.0069378057         3915 
 4550000   0.52455345   -9.2268638     490.9858 0.0089924139 0.0069350782         3913 
 4551000   0.51646049   -9.2525463    490.89652 0.0089888032 0.0069323482         3901 
 4552000   0.52268428   -9.2446749    491.14297 0.0089913402 0.0069296212         3911 
 4553000   0.51944968   -9.2460613    490.79938 0.0089830766 0.0069268947         3912 
 4554000   0.51879858   -9.2602738    491.39251 0.0089919578 0.0069241713         3891 
 4555000   0.51888906   -9.2374634    490.84578 0.0089799814 0.0069214503         3916 
 4556000   0.53032353   -9.2389842    491.42686 0.0089886387 0.0069187299         3909 
 4557000   0.52314201   -9.2459831    491.08061 0.0089803344  0.006916012         3888 
 4558000   0.52545938   -9.2420701     490.9735 0.0089764059 0.0069132943         3891 
 4559000    0.5162762   -9.2264479    490.78528 0.0089709966 0.0069105785         3876 
 4560000    0.5119579   -9.2323507    492.12894 0.0089935845 0.0069078637         3893 
 4561000   0.51354491   -9.2592268    491.03036 0.0089715406 0.0069051485         3908 
 4562000   0.52104809   -9.2462596    491.00245 0.0089690641 0.0069024367         3888 
 4563000   0.51163398   -9.2252226    491.38129 0.0089740172 0.0068997253         3896 
 4564000   0.52282835   -9.2546437    490.67947 0.0089592365 0.0068970175         3920 
 4565000   0.50558233   -9.2487216    490.71169 0.0089578621 0.0068943089         3891 
 4566000   0.52003052    -9.256544    491.32083 0.0089670177 0.0068916023         3910 
 4567000   0.52858875   -9.2391321    490.64395 0.0089527033 0.0068888959         3905 
 4568000   0.52552956   -9.2409778    490.78239  0.008953269 0.0068861933         3922 
 4569000   0.52457624   -9.2439685    490.92335 0.0089538803 0.0068834913         3892 
 4570000   0.50802157   -9.2381169    491.60379 0.0089643287 0.0068807894         3921 
 4571000   0.51771183   -9.2506395    490.87059 0.0089490007 0.0068780895         3896 
 4572000   0.51734221   -9.2553123    490.88132  0.008947239 0.0068753925         3901 
 4573000   0.52265488   -9.2459994    491.12815 0.0089497805 0.0068726958         3908 
 4574000   0.50611167   -9.2480087    491.09648 0.0089472468 0.0068700008         3894 
 4575000   0.52697415   -9.2461878    491.07106  0.008944828 0.0068673087         3902 
 4576000   0.51625095   -9.2616939    490.44489 0.0089314702  0.006864618         3914 
 4577000   0.52353012   -9.2644913    490.50384 0.0089305921 0.0068619284         3909 
 4578000   0.50501208   -9.2545559    490.15185 0.0089222341 0.0068592394         3935 
 4579000   0.51183651   -9.2432369    490.93094 0.0089344643 0.0068565516         3885 
 4580000    0.5234917   -9.2446228    491.22924 0.0089379411 0.0068538659         3915 
 4581000   0.51113994   -9.2534706    490.84335 0.0089289703 0.0068511812         3913 
 4582000   0.52186447   -9.2391863    491.03164 0.0089304459 0.0068484983         3907 
 4583000   0.52804387   -9.2494709    491.11243 0.0089299664 0.0068458171         3923 
 4584000   0.52541929   -9.2446979    490.43283 0.0089156637 0.0068431378         3900 
 4585000   0.51425473   -9.2620877    490.50852 0.0089150949 0.0068404589         3908 
 4586000   0.50916507   -9.2384317    490.27255 0.0089088631 0.0068377819         3901 
 4587000   0.52311794   -9.2418467    490.88684 0.0089180808 0.0068351052         3909 
 4588000   0.51727536   -9.2553729    491.15538 0.0089210147 0.0068324319         3905 
 4589000   0.50431048    -9.248573    490.60549 0.0089090849  0.006829759         3906 
 4590000   0.50314497   -9.2545937    490.18524 0.0088995142  0.006827087         3900 
 4591000   0.51040964   -9.2543222    491.70396 0.0089251427 0.0068244169         3896 
 4592000    0.5050696   -9.2511391    490.21935 0.0088962571 0.0068217484         3910 
 4593000   0.51841149   -9.2557754    491.15299 0.0089112596 0.0068190802         3893 
 4594000   0.51933866   -9.2541785    490.65326 0.0089002551 0.0068164151         3898 
 4595000   0.51145894   -9.2579399    490.84626 0.0089018184 0.0068137509         3911 
 4596000   0.52047357   -9.2627425    490.10472  0.008886436 0.0068110879         3909 
 4597000   0.51749644   -9.2573172    490.58761 0.0088932567 0.0068084259         3919 
 4598000   0.50662988   -9.2405612    491.55795 0.0089089088 0.0068057655         3917 
 4599000   0.51198116    -9.247668    490.93754   0.00889573 0.0068031071         3904 
 4600000   0.51754821   -9.2434377    490.11165 0.0088788343 0.0068004488         3899 
 4601000   0.51346651   -9.2613671    490.82311 0.0088897904 0.0067977927         3910 
 4602000   0.51032385   -9.2371567    490.97787 0.0088906611 0.0067951371         3903 
 4603000   0.52038865   -9.2663583    491.53686 0.0088988496 0.0067924831         3909 
 4604000    0.5206847   -9.2444444    491.05623 0.0088882172 0.0067898316         3920 
 4605000   0.51142004   -9.2559426    490.55046 0.0088771346 0.0067871804         3920 
 4606000   0.50936417   -9.2576435    490.64557  0.008876928  0.006784532         3908 
 4607000   0.50948166   -9.2573852    490.87715 0.0088791902 0.0067818848         3917 
 4608000   0.51650806   -9.2604553    490.36199 0.0088679469 0.0067792375         3900 
 4609000   0.52341608   -9.2480585    490.47788 0.0088681181 0.0067765929         3895 
 4610000   0.51960441   -9.2534177    490.94858 0.0088747032 0.0067739503         3901 
 4611000    0.5194055   -9.2364476     490.5817  0.008866148 0.0067713076         3908 
 4612000   0.51880018    -9.237435    490.76754 0.0088675835 0.0067686675         3896 
 4613000   0.50585587   -9.2569778    490.13371  0.008854211 0.0067660278         3921 
 4614000   0.50840048   -9.2700343    490.55445 0.0088598911 0.0067633887         3900 
 4615000   0.51427336   -9.2668145    489.87894 0.0088457737 0.0067607499         3902 
 4616000   0.50204896   -9.2546984    491.16001 0.0088669846 0.0067581139         3904 
 4617000    0.5062292   -9.2634414    490.46286  0.008852481 0.0067554793         3911 
 4618000   0.50155964   -9.2598157    490.88341 0.0088581531 0.0067528464         3896 
 4619000    0.5069863    -9.257273    490.36064 0.0088468037  0.006750215         3905 
 4620000   0.50822003   -9.2469549    490.94899 0.0088555012 0.0067475834         3911 
 4621000   0.51661325   -9.2453645    490.94844  0.008853575 0.0067449532         3896 
 4622000   0.52002226    -9.265799    491.41167 0.0088600114 0.0067423271         3903 
 4623000   0.50939188   -9.2567536    490.31582 0.0088383412 0.0067397017         3923 
 4624000   0.51273313   -9.2548901    490.85034 0.0088460629 0.0067370772         3912 
 4625000   0.50567923   -9.2480255    490.62858 0.0088401546 0.0067344552         3910 
 4626000   0.51257576    -9.239097    491.15539 0.0088477337  0.006731835         3906 
 4627000   0.50865894   -9.2576724    490.64158 0.0088365676 0.0067292144         3922 
 4628000   0.50842608   -9.2540587    491.04507 0.0088419237 0.0067265957         3915 
 4629000   0.51982453   -9.2709301    490.66675 0.0088332029 0.0067239794         3916 
 4630000   0.51566791   -9.2762478    490.57118 0.0088295748 0.0067213622         3913 
 4631000   0.51293224   -9.2609265    490.79201 0.0088316421 0.0067187478         3913 
 4632000   0.50889363   -9.2581354    491.23744  0.008837749 0.0067161326         3912 
 4633000   0.51279029   -9.2484724    490.10997 0.0088155618 0.0067135218         3911 
 4634000   0.51660948   -9.2549309    491.37705 0.0088364452 0.0067109104         3923 
 4635000   0.51236641    -9.260185     490.5455 0.0088195882  0.006708303         3913 
 4636000   0.51791913      -9.2565    490.75552 0.0088214609 0.0067056944         3908 
 4637000     0.503851    -9.266434    490.63623 0.0088174147 0.0067030888         3912 
 4638000   0.50843741   -9.2625589    490.80912 0.0088186202 0.0067004835         3900 
 4639000   0.51810563   -9.2574025    490.08267 0.0088036695 0.0066978802         3922 
 4640000   0.52102652   -9.2623282    491.16768 0.0088212587 0.0066952783         3899 
 4641000    0.5133135   -9.2445637    490.60793  0.008809307 0.0066926779         3912 
 4642000   0.51733728   -9.2531812    490.21967 0.0088004394 0.0066900772         3933 
 4643000   0.51837388   -9.2751073    490.54082 0.0088043079 0.0066874775         3913 
 4644000   0.49913809   -9.2613881    490.24895 0.0087971747 0.0066848816         3924 
 4645000    0.5205415   -9.2617131    491.01078 0.0088089484 0.0066822868         3919 
 4646000   0.51079265   -9.2616995    490.53933 0.0087985961  0.006679692         3909 
 4647000   0.50761148   -9.2565956    490.88806 0.0088029564 0.0066770993         3922 
 4648000   0.51495335   -9.2661564    490.46173 0.0087934189 0.0066745057         3884 
 4649000   0.51531256   -9.2543573    490.76498 0.0087969631  0.006671916         3907 
 4650000   0.50657012   -9.2697093    490.49782 0.0087902836 0.0066693291         3898 
 4651000   0.50647563   -9.2701375    490.38849 0.0087864346 0.0066667414         3931 
 4652000   0.51236096   -9.2708842    490.33935 0.0087836656 0.0066641565         3927 
 4653000   0.50384595   -9.2629121    490.19649 0.0087792194 0.0066615727         3918 
 4654000   0.50999548   -9.2667843    490.36027 0.0087802656 0.0066589901         3891 
 4655000   0.50013542    -9.259821    489.88238 0.0087698243 0.0066564102         3921 
 4656000   0.51116268   -9.2721906    490.56831 0.0087802174  0.006653829         3911 
 4657000   0.51627294   -9.2444652    491.18986 0.0087894542  0.006651251         3915 
 4658000   0.50222517   -9.2530539    490.99754 0.0087841267 0.0066486724         3902 
 4659000   0.50234572   -9.2574511    490.29836 0.0087697352 0.0066460942         3913 
 4660000   0.50665704   -9.2702521    490.70179 0.0087750678 0.0066435185         3915 
 4661000   0.49915353    -9.268647    489.85753 0.0087580908 0.0066409437         3919 
 4662000   0.50662309   -9.2615704    490.87066 0.0087743218 0.0066383707         3914 
 4663000   0.51391101    -9.244068     490.4595 0.0087650923 0.0066357998         3917 
 4664000   0.50836453   -9.2615857    490.61701 0.0087660273 0.0066332319         3910 
 4665000   0.50158447   -9.2691536      490.097 0.0087548589 0.0066306628         3910 
 4666000   0.50230233   -9.2620745    490.24704 0.0087556622 0.0066280954         3917 
 4667000   0.50861202   -9.2750568    489.85216 0.0087467352 0.0066255292         3908 
 4668000   0.51014243   -9.2721198    490.47815 0.0087560367 0.0066229656         3925 
 4669000   0.50676165   -9.2712176    491.20589 0.0087671501 0.0066204023         3920 
 4670000   0.50285284    -9.261956    490.70732 0.0087563761  0.006617842         3909 
 4671000   0.49765107   -9.2548598    490.87988 0.0087575802 0.0066152806         3897 
 4672000   0.50186852   -9.2660714    490.00375 0.0087400784 0.0066127218         3913 
 4673000   0.51325386    -9.281911    490.52406 0.0087474867 0.0066101641         3921 
 4674000   0.49922474   -9.2769077    489.41273  0.008725801 0.0066076061         3911 
 4675000    0.4932993   -9.2685431    490.29939 0.0087397396 0.0066050507         3913 
 4676000   0.50324158    -9.286591    490.06278 0.0087336538 0.0066024959         3927 
 4677000   0.50703994   -9.2725489    489.94462 0.0087296811  0.006599944         3903 
 4678000   0.51291788   -9.2826462    489.63306 0.0087222648 0.0065973926         3925 
 4679000   0.49886873   -9.2450118    490.66671 0.0087388101 0.0065948444         3916 
 4680000   0.49495526   -9.2632399    490.25057  0.008729533 0.0065922973         3916 
 4681000   0.49659679   -9.2682487    490.32496 0.0087289923  0.006589749         3925 
 4682000   0.51272565   -9.2704344    490.90487 0.0087374497 0.0065872039         3925 
 4683000   0.50663865   -9.2807211    490.58852 0.0087299544 0.0065846607         3927 
 4684000   0.50328938    -9.260252    490.55054 0.0087274149  0.006582118         3902 
 4685000    0.4996521   -9.2821407    490.58023 0.0087260802 0.0065795759         3922 
 4686000   0.49138784   -9.2906797     490.6655 0.0087257344 0.0065770355         3902 
 4687000   0.48865947   -9.2760159    490.37355 0.0087186821 0.0065744973         3882 
 4688000   0.49729408   -9.2922687     490.0315 0.0087107419  0.006571959         3908 
 4689000    0.5061673   -9.2815253    490.30335 0.0087137156 0.0065694197         3913 
 4690000   0.49168139   -9.2735712    490.61159 0.0087173345 0.0065668842         3919 
 4691000   0.50793079   -9.2709356    490.49437 0.0087133939 0.0065643503         3902 
 4692000   0.49970118     -9.28755    490.34646 0.0087089099 0.0065618163         3924 
 4693000   0.50534584    -9.283202    489.97719 0.0087004971 0.0065592838         3911 
 4694000   0.49019929   -9.2671773    490.83267  0.008713831 0.0065567554         3908 
 4695000    0.5110713   -9.2840732    489.47441 0.0086878668 0.0065542268         3919 
 4696000   0.50729913   -9.2875689    489.70306 0.0086900741 0.0065516984         3917 
 4697000   0.49740924   -9.2706979    490.08388 0.0086949805 0.0065491717         3931 
 4698000   0.50231516   -9.2594135    489.77563 0.0086876619  0.006546648         3903 
 4699000   0.50729562   -9.2754918    490.43647 0.0086975327 0.0065441257         3911 
 4700000   0.50089715   -9.2806966    490.49237 0.0086966732 0.0065416035         3915 
 4701000    0.4973271    -9.266801    490.52105 0.0086953317 0.0065390835         3913 
 4702000   0.48957702   -9.2741463    491.03317 0.0087025587 0.0065365643         3902 
 4703000   0.50138719   -9.2777035     490.3086 0.0086878694 0.0065340469         3926 
 4704000   0.50408777   -9.2625911    490.61111 0.0086913816 0.0065315305         3916 
 4705000   0.50433852   -9.2902266     491.1204 0.0086985547 0.0065290145         3908 
 4706000   0.49702258    -9.265727    490.15259 0.0086795685 0.0065264996         3903 
 4707000   0.49850454   -9.2889625    490.58775 0.0086854287 0.0065239851         3899 
 4708000   0.50319955   -9.2856316    490.16958  0.008676182 0.0065214748         3913 
 4709000   0.49697735   -9.2866924    490.33611 0.0086772866 0.0065189642         3906 
 4710000   0.49460849   -9.2673575    489.93593  0.008668364  0.006516455         3911 
 4711000   0.50230669   -9.2724531     490.3786 0.0086743543 0.0065139477         3895 
 4712000   0.50659279   -9.2788521    490.35694 0.0086721305  0.006511442         3905 
 4713000   0.49610409   -9.2933719    489.43197 0.0086539353 0.0065089365         3922 
 4714000   0.50394751   -9.2767109    490.15641 0.0086649061 0.0065064347         3928 
 4715000   0.50578414   -9.2827212    490.24829 0.0086646923 0.0065039311         3920 
 4716000   0.49396461   -9.2684611    490.90475 0.0086744549 0.0065014307         3914 
 4717000   0.49671112   -9.2763325    489.71936 0.0086516741 0.0064989303         3921 
 4718000   0.49691313   -9.2831155    490.01401 0.0086550447 0.0064964309         3914 
 4719000   0.49999873    -9.291284    490.12083  0.008655097 0.0064939342         3905 
 4720000   0.49525098   -9.2793949    490.63779 0.0086623904 0.0064914378         3914 
 4721000   0.49644876   -9.2762576    489.89098 0.0086473731 0.0064889445         3910 
 4722000   0.49129154   -9.2829264    489.97618 0.0086470453 0.0064864523         3903 
 4723000   0.49091497   -9.2948681     490.1549 0.0086483679  0.006483959         3909 
 4724000     0.500338   -9.2952283    489.55041 0.0086358737 0.0064814663         3902 
 4725000   0.50972366   -9.2858405    490.13985 0.0086444418 0.0064789778         3915 
 4726000   0.50419827   -9.2776689    490.02866 0.0086406521 0.0064764906         3913 
 4727000   0.48930772   -9.2815662    489.55285 0.0086304359 0.0064740035         3913 
 4728000   0.48904449    -9.295157    489.81417 0.0086332164 0.0064715185         3909 
 4729000   0.50280821   -9.2816229    489.67034 0.0086288563 0.0064690342         3907 
 4730000   0.48980516   -9.2797861    490.32282 0.0086385275 0.0064665508         3896 
 4731000   0.48402173   -9.2848393     489.6524 0.0086248926 0.0064640689         3901 
 4732000   0.49004713   -9.2820937    490.61214 0.0086399715 0.0064615862         3929 
 4733000   0.50198916   -9.2699699    489.69896 0.0086220677 0.0064591074         3903 
 4734000   0.50153348   -9.2745704    489.99932 0.0086255337 0.0064566282         3910 
 4735000   0.49048817   -9.2919816    489.82692 0.0086206779 0.0064541512         3903 
 4736000   0.50416241   -9.2890605    490.11993 0.0086240135 0.0064516764         3912 
 4737000   0.49493307   -9.2938495    489.33117  0.008608317 0.0064492026         3894 
 4738000   0.49736808   -9.3030823    489.19345 0.0086040778 0.0064467275         3903 
 4739000   0.50630479   -9.2934463     489.6382 0.0086100831 0.0064442558         3919 
 4740000   0.48876182   -9.2896378    490.75483 0.0086278978 0.0064417859         3907 
 4741000   0.48925804   -9.2880625     489.9303 0.0086115851 0.0064393178         3907 
 4742000    0.4932249   -9.2740159    489.90715 0.0086093622 0.0064368494         3909 
 4743000   0.48817998   -9.2797927    489.99147 0.0086090285 0.0064343834         3921 
 4744000   0.49267422   -9.2769131    490.17831  0.008610496 0.0064319182         3904 
 4745000   0.49241926   -9.2862949    490.39046 0.0086124072 0.0064294555         3910 
 4746000   0.49281469   -9.2911173    489.33749 0.0085921037 0.0064269939         3911 
 4747000   0.48286312    -9.268223    490.20097  0.008605452 0.0064245314         3927 
 4748000    0.4950841    -9.293454    490.20595  0.008603727 0.0064220712         3896 
 4749000   0.49073667   -9.2813604    489.96985 0.0085977723 0.0064196138         3898 
 4750000   0.49958559   -9.2955645    489.28842 0.0085840073 0.0064171553         3905 
 4751000   0.48835959   -9.2752487    490.26752 0.0085993741 0.0064146993         3911 
 4752000   0.49776691    -9.282497    490.17236 0.0085958957 0.0064122449         3894 
 4753000   0.49250758   -9.2848498    489.83013 0.0085880871 0.0064097911         3906 
 4754000   0.49049945   -9.2892859    489.82381 0.0085861696 0.0064073378         3920 
 4755000   0.47586326   -9.2935014    489.59902 0.0085804244  0.006404886         3903 
 4756000   0.48871532   -9.2913275    490.40712 0.0085927796 0.0064024361         3906 
 4757000   0.48557318   -9.2894633    489.76561 0.0085797353  0.006399988         3910 
 4758000   0.50095957   -9.2763849    490.57672 0.0085921382 0.0063975404         3914 
 4759000   0.48482435   -9.2882428    489.74096  0.008575698 0.0063950952         3906 
 4760000   0.49645309   -9.2980656    489.51125 0.0085698749 0.0063926497         3905 
 4761000   0.49066399   -9.2949358    490.21258 0.0085803504 0.0063902067         3913 
 4762000   0.47738759   -9.2815291    489.46455 0.0085654584 0.0063877644         3900 
 4763000   0.49129248   -9.3008389    490.52886 0.0085822812 0.0063853241         3903 
 4764000   0.49026673   -9.2804722    490.66488 0.0085828589 0.0063828841         3924 
 4765000   0.49857887   -9.2871525    490.26125 0.0085739987  0.006380445         3894 
 4766000   0.47760248   -9.2789978    490.40624 0.0085747349 0.0063780083         3909 
 4767000   0.48490928   -9.2821874    490.78167 0.0085794991 0.0063755712         3918 
 4768000   0.49276436   -9.2812052     489.7775 0.0085601493 0.0063731372         3917 
 4769000   0.48726229   -9.2836791    489.76752 0.0085581799 0.0063707053         3911 
 4770000   0.50239521   -9.3154724    489.32942  0.008548732 0.0063682721         3923 
 4771000   0.49353407   -9.3006243    489.98215 0.0085583412 0.0063658419         3908 
 4772000   0.47789473   -9.2819494    489.50394 0.0085481967 0.0063634105         3917 
 4773000   0.48192615   -9.2979347    489.81159 0.0085517772 0.0063609823         3880 
 4774000   0.49010246   -9.3057193    489.43067 0.0085433366 0.0063585546         3922 
 4775000   0.49534737   -9.3023444    489.04675 0.0085348473 0.0063561287         3901 
 4776000   0.47722286   -9.2932592    489.77461 0.0085457602  0.006353705         3909 
 4777000   0.49513031   -9.3084529    489.36915 0.0085368981 0.0063512819         3906 
 4778000   0.50571885   -9.2979444    489.29089 0.0085337466 0.0063488595         3919 
 4779000   0.48320811   -9.2952954    489.66685 0.0085385166 0.0063464385         3922 
 4780000   0.48874575   -9.2983068    489.56663 0.0085349831  0.006344019         3913 
 4781000   0.49440816   -9.2942649    489.47212 0.0085315506 0.0063416007         3914 
 4782000   0.48417834   -9.3049438    489.57472 0.0085315544 0.0063391849         3903 
 4783000   0.48663903   -9.2683183    489.93877 0.0085361136 0.0063367683         3888 
 4784000   0.49065787   -9.3090392    490.07712 0.0085367391 0.0063343544         3918 
 4785000   0.49078163   -9.2960934    489.96821 0.0085330584 0.0063319402         3906 
 4786000   0.48747287   -9.2889347    489.78893 0.0085281539 0.0063295257         3903 
 4787000   0.49355011   -9.3007646    489.37974 0.0085192491 0.0063271133         3926 
 4788000   0.47805099   -9.3123887    489.53465 0.0085201659 0.0063247029         3891 
 4789000   0.50217138   -9.2748923    489.77678    0.0085226 0.0063222948         3903 
 4790000     0.486125   -9.3040372    488.94189  0.008506296 0.0063198874         3928 
 4791000   0.49431847   -9.2839198     490.0768 0.0085242607 0.0063174802         3922 
 4792000    0.4771379   -9.2842007    489.18194 0.0085069202 0.0063150766         3909 
 4793000   0.48514126   -9.2839814    489.83143 0.0085164376 0.0063126728         3908 
 4794000   0.47575864   -9.2963693    489.33521 0.0085060355 0.0063102701         3906 
 4795000   0.47569022   -9.2915893    489.61124 0.0085090587 0.0063078668         3900 
 4796000   0.48811869   -9.2882625    490.70434 0.0085262778 0.0063054679         3905 
 4797000   0.48689722   -9.3010359    489.93912  0.008511207 0.0063030692         3906 
 4798000   0.47765595   -9.2962369    489.78686 0.0085067886  0.006300671         3894 
 4799000   0.48683485   -9.2920115    489.91633 0.0085072641 0.0062982738         3891 
 4800000   0.48132708   -9.3123096    489.67547 0.0085013102 0.0062958773         3894 
 4801000   0.47352296   -9.3053237    489.48019 0.0084961499 0.0062934832         3898 
 4802000   0.48355195   -9.2869204    489.41749 0.0084932925 0.0062910904         3903 
 4803000   0.48442378   -9.2972536    489.74808   0.00849726 0.0062886971         3911 
 4804000   0.47115207   -9.2913915    489.36687 0.0084888786  0.006286308         3932 
 4805000   0.48240984   -9.2882715    489.74256 0.0084936275 0.0062839178         3900 
 4806000   0.47839972    -9.292242    488.87061 0.0084767411 0.0062815285         3911 
 4807000   0.48300747   -9.2996049    489.88905 0.0084926331 0.0062791411         3927 
 4808000   0.48450199   -9.2952394    489.92595 0.0084915064 0.0062767564         3901 
 4809000   0.47997101   -9.2711316    489.77485 0.0084871223 0.0062743715         3907 
 4810000   0.47667452   -9.2915041    489.75057 0.0084849371 0.0062719899         3881 
 4811000   0.48646968   -9.3067298    489.71149 0.0084824966 0.0062696073         3899 
 4812000   0.49339694   -9.3031632    489.68569 0.0084802869 0.0062672265         3910 
 4813000   0.49321807   -9.3075465    489.50933 0.0084754715  0.006264846         3907 
 4814000   0.47751711   -9.3104513    489.72335 0.0084774157 0.0062624697         3902 
 4815000    0.4771536   -9.3004201    489.57344 0.0084730605 0.0062600923         3913 
 4816000   0.49416382   -9.3031985    489.42293  0.008468697 0.0062577148         3914 
 4817000   0.49331159   -9.3028176    490.42118 0.0084842083 0.0062553415         3910 
 4818000   0.48823151   -9.2865591    489.49055 0.0084663511 0.0062529693         3902 
 4819000   0.49816783   -9.2928794    489.17606 0.0084591558 0.0062505978         3909 
 4820000   0.47653354   -9.3145044    489.51503 0.0084632613 0.0062482282         3918 
 4821000   0.47244245   -9.3113334    490.44451 0.0084775723 0.0062458576         3914 
 4822000   0.46951988   -9.2979787    489.82645 0.0084651328 0.0062434897         3923 
 4823000   0.47959953   -9.3033145    488.72848 0.0084444067 0.0062411235         3908 
 4824000   0.46640232   -9.2996426    489.79123 0.0084610148 0.0062387577         3912 
 4825000   0.48181322    -9.309531    489.64326 0.0084567056 0.0062363913         3893 
 4826000   0.46815798   -9.3038894    489.55253 0.0084533867 0.0062340279         3904 
 4827000   0.47731852   -9.2919866    489.25046 0.0084464205 0.0062316666         3914 
 4828000   0.47304768   -9.3084725     489.3253 0.0084459628 0.0062293039         3898 
 4829000   0.46491618   -9.2866852    490.09264 0.0084574557 0.0062269449         3915 
 4830000   0.48130594   -9.3033775    489.85111 0.0084515375 0.0062245873         3904 
 4831000   0.48088408   -9.3126066    489.12007 0.0084371778 0.0062222296         3910 
 4832000   0.48207591   -9.3030203    489.49381 0.0084418773 0.0062198736         3908 
 4833000   0.48181396   -9.2992184    489.75027 0.0084445526 0.0062175197         3922 
 4834000   0.47994475   -9.3013923    489.68617 0.0084417007 0.0062151666         3915 
 4835000   0.48679511   -9.3102251    488.82791 0.0084251622 0.0062128122         3915 
 4836000   0.47055916    -9.312606    489.56121 0.0084360562 0.0062104601         3924 
 4837000   0.48124683   -9.3030571    490.13394 0.0084441792 0.0062081098         3908 
 4838000   0.48520704   -9.3181241    489.70685 0.0084350773 0.0062057607         3904 
 4839000   0.48265866   -9.3115624    489.30798 0.0084264651 0.0062034134         3895 
 4840000   0.47709432   -9.3200594     489.9021 0.0084349535 0.0062010679         3905 
 4841000   0.47018507   -9.2993147    489.37573 0.0084241501 0.0061987225         3916 
 4842000   0.48375762   -9.3132266    489.22291 0.0084197803 0.0061963779         3925 
 4843000   0.48114913   -9.3074417    489.12196 0.0084163047 0.0061940341         3908 
 4844000   0.47312789   -9.3180575    489.22492 0.0084163384  0.006191692         3903 
 4845000   0.47666907   -9.2999189    489.36384 0.0084169908 0.0061893525         3914 
 4846000   0.48658084    -9.301102     490.1549 0.0084288572 0.0061870148         3891 
 4847000   0.47435492   -9.3110887    489.17394 0.0084102528 0.0061846758         3912 
 4848000   0.48062907   -9.3196244    489.73714  0.008418199 0.0061823378         3909 
 4849000   0.47834741   -9.3404326    489.53515 0.0084129915 0.0061800012         3901 
 4850000   0.47432602   -9.2999441    488.73478 0.0083975047 0.0061776661         3908 
 4851000   0.48569379   -9.3139342    489.18623  0.008403529 0.0061753321         3919 
 4852000   0.47803374   -9.3134931    489.73673 0.0084112518 0.0061729975         3910 
 4853000   0.47503512    -9.315648    489.42576 0.0084041789 0.0061706659         3916 
 4854000    0.4787462   -9.3191143    488.97926 0.0083947819 0.0061683351         3915 
 4855000   0.47647424   -9.3154845    489.16756 0.0083962849 0.0061660063         3911 
 4856000   0.48223523   -9.3095463    489.35158 0.0083977139 0.0061636774         3919 
 4857000   0.47840307   -9.3234775    490.33494 0.0084128568 0.0061613492         3899 
 4858000   0.48307217   -9.3254678    488.81837   0.00838511 0.0061590244         3927 
 4859000    0.4674533   -9.3082516    489.52138 0.0083954411 0.0061567003         3898 
 4860000    0.4649979   -9.3075091     489.1657 0.0083876149 0.0061543771         3915 
 4861000   0.46316349   -9.3119067    489.99151 0.0084000465 0.0061520542         3900 
 4862000   0.47473265   -9.3251282    490.09583 0.0084001068 0.0061497336         3911 
 4863000   0.46818171   -9.3124502    489.45045   0.00838732  0.006147415         3910 
 4864000   0.47786484   -9.2975672    489.03541 0.0083784849 0.0061450993         3913 
 4865000   0.47829525    -9.311537     489.5845 0.0083861682 0.0061427818         3923 
 4866000   0.47678189   -9.3088501    488.79914  0.008370995 0.0061404656         3912 
 4867000   0.46945599   -9.3183602    489.13728 0.0083750647 0.0061381506         3926 
 4868000   0.47235065   -9.3202161    489.81093 0.0083848763 0.0061358374         3937 
 4869000   0.49395482    -9.309137     489.5355 0.0083784401 0.0061335249         3900 
 4870000   0.47460371   -9.3091872    489.05671 0.0083685269 0.0061312143         3892 
 4871000   0.47696062   -9.3316865     489.2546 0.0083701943 0.0061289029         3907 
 4872000   0.48602466   -9.3186319    489.78571 0.0083775607 0.0061265946         3902 
 4873000   0.46285707   -9.3094583    489.20955 0.0083659885 0.0061242872         3915 
 4874000   0.48031333   -9.3232508    489.34252 0.0083665457 0.0061219804         3875 
 4875000   0.47843498    -9.320538     488.9581 0.0083582582 0.0061196731         3916 
 4876000   0.47355985   -9.3136017    489.46492 0.0083652058 0.0061173688         3910 
 4877000   0.47386096   -9.3223067    489.52515 0.0083645197 0.0061150669         3905 
 4878000    0.4751473   -9.3279094    489.25299 0.0083581555 0.0061127637         3928 
 4879000    0.4623664   -9.3208576    488.79058 0.0083485444 0.0061104632         3921 
 4880000   0.47108772    -9.307244     488.9754 0.0083499898 0.0061081657         3899 
 4881000   0.46777233   -9.3064789    489.34179 0.0083545344 0.0061058675         3897 
 4882000   0.47594111   -9.3193489    489.49913 0.0083555088 0.0061035704         3901 
 4883000   0.46395288   -9.3163618    488.76426 0.0083412564 0.0061012736         3902 
 4884000   0.46375355   -9.3240761    489.58236 0.0083535073 0.0060989791         3905 
 4885000   0.47129126   -9.3228582    489.28317 0.0083466935 0.0060966865         3909 
 4886000    0.4759709   -9.3164638     489.1784 0.0083431983 0.0060943957         3903 
 4887000   0.46593633   -9.3163695    489.36141 0.0083446118 0.0060921042         3914 
 4888000   0.47339776   -9.3165078    488.19974 0.0083230998 0.0060898146         3893 
 4889000   0.47316358   -9.3287758    489.09845 0.0083367158 0.0060875267         3895 
 4890000   0.46844103   -9.3228348    488.71148 0.0083284165   0.00608524         3927 
 4891000    0.4662269    -9.330533    489.44026 0.0083391306  0.006082953         3910 
 4892000   0.46354936   -9.3173274    488.67271 0.0083243511  0.006080667         3914 
 4893000   0.47617858   -9.3248011    488.71011 0.0083232868 0.0060783821         3912 
 4894000   0.46980204   -9.3069526    489.03409 0.0083271027  0.006076099         3918 
 4895000   0.46621557   -9.3263413    489.19505 0.0083281418 0.0060738162         3908 
 4896000   0.46806834   -9.3447428    489.16773 0.0083259758 0.0060715344         3898 
 4897000   0.46766527   -9.3167377    489.13665 0.0083237467 0.0060692542         3906 
 4898000   0.46997465   -9.3160074    489.14584 0.0083222036 0.0060669739         3904 
 4899000   0.47485178   -9.3278572     488.5575  0.008310497 0.0060646959         3915 
 4900000   0.46338173   -9.3239884    488.54516 0.0083085911 0.0060624198         3924 
 4901000   0.47924268   -9.3271709    488.86367 0.0083123116 0.0060601439         3904 
 4902000   0.46935598   -9.3343718    489.12377 0.0083150376 0.0060578705         3901 
 4903000   0.46425276   -9.3267426    489.15789 0.0083139216 0.0060555988         3927 
 4904000   0.47191271    -9.328785    488.38017 0.0082990105  0.006053329         3916 
 4905000   0.48237098   -9.3128304    488.55691 0.0083003213 0.0060510591         3893 
 4906000   0.47354111   -9.3293425    489.45421 0.0083138709  0.006048789         3900 
 4907000   0.46614355   -9.3172629    489.12123 0.0083065218 0.0060465212         3912 
 4908000   0.46161082   -9.3382738    488.80224 0.0082994133 0.0060442549         3909 
 4909000   0.47343663   -9.3103588    489.23339 0.0083050415  0.006041989         3910 
 4910000    0.4585831   -9.3319044    488.86256 0.0082970563 0.0060397251         3922 
 4911000   0.46070986   -9.3190628    488.99046 0.0082975371 0.0060374612         3898 
 4912000   0.46516449   -9.3213067    488.38932 0.0082856495 0.0060351991         3914 
 4913000   0.46882674   -9.3234613    489.11826 0.0082963271 0.0060329374         3909 
 4914000   0.46473982   -9.3216385    489.06837 0.0082937928 0.0060306751         3921 
 4915000   0.46507375   -9.3359458    489.01776 0.0082912472 0.0060284157         3900 
 4916000   0.46362513   -9.3309464     488.7751 0.0082854472 0.0060261578         3916 
 4917000   0.46495648   -9.3217308    488.87488 0.0082854531 0.0060239024         3908 
 4918000   0.45244193   -9.3297789    489.10066 0.0082875942 0.0060216456         3922 
 4919000   0.45774018   -9.3260075    488.85489 0.0082817458   0.00601939         3914 
 4920000   0.45688507   -9.3166908    489.15738  0.008285186 0.0060171368         3907 
 4921000   0.45615769   -9.3243209    488.99673 0.0082807819 0.0060148845         3930 
 4922000   0.47251053   -9.3145745    488.90153 0.0082774876 0.0060126315         3909 
 4923000   0.46562468   -9.3107907     489.2035 0.0082809179 0.0060103817         3916 
 4924000   0.47875108   -9.3144254    489.33449 0.0082814529 0.0060081329         3918 
 4925000   0.46138593   -9.3273366    489.23798 0.0082781385 0.0060058853         3897 
 4926000    0.4571779   -9.3155302    489.64294 0.0082833087 0.0060036389         3916 
 4927000   0.45538129   -9.3198511    489.34633 0.0082766107  0.006001393         3913 
 4928000    0.4619592    -9.342244    488.43711  0.008259556 0.0059991495         3925 
 4929000   0.46377963   -9.3252458    488.63706 0.0082612609 0.0059969074         3922 
 4930000   0.45931039     -9.32903    489.27996 0.0082704524 0.0059946661         3912 
 4931000   0.45266996    -9.336135    489.19989  0.008267422 0.0059924258         3911 
 4932000   0.46046492   -9.3314266    488.75505 0.0082582294 0.0059901866         3913 
 4933000   0.46090205   -9.3320165    489.52086 0.0082694921 0.0059879481         3906 
 4934000   0.46418688   -9.3315626    488.91597 0.0082575997 0.0059857113         3890 
 4935000   0.46602954    -9.339432     488.9605 0.0082566785 0.0059834746         3892 
 4936000   0.46691872   -9.3446326     488.4418 0.0082462487 0.0059812407         3908 
 4937000   0.46178554    -9.330685    488.55346 0.0082464631 0.0059790078         3911 
 4938000   0.45897859   -9.3287372    489.35557 0.0082583294 0.0059767746         3913 
 4939000   0.45511683   -9.3273313    489.25268 0.0082549213 0.0059745422         3917 
 4940000   0.44583885   -9.3372666    489.69544 0.0082607193 0.0059723115         3925 
 4941000   0.45897581   -9.3421702    488.96546 0.0082467358 0.0059700814         3908 
 4942000   0.46039477   -9.3248077    488.51028 0.0082373918 0.0059678526         3888 
 4943000   0.46436972   -9.3237205    489.80791 0.0082576019 0.0059656259         3907 
 4944000   0.47267537   -9.3366261    489.48601 0.0082505058 0.0059633994         3897 
 4945000   0.45160613   -9.3130257    489.09797 0.0082422981 0.0059611747         3926 
 4946000    0.4568184   -9.3446056    488.41277  0.008229087 0.0059589509         3910 
 4947000   0.45848951   -9.3284226    488.98632 0.0082370852 0.0059567286         3914 
 4948000   0.45529585   -9.3164217    488.83166 0.0082328155 0.0059545078         3910 
 4949000   0.45871428   -9.3307714    489.34257  0.008239755 0.0059522871         3908 
 4950000    0.4631044    -9.342152    488.96273 0.0082316958 0.0059500684         3905 
 4951000    0.4711153   -9.3145579    488.55959 0.0082232477 0.0059478499         3906 
 4952000     0.459413   -9.3469322    488.96403 0.0082283931 0.0059456329         3926 
 4953000   0.45827809   -9.3204928    488.93757 0.0082262866 0.0059434163         3905 
 4954000   0.45178979   -9.3290655    488.20965 0.0082123815  0.005941202         3909 
 4955000   0.45984723   -9.3396829    488.51255 0.0082158181  0.005938987         3920 
 4956000   0.46087492   -9.3368136    488.83674 0.0082196115  0.005936776         3931 
 4957000   0.46185382    -9.338429    488.52072 0.0082126407 0.0059345656         3916 
 4958000   0.46640186   -9.3308362     489.5382  0.008228086 0.0059323546         3894 
 4959000   0.46520876   -9.3419271     488.6027 0.0082107061 0.0059301459         3910 
 4960000   0.46149641    -9.342663    488.24966 0.0082031193 0.0059279375         3913 
 4961000    0.4527276   -9.3274422    489.27615 0.0082187084 0.0059257319         3920 
 4962000   0.46648537   -9.3355696    489.22091 0.0082161244 0.0059235251         3916 
 4963000    0.4548575   -9.3259348    488.94204 0.0082097864 0.0059213195         3909 
 4964000   0.45319861   -9.3316323    488.44807   0.00819984  0.005919116         3906 
 4965000   0.46684195   -9.3397898    489.44091 0.0082148524 0.0059169141         3916 
 4966000   0.44811664   -9.3421457    488.77293  0.008201989  0.005914712         3899 
 4967000   0.45411278   -9.3561531    488.85875 0.0082017776 0.0059125107         3909 
 4968000   0.45425185   -9.3394415    489.21713 0.0082061382 0.0059103107         3914 
 4969000   0.46359902   -9.3384287    489.08921 0.0082023413 0.0059081123         3912 
 4970000   0.46277122   -9.3379147    488.68678 0.0081939433 0.0059059148         3912 
 4971000    0.4513394   -9.3426238    488.59279 0.0081907194 0.0059037168         3923 
 4972000   0.45505857   -9.3376198    488.80244 0.0081925858 0.0059015222         3924 
 4973000   0.44962457   -9.3397591    488.74445 0.0081899667   0.00589933         3903 
 4974000   0.46355385   -9.3442061    488.30721 0.0081809947 0.0058971364         3921 
 4975000   0.45681669   -9.3374682    488.80513 0.0081876906 0.0058949455         3900 
 4976000   0.45446785   -9.3306066      488.574 0.0081821744 0.0058927551         3912 
 4977000   0.46726677   -9.3384664    489.04509 0.0081884182 0.0058905669         3911 
 4978000   0.45854121   -9.3426895    489.13113 0.0081882137 0.0058883781         3900 
 4979000   0.46015264   -9.3354291    488.96538  0.008183795 0.0058861931         3904 
 4980000   0.44912104   -9.3452444    489.37343 0.0081889798 0.0058840084         3899 
 4981000    0.4662847   -9.3527459     488.4826  0.008172432 0.0058818241         3919 
 4982000   0.45869606   -9.3464357     487.9832  0.008162438  0.005879639         3918 
 4983000   0.45391957   -9.3380937    489.07455 0.0081790513 0.0058774575         3919 
 4984000   0.46257042   -9.3297629    488.47332 0.0081673576 0.0058752753         3909 
 4985000   0.45071793   -9.3562511    488.56145 0.0081671923 0.0058730939         3922 
 4986000   0.45061168   -9.3371746     488.9583 0.0081721872 0.0058709144         3917 
 4987000    0.4556927   -9.3402439    488.71253 0.0081664415  0.005868736         3903 
 4988000   0.45063577   -9.3361125    487.78689   0.00814934  0.005866559         3917 
 4989000   0.45481053   -9.3295913    488.46556 0.0081590426 0.0058643827         3904 
 4990000   0.46803436   -9.3312082     488.2002  0.008152976 0.0058622079         3922 
 4991000   0.45334483   -9.3450393    488.34875 0.0081538226 0.0058600345         3922 
 4992000   0.45636386    -9.346749    488.90541 0.0081614819  0.005857862         3919 
 4993000   0.45640833   -9.3297046    488.47773 0.0081527093 0.0058556911         3893 
 4994000   0.45486889   -9.3418136    488.86187 0.0081574868 0.0058535196         3921 
 4995000   0.45393494   -9.3411899    489.23588 0.0081620934 0.0058513508         3915 
 4996000   0.44352366   -9.3193155    487.82622 0.0081369466 0.0058491818         3906 
 4997000   0.46345454   -9.3352639    488.53129 0.0081470765 0.0058470144         3905 
 4998000   0.44997671   -9.3349834    488.59892  0.008146574 0.0058448475         3906 
 4999000   0.44936476   -9.3466062    489.15422 0.0081542011 0.0058426824         3917 
 5000000   0.44983518   -9.3410994    488.22282 0.0081370471 0.0058405181         3912 
 5001000   0.44933053   -9.3465149    488.37498 0.0081379555  0.005838355         3890 
 5002000   0.44365278   -9.3406174    488.84327 0.0081441302 0.0058361949         3913 
 5003000   0.45457161   -9.3453813    488.61133  0.008138639 0.0058340353         3900 
 5004000   0.46293592   -9.3431381    488.02227 0.0081272028 0.0058318759         3927 
 5005000   0.45456264   -9.3454307    488.67487 0.0081364447 0.0058297161         3902 
 5006000   0.44193033   -9.3346122     488.5362  0.008132511 0.0058275577         3914 
 5007000   0.45034807   -9.3608176    489.29455 0.0081435082 0.0058254009         3888 
 5008000   0.45203353   -9.3503303    488.20547 0.0081237598 0.0058232458         3905 
 5009000   0.45216758   -9.3564033    488.15253 0.0081212572 0.0058210904         3899 
 5010000   0.44377784   -9.3457364    488.36023  0.008123091 0.0058189364         3899 
 5011000   0.45514383   -9.3565838     488.7129 0.0081273349 0.0058167834         3917 
 5012000   0.45454576   -9.3347975    488.89891  0.008128806 0.0058146307         3926 
Loop time of 13278.1 on 48 procs for 5000000 steps with 4000 atoms

Performance: 65069.430 tau/day, 376.559 timesteps/s
99.4% CPU use with 48 MPI tasks x no OpenMP threads

MPI task timing breakdown:
Section |  min time  |  avg time  |  max time  |%varavg| %total
---------------------------------------------------------------
Pair    | 1015       | 1103.4     | 1196.3     | 155.6 |  8.31
Neigh   | 94.274     | 98.053     | 102.06     |  19.1 |  0.74
Comm    | 836.19     | 938.94     | 1045.5     | 169.1 |  7.07
Output  | 18.433     | 18.438     | 18.532     |   0.3 |  0.14
Modify  | 10956      | 10998      | 11043      |  17.6 | 82.83
Other   |            | 121.6      |            |       |  0.92

Nlocal:        83.3333 ave          89 max          78 min
Histogram: 3 3 8 4 7 6 7 4 5 1
Nghost:        2460.62 ave        2473 max        2450 min
Histogram: 3 5 7 4 7 7 7 2 4 2
Neighs:        17104.2 ave       19499 max       15099 min
Histogram: 5 8 5 4 3 6 6 4 3 4
FullNghs:      34207.3 ave       36566 max       31862 min
Histogram: 3 1 9 5 5 8 5 7 4 1

Total # of neighbors = 1641949
Ave neighs/atom = 410.48725
Neighbor list builds = 265928
Dangerous builds = 1

#clear
#
#next RN
#
#jump SELF
Total wall time: 3:41:22
