
units lj                  # Use reduced LJ style units
atom_style atomic         # Uncharged point particles
atom_modify map hash      # Needed for indexing of clusters etc
                          # Used to be able to find where atoms are in relation to each other.

lattice fcc 1.0 spacing 1 1 1
Lattice spacing in x,y,z = 1.5874011 1.5874011 1.5874011
region box block 0 10 0 10 0 10 units lattice
create_box 2 box
Created orthogonal box = (0.0000000 0.0000000 0.0000000) to (15.874011 15.874011 15.874011)
  3 by 4 by 4 MPI processor grid
create_atoms 1 box
Created 4000 atoms
  using lattice units in orthogonal box = (0.0000000 0.0000000 0.0000000) to (15.874011 15.874011 15.874011)
  create_atoms CPU = 0.003 seconds
set type 1 type/fraction 2 0.24 78393
Setting atom values ...
  997 settings made for type/fraction
mass 1 1.0
mass 2 1.0
pair_style lj/cut  3.5
pair_modify tail  yes
pair_coeff 1  1  1.0  1.0   # Intearaction between 1 and 1 set with epsilon = 1 and sigma = 1
pair_coeff 1  2  1.5  0.8
pair_coeff 2  2  0.5  0.88

write_data data.0
System init for write_data ...
Neighbor list info ...
  update every 1 steps, delay 10 steps, check yes
  max neighbors/atom: 2000, page size: 100000
  master list distance cutoff = 3.8
  ghost atom cutoff = 3.8
  binsize = 1.9, bins = 9 9 9
  1 neighbor lists, perpetual/occasional/extra = 1 0 0
  (1) pair lj/cut, perpetual
      attributes: half, newton on
      pair build: half/bin/atomonly/newton
      stencil: half/bin/3d
      bin: standard
WARNING: Not all mixed pair coeffs generated from mixing. Use write_data with 'pair ij' option to store all pair coeffs. (../write_data.cpp:312)


#############################
#   M E L T   S Y S T E M   #
#############################

velocity all create 2.4 2750902 mom yes dist gaussian # Assign velocities
                                                    # Temperature 2.4, random number seed, zero linear momentum
                                                                                # Gaussian distribution

timestep 0.002   # simulation timestep
thermo 1000       # output thermodynamic data every 1000 steps bf 100

# Define a fix  in this case with index 1 applied to all
# particles in the simulation. This fix is for simulations
# in the anisotropic NPT ensemble. Note that we use the MTK
# correction.
fix 1 all npt temp 2.4 2.4 0.1 iso 5.68 5.68 0.5 mtk yes tchain 5 pchain 5 # Use NPT ensemble
                                                                         # Set temperature and pressure and damping
                                                                         # Numbers of thermostats in chain and in barostat
run 10000          # run for 10000 steps
Per MPI rank memory allocation (min/avg/max) = 3.642 | 3.644 | 3.648 Mbytes
Step Temp E_pair E_mol TotEng Press Volume 
       0          2.4   -6.7864136            0   -3.1873136   -3.7949501         4000 
    1000    2.4005348   -4.9480129            0   -1.3481109    5.7362042    4306.6564 
    2000    2.3290757   -4.9102158            0   -1.4174757    5.4109686     4357.718 
    3000    2.3748641   -4.9166201            0   -1.3552145    5.6711035     4320.053 
    4000    2.4460554   -4.8907786            0   -1.2226127    5.9761924    4317.7029 
    5000    2.3754432   -4.9549384            0   -1.3926644    5.5713341    4324.1529 
    6000    2.3796256   -4.8457488            0   -1.2772027    5.6691125    4368.2558 
    7000    2.4086146     -4.86037            0   -1.2483513     5.990659    4330.8983 
    8000    2.3981456   -4.8574506            0   -1.2611315    5.6643741    4358.5236 
    9000    2.4018624   -4.8990657            0   -1.2971728    5.6661338    4344.9341 
   10000    2.4299977   -4.8774053            0     -1.23332    5.3070539    4394.2398 
Loop time of 2.32627 on 48 procs for 10000 steps with 4000 atoms

Performance: 742820.391 tau/day, 4298.729 timesteps/s
99.6% CPU use with 48 MPI tasks x no OpenMP threads

MPI task timing breakdown:
Section |  min time  |  avg time  |  max time  |%varavg| %total
---------------------------------------------------------------
Pair    | 1.0093     | 1.0623     | 1.1816     |   3.5 | 45.66
Neigh   | 0.19747    | 0.20596    | 0.22103    |   1.1 |  8.85
Comm    | 0.66147    | 0.79785    | 0.88307    |   5.0 | 34.30
Output  | 0.00025116 | 0.00025573 | 0.00031533 |   0.0 |  0.01
Modify  | 0.20891    | 0.24524    | 0.2766     |   3.4 | 10.54
Other   |            | 0.01467    |            |       |  0.63

Nlocal:        83.3333 ave          91 max          73 min
Histogram: 1 2 5 4 5 8 7 6 5 5
Nghost:        1544.58 ave        1572 max        1523 min
Histogram: 3 7 5 6 7 8 6 4 1 1
Neighs:        8687.35 ave        9891 max        7444 min
Histogram: 2 2 8 5 5 6 9 4 5 2

Total # of neighbors = 416993
Ave neighs/atom = 104.24825
Neighbor list builds = 904
Dangerous builds = 205

# Equilibrate just above the melting temperature to avoid step fn in T

fix 1 all npt temp 1.25 1.25 0.1 iso 5.68 5.68 0.5 mtk yes tchain 5 pchain 5
run 2000
Per MPI rank memory allocation (min/avg/max) = 3.643 | 3.645 | 3.649 Mbytes
Step Temp E_pair E_mol TotEng Press Volume 
   10000    2.4299977   -4.8774053            0     -1.23332    5.3070539    4394.2398 
   11000    1.2589582   -6.6593191            0   -4.7713538    5.4707007    3538.7047 
   12000    1.2401573   -6.7086925            0   -4.8489216    5.6147637    3511.1666 
Loop time of 0.512169 on 48 procs for 2000 steps with 4000 atoms

Performance: 674777.598 tau/day, 3904.963 timesteps/s
99.7% CPU use with 48 MPI tasks x no OpenMP threads

MPI task timing breakdown:
Section |  min time  |  avg time  |  max time  |%varavg| %total
---------------------------------------------------------------
Pair    | 0.22453    | 0.25164    | 0.27948    |   2.2 | 49.13
Neigh   | 0.03254    | 0.035174   | 0.038097   |   0.6 |  6.87
Comm    | 0.14271    | 0.17339    | 0.20186    |   2.9 | 33.85
Output  | 5.398e-05  | 5.5265e-05 | 6.7806e-05 |   0.0 |  0.01
Modify  | 0.043419   | 0.047399   | 0.051323   |   1.0 |  9.25
Other   |            | 0.004506   |            |       |  0.88

Nlocal:        83.3333 ave          93 max          74 min
Histogram: 1 0 5 14 6 10 5 4 2 1
Nghost:        1792.29 ave        1819 max        1759 min
Histogram: 2 0 4 4 4 14 8 5 5 2
Neighs:        10874.2 ave       12118 max        9885 min
Histogram: 3 3 11 5 8 6 4 2 2 4

Total # of neighbors = 521964
Ave neighs/atom = 130.49100
Neighbor list builds = 143
Dangerous builds = 14

#############################
# L I N E A R  Q U E N C H  #
#############################

# Define solid atoms. This closely follows ten Wolde  Ruiz-Montero and Frenkel  Faraday Discuss  1996  104  93-110
# Compute components of the per-atom q6 vector
compute q6 all orientorder/atom degrees 1 6 components 6 nnn NULL cutoff 1.3 # compute the Q6 parameter.
                                                                             # Use all neighbours within 1.3 unit cell.

# get number of connections
compute coord_number all coord/atom orientorder q6 0.5

# An atom is solid if it has 8 or more connections (of a possible 14)
variable is_solid atom c_coord_number>=8
group solid dynamic all var is_solid    # Must be dynamic to update
dynamic group solid defined

# do clustering
compute cluster solid cluster/atom 1.3 # Create a cluster where all atoms within are solid and max 1.3 units from another member

# define chunks one chunk per cluster
compute clus_chunks solid chunk/atom c_cluster nchunk every compress yes  # Says which atoms are in which chunk

# count the size of each chunk
compute size_chunks solid property/chunk clus_chunks count


# Find the maximum entry in the vector of chunk sizes
variable max_n equal max(c_size_chunks)


# Thermo style which includes this variable
# thermo_style custom step temp pe vol v_max_n

thermo ${N}  # Print the thermo information every 100 steps
thermo 1000  

# Reset the npt fix at a lower temperature (below freezing)
fix 1  all npt temp  ${temp} ${temp}  0.1  iso  5.68  5.68  0.5  mtk yes tchain  5  pchain  5
fix 1  all npt temp  0.45 ${temp}  0.1  iso  5.68  5.68  0.5  mtk yes tchain  5  pchain  5
fix 1  all npt temp  0.45 0.45  0.1  iso  5.68  5.68  0.5  mtk yes tchain  5  pchain  5

dump dmp2 all dcd ${N} traj.dcd
dump dmp2 all dcd 1000 traj.dcd


compute msd all msd com yes
variable twopoint equal c_msd[4]/6/(step*dt+1.0e-6)
fix 9 all vector 10 c_msd[4]
variable fit equal slope(f_9)/6/(10*dt)
thermo_style custom step temp pe c_msd[4] v_twopoint v_fit v_max_n

fix 1 all npt temp 1.25 ${temp} 0.1 iso 5.68 5.68 0.5 mtk yes tchain 5 pchain 5
fix 1 all npt temp 1.25 0.45 0.1 iso 5.68 5.68 0.5 mtk yes tchain 5 pchain 5
run 5000000 # 5000000  # Run for this many steps
Neighbor list info ...
  update every 1 steps, delay 10 steps, check yes
  max neighbors/atom: 2000, page size: 100000
  master list distance cutoff = 3.8
  ghost atom cutoff = 3.8
  binsize = 1.9, bins = 8 8 8
  4 neighbor lists, perpetual/occasional/extra = 1 3 0
  (1) pair lj/cut, perpetual
      attributes: half, newton on
      pair build: half/bin/atomonly/newton
      stencil: half/bin/3d
      bin: standard
  (2) compute orientorder/atom, occasional
      attributes: full, newton on
      pair build: full/bin/atomonly
      stencil: full/bin/3d
      bin: standard
  (3) compute coord/atom, occasional
      attributes: full, newton on
      pair build: full/bin/atomonly
      stencil: full/bin/3d
      bin: standard
  (4) compute cluster/atom, occasional
      attributes: full, newton on
      pair build: full/bin/atomonly
      stencil: full/bin/3d
      bin: standard
Per MPI rank memory allocation (min/avg/max) = 9.801 | 9.806 | 9.811 Mbytes
Step Temp PotEng c_msd[4] v_twopoint v_fit v_max_n 
   12000    1.2401573   -6.7086925 1.8625006e-30 1.2934031e-32 8.3333333e+20            1 
   13000    1.2458423   -6.6981228   0.52595619 0.0033715139  0.043197764            1 
   14000    1.2774618   -6.6907082    1.0445749 0.0062177076  0.043387512            3 
   15000    1.2289018   -6.7429586    1.5634841 0.0086860223  0.042704242            1 
   16000    1.2554047   -6.6869419    1.9980845   0.01040669   0.04179821            1 
   17000    1.2423133   -6.6921266     2.538281  0.012442554  0.041391622            1 
   18000    1.2547057   -6.7104837    2.9827917  0.013809221  0.041167087            2 
   19000    1.2286953   -6.6509738    3.4744231  0.015238697  0.040888355            2 
   20000    1.2295424    -6.722467     3.959637  0.016498487  0.040798099            3 
   21000    1.2215015   -6.7334969    4.4681559  0.017730777  0.040747108            1 
   22000    1.2504794   -6.6754461    4.9756593  0.018847194  0.040789796            1 
   23000    1.2772497   -6.6888272    5.5014859   0.01993292  0.040952829            1 
   24000    1.2457479   -6.6874661    5.9727046  0.020738557   0.04110058            2 
   25000    1.2286626   -6.6326618    6.4581231  0.021527076  0.041097522            3 
   26000    1.2589999   -6.7275949    6.9081834  0.022141613  0.041044734            1 
   27000    1.2350518   -6.6934366    7.4598301  0.023024167  0.041126391            2 
   28000    1.2488902   -6.6915441    8.0722065  0.024024424   0.04131285            2 
   29000    1.2352551   -6.6740691    8.6492892  0.024854279  0.041502944            1 
   30000    1.2515935   -6.6967041    9.0461665   0.02512824  0.041635895            2 
   31000    1.2371431   -6.6884499    9.4873214  0.025503552  0.041627592            1 
   32000    1.2427025   -6.7033955    10.068612  0.026220342  0.041632019            1 
   33000    1.2653647   -6.7185829    10.574312  0.026702807  0.041687177            1 
   34000    1.2515868   -6.6960501    11.033511  0.027042918  0.041716109            1 
   35000    1.2280537   -6.7229833    11.468897  0.027306897  0.041717513            1 
   36000    1.2580606   -6.7127205      11.9654  0.027697686  0.041682143            3 
   37000     1.240576   -6.7311857    12.424084  0.027982171   0.04161608            1 
   38000    1.2313305   -6.6923132    12.886264   0.02825935  0.041535447            2 
   39000    1.2595498   -6.6925974    13.499845  0.028845821  0.041498473            2 
   40000     1.258873   -6.7542399    13.909592  0.028978315  0.041501931            1 
   41000     1.254952    -6.738999    14.353081  0.029172928  0.041482219            1 
   42000    1.2263015   -6.7042046    14.915702  0.029594647  0.041475231            1 
   43000    1.2352261   -6.6993718    15.311495  0.029673439  0.041441996            1 
   44000    1.2440348   -6.7260891    15.777983  0.029882543  0.041382672            1 
   45000    1.2473085   -6.6920038    16.266906  0.030123899  0.041325832            2 
   46000    1.2303828   -6.7193791    16.825833  0.030481581  0.041293431            1 
   47000    1.2464994    -6.731071    17.257702  0.030598762  0.041249995            2 
   48000    1.2546017   -6.7267725    17.582068  0.030524423  0.041182651            2 
   49000    1.2529952   -6.7294021    18.035151  0.030672025  0.041078355            3 
   50000     1.247361   -6.7145994    18.572289  0.030953815  0.040991095            1 
   51000    1.2362295   -6.7191661    19.041292  0.031113222  0.040916547            1 
   52000    1.2353276   -6.7404103    19.518501  0.031279649   0.04086482            2 
   53000    1.2498119   -6.7364066    19.998293  0.031443857  0.040813363            3 
   54000    1.2505079   -6.7129283    20.380343  0.031451147  0.040743586            1 
   55000    1.2182735   -6.7278156    20.844132  0.031582018   0.04065122            2 
   56000    1.2393224   -6.6824808    21.266059  0.031645921  0.040570171            2 
   57000    1.2215118   -6.7264292    21.881121  0.031989943  0.040513552            3 
   58000     1.245797   -6.6952993    22.314983  0.032061757  0.040483817            3 
   59000    1.2299056   -6.7040068    22.958339  0.032427032   0.04044005            2 
   60000    1.2682833   -6.7085975    23.297459  0.032357582   0.04040504            2 
   61000    1.2341584   -6.6994911    23.720824  0.032405498   0.04036358            2 
   62000    1.2411816   -6.7226917    24.285797    0.0326422  0.040322347            3 
   63000    1.2332641   -6.7011584    24.810843  0.032818576  0.040304524            2 
   64000    1.2500696   -6.7182006    25.286316  0.032924891  0.040290604            2 
   65000    1.2621596   -6.7129345    25.935979  0.033251255  0.040280192            1 
   66000    1.2290143   -6.6827835     26.34269  0.033260973  0.040288823            1 
   67000    1.2602166   -6.7322746    26.759554  0.033283027  0.040282344            2 
   68000    1.2707848   -6.7562989    27.178041  0.033306422  0.040259166            1 
   69000    1.2486328   -6.7057619    27.712566  0.033469282   0.04025627            2 
   70000     1.266814   -6.6824459    28.307432  0.033699323  0.040252188            1 
   71000    1.2505477   -6.7525369    28.670411  0.033650717  0.040247508            2 
   72000    1.2545433   -6.7231225    28.966246  0.033525748  0.040232285            2 
   73000    1.2616565   -6.7082527    29.511434  0.033688851  0.040209859            1 
   74000    1.2254831   -6.7203693    29.978874  0.033759993  0.040190338            1 
   75000    1.2522953    -6.721009    30.389914  0.033766571  0.040163278            2 
   76000    1.2446821   -6.7240404    30.797745  0.033769457   0.04013231            4 
   77000     1.263975   -6.7456936    31.125561  0.033685672  0.040097295            1 
   78000    1.2300172   -6.7126913    31.673066  0.033838745  0.040064277            2 
   79000    1.2330572   -6.7275891    32.131581  0.033894072  0.040022356            5 
   80000    1.2395863   -6.7187222    32.767176  0.034132475  0.039992395            3 
   81000    1.2501783   -6.7555199    33.082482  0.034035475  0.039964572            1 
   82000    1.2431905   -6.6959429    33.669699  0.034217174  0.039944278            1 
   83000    1.2493579   -6.7410759    34.040471  0.034177179  0.039923355            1 
   84000    1.2426721   -6.7281586    34.644841  0.034369881  0.039898337            1 
   85000    1.2376755   -6.6986115    35.347993  0.034654895  0.039893827            1 
   86000    1.2351205   -6.6915866    35.789597  0.034679842  0.039896708            3 
   87000    1.2454599   -6.7701338    36.101042  0.034579542  0.039894478            2 
   88000    1.2426583   -6.7512626    36.586435  0.034646245  0.039893901            1 
   89000    1.2483598   -6.7523273    36.843555  0.034497711  0.039876955            4 
   90000    1.2351166   -6.7111044    37.431867  0.034659136  0.039848231            4 
   91000    1.2783254   -6.7206442    38.046402  0.034841027   0.03983841            2 
   92000    1.2332289   -6.7443615    38.601226  0.034964879  0.039837346            2 
   93000    1.2731408    -6.683258    39.074447  0.035012945  0.039835655            2 
   94000    1.2476679   -6.7481856    39.262941  0.034807572  0.039822973            1 
   95000    1.2449767   -6.7241958    39.757774   0.03487524  0.039810407            2 
   96000    1.2347372   -6.6865723    40.591793  0.035235931  0.039803621            1 
   97000    1.2256721   -6.7262679    41.044176  0.035261319  0.039808949            2 
   98000    1.2197689   -6.7426271    41.557294  0.035337834  0.039815402            2 
   99000    1.2179341   -6.6773847    42.166849   0.03549398  0.039823358            3 
  100000    1.2443297   -6.6974263    42.783448  0.035652873  0.039841342            2 
  101000    1.2362938   -6.7240983    43.202139  0.035645329   0.03986085            1 
  102000    1.2181296   -6.7171608    43.488523  0.035529839   0.03987312            2 
  103000     1.238415   -6.7223897    44.110242  0.035687898  0.039886112            1 
  104000    1.2432602   -6.7331323     44.42148  0.035594135  0.039891625            3 
  105000    1.2305614   -6.7423867    44.909602  0.035642541   0.03988956            2 
  106000    1.2065695   -6.7408221    45.223983  0.035553445  0.039890281            3 
  107000    1.1988523   -6.7140428    45.673037  0.035570901  0.039888551            3 
  108000    1.2037506   -6.7482519    45.985715  0.035482805  0.039881597            1 
  109000    1.2417111   -6.7563318     46.39001  0.035466368  0.039864064            1 
  110000    1.2336139   -6.7099996    47.010205  0.035613792  0.039850227            2 
  111000    1.2529979   -6.7150175     47.15749  0.035403521  0.039828639            1 
  112000    1.2416871    -6.731867    47.523753  0.035359935  0.039802217            1 
  113000    1.2349176   -6.7623874    47.919297  0.035338715  0.039773011            1 
  114000    1.2381758   -6.7180568    48.603274  0.035528709  0.039748331            3 
  115000      1.24062   -6.7477293    49.015648  0.035518586  0.039734062            2 
  116000    1.2451757   -6.7322273    49.536978  0.035586909  0.039716847            1 
  117000    1.2470849   -6.7427132    50.140995  0.035712959  0.039701467            2 
  118000    1.2389298   -6.7078807    50.870774  0.035925688  0.039699384            2 
  119000    1.2210713   -6.7102878    51.504205   0.03606737  0.039707738            1 
  120000    1.2260336   -6.7574896    51.858855  0.036013093  0.039718855            4 
  121000    1.2336825   -6.7139216    52.446929  0.036120475  0.039722932            2 
  122000    1.2377815   -6.7681127     52.71672  0.036008688  0.039723963            2 
  123000    1.1839627   -6.7261181      53.0276  0.035926558  0.039719735            2 
  124000    1.2407008   -6.7343413    53.621799  0.036036155   0.03971676            2 
  125000    1.2113365   -6.7389474    54.324413  0.036216275   0.03971828            1 
  126000    1.2464893   -6.7434928    54.618916  0.036123622  0.039720787            1 
  127000    1.1984046   -6.7330124    55.196744  0.036218336  0.039722715            1 
  128000    1.2337729   -6.6936258    55.982324  0.036446825  0.039728407            2 
  129000    1.2411139   -6.7688852    56.387306  0.036425908   0.03974002            1 
  130000    1.2180154   -6.7399432     56.72732  0.036363667  0.039750695            2 
  131000    1.2125742   -6.7255742    57.156256  0.036358941  0.039754257            2 
  132000    1.2257434   -6.6872623    57.605432  0.036367066  0.039758508            1 
  133000     1.221384    -6.696674    58.337926  0.036552585  0.039761138            3 
  134000    1.2676808   -6.6956926    58.610004  0.036449007  0.039763461            1 
  135000    1.2430006   -6.7719743    58.680799  0.036222715  0.039763075            1 
  136000    1.2141567   -6.7431799    59.501935  0.036459519  0.039760343            1 
  137000    1.2228208   -6.7513107    59.908762  0.036440853  0.039763293            2 
  138000    1.2412128   -6.7054549    60.417648  0.036484087  0.039761183            3 
  139000    1.2365357   -6.7405886    61.052426  0.036602173  0.039762232            1 
  140000    1.2236252   -6.7044003    61.720818  0.036738582  0.039763728            3 
  141000     1.250758   -6.7298181    61.861757  0.036561322  0.039764393            1 
  142000    1.2372351   -6.7591576    62.422718   0.03663305   0.03976329            5 
  143000    1.2568654   -6.7228191    62.729506  0.036555656  0.039762214            2 
  144000    1.2289658   -6.7476862    63.591461  0.036800614  0.039766239            2 
  145000    1.2388648   -6.7496612    64.066649  0.036819913  0.039772009            3 
  146000    1.2404366   -6.7306709    64.855262  0.037017843   0.03977957            2 
  147000    1.2195875   -6.7219661    65.350202    0.0370466  0.039788444            1 
  148000    1.2231355   -6.7315571    65.748916  0.037020786  0.039799006            1 
  149000    1.2424439   -6.7764877    66.193698  0.037021084  0.039811644            2 
  150000     1.223432   -6.7044087    67.145693  0.037303163  0.039828967            1 
  151000    1.2257608   -6.7505646    67.423801  0.037209603  0.039845855            2 
  152000    1.2170038   -6.7192868    68.073219  0.037320844  0.039863398            2 
  153000    1.2137552   -6.7272045    68.610497  0.037369552  0.039883442            1 
  154000    1.2245127   -6.7185672    69.152977  0.037420442  0.039900119            3 
  155000    1.2309615   -6.7688686    69.704825  0.037475712  0.039916037            2 
  156000    1.2142087   -6.7552903    70.180704  0.037489692  0.039935343            2 
  157000    1.2360412   -6.7397336    70.674508  0.037513009  0.039956506            1 
  158000    1.2432103   -6.7670203    71.186134  0.037545429  0.039981057       -1e+20 
  159000    1.2037147   -6.7547834    71.777309  0.037619135  0.040000964            2 
  160000     1.241361   -6.7852625    71.880733  0.037437882  0.040013535            1 
  161000     1.230511   -6.7503647    72.100645  0.037319175   0.04002178            1 
  162000    1.2292332   -6.8175168    72.428606  0.037257513  0.040029563            1 
  163000    1.2143902   -6.7786586    72.506741  0.037068886  0.040028993            1 
  164000    1.2243816   -6.7555173    73.123318  0.037156157  0.040025351            2 
  165000     1.239409   -6.7548153    73.128221  0.036933445   0.04001938            1 
  166000    1.2449836   -6.7456946    73.393648  0.036844201   0.04001029            1 
  167000    1.2130589   -6.7245642     74.21102  0.037031447  0.040000507            1 
  168000     1.240138   -6.7763111    74.364013  0.036886911  0.039990379            1 
  169000    1.2531779   -6.7734274    74.871011  0.036918645   0.03997398            3 
  170000    1.2414251   -6.7557674    75.347566  0.036935081  0.039960869            1 
  171000    1.1932851    -6.757753    75.856585  0.036967147  0.039946598            1 
  172000     1.233772   -6.7423391     76.16033  0.036899385  0.039933901            1 
  173000    1.2400888   -6.7384217    77.049182  0.037114249  0.039922536            1 
  174000    1.2233768   -6.7607511    77.244791  0.036994632  0.039913884            2 
  175000    1.2057438   -6.7756662    77.829275   0.03706156  0.039904039            2 
  176000    1.2226927   -6.7743143    78.139122   0.03699769  0.039893921            2 
  177000    1.2290243   -6.7649437    78.452421  0.036936168  0.039882907            3 
  178000    1.2431178   -6.7564635    78.910839  0.036943277  0.039872372            1 
  179000    1.2272708   -6.7256347    80.122958  0.037301191  0.039867533            4 
  180000    1.2238816   -6.7402539    80.420254  0.037231599  0.039864194            2 
  181000    1.2020727   -6.7161216    80.893803  0.037243924  0.039858178            1 
  182000    1.2292987   -6.7274301     81.35493  0.037250426  0.039849958            2 
  183000    1.2214552   -6.7487631    81.819531  0.037258438  0.039844265            5 
  184000    1.2299206   -6.7404339    82.803176  0.037501438  0.039843891            1 
  185000    1.2696234   -6.7435522    83.074941  0.037421145  0.039845105            2 
  186000    1.2255794   -6.7662459    83.032453   0.03720092  0.039845219            2 
  187000    1.2026703   -6.7596373    84.307042  0.037569983  0.039843707            3 
  188000     1.240024   -6.7712256    84.367928  0.037397131   0.03984329            1 
  189000    1.2024672   -6.7578057    84.753606  0.037369315  0.039841685            2 
  190000    1.2392575   -6.7691639    85.106123  0.037327247  0.039840296            1 
  191000     1.212522   -6.7675853    85.432305  0.037274129  0.039834644            4 
  192000    1.2381211   -6.7856886    86.171884  0.037400991  0.039830103            1 
  193000    1.1947992    -6.730472    86.930246  0.037534649  0.039826266            1 
  194000    1.2163348   -6.7368398    87.407503  0.037546178  0.039825097            1 
  195000    1.2088718   -6.7944995    87.905625  0.037566506  0.039827428            3 
  196000    1.2222035   -6.7595747    88.591868  0.037666611  0.039831512            1 
  197000    1.2066134   -6.7661945    89.009498  0.037652072  0.039836094            3 
  198000    1.2425749   -6.7583762    89.732829  0.037766342   0.03984114            3 
  199000    1.2129487   -6.7551243    90.521778  0.037906942  0.039847529            2 
  200000    1.2244144   -6.7628605    90.640598  0.037766916  0.039854884            3 
  201000    1.2099262   -6.7324783    91.040425  0.037744787  0.039860365            1 
  202000    1.1934782   -6.7737488    91.587476  0.037783612  0.039866291            3 
  203000    1.2202666   -6.7911312    92.252783    0.0378706  0.039871734            1 
  204000    1.2429532   -6.7553023    92.780262  0.037900434  0.039879333            1 
  205000    1.2442458   -6.8041721    93.397141  0.037966317   0.03988738            1 
  206000      1.20131   -6.7215195    93.952502  0.038006675  0.039896217            2 
  207000    1.2263082   -6.7722668    94.104033  0.037884071  0.039904928            2 
  208000    1.1913951   -6.7456169    94.912686  0.038025916  0.039914746            2 
  209000    1.2360773   -6.7556311    95.088605  0.037914117  0.039923248            1 
  210000    1.2008102   -6.7572729    95.548789  0.037916186  0.039929538            2 
  211000    1.2405647   -6.7921865    95.843231  0.037852777   0.03993436            1 
  212000    1.2102478    -6.792225    96.672458   0.03800018   0.03993907            3 
  213000    1.2150527   -6.7960626    96.972267  0.037939072  0.039944083            2 
  214000    1.2286678   -6.7538903    97.088218  0.037806938  0.039947361            2 
  215000    1.2171571   -6.7387389    97.736484  0.037882358  0.039950319            1 
  216000    1.1939798   -6.7844768    98.179892  0.037878045  0.039954207            2 
  217000    1.1908987   -6.8194674    98.405318  0.037790061  0.039955347            2 
  218000    1.2399122   -6.7330828    99.734009  0.038124621    0.0399592            2 
  219000    1.1877387   -6.7630322    99.949825  0.038032658   0.03996339            1 
  220000     1.200767   -6.7392622    100.06063  0.037901753  0.039968201            2 
  221000     1.185375   -6.7679682    100.43839  0.037872695  0.039969658            1 
  222000    1.2161417   -6.7915373     101.1597   0.03797286  0.039970055            1 
  223000    1.2045015   -6.8147177    100.99663  0.037741641  0.039967724            3 
  224000    1.2222983   -6.7884426    101.15844  0.037633349  0.039966281            5 
  225000    1.2313266   -6.7396318    101.87546  0.037731653  0.039959276            1 
  226000    1.1990094   -6.7531485    102.24147  0.037699659  0.039952107            6 
  227000    1.2213722   -6.7626753    102.59751  0.037664285  0.039943562            2 
  228000      1.22079   -6.7905519    102.79087  0.037569764  0.039935416            2 
  229000    1.2029249   -6.7202446    103.50822  0.037666745   0.03992603            2 
  230000    1.2012491   -6.7906136    103.52696  0.037509769  0.039916931            4 
  231000    1.2012253   -6.7497576    104.26178  0.037612475  0.039909016            4 
  232000    1.2387968   -6.7941613    104.16907  0.037417052  0.039898584            2 
  233000    1.2184186   -6.7623524    104.44076  0.037353632  0.039884475            2 
  234000    1.2207239   -6.7263065    105.39638  0.037534322  0.039869347            2 
  235000    1.2079072   -6.7710747    105.28239  0.037334183  0.039853621            1 
  236000    1.2345459   -6.7602068    105.90303  0.037395136  0.039838318            2 
  237000    1.2410521   -6.7810551    106.72246  0.037525477  0.039824395            1 
  238000     1.221338   -6.7782617    106.96795  0.037453765  0.039810633            2 
  239000    1.1914243   -6.7651698    107.67992    0.0375453  0.039797298            1 
  240000    1.1947101   -6.7556629    107.98839   0.03749597  0.039781813            1 
  241000    1.2146523   -6.7688925     107.9641  0.037331984  0.039766285            2 
  242000    1.2327765   -6.8076084    108.59556  0.037395164  0.039751529            1 
  243000    1.2177751   -6.7423907    109.26166  0.037469706  0.039739094       -1e+20 
  244000      1.18777   -6.7775476    109.87135  0.037524367   0.03972582            1 
  245000    1.2013329   -6.8394075    109.91204  0.037385047  0.039713459            2 
  246000    1.2241388   -6.8186771    110.48596  0.037427493  0.039701282            2 
  247000    1.2139573    -6.729206    111.12964   0.03749313  0.039689607            3 
  248000    1.2236233   -6.8086014    111.00031   0.03729849  0.039677414            4 
  249000    1.2311977   -6.7977439     112.1682  0.037539559  0.039664965            1 
  250000    1.2292269   -6.7766353    112.34173  0.037447242  0.039652696            2 
  251000    1.2216076   -6.7687365     113.2551  0.037601294  0.039640281            2 
  252000    1.1979225   -6.7617624    113.33278  0.037477771    0.0396275            2 
  253000    1.2128384   -6.7799583    113.36204  0.037339277   0.03961252            1 
  254000    1.2317673   -6.7496108    114.01628  0.037406915  0.039598554            3 
  255000    1.2019612   -6.7720288    114.51804  0.037424197  0.039586043            2 
  256000     1.204682   -6.7782282    115.19702  0.037499031  0.039573906            2 
  257000    1.2296568   -6.7730706    115.07227   0.03731267  0.039558375            2 
  258000    1.2034073   -6.7713319    115.32732  0.037250425  0.039541648            3 
  259000    1.2149274   -6.7315838    115.87818  0.037283841  0.039525051            1 
  260000    1.1807078   -6.7708797    115.89588  0.037146116  0.039508259            1 
  261000    1.2125457   -6.8033642    116.30105  0.037133157  0.039490895            1 
  262000    1.2091061   -6.7899637    117.01096  0.037217227  0.039472186            2 
  263000    1.1966594   -6.7394975    117.50881  0.037233462  0.039454258            2 
  264000    1.1971899     -6.79164    117.75454  0.037169993  0.039437957            2 
  265000    1.2194995   -6.8022427    118.70311  0.037328022  0.039422668            2 
  266000    1.2328939   -6.7400295    119.15357  0.037328811  0.039408954            1 
  267000    1.1981775   -6.7884532    119.27057  0.037225522  0.039393565            1 
  268000    1.2214642   -6.8032793    119.64143  0.037201936  0.039378739            3 
  269000    1.2192823   -6.7636849     120.2229  0.037243772  0.039362803            1 
  270000    1.2105026   -6.7798938    120.69678  0.037252094  0.039347333            2 
  271000    1.1917906   -6.7607495    121.01077  0.037211185  0.039333511            1 
  272000    1.2254262    -6.765033    121.70103  0.037285856  0.039318789            1 
  273000     1.196336     -6.75111    122.08163  0.037265455  0.039304901            2 
  274000      1.20076    -6.780136    122.64098  0.037299567  0.039290539            3 
  275000    1.2300927   -6.7692073    122.75054  0.037197133  0.039275828            2 
  276000    1.2158047   -6.7426824    123.40666  0.037260465  0.039261489            2 
  277000    1.1982432   -6.7742502    123.69538   0.03721281   0.03924805            4 
  278000    1.2092167   -6.7595121    124.22379  0.037237348  0.039234004            3 
  279000    1.2296418   -6.8012531      124.646  0.037229988  0.039221006            2 
  280000    1.2153371   -6.7556666    125.37759  0.037314758  0.039207008            2 
  281000    1.1881862    -6.806229    125.22031  0.037135323  0.039193558            2 
  282000    1.2000875   -6.7993664    125.86239  0.037193379  0.039180112            1 
  283000    1.1920604   -6.7728429     126.3911   0.03721764  0.039167656            3 
  284000    1.1888245   -6.7985116    127.38349  0.037377786  0.039155889            4 
  285000      1.21177   -6.7636501    127.86641  0.037387839  0.039146114            4 
  286000    1.2219669   -6.7813794    127.68603  0.037204553  0.039134979            3 
  287000    1.2466029   -6.7763849    128.25914  0.037241331  0.039122622            1 
  288000    1.2170618   -6.7910624    129.25957  0.037401495  0.039111755            3 
  289000    1.1921222   -6.7680477    129.40647  0.037314439  0.039101587            2 
  290000    1.2366083    -6.777875    130.07796  0.037378723  0.039092227            1 
  291000    1.1844597   -6.7957021    130.14847  0.037270467  0.039082191            1 
  292000    1.1707105   -6.8010629    130.47754  0.037236741  0.039072891            3 
  293000    1.1886928   -6.7665104    131.59196  0.037426608  0.039063407            1 
  294000    1.1637292   -6.7896047    131.70155   0.03733037  0.039053015            2 
  295000    1.2185292   -6.7757178    131.88341  0.037255201  0.039042721            2 
  296000    1.1861087   -6.7753483    132.92907  0.037423725  0.039032315            1 
  297000    1.2182907   -6.8120125    132.62135  0.037211379  0.039022386            1 
  298000    1.2088685   -6.7999391    133.78788  0.037412719  0.039012748            1 
  299000    1.2165918   -6.8012982     133.9866  0.037342978  0.039003085            1 
  300000    1.2058127    -6.789789    134.80169  0.037444913  0.038995622            2 
  301000    1.2100523   -6.7488022    135.66068  0.037558328  0.038989292            1 
  302000    1.1885945   -6.7709589    136.07548   0.03754842  0.038983271            2 
  303000    1.2082826   -6.7364353     136.4793  0.037535561  0.038975898            1 
  304000    1.2072971   -6.7965489    136.54772  0.037430844  0.038968881            2 
  305000    1.1925028   -6.8330144    136.40825  0.037270013  0.038959887            1 
  306000    1.2018555   -6.7937978    137.05241  0.037323642  0.038951094            4 
  307000    1.2159233   -6.7843082    137.90691  0.037434014  0.038942896            2 
  308000    1.2035153   -6.7699954     138.3682  0.037437282  0.038934582            3 
  309000    1.2217204   -6.8252867    138.82547  0.037439448  0.038927022            3 
  310000     1.199887   -6.7778844    139.07572  0.037385947  0.038918887            1 
  311000    1.2021518   -6.8437017    139.32651  0.037332934  0.038910451            2 
  312000    1.2039421   -6.7745632     139.8266  0.037346849  0.038901911            2 
  313000    1.2359312   -6.7465473    140.78991  0.037484003  0.038893599            4 
  314000    1.2053905   -6.7904024    141.44549  0.037538612   0.03888678            1 
  315000    1.2018264   -6.7796517    141.48131  0.037428919  0.038881484            2 
  316000    1.2129713   -6.8130554     142.2314  0.037508279  0.038875187            1 
  317000    1.1811661   -6.7890132    142.24343   0.03739312  0.038869759            1 
  318000    1.2123194   -6.7642583    143.04069  0.037484458  0.038864148            1 
  319000    1.2233116   -6.8064026    143.47128  0.037479435  0.038859074            1 
  320000    1.1925461   -6.8067402    143.83447  0.037456893  0.038853014            2 
  321000    1.2029436   -6.8148505    144.48628  0.037509418  0.038847227            1 
  322000    1.2177475    -6.799462    144.85991  0.037489623  0.038841602            1 
  323000    1.1865353   -6.8052481    145.49169  0.037536555  0.038836961            2 
  324000    1.1770502   -6.8162571    146.06276  0.037567582  0.038832492            2 
  325000    1.2052093    -6.764367    146.35547  0.037527043  0.038827514            1 
  326000    1.1827228   -6.7758982    146.96624  0.037568057  0.038823063            2 
  327000    1.2169708    -6.799079    147.37243  0.037556685   0.03881815            4 
  328000    1.1929808   -6.7596952    148.12322  0.037632931  0.038814178            1 
  329000    1.1718256   -6.8259472    148.12474   0.03751893  0.038810419            2 
  330000    1.2140599   -6.7719551    148.49829  0.037499569  0.038806375            1 
  331000    1.2130456    -6.801762      148.314   0.03733988  0.038801954            2 
  332000    1.2013975   -6.8161464    149.13836  0.037434328  0.038796138            5 
  333000    1.1872582   -6.8107915    149.85812  0.037502033  0.038791606            3 
  334000    1.2026842   -6.7892827     150.6693   0.03759214  0.038787597            2 
  335000    1.2181746   -6.7625164    151.13361  0.037595426  0.038783483            2 
  336000     1.233376   -6.8061094    151.26878  0.037517058  0.038779439            2 
  337000    1.2015405   -6.8091287    151.60767  0.037489532  0.038775337            2 
  338000    1.1985523   -6.7358653    152.04706  0.037486947  0.038770868            2 
  339000    1.2228974   -6.8179237     152.1004   0.03738948  0.038766021            3 
  340000     1.186589   -6.7919154    152.76293  0.037441895  0.038760162            2 
  341000    1.1538732   -6.7510508    154.03907  0.037643956  0.038753712            1 
  342000    1.1980674   -6.7981684    153.48745  0.037399475  0.038747146            1 
  343000    1.2144135   -6.7693921    153.98637  0.037411655  0.038740513            2 
  344000    1.1761181   -6.7802253    154.76071  0.037490481  0.038734544            1 
  345000    1.2030231   -6.8193746    154.53332  0.037326888  0.038727165            3 
  346000     1.208138   -6.8035198    155.85252  0.037536733  0.038719642            2 
  347000    1.1932816   -6.8442781     155.3268  0.037302306  0.038714478            2 
  348000    1.2220342   -6.8232918     156.3297  0.037435274  0.038707979            2 
  349000    1.1707445   -6.7891699    156.33498   0.03732927  0.038702052            2 
  350000    1.2058557   -6.8200841     156.9421  0.037367166  0.038695414            1 
  351000    1.2142342   -6.8378135    157.45991  0.037383645  0.038688824            2 
  352000    1.1746967   -6.7827884    157.88197  0.037377359  0.038682501            2 
  353000    1.1908938   -6.8094453    157.63575   0.03721335  0.038674295            2 
  354000    1.1901329   -6.7930626     157.9399  0.037179826  0.038665025            1 
  355000    1.1827331   -6.8319901    158.61251  0.037232984  0.038655225            2 
  356000    1.2014339   -6.7849175     159.3188  0.037293727  0.038645009            1 
  357000    1.2279846   -6.8111191     159.5069  0.037233169  0.038634887            3 
  358000    1.1892934   -6.7904082    159.80072   0.03719756  0.038624465            2 
  359000    1.1963313   -6.8349794    159.38208  0.036996769  0.038613837            2 
  360000    1.2021955   -6.8292162    160.40054  0.037129754  0.038603281            2 
  361000    1.2007651   -6.7835657     160.6797  0.037091342  0.038593846            1 
  362000    1.1800702   -6.7878346    161.31969   0.03713621  0.038583506            2 
  363000     1.190607   -6.8224976    161.38777  0.037049534  0.038572813            1 
  364000    1.2072032   -6.7962712    161.58178  0.036992166  0.038561103            2 
  365000    1.1952448   -6.7906118    162.25822  0.037045255  0.038549201            2 
  366000    1.2113227   -6.8346186    162.83391  0.037075116   0.03853849            1 
  367000    1.1852364   -6.7789393    163.65989  0.037161646  0.038527628            2 
  368000    1.1816398   -6.7923859    163.86451     0.037107  0.038517377            1 
  369000    1.1813615   -6.8329647    163.79962  0.036991784   0.03850736            2 
  370000    1.1764709   -6.8112688    164.42329  0.037032273  0.038497378            2 
  371000    1.1991947   -6.8044701    164.83668  0.037025309  0.038487449            7 
  372000    1.1900975   -6.8068867    165.63517  0.037104653  0.038476303            1 
  373000    1.1883445   -6.7835872    166.01332  0.037089661  0.038466564            1 
  374000     1.185955   -6.8599677    166.22411  0.037037458  0.038457047            1 
  375000    1.1717872   -6.8366992    167.13518   0.03714115   0.03844698            1 
  376000    1.1852647   -6.8143497    167.50184  0.037123635  0.038437817            1 
  377000    1.1801063   -6.8036351    167.54651  0.037035038  0.038428176            2 
  378000    1.2034435   -6.8107786    167.99101  0.037035056  0.038417838            2 
  379000    1.2018828   -6.8194409    168.03784  0.036947633  0.038407083            2 
  380000    1.1895604   -6.8298972    169.17736  0.037100298  0.038396652            1 
  381000    1.1820814   -6.8215111    169.23009  0.037014455  0.038385812            1 
  382000    1.1911844   -6.8359407    169.00329  0.036868082  0.038375502            3 
  383000    1.2038921    -6.780929    170.57039  0.037112792  0.038365645            2 
  384000    1.1756567   -6.8056602    170.80873  0.037067866  0.038355499            2 
  385000    1.2166637   -6.7924837    170.89703  0.036990699  0.038345258            2 
  386000    1.1804926   -6.8595435    170.98769  0.036914441  0.038334659            2 
  387000    1.1960522   -6.8252124    171.68608   0.03696944  0.038323188            1 
  388000    1.1792595    -6.788177    172.00302   0.03694223   0.03831144            2 
  389000    1.1772676    -6.875287    171.65294  0.036772266  0.038299965            2 
  390000    1.2126583   -6.8245002    173.13248  0.036994119   0.03828914            1 
  391000    1.1807531    -6.806189    173.81468  0.037044901  0.038279548            1 
  392000    1.1972247    -6.867134    173.54815  0.036893739  0.038270357            1 
  393000    1.1982003   -6.8542273    174.23238   0.03694495  0.038261544            1 
  394000    1.1732598   -6.8400893    175.06983  0.037028307  0.038252697            1 
  395000    1.2135264   -6.8048254     175.6537  0.037057744  0.038243571            3 
  396000    1.1799201   -6.8107845    175.61013  0.036954993  0.038233523            1 
  397000    1.1925636   -6.8115158    176.19938  0.036985596  0.038224651            2 
  398000    1.2018128   -6.8087099    175.84535  0.036818541  0.038215622            1 
  399000    1.2164259   -6.7938741    175.79209  0.036715139  0.038204078            3 
  400000    1.1826214   -6.8110253    177.24308  0.036925642   0.03819309            1 
  401000    1.1758619   -6.8196319    177.35442  0.036856695  0.038182607            2 
  402000    1.1747431   -6.8485636    177.72538  0.036841912  0.038171562            1 
  403000    1.1906531   -6.8088657    178.13865  0.036835949  0.038160723            1 
  404000    1.1913115   -6.8266109    177.81824  0.036678679  0.038149357            2 
  405000    1.1881909   -6.8064534     178.3935  0.036706481  0.038138404            2 
  406000    1.1938206    -6.796383    179.16211  0.036773832  0.038127084            4 
  407000    1.1518857   -6.8398297    179.60342  0.036773837  0.038117253            2 
  408000     1.189621   -6.8127053     180.4118  0.036848816  0.038105864            1 
  409000    1.1911445   -6.8034107    180.46742  0.036770053  0.038095037            1 
  410000    1.1509378   -6.8282827    181.09904  0.036808748  0.038083805            1 
  411000    1.1842147   -6.8612963    182.11568   0.03692532  0.038074247            2 
  412000    1.1926652   -6.8009152    182.55278  0.036924106  0.038064868            1 
  413000    1.2001343    -6.821934    182.75906  0.036876323  0.038055926            2 
  414000    1.1782214   -6.8155188    182.96825  0.036829357  0.038046104            3 
  415000    1.1983096   -6.8097858    182.75881  0.036698555   0.03803607            1 
  416000    1.1758992    -6.844348    183.10692  0.036680072  0.038025728            2 
  417000    1.1815557     -6.82474    183.50344   0.03667135  0.038015136            4 
  418000    1.1868415   -6.8551517    184.60758  0.036803744  0.038004577            2 
  419000    1.1780317   -6.8057692    185.12856  0.036819522  0.037994326            2 
  420000    1.1812339   -6.8253562    184.84006  0.036674616  0.037985009            1 
  421000    1.2145441   -6.8521623    185.27707  0.036674004   0.03797395            3 
  422000    1.1802532   -6.8114781    185.90416  0.036710933  0.037962663            1 
  423000    1.1970299    -6.861918    185.93709  0.036630632   0.03795165            3 
  424000    1.2078733   -6.8368671    186.51907  0.036658622  0.037940793            1 
  425000     1.196202   -6.8333419    187.21484  0.036708792  0.037930514            2 
  426000    1.1963206    -6.830974    187.39057  0.036656996  0.037920274            2 
  427000    1.1852016   -6.8070436    188.40986  0.036770073  0.037909751            2 
  428000      1.19245   -6.8381986    188.80029   0.03676018  0.037899363            1 
  429000    1.1775673   -6.8117213    188.91309  0.036696405  0.037889401            4 
  430000    1.1965257   -6.8365894    189.73013  0.036769406  0.037879456            1 
  431000    1.1715394   -6.8180022    189.69474   0.03667725   0.03786995            2 
  432000    1.2166589   -6.8108292    190.00755  0.036652692  0.037859884            3 
  433000    1.1537729   -6.8442941     190.7508  0.036711086  0.037850676            2 
  434000    1.1959908   -6.8698869    190.47798  0.036574112  0.037840358            1 
  435000    1.1863393   -6.8115001    191.51832  0.036689333  0.037830207            1 
  436000    1.1961825   -6.8666538    192.06887   0.03671041  0.037819057            1 
  437000    1.1819408   -6.8263903    192.72233  0.036751017  0.037809943            1 
  438000    1.1836691   -6.8438584    192.41777  0.036609164  0.037800442            3 
  439000    1.1874695    -6.879782    193.09332  0.036654008  0.037790976            1 
  440000    1.1727262   -6.8671786    192.92142  0.036538148  0.037780491            3 
  441000    1.2100237   -6.8245881    193.27376  0.036521875  0.037770411            1 
  442000    1.1837429     -6.83328     194.4223  0.036655788  0.037760587            3 
  443000    1.1765401   -6.8556971    194.79618  0.036643375   0.03775095            1 
  444000    1.1776587   -6.8419444    194.75005  0.036552187  0.037741695            1 
  445000    1.1871243   -6.8242608    195.19716  0.036553775  0.037732241       -1e+20 
  446000    1.1803147   -6.8589108    195.32391  0.036495498  0.037721951            3 
  447000     1.192032   -6.8394228    196.15553   0.03656889  0.037711775            2 
  448000    1.1981508   -6.8312547    196.76633   0.03660088  0.037701519            2 
  449000    1.1567275   -6.8172496    197.06263  0.036574355  0.037691324            2 
  450000    1.1733938   -6.8627757    197.02082  0.036485337  0.037681062            2 
  451000    1.1860217   -6.8396327    197.40736  0.036475861  0.037670485            4 
  452000    1.2121091   -6.8439161     197.6058  0.036431749  0.037659972            1 
  453000    1.1617686   -6.8347216    198.81453   0.03657368  0.037649675            2 
  454000    1.1858551   -6.8352629    199.24789  0.036572667   0.03764004            1 
  455000    1.1739982   -6.8508299    199.24055  0.036490943  0.037630166            1 
  456000    1.1925857   -6.8445995    199.99369  0.036548554  0.037620063            3 
  457000     1.183964   -6.8178796    200.95453  0.036643788  0.037610068            1 
  458000    1.1607507   -6.8434466    200.51932  0.036484592  0.037600539            1 
  459000    1.1695661   -6.8696619    201.37764  0.036560936  0.037591831            3 
  460000    1.2066313   -6.8471522    201.51103  0.036505622  0.037583298            1 
  461000    1.1637549   -6.8268691      201.719  0.036464028  0.037574512            4 
  462000    1.1841395   -6.8376225    202.39453   0.03650695  0.037565474            2 
  463000    1.1618066   -6.8547976    202.69995  0.036483071  0.037556121            2 
  464000    1.1801948   -6.8619418    203.30745  0.036513551  0.037547179            2 
  465000    1.1925123   -6.8400015    204.22625  0.036599686  0.037538642            1 
  466000    1.1795105   -6.8608889    203.56566  0.036403014  0.037529263            3 
  467000     1.166439   -6.8557356    204.35006  0.036465036  0.037519171            2 
  468000    1.1926248   -6.8217908    204.84637  0.036475493  0.037509855            2 
  469000    1.2205877   -6.8386147    204.69749  0.036371266  0.037500011            1 
  470000    1.1703288   -6.8568184    205.14447  0.036373134  0.037490269            2 
  471000    1.1771014   -6.8009623     206.1107   0.03646686  0.037480545            2 
  472000    1.1788705   -6.8364444    206.36195   0.03643396  0.037470736            2 
  473000    1.1651576   -6.8503888    206.36029  0.036356639  0.037461227            2 
  474000    1.1945344   -6.8476914     206.6279  0.036326986  0.037451635            2 
  475000    1.2108068   -6.8503042    207.21297  0.036353152   0.03744243            2 
  476000    1.1734194   -6.8600063     208.6734  0.036532458  0.037433034            3 
  477000    1.1818767    -6.875975    207.91911  0.036324094  0.037422894            2 
  478000    1.1717197    -6.849307    208.52975  0.036354559  0.037413149            4 
  479000    1.1840925   -6.8457554    209.06526  0.036371827  0.037403873            1 
  480000    1.1991406   -6.8445086    209.11273  0.036304294  0.037394971            1 
  481000    1.1970225   -6.8419077     210.0179  0.036385637   0.03738621            2 
  482000    1.1922723   -6.8960614    209.68093   0.03625189  0.037377721            1 
  483000    1.2003277    -6.850336    211.02242  0.036408286  0.037369647            2 
  484000    1.1688083   -6.8744862    211.56862  0.036427103  0.037361207            2 
  485000     1.162034   -6.8521524    212.00673  0.036427273  0.037352704            1 
  486000    1.1969413    -6.856506    213.31908  0.036577345  0.037344206            2 
  487000    1.1979822   -6.8184396    213.32351  0.036502996  0.037335817            1 
  488000    1.1932555   -6.8479046    213.08992  0.036388307  0.037326992            1 
  489000    1.1532092    -6.824437    212.87079   0.03627655  0.037318541            2 
  490000    1.2006177   -6.8545581    214.22636  0.036433054  0.037310039            2 
  491000    1.1673658   -6.8383709    214.02638  0.036324912  0.037301365            3 
  492000    1.1847248   -6.8603667    214.91969  0.036402387  0.037292517            3 
  493000    1.1707745   -6.8787196    214.55993  0.036267737  0.037283258            2 
  494000    1.1759756   -6.9012934    215.12831  0.036290201  0.037274299            3 
  495000    1.1841526   -6.8814899    215.45632  0.036272108  0.037264852            7 
  496000    1.1860257   -6.8350632    216.33821  0.036347146  0.037255488            2 
  497000    1.1739675    -6.888522    215.86395  0.036194492  0.037246136            2 
  498000     1.182444   -6.8761488    216.87333  0.036290717  0.037237059            2 
  499000     1.183901   -6.8381177    217.72187  0.036359698  0.037228328            1 
  500000     1.163559    -6.875024     218.1293  0.036354884   0.03721973            2 
  501000    1.1684242   -6.8623673    219.02095   0.03643063  0.037211363            2 
  502000    1.1587918   -6.8509778    218.86702  0.036332506  0.037203226            1 
  503000    1.1698562   -6.8548847    219.19414   0.03631447  0.037194824            1 
  504000    1.2098241   -6.8456018    219.21286  0.036245513  0.037185785            2 
  505000    1.1779773   -6.8598468    219.07228   0.03615054  0.037176375            4 
  506000    1.1491165   -6.8077673    219.77344  0.036194572  0.037166475            3 
  507000    1.1774501   -6.8657997    219.77666  0.036123711  0.037156475            2 
  508000    1.1775467   -6.8657328    221.47439  0.036331101  0.037147607            2 
  509000    1.2050095   -6.8639883    221.79269  0.036311836  0.037139245            2 
  510000    1.1670499   -6.8462052    221.90946  0.036259715   0.03713072            1 
  511000    1.1626417   -6.8739058    222.10074  0.036219951  0.037122642            2 
  512000     1.187396   -6.8641775    223.39181  0.036359345  0.037114291            2 
  513000    1.1556697   -6.8442024     223.3287  0.036278217  0.037105948            2 
  514000    1.1608978   -6.8432564     223.8527  0.036292591  0.037097589            2 
  515000    1.1713708   -6.8538393    224.40709  0.036311827  0.037088921            2 
  516000    1.1553749   -6.8486272    223.68626  0.036125042  0.037080265            1 
  517000    1.1781994   -6.8604685    225.26233  0.036309208  0.037071755            1 
  518000    1.1698125   -6.8395728    226.10687   0.03637498  0.037064026            2 
  519000     1.195933   -6.8648385    225.04609  0.036134568  0.037056267            2 
  520000    1.1821822   -6.8722688    226.12994  0.036238772  0.037048215            1 
  521000    1.1709283   -6.8534191    226.53851  0.036234566  0.037040406            4 
  522000    1.2035304   -6.8510118    226.60315   0.03617547  0.037032812            2 
  523000    1.1381475    -6.791423    227.14382   0.03619245  0.037025445            2 
  524000    1.1531173    -6.860574    227.76407  0.036222021  0.037018682            2 
  525000    1.1859371   -6.8817346     228.3046  0.036238825  0.037011159            1 
  526000    1.1421306   -6.8444791    228.90385  0.036264869  0.037003756            1 
  527000    1.1938017   -6.8790154    228.41043  0.036118032  0.036995937            3 
  528000    1.1787643   -6.8064702     229.7276  0.036257512  0.036988249            2 
  529000    1.1636682   -6.9087081    229.31267  0.036123609  0.036980069            2 
  530000    1.1616961   -6.8233507    230.01861  0.036166448  0.036971659            2 
  531000    1.1585143   -6.8722738    230.72383  0.036209013  0.036963868            2 
  532000    1.1791657   -6.8488831    230.41034  0.036091845  0.036955718            2 
  533000    1.1684527   -6.8668248     230.9793  0.036113086  0.036947787            2 
  534000    1.1489455   -6.8272286    231.79195  0.036172276  0.036940071            2 
  535000      1.17344   -6.8673237    231.91033  0.036123105  0.036932386            1 
  536000     1.187906   -6.8689753    232.23931  0.036106857  0.036924153            1 
  537000    1.1473979   -6.8676828    233.12057  0.036176377  0.036916541            2 
  538000     1.150625   -6.8481546    233.53422  0.036173207  0.036908468            1 
  539000    1.1687876   -6.9271583     232.7173  0.035979792  0.036900061            4 
  540000    1.1751747   -6.8698285     234.1863  0.036139861  0.036892113            3 
  541000    1.1800935   -6.8817848     235.1451  0.036220749  0.036885122            2 
  542000    1.1845601   -6.9120284    234.72775  0.036089753  0.036877956            2 
  543000    1.1561413   -6.8463173    235.86686  0.036198106  0.036871078            2 
  544000    1.1606639   -6.8941353    235.80232  0.036121679  0.036864051            3 
  545000    1.1309512   -6.8819414    236.77545  0.036204198  0.036857153            1 
  546000    1.1584635   -6.9058657    236.50035  0.036095902   0.03685011            2 
  547000    1.1626473   -6.8829142    237.23989  0.036142579   0.03684293            2 
  548000    1.1855745   -6.8510404     238.1478  0.036214689  0.036836227            2 
  549000    1.1518766   -6.8651734     238.7996  0.036247663  0.036830027       -1e+20 
  550000    1.1621574   -6.8880026    238.89996  0.036196964  0.036823596            2 
  551000    1.1427805   -6.8627613    238.84989  0.036123698  0.036816981            1 
  552000    1.1708766   -6.8321898    239.63971  0.036177492  0.036810331            3 
  553000    1.1725521   -6.8931824    239.31876  0.036063706  0.036803527            2 
  554000    1.1794635   -6.8440227    240.29537  0.036145513  0.036796642            1 
  555000    1.1798336   -6.8661962    240.49387   0.03611019  0.036790159            1 
  556000    1.1526566   -6.8394656    241.38024  0.036178093   0.03678401            2 
  557000    1.1535952    -6.853069    241.54841  0.036138302  0.036778327            2 
  558000    1.1623422   -6.8779752    242.14427  0.036162525  0.036772145            2 
  559000     1.167448    -6.873829    243.45785  0.036293657  0.036765834            3 
  560000    1.1679776   -6.9005752    242.16024  0.036035749  0.036759315            2 
  561000    1.1735909   -6.8493483    243.20763  0.036127099  0.036753033            2 
  562000    1.1745735     -6.89675    243.76316   0.03614519  0.036747002            1 
  563000    1.1671881   -6.8329435    244.46525   0.03618491  0.036741223            2 
  564000    1.1744377   -6.8632419     244.4774  0.036122547  0.036735079            1 
  565000    1.1745709   -6.8905191    244.47041  0.036057582  0.036728742            3 
  566000    1.1673105   -6.8850008    244.08026  0.035936434   0.03672254            2 
  567000    1.1481164   -6.9123777    245.22648  0.036041517  0.036716467            4 
  568000    1.1721307   -6.8790178    246.35489  0.036143616  0.036709948            1 
  569000    1.1847575   -6.8771373    246.63325  0.036120862   0.03670346            1 
  570000    1.1568878   -6.8838673    247.24474  0.036146892  0.036697097            1 
  571000     1.174554   -6.9029925     246.7544  0.036012025  0.036690076            2 
  572000    1.1855256   -6.9350969    247.00971  0.035986263  0.036683362            1 
  573000    1.1636307   -6.9252607    247.20426  0.035951754  0.036676863            2 
  574000    1.1821278   -6.9172969    247.70595  0.035961955  0.036670376            2 
  575000    1.1595919   -6.9026931    248.80745  0.036059051  0.036664071            2 
  576000    1.1558777   -6.8603165    249.93777  0.036159978   0.03665813            3 
  577000    1.1726713   -6.8941402    249.79315  0.036076423  0.036652463            3 
  578000    1.1534778    -6.864598    250.44327  0.036107738  0.036646998            2 
  579000    1.1620034    -6.890242    250.84791  0.036103614  0.036641679            1 
  580000    1.1885648   -6.8625497    251.24561  0.036098508  0.036636584            4 
  581000    1.1617126   -6.8600043    252.17386  0.036169515  0.036631336            1 
  582000    1.1359893   -6.8875954    252.36122  0.036134196  0.036625797            2 
  583000    1.1447772   -6.8756748    253.43809  0.036226141  0.036620906            3 
  584000    1.1668573   -6.9247795    253.21065  0.036131657  0.036615727            4 
  585000    1.1590559   -6.8504388      254.855  0.036304131  0.036610529            3 
  586000    1.1539263   -6.8761435    254.76428  0.036229278  0.036606492            4 
  587000    1.1537687   -6.8840478    255.10727  0.036216251  0.036602733            3 
  588000      1.14103   -6.8843757    254.32959  0.036044443  0.036598322            2 
  589000    1.1382534   -6.8943861    254.64978  0.036028548  0.036593247            1 
  590000    1.1370711    -6.882418    256.61815  0.036245502   0.03658815            1 
  591000    1.1647203   -6.8910693    255.57678  0.036037334  0.036583059            1 
  592000    1.1625465   -6.8568699    255.59922  0.035979619  0.036577868            1 
  593000    1.1588064   -6.8700927    257.24048   0.03614959  0.036573234            1 
  594000    1.1759687   -6.8454125    257.81977  0.036170002  0.036568732            1 
  595000    1.1728298   -6.8865929    257.98148   0.03613186  0.036563688            2 
  596000    1.1553271   -6.8976589    257.39754  0.035989588  0.036557871            1 
  597000    1.1857835   -6.9377152    257.20787  0.035902829  0.036552053            2 
  598000    1.1398962   -6.9157626    259.35076   0.03614141  0.036547106            1 
  599000    1.1648144    -6.900349    258.57312  0.035972889  0.036542045            1 
  600000    1.1650309   -6.9053639    258.98177   0.03596969  0.036536968            2 
  601000    1.1645971   -6.8659691    259.51543  0.035983837  0.036531267            2 
  602000    1.1511931   -6.8687136    260.53377  0.036065029  0.036525448            1 
  603000    1.1522955   -6.9149446    260.53058  0.036004779  0.036520181            1 
  604000    1.1385887   -6.8888235    262.04611  0.036154265  0.036514958            1 
  605000    1.1581134   -6.8740693    262.05195   0.03609531  0.036509869            3 
  606000    1.1574967   -6.8954239    262.40312  0.036084038  0.036504461            1 
  607000    1.1512703   -6.9339074    262.85324  0.036086387  0.036499522            2 
  608000    1.1527516   -6.8823082    263.88273  0.036168137   0.03649517            1 
  609000    1.1625459   -6.8880742    263.49537  0.036055743  0.036490771            2 
  610000    1.1617417   -6.8978077    264.13002  0.036083337  0.036486112            3 
  611000     1.163371   -6.8823555    265.21712  0.036172548  0.036481917            2 
  612000    1.1393711   -6.9152546    264.69003   0.03604167  0.036476903            1 
  613000    1.1676846   -6.9516769    264.69408  0.035983426  0.036471963            2 
  614000    1.1405612   -6.8943497    265.64661  0.036054099  0.036467116            1 
  615000    1.1619228   -6.8907198    265.47758  0.035972571  0.036461768            1 
  616000    1.1755679   -6.8997655    265.27632  0.035886948  0.036456508            1 
  617000    1.1609452     -6.92793      267.616  0.036144786  0.036451308            2 
  618000      1.16846   -6.9564025    266.36888  0.035918134  0.036446188            1 
  619000    1.1363542   -6.8684763    267.24456  0.035977996  0.036441392            3 
  620000    1.1561798   -6.8882359    268.07679  0.036031826  0.036436333            1 
  621000    1.1328619   -6.8714057    268.06456  0.035972163   0.03643098            1 
  622000    1.1720656   -6.8847927    267.92988  0.035896287  0.036425965            3 
  623000    1.1838335   -6.9019243    268.96715  0.035977414   0.03642155            1 
  624000    1.1298538   -6.8881818    270.13547  0.036075784   0.03641715            2 
  625000    1.1401196   -6.9080222    270.65839  0.036087785  0.036413304            2 
  626000    1.1452227   -6.9091634     270.7926  0.036048004  0.036409174            1 
  627000    1.1631681   -6.9249864    271.91143  0.036139212  0.036405211            1 
  628000    1.1477576   -6.8934715    272.58181  0.036170622  0.036401511            2 
  629000    1.1178578    -6.888386     272.5925  0.036114533   0.03639762            1 
  630000    1.1408645   -6.8956384    273.03712  0.036116021  0.036393494            1 
  631000    1.1614421    -6.915207    272.59683  0.036000638  0.036389347            1 
  632000    1.1476619   -6.8691449    272.80351  0.035970927  0.036384914            1 
  633000    1.1693276   -6.9007027    273.30074   0.03597956  0.036379933            2 
  634000    1.1487496   -6.9246986    272.99206  0.035882237  0.036374831            2 
  635000    1.1328494    -6.888142     274.0591  0.035965761  0.036369717            2 
  636000    1.1472389   -6.8764684    274.87348  0.036015917  0.036364943            2 
  637000    1.1500034   -6.8766813    274.93592  0.035967545  0.036360021            3 
  638000    1.1354462   -6.8932177    276.35221  0.036096162  0.036355148            1 
  639000    1.1643559   -6.8863968     275.9595  0.035988458  0.036350535            2 
  640000    1.1650263   -6.8636873    276.53892  0.036007672  0.036346196            2 
  641000    1.1503874   -6.9026291    276.67455   0.03596913  0.036341076            3 
  642000     1.163349   -6.8754672    276.13841  0.035843511  0.036335684            3 
  643000     1.163209   -6.8852868    276.53627   0.03583933  0.036330271            1 
  644000    1.1299517   -6.9332752    276.17546  0.035736989  0.036324152            2 
  645000    1.1471234   -6.8841066    278.10926  0.035931428   0.03631838            3 
  646000    1.1333496    -6.925667    276.22836  0.035633174  0.036312191            2 
  647000    1.1362671   -6.8953232    277.52865  0.035745575  0.036305866            2 
  648000     1.141274    -6.923966    276.77386  0.035593346  0.036299701            1 
  649000    1.1526888   -6.8869482    278.07997  0.035706211    0.0362936            1 
  650000    1.1793805   -6.9388627    278.06947  0.035649932  0.036287727            1 
  651000    1.1496807   -6.9359186    278.65171  0.035669701  0.036281705            2 
  652000    1.1635851   -6.8899207    279.29999  0.035697851  0.036275655            4 
  653000    1.1444367   -6.9440571    279.42094  0.035658619    0.0362695            2 
  654000    1.1172806   -6.9533212    280.03415  0.035682231  0.036263394            2 
  655000    1.1582203   -6.9080173    280.86815  0.035733861  0.036257553            4 
  656000    1.1589114   -6.8961165    281.71355  0.035786783  0.036252265            2 
  657000    1.1714278   -6.8848608     282.0201  0.035771194   0.03624667            2 
  658000     1.126893   -6.9215864    283.37084  0.035887898  0.036241288            2 
  659000     1.149438   -6.8918455    283.33229  0.035828565   0.03623592            3 
  660000    1.1262972   -6.8967158    282.95111   0.03572615  0.036230057            2 
  661000     1.146205   -6.9087271    283.22924  0.035707166  0.036224392            4 
  662000    1.1443669   -6.8998175    283.86236  0.035732925  0.036218344            3 
  663000    1.1536624   -6.8735221    283.80612  0.035671961  0.036212075            1 
  664000    1.1383732   -6.9067389    284.38315  0.035690657  0.036205584            2 
  665000    1.1686542   -6.8810149    284.11398  0.035603255  0.036199296            2 
  666000     1.146804   -6.9359894    284.30104  0.035573203  0.036192479            3 
  667000    1.1708319   -6.9123981    285.18618  0.035630457  0.036185308            2 
  668000    1.1383337     -6.90892    285.04426  0.035559414  0.036178117            3 
  669000    1.1349801   -6.9180215    284.72459  0.035466441  0.036170754            4 
  670000    1.1278917   -6.9276901    285.26746  0.035481028  0.036163384            3 
  671000    1.1478316   -6.9226092    285.18351  0.035417724  0.036155913            1 
  672000    1.1700599   -6.9151628    286.94921   0.03558398  0.036148642            3 
  673000    1.1674629   -6.9163337    287.35826  0.035581756  0.036141765            1 
  674000    1.1357823   -6.9345951    287.27025  0.035518082  0.036135097            1 
  675000    1.1514547    -6.926264    288.22675   0.03558355  0.036128586            2 
  676000    1.1542336   -6.9014719    287.71068  0.035467293  0.036121916            1 
  677000    1.1756119   -6.9079611    288.88689  0.035559686  0.036115077            1 
  678000    1.1240251   -6.9126718    289.09034  0.035532245  0.036108437            1 
  679000    1.1421282   -6.9594693    289.08195  0.035478884  0.036101628            1 
  680000    1.1484685   -6.8805753    290.32957  0.035579604  0.036094874            1 
  681000    1.1475704   -6.9099344    290.13215    0.0355032  0.036088224            1 
  682000    1.1604776   -6.8999016    291.32333  0.035596692  0.036081609            1 
  683000    1.1387929   -6.9227447    291.24779  0.035535357   0.03607453            3 
  684000    1.1176991   -6.8998093    290.27142  0.035364452  0.036067428            5 
  685000    1.1615319    -6.878397    292.34412  0.035564978  0.036060555            2 
  686000     1.148374   -6.8953639    291.81951  0.035449407  0.036053549            3 
  687000    1.1356618    -6.936418    292.61924  0.035494813  0.036046785            2 
  688000    1.1547628   -6.9264626    291.88718  0.035354552  0.036040273            1 
  689000    1.1447054   -6.9444326    293.16814  0.035458168  0.036033298            3 
  690000    1.1358001   -6.9071302    293.60558  0.035459611  0.036026942            1 
  691000     1.111311   -6.8673611    294.81383  0.035554008   0.03602025            2 
  692000     1.153872   -6.9019662    294.71423  0.035490635  0.036014114            2 
  693000    1.1531228   -6.8957793    296.10057  0.035606129  0.036007605            1 
  694000    1.1488079   -6.9283886    295.36164  0.035466095  0.036001488            3 
  695000    1.1215206   -6.8928496    296.05214  0.035497858  0.035995128            2 
  696000    1.1176439   -6.9397334    296.01306  0.035442177  0.035988994            3 
  697000    1.1322071   -6.9565505     296.9501   0.03550336  0.035982456            2 
  698000    1.1338825   -6.9151435     297.0646  0.035466165  0.035975596            1 
  699000    1.1333459   -6.9126912     297.0872  0.035418121  0.035968565            2 
  700000    1.1240785   -6.8992899    297.48857  0.035415305  0.035961357            1 
  701000    1.1741342   -6.9111836    298.48476   0.03548321  0.035954642            1 
  702000    1.1410015   -6.9630957    298.08848  0.035385622  0.035947921            2 
  703000    1.1626483    -6.914101    298.68617  0.035406137  0.035941327            1 
  704000    1.1546194   -6.8645993    299.36264  0.035435919  0.035934667            2 
  705000    1.1386942   -6.9188155    299.02693  0.035345973  0.035927698            1 
  706000    1.1482536   -6.8918896    299.38754  0.035338473  0.035920528            3 
  707000    1.1396856   -6.8995097    299.59173  0.035312557  0.035913195            2 
  708000    1.1233262   -6.9606874    298.55733  0.035140928   0.03590573            3 
  709000    1.1513053   -6.9102337    299.95672  0.035255844  0.035897803            2 
  710000    1.1560084    -6.945241    300.87249  0.035313672  0.035889945            3 
  711000    1.1385085   -6.9396184    299.61591  0.035116727  0.035882036            2 
  712000    1.1574426   -6.9462521    300.64998  0.035188434    0.0358744            3 
  713000    1.1415396   -6.8915405    300.96596  0.035176012  0.035866109            2 
  714000     1.112651   -6.9164302    301.00304  0.035131074  0.035857766            2 
  715000    1.1028503   -6.9026458    301.66383  0.035158954  0.035849688            2 
  716000    1.1226362   -6.8971261    301.89406  0.035136646  0.035841275            2 
  717000    1.1258535    -6.978334    300.73241  0.034952628  0.035832433            2 
  718000    1.1343207   -6.9232332    302.02187  0.035053606   0.03582326            2 
  719000     1.161135   -6.9041684    303.45967  0.035171496  0.035814961            2 
  720000    1.1152063   -6.9329371    302.57816   0.03502062  0.035806702            2 
  721000    1.1414875   -6.9446497    304.34258   0.03517598  0.035798291            2 
  722000    1.1571618   -6.8679954     304.9869  0.035201628   0.03579067            2 
  723000    1.1335952   -6.8964522    303.41108  0.034971309  0.035782862            2 
  724000    1.1279509   -6.8972977    305.06497  0.035113371    0.0357748            2 
  725000    1.1565557   -6.9621991    303.90467  0.034931571  0.035765982            1 
  726000    1.1500684   -6.8974793    304.25066   0.03492317  0.035756852            2 
  727000    1.1195266   -6.9050944    305.45482  0.035013162  0.035747816            1 
  728000    1.1634081   -6.9303734    304.78891   0.03488884  0.035738594            3 
  729000    1.1366425   -6.9589462    304.77355  0.034839226  0.035729545            2 
  730000    1.1298372   -6.9170443    306.32274  0.034968349   0.03572043            2 
  731000    1.1339338   -6.9972807    306.02989  0.034887129    0.0357116            2 
  732000    1.1043006   -6.9410512    307.01073   0.03495113  0.035702838            2 
  733000    1.1281533   -6.9052729    307.80025  0.034993207  0.035694674            2 
  734000    1.1417974   -6.8998057    308.85514  0.035065297  0.035686116            3 
  735000    1.1488727   -6.9510498    308.89646  0.035022274  0.035678269            4 
  736000    1.1554366   -6.9416612    309.52315  0.035045647  0.035670517            2 
  737000    1.1476144   -6.9461286    308.45749    0.0348776  0.035662601            1 
  738000     1.133855   -6.9204574    309.07337  0.034899884  0.035654437            1 
  739000    1.1327684   -6.9561023    309.74679  0.034928596  0.035646141            2 
  740000    1.1245412   -6.9374161    310.42546  0.034957822  0.035637661            1 
  741000    1.1439326   -6.9753439    309.71866  0.034831158  0.035629078            2 
  742000    1.1277572   -6.8990589    310.77382   0.03490272  0.035620637            3 
  743000    1.1409594   -6.9445258    311.48215  0.034935189  0.035612229            2 
  744000    1.1283416   -6.9263569    312.70599  0.035025313  0.035604129            2 
  745000    1.1254986   -6.8817325    314.13261  0.035137876  0.035596117            3 
  746000    1.1379176   -6.9451631    313.37264   0.03500588  0.035588441            3 
  747000    1.1525584   -6.9235375    314.72355  0.035109722  0.035580781            1 
  748000    1.1314296   -6.9483055    313.15308  0.034887821  0.035573034            2 
  749000     1.140574   -6.9480472    314.83444  0.035028308  0.035565234            2 
  750000      1.13346   -6.9629211    314.44142  0.034937936  0.035557306            2 
  751000     1.126273   -6.8841331    315.27693  0.034984124  0.035549221            2 
  752000    1.1282447   -6.9700252       315.02  0.034909131  0.035541073            2 
  753000    1.1622449   -6.9400754    315.60127  0.034927099  0.035532756            2 
  754000    1.1486445   -6.9372073    315.97153  0.034921699  0.035524678            1 
  755000    1.1460825   -6.9313869    316.53004  0.034937091  0.035516922            1 
  756000     1.136733   -6.9473429    317.04084  0.034947182  0.035509287            1 
  757000    1.1235365   -6.9497587    317.63856  0.034966816  0.035501291            2 
  758000    1.1139277    -6.990832    316.02745  0.034743563  0.035493233            4 
  759000    1.1250602   -6.9554642    316.97811  0.034802164  0.035484998            3 
  760000    1.1087403   -6.9376053    318.37828  0.034909899  0.035477271            2 
  761000    1.1260987   -6.9016295    318.39626  0.034865994  0.035469853            2 
  762000    1.1340998   -6.9201614     319.5415  0.034945484  0.035462538            1 
  763000    1.1613902   -6.8987121    319.81712  0.034929786  0.035455109            1 
  764000    1.1185993   -6.9262392    319.60147  0.034860545  0.035447763            1 
  765000    1.1114631   -6.9077927    320.96409  0.034963409  0.035440712       -1e+20 
  766000     1.130474   -6.8981119    321.48347  0.034974268  0.035433727            2 
  767000     1.125478   -6.9433382    322.16666  0.035002896  0.035426841            2 
  768000    1.1216823   -6.8991545    323.03178  0.035051192  0.035420023            2 
  769000    1.0967975    -6.912315    322.59419  0.034958191  0.035413001            3 
  770000    1.1369559   -6.9290511    323.37781  0.034997598  0.035406196            2 
  771000    1.1344632   -6.9247795    324.00523   0.03502002  0.035399465            1 
  772000    1.1207139   -6.9453336    323.99777  0.034973853  0.035393063       -1e+20 
  773000    1.1309097   -6.9485712    324.00535  0.034929425  0.035386236            1 
  774000    1.1376703    -6.931962    324.66163  0.034954956  0.035379766            1 
  775000    1.1096159   -6.9575377     324.4415  0.034886183  0.035373038            1 
  776000     1.143878   -6.9412091    325.68314  0.034974564  0.035366418            3 
  777000    1.1005948   -6.9530593    325.77054  0.034938926   0.03535981            2 
  778000    1.1308408   -6.9629871    325.07539  0.034819558  0.035352829            2 
  779000    1.1309352   -6.9451076    325.13321  0.034781046  0.035345573            1 
  780000    1.1232541   -6.9515759    326.36561   0.03486812  0.035339046            1 
  781000    1.1212374   -6.9506197    326.96089  0.034886993  0.035331886            3 
  782000     1.126529   -6.9355798    327.53335  0.034903383  0.035325047            3 
  783000    1.1243552   -6.9541246    326.37831  0.034735878  0.035318083            2 
  784000     1.116829   -6.8960976     328.6125  0.034929049  0.035311286            2 
  785000    1.0916002    -6.960771    328.25457  0.034846558  0.035304413            2 
  786000    1.1101511   -6.9480403    329.32153  0.034915345  0.035297681            2 
  787000    1.1187822   -6.9366951    329.25351  0.034863777  0.035291183            3 
  788000    1.1404209   -6.9479003    329.94825  0.034893004   0.03528455            3 
  789000    1.1276453   -6.9485136    330.00229  0.034854488  0.035278137            1 
  790000     1.137408   -6.9458197     330.0559  0.034816023  0.035271365            2 
  791000    1.1469875   -6.9558849    331.37407   0.03491088  0.035264537            3 
  792000    1.1347553   -6.9438068    331.40025  0.034869555  0.035258056            2 
  793000    1.1586246    -6.951635    330.93812   0.03477702  0.035251527            1 
  794000    1.1215945   -6.9531038    330.73382  0.034711778  0.035244545            2 
  795000    1.1102838   -6.9566646     331.2721  0.034724539  0.035237551            1 
  796000    1.1394084   -6.9470733     331.6943  0.034725115  0.035230691            7 
  797000    1.1046859   -6.9348873     332.7929  0.034796413   0.03522398            2 
  798000    1.1576993   -6.9687874    332.39487  0.034711244  0.035217102            2 
  799000    1.1178775   -6.9331546    333.84778  0.034819335  0.035210023            1 
  800000    1.1289526   -6.9603675    333.98517  0.034790122  0.035203422            2 
  801000    1.1052167   -6.9743474    333.64879  0.034711692  0.035196463            2 
  802000    1.1635969   -6.9839266     332.4196   0.03454069   0.03518908            2 
  803000    1.0877943   -6.9638007    333.35275  0.034594516  0.035181891            3 
  804000    1.1144614   -6.9233906    334.28245   0.03464785  0.035174412            2 
  805000    1.1116006   -6.9668306    334.04449  0.034580175  0.035167063            1 
  806000    1.0982091   -6.9464123    334.88858  0.034624543  0.035159799            2 
  807000    1.1302018   -6.9363562    335.90118  0.034686202  0.035152258            2 
  808000     1.110145   -6.9388793    335.82725  0.034635649  0.035144647            2 
  809000    1.1338241   -6.9291147    337.11133  0.034725106  0.035137325            2 
  810000    1.0879631   -6.9474071    335.51634  0.034518142  0.035129874            3 
  811000    1.1286648   -6.9511706    336.19079  0.034544882  0.035122226            1 
  812000     1.124491   -6.9468654     337.0492  0.034590435  0.035114563            1 
  813000    1.1295428   -6.9432361    337.07026  0.034550047  0.035107092            2 
  814000    1.1408555   -6.9544074    337.48744  0.034550311  0.035099755            1 
  815000    1.1120124   -6.9410197    339.11382  0.034674215  0.035092526            4 
  816000    1.1395481   -6.9560638    338.52169  0.034571251  0.035084909            1 
  817000    1.1252756   -6.9626627    337.71672   0.03444683  0.035077475            2 
  818000    1.1205694   -6.9427322    337.70366  0.034403388  0.035069755            2 
  819000    1.1115482   -6.9287287    339.27977  0.034521751  0.035061545            1 
  820000    1.1227704   -6.9656391    338.09954  0.034359709  0.035053307            2 
  821000    1.1053506   -6.9754782    338.44673  0.034353099  0.035045087            2 
  822000    1.1694023   -6.9210095     339.9799  0.034466738  0.035036828            2 
  823000    1.1052615   -6.9472499    339.72931  0.034399485   0.03502835            1 
  824000    1.1415892   -6.9506882    339.72129  0.034356927  0.035019961            2 
  825000    1.1123987   -6.9604041    339.67815  0.034310924  0.035011305            1 
  826000    1.0995271   -6.9337827    340.33879  0.034336036  0.035002961            3 
  827000    1.1038913   -6.9526913     341.4972  0.034411245  0.034994647            1 
  828000    1.1429509   -6.9492272    342.67661  0.034488387  0.034986311            2 
  829000    1.1289925   -6.9782371    342.15439  0.034394289  0.034978318            2 
  830000    1.1198808   -6.9636618    342.46754  0.034384291  0.034970312            1 
  831000     1.123615   -6.9438276    343.54389  0.034450852  0.034962299            2 
  832000    1.0985512   -6.9744263    342.97444  0.034352408  0.034954022            2 
  833000    1.1409816   -6.9359924    343.59019  0.034372768  0.034945736            1 
  834000    1.1051803   -6.9583037    343.86905  0.034359417  0.034937486            2 
  835000    1.1461923   -6.9726593    343.80234  0.034311611  0.034929297            3 
  836000    1.1322726   -6.9751159    343.59985  0.034250384  0.034920676            2 
  837000    1.1126957   -6.9550451    343.73314  0.034222734  0.034912318            1 
  838000    1.1193342    -6.986989    343.89958  0.034198447  0.034903703            1 
  839000    1.1040755   -6.9343763    343.60876  0.034128801  0.034894867            2 
  840000    1.1042671   -6.9327343    344.97403  0.034223614  0.034886091            1 
  841000    1.1202012   -6.9633452    345.61754  0.034246685  0.034877158            1 
  842000    1.0929277    -6.969387    345.47118  0.034191526  0.034868416            3 
  843000    1.1285143   -6.9699806    344.84358  0.034088927  0.034859497            3 
  844000    1.1223265   -6.9919569    345.42834  0.034106274  0.034850694            2 
  845000    1.1239066   -6.9618929    346.73956  0.034195223  0.034841907            3 
  846000    1.1399678   -6.9645126     346.0753  0.034089372  0.034833074            1 
  847000    1.1218332     -6.96627    347.33294  0.034172859  0.034824183            2 
  848000    1.1062967   -6.9483953    347.60518  0.034159314  0.034815576            2 
  849000    1.1230939   -6.9534531    347.90011  0.034148028  0.034807157            3 
  850000    1.1015609   -6.9872806    346.99234  0.034018857  0.034798557            4 
  851000    1.1057551   -6.9655195    347.35849  0.034014736  0.034789401            2 
  852000    1.1045187   -6.9553358    347.70206  0.034008417  0.034779996            3 
  853000      1.11184   -6.9746379    346.58905  0.033859813  0.034770047            4 
  854000    1.1227856   -6.9810351    348.05825  0.033963529  0.034760483            2 
  855000    1.1205082   -6.9929981      348.974  0.034013061  0.034750902            1 
  856000    1.1375757   -6.9793184    348.28572   0.03390632  0.034741319            4 
  857000    1.1275882   -6.9775038     348.5743  0.033894818  0.034731733            1 
  858000    1.1176441   -6.9524709    350.28575  0.034021538  0.034722645            2 
  859000    1.1058372   -6.9621887    349.94707  0.033949076  0.034713578            1 
  860000     1.121059   -6.9835476     350.4222   0.03395564   0.03470435            2 
  861000    1.1241457   -7.0073707    352.04033  0.034072816    0.0346953            1 
  862000    1.1327956   -6.9695488    351.05796  0.033938318  0.034686175            5 
  863000    1.0903666   -6.9939812    353.27917  0.034113477  0.034677088            1 
  864000    1.1029319    -6.970779     352.3558  0.033984935  0.034668516            3 
  865000    1.1357296   -6.9561346    353.23772  0.034030609  0.034659686            1 
  866000    1.0925228   -6.9726657    352.04189  0.033876241  0.034650453            3 
  867000    1.1059168   -7.0072192     352.0174  0.033834814  0.034641419            2 
  868000    1.1314627   -6.9449892    354.33793  0.034018619  0.034632418            3 
  869000    1.1167158   -6.9976186    352.38866  0.033792545  0.034623387            2 
  870000    1.1057881   -6.9484552    356.27361  0.034125825  0.034614706            1 
  871000    1.0965998   -6.9947186    355.08751  0.033973163  0.034606049            1 
  872000     1.120695   -6.9528918    354.65288  0.033892668  0.034597466            2 
  873000    1.1018146   -6.9501412    356.07919  0.033989996  0.034588798            1 
  874000    1.0902173    -6.965536    356.72914  0.034013076  0.034580277            2 
  875000     1.103576    -6.977637    356.08821  0.033913163  0.034571707            1 
  876000    1.1278582   -6.9713777    356.43799  0.033907724   0.03456265            1 
  877000    1.1042116   -6.9929354    357.19768  0.033941246   0.03455397            2 
  878000    1.0952559   -6.9789276    357.25724  0.033908242  0.034545292            2 
  879000    1.1158487   -6.9797116    357.27142  0.033871011  0.034536682            1 
  880000    1.0993533   -6.9914992     358.2397  0.033924214  0.034527972            2 
  881000    1.1190632   -6.9747236    358.68702  0.033928019  0.034519085            2 
  882000    1.1115091   -6.9949575    358.78302  0.033898622  0.034510326            2 
  883000    1.1220114   -6.9990745    358.55892  0.033839083  0.034501702            2 
  884000    1.1019154   -6.9934399    358.01713  0.033749729  0.034492884            4 
  885000    1.1062009   -6.9937651     359.9611  0.033894642  0.034484244            2 
  886000    1.0933604   -6.9775314    360.08881  0.033868398  0.034476104            2 
  887000    1.1017706   -6.9868151    360.32222  0.033852144  0.034467959            2 
  888000    1.1380869   -6.9657362    362.14859  0.033985416   0.03445995            1 
  889000    1.0923635   -6.9979435    361.38421  0.033875535  0.034451813            1 
  890000    1.0941362   -7.0148026    361.34486  0.033833789   0.03444341            2 
  891000     1.101087   -6.9968594    361.79847  0.033838241  0.034434957            1 
  892000    1.1309244   -6.9629674    362.34896  0.033851734  0.034426738            2 
  893000    1.0986761    -7.012912    361.78836  0.033761512  0.034418542            1 
  894000    1.0777896   -6.9566521    362.68172  0.033807021  0.034410174            1 
  895000    1.1109294   -6.9934885    363.63103  0.033857638  0.034401724            1 
  896000    1.1199987   -7.0094135    362.10308  0.033677742  0.034392961            2 
  897000    1.1315745   -6.9792421    362.73971  0.033699341  0.034384035            1 
  898000    1.1095121   -6.9912763    364.06198  0.033784519  0.034375285            2 
  899000    1.0876353   -6.9704544    363.25649  0.033672274  0.034366313            3 
  900000    1.1077491   -6.9790994    363.79944  0.033685134  0.034357355            2 
  901000    1.0962773   -6.9724666     364.8843  0.033748085  0.034348615            2 
  902000    1.1311173   -6.9696248    364.52297  0.033677288  0.034339509            4 
  903000    1.0987721   -7.0208874    363.44381  0.033540403  0.034330174            1 
  904000    1.1281168   -6.9830498    365.15805  0.033661325  0.034320754            3 
  905000    1.1097287   -6.9844942    365.20364  0.033628328  0.034311343            2 
  906000    1.1130467   -6.9911104    365.29658  0.033599759  0.034302199            1 
  907000    1.1028233    -6.980883     365.4585  0.033577591  0.034292707            4 
  908000    1.0981155   -7.0125921    364.38316   0.03344192  0.034282904            2 
  909000    1.1164256   -7.0193465    365.25394   0.03348496  0.034273081            2 
  910000    1.0851815   -6.9866063    365.54703  0.033475003  0.034263372            2 
  911000    1.1187156   -6.9918713    366.85956  0.033558321  0.034254036            2 
  912000    1.0884791   -7.0053653    366.54702  0.033492966  0.034244688            3 
  913000    1.1345985   -6.9912041    367.29978  0.033524989  0.034235435            1 
  914000    1.1215952   -7.0299106    366.74974   0.03343816  0.034226107            1 
  915000     1.126299   -6.9811099    368.54488  0.033565107  0.034216917            1 
  916000    1.1169275   -7.0175502    368.35991  0.033511637  0.034207382            1 
  917000     1.080189   -6.9750602    367.85709  0.033429398  0.034197731            1 
  918000    1.0892091   -6.9802156     369.6164  0.033552687  0.034188531            1 
  919000    1.1179001    -6.997874    368.95873   0.03345654  0.034179156            2 
  920000    1.1148677   -6.9893443    368.29166  0.033359751  0.034169615            1 
  921000    1.1384869   -6.9749689    370.23939  0.033499764  0.034160291            4 
  922000    1.0998137   -7.0152132    369.32078  0.033380403  0.034150778            2 
  923000    1.1108837   -7.0101979    369.46392  0.033357162  0.034141087            1 
  924000    1.1104202   -6.9976749    370.84046  0.033445207  0.034131615            2 
  925000    1.1312853   -6.9786296    370.05016  0.033337852  0.034122334            2 
  926000    1.1219552    -6.978252    372.18873  0.033494306   0.03411319            1 
  927000     1.094324   -7.0322832    370.68985  0.033323431  0.034104003            3 
  928000    1.1353758   -6.9468836    372.83278  0.033479955  0.034094801            2 
  929000    1.1013252   -6.9881494     371.4922  0.033323663  0.034085597            2 
  930000     1.107568    -7.063174    371.18201  0.033260037  0.034076144            2 
  931000    1.1007954   -7.0009571    372.24467   0.03331943  0.034066251            3 
  932000    1.0943069   -6.9782113    373.41523  0.033388343  0.034056654            4 
  933000    1.0925404   -6.9762626    373.12629   0.03332675   0.03404719            1 
  934000    1.1547856   -6.9536693    374.81877  0.033442075  0.034037916            2 
  935000    1.0958932   -6.9668195    375.17462  0.033438023  0.034029005            1 
  936000    1.1160088   -6.9723111    375.12666  0.033398029  0.034020101            4 
  937000    1.1039818   -7.0121895    375.27266   0.03337537   0.03401103            2 
  938000    1.0937549   -6.9758311    375.43796  0.033354474  0.034001906            1 
  939000    1.0870645   -7.0159089     377.1052  0.033466915  0.033993079            2 
  940000    1.1133016   -6.9922456    376.08028  0.033340451  0.033984168            2 
  941000    1.1343378   -6.9971645    377.81999  0.033459086  0.033975269            3 
  942000    1.1369918   -6.9930259    376.00109  0.033262658  0.033966269            2 
  943000    1.0799709   -6.9783923    376.93158  0.033309612  0.033956947            2 
  944000    1.1124886   -7.0099829    376.77858  0.033260821  0.033947655            2 
  945000    1.1066822   -6.9795245    377.77499  0.033313491  0.033938587            2 
  946000    1.0952768   -6.9795858    377.39656   0.03324494  0.033929179            2 
  947000    1.0821714   -6.9952335    378.75618  0.033329477  0.033919842            3 
  948000    1.0908785   -6.9817719    379.21442  0.033334601  0.033910377            1 
  949000    1.0938552   -7.0061599    378.45015  0.033232363  0.033900735            2 
  950000    1.1044069   -6.9914438    378.07098  0.033164121  0.033891362            2 
  951000    1.0951706   -6.9935708    378.51209  0.033167901  0.033881924            3 
  952000     1.104448   -6.9795124    379.09678  0.033184242   0.03387276            1 
  953000    1.1081482   -7.0148179    379.91572  0.033221032  0.033863394            2 
  954000    1.1020165   -7.0084843    379.50865  0.033150651  0.033854262            2 
  955000    1.1101184   -7.0433796    379.62136  0.033125773  0.033844856            1 
  956000    1.0846341   -6.9980419    380.85595   0.03319874  0.033835794            1 
  957000    1.1201822   -7.0022209    381.91877  0.033256598  0.033826634            3 
  958000    1.0757925    -7.007425    381.05447  0.033146701  0.033817366            2 
  959000    1.1054454   -7.0270857    380.88989  0.033097836  0.033807895            4 
  960000    1.0971699   -7.0008882     382.6649  0.033217439  0.033798586            2 
  961000    1.0941029   -6.9963077    382.03722  0.033128444  0.033789061            2 
  962000    1.1090285   -6.9994909    382.83207  0.033162861  0.033779684            3 
  963000    1.0664483   -6.9870965     383.1166  0.033153046  0.033770455            2 
  964000    1.1138406   -7.0251168    382.65791  0.033079003  0.033761198            2 
  965000      1.07941    -6.977359    384.25645  0.033182767  0.033752097            1 
  966000    1.0906392   -6.9930571    384.37537  0.033158676  0.033743511            4 
  967000    1.1039013   -7.0052674    385.55869   0.03322636   0.03373486            2 
  968000    1.0842527   -6.9629616    385.92614  0.033223669  0.033726071            2 
  969000    1.1193246   -7.0186194    386.67069  0.033253413  0.033717396            2 
  970000    1.1024637   -7.0014695    385.80221   0.03314452  0.033708629            1 
  971000    1.1052936   -7.0018116    386.51141   0.03317125  0.033699968            4 
  972000    1.1119966   -6.9955848    386.08969  0.033100968  0.033691142            3 
  973000    1.0933769   -7.0133505    386.68654  0.033118066  0.033682035            2 
  974000    1.0885888   -6.9817943     387.5028  0.033153902  0.033673071            2 
  975000    1.0722136   -7.0207725    387.43573  0.033114165  0.033664056            2 
  976000    1.1169652   -7.0484327    387.38692  0.033076069  0.033654868            3 
  977000     1.108974   -7.0042953    388.29041  0.033119277  0.033645705            3 
  978000    1.0662392    -7.016655    388.06398   0.03306612   0.03363676            1 
  979000    1.0995035   -6.9946335    387.02232  0.032943678  0.033627498            1 
  980000    1.1108666   -6.9892111    388.90735  0.033070353  0.033618137            1 
  981000    1.1096073   -6.9840832    388.38594  0.032992349  0.033608681            2 
  982000    1.0794296   -7.0221729    388.53882  0.032971726  0.033599391            2 
  983000    1.1015711   -6.9867727    389.46719  0.033016886  0.033589785            2 
  984000    1.0877568    -7.004307    388.40838  0.032893663  0.033580136            2 
  985000    1.0965229   -7.0397659    387.82345  0.032810782  0.033570572            2 
  986000     1.079242   -7.0207323    388.00043  0.032792464  0.033560912            2 
  987000    1.0912329   -7.0362059     388.4343  0.032795871  0.033551298            1 
  988000    1.1031583   -7.0010372     391.1432  0.032991161  0.033542152            2 
  989000    1.0990259    -7.003264    390.00561  0.032861949  0.033532923            1 
  990000    1.0872928   -7.0658264    390.67434  0.032885045  0.033523833            2 
  991000     1.103837   -7.0402136    391.79076  0.032945742  0.033514499            2 
  992000    1.1235993   -7.0544473    391.11207  0.032855516  0.033505265            2 
  993000    1.1039096   -7.0201348    392.10063   0.03290539  0.033496399            2 
  994000    1.1123303   -7.0260895    393.11704  0.032957498  0.033487147            1 
  995000    1.1119378   -7.0341627     392.5565  0.032877429   0.03347807            2 
  996000    1.1037704   -7.0067607    393.79049  0.032947664  0.033469123            7 
  997000    1.0856836   -7.0053435    394.54631  0.032977793  0.033460145            3 
  998000    1.0822895   -7.0120111     393.2222  0.032834185  0.033451133            2 
  999000    1.0786093   -6.9794485     394.8921  0.032940615  0.033442163            3 
 1000000    1.0818557   -6.9842446    394.72263  0.032893552  0.033433208            3 
 1001000    1.0898782   -7.0256237    395.86097  0.032955459  0.033424636            3 
 1002000    1.0690175   -7.0121647    394.88625  0.032841505  0.033415827            2 
 1003000    1.0730645   -7.0209288    395.68519   0.03287514  0.033407076            2 
 1004000    1.1216996   -7.0008793    396.79372  0.032934405  0.033398498            2 
 1005000    1.1057955   -7.0191791    396.26241  0.032857579  0.033390048            2 
 1006000    1.1007684   -7.0589788    395.55991  0.032766726  0.033381471            1 
 1007000    1.0912716   -7.0160283    397.24077  0.032873285  0.033372749            1 
 1008000    1.0781367   -6.9891931    398.82133   0.03297134  0.033364255            3 
 1009000    1.0900375   -7.0231417     397.9512  0.032866799  0.033356068            3 
 1010000     1.101705   -7.0836671    396.70171  0.032731164  0.033347715            3 
 1011000    1.0903602   -7.0559838     398.8229  0.032873632  0.033339459            2 
 1012000    1.0842597   -7.0293323    399.71151  0.032914321  0.033331292            2 
 1013000    1.0718554   -7.0260068    400.88314  0.032978211  0.033323223            4 
 1014000    1.1108522    -7.017601    400.36463  0.032903076  0.033315167            4 
 1015000    1.1089775   -7.0029452    401.89662  0.032996438  0.033307514            6 
 1016000    1.0847549    -7.005975    401.07505  0.032896575  0.033299604            2 
 1017000    1.0685422   -7.0275606    400.81283  0.032842742  0.033291535            3 
 1018000    1.0972305   -7.0271992    402.21783  0.032925493  0.033283506            1 
 1019000    1.0797369   -7.0012705    403.52102  0.032999756  0.033275727            3 
 1020000    1.0872173   -7.0294452    403.41379  0.032958643  0.033268311            3 
 1021000    1.0814468   -7.0085148    403.14656  0.032904551  0.033260774            2 
 1022000    1.0825962   -7.0588739    403.71884  0.032919019  0.033253314            1 
 1023000    1.0828276   -7.0059847    404.27047  0.032931775  0.033245549            3 
 1024000    1.0860762   -7.0215646    405.49659  0.032999397  0.033237984            3 
 1025000    1.0700154   -7.0451014    403.28825  0.032787662   0.03323032            3 
 1026000    1.0660335   -6.9937935    405.27955  0.032917442  0.033222795            1 
 1027000    1.0741189   -7.0426034    404.90285  0.032854824   0.03321519            3 
 1028000    1.1031918   -6.9939575    407.33314  0.033019872  0.033207733            1 
 1029000    1.0728889   -7.0252835    406.01045  0.032880665   0.03320029            2 
 1030000    1.0657833   -7.0318971    406.19106  0.032863355  0.033192809            1 
 1031000    1.1079165   -7.0242058    406.41705  0.032849745  0.033185289            1 
 1032000     1.072256   -7.0398087    407.77714  0.032927741  0.033178216            2 
 1033000    1.0852077   -7.0160228    408.72116   0.03297202  0.033170959            1 
 1034000    1.0714978   -7.0413564    407.59922  0.032849712  0.033163688            2 
 1035000    1.0966116   -7.0274103    408.85651  0.032919204  0.033156485            2 
 1036000    1.0966234   -7.0171154    408.64502  0.032870417  0.033149293            2 
 1037000    1.0835344   -7.0305194    409.42105  0.032901081  0.033142044            1 
 1038000    1.0944573   -7.0370505    409.70533  0.032892207  0.033134789            1 
 1039000    1.0766414   -7.0119509      409.813  0.032869185  0.033127626            1 
 1040000    1.0699274   -7.0301716    410.27165  0.032874331  0.033120517            3 
 1041000    1.0919157   -7.0155745    410.87153  0.032890773  0.033113251            4 
 1042000    1.0661153   -7.0104437    411.96185  0.032946405  0.033106293            3 
 1043000    1.0718673    -7.047489    411.29895  0.032861853  0.033099202            3 
 1044000    1.0660504   -7.0226618    411.34823   0.03283431  0.033091885            1 
 1045000    1.0942295    -6.982994    411.81136  0.032839822  0.033084543            1 
 1046000    1.0840004   -6.9926659    411.76778  0.032804954  0.033077271            1 
 1047000    1.0936595   -7.0270893    412.17427  0.032805975   0.03307005            4 
 1048000    1.0793799   -7.0679293    411.32718  0.032707314  0.033062258            4 
 1049000    1.0728466    -7.040696    412.36453  0.032758542  0.033054543            4 
 1050000    1.0962835   -7.0563018    412.82534  0.032763916  0.033046802            1 
 1051000    1.0874842   -7.0209705    413.64349  0.032797613  0.033039166            3 
 1052000    1.0675122   -7.0443459     413.1683  0.032728794  0.033031502            3 
 1053000    1.0787202   -7.0192376    411.71134  0.032582411  0.033023912            1 
 1054000    1.0819331   -7.0227055    414.72935  0.032790113  0.033016341            3 
 1055000    1.0920752   -7.0333363    413.51601  0.032663192  0.033008867            2 
 1056000    1.1149986   -7.0627088    415.04681  0.032753063  0.033001357            3 
 1057000    1.0750388   -7.0173132    415.24526  0.032737722  0.032993911            3 
 1058000    1.0875515   -7.0329123    415.70068  0.032742649   0.03298668            1 
 1059000    1.1035241   -7.0570185    414.67524  0.032631038   0.03297919            2 
 1060000     1.092288   -7.0100357    415.57851  0.032671266  0.032971762            2 
 1061000    1.0891455   -7.0310144    417.46072  0.032788306  0.032964611            2 
 1062000    1.0881876   -7.0641103    416.07505  0.032648702  0.032957467            3 
 1063000      1.07833   -7.0516418    417.02499  0.032692458  0.032950235            1 
 1064000    1.0960453   -7.0222317    417.27429  0.032681257  0.032943118            3 
 1065000    1.0591455      -7.0448    417.59758  0.032675867  0.032935829            2 
 1066000     1.094175   -7.0285099    417.11868  0.032607777  0.032928291            2 
 1067000    1.0949644   -7.0675616    417.88327  0.032636931  0.032920703            2 
 1068000    1.0990906   -7.0440582    418.00795  0.032616101  0.032913195            4 
 1069000    1.0675452   -7.0209706    419.00627  0.032663414  0.032906032            2 
 1070000    1.0510064   -7.0249364     418.2181  0.032571503  0.032898855            1 
 1071000    1.0690387   -7.0267012    418.64223  0.032574092  0.032891605            3 
 1072000     1.081594   -7.0354879    419.42775  0.032604769  0.032884189            2 
 1073000    1.0645902   -7.0669687    419.07296  0.032546828  0.032876638            3 
 1074000    1.0877589   -7.0702802    418.15743  0.032445486   0.03286892            2 
 1075000    1.0884558   -7.0347672    419.40784  0.032512235   0.03286137            3 
 1076000    1.0999438   -7.0495656    420.68756  0.032581131  0.032854159            2 
 1077000    1.0777683   -7.0478335    420.21646  0.032514428  0.032846745            4 
 1078000    1.0840453    -7.050461    420.79553   0.03252903  0.032839127            3 
 1079000    1.0665154    -7.040062    421.30974  0.032538596  0.032831733            5 
 1080000    1.0823078   -7.0186551    421.55304  0.032527241  0.032824315            1 
 1081000    1.0789631   -7.0477368    422.73341  0.032588144  0.032817097            1 
 1082000    1.0655943   -7.0461829    422.02784  0.032503685  0.032809558            1 
 1083000    1.0892467   -7.0210357    423.40479  0.032579624  0.032802037            3 
 1084000     1.084474   -7.0435483       422.86  0.032507688    0.0327945            1 
 1085000    1.0638034   -7.0852961    422.93102  0.032483181  0.032786902            8 
 1086000    1.0817286   -7.0229381    423.13938  0.032469259  0.032779276            1 
 1087000    1.0682263    -7.101664    421.49237  0.032313123  0.032771699            4 
 1088000    1.0643549   -7.0365842    422.96102  0.032395911  0.032764121            2 
 1089000    1.0773521   -7.0391992    424.25627   0.03246528  0.032756461            2 
 1090000     1.077078   -7.0049866    425.46585   0.03252797  0.032749075            2 
 1091000    1.0615969   -7.0580733    424.66616  0.032437073   0.03274156            2 
 1092000    1.0896132   -7.0701978    424.47334  0.032392654  0.032734063            2 
 1093000    1.0768701   -7.0597692    424.24593  0.032345679  0.032726467            2 
 1094000    1.1121415    -7.017285    426.26404  0.032469839  0.032718777            1 
 1095000    1.0805485   -7.0515876    426.07099  0.032425494  0.032711247            3 
 1096000    1.0821214   -7.0228757    426.63877  0.032439079  0.032703593            3 
 1097000    1.0671242   -7.0790184    425.38559  0.032314311  0.032695963            2 
 1098000    1.0873352   -7.0529423    427.14484    0.0324184  0.032688149            1 
 1099000    1.0830705   -7.0327962    425.85889  0.032291393   0.03268045            4 
 1100000     1.070008   -7.0918645    426.67428  0.032323809  0.032672729            3 
 1101000    1.0722818   -7.0457119    426.89093  0.032310849  0.032664717            1 
 1102000    1.1018702   -7.0203263    428.96238  0.032438171  0.032657274            4 
 1103000      1.08173   -7.0237956    429.28936  0.032433466  0.032649948            3 
 1104000    1.0591121   -7.0521932    428.84878  0.032370832  0.032642467            2 
 1105000    1.0807209   -7.0079842    429.72464   0.03240759  0.032635163            3 
 1106000    1.0830229   -7.0269286    430.02181  0.032400679  0.032627871            2 
 1107000    1.1113252   -7.0330832    429.45765  0.032328941  0.032620321            3 
 1108000    1.0672634    -7.086231    428.86109  0.032254895  0.032612692            2 
 1109000     1.054697   -7.0680351    429.67854  0.032287236  0.032604997            4 
 1110000    1.0792772    -7.050112    430.57235  0.032325251  0.032597505            2 
 1111000    1.0835434   -7.0539893    430.64237  0.032301408  0.032590092            2 
 1112000     1.073783   -7.0176693    431.00166  0.032299285  0.032582393            1 
 1113000    1.0614075   -7.0440231     429.9788   0.03219368  0.032574843            1 
 1114000     1.085912   -7.0361494    431.89434  0.032308074  0.032567376            2 
 1115000    1.0707359   -7.0902743    430.25478   0.03215656  0.032559694            1 
 1116000    1.0677018   -7.0587853    432.17338  0.032271011  0.032552106            4 
 1117000    1.0698267   -7.0681281    431.25838  0.032173857  0.032544569            3 
 1118000    1.0662188   -7.0185258    433.06534  0.032279766  0.032536985            1 
 1119000    1.0668747   -7.0609639     432.9614  0.032243178  0.032529535            1 
 1120000    1.0662667   -7.0347961    432.33217  0.032167572  0.032521858            2 
 1121000    1.0671936   -7.0521113    432.87987  0.032179592  0.032514099            2 
 1122000    1.0563095   -7.0924034    432.07156  0.032090876  0.032506295            3 
 1123000    1.0635846   -7.0586515    432.28212  0.032077925  0.032498156            2 
 1124000    1.0775575   -7.0459506     431.6426  0.032001972  0.032490298            2 
 1125000    1.0642887   -7.0477656    434.16418   0.03216031  0.032482376            3 
 1126000    1.0740788   -7.0765182    433.52825  0.032084684  0.032474538            4 
 1127000    1.0443251   -7.1111907    433.27737  0.032037664  0.032466252            2 
 1128000     1.051441   -7.0791834    433.99733  0.032062451  0.032457973            2 
 1129000    1.0542737   -7.0925819    434.16039  0.032046087  0.032449831            3 
 1130000    1.0832853   -7.0638151    435.47369  0.032114579  0.032441678            2 
 1131000     1.053811   -7.0727679    434.70722   0.03202971  0.032433747            2 
 1132000    1.0754407   -7.0861232    434.82267  0.032009914  0.032425618            2 
 1133000    1.0655829   -7.0764455    435.44345  0.032027321  0.032417528            1 
 1134000     1.069305   -7.0469539    436.71568  0.032092569  0.032409436            4 
 1135000    1.0751542   -7.0989008    434.46738   0.03189922  0.032401311            4 
 1136000    1.0625696   -7.0581846    435.63739  0.031956969  0.032393147            3 
 1137000     1.078811   -7.0515404    436.79785  0.032013915  0.032384913            1 
 1138000    1.0661428   -7.0411939    436.08616  0.031933667  0.032376886            1 
 1139000    1.0629976   -7.0654125    436.75682  0.031954699  0.032368557            2 
 1140000    1.0637838   -7.0536207    437.74704  0.031999052  0.032360304            1 
 1141000     1.043232    -7.045077     437.5161  0.031954141  0.032352367            2 
 1142000    1.0763241    -7.071015    438.24007  0.031978989  0.032344298            3 
 1143000    1.0625756   -7.0516613    439.43117  0.032037851  0.032336168            2 
 1144000    1.0786487   -7.0433659    438.25017  0.031923818  0.032328098            2 
 1145000    1.0574629   -7.0427929    439.39763  0.031979449  0.032320247            2 
 1146000    1.0723962   -7.0301035    439.86576  0.031985584  0.032312332            3 
 1147000    1.0522954    -7.061133    439.27591  0.031914844  0.032304383            1 
 1148000    1.0636239   -7.1034398    439.37923  0.031894543  0.032296371            2 
 1149000    1.0564673   -7.0767333    441.62995  0.032030023  0.032288442            2 
 1150000    1.0791713    -7.073163     441.3872   0.03198458  0.032280642            2 
 1151000    1.0777846   -7.0438895    441.68444  0.031978312  0.032273072            3 
 1152000    1.0506104   -7.0757812    442.16186  0.031985089  0.032265364            6 
 1153000    1.0644818   -7.0696403     442.7637  0.032000845  0.032257634            2 
 1154000    1.0429186   -7.0841373    443.23097  0.032006858   0.03225012            1 
 1155000    1.0685381   -7.0657785    442.70997  0.031941556  0.032242709            2 
 1156000    1.0592378   -7.0815064    443.33921  0.031959286  0.032235303            2 
 1157000    1.0564325   -7.0501209    443.83634  0.031967469  0.032227834            2 
 1158000    1.0625313   -7.0336982    443.21993  0.031895504  0.032220366            1 
 1159000     1.087077   -7.0313099    444.00447  0.031924394  0.032212879            1 
 1160000    1.0834876   -7.0725404    445.36071  0.031994304  0.032205391            1 
 1161000     1.082604   -7.0963411    443.93484  0.031864401  0.032198088            3 
 1162000    1.0767841   -7.0570684    444.99286  0.031912856  0.032190747            1 
 1163000    1.0735556   -7.0948706    445.48977  0.031921021  0.032183319            1 
 1164000    1.0672248   -7.1000575    445.59802  0.031901347  0.032175809            5 
 1165000    1.0563028   -7.0542915    446.41082  0.031932104  0.032168283            2 
 1166000    1.0409098   -7.0699583    446.48031  0.031909684  0.032160926            2 
 1167000    1.0507113     -7.03416    446.50208  0.031883896  0.032153531            2 
 1168000    1.0698862   -7.0544126    447.28586  0.031912518  0.032146138            2 
 1169000    1.0852934   -7.0714428    445.65064  0.031768652  0.032138634            1 
 1170000    1.0639771   -7.0579914    448.69224  0.031958136  0.032131372            2 
 1171000    1.0749501   -7.0802433    448.34383  0.031906051  0.032124337            2 
 1172000     1.073442   -7.0609634     449.0019  0.031925619  0.032117225            3 
 1173000    1.0690743   -7.0633644    449.62852  0.031942918  0.032110044            2 
 1174000    1.0415944    -7.090165    449.50248  0.031906763  0.032103007            2 
 1175000    1.0419187    -7.069104    448.90989  0.031837581  0.032095879            2 
 1176000    1.0432991   -7.1247865    450.98554  0.031957592  0.032088947            1 
 1177000    1.0707655   -7.0816316    451.51099  0.031967643  0.032081827            1 
 1178000    1.0755622    -7.095773    451.19678  0.031918278  0.032074802            2 
 1179000    1.0743218   -7.0563734    451.01861  0.031878612  0.032067695            4 
 1180000    1.0438481   -7.0942619    450.87374  0.031841366  0.032060442            3 
 1181000    1.0892907   -7.1170067     451.6949  0.031872347  0.032053243            2 
 1182000    1.0679147   -7.0705603    450.84942  0.031785774  0.032045792            2 
 1183000    1.0550128   -7.0877099    451.56215  0.031809111  0.032038591            3 
 1184000     1.046889   -7.0935764    451.55957  0.031782064  0.032031186            1 
 1185000    1.0494828   -7.0466781    453.41394   0.03188565   0.03202392            2 
 1186000    1.0644003   -7.0879615    452.52157  0.031796063  0.032016894            2 
 1187000    1.0416794   -7.1181577    452.34207  0.031756674  0.032009694            1 
 1188000    1.0476931   -7.0788308    454.26433  0.031864782   0.03200243            5 
 1189000    1.0588514   -7.0858982     453.2389  0.031766113  0.031995272            2 
 1190000     1.069302    -7.116156    452.68205  0.031700424  0.031988113            2 
 1191000    1.0487111   -7.0944212    453.48614  0.031730068  0.031980997            2 
 1192000    1.0708763   -7.0845694    455.48864  0.031843445  0.031973929            4 
 1193000    1.0717047   -7.0704527    455.81792  0.031839754  0.031966982            1 
 1194000    1.0582219   -7.0996736    456.25229  0.031843404  0.031959906            3 
 1195000     1.048353   -7.0744952     455.8764  0.031790544  0.031952885            5 
 1196000    1.0588189   -7.0852689    457.14417  0.031852297  0.031945721            1 
 1197000    1.0750591   -7.0856994    455.08012  0.031681991   0.03193855            3 
 1198000    1.0670039   -7.0627557    456.90215  0.031782287  0.031931578            2 
 1199000    1.0836684   -7.1062846    456.88402  0.031754519  0.031924413            1 
 1200000    1.0684178   -7.0707928     455.7187  0.031647132  0.031917276            3 
 1201000    1.0585289    -7.050731    457.16364  0.031721041  0.031909954            2 
 1202000    1.0694242   -7.0980794    456.70853  0.031663098  0.031902859            2 
 1203000    1.0649134   -7.1173086    457.53241  0.031693849  0.031895462            2 
 1204000    1.0542684    -7.085337    458.57694  0.031739821  0.031888133            2 
 1205000    1.0518236   -7.0744693    457.69425  0.031652438  0.031880682            2 
 1206000    1.0633056   -7.0439024    457.97169  0.031645363  0.031873414            1 
 1207000    1.0509221   -7.0982999    458.32191  0.031643325  0.031866073            1 
 1208000    1.0637832    -7.053482    460.37887  0.031759028   0.03185864            2 
 1209000    1.0755459   -7.0704844    457.78661  0.031554081  0.031851429            1 
 1210000    1.0549573   -7.1038365     459.5981  0.031652762  0.031844096            4 
 1211000    1.0572056   -7.0845039    458.57717   0.03155637  0.031836618            1 
 1212000     1.060136   -7.1002183    459.06148  0.031563633  0.031829385            1 
 1213000    1.0571675   -7.0855798    459.74126  0.031584313  0.031822182            2 
 1214000    1.0627592   -7.0624321    459.50576   0.03154213  0.031815003            6 
 1215000    1.0674562    -7.081514      460.802  0.031605076  0.031807768            1 
 1216000    1.0583414   -7.1086374    459.14501  0.031465529    0.0318002            3 
 1217000     1.074793   -7.0891932    461.81903  0.031622777  0.031792774            2 
 1218000    1.0438931   -7.0625416    461.62615  0.031583617  0.031785443            3 
 1219000     1.047492   -7.0799746    462.00423  0.031583554  0.031778224            2 
 1220000    1.0549159   -7.0773224    462.80259  0.031612199   0.03177119            1 
 1221000     1.050236   -7.0835667    463.07221   0.03160471  0.031763954            1 
 1222000    1.0472144   -7.1219555    461.57122  0.031476488  0.031756736            2 
 1223000    1.0751113   -7.0932886    461.92093   0.03147458  0.031749374            1 
 1224000    1.0692395   -7.0856932    463.82899  0.031578771  0.031742112            2 
 1225000    1.0631982   -7.1058849    462.64976  0.031472773  0.031735106            1 
 1226000    1.0573935   -7.0771555     463.7303  0.031520548  0.031727907            3 
 1227000    1.0254702   -7.1069158    463.65682  0.031489869  0.031720744            6 
 1228000    1.0439367   -7.0898713    464.81426   0.03154277  0.031713566            3 
 1229000    1.0663288   -7.0868798    464.55023  0.031499202  0.031706449            1 
 1230000    1.0477401    -7.094014    466.08779  0.031577764  0.031699432            3 
 1231000    1.0500613   -7.0890241    467.00882  0.031614461  0.031692364            3 
 1232000    1.0490148   -7.0961084    467.14484     0.031598  0.031685394            1 
 1233000      1.04264   -7.0822414    467.29522  0.031582537  0.031678316            2 
 1234000    1.0283177   -7.1281915    464.10641    0.0313416  0.031671097            3 
 1235000    1.0743533   -7.0919883    466.71912  0.031492518  0.031663807            1 
 1236000    1.0613752   -7.0772156     467.8879   0.03154584  0.031656643            2 
 1237000    1.0504128   -7.0954993    467.43527  0.031489846   0.03164959            1 
 1238000    1.0390029   -7.1154854    466.87605  0.031426767  0.031642412            3 
 1239000    1.0677189   -7.1002222    467.17365  0.031421418  0.031635029            1 
 1240000    1.0670955   -7.1040242    467.27605   0.03140296  0.031627687            3 
 1241000    1.0690087   -7.0911553    467.45492  0.031389667  0.031620397            1 
 1242000    1.0598319   -7.1011876    468.63671  0.031443687   0.03161312            3 
 1243000    1.0637876   -7.1472261    466.37905  0.031267032  0.031605765            4 
 1244000    1.0551709    -7.081344     468.3881   0.03137648  0.031598234            1 
 1245000    1.0640345   -7.0564895    468.96752  0.031390061  0.031590835            1 
 1246000    1.0645544   -7.1006624    469.16703  0.031378212  0.031583495            1 
 1247000    1.0730043   -7.1388459     468.9835  0.031340784   0.03157599            2 
 1248000    1.0410089   -7.0868526    469.41304  0.031344353  0.031568603            2 
 1249000    1.0650696   -7.0814807    469.23593  0.031307441  0.031561177            2 
 1250000     1.063345   -7.0683997    472.00659  0.031467106  0.031553873            3 
 1251000    1.0594972   -7.1233443     469.1915  0.031254429  0.031546423            3 
 1252000    1.0724782   -7.0666262     470.6578  0.031327063  0.031539009            2 
 1253000    1.0733983   -7.0965096    471.18706  0.031337261  0.031531534            2 
 1254000    1.0502306   -7.0819017    471.05431  0.031303449  0.031523961            3 
 1255000    1.0302983   -7.1142171    470.82149  0.031263047  0.031516515            1 
 1256000    1.0593057   -7.0904542    470.22363  0.031198489  0.031508857            2 
 1257000    1.0193393   -7.1048069    470.86888  0.031216447  0.031501085            2 
 1258000    1.0589053   -7.1007278    471.60007  0.031240068   0.03149331            1 
 1259000    1.0338431   -7.1124276      470.773  0.031160511  0.031485669            4 
 1260000    1.0670504   -7.0637052    471.91849  0.031211541  0.031477911            2 
 1261000    1.0496745    -7.088431    471.59607  0.031165482  0.031470187            2 
 1262000    1.0526999   -7.1005333    473.09361  0.031239673  0.031462483            2 
 1263000    1.0357656   -7.1211683    471.41517  0.031104195  0.031454662            2 
 1264000    1.0441577   -7.0736378    473.23658  0.031199669  0.031446828            2 
 1265000    1.0475324    -7.119052    471.53977  0.031063226  0.031438986            4 
 1266000    1.0580662   -7.0877221    473.57712  0.031172796  0.031431089            1 
 1267000    1.0507294   -7.0757314    474.56195  0.031212967  0.031423403            1 
 1268000    1.0415651   -7.1320334    473.62721   0.03112692  0.031415798            2 
 1269000    1.0469721   -7.0989894    474.55822  0.031163529  0.031408095            2 
 1270000    1.0522851   -7.1120459    473.56773  0.031073998  0.031400179            1 
 1271000    1.0438939   -7.1294411     473.6469   0.03105474  0.031392269            2 
 1272000    1.0639189    -7.044278    473.96326  0.031051052  0.031384598            3 
 1273000    1.0357987   -7.0945557    474.82542  0.031083099  0.031376853            2 
 1274000    1.0350915    -7.127635    474.64637  0.031046989  0.031369017            1 
 1275000    1.0582098   -7.1163241    474.72899  0.031028039  0.031361318            1 
 1276000    1.0124397    -7.132179    475.53267  0.031056209  0.031353453            3 
 1277000    1.0667451   -7.1006349    476.25421  0.031078975   0.03134563            2 
 1278000    1.0737365   -7.0673159    477.14013  0.031112424  0.031337858            2 
 1279000    1.0466209   -7.1453007    474.66109  0.030926576  0.031330172            1 
 1280000    1.0449499   -7.1107155    475.15139  0.030934336  0.031322139            1 
 1281000    1.0734769   -7.1405458    475.67231  0.030944075  0.031314058            1 
 1282000    1.0419769   -7.1422874    476.37474  0.030965597  0.031305916            1 
 1283000    1.0170952   -7.1075958    475.52419  0.030886216  0.031297826            2 
 1284000    1.0429191   -7.0617118    476.66812  0.030936404  0.031289908            2 
 1285000    1.0453363   -7.1049092    476.88741   0.03092655  0.031281849            3 
 1286000    1.0301832    -7.089406    478.45409  0.031004023  0.031273798            2 
 1287000    1.0478854   -7.1109964    478.63763  0.030991817  0.031265666            1 
 1288000    1.0425886   -7.1182155    477.00785  0.030862309  0.031257471            1 
 1289000    1.0364189   -7.1144417    476.56182   0.03080953   0.03124927            2 
 1290000    1.0455488   -7.1026731    476.93053  0.030809466  0.031241028            2 
 1291000    1.0502199   -7.0774076    477.45862  0.030819689   0.03123291            1 
 1292000    1.0729595    -7.097855    478.89668  0.030888589  0.031224739            3 
 1293000     1.053551   -7.1251583    477.12147  0.030750288  0.031216407            2 
 1294000     1.048781   -7.0933032    478.64682  0.030824756  0.031207987            1 
 1295000    1.0438488   -7.1275861    477.17031   0.03070594  0.031199733            2 
 1296000    1.0622602   -7.1056644    477.83438  0.030724947  0.031191415            1 
 1297000    1.0413389   -7.0831014    481.01545  0.030905644   0.03118332            1 
 1298000    1.0433574    -7.136034     479.3344  0.030773909  0.031175028            2 
 1299000    1.0487784   -7.0827059    481.08166  0.030862308  0.031166725            1 
 1300000    1.0508846   -7.1087126    480.36311  0.030792507   0.03115853            1 
 1301000    1.0205095   -7.1301265    481.77428  0.030859229  0.031150343            2 
 1302000    1.0418334   -7.1010701    481.79428  0.030836808  0.031142309            2 
 1303000    1.0452871   -7.1256013    481.33126  0.030783529  0.031134177            3 
 1304000    1.0347499   -7.1185525    481.34496  0.030760798  0.031126006            3 
 1305000    1.0319287   -7.1696693    480.80544  0.030702774  0.031117991            4 
 1306000    1.0226261   -7.1088425    482.20074  0.030768296  0.031109945            2 
 1307000     1.055059   -7.1262613    482.36623  0.030755306  0.031102066            1 
 1308000    1.0588914   -7.0899858    483.03384  0.030774327  0.031094151            2 
 1309000    1.0613279   -7.1134232    482.30589  0.030704475  0.031086177            3 
 1310000    1.0342753   -7.1190279    483.76995   0.03077417  0.031078225            2 
 1311000    1.0216442   -7.1248028    484.30827  0.030784914  0.031070202            3 
 1312000    1.0310192     -7.13262    484.80039  0.030792707   0.03106212            2 
 1313000    1.0409874    -7.156735    484.08701  0.030723979  0.031053985            2 
 1314000    1.0630053   -7.0980605    483.25111  0.030647584  0.031045928            2 
 1315000    1.0460449   -7.1029248    485.07182  0.030739659  0.031037891            3 
 1316000    1.0392159   -7.0903145    485.48952  0.030742751  0.031030007            4 
 1317000    1.0382274   -7.1337578    485.75001   0.03073589  0.031021969            2 
 1318000    1.0445367   -7.1457561    484.02447  0.030603469  0.031013929            2 
 1319000    1.0368427   -7.1220488    487.19404  0.030780518  0.031005934            2 
 1320000    1.0299521   -7.1250646    485.76064  0.030666707  0.030997908            2 
 1321000    1.0567363   -7.1471319    485.13308  0.030603904  0.030989924            1 
 1322000    1.0262055   -7.1246262    487.19173  0.030710523  0.030982064            1 
 1323000     1.051555   -7.1304321    487.03292  0.030677307  0.030974192            1 
 1324000    1.0404808    -7.110874    486.25593  0.030605233  0.030966244            1 
 1325000     1.037766   -7.1120778    487.55408  0.030663778  0.030958339            2 
 1326000    1.0540038   -7.1059799    487.74497   0.03065265  0.030950593            2 
 1327000    1.0400642   -7.1143956    487.96739  0.030643519   0.03094269            2 
 1328000    1.0404219   -7.1189762    488.07012   0.03062689   0.03093479            2 
 1329000    1.0258544   -7.1045382    488.21648  0.030613022  0.030926852            2 
 1330000     1.049281   -7.0961517    490.75788  0.030749241  0.030918989            2 
 1331000    1.0424779   -7.1341378    489.41914   0.03064232  0.030911094            2 
 1332000    1.0249419   -7.1178435    488.91595  0.030587834   0.03090316            3 
 1333000    1.0345127   -7.1471516    487.98896  0.030506937  0.030895197            2 
 1334000    1.0335663   -7.1329953    489.47083  0.030576638  0.030887002            3 
 1335000    1.0596756    -7.153004    488.62732  0.030501081  0.030878943            1 
 1336000    1.0469971   -7.1360511    490.09756  0.030569958  0.030870748            3 
 1337000    1.0494415   -7.1242674    488.68569  0.030459093  0.030862507            3 
 1338000    1.0459879   -7.1110851    491.69491  0.030623749  0.030854494            2 
 1339000    1.0724541   -7.1127461     488.4719  0.030400293  0.030846406            2 
 1340000    1.0468472   -7.1150803    490.65158  0.030513158  0.030838369            2 
 1341000    1.0431107    -7.174935    491.04926  0.030515117  0.030830375            2 
 1342000    1.0378597   -7.1215617    490.66452  0.030468487  0.030822395            2 
 1343000    1.0165381   -7.1436793    491.54265  0.030500289  0.030814272            2 
 1344000    1.0814167   -7.1643251     490.7356  0.030427555  0.030806293            2 
 1345000    1.0344726   -7.1491596    490.41645  0.030385158  0.030798092            4 
 1346000     1.054171   -7.1231688    491.27003   0.03041543  0.030790001            5 
 1347000      1.01766   -7.1379185    493.18683  0.030511434  0.030781841            2 
 1348000    1.0472864   -7.1351268    494.27207   0.03055589  0.030773713            4 
 1349000    1.0536399   -7.1527487    492.74889  0.030439145  0.030765785            1 
 1350000    1.0374633   -7.1533162    493.49835  0.030462861  0.030757697            1 
 1351000    1.0293447   -7.1433534    492.27963  0.030365139  0.030749852            1 
 1352000    1.0219589   -7.1305958    494.14927  0.030457918  0.030741955            2 
 1353000    1.0815363   -7.1264114    494.69899  0.030469265  0.030733989            3 
 1354000    1.0621151   -7.1248723    494.91973  0.030460347  0.030725973            2 
 1355000    1.0436444   -7.1484873    494.83115   0.03043242  0.030718138            1 
 1356000    1.0301364    -7.166154    493.69286  0.030340023  0.030710176            2 
 1357000    1.0399791   -7.1260765    494.87224  0.030390091  0.030702243            3 
 1358000    1.0316995   -7.1264813    496.78477  0.030485074  0.030694396            3 
 1359000    1.0374217   -7.1076991    495.06655  0.030357282  0.030686443            7 
 1360000    1.0373106   -7.1244863    496.00376  0.030392387  0.030678608            2 
 1361000    1.0523108     -7.13403    496.69336   0.03041228  0.030670765            2 
 1362000     1.043684   -7.1139987    497.40171  0.030433291  0.030662891            3 
 1363000     1.042864   -7.1690763    495.77961  0.030311788  0.030655118            3 
 1364000     1.033573   -7.1678244    497.17369  0.030374737  0.030647308            2 
 1365000    1.0272609   -7.1431114    497.52312  0.030373817   0.03063952            2 
 1366000    1.0502398   -7.0984894    496.68489  0.030300445   0.03063158            1 
 1367000    1.0389777   -7.1069204    496.88802  0.030290662  0.030623796            2 
 1368000    1.0124856   -7.1261981    498.20568  0.030348787  0.030616155            2 
 1369000    1.0145375   -7.1330901    498.68514  0.030355804  0.030608418            3 
 1370000     1.030847    -7.103722    498.43141  0.030318212  0.030600708            1 
 1371000    1.0445887   -7.1838025    499.06748   0.03033476  0.030592889            2 
 1372000    1.0549743   -7.1599485     500.9662  0.030427976  0.030584981            1 
 1373000    1.0380522   -7.1928126    499.38388  0.030309776   0.03057719            3 
 1374000    1.0234286   -7.1295975    499.60655  0.030301222  0.030569445            3 
 1375000    1.0291241   -7.1662304    499.43219  0.030268618  0.030561766            2 
 1376000    1.0388229   -7.1465748    500.09687  0.030286874  0.030554023            1 
 1377000    1.0299008   -7.1476676    501.58526  0.030354954  0.030546306            5 
 1378000    1.0224526   -7.1259492    502.35501  0.030379476  0.030538754            3 
 1379000    1.0415748   -7.1187066    501.49832  0.030305676  0.030531189            2 
 1380000     1.009345   -7.1495538    500.30815  0.030211845  0.030523546            1 
 1381000    1.0283711    -7.168403    501.88015  0.030284827    0.0305159            5 
 1382000    1.0519912   -7.1287505    502.60518  0.030306631  0.030508444            1 
 1383000    1.0341739   -7.1598364    502.03046  0.030250088  0.030500954            2 
 1384000    1.0322142    -7.119546    502.33485  0.030246559  0.030493305            2 
 1385000     1.001206    -7.141766    503.48289  0.030293796  0.030485739            2 
 1386000    1.0303192    -7.132623    504.18335  0.030314054  0.030478252            2 
 1387000    1.0295679   -7.1461444     502.8897  0.030214474   0.03047072            4 
 1388000     1.048566   -7.1305686    504.87067  0.030311639  0.030463223            2 
 1389000    1.0099723   -7.1134564    502.91077  0.030172233  0.030455628            1 
 1390000    1.0226037   -7.1453714    504.97065   0.03027402  0.030447969            2 
 1391000    1.0200791   -7.1600384    504.74244  0.030238584  0.030440122            2 
 1392000    1.0276859   -7.1318252     505.7535  0.030277388  0.030432381            1 
 1393000    1.0058717   -7.1552277    505.34964  0.030231493  0.030424763            4 
 1394000    1.0425859   -7.1990732    504.92648   0.03018451  0.030417184            3 
 1395000    1.0195665   -7.1346875    505.55141  0.030200204  0.030409665            2 
 1396000    1.0183561   -7.1507353    505.62633  0.030183043  0.030402074            3 
 1397000    1.0144122   -7.1484269    505.00226   0.03012421  0.030394443            2 
 1398000    1.0378292   -7.1207832    507.44729  0.030248408  0.030386857            4 
 1399000     1.020877   -7.1566265    504.78501  0.030068204  0.030379249            2 
 1400000    1.0423197   -7.1074478     508.7337  0.030281768   0.03037179            2 
 1401000     1.023476   -7.1462018    507.67165  0.030196981  0.030364256            4 
 1402000    1.0121249    -7.160593    505.60139  0.030052389  0.030356793            2 
 1403000    1.0275608   -7.1561841    507.74708  0.030158416  0.030349244            5 
 1404000     1.037243   -7.1576417    506.36642  0.030054987  0.030341781            2 
 1405000     1.003276   -7.1594669    509.05046  0.030192791  0.030334353            4 
 1406000    1.0030562   -7.1743464    508.70192  0.030150659  0.030326809            2 
 1407000    1.0317515   -7.1520725    508.52453  0.030118724  0.030319261            2 
 1408000    1.0403898   -7.1431092    507.43984  0.030033135  0.030311821            2 
 1409000    1.0317764   -7.1367325    509.10467  0.030110283  0.030304351            2 
 1410000    1.0228318   -7.1454273    509.66118  0.030121819   0.03029694            1 
 1411000    1.0401062   -7.1728491     508.4712  0.030030191  0.030289268            4 
 1412000    1.0359358   -7.1723065    507.14783  0.029930821   0.03028152            2 
 1413000    1.0278771   -7.1601967    510.22955  0.030091386  0.030273828            3 
 1414000    1.0158551   -7.1447033    510.41163  0.030080837  0.030266129            2 
 1415000    1.0478758   -7.1599237    509.42704  0.030001592  0.030258439            2 
 1416000    1.0284449   -7.1442514    511.06356  0.030076716  0.030250752            3 
 1417000    1.0252236   -7.1574883    509.98549   0.02999209   0.03024308            3 
 1418000    1.0295634   -7.1112292    511.07348  0.030034878  0.030235394            2 
 1419000    1.0132207   -7.1683096    511.31502  0.030027897   0.03022756            4 
 1420000    1.0177093   -7.2014136    509.53603  0.029902349  0.030219718            2 
 1421000    1.0246158   -7.1485501    512.11829  0.030032741  0.030212006            4 
 1422000    1.0135496   -7.1285454    513.23556  0.030077096    0.0302045            2 
 1423000    1.0252279   -7.1895636    511.03015  0.029926806  0.030196864            2 
 1424000    1.0429987   -7.1698094    512.29778  0.029979973  0.030189287            7 
 1425000    1.0358656    -7.142379    511.62937  0.029919846  0.030181618            3 
 1426000    1.0170578   -7.1830567    511.86445  0.029912602  0.030173924            2 
 1427000    1.0097791   -7.1123287    513.98184  0.030015291  0.030166349            3 
 1428000     1.017312   -7.1530702    513.83713  0.029985827  0.030158959            1 
 1429000    1.0052407    -7.160929    514.78847  0.030020321  0.030151498            4 
 1430000     1.010641   -7.1656844    513.60286  0.029930237  0.030143885            4 
 1431000    1.0338436    -7.199453    512.66349  0.029854618  0.030136201            5 
 1432000    1.0022245   -7.1677669    513.99619  0.029911324  0.030128629            2 
 1433000    1.0206071   -7.1201893    514.85552  0.029940423  0.030121069            2 
 1434000    1.0075606   -7.1711739    514.69588  0.029910267  0.030113406            2 
 1435000    1.0377894   -7.1368105    515.52021  0.029937294  0.030105796            2 
 1436000    1.0179233   -7.1636235    516.37917  0.029966294  0.030098225            3 
 1437000     1.007251   -7.1922947    514.53431  0.029838455  0.030090595            2 
 1438000    1.0453797    -7.163477    515.82921  0.029892745  0.030082935            2 
 1439000    1.0405423   -7.1692461    515.80831  0.029870762  0.030075337            1 
 1440000     1.020379   -7.2068952    514.69204  0.029785419  0.030067631            2 
 1441000     1.007743   -7.1491687    517.37489  0.029919899  0.030059984            1 
 1442000    1.0202386   -7.1546524    517.90292  0.029929665  0.030052442            3 
 1443000    1.0177088   -7.1809547    516.31532   0.02981724  0.030044734            3 
 1444000    1.0212668   -7.1798478    515.34122  0.029740375  0.030037175            2 
 1445000    1.0013278   -7.1784225    515.09197  0.029705419  0.030029405            2 
 1446000    1.0233245   -7.2185049     517.3513  0.029815082   0.03002165            2 
 1447000    1.0076603   -7.2175331    517.58581  0.029807983  0.030014025            3 
 1448000     1.011392   -7.1852276    517.18175  0.029764143  0.030006508            1 
 1449000    1.0079937   -7.1243292    518.97378  0.029846663   0.02999903            3 
 1450000    1.0097707   -7.1826669    517.90228  0.029764499  0.029991511            2 
 1451000    1.0198122   -7.1815246    519.48064  0.029834634   0.02998402            2 
 1452000    1.0319973   -7.1754862    517.21514  0.029684064  0.029976407            2 
 1453000    1.0107096   -7.1828268    518.45829  0.029734933  0.029968752            2 
 1454000    1.0267353   -7.1580182    518.83901  0.029736303  0.029961163            1 
 1455000     1.005415   -7.1660514    519.91426  0.029777449   0.02995354            2 
 1456000   0.99632399    -7.196375    518.49696  0.029675879  0.029945926            2 
 1457000    1.0221785   -7.1799769    518.98911   0.02968366  0.029938195            2 
 1458000    1.0163112   -7.1951065    519.24853  0.029678128  0.029930498            4 
 1459000    1.0011458   -7.1947786    520.39668  0.029723365  0.029922808            3 
 1460000     1.014447   -7.2188601    520.53437  0.029710866  0.029915056            9 
 1461000    1.0303169   -7.1668112    520.67641  0.029698632  0.029907353            2 
 1462000    1.0085981   -7.1722163    520.11187  0.029646139  0.029899593            2 
 1463000    1.0387207   -7.1682492    520.32318  0.029637912   0.02989186            2 
 1464000    1.0170556   -7.1601037    520.52813  0.029629333  0.029884065            2 
 1465000    1.0438703   -7.2018223    520.48561   0.02960669  0.029876176            2 
 1466000    1.0176888   -7.1806873    520.92125  0.029611258  0.029868136            1 
 1467000    1.0273063   -7.2107901    520.30924  0.029556308  0.029860287            2 
 1468000    1.0364425   -7.1876171    520.42166  0.029542556  0.029852465            1 
 1469000    1.0162924   -7.1848249    521.18012  0.029565471  0.029844555            1 
 1470000    1.0219883   -7.1815173     522.7003  0.029631536   0.02983663            3 
 1471000    1.0181595   -7.1633866    521.66428  0.029552701  0.029828716            2 
 1472000    1.0158493    -7.186976    522.03791  0.029553777  0.029820886            4 
 1473000    1.0138113   -7.1936737    522.08106  0.029536154  0.029813025            4 
 1474000    1.0277659   -7.1486086    522.62789  0.029547031  0.029804997            3 
 1475000     1.025604   -7.1883175    520.77333  0.029422222   0.02979704            2 
 1476000    1.0319975   -7.1625792    523.01157  0.029528657  0.029788987            1 
 1477000    1.0226295   -7.1888874    523.06287  0.029511559  0.029781026            2 
 1478000    1.0080281   -7.1742111     523.7577  0.029530768  0.029773018            1 
 1479000    1.0087303   -7.1740094    521.79622  0.029400283  0.029764904            6 
 1480000    1.0275454   -7.1929498    521.91226  0.029386951  0.029756915            2 
 1481000    1.0140246   -7.2114048    523.61033  0.029462656   0.02974877            7 
 1482000    1.0002407   -7.1540376    524.62979  0.029500101  0.029740801            2 
 1483000    1.0263386   -7.1701637    524.38597  0.029466508   0.02973294            2 
 1484000    1.0436591   -7.2005683    524.59326  0.029458292  0.029725145            2 
 1485000    1.0132749   -7.2148443    524.07985  0.029409643   0.02971711            2 
 1486000    1.0347833   -7.1772934    525.32663  0.029459771  0.029709223            2 
 1487000    1.0052801   -7.1764314    525.86904  0.029470357   0.02970142            2 
 1488000    1.0310513    -7.174694    526.92272  0.029509561  0.029693666            3 
 1489000     1.001643   -7.2304577    525.56171  0.029413572  0.029685846            2 
 1490000    1.0063473   -7.1751885    527.16385  0.029483437  0.029677952            1 
 1491000    1.0359512   -7.1942809    525.68413   0.02938096  0.029670057            1 
 1492000    1.0076524   -7.1742918    526.62224  0.029413664  0.029662186            2 
 1493000    1.0083264   -7.1893489    527.71396  0.029454898  0.029654327            2 
 1494000    1.0251161   -7.1996211    525.42656  0.029307595  0.029646489            2 
 1495000   0.99893029   -7.1848294    526.66214  0.029356864  0.029638758            2 
 1496000   0.99535782    -7.196103     527.2103  0.029367775  0.029630991            2 
 1497000    1.0050176   -7.1721778    528.20176  0.029403349  0.029623039            2 
 1498000    1.0228408   -7.1850803     527.7582  0.029359045  0.029615232            1 
 1499000   0.99177901    -7.187988    528.47735  0.029379439  0.029607265            2 
 1500000    1.0398619    -7.146674    530.08377  0.029449098  0.029599387            3 
 1501000    1.0096984   -7.1771687    528.96054  0.029367119  0.029591642            5 
 1502000    1.0014314   -7.1824403     529.1248   0.02935668  0.029583802            2 
 1503000    1.0108435   -7.1671377    528.81109  0.029319754  0.029576041            2 
 1504000    1.0183856   -7.1668805    530.58286   0.02939843  0.029568269            3 
 1505000    1.0093382   -7.1798129    529.42843  0.029314974   0.02956063            3 
 1506000   0.97725909   -7.1909174    530.16613  0.029336329  0.029552877            4 
 1507000    1.0321714   -7.1702238    531.23796  0.029376131  0.029545007            2 
 1508000    1.0236112   -7.2195372    529.38638  0.029254331  0.029537212            3 
 1509000    1.0164464   -7.1965372    530.70805  0.029307933  0.029529328            1 
 1510000    1.0194621   -7.1679049     531.1287  0.029311739  0.029521557            2 
 1511000   0.99870629    -7.203015    531.36009  0.029305101  0.029513777            3 
 1512000    1.0045486    -7.172744    531.11799  0.029272376   0.02950605            2 
 1513000    1.0130923   -7.2136873    530.54505  0.029221472  0.029498283            1 
 1514000    1.0102683    -7.188324    531.43585  0.029251203  0.029490492            2 
 1515000    1.0050098   -7.2594558    531.06619  0.029211561  0.029482615            3 
 1516000    1.0182268   -7.2249954    529.84277  0.029125042  0.029474676            1 
 1517000     1.043973   -7.2097277    530.96968  0.029167748  0.029466799            2 
 1518000    0.9910006   -7.1867959    532.57919   0.02923689  0.029459032            3 
 1519000    1.0241545   -7.2037103     532.6859  0.029223497  0.029451263            1 
 1520000    1.0016584   -7.1728882    534.04063  0.029278543  0.029443471            1 
 1521000   0.99500597   -7.2275898    532.62609  0.029181793  0.029435624            1 
 1522000   0.99081992    -7.198293    533.53598  0.029212439    0.0294278            4 
 1523000     1.005769   -7.2182758    533.58736  0.029196069  0.029420041            1 
 1524000   0.99828431   -7.1795167    534.08108  0.029203908  0.029412327            1 
 1525000    1.0032696   -7.1853322    535.85748  0.029281829  0.029404691            3 
 1526000   0.99036051   -7.1860356    533.88012  0.029154659  0.029396858            3 
 1527000    1.0243185   -7.1995633    533.96634  0.029140272  0.029389203            2 
 1528000   0.99544846   -7.2094205    534.98772  0.029176905  0.029381318            1 
 1529000    1.0004245    -7.198824    534.51631  0.029132129  0.029373686            2 
 1530000    1.0131237   -7.2196059    535.41228  0.029161889  0.029366032            3 
 1531000    1.0245323   -7.2008217    536.14031  0.029182468   0.02935842            1 
 1532000   0.99599123   -7.2194837    534.06098  0.029050314  0.029350664            2 
 1533000    1.0159873   -7.1930911    536.48479  0.029163122  0.029342938            2 
 1534000     1.001107   -7.2702483    535.38571  0.029084404  0.029335209            6 
 1535000    1.0167925   -7.2419729     537.3637  0.029172839  0.029327384            2 
 1536000   0.99482094   -7.2321157    536.54129  0.029109228  0.029319682            2 
 1537000     1.001429   -7.1798561    537.15158  0.029123378  0.029311876            2 
 1538000   0.99886221   -7.2003151    536.36275  0.029061701   0.02930412            2 
 1539000    1.0111872   -7.2011768    536.59244  0.029055254  0.029296346            2 
 1540000    1.0339723   -7.1718578    536.64944  0.029039472   0.02928865            1 
 1541000   0.99862897   -7.1650839    538.41677    0.0291162  0.029280826            2 
 1542000    1.0109947   -7.1982267    537.81121  0.029064592   0.02927303            2 
 1543000    1.0153146   -7.2025615    537.79809  0.029045047  0.029265283            2 
 1544000    1.0032034   -7.2067033    537.30173  0.028999446  0.029257542            3 
 1545000    1.0108463   -7.2071737    539.84567   0.02911789  0.029249703            1 
 1546000   0.99350566   -7.1725928    539.02029  0.029054565  0.029242053            2 
 1547000   0.99590419   -7.2139365    536.96935  0.028925304   0.02923441            4 
 1548000   0.97954827   -7.1958715    539.35463  0.029035025  0.029226923            2 
 1549000     0.988511   -7.1725361    540.53708  0.029079894   0.02921934            2 
 1550000   0.98427689   -7.1868845    539.99957  0.029032235  0.029211705            3 
 1551000    1.0141659   -7.1964596    540.26691   0.02902788  0.029203974            3 
 1552000    1.0189985   -7.2279384    539.51682  0.028968901  0.029196233            1 
 1553000    1.0060779   -7.2117878    540.52703  0.029004456  0.029188545            1 
 1554000   0.99610008   -7.2140176     539.9601   0.02895539  0.029181037            4 
 1555000    1.0105377   -7.2131005     541.3819  0.029012964  0.029173424            2 
 1556000    1.0359792   -7.2320141    541.39311  0.028994918  0.029165929            2 
 1557000    1.0011545   -7.1905836    540.85044  0.028947251  0.029158503            2 
 1558000    1.0003696   -7.1942418    541.52151  0.028964565  0.029151091            2 
 1559000   0.98836977   -7.2025041    545.01016  0.029132465  0.029143809            2 
 1560000    1.0137047    -7.207279    543.98522   0.02905904   0.02913644            1 
 1561000    1.0051424   -7.2373353    543.63031  0.029021477  0.029129101            3 
 1562000   0.97855737   -7.1629073     545.0772  0.029080089  0.029121709            2 
 1563000    1.0163692   -7.2235509    544.21334  0.029015426  0.029114441            1 
 1564000   0.98192863   -7.2094177    544.59503  0.029017212  0.029107257            3 
 1565000    1.0043401   -7.1916315    544.25288  0.028980452  0.029100057            3 
 1566000    1.0041303   -7.1853585    544.94766  0.028998918  0.029092807            1 
 1567000   0.99224887    -7.212196    544.75314  0.028970067   0.02908554            2 
 1568000    1.0084054   -7.1998199    544.69143  0.028948311  0.029078223            3 
 1569000     1.032021   -7.2299537    544.57811  0.028923843  0.029070913            2 
 1570000    1.0021827   -7.2360409    545.03048  0.028929431  0.029063565            2 
 1571000    1.0046923   -7.1889145    546.70469  0.028999824  0.029056228            3 
 1572000   0.97244026   -7.2239645    545.26436  0.028905023  0.029048916            2 
 1573000   0.99442392   -7.2539386    544.57254  0.028849997  0.029041496            2 
 1574000    1.0138833   -7.2486228    545.33868   0.02887223  0.029034116            1 
 1575000   0.98991453   -7.2100339    547.47671  0.028967021  0.029026759            1 
 1576000    1.0082353   -7.2267309    546.16155    0.0288791   0.02901958            5 
 1577000   0.99547599   -7.1898988    549.70466  0.029048016  0.029012298            4 
 1578000   0.99766572    -7.195439    546.37254   0.02885364  0.029005016            2 
 1579000   0.99197563   -7.2210262    548.30335  0.028937268  0.028997741            1 
 1580000    1.0084726   -7.2193574     547.5758   0.02888058  0.028990458            1 
 1581000    1.0116643   -7.2006543    548.80387  0.028927044  0.028983297            2 
 1582000   0.98831519   -7.2124864     549.6343  0.028952502  0.028976186            4 
 1583000     1.008991   -7.1942212    548.56287  0.028877809  0.028969121            4 
 1584000     1.025495   -7.1944837    551.51612  0.029014947  0.028962092            2 
 1585000   0.98672604   -7.2195178    549.67011  0.028899585  0.028954937            1 
 1586000   0.98180356   -7.2127921    550.82096  0.028941833  0.028947871            2 
 1587000   0.99855807   -7.2142661    549.73604  0.028866627  0.028940779            3 
 1588000   0.99849395   -7.2352777    548.78426  0.028798502   0.02893355            4 
 1589000   0.98476206   -7.2094806    548.53796  0.028767462  0.028926369            2 
 1590000    1.0074401   -7.2071976    551.17533  0.028887596    0.0289193            3 
 1591000    1.0087939   -7.2023003    550.70187   0.02884464  0.028912106            2 
 1592000   0.99356448    -7.213102    550.75108  0.028829097  0.028905108            2 
 1593000    1.0007606   -7.2519009    549.68478   0.02875522  0.028897968            2 
 1594000   0.99232792   -7.2262225    551.41649  0.028827713  0.028890834            2 
 1595000    1.0146202    -7.245312    550.59035  0.028766476  0.028883705            4 
 1596000   0.97868419   -7.2180677    553.17687  0.028883504  0.028876493            2 
 1597000   0.99200792   -7.2283469    553.06557   0.02885961   0.02886946            4 
 1598000   0.99621937   -7.2335141    553.51895  0.028865193  0.028862374            2 
 1599000   0.99851351   -7.2581278     553.1061  0.028825626   0.02885524            2 
 1600000    1.0021022     -7.24677    552.49901   0.02877599  0.028848269            1 
 1601000   0.98960616   -7.2401361    553.61696  0.028816206   0.02884128            2 
 1602000   0.99525103   -7.2429114    554.56757  0.028847668   0.02883426            2 
 1603000   0.96737256   -7.2053423    553.71538   0.02878537  0.028827434            3 
 1604000   0.98837141   -7.2208059    555.48972  0.028859607  0.028820525            4 
 1605000   0.99264494   -7.2402535    555.66188  0.028850565  0.028813665            3 
 1606000   0.98647047   -7.2362521    555.79223  0.028839364  0.028806797            1 
 1607000   0.99388514    -7.178835    556.98106  0.028883067   0.02879993            1 
 1608000   0.97063277   -7.2539337    555.07296  0.028766219  0.028793115            1 
 1609000   0.98776998   -7.2201507    555.67215  0.028779374   0.02878628            3 
 1610000    0.9751486   -7.2033415    557.76204  0.028869671  0.028779558            2 
 1611000    1.0005648   -7.2410165    556.34892  0.028778653  0.028772708            4 
 1612000   0.99878748   -7.2323474    556.84742   0.02878657  0.028765944            3 
 1613000   0.99195361   -7.2703153    556.51415  0.028751506  0.028759176            2 
 1614000   0.99879887   -7.2323998    558.63439  0.028843163  0.028752371            2 
 1615000   0.98899385   -7.2332722    559.40584   0.02886511  0.028745706            2 
 1616000   0.97817462   -7.2386793    558.73134  0.028812466  0.028738889            4 
 1617000    1.0031048   -7.2772809    556.35183  0.028672018   0.02873205            2 
 1618000    1.0026408   -7.2255628    560.85194   0.02888607   0.02872543            3 
 1619000    1.0080482   -7.1811166    559.86808  0.028817587  0.028718875            3 
 1620000   0.98146652   -7.2304536    561.00204   0.02885813  0.028712315            3 
 1621000   0.97924574   -7.2506351    560.38401  0.028808555  0.028705526            3 
 1622000   0.97763381   -7.2422775    560.35772  0.028789443  0.028698761            2 
 1623000   0.99287267    -7.243598    558.17433  0.028659598  0.028691983            8 
 1624000   0.98287108   -7.2224057     560.2221  0.028747029   0.02868529            3 
 1625000   0.98611601   -7.2316808     560.4499  0.028741021  0.028678652            4 
 1626000    1.0111873   -7.2073641    561.30075  0.028766951  0.028672028            2 
 1627000     1.018786   -7.2219688    561.23378   0.02874584  0.028665325            1 
 1628000   0.98613037    -7.219078    560.78153  0.028705033   0.02865866            1 
 1629000    1.0145766   -7.2153078    559.71443  0.028632823  0.028651906            2 
 1630000    0.9896464   -7.2174008    562.89903  0.028778069  0.028645179            2 
 1631000    1.0054446    -7.192078    563.27953  0.028779866  0.028638497            2 
 1632000   0.99977078   -7.2520194    561.98047  0.028695898  0.028631794            4 
 1633000   0.99353433    -7.216986    563.15918  0.028738476  0.028625143            1 
 1634000   0.98740554   -7.2573802     561.2674  0.028624408  0.028618368            2 
 1635000   0.96969389   -7.2147242      563.644  0.028728033  0.028611824            3 
 1636000   0.98766905   -7.2665618     563.1949  0.028687597  0.028605144            5 
 1637000       1.0119   -7.2484073    564.07747  0.028715001  0.028598551            2 
 1638000   0.98592194   -7.2150955    563.82417  0.028684583  0.028591878            2 
 1639000    0.9757185   -7.2355286    563.58155  0.028654746   0.02858524            3 
 1640000    1.0087505   -7.2203898    563.56009  0.028636183  0.028578603            1 
 1641000    0.9964206   -7.2313651     563.7788   0.02862984   0.02857191            4 
 1642000     1.005706   -7.2212219    564.35335  0.028641563  0.028565285            2 
 1643000   0.99906048   -7.2290683    564.08081  0.028610307  0.028558579            3 
 1644000   0.97365161   -7.2631286    563.38658  0.028557714  0.028551822            3 
 1645000     0.982238   -7.2300012    564.73932  0.028608881  0.028545077            2 
 1646000    0.9768348   -7.2301653    564.86956  0.028598095  0.028538222            2 
 1647000    1.0067323   -7.2488174    564.19491  0.028546595  0.028531318            2 
 1648000     1.015175   -7.2348394    566.67815  0.028654842  0.028524506            2 
 1649000    1.0012252   -7.2381926    564.02949  0.028503613  0.028517674            2 
 1650000   0.97509319   -7.2319835    564.62324  0.028516325  0.028510775            2 
 1651000   0.96065794   -7.2105657    565.03587   0.02851988  0.028503931            1 
 1652000   0.99901505   -7.2271029    565.32855   0.02851738  0.028497116            2 
 1653000   0.99618906   -7.2378547    565.49667  0.028508604  0.028490284            2 
 1654000   0.98548238   -7.2465185    568.32247   0.02863374  0.028483478            6 
 1655000   0.98201229    -7.259961    566.94591  0.028547125  0.028476707            2 
 1656000    1.0033221    -7.280023    565.95926  0.028480236  0.028470107            2 
 1657000    1.0004443   -7.2396186    567.87294  0.028559291  0.028463447            3 
 1658000   0.98089632   -7.2309547    567.70015  0.028533381  0.028456804            2 
 1659000   0.95803025   -7.2673727    567.09188  0.028485628  0.028450177            3 
 1660000    1.0072797   -7.2446046    568.17831  0.028523008  0.028443445            3 
 1661000    0.9973125    -7.232941     570.0563  0.028600055  0.028436859            2 
 1662000   0.98942461   -7.2248367     571.0323  0.028631784  0.028430351            2 
 1663000   0.99997294   -7.2443761    569.62848  0.028544221  0.028423776            2 
 1664000   0.99051608   -7.2827173    568.44449  0.028467773  0.028417089            3 
 1665000   0.96197417   -7.2228194     568.4246   0.02844968  0.028410383            2 
 1666000    0.9680596   -7.2448504    569.20629  0.028471703   0.02840364            2 
 1667000   0.99747324   -7.2181928    570.55395  0.028521993  0.028396958            2 
 1668000   0.99647389   -7.2601333    569.01724   0.02842812  0.028390333            1 
 1669000   0.95802202   -7.2664356    569.20481  0.028420452  0.028383598            4 
 1670000   0.97777364   -7.2245886     569.9672  0.028441477  0.028376957            2 
 1671000    1.0020039   -7.2260273    571.46416   0.02849911  0.028370519            2 
 1672000   0.98644112   -7.2315832    570.73403  0.028445675  0.028364063            2 
 1673000   0.98080158   -7.2651289    571.63411  0.028473506  0.028357533            2 
 1674000   0.97957882    -7.255412     571.7818  0.028463849  0.028350981            5 
 1675000   0.97010611   -7.2568187    571.43438  0.028429571  0.028344436            4 
 1676000   0.98239689    -7.249513    569.76548  0.028329628  0.028337906            2 
 1677000   0.97422188    -7.243002    572.25907  0.028436646  0.028331303            2 
 1678000   0.99174444   -7.2493301    573.26655  0.028469733  0.028324774            2 
 1679000   0.98696832   -7.2556367    572.63725  0.028421543  0.028318229            3 
 1680000   0.99187514   -7.2530418    575.26436  0.028534939  0.028311782            5 
 1681000   0.98984575     -7.21988    575.00686  0.028505198  0.028305453            2 
 1682000   0.96117702   -7.2462944    575.62227  0.028518741  0.028299219            1 
 1683000   0.97782635   -7.2633265    573.83781  0.028413439  0.028292889            2 
 1684000   0.98402968   -7.2606874    575.61729  0.028484625  0.028286594            3 
 1685000   0.99324186    -7.245272    576.23385  0.028498212  0.028280339            3 
 1686000   0.96800428   -7.2784233    576.35018  0.028487059   0.02827397            3 
 1687000   0.99395269   -7.2258872    575.84301   0.02844512  0.028267644            2 
 1688000   0.96616258   -7.2657893    576.65146   0.02846818  0.028261421            2 
 1689000   0.98890515     -7.25755    577.11655  0.028474272  0.028255278            2 
 1690000   0.98096932   -7.2866341    574.94904  0.028350544  0.028249147            1 
 1691000   0.98544607   -7.2353917    578.22905   0.02849542  0.028243093            2 
 1692000   0.97126369   -7.2621274    578.04456  0.028469492  0.028236947            2 
 1693000   0.96141586   -7.2714118    576.72428  0.028387689  0.028230744            2 
 1694000   0.97128883   -7.2147156    578.18158   0.02844262  0.028224503            2 
 1695000   0.97368603   -7.2625605     578.2373  0.028428579  0.028218294            1 
 1696000   0.99028606    -7.254379    578.36999  0.028418337  0.028212137            2 
 1697000   0.98877173   -7.2488607    578.34585  0.028400405  0.028205946            4 
 1698000   0.98610431   -7.2192823    579.65705   0.02844803  0.028199823            5 
 1699000   0.95667906    -7.222239    579.12214  0.028405049  0.028193647            3 
 1700000   0.98247088   -7.2583024    579.21392  0.028392839  0.028187449            1 
 1701000   0.99198868   -7.2598295    578.88779   0.02836017  0.028181094            1 
 1702000   0.99431666   -7.2694732    578.30434   0.02831494  0.028174727            1 
 1703000   0.98016261   -7.2711356    578.53456  0.028309579  0.028168389            5 
 1704000   0.99384165   -7.2530667    578.73927  0.028302977  0.028161982            2 
 1705000   0.96816677   -7.2774399    579.04723  0.028301429  0.028155541            3 
 1706000   0.98794823   -7.2326699    579.81996  0.028322585  0.028149147            1 
 1707000   0.98257684   -7.2671595    580.02923  0.028316209  0.028142778            2 
 1708000   0.98708944   -7.2605689    580.13388  0.028304737  0.028136434            1 
 1709000   0.98445031   -7.2873397    578.21941  0.028194822  0.028130019            1 
 1710000   0.97430138   -7.2716976    579.90852  0.028260649  0.028123629            2 
 1711000   0.98685077   -7.2673419    579.41023  0.028219863   0.02811726            3 
 1712000   0.99000571   -7.2828635    579.30257  0.028198139  0.028110867            3 
 1713000   0.98490375   -7.2547324    579.41413  0.028187105  0.028104475            2 
 1714000   0.98709885   -7.2857245    580.79373  0.028237735  0.028098065            2 
 1715000   0.96144223   -7.2638806    581.02543  0.028232528  0.028091629            2 
 1716000   0.96579964   -7.2731071    579.59876  0.028146793  0.028085038            2 
 1717000   0.94630501   -7.2725913    581.34472  0.028215139   0.02807848            5 
 1718000   0.98683833   -7.2516433    581.77349  0.028219514    0.0280721            1 
 1719000   0.97170998   -7.2486659     580.4499  0.028138933  0.028065737            4 
 1720000   0.96777509    -7.258873    582.06613  0.028200878  0.028059231            1 
 1721000   0.97811409   -7.2802784    580.80348  0.028123353  0.028052712            1 
 1722000   0.95960803   -7.2189781    583.27417  0.028226586  0.028046203            2 
 1723000   0.95099669   -7.2664818    582.07295  0.028152107  0.028039651            2 
 1724000   0.95419135   -7.2447548    583.12486  0.028186623  0.028033108            2 
 1725000   0.97085084   -7.2485969    581.49645  0.028091616  0.028026589            1 
 1726000   0.96953362   -7.2560462    581.83631  0.028091749  0.028020078            2 
 1727000   0.98396993   -7.2974637    580.76136  0.028023613  0.028013505            3 
 1728000   0.97538256   -7.2468064    584.17106   0.02817183  0.028006887            3 
 1729000   0.97993676   -7.2515194    583.56177   0.02812617  0.028000338            2 
 1730000   0.99316306   -7.2686606    582.08947  0.028038992  0.027993718            2 
 1731000   0.97048395   -7.2857206    582.61003  0.028047854  0.027987149            2 
 1732000   0.95940739   -7.2542801    583.07339  0.028053955  0.027980542            2 
 1733000    0.9522891   -7.2279531    586.19631  0.028187936  0.027973953            2 
 1734000   0.97408943   -7.2289353    584.24239  0.028077777  0.027967344            3 
 1735000   0.98068041   -7.2806091    583.30251  0.028016451  0.027960792            4 
 1736000   0.96968518   -7.2599193    584.24956  0.028045774  0.027954192            3 
 1737000   0.97619247   -7.2885947    583.45359  0.027991441  0.027947528            5 
 1738000   0.97382298   -7.2402709     583.4593  0.027975609  0.027940936            1 
 1739000   0.96368497     -7.28496    584.64346  0.028016267  0.027934244            3 
 1740000   0.96179223   -7.2298466    585.83633  0.028057296   0.02792761            4 
 1741000    0.9638778   -7.2399196    584.11356  0.027958719  0.027921084            1 
 1742000   0.98206918   -7.2771613    586.59365  0.028061311  0.027914651            2 
 1743000    1.0036923   -7.2519411     586.7068  0.028050622  0.027908192            4 
 1744000   0.98960452   -7.2656328    583.80482  0.027895873  0.027901662            4 
 1745000   0.96683943   -7.2300312    587.97134   0.02807886  0.027895158            1 
 1746000   0.95736284   -7.2989081    586.14182  0.027975459  0.027888634            3 
 1747000   0.96344402   -7.2438916    588.40581   0.02806744  0.027882123            2 
 1748000    0.9732407   -7.2956782    586.65537  0.027967933  0.027875641            1 
 1749000   0.96556923   -7.2798748     586.0683  0.027923971  0.027869049            5 
 1750000   0.95063852   -7.2885281    586.49918  0.027928532   0.02786237            4 
 1751000   0.96617885   -7.2752975    587.54583  0.027962395   0.02785571            5 
 1752000   0.95217982   -7.2594638    585.94378  0.027870233  0.027849025            2 
 1753000   0.98969899   -7.2662949    586.62531  0.027886733  0.027842366            2 
 1754000   0.95057787   -7.2712191    588.04632  0.027938347  0.027835751            5 
 1755000   0.97429731   -7.2650791    587.36855  0.027890245  0.027829157            2 
 1756000   0.96783188   -7.2584265    585.61362  0.027791079  0.027822535            3 
 1757000   0.97663485    -7.308231    587.23368    0.0278521  0.027815892            3 
 1758000   0.97942621   -7.2337323    588.20113  0.027882116    0.0278092            2 
 1759000   0.98406472   -7.2706216    590.14894  0.027958544  0.027802475            4 
 1760000    0.9730976   -7.2702965    586.87619  0.027787698  0.027795758            2 
 1761000    0.9680782   -7.3030079    588.11497   0.02783054  0.027789028            2 
 1762000   0.96470673   -7.2637408    589.36372  0.027873805  0.027782254            2 
 1763000   0.95803206   -7.2816139    588.51647  0.027817946  0.027775445            2 
 1764000   0.96714434   -7.2940124    588.05113  0.027780193  0.027768599            8 
 1765000   0.95756097   -7.2668554    589.26184  0.027821617   0.02776174            1 
 1766000   0.97899169   -7.2866209     588.5635  0.027772909  0.027754908            1 
 1767000   0.94624399   -7.2381365    590.66536  0.027856317  0.027748172            2 
 1768000   0.98664728   -7.2758373    589.33158  0.027777695  0.027741308            1 
 1769000   0.93722131   -7.3062761    588.10592  0.027704255  0.027734459            4 
 1770000   0.96031384   -7.3169279     591.3824  0.027842863  0.027727653            4 
 1771000   0.94873979   -7.2579039    590.75489  0.027797614  0.027720828            4 
 1772000   0.96756866   -7.3112104    589.71102  0.027732836  0.027713894            3 
 1773000    0.9640932   -7.2781821    589.92283  0.027727149  0.027706939            1 
 1774000   0.97556669   -7.2601952    591.91298  0.027805007  0.027700106            4 
 1775000   0.97160659   -7.2869013     591.0151  0.027747188  0.027693292            2 
 1776000   0.96906026   -7.2901373    590.16204  0.027691537  0.027686398            3 
 1777000   0.95277288   -7.2798854    591.73196  0.027749576  0.027679577            4 
 1778000   0.96163679   -7.3047395    589.87674  0.027647016  0.027672822            3 
 1779000   0.98523612   -7.2934702    590.72785  0.027671344  0.027665996            3 
 1780000     0.946282   -7.2571627    593.31414  0.027776879  0.027659219            2 
 1781000   0.95458947   -7.2982316    592.14241  0.027706457  0.027652511            1 
 1782000   0.95587206    -7.277704    590.85688  0.027630793  0.027645689            3 
 1783000   0.98793039   -7.2833136    592.63756  0.027698521  0.027638857            2 
 1784000   0.98522157   -7.3186309    592.74845  0.027688175  0.027632144            2 
 1785000   0.98163063   -7.2885823    593.56428  0.027710751  0.027625525            3 
 1786000   0.95881027   -7.2884985    593.14607  0.027675722  0.027618853            3 
 1787000   0.94949947   -7.2892025    594.43517  0.027720349  0.027612208            2 
 1788000   0.96744219   -7.2802585    594.65737  0.027715202  0.027605557            2 
 1789000   0.96564438   -7.2662927    595.41186  0.027734854  0.027598999            5 
 1790000    0.9497196   -7.2702315    594.05921  0.027656388  0.027592426            2 
 1791000   0.97856153   -7.3364971    593.47626  0.027613822  0.027585886            2 
 1792000   0.96116065   -7.3009077    594.35226  0.027639149  0.027579322            2 
 1793000   0.96425967   -7.3288821      594.351  0.027623675  0.027572578            3 
 1794000   0.95040119    -7.324288    593.02355  0.027546616  0.027565881            5 
 1795000   0.97880943   -7.3050832    594.64642  0.027606612   0.02755929            1 
 1796000   0.94784264   -7.3020635    594.95646  0.027605626  0.027552596            7 
 1797000   0.96586591   -7.2941371    592.91345  0.027495523  0.027545866            1 
 1798000    0.9518383   -7.3011203    595.95541  0.027621219  0.027539198            3 
 1799000   0.94909121   -7.2717245    594.91757   0.02755779  0.027532538            4 
 1800000   0.96776213   -7.3299481    595.17863  0.027554566  0.027525744            4 
 1801000   0.96399811   -7.2626783    595.21588   0.02754099  0.027518916            3 
 1802000   0.97593651   -7.3059134    594.95518  0.027513651  0.027512185            1 
 1803000   0.96930391   -7.2892961    595.80547  0.027537691  0.027505447            2 
 1804000   0.95946671   -7.2902603     596.1451  0.027538114  0.027498651            1 
 1805000    0.9673816   -7.2742396    595.61509  0.027498388  0.027491923            2 
 1806000   0.97663212   -7.2663874    596.35561  0.027517332  0.027485166            1 
 1807000   0.96357127   -7.3113862    597.04782  0.027534026  0.027478446            2 
 1808000   0.94935028    -7.328288    594.05759  0.027380973   0.02747171            1 
 1809000   0.94821558   -7.2892522    599.07472  0.027596956  0.027464985            2 
 1810000   0.95384617   -7.3005227    597.52475  0.027510348  0.027458326            2 
 1811000   0.97000073   -7.2633726    598.68335   0.02754847  0.027451733            2 
 1812000   0.94921728   -7.2819749    599.16441  0.027555391  0.027445123            3 
 1813000   0.96304172   -7.2940682     597.0006  0.027440733  0.027438335            3 
 1814000   0.96483562   -7.3128193    598.28895  0.027484792  0.027431606            3 
 1815000   0.94539289    -7.300913    597.98708  0.027455789  0.027424803            1 
 1816000   0.96811753   -7.3269858    596.14666  0.027356216  0.027418006            2 
 1817000   0.96431474    -7.311247    597.54174  0.027405143  0.027411111            2 
 1818000   0.98476692    -7.280532    599.74385  0.027491009  0.027404334            2 
 1819000   0.96783738   -7.3027436    599.10049  0.027446422  0.027397478            2 
 1820000   0.95994067   -7.3151937     597.1852  0.027343645  0.027390755            4 
 1821000   0.96119228   -7.2793296     601.1572  0.027510397  0.027384088            1 
 1822000   0.95907825   -7.3082663    599.41164  0.027415461  0.027377426            1 
 1823000   0.96534501   -7.2924373    600.30753  0.027441375  0.027370686            5 
 1824000   0.96762376   -7.2545683    601.58611  0.027484746  0.027364041            2 
 1825000   0.95506761   -7.2912379    601.12235  0.027448509  0.027357425            2 
 1826000   0.96847381   -7.2843934    604.22307  0.027574985  0.027350854            3 
 1827000   0.94012919   -7.2769011    601.35579  0.027429109  0.027344159            2 
 1828000   0.95355006   -7.3010527    600.24985  0.027363688   0.02733745            3 
 1829000   0.94133173   -7.3168075    601.85694  0.027421949  0.027330669            1 
 1830000   0.95255114   -7.2926176    603.85552  0.027497975  0.027324087            2 
 1831000   0.97058116   -7.2689442    602.03257  0.027399989  0.027317531            5 
 1832000   0.95112756   -7.2393665    602.58601  0.027410208  0.027310905            2 
 1833000   0.96542587   -7.3095768    603.29259  0.027427377  0.027304379            2 
 1834000   0.94911044   -7.3074411    602.37988  0.027370951  0.027297817            1 
 1835000   0.94823995   -7.3151825     601.5725  0.027319369  0.027291263            3 
 1836000   0.95496961   -7.3050139    603.85487  0.027408083  0.027284704            1 
 1837000   0.99206676   -7.3187328     603.8414  0.027392551  0.027278159            2 
 1838000   0.96519467   -7.3094015    604.62051  0.027412972  0.027271551            3 
 1839000    0.9500549   -7.3400105    603.49058  0.027346863  0.027264962            4 
 1840000    0.9721542   -7.2993176    603.45696  0.027330478  0.027258331            1 
 1841000   0.93142574   -7.3448258    604.04269  0.027342146  0.027251689            1 
 1842000   0.97466182   -7.3193132    604.43796  0.027345185  0.027245027            2 
 1843000   0.96063784   -7.3316735    604.14512  0.027317106  0.027238331            2 
 1844000   0.94652427   -7.3028874    604.67156  0.027326083  0.027231754            3 
 1845000   0.95368892   -7.3128587    604.58915   0.02730755  0.027225147            3 
 1846000   0.93666676   -7.3127489    604.21431  0.027275835  0.027218456            1 
 1847000   0.96538501   -7.2894327    606.03129  0.027343047  0.027211872            2 
 1848000    0.9604949   -7.2965167     605.0093  0.027282165  0.027205359            4 
 1849000   0.96764261    -7.287615    604.19384  0.027230658  0.027198762            8 
 1850000   0.91675229   -7.3337939    605.10932  0.027257176  0.027192082            2 
 1851000   0.96273271   -7.3120974    604.29542  0.027205809  0.027185373            3 
 1852000   0.94573866   -7.3268154    605.27504  0.027235198  0.027178668            2 
 1853000   0.95637049   -7.3507782    604.51392  0.027186271  0.027171928            3 
 1854000   0.93445085    -7.329915    606.20246  0.027247504  0.027165275            4 
 1855000    0.9400862   -7.3371362    604.56247  0.027159141  0.027158462            3 
 1856000    0.9697857   -7.3226374     604.7826  0.027154391  0.027151652            2 
 1857000   0.93055299   -7.3179206    605.49169  0.027171589  0.027144806            1 
 1858000   0.95961972   -7.3023813    606.37099  0.027196403  0.027137971            4 
 1859000   0.94679525   -7.3032158    605.31149  0.027134279  0.027131126            2 
 1860000   0.93862301   -7.2842356    606.00805  0.027150898  0.027124236            1 
 1861000   0.95768122   -7.3124303    606.07606  0.027139354   0.02711748            3 
 1862000   0.95721724   -7.3050786    608.68674  0.027241619  0.027110676            1 
 1863000   0.96574251   -7.3292217    605.54284  0.027086368  0.027103912            2 
 1864000   0.95087437   -7.2946504    607.61703  0.027164567  0.027097118            3 
 1865000   0.93493855   -7.2935138    606.16635  0.027085181  0.027090298            5 
 1866000   0.96360705    -7.308368    607.38513  0.027125095  0.027083475            3 
 1867000   0.94363087   -7.3366485    606.61443  0.027076166  0.027076547            4 
 1868000     0.959351   -7.3102157    608.53149  0.027147193  0.027069758            3 
 1869000   0.94883258   -7.3048555    607.25463  0.027075737  0.027062889            2 
 1870000   0.94565878    -7.289669     608.0496  0.027096685  0.027056094            2 
 1871000   0.96782941   -7.3201763    606.60869  0.027018025  0.027049292            3 
 1872000   0.99031835   -7.3033194    606.71385  0.027008273  0.027042451            3 
 1873000   0.96076173   -7.3090259    609.13205  0.027101444  0.027035602            3 
 1874000   0.91954424   -7.3377191    606.98081   0.02699132  0.027028699            3 
 1875000   0.93621039   -7.3115943    608.02709  0.027023426   0.02702182            3 
 1876000   0.97977912   -7.2977501      607.948  0.027005508  0.027015003            2 
 1877000   0.94278672   -7.3193178    609.30511  0.027051372  0.027008223            1 
 1878000   0.96787902   -7.3196432    609.35594  0.027039223   0.02700139            2 
 1879000   0.93801214   -7.2961622    609.70492   0.02704031  0.026994512            4 
 1880000     0.954367   -7.3390656    609.18692  0.027002966   0.02698765            2 
 1881000   0.97437364   -7.3308076    609.69003    0.0270109  0.026980695            2 
 1882000   0.96900007   -7.3031616    609.18655  0.026974254  0.026973807            3 
 1883000   0.95060138   -7.3439643    608.58621   0.02693336  0.026966908            1 
 1884000   0.94905763   -7.3378927    610.75258  0.027014888  0.026960033            2 
 1885000   0.94614378   -7.3243775    609.35326  0.026938694   0.02695319            1 
 1886000   0.95301769   -7.3349257    608.79611  0.026899793   0.02694635            3 
 1887000    0.9467197   -7.3076638      609.891   0.02693389  0.026939622            2 
 1888000   0.96504082   -7.3016147    611.58616  0.026994446  0.026932911            5 
 1889000   0.96094934   -7.3283963    611.32802  0.026968767  0.026926231            8 
 1890000   0.94262816   -7.3436811    611.82163  0.026976263  0.026919457            4 
 1891000   0.97530942   -7.3206239    610.62957  0.026909465  0.026912713            2 
 1892000   0.94059453   -7.3087256    610.78576  0.026902121  0.026905933            3 
 1893000   0.97201271    -7.282993    612.39471  0.026958739  0.026899199            2 
 1894000   0.95165182   -7.3103565    613.13335  0.026977004  0.026892535            3 
 1895000   0.94929373   -7.2970268    614.27931  0.027013162  0.026885848            1 
 1896000   0.97147112   -7.3223509    613.14036  0.026948855  0.026879127            4 
 1897000   0.94491192   -7.3436955    614.16244  0.026979549  0.026872416            4 
 1898000   0.95373784   -7.3344372    613.89871  0.026953754  0.026865653            2 
 1899000   0.95740606     -7.32502    615.16313  0.026995047  0.026858998            3 
 1900000   0.96040442   -7.3582377    613.00415  0.026886147  0.026852236            6 
 1901000    0.9419105   -7.3520395    614.35679  0.026931299  0.026845499            3 
 1902000   0.94545701   -7.2681293    615.00262  0.026945435  0.026838894            2 
 1903000   0.94172483    -7.335011    614.24022   0.02689789  0.026832296            4 
 1904000   0.94675464   -7.3116692    614.32192  0.026887339  0.026825667            3 
 1905000   0.95729475   -7.3488946    614.14399  0.026865441  0.026819133            2 
 1906000   0.94629189   -7.3342713     616.9659  0.026974725   0.02681257            2 
 1907000   0.93896502   -7.3261548    614.49344  0.026852536  0.026805985            2 
 1908000   0.93853264   -7.3173295    615.79646  0.026895373  0.026799361            1 
 1909000   0.96285417   -7.3160877    616.30824  0.026903625  0.026792779            2 
 1910000   0.94845322   -7.3188784    616.69639  0.026906474  0.026786095            2 
 1911000   0.94224168   -7.3275158    617.75237  0.026938443  0.026779566            3 
 1912000   0.93572737   -7.3320599    616.50164  0.026869841  0.026772996            3 
 1913000   0.94414576    -7.363083    615.47543  0.026811092  0.026766368            3 
 1914000   0.95605307   -7.3014164    616.18114   0.02682781  0.026759786            2 
 1915000   0.93474462   -7.3500725    615.08638  0.026766161  0.026753178            2 
 1916000   0.94483258   -7.3540006    616.73772  0.026824014  0.026746485            2 
 1917000   0.94929717   -7.3133157     618.3058  0.026878186  0.026739883            2 
 1918000   0.96082465   -7.3467215    618.10831  0.026855592   0.02673329            2 
 1919000   0.92233397   -7.3463583    617.76557  0.026826714  0.026726718            1 
 1920000   0.92409417   -7.3214597    617.66622   0.02680843   0.02672006            3 
 1921000   0.93428784    -7.330906    617.41465  0.026783561  0.026713429            2 
 1922000   0.92781626   -7.3203108    618.03414  0.026796486   0.02670678            4 
 1923000   0.92810212   -7.3457727    617.58986  0.026763298   0.02670011            1 
 1924000   0.96180573    -7.307965    620.07347  0.026856959  0.026693538            2 
 1925000   0.92419877   -7.3144706    617.97252  0.026752057  0.026686982            3 
 1926000     0.934204   -7.3304614    618.59958  0.026765299  0.026680423            3 
 1927000   0.96770183    -7.323973    620.65797  0.026840424  0.026673928            4 
 1928000   0.93225741   -7.3604467    620.76722  0.026831225  0.026667378            1 
 1929000   0.93885904   -7.3296027    619.73501  0.026772724  0.026660834            2 
 1930000    0.9303869   -7.3303758    618.58933  0.026709384  0.026654234            3 
 1931000   0.95671069   -7.3043902     620.0907  0.026760344  0.026647659            1 
 1932000   0.94679971   -7.3505018    620.40525  0.026760061  0.026641113            3 
 1933000   0.93494537   -7.3044243    620.22797  0.026738575  0.026634653            4 
 1934000   0.93436817   -7.3459727    621.07732  0.026761346   0.02662813            2 
 1935000   0.95180013   -7.3643617    620.20095  0.026709774  0.026621499            2 
 1936000   0.93758048   -7.3613305    621.15368  0.026736987  0.026614984            2 
 1937000   0.93484396   -7.3577568    620.29075  0.026686059  0.026608376            3 
 1938000   0.94644952   -7.3537797    619.64031   0.02664432  0.026601717            2 
 1939000    0.9389119   -7.3683404    618.48523  0.026580937  0.026594999            3 
 1940000    0.9361845   -7.3496616    621.22875  0.026685084   0.02658826            4 
 1941000   0.92693763   -7.3189606    620.90233  0.026657321  0.026581609            2 
 1942000   0.93283636   -7.3493727     620.6796  0.026634037  0.026574967            8 
 1943000   0.93421582   -7.3413533    621.23196   0.02664402  0.026568319            2 
 1944000   0.93838617   -7.3713812    619.63342  0.026561789  0.026561628            1 
 1945000   0.94979324   -7.3230475    621.03352   0.02660812  0.026554848            2 
 1946000   0.93143897   -7.3380421    621.38626  0.026609552  0.026548144            3 
 1947000   0.94686827   -7.3614882    620.76584  0.026569331  0.026541469            3 
 1948000   0.93828834   -7.3352448    622.00611  0.026608749  0.026534908            3 
 1949000   0.92453156   -7.3418366    621.32253  0.026565868  0.026528322            3 
 1950000   0.94684099   -7.3624711    621.81998  0.026573503  0.026521667            1 
 1951000   0.93869604   -7.3313158    622.94598  0.026607978  0.026514981            1 
 1952000   0.91452559   -7.3716169    623.94983  0.026637202  0.026508343            2 
 1953000   0.93775107   -7.3524965    623.17057  0.026590313  0.026501757            1 
 1954000    0.9334802   -7.3407422    623.00152  0.026569495  0.026495171            1 
 1955000   0.92790949   -7.3497265    623.15014  0.026562239  0.026488578            3 
 1956000   0.94559522   -7.3761868      624.274  0.026596541  0.026481956            3 
 1957000   0.93785095   -7.3475417    623.16603   0.02653577  0.026475317            2 
 1958000   0.93868765   -7.3680672    623.89349  0.026553179  0.026468685            2 
 1959000   0.93707805   -7.3351833    624.70825  0.026574283  0.026462145            2 
 1960000   0.94753012   -7.3335554    625.53168  0.026595735  0.026455564            2 
 1961000   0.93238245   -7.3272308    626.28419  0.026614151  0.026449041            2 
 1962000   0.92725168   -7.3582779    623.97868  0.026502662  0.026442518            1 
 1963000   0.94828077    -7.324583    625.01825  0.026533293  0.026436069            1 
 1964000   0.93950166   -7.3317915    625.75692  0.026551125  0.026429615            4 
 1965000   0.93233537   -7.3560713    627.40903  0.026607677  0.026423264            4 
 1966000    0.9359571   -7.3669153    625.21299  0.026501059  0.026416806            2 
 1967000   0.91553825   -7.3651002    627.18627  0.026571186  0.026410321            4 
 1968000   0.96270532   -7.3469529    626.56361  0.026531318  0.026403824            2 
 1969000   0.94612517   -7.3659254    626.47022  0.026513891   0.02639729            2 
 1970000   0.92910784   -7.3410278    627.29377  0.026535269  0.026390841            2 
 1971000    0.9733984   -7.3522841    626.95811  0.026507615  0.026384353            1 
 1972000   0.92577035   -7.3161664    627.30212   0.02650871  0.026377923            2 
 1973000    0.9515271   -7.3805618    626.21032   0.02644916  0.026371491            3 
 1974000   0.91611068   -7.3392798    628.06108  0.026513892  0.026364999            3 
 1975000   0.96145746   -7.3674839    626.19188  0.026421598  0.026358508            1 
 1976000   0.93521901   -7.3574238     630.5657  0.026592683  0.026352003            7 
 1977000   0.95252371   -7.3334375    629.66186  0.026541134  0.026345623            1 
 1978000    0.9295052   -7.3499565    627.80247  0.026449379   0.02633917            3 
 1979000   0.94012594   -7.3278019    629.25495  0.026497177  0.026332761            2 
 1980000   0.92768595    -7.354545    629.80767  0.026507057  0.026326338            3 
 1981000   0.92642066   -7.3658009    628.71998  0.026447921  0.026319828            2 
 1982000   0.92844377   -7.3789091    627.61926  0.026388297  0.026313335            1 
 1983000   0.91971145   -7.3832399    628.64508  0.026418099  0.026306908            5 
 1984000   0.91120158   -7.3738998    629.19361  0.026427823  0.026300411            2 
 1985000   0.92777233   -7.4138561    629.90542  0.026444392  0.026293935            2 
 1986000   0.92665147    -7.340416    632.03754  0.026520541  0.026287429            1 
 1987000   0.94010237   -7.3368242    631.57902  0.026487964  0.026281013            2 
 1988000    0.9436071   -7.3680431     629.9412  0.026405986  0.026274671            3 
 1989000   0.92176183   -7.3791734    631.03386  0.026438489   0.02626831            3 
 1990000   0.93072163   -7.3434096    630.12106  0.026386979  0.026261907            1 
 1991000   0.91914612   -7.3596485    632.01389  0.026452951  0.026255465            3 
 1992000   0.92141099   -7.3755821    631.72694  0.026427667  0.026249019            3 
 1993000   0.93163444   -7.3789445     631.0182  0.026384772  0.026242624            3 
 1994000    0.9214215   -7.3504469    630.76155  0.026360814  0.026236245            2 
 1995000   0.94978019   -7.3538013    631.30214  0.026370181  0.026229852            3 
 1996000    0.9354104   -7.3672179    629.36475  0.026276083   0.02622348            5 
 1997000   0.92775843   -7.3449304    632.67056  0.026400875  0.026217093            4 
 1998000   0.95202331   -7.3412575    632.82907  0.026394272  0.026210703            2 
 1999000   0.94302221    -7.347529    633.19201  0.026396198  0.026204321            3 
 2000000   0.92746488   -7.3400375    633.05541  0.026377309  0.026197887            2 
 2001000   0.91961217   -7.3391653    633.40366   0.02637863   0.02619149            2 
 2002000   0.92368533   -7.3509371    636.17381  0.026480761   0.02618513            3 
 2003000   0.93075391   -7.3593507    631.60783  0.026277577  0.026178724            2 
 2004000    0.9248975   -7.3638173    632.72882  0.026311079  0.026172295            2 
 2005000   0.93146661   -7.3817877    633.58061  0.026333359  0.026165986            2 
 2006000    0.9204113   -7.3680331    633.70177  0.026325265  0.026159596            2 
 2007000    0.9256292   -7.3497236    632.65373  0.026268632  0.026153152            1 
 2008000   0.92090129   -7.3623865    632.39244  0.026244706  0.026146803            1 
 2009000   0.93483482   -7.3564921    633.29528  0.026269092  0.026140487            2 
 2010000   0.93068943   -7.3658012    634.27954   0.02629683  0.026134216            2 
 2011000   0.92705055    -7.327407    635.95927   0.02635336  0.026127836            2 
 2012000   0.92147801   -7.3933097    634.64587  0.026285863  0.026121432            3 
 2013000   0.90245292   -7.3604547    635.49237  0.026307848  0.026115048            3 
 2014000   0.91672028   -7.3669913    635.93839   0.02631324   0.02610863            1 
 2015000    0.9438994   -7.3815121    637.12758  0.026349362  0.026102297            2 
 2016000   0.93561851   -7.3863496    634.94086  0.026245902  0.026095957            2 
 2017000   0.93349502    -7.356482    635.10892  0.026239833  0.026089535            2 
 2018000   0.93081864   -7.3376851    636.88486  0.026300168  0.026083247            4 
 2019000   0.92513803   -7.3755372    635.72191  0.026239141  0.026076928            4 
 2020000   0.91876241   -7.3201324    637.75845  0.026310167  0.026070582            3 
 2021000   0.94008477   -7.3197511    635.27932  0.026194925  0.026064212            3 
 2022000   0.91932869   -7.3763294    635.94345  0.026209341  0.026057872            3 
 2023000    0.9318935   -7.3557544    636.05332  0.026200911    0.0260515            2 
 2024000   0.94447934    -7.385978    635.50756  0.026165496  0.026045054            5 
 2025000   0.91587377   -7.3899546    635.89233  0.026168408  0.026038586            4 
 2026000   0.91583581    -7.390544    634.78717  0.026110035  0.026032112            2 
 2027000   0.94553715   -7.3920098    635.32306  0.026119185  0.026025611            4 
 2028000   0.92535694   -7.3573927    636.36841  0.026149261  0.026019239            3 
 2029000    0.9279862   -7.3863216    638.01232   0.02620389   0.02601282            3 
 2030000    0.9156008   -7.3931138       634.57  0.026049672  0.026006332            3 
 2031000   0.90857811   -7.3851626    637.73324  0.026166635  0.025999863            1 
 2032000   0.93016979   -7.3825026    636.60777  0.026107602  0.025993436            1 
 2033000   0.91868182   -7.3951993    637.42255  0.026128158  0.025987026            2 
 2034000   0.93732427   -7.3567362     637.5527  0.026120645   0.02598058            2 
 2035000   0.90898467   -7.3430031    637.40929  0.026101936  0.025974229            2 
 2036000   0.91178564   -7.3352554    638.50962  0.026134153   0.02596785            1 
 2037000   0.92393496   -7.3791374    637.73336  0.026089566  0.025961435            3 
 2038000   0.91404794   -7.3235333    639.34112  0.026142506  0.025955081            2 
 2039000   0.93352105   -7.3716564    638.70889  0.026103845  0.025948723            2 
 2040000   0.91584223   -7.3711666    638.73153  0.026091974  0.025942296            2 
 2041000    0.9110932   -7.3860165    637.58649  0.026032439   0.02593587            5 
 2042000   0.94316538    -7.369684    639.76243  0.026108489  0.025929473            2 
 2043000   0.93076257   -7.3781212    640.32861  0.026118804  0.025923112            1 
 2044000    0.9085319     -7.40792    638.05072  0.026013157  0.025916724            3 
 2045000   0.91252979   -7.3607738    639.77501  0.026070701  0.025910328            8 
 2046000   0.92210173   -7.3353855    640.84055  0.026101358  0.025903968            1 
 2047000   0.92123112   -7.3683906    640.78195  0.026086222  0.025897599            4 
 2048000   0.91342215   -7.3811934    639.55599    0.0260236   0.02589118            4 
 2049000   0.93333829   -7.3508779     640.7014  0.026057483  0.025884767            3 
 2050000   0.92506999    -7.371029    639.95254  0.026014331  0.025878331            4 
 2051000   0.91877408   -7.3645358    640.77935  0.026035241  0.025871924            2 
 2052000   0.91844387   -7.3848242    638.90196  0.025946311  0.025865482            3 
 2053000   0.94448479   -7.3840206    640.23896  0.025987943  0.025858972            2 
 2054000   0.93399072   -7.3647935    640.12286   0.02597058  0.025852409            2 
 2055000   0.92723499   -7.4125161    639.60315  0.025936868  0.025845853            3 
 2056000   0.92744871   -7.4002392     641.0659   0.02598354  0.025839299            2 
 2057000   0.94646208   -7.4089709    639.84969  0.025921637  0.025832741            2 
 2058000   0.93061304    -7.405777     640.1068  0.025919452  0.025826223            4 
 2059000   0.92888482   -7.3737216    641.46056  0.025961655  0.025819723            3 
 2060000   0.93378216   -7.3757267    639.45496  0.025867919  0.025813209            2 
 2061000    0.9128794   -7.4091629    639.61611  0.025861884  0.025806703            2 
 2062000   0.92469713   -7.3909074     641.6434  0.025931272  0.025800171            2 
 2063000   0.92243202    -7.425731    639.92763  0.025849395   0.02579357            3 
 2064000   0.93883105   -7.3774219    641.77811  0.025911584  0.025787025            5 
 2065000   0.93161852   -7.4228227     639.4233  0.025804007  0.025780493            4 
 2066000   0.91563586   -7.3762864    642.07519  0.025898483  0.025774002            3 
 2067000   0.91268465   -7.3764008    642.03605  0.025884376  0.025767492            3 
 2068000   0.90847879   -7.4094823    640.71722  0.025818714  0.025760947            3 
 2069000   0.91198984   -7.3831054    641.39005  0.025833335  0.025754372            2 
 2070000    0.9243749   -7.4189208    639.05222   0.02572674    0.0257478            2 
 2071000    0.8939043   -7.3972313    642.06332  0.025835479  0.025741217            3 
 2072000   0.91727397   -7.4093711    640.88993  0.025775818  0.025734645            2 
 2073000   0.91241188   -7.3698898    642.55149  0.025830177  0.025728058            3 
 2074000   0.93043534   -7.4234032     641.9725  0.025794459  0.025721501            3 
 2075000   0.92410638   -7.4115713    641.55126  0.025765111    0.0257149            3 
 2076000   0.92170668   -7.3986531    642.43743  0.025788272  0.025708378            3 
 2077000   0.90565485   -7.3989641      643.984  0.025837907  0.025701811            2 
 2078000   0.92153893   -7.3702825    643.24907  0.025796001  0.025695239            1 
 2079000   0.93287872   -7.4048329    642.70611  0.025761829  0.025688695            2 
 2080000    0.9310744   -7.4022263    642.47414   0.02574015  0.025682136            4 
 2081000   0.90478276   -7.3802476    644.17033  0.025795704  0.025675538            4 
 2082000   0.92645761   -7.3806727    643.93094  0.025773733  0.025668907            2 
 2083000   0.92302796   -7.3701574     643.3105  0.025736538  0.025662316            3 
 2084000   0.93999618   -7.3898513    643.91542  0.025748377  0.025655707            3 
 2085000   0.92387954   -7.3930937     643.3853   0.02571484  0.025649136            6 
 2086000   0.90548742    -7.381138    643.55532  0.025709305  0.025642611            2 
 2087000   0.89639453    -7.402189    644.05573  0.025716967  0.025635993            1 
 2088000   0.92515848    -7.396916    644.79314  0.025734081  0.025629428            2 
 2089000   0.90316539   -7.3899397    644.80398  0.025722195  0.025622871            3 
 2090000   0.91917057   -7.3997958    644.27849  0.025688935  0.025616304            2 
 2091000   0.93673511    -7.418863    645.72911  0.025734461   0.02560976            8 
 2092000   0.92675553   -7.4334278    644.30883  0.025665584  0.025603181            3 
 2093000   0.92853399   -7.4141715    646.11777  0.025725345  0.025596659            4 
 2094000   0.90994034   -7.4047843    644.70776  0.025656947  0.025590136            1 
 2095000   0.92165787   -7.4185054    645.70256  0.025684271  0.025583534            2 
 2096000   0.92857025   -7.4195573    644.86873  0.025638865  0.025576992            3 
 2097000   0.91335903    -7.410006    645.46164    0.0256502  0.025570448            4 
 2098000   0.91055395   -7.4265143    647.36194  0.025713455   0.02556393            3 
 2099000   0.92085567   -7.4310478    645.14239  0.025613085  0.025557372            2 
 2100000   0.91918935   -7.4458721    647.04783  0.025676501  0.025550801            3 
 2101000   0.90696757   -7.4020252    647.87656   0.02569715  0.025544265            3 
 2102000   0.91834443   -7.3953396    647.46384  0.025668563  0.025537774            4 
 2103000   0.92278311   -7.4169836    647.03184  0.025639239  0.025531226            6 
 2104000   0.90949611   -7.3870973    647.83989  0.025659058  0.025524758            3 
 2105000    0.9348924   -7.3866226     647.6485  0.025639291  0.025518372            2 
 2106000   0.89667682   -7.4201797     647.9165  0.025637721  0.025511992            5 
 2107000   0.92438215   -7.4077825    648.91293  0.025664963  0.025505541            4 
 2108000    0.9054102   -7.3932208    649.31393  0.025668641  0.025499139            1 
 2109000   0.91960316   -7.3972532    650.51609  0.025703971   0.02549276            2 
 2110000   0.92561649   -7.3890473    649.72704  0.025660626  0.025486343            2 
 2111000   0.91537234   -7.3897124    648.18906  0.025587757  0.025479937            3 
 2112000   0.89546745   -7.3790346    649.58033  0.025630537  0.025473558            4 
 2113000   0.91587175   -7.4227487    648.69744  0.025583587  0.025467143            3 
 2114000   0.92396792   -7.3819098    651.04334   0.02566396  0.025460786            2 
 2115000   0.90546228   -7.3669792    650.27634  0.025621605  0.025454399            3 
 2116000   0.92778609   -7.4054335    650.92898  0.025635199  0.025448033            1 
 2117000   0.94081269   -7.3886653    650.65283   0.02561222  0.025441651            3 
 2118000   0.87951253   -7.3861485     650.4613  0.025592591  0.025435349            3 
 2119000   0.89733443    -7.410255    650.54513   0.02558381  0.025429016            3 
 2120000   0.93487435   -7.4165821    648.92196  0.025507938  0.025422628            3 
 2121000   0.91143225   -7.3998181    650.26676  0.025548749  0.025416255            3 
 2122000   0.92011556   -7.4013573    651.12356  0.025570356   0.02540992            4 
 2123000   0.91315801   -7.4231144    651.23454  0.025562668  0.025403581            2 
 2124000   0.90378369   -7.4150024    651.11698  0.025546021  0.025397192            2 
 2125000   0.92010446   -7.4428917    650.75797   0.02551992   0.02539076            2 
 2126000   0.90885181    -7.387159    651.27055  0.025528008  0.025384339            3 
 2127000   0.90895433   -7.4159436    651.14205  0.025510972  0.025377948            5 
 2128000   0.91544203   -7.4319284    653.36045  0.025585857  0.025371504            3 
 2129000   0.91663042   -7.4142891    650.98644  0.025480916  0.025365086            5 
 2130000   0.89731222   -7.3742018    653.92692  0.025583995  0.025358742            2 
 2131000   0.93172179   -7.4155387    652.75324  0.025526092   0.02535243            2 
 2132000   0.90605192   -7.4000107    653.33608  0.025536901  0.025346114            2 
 2133000   0.91390626    -7.376187    652.84322  0.025505674  0.025339828            6 
 2134000   0.92366447   -7.4250778    653.42292  0.025516359  0.025333561            2 
 2135000   0.90763091   -7.4031513    653.99369  0.025526686  0.025327209            2 
 2136000   0.92256009    -7.434923    653.81628  0.025507814  0.025320829            3 
 2137000    0.9311853   -7.4025039    655.82788  0.025574321  0.025314505            1 
 2138000   0.88024895   -7.4294777    653.74767  0.025481278  0.025308195            2 
 2139000   0.92641082   -7.3886092    654.50847  0.025499006  0.025301894            3 
 2140000   0.90521368   -7.4171201    654.32773  0.025480052   0.02529557            1 
 2141000    0.9008205   -7.4396555    653.12764   0.02542144  0.025289192            3 
 2142000   0.90626851   -7.4269392    654.11532  0.025447997  0.025282893            2 
 2143000   0.89736966   -7.3976819     655.5678  0.025492604  0.025276583            2 
 2144000   0.90549635   -7.4166889    655.51613  0.025478705  0.025270269            2 
 2145000   0.90767902   -7.4086933    654.41603  0.025424088  0.025263988            2 
 2146000   0.90171512   -7.4078386    655.45187  0.025452465  0.025257685            2 
 2147000   0.89524504   -7.4297906    656.99262  0.025500412  0.025251415            3 
 2148000    0.9224647   -7.4661818    655.78322  0.025441621  0.025245129            5 
 2149000   0.91763989   -7.4169758    656.06431  0.025440682  0.025238894            2 
 2150000   0.90283197   -7.3951697    656.58466  0.025449018  0.025232682            3 
 2151000    0.8943881   -7.4056272    655.55243  0.025397196  0.025226452            2 
 2152000   0.91771615   -7.4397746    657.46695  0.025459532  0.025220296            4 
 2153000   0.91665085   -7.4419328    657.14809  0.025435365  0.025214056            3 
 2154000   0.92259887   -7.4129444    656.43859  0.025396108  0.025207808            2 
 2155000   0.87257467   -7.3921014    657.47661  0.025424463  0.025201558            3 
 2156000   0.92224477   -7.4422674    657.42923  0.025410839  0.025195391            2 
 2157000   0.90684112   -7.3997145    659.49557  0.025478889  0.025189227            1 
 2158000   0.92098416   -7.4435198    659.10085   0.02545184  0.025183054            4 
 2159000   0.91432841    -7.423154     657.9811  0.025396831  0.025176853            3 
 2160000   0.91053931   -7.3966405    658.62547  0.025409933  0.025170684            3 
 2161000   0.91905728   -7.4210849     659.0404  0.025414176  0.025164511            1 
 2162000   0.92066643   -7.4154825    658.03941  0.025363838  0.025158291            3 
 2163000   0.89437127   -7.4294658    657.38064  0.025326731  0.025152043            1 
 2164000   0.89414186    -7.431264     657.4623  0.025318173  0.025145747            3 
 2165000   0.90882237   -7.3873695    660.28946  0.025415299  0.025139536            2 
 2166000   0.90700516   -7.4033983    659.03085  0.025355142  0.025133281            3 
 2167000   0.89760575   -7.4016602    658.61425  0.025327421  0.025126955            1 
 2168000   0.90711992   -7.4202403     658.4256  0.025308487  0.025120682            3 
 2169000   0.90525643   -7.4044275    657.89601  0.025276472  0.025114403            3 
 2170000   0.91085446   -7.4159029    657.77756  0.025260275  0.025108073            3 
 2171000   0.90969988   -7.4054331    657.68793  0.025245199  0.025101718            2 
 2172000   0.88207519   -7.3963779    660.12132  0.025326938  0.025095456            2 
 2173000   0.90659613   -7.4423927    657.52566  0.025215741  0.025089215            5 
 2174000   0.90452153   -7.4079797    658.77767  0.025252134  0.025083005            1 
 2175000   0.89220466   -7.4083174    661.45947  0.025343275  0.025076847            3 
 2176000   0.92006413   -7.4407317    660.18048  0.025282647  0.025070716            3 
 2177000   0.88252867   -7.4478183    660.39448  0.025279225  0.025064529            4 
 2178000   0.92110031   -7.4183536    661.36993  0.025304941  0.025058423            2 
 2179000   0.91811679   -7.4404221    661.43333  0.025295752  0.025052263            3 
 2180000   0.91143374   -7.4332387    660.97942  0.025266797  0.025046122            3 
 2181000   0.90856392   -7.4530376    661.51929   0.02527584  0.025039921            3 
 2182000   0.91796881   -7.4478967    661.77598   0.02527406  0.025033719            2 
 2183000   0.90162345   -7.4608378    660.75116  0.025223361  0.025027545            1 
 2184000    0.9252106   -7.4325288    663.13715  0.025302852  0.025021344            2 
 2185000   0.89635023   -7.4585317    663.23453  0.025294986  0.025015224            5 
 2186000   0.90911858   -7.4322844     663.2666  0.025284637  0.025009124            2 
 2187000   0.90545119   -7.4057955    664.37886  0.025315457  0.025003105            3 
 2188000   0.89245669   -7.4550399    663.05785  0.025253574  0.024997089            2 
 2189000   0.89988467   -7.4199149    664.15717  0.025283888   0.02499106            2 
 2190000   0.90085639   -7.4212244    665.50087  0.025323473  0.024985078            2 
 2191000   0.91605112   -7.4040323    666.17443  0.025337534  0.024979145            2 
 2192000   0.91332611   -7.4354882    664.71203  0.025270378  0.024973177            3 
 2193000   0.90332364   -7.4485754     664.9235  0.025266891  0.024967167            2 
 2194000   0.90688684   -7.4363119    664.73416  0.025248183  0.024961102            2 
 2195000   0.89605412    -7.419919    664.39573  0.025223832   0.02495503            3 
 2196000   0.89247601    -7.420666    664.81885  0.025228402  0.024949034            3 
 2197000   0.91342621   -7.4058264    665.07612  0.025226677  0.024943111            1 
 2198000   0.89490268   -7.4483279    665.54967  0.025233154  0.024937127            4 
 2199000   0.89661152    -7.438702    665.25564  0.025210537  0.024931152            2 
 2200000   0.89908277   -7.4489729    665.01257   0.02518987  0.024925149            2 
 2201000   0.91612083   -7.4666944    666.33497  0.025228494  0.024919144            1 
 2202000   0.89421885   -7.4132657    666.92887  0.025239512  0.024913164            2 
 2203000   0.91116638   -7.4319882    665.80532  0.025185554  0.024907097            4 
 2204000   0.93784787   -7.4185447    666.58729  0.025203694  0.024901132            5 
 2205000   0.88700011   -7.4329679     668.1692  0.025252048  0.024895146            3 
 2206000   0.89485842   -7.4268896    666.80156  0.025188938  0.024889175            2 
 2207000   0.89023122   -7.4290882    667.15006  0.025190684  0.024883251            5 
 2208000   0.91111708   -7.4604874    666.42804  0.025152025  0.024877295            6 
 2209000   0.89895513   -7.4480156    667.45395   0.02517934  0.024871274            2 
 2210000   0.90810562   -7.4521533    666.87126  0.025145975  0.024865225            3 
 2211000    0.9178373   -7.4562326    664.75685  0.025054909  0.024859184            4 
 2212000   0.92126071   -7.4638703     666.9185  0.025125019   0.02485312            3 
 2213000    0.8913269   -7.4355685    667.14993   0.02512238  0.024847029            4 
 2214000   0.93730857   -7.4383407    666.51661  0.025087195  0.024840985            4 
 2215000   0.90610273   -7.4390592    667.29944  0.025105321  0.024834926            3 
 2216000   0.89119127   -7.4647337    665.25335  0.025017048  0.024828869            2 
 2217000   0.90266269   -7.5006182    665.95403  0.025032101  0.024822823            4 
 2218000   0.87881294   -7.4597445    668.58027  0.025119487    0.0248168            2 
 2219000   0.90284688   -7.4660292     668.3225  0.025098487  0.024810777            2 
 2220000   0.89750563   -7.4252362    669.35352  0.025125883  0.024804795            5 
 2221000   0.91082758   -7.4360543    669.53182   0.02512126  0.024798861            6 
 2222000   0.90584755   -7.4387402    670.25726  0.025137161  0.024792905            2 
 2223000   0.90040026   -7.4745875    667.68772  0.025029529  0.024786876            4 
 2224000   0.91456093   -7.4541742    668.59248  0.025052176  0.024780889            2 
 2225000   0.91448848   -7.4406047    668.90113  0.025052477   0.02477484            3 
 2226000   0.90359358   -7.4597477    669.59685  0.025067268  0.024768776            2 
 2227000   0.90939465   -7.4318134    670.14783  0.025076629   0.02476272            1 
 2228000   0.90821732   -7.4584856    669.55316  0.025043131   0.02475668            3 
 2229000   0.88885024   -7.4389379    668.27404  0.024984075  0.024750624            1 
 2230000   0.89144496   -7.4588116    667.84248  0.024956744  0.024744551            3 
 2231000   0.91485697   -7.4516672    669.64655  0.025012944  0.024738421            5 
 2232000   0.87961521     -7.47731    667.05695  0.024905053  0.024732322            2 
 2233000    0.8966568   -7.4672487    671.49197  0.025059411  0.024726212            2 
 2234000   0.88254315   -7.4474931    669.50161  0.024973948  0.024720153            3 
 2235000   0.87573799   -7.4385167    670.57852  0.025002928  0.024714134            3 
 2236000   0.87980952   -7.4258858    670.51517  0.024989385  0.024708016            2 
 2237000   0.88832636   -7.4141929    671.18954  0.025003336  0.024701971            3 
 2238000   0.90969553   -7.4595715    668.56076  0.024894279  0.024695904            5 
 2239000   0.89093688   -7.4613591    670.10629  0.024940684  0.024689847            7 
 2240000   0.87811863   -7.4670486    669.92097  0.024922655   0.02468373            2 
 2241000   0.90863174   -7.4819128    669.07454  0.024880059  0.024677554            2 
 2242000   0.88618137   -7.4577254    670.66161  0.024927951  0.024671388            4 
 2243000   0.91261193   -7.4694386     670.8519  0.024923908  0.024665279            3 
 2244000   0.90744908    -7.431698    670.11944    0.0248856  0.024659214            4 
 2245000    0.8839554   -7.4562239    669.95691  0.024868482  0.024653165            4 
 2246000   0.89094933   -7.4127123    672.25451  0.024942658  0.024647109            4 
 2247000   0.91085883   -7.4317708     669.8193  0.024841244   0.02464105            2 
 2248000   0.87460195   -7.4443516    669.47949  0.024817597  0.024634971            6 
 2249000   0.87254952   -7.4152294    672.71039  0.024926278  0.024628873            1 
 2250000   0.90224479   -7.4698825    670.83041  0.024845571  0.024622787            3 
 2251000   0.89709443   -7.4564849    670.91799  0.024837775  0.024616623            2 
 2252000   0.89058162   -7.4845354    670.87872  0.024825293  0.024610476            1 
 2253000     0.906144   -7.4534975    672.31697  0.024867472  0.024604328            4 
 2254000   0.88859761   -7.4461583     671.8465  0.024839045  0.024598226            3 
 2255000   0.88464413   -7.4522395    673.11604  0.024874946   0.02459213            3 
 2256000   0.91168489   -7.4697952     672.3338  0.024835025  0.024585969            1 
 2257000   0.86942851   -7.4400844    673.25748  0.024858126  0.024579878            3 
 2258000   0.87394477   -7.4622938    672.49274  0.024818894  0.024573755            1 
 2259000   0.88489675   -7.4634415    670.53367  0.024735638  0.024567559            3 
 2260000   0.89653697   -7.4834458    672.24956  0.024787963   0.02456139            3 
 2261000    0.8915892   -7.4799485    671.82163  0.024761228  0.024555205            4 
 2262000   0.87950488   -7.4898604     671.4312  0.024735898  0.024549012            2 
 2263000   0.90526815    -7.443982    672.99841  0.024782678  0.024542901            2 
 2264000   0.88398725    -7.473644    674.93483  0.024843007  0.024536838            2 
 2265000   0.89251114   -7.4541129    673.66651  0.024785376  0.024530782            3 
 2266000    0.8731907   -7.4846437    672.24688   0.02472223   0.02452467            1 
 2267000   0.88915786   -7.4882658    672.10696  0.024706181  0.024518516            1 
 2268000   0.88866405   -7.4601578    673.76364  0.024756159  0.024512353            3 
 2269000   0.90077844   -7.4434744    671.22443  0.024651992  0.024506215            2 
 2270000   0.90663996   -7.4237539    675.22243  0.024787901   0.02450005            2 
 2271000   0.87171756   -7.4608796    673.27641  0.024705578  0.024493872            2 
 2272000   0.90182925   -7.4616243    673.94979  0.024719403  0.024487715            2 
 2273000   0.90800523   -7.4685984    673.75274  0.024701303  0.024481558            3 
 2274000   0.89019321   -7.4654997    675.04165  0.024737674  0.024475365            2 
 2275000   0.89132384   -7.4565794    674.68458  0.024713721  0.024469155            3 
 2276000   0.88572524   -7.4866548     674.9766  0.024713555  0.024462977            4 
 2277000   0.88493709   -7.4703772    675.18396   0.02471029  0.024456852            2 
 2278000   0.87515733   -7.4457618    673.94205  0.024654011  0.024450692            2 
 2279000   0.88789794   -7.4610806    674.92103   0.02467899  0.024444561            2 
 2280000    0.8705458   -7.4746946    673.48418   0.02461565  0.024438396            3 
 2281000   0.88437617   -7.4753594    673.86233  0.024618673   0.02443224            2 
 2282000   0.89775466   -7.4469174    676.34612  0.024698588   0.02442608            2 
 2283000   0.89653756   -7.4754224    675.95602   0.02467353  0.024419887            3 
 2284000   0.90004955   -7.4422994    673.98451  0.024590795  0.024413721            4 
 2285000   0.86186524   -7.4326472    675.87752  0.024649071  0.024407545            2 
 2286000   0.88627503   -7.4470289    675.64952  0.024629977  0.024401382            2 
 2287000   0.89947558   -7.4536445    675.56066  0.024615969  0.024395243            2 
 2288000   0.87700365   -7.4698112    676.75645  0.024648763  0.024389124            2 
 2289000   0.89701351   -7.5012327    674.61747  0.024560123  0.024382961            4 
 2290000   0.88966034   -7.4829938    674.41334   0.02454197  0.024376749            2 
 2291000   0.89632466   -7.4704705     677.8043  0.024654601  0.024370602            2 
 2292000   0.88001521   -7.4763523    676.47238  0.024595418  0.024364408            2 
 2293000   0.87411675   -7.4796998    677.06577  0.024606257   0.02435816            2 
 2294000   0.86025853   -7.4648083    677.23116  0.024601539  0.024351996            4 
 2295000   0.90477836   -7.4678246    676.27215  0.024555997  0.024345835            4 
 2296000   0.88719374   -7.4737979    676.65278  0.024559117  0.024339679            5 
 2297000   0.90373428   -7.4903176    676.57938  0.024545762  0.024333495            2 
 2298000   0.88583437   -7.4625841    676.80407  0.024543228  0.024327303            2 
 2299000    0.8891438   -7.4947885    675.64811  0.024490652  0.024321106            7 
 2300000    0.8825858   -7.4884286    676.46575  0.024509628  0.024314901            4 
 2301000   0.89423723   -7.4575616    677.87937  0.024550173   0.02430869            3 
 2302000   0.87061535   -7.4491872    677.48986  0.024525407  0.024302518            3 
 2303000   0.88083649   -7.4482771    677.34918  0.024509668  0.024296359            3 
 2304000    0.8741133   -7.4522468    676.36345  0.024463377   0.02429017            2 
 2305000   0.88504228   -7.4722848    677.73149  0.024502223  0.024283939            2 
 2306000   0.87162439   -7.4946944    676.08592  0.024432131  0.024277691            3 
 2307000   0.88875742    -7.467974    678.94809  0.024524927  0.024271398            4 
 2308000   0.87001371   -7.5246884    676.11553  0.024412028  0.024265113            5 
 2309000   0.87896336   -7.5429753    676.01316  0.024397761  0.024258784            3 
 2310000   0.90158714   -7.4746992    679.50508   0.02451317   0.02425253            2 
 2311000   0.85568302   -7.4974627    677.73872  0.024438869  0.024246331            4 
 2312000   0.89812114   -7.4750534    677.56065   0.02442188  0.024240147            1 
 2313000   0.88448851   -7.4688259    678.91388  0.024460076  0.024234025            2 
 2314000   0.88515498   -7.5065616    678.19761  0.024423711  0.024227836            3 
 2315000   0.88912306   -7.4710778     679.4154  0.024456998  0.024221652            1 
 2316000   0.88711684   -7.4903747    679.25138  0.024440536  0.024215476            2 
 2317000    0.8857917   -7.4603521    680.94392  0.024490862  0.024209331            4 
 2318000   0.88525686   -7.4666949    680.51867  0.024465008  0.024203139            4 
 2319000   0.87341395   -7.5019909     678.3891  0.024377932  0.024196992            3 
 2320000   0.87306356   -7.4594988    678.28628  0.024363731  0.024190918            1 
 2321000   0.87878713   -7.4786045    680.25047  0.024423757  0.024184846            6 
 2322000   0.87030319   -7.4667708    681.11088  0.024444117  0.024178808            3 
 2323000   0.89627352   -7.4676618    680.76924  0.024421339   0.02417276            3 
 2324000   0.87455687   -7.4912004    680.65881  0.024406871  0.024166687            2 
 2325000   0.87835621   -7.4622917    681.05618  0.024410616  0.024160552            2 
 2326000   0.87354279   -7.4753573    682.17414  0.024440174  0.024154403            3 
 2327000   0.89558916   -7.4580141    681.60757  0.024409382  0.024148305            3 
 2328000   0.87109319   -7.4837641    681.25616  0.024386317  0.024142175            2 
 2329000   0.86596665   -7.4831232    681.39297  0.024380742  0.024136024            2 
 2330000    0.8924593   -7.4498008    679.52936  0.024303625  0.024129847            5 
 2331000   0.89248977    -7.492435    680.79316   0.02433838   0.02412366            3 
 2332000   0.87647689   -7.4901685    678.85532  0.024258695  0.024117423            2 
 2333000   0.88653341   -7.4601336    680.12432  0.024293625  0.024111205            1 
 2334000     0.877713   -7.5045933    680.38476  0.024292515  0.024104997            2 
 2335000   0.89530886   -7.5174193    680.31947  0.024279781  0.024098749            4 
 2336000   0.87965028   -7.4881209     681.7461   0.02432028  0.024092469            4 
 2337000   0.86910055   -7.4760569     681.4758  0.024300235  0.024086218            2 
 2338000    0.8634502   -7.4756013    681.12739  0.024277423   0.02407999            3 
 2339000   0.88572938    -7.487751    679.95285  0.024225198  0.024073715            2 
 2340000   0.88111713   -7.5162192    679.77161  0.024208391  0.024067427            3 
 2341000   0.87634947   -7.5181348    681.00498  0.024241954   0.02406115            2 
 2342000   0.89316583   -7.5052561    681.65956  0.024254895  0.024054946            2 
 2343000   0.87885471   -7.4590656    682.17155  0.024262753  0.024048748            4 
 2344000    0.8818732    -7.549358    681.56292  0.024230764  0.024042492            4 
 2345000   0.89465967   -7.4772099    682.47923  0.024252993  0.024036279            1 
 2346000   0.87090096   -7.4786509    682.75153  0.024252328  0.024030088            1 
 2347000   0.88331409   -7.4802985    681.89722  0.024211661  0.024023893            2 
 2348000   0.87783317   -7.4670189    682.49024  0.024222396  0.024017643            2 
 2349000   0.88413107    -7.501066    681.17759  0.024165517  0.024011424            3 
 2350000   0.85714671    -7.496352    683.26391  0.024229217  0.024005198            1 
 2351000   0.87935739   -7.4557143    683.14281  0.024214618  0.023999004            3 
 2352000   0.86362775   -7.4794344    683.39839  0.024213378  0.023992864            3 
 2353000   0.85380311   -7.4938905    683.21112  0.024196456  0.023986705            2 
 2354000   0.85965607   -7.5077149    681.80838  0.024136519  0.023980549            5 
 2355000   0.88135743   -7.4801773    682.54107  0.024152196  0.023974408            4 
 2356000   0.88048763   -7.4980192    684.08878  0.024196689  0.023968274            5 
 2357000   0.87199414   -7.5172621    684.89324  0.024214865  0.023962173            1 
 2358000   0.86061136   -7.5039563    684.67801  0.024196989  0.023956047            2 
 2359000   0.86351868   -7.5307721     682.9864  0.024126975  0.023949843            2 
 2360000   0.85627402   -7.5072258     684.5721  0.024172743  0.023943635            2 
 2361000   0.87200813   -7.5045871    684.89354  0.024173851  0.023937448            1 
 2362000   0.87923024   -7.5250325    683.20006  0.024103869  0.023931277            3 
 2363000     0.864759   -7.5036226    683.80977   0.02411517  0.023925096            2 
 2364000   0.88097054   -7.4725521    686.96896  0.024216334  0.023918974            4 
 2365000   0.87264825   -7.4774872    686.20501  0.024179176  0.023912835            4 
 2366000   0.86586531   -7.4910854    685.30176  0.024137143  0.023906674            2 
 2367000   0.87199023   -7.4938438    684.51141   0.02409912  0.023900542            4 
 2368000   0.86646272   -7.5088245    684.81647  0.024099679  0.023894407            4 
 2369000   0.85838874   -7.4847586    685.51944  0.024114234   0.02388831            1 
 2370000   0.86348135   -7.5300552    683.27885  0.024025276   0.02388216            5 
 2371000   0.87666146   -7.5066596    683.93099  0.024038064  0.023876002            2 
 2372000   0.89841015   -7.5033835    685.89824  0.024097043  0.023869808            2 
 2373000   0.88172901   -7.5225071     685.3517  0.024067696  0.023863648            7 
 2374000   0.85227063   -7.5266645    685.32418  0.024056592  0.023857512            2 
 2375000   0.86925462    -7.493764    685.59395  0.024055928  0.023851324            7 
 2376000   0.88186199    -7.491794    686.25701  0.024069059   0.02384522            3 
 2377000   0.87499328   -7.5142482    687.02731  0.024085938  0.023839017            1 
 2378000   0.87349407   -7.5126274    684.29711  0.023980134  0.023832845            4 
 2379000      0.84969   -7.4889629    686.71972  0.024054915  0.023826715            4 
 2380000   0.86227354   -7.4730943      687.229   0.02406264  0.023820595            2 
 2381000    0.8643714   -7.4917798    686.06702  0.024011865  0.023814414            3 
 2382000   0.89708608   -7.5010168    685.91335  0.023996409  0.023808229            2 
 2383000   0.87849059   -7.5109127    687.10744  0.024028096  0.023802054            2 
 2384000   0.87834456   -7.4932352    688.49158    0.0240664  0.023795862            2 
 2385000   0.89255776   -7.5210494    687.15672  0.024009669  0.023789696            2 
 2386000   0.86979075   -7.5439607    686.29248  0.023969421  0.023783512            3 
 2387000   0.86206295   -7.5223934    686.18697  0.023955697  0.023777319            2 
 2388000   0.85675899   -7.4989444    687.06374  0.023976261  0.023771156            5 
 2389000   0.86699394   -7.4728257    688.70598   0.02402351  0.023764991            3 
 2390000    0.8884243   -7.4966773     689.1672   0.02402954  0.023758907            2 
 2391000   0.87600837   -7.4790839    689.39121  0.024027297  0.023752865            3 
 2392000   0.86284839   -7.4960321    689.09241  0.024006843  0.023746797            5 
 2393000   0.89835798   -7.5070835     686.9406  0.023921876  0.023740684            3 
 2394000    0.8547808   -7.5333042    687.60888  0.023935146  0.023734515            2 
 2395000   0.85903238   -7.5373581      688.524  0.023956994  0.023728353            3 
 2396000   0.88651742   -7.5069524    686.70093  0.023883588  0.023722171            2 
 2397000   0.85737754   -7.5394266    686.66267  0.023872294  0.023715977            3 
 2398000   0.86679517   -7.5017122    688.62958  0.023930691  0.023709839            2 
 2399000   0.87352017   -7.4953612    689.71006  0.023958249  0.023703688            4 
 2400000   0.84529212   -7.4956983     690.7565  0.023984601  0.023697594            1 
 2401000   0.86695332    -7.536553    688.69368  0.023903015  0.023691483            1 
 2402000   0.89361899   -7.5197872    688.65945  0.023891877  0.023685319            4 
 2403000   0.87448745   -7.4936118    689.39782   0.02390754  0.023679192            2 
 2404000   0.86297845   -7.4779719    692.20438  0.023994883  0.023673096            2 
 2405000   0.86464613   -7.5035253    690.50419  0.023925994  0.023667027            6 
 2406000    0.8719038   -7.5106141    688.86074  0.023859128  0.023660953            3 
 2407000   0.86424799   -7.5192527    689.90465  0.023885357   0.02365486            4 
 2408000   0.86870011   -7.5339158    690.79077  0.023906104    0.0236487            9 
 2409000   0.87140034   -7.5319147    690.21645  0.023876313  0.023642548            3 
 2410000   0.86406107   -7.5399818    689.71511   0.02384907  0.023636451            3 
 2411000   0.83764069   -7.5181556    691.90616  0.023914909  0.023630325            1 
 2412000   0.87414306   -7.5298122    689.66771  0.023827657  0.023624152            3 
 2413000   0.85807719   -7.5207753    690.85534  0.023858797  0.023618014            1 
 2414000   0.85134138   -7.5154103    689.37474  0.023797802  0.023611837            2 
 2415000   0.86426518   -7.5370032    689.80242  0.023802706  0.023605684            3 
 2416000   0.84481392   -7.5042121    691.02958  0.023835181  0.023599577            1 
 2417000   0.86903903   -7.5057544    690.84122  0.023818826  0.023593464            3 
 2418000   0.87942702   -7.5190346    690.97558  0.023813606  0.023587409            3 
 2419000   0.88092588   -7.5781656    689.89844  0.023766654  0.023581327            4 
 2420000   0.87595755   -7.5297851    690.34829  0.023772324  0.023575229            2 
 2421000   0.85041784   -7.5132961    690.62844  0.023772148  0.023569062            2 
 2422000   0.86107209    -7.524172    691.00337  0.023775233  0.023562932            3 
 2423000   0.87545396   -7.5362309    691.86366  0.023795008  0.023556843            2 
 2424000   0.85389439    -7.505732    692.89347  0.023820595  0.023550752            7 
 2425000   0.84671573   -7.5388377    691.30632  0.023756231  0.023544641            6 
 2426000   0.86020614   -7.5096757    692.32147  0.023781309  0.023538559            3 
 2427000   0.87132548   -7.5334303    692.19499  0.023767168  0.023532484            1 
 2428000   0.87301219   -7.5354131    692.19168  0.023757265  0.023526405            3 
 2429000   0.87723215    -7.508288    693.38678  0.023788486  0.023520314            1 
 2430000   0.84808836   -7.5470589     693.4922  0.023782311  0.023514273            2 
 2431000   0.85345866   -7.5083964    692.41571  0.023735627  0.023508194            2 
 2432000   0.85920374   -7.5111504    691.52468  0.023695336  0.023502101            8 
 2433000   0.84104082   -7.5015852    694.63375  0.023792086  0.023496055            1 
 2434000   0.85669185   -7.5275174    691.48139  0.023674383  0.023489998            3 
 2435000   0.86259824   -7.5247449    692.87228  0.023712262  0.023483943            4 
 2436000     0.872923   -7.5123806    694.76246  0.023767189  0.023477832            2 
 2437000   0.87154237   -7.5181705    693.81159  0.023724921  0.023471773            2 
 2438000   0.87072879   -7.4816142    693.88145  0.023717577  0.023465749            2 
 2439000   0.84775081   -7.4860547    695.56122  0.023765246  0.023459662            2 
 2440000   0.85695524   -7.5214796    694.56929  0.023721629  0.023453611            4 
 2441000   0.88373764   -7.5110204    693.98599  0.023691997  0.023447545            2 
 2442000   0.85180503   -7.5553854    692.56547   0.02363382  0.023441408            3 
 2443000   0.86654304   -7.5372085    692.01977  0.023605532   0.02343528            1 
 2444000    0.8394888   -7.5517286    693.66149  0.023651851  0.023429171            2 
 2445000   0.85522654   -7.5419694    694.91512  0.023684905  0.023423018            3 
 2446000   0.85147789   -7.5326628    693.17094  0.023615799  0.023416875            2 
 2447000   0.85721152   -7.5544723    692.37882  0.023579172  0.023410718            4 
 2448000   0.85802551   -7.5434302     691.5811  0.023542385  0.023404543            2 
 2449000   0.87012052   -7.5326624    695.23906  0.023657243  0.023398399            2 
 2450000    0.8693506   -7.5262037     693.4203  0.023585724  0.023392236            7 
 2451000   0.84645055   -7.4909097    693.90205  0.023592481  0.023386064            3 
 2452000   0.87776732   -7.4985248    693.98185  0.023585571  0.023379912            3 
 2453000   0.86925623   -7.5599736    694.98891  0.023610168  0.023373759            4 
 2454000   0.86417441   -7.5512872    694.13889  0.023571682  0.023367598            2 
 2455000   0.84644017   -7.4958872    693.74551  0.023548727  0.023361445            4 
 2456000    0.8503507   -7.5134403    695.39612  0.023595145  0.023355315            2 
 2457000   0.86663375   -7.5342785    696.71313  0.023630211  0.023349152            2 
 2458000   0.84691689   -7.5400308    693.72942  0.023519441  0.023342979            2 
 2459000   0.85087146    -7.522765    694.65683  0.023541305  0.023336826            2 
 2460000   0.87050813    -7.514386    694.36622  0.023521891  0.023330605            3 
 2461000   0.85058872   -7.5020153    696.54068  0.023585964  0.023324434            4 
 2462000   0.86095111   -7.5666324    697.09592  0.023595177  0.023318312            2 
 2463000   0.85829778   -7.5528548    696.25435  0.023557124  0.023312111            1 
 2464000   0.86113236   -7.5368435     695.9453  0.023537111  0.023305923            2 
 2465000    0.8512052   -7.5601341    693.96793  0.023460714  0.023299687            3 
 2466000   0.85309612   -7.5346119    695.99402  0.023519668  0.023293525            3 
 2467000   0.85686761   -7.5245222    696.53177  0.023528299  0.023287386            1 
 2468000   0.84261954   -7.5017756    696.44771  0.023515928  0.023281273            2 
 2469000   0.85930579   -7.5148745    698.03993  0.023560143  0.023275113            3 
 2470000   0.86623093   -7.5276223    696.92073  0.023512845  0.023268955            1 
 2471000   0.83633739   -7.5570195    694.24763   0.02341318  0.023262791            4 
 2472000   0.83912889    -7.528206    695.62184  0.023450035  0.023256633            3 
 2473000   0.86819856   -7.5550545    696.96107  0.023485681  0.023250498            2 
 2474000    0.8584773   -7.5308633    694.88897  0.023406392   0.02324432            3 
 2475000   0.87927047   -7.5353581    697.19145   0.02347446  0.023238176            2 
 2476000   0.89198715   -7.5541718    696.80424  0.023451947  0.023232035            3 
 2477000   0.84138232   -7.5162743    696.19257    0.0234219  0.023225927            2 
 2478000   0.84538038   -7.5272186    697.26627  0.023448556  0.023219767            5 
 2479000   0.84180899   -7.5203487    696.79784  0.023423351  0.023213609            2 
 2480000   0.87053319   -7.5592602    696.04506  0.023388611  0.023207424            1 
 2481000   0.87136059   -7.5178611    699.01189  0.023478835  0.023201285            3 
 2482000   0.83902725   -7.5377144    697.57129  0.023421008  0.023195141            2 
 2483000   0.85357627   -7.5583755    695.05232  0.023327035   0.02318898            5 
 2484000   0.85124247    -7.536776    697.85969  0.023411825  0.023182822            3 
 2485000   0.86023604     -7.56378    697.56728  0.023392598  0.023176713            3 
 2486000   0.85707119    -7.523874    698.07229  0.023400117  0.023170607            4 
 2487000   0.84988347   -7.5522524    696.20196  0.023328038  0.023164477            1 
 2488000   0.84649025   -7.5352379    698.31786  0.023389532  0.023158366            4 
 2489000    0.8561508   -7.5441499    697.81885  0.023363427  0.023152295            3 
 2490000   0.85726764   -7.5184041    698.45295  0.023375266  0.023146218            2 
 2491000   0.83191988   -7.5083597    699.62904  0.023405227  0.023140108            3 
 2492000   0.85227892   -7.5268398    697.91776  0.023338609  0.023134026            6 
 2493000   0.86641459    -7.540948     700.6687  0.023421203  0.023127958            4 
 2494000   0.85861211   -7.5210947    698.68966  0.023345685  0.023121867            1 
 2495000   0.84790209   -7.5429662    698.30426  0.023323456  0.023115763            2 
 2496000   0.85746008   -7.5698699    697.99563  0.023303807  0.023109653            3 
 2497000   0.85726527    -7.552092     699.7731  0.023353794   0.02310351            4 
 2498000    0.8726771   -7.5670509    700.67163  0.023374421  0.023097384            2 
 2499000   0.84880686   -7.5335645    700.17004  0.023348341  0.023091273            4 
 2500000   0.86141553   -7.5796998    698.91635  0.023297212  0.023085149            5 
 2501000   0.83920286   -7.5559914    701.03982  0.023358651  0.023078973            1 
 2502000   0.85168363   -7.5628224    697.68759  0.023237663   0.02307283            4 
 2503000   0.84895495   -7.5265065    698.12931  0.023243085  0.023066647            3 
 2504000   0.84011011   -7.5394758    697.73684  0.023220741  0.023060421            3 
 2505000   0.86912923   -7.5577382    700.62714  0.023307623   0.02305426            3 
 2506000   0.85186905   -7.5433965     700.0298  0.023278458  0.023048114            3 
 2507000   0.85790735   -7.5339893    699.49415  0.023251368  0.023041926            3 
 2508000   0.87350287   -7.5641349    699.65672  0.023247499  0.023035725            4 
 2509000   0.85085799   -7.5481084    698.50636  0.023200025  0.023029538            3 
 2510000   0.86528179   -7.5568181    699.18462  0.023213301  0.023023318            3 
 2511000    0.8460561    -7.528315    699.56051  0.023216531  0.023017089            4 
 2512000   0.85582451   -7.5488551    700.20964  0.023228823  0.023010912            4 
 2513000    0.8540972   -7.5406186    698.98174  0.023178861  0.023004772            2 
 2514000   0.85354893   -7.5676449    698.81365  0.023164069   0.02299862            3 
 2515000   0.86726589   -7.5790385    700.35543  0.023205945  0.022992391            4 
 2516000   0.82975671   -7.5642661    700.13465  0.023189409  0.022986163            4 
 2517000      0.85497   -7.5644125    698.99084  0.023142327  0.022979952            1 
 2518000   0.83915482   -7.5540904    699.50612  0.023150189  0.022973747            2 
 2519000   0.83782519    -7.554523    701.22716  0.023197934  0.022967561            3 
 2520000   0.85490977    -7.572656     701.7861  0.023207212  0.022961384            3 
 2521000   0.86315957   -7.5617935    699.56836  0.023124698  0.022955168            3 
 2522000   0.84760235   -7.5441061     700.9683  0.023161786  0.022948981            2 
 2523000   0.84875424   -7.5493409    700.81792  0.023147639  0.022942782            2 
 2524000   0.84858478   -7.5773431    700.68253  0.023133998  0.022936574            3 
 2525000   0.84538993   -7.5408386    700.28523  0.023111724  0.022930373            3 
 2526000   0.83945066   -7.5524848    699.37478  0.023072538  0.022924161            2 
 2527000   0.85121467   -7.5638514    700.52665  0.023101393  0.022917966            2 
 2528000   0.84824293    -7.573719    701.29368   0.02311754  0.022911751            1 
 2529000   0.85280792   -7.5372281    701.49454  0.023115017  0.022905524            3 
 2530000   0.82861092   -7.5770224     698.8903  0.023020102  0.022899256            2 
 2531000   0.85451377    -7.575294    700.30157  0.023057473  0.022892974            3 
 2532000    0.8290817   -7.5643474    699.18935  0.023011761   0.02288673            3 
 2533000   0.86536584   -7.5603558    699.04275  0.022997853  0.022880458            2 
 2534000   0.84942792   -7.5551821    700.10242  0.023023626  0.022874194            3 
 2535000   0.83754136    -7.541625    699.16243  0.022983643  0.022867894            4 
 2536000   0.85403853   -7.5576675    702.06408  0.023069929  0.022861674            1 
 2537000   0.83688008   -7.5717375    700.03101  0.022994055  0.022855393            5 
 2538000    0.8421432   -7.5661889    699.98748  0.022983566   0.02284912            3 
 2539000   0.84139272    -7.534462    700.88317  0.023003911   0.02284285            3 
 2540000   0.84725364    -7.568973    700.29055  0.022975412  0.022836515            1 
 2541000   0.83531354   -7.5404853    699.76502  0.022949135  0.022830221            2 
 2542000    0.8409286   -7.5659953    701.79011  0.023006495  0.022823936            4 
 2543000   0.82617091   -7.5750945    700.76994  0.022964017  0.022817643            2 
 2544000   0.85907708   -7.5487269    701.35951  0.022974303  0.022811348            4 
 2545000   0.84248977   -7.5501844    699.79665  0.022914101  0.022805065            3 
 2546000   0.84328574   -7.5488024    702.36993  0.022989327  0.022798771            1 
 2547000   0.84530634   -7.5678202    701.85481  0.022963448  0.022792492            3 
 2548000   0.84506123   -7.5739099    700.88367  0.022922674  0.022786183            3 
 2549000    0.8614086   -7.5817675    700.90076   0.02291424  0.022779833            4 
 2550000   0.83575968   -7.5955403    700.78775   0.02290156  0.022773444            3 
 2551000   0.83564008   -7.5544385    701.50613   0.02291605  0.022767134            3 
 2552000    0.8568675   -7.5574493    701.79287  0.022916434  0.022760843            3 
 2553000   0.84791613   -7.5439765    702.25483  0.022922536  0.022754527            3 
 2554000    0.8388914   -7.5681985    701.45026  0.022887309  0.022748214            2 
 2555000    0.8401887   -7.5398006    703.03658  0.022930091  0.022741912            3 
 2556000    0.8240587    -7.563101     703.2041  0.022926581  0.022735652            4 
 2557000   0.83696639   -7.5406295    701.81724  0.022872417  0.022729384            1 
 2558000   0.82639839   -7.5469503    702.60703  0.022889205  0.022723137            2 
 2559000   0.84102947   -7.5313713    701.87178  0.022856317  0.022716878            5 
 2560000   0.84144393   -7.5956819    700.87491  0.022814939  0.022710542            2 
 2561000   0.83997788   -7.5668773    703.09526  0.022878279  0.022704212            4 
 2562000    0.8594909    -7.583652    702.28955  0.022843142  0.022697904            2 
 2563000    0.8415375    -7.523495    702.30667  0.022834786  0.022691589            5 
 2564000   0.81645778   -7.5632546    703.15365  0.022853408  0.022685289            3 
 2565000      0.85331   -7.5632759    702.06989  0.022809288  0.022678965            4 
 2566000   0.83792564   -7.5625164    703.36653  0.022842509  0.022672668            1 
 2567000   0.83864475   -7.5688684    701.24486  0.022764734  0.022666323            1 
 2568000   0.83998824   -7.5679381    699.63484  0.022703623  0.022659984            1 
 2569000    0.8364529    -7.551224    701.82736  0.022765906  0.022653693            2 
 2570000   0.84152913   -7.5821025    701.42587   0.02274403  0.022647444            3 
 2571000   0.81680481   -7.5670836    704.29049  0.022828033  0.022641146            3 
 2572000   0.84098616   -7.6152551    703.44947  0.022791909  0.022634815            2 
 2573000   0.82992112   -7.5544045    702.67737  0.022758044  0.022628532            3 
 2574000    0.8335715   -7.5893925    703.72079  0.022782983  0.022622245            4 
 2575000   0.83862045   -7.5650705    703.08616  0.022753597  0.022615991            2 
 2576000   0.83629153   -7.5548978    704.14782  0.022779109  0.022609756            2 
 2577000   0.84212492    -7.574758    704.31379  0.022775637  0.022603529            2 
 2578000   0.83818435   -7.5771034     704.6796  0.022778627  0.022597264            2 
 2579000   0.81469546   -7.5778171    705.54957  0.022797905   0.02259098            4 
 2580000   0.83869824   -7.5964791    704.29158  0.022748436   0.02258474            2 
 2581000   0.84183695    -7.575956    705.30489  0.022772339  0.022578452            8 
 2582000   0.84989931   -7.5521601    705.88554   0.02278226  0.022572176            2 
 2583000   0.82707629   -7.5874312    702.92285  0.022677857  0.022565914            4 
 2584000   0.81622823   -7.5867739    703.32619  0.022682088  0.022559674            5 
 2585000   0.85037137   -7.5589034     703.5409  0.022680235  0.022553434            2 
 2586000   0.81848591   -7.6181944    704.25278  0.022694405   0.02254717            3 
 2587000   0.83816838   -7.5441301    706.18177   0.02274777  0.022540924            3 
 2588000   0.83313421   -7.5700077    704.45035  0.022683229  0.022534692            2 
 2589000   0.82050665   -7.5801872    705.71266  0.022715098  0.022528438            4 
 2590000    0.8140715   -7.5527331    707.07846  0.022750272  0.022522202            1 
 2591000   0.82352444   -7.6003859     705.7958  0.022700238   0.02251593            2 
 2592000   0.83545678   -7.5871449     704.0375   0.02263495  0.022509644            6 
 2593000    0.8281372   -7.5853272    706.34064  0.022700239  0.022503352            3 
 2594000   0.81802107   -7.5691725     705.5551  0.022666252  0.022497097            3 
 2595000   0.83398136   -7.5840446    703.86523  0.022603251  0.022490791            4 
 2596000   0.83116873   -7.5709534    705.43114  0.022644811  0.022484495            4 
 2597000    0.8409331   -7.6031787    703.24689  0.022566002  0.022478198            7 
 2598000   0.82098877    -7.572329    706.45483  0.022660214  0.022471896            6 
 2599000   0.84165465   -7.5932633    705.90571  0.022633888  0.022465592            1 
 2600000   0.81189982   -7.6066879    705.53032  0.022613151  0.022459268            2 
 2601000   0.84385734    -7.608547    705.37708  0.022599548   0.02245294            8 
 2602000   0.82633566   -7.6036184    704.63683  0.022567154  0.022446575            5 
 2603000   0.84167097   -7.5641859    706.03358  0.022603201  0.022440259            2 
 2604000   0.83913667   -7.5565036    706.46746  0.022608406  0.022433972            4 
 2605000   0.83447849   -7.5712275    705.86132  0.022580336  0.022427725            2 
 2606000   0.83510608   -7.5779789    704.47843  0.022527451  0.022421442            4 
 2607000   0.84029246   -7.6152785    704.90268  0.022532371   0.02241515            2 
 2608000   0.84432697   -7.6363218    705.25895  0.022535115  0.022408852            3 
 2609000   0.83675875    -7.583502    704.85043  0.022513429  0.022402544            2 
 2610000   0.82364782   -7.6019382    706.93755  0.022571441   0.02239625            3 
 2611000   0.84817169   -7.5767242    706.95709  0.022563421  0.022389939            2 
 2612000   0.83848281   -7.6000483    704.74688  0.022484268  0.022383603            3 
 2613000   0.82737832   -7.6602343    705.88508  0.022511962  0.022377274            3 
 2614000   0.82488327   -7.6200762    705.22427  0.022482283  0.022370933            2 
 2615000   0.84201149   -7.5906547    705.48637  0.022482039   0.02236461            2 
 2616000   0.83136347   -7.6104461    706.70629  0.022512305  0.022358331            3 
 2617000   0.84744372   -7.5843112    705.26263  0.022457733  0.022352018            3 
 2618000   0.81489952    -7.581766    706.67657  0.022494161  0.022345721            5 
 2619000   0.83933636   -7.5816149    706.84222  0.022490843  0.022339452            3 
 2620000   0.82250753   -7.5690187    707.68304  0.022509002  0.022333187            3 
 2621000   0.81898222   -7.6146294    708.11835  0.022514255  0.022326945            4 
 2622000   0.83058082   -7.5893702    707.55622  0.022487802  0.022320642            3 
 2623000   0.81147261   -7.5878572    707.95518  0.022491904  0.022314365            3 
 2624000   0.82222937   -7.6176099    706.16709  0.022426546  0.022308092            5 
 2625000   0.83730798    -7.618554    705.86845  0.022408522  0.022301794            5 
 2626000   0.84408037   -7.6265926    706.71723  0.022426924  0.022295517            1 
 2627000   0.83002644   -7.5726896    709.27563  0.022499544  0.022289264            2 
 2628000   0.81324568   -7.6044989    708.34504  0.022461474  0.022282984            2 
 2629000   0.84385823   -7.5772624    707.68868  0.022432125  0.022276743            2 
 2630000   0.84283529   -7.5743696    708.34849  0.022444502  0.022270508            2 
 2631000   0.83091493   -7.5901344    708.68634  0.022446672  0.022264308            6 
 2632000   0.84204824   -7.5857279     708.6776  0.022437867  0.022258042            3 
 2633000   0.82692428   -7.6061455     708.5863  0.022426456  0.022251812            2 
 2634000   0.83165638   -7.5976283    709.77577  0.022455574  0.022245564            3 
 2635000   0.81447054   -7.5943573    709.61846  0.022442077  0.022239333            2 
 2636000   0.82981628   -7.5804988    709.21572  0.022420831    0.0222331            2 
 2637000   0.83145695   -7.6294345    707.34904  0.022353339   0.02222683            4 
 2638000   0.81880535   -7.6227979    709.88723  0.022425045  0.022220586            2 
 2639000   0.84057498   -7.5987049    711.19295  0.022457779  0.022214404            2 
 2640000   0.84944237   -7.5998883    709.50293  0.022395926  0.022208199            4 
 2641000   0.81767626   -7.6141697    708.22627  0.022347162  0.022201959            3 
 2642000    0.8163235   -7.5998582    709.44645  0.022377191   0.02219571            2 
 2643000   0.85308085   -7.6241762    709.93303  0.022384066  0.022189507            4 
 2644000   0.83105383   -7.5719112     707.0106  0.022283491   0.02218326            6 
 2645000   0.82769701   -7.5907048    709.59306  0.022356429  0.022176999            2 
 2646000   0.82639312   -7.5944406    708.43502  0.022311509  0.022170722            4 
 2647000   0.82883925   -7.6315324    707.57531  0.022276014  0.022164442            2 
 2648000   0.82677604   -7.5983961    710.18145  0.022349618  0.022158158            2 
 2649000   0.82407597   -7.6116825    709.14342  0.022308526  0.022151892            3 
 2650000   0.82615576   -7.5913034    710.96513  0.022357394  0.022145641            3 
 2651000   0.84189035   -7.6093008    711.34201  0.022360807  0.022139426            2 
 2652000   0.83339788   -7.5585731    710.08487  0.022312873  0.022133201            2 
 2653000   0.81834472   -7.5870763     709.6565  0.022291007  0.022127002            2 
 2654000   0.82689912   -7.5972269     712.2968  0.022365511  0.022120821            4 
 2655000    0.8319789   -7.5816026    711.27885  0.022325137  0.022114617            3 
 2656000   0.82780863   -7.5683183    711.51344  0.022324092  0.022108451            4 
 2657000   0.82659185   -7.5775304    711.49037  0.022314966  0.022102244            4 
 2658000   0.84961818   -7.5967121    710.36191  0.022271191  0.022096024            4 
 2659000     0.838469   -7.6179697    712.04199  0.022315469  0.022089807            1 
 2660000   0.82980361    -7.617039    709.62337  0.022231308   0.02208357            3 
 2661000   0.82247845   -7.6139644    710.17282  0.022240161   0.02207738            5 
 2662000   0.83476865   -7.6067886    711.37812  0.022269538  0.022071198            3 
 2663000   0.82457438   -7.5810755    712.28433  0.022289533  0.022065056            3 
 2664000    0.8440225   -7.6169171    711.74861  0.022264409  0.022058902            3 
 2665000   0.82046763   -7.5889792    712.08554   0.02226659  0.022052754            5 
 2666000   0.81943586   -7.6202054    712.50718  0.022271417  0.022046588            3 
 2667000   0.82741982   -7.6008862    712.90493  0.022275495  0.022040378            6 
 2668000   0.82971416   -7.5886633    713.03376   0.02227117  0.022034164            4 
 2669000   0.82871339   -7.5915721     712.0847  0.022233193   0.02202799            2 
 2670000   0.83535393   -7.5976003    711.67312   0.02221202  0.022021799            2 
 2671000   0.82729239   -7.6038797    712.31627   0.02222377  0.022015613            2 
 2672000   0.83529732   -7.6350101    711.45533  0.022188602  0.022009425            1 
 2673000   0.81984384   -7.6161793    711.26761  0.022174449  0.022003224            3 
 2674000   0.83001626   -7.5939505    712.61412  0.022208119   0.02199706            7 
 2675000   0.81241955   -7.6341677    711.96042  0.022179452  0.021990854            3 
 2676000   0.81693811   -7.6179363     711.9466  0.022170734  0.021984666            5 
 2677000   0.81199201   -7.6296364     712.8964  0.022192018  0.021978479            2 
 2678000   0.82601041   -7.6173357    713.19125  0.022192907  0.021972268            3 
 2679000   0.80539305   -7.6204387    712.28384  0.022156397  0.021966075            4 
 2680000   0.84099349   -7.6105863    713.11293   0.02217391  0.021959875            3 
 2681000   0.84418683   -7.6147334    712.70684  0.022153016  0.021953715            5 
 2682000   0.82197583     -7.58746    714.38065  0.022196764  0.021947577            3 
 2683000   0.81916269   -7.6353344    712.58062  0.022132582   0.02194146            3 
 2684000   0.83285321   -7.6156528    715.63134  0.022219056  0.021935304            2 
 2685000   0.81899449   -7.6074215    712.96187  0.022127929  0.021929162            3 
 2686000    0.8060622    -7.591786    713.41265  0.022133676  0.021923038            2 
 2687000   0.84910984    -7.590725    715.01024  0.022174986  0.021916875            4 
 2688000   0.82183606    -7.623575    712.31431  0.022083157  0.021910725            2 
 2689000   0.80599436   -7.5979311    715.27881  0.022166816  0.021904609            4 
 2690000    0.8250646   -7.6077269      713.584  0.022106072  0.021898475            2 
 2691000   0.82394362   -7.6235511     712.9994  0.022079754  0.021892313            4 
 2692000   0.80903308   -7.5722724    712.90721  0.022068698  0.021886171            2 
 2693000   0.82722079     -7.59717    714.89702  0.022122076  0.021880039            6 
 2694000   0.82502417   -7.5979379    716.66218  0.022168466  0.021873914            2 
 2695000    0.8074303    -7.605666    714.57122  0.022095585  0.021867778            4 
 2696000   0.83077787   -7.6182375    714.83849  0.022095651  0.021861627            3 
 2697000   0.79823216   -7.6212949    713.80328  0.022055471  0.021855438            3 
 2698000    0.8167379   -7.5971755    713.41859  0.022035415  0.021849216            2 
 2699000   0.82440902   -7.6076469    714.18196   0.02205082   0.02184304            2 
 2700000   0.83027562   -7.6440858     713.0399  0.022007404  0.021836871            2 
 2701000    0.8193345   -7.6200311    713.36679  0.022009342  0.021830662            2 
 2702000   0.81844183   -7.6335695    713.44398  0.022003577  0.021824469            2 
 2703000   0.82209118   -7.6272259    712.74892  0.021974008  0.021818292            4 
 2704000    0.8219967   -7.6135825    713.08275   0.02197617  0.021812087            2 
 2705000   0.81994175   -7.6223523    715.19948  0.022033256  0.021805905            3 
 2706000   0.80922912   -7.6285395    713.63272  0.021976864  0.021799702            4 
 2707000   0.83195861   -7.6161362     714.2432  0.021987538  0.021793524            2 
 2708000   0.80364706   -7.6586102    715.03075  0.022003654   0.02178733            1 
 2709000   0.82755617   -7.6371947     714.9843  0.021994103  0.021781167            2 
 2710000   0.82537286   -7.6308259    712.23597  0.021901475  0.021774972            3 
 2711000   0.81378506   -7.6035465    715.96502  0.022008023  0.021768827            2 
 2712000   0.82978543   -7.6154413    715.38002  0.021981933  0.021762671            4 
 2713000   0.83459827    -7.590683     715.1766  0.021967582  0.021756534            3 
 2714000   0.81309248   -7.6324597    715.60536  0.021972653  0.021750411            2 
 2715000   0.81168768   -7.6306209    715.75936  0.021969287  0.021744222            2 
 2716000   0.80946774   -7.6508847    713.59957   0.02189493  0.021738034            3 
 2717000   0.83225588   -7.6096781    714.46692  0.021913474  0.021731829            3 
 2718000   0.85098284   -7.6287431    714.80012  0.021915628  0.021725643            4 
 2719000   0.81756256   -7.6560487    715.59367  0.021931889  0.021719472            3 
 2720000    0.7905089   -7.6129372    713.79327  0.021868666  0.021713264            4 
 2721000   0.80353582    -7.613866    715.98616  0.021927789  0.021707066            2 
 2722000   0.82462788   -7.6349425    717.41151   0.02196337   0.02170086            8 
 2723000    0.8207171   -7.6650503    714.77663  0.021874667  0.021694643            5 
 2724000   0.83328774   -7.6307823    713.96135  0.021841696  0.021688423            4 
 2725000   0.83100221     -7.59528    715.16535    0.0218705  0.021682211            3 
 2726000   0.81643815   -7.6428853    714.36001  0.021837858  0.021675973            2 
 2727000   0.81793596   -7.6194818     715.0413  0.021850669  0.021669739            3 
 2728000    0.7924526   -7.6571777    713.72472  0.021802441  0.021663499            8 
 2729000   0.82817393   -7.6458194     715.1635  0.021838387  0.021657232            4 
 2730000   0.80056325   -7.6265022    714.14869  0.021799411  0.021650962            1 
 2731000   0.83756044   -7.6400599    714.81937  0.021811893  0.021644734            3 
 2732000   0.81847289   -7.6445392    714.16998  0.021784101  0.021638506            3 
 2733000   0.79892346    -7.627459    715.36144   0.02181246  0.021632248            2 
 2734000   0.81591282   -7.6499556     714.8266   0.02178818  0.021626025            2 
 2735000   0.81223383   -7.6440843    714.69184  0.021776107  0.021619793            7 
 2736000   0.80128847   -7.6217365    716.41829  0.021820732  0.021613555            2 
 2737000   0.82263764   -7.6154773    716.27552  0.021808413  0.021607378            2 
 2738000   0.81206026   -7.6504157    714.61416  0.021749883  0.021601159            2 
 2739000   0.80988596   -7.6436548    715.36563  0.021764806  0.021594957            3 
 2740000   0.82617295   -7.6380918    717.06605  0.021808578  0.021588801            3 
 2741000   0.82433382   -7.6234831    717.64283  0.021818157  0.021582634            3 
 2742000   0.81528077   -7.6412122     717.7332  0.021812947  0.021576475            1 
 2743000   0.81120131   -7.6409597    715.66726  0.021742231  0.021570305            1 
 2744000    0.8172031   -7.6298936     717.0536  0.021776409   0.02156414            2 
 2745000   0.81826381   -7.6192449    718.12501  0.021801002  0.021557986            2 
 2746000   0.81894763   -7.6228295    716.57574  0.021746047  0.021551804            4 
 2747000   0.80107323    -7.602538    718.22382  0.021788127  0.021545653            3 
 2748000   0.80329521   -7.6160392    716.20851  0.021719084  0.021539497            2 
 2749000   0.81651075   -7.6380382    717.38869  0.021746959  0.021533353            2 
 2750000   0.80421658   -7.6320489     718.1288  0.021761479  0.021527196            4 
 2751000   0.79097895   -7.6568344    717.19635  0.021725323  0.021521081            2 
 2752000   0.83550421   -7.6357805    717.58254  0.021729123  0.021514952            1 
 2753000   0.79215649   -7.6480789     719.2326  0.021771177   0.02150883            2 
 2754000   0.80624738   -7.6306557    719.82853  0.021781304  0.021502776            1 
 2755000   0.79172126   -7.6042394    719.65317  0.021768094  0.021496703            5 
 2756000   0.81594911    -7.638826    718.79506  0.021734248  0.021490658            3 
 2757000   0.80179753   -7.6398857    718.12543  0.021706125  0.021484596            5 
 2758000   0.82970292    -7.616177    719.87832  0.021751218  0.021478543            2 
 2759000   0.80261159   -7.6597171    717.96001  0.021685394  0.021472444            3 
 2760000   0.80784925   -7.6498052    718.46843  0.021692887  0.021466362            4 
 2761000   0.81755446   -7.6193836    718.60053  0.021689018  0.021460296            2 
 2762000   0.79274474    -7.670862    717.60577  0.021651152  0.021454211            5 
 2763000   0.80567061   -7.6322054    718.79009  0.021679035  0.021448133            1 
 2764000   0.79833158   -7.6367854    719.04887  0.021678994  0.021442066            3 
 2765000   0.79378892   -7.6540613    720.01667  0.021700322  0.021436018            2 
 2766000    0.8152996   -7.6413762    720.10532  0.021695147  0.021429925            2 
 2767000   0.81375471   -7.6445144    720.67928  0.021704592  0.021423865            3 
 2768000   0.79930663   -7.6236027    720.32155  0.021685981  0.021417846            3 
 2769000   0.81061835   -7.6389314    719.81352   0.02166286  0.021411817            3 
 2770000   0.81813596   -7.6485876    720.88537  0.021687285  0.021405757            2 
 2771000   0.82578179   -7.6915985    719.45943  0.021636576  0.021399743            4 
 2772000   0.78245646   -7.6620079    721.75168  0.021697682  0.021393715            4 
 2773000   0.80493202   -7.6659145    719.55845  0.021623947  0.021387681            3 
 2774000   0.81388517   -7.6553592    720.54204  0.021645699  0.021381622            3 
 2775000   0.80916212   -7.6516314    720.16367  0.021626537  0.021375582            4 
 2776000    0.8044261   -7.6623952    720.74952  0.021636333  0.021369511            1 
 2777000   0.80626691   -7.6213444    722.30329  0.021675168  0.021363429            2 
 2778000   0.81250302   -7.6802229    718.85366  0.021563885  0.021357346            2 
 2779000   0.80417271   -7.6491927    719.73525  0.021582561   0.02135122            4 
 2780000   0.81231913   -7.6743788    719.69656  0.021573638  0.021345117            3 
 2781000   0.80579826   -7.6619155    720.99248  0.021604713  0.021339001            5 
 2782000   0.80412582    -7.664481    719.20408  0.021543377  0.021332913            5 
 2783000    0.7839958   -7.6497441    720.56703  0.021576447  0.021326846            4 
 2784000   0.79963229   -7.6511284    719.37879  0.021533129  0.021320761            1 
 2785000   0.80509324   -7.6563826    720.27793  0.021552302  0.021314647            2 
 2786000   0.81531026   -7.6488283    720.55549  0.021552868  0.021308562            1 
 2787000   0.80223706    -7.638179    719.24497  0.021505949  0.021302468            2 
 2788000    0.8025265   -7.6440258    721.69951  0.021571602  0.021296391            2 
 2789000   0.79197856   -7.6330364    720.88174  0.021539433  0.021290381            3 
 2790000   0.81780041   -7.6419707    721.08985  0.021537929  0.021284339            3 
 2791000   0.81820442   -7.6542634    719.34236  0.021478035  0.021278265            3 
 2792000    0.8072367   -7.6682407    719.92816  0.021487827  0.021272134            2 
 2793000   0.78829861   -7.6657226    720.05066  0.021483789  0.021266033            4 
 2794000   0.79702926   -7.6525798    721.49329  0.021519127   0.02125993            2 
 2795000   0.80235613   -7.6534367    719.32407  0.021446752  0.021253822            3 
 2796000   0.80415135   -7.6574346    720.83282  0.021484049  0.021247744            4 
 2797000    0.7967477   -7.6593442    719.89502  0.021448428  0.021241649            6 
 2798000   0.80631707   -7.6624574    720.67132  0.021463883  0.021235541            3 
 2799000   0.80923747   -7.6675361    720.92371  0.021463728   0.02122946            8 
 2800000   0.80647055   -7.6589393    720.23493  0.021435563  0.021223409            2 
 2801000   0.81859848   -7.6793533    720.41785  0.021433353  0.021217332            3 
 2802000   0.81447661   -7.6678639    720.48815  0.021427794  0.021211248            5 
 2803000   0.81430325   -7.6852592     720.8489  0.021430875  0.021205115            2 
 2804000   0.81513449   -7.6905465    720.34604  0.021408287     0.021199            4 
 2805000   0.81730155   -7.6817986    721.16998  0.021425133  0.021192907            5 
 2806000   0.81577775   -7.6947798     720.7213  0.021404172  0.021186809            2 
 2807000   0.80442911   -7.6960669    720.50296  0.021390065  0.021180706            3 
 2808000   0.79683334   -7.6707997    722.71017  0.021447951  0.021174596            4 
 2809000   0.79107572   -7.6426219    722.55368  0.021435674  0.021168523            4 
 2810000   0.80593174   -7.6621697    721.71053  0.021403041   0.02116248            2 
 2811000   0.80027486   -7.6835632    722.47353  0.021418046  0.021156368            1 
 2812000   0.78881057   -7.6664247    721.24959  0.021374158  0.021150277            3 
 2813000   0.78276141   -7.6781966    722.01755   0.02138931  0.021144198            2 
 2814000   0.79283403   -7.6839988    720.00703   0.02132217  0.021138105            6 
 2815000   0.82630444   -7.6774048    720.48164  0.021328645  0.021131996            2 
 2816000    0.8095436   -7.6728982    722.69458  0.021386558  0.021125888            5 
 2817000   0.80716395   -7.6895781    722.80485  0.021382229   0.02111979            3 
 2818000    0.8128959   -7.6641719     722.2332  0.021357736  0.021113736            1 
 2819000   0.81199532    -7.685724    721.53349  0.021329475   0.02110762            3 
 2820000   0.81175934   -7.6746568    721.71076   0.02132715  0.021101524            2 
 2821000   0.79882508   -7.6724883    721.31976   0.02130804  0.021095417            2 
 2822000   0.80420699   -7.6622977    722.12931  0.021324395  0.021089329            5 
 2823000   0.79771504   -7.6611933    721.47894  0.021297642  0.021083242            2 
 2824000   0.80214827   -7.7291347    718.48268  0.021201685    0.0210771            9 
 2825000   0.80556566   -7.6994229    722.98439  0.021326973  0.021070949            3 
 2826000   0.79058238   -7.6582784    721.72357  0.021282247   0.02106485            4 
 2827000   0.80668561     -7.68252    722.32645  0.021292491  0.021058766            4 
 2828000   0.78772821   -7.6770971    721.44264  0.021258918  0.021052663            6 
 2829000   0.78964794   -7.6498487    722.20705  0.021273921   0.02104659            3 
 2830000   0.80604824   -7.6563416    721.30008  0.021239696  0.021040513            3 
 2831000    0.8064395   -7.6728313    723.14947  0.021286632  0.021034412            3 
 2832000   0.79745416   -7.6931121    722.16662  0.021250195  0.021028297            1 
 2833000   0.78502633   -7.6688102    723.41908  0.021279535  0.021022221            2 
 2834000    0.7914006   -7.6438586    723.34475  0.021269841  0.021016139            4 
 2835000   0.82352479   -7.7002872    720.84908  0.021188979  0.021010021            3 
 2836000   0.80667911   -7.6964172    722.91928  0.021242339  0.021003913            2 
 2837000   0.80176839   -7.6439485    722.46901  0.021221625  0.020997797            2 
 2838000   0.79084336   -7.6672835    723.88901  0.021255844  0.020991708            3 
 2839000   0.79741239   -7.6685606    722.71838  0.021213995  0.020985629            3 
 2840000   0.79977344   -7.6575474    722.06419  0.021187329  0.020979532            2 
 2841000   0.79693071    -7.681846    723.04296  0.021208582  0.020973434            3 
 2842000   0.77679198   -7.6785054    723.20208  0.021205785  0.020967359            5 
 2843000   0.79448806   -7.6897174       722.52  0.021178333  0.020961253            6 
 2844000   0.78288605   -7.6808963    724.02935  0.021215112  0.020955168            7 
 2845000   0.79617416   -7.6907619    722.53194  0.021163794  0.020949068            7 
 2846000   0.81005412   -7.6922026    723.44634  0.021183132  0.020942978            4 
 2847000   0.79795094   -7.6480251    724.35834  0.021202387  0.020936904            2 
 2848000   0.79689903   -7.6552918    724.26339  0.021192164  0.020930826            2 
 2849000   0.79679013   -7.6925959    723.35941  0.021158284  0.020924761            3 
 2850000   0.79400378   -7.6883403     723.3622  0.021150941  0.020918641            4 
 2851000   0.80205194   -7.6760627    723.21001  0.021139074  0.020912537            3 
 2852000    0.7863397   -7.6604463     723.5018  0.021140188  0.020906469            2 
 2853000   0.79668183   -7.6796367    724.96714  0.021175579  0.020900376            8 
 2854000   0.78283302   -7.6679139    724.41765  0.021152115  0.020894284            2 
 2855000    0.7937947   -7.6530625    723.35911  0.021113809  0.020888179            2 
 2856000   0.78077599   -7.6754056    723.30807  0.021104927  0.020882084            2 
 2857000    0.7985299    -7.672667    724.32142  0.021127098  0.020875997            3 
 2858000   0.77960168   -7.6751816    724.20695  0.021116368  0.020869935            2 
 2859000   0.78093056   -7.6916922    722.81242  0.021068334  0.020863852            2 
 2860000    0.8053095   -7.6607562    722.15842  0.021041912   0.02085776            2 
 2861000   0.78770252    -7.694859    722.72022  0.021050921  0.020851634            3 
 2862000   0.78940995   -7.6658687    722.34135  0.021032534    0.0208455            2 
 2863000    0.8004666   -7.6776181    724.14443   0.02107767  0.020839407            3 
 2864000   0.80309278   -7.7011802    723.41397  0.021049056  0.020833329            5 
 2865000   0.80310956   -7.6697637    725.50921  0.021102653  0.020827274            1 
 2866000   0.80289293   -7.6863394    724.31237   0.02106049  0.020821217            2 
 2867000   0.80334922   -7.6772293     725.7135   0.02109387  0.020815116            2 
 2868000   0.79367511   -7.6927855    723.47099  0.021021356  0.020809043            1 
 2869000   0.78268355   -7.7043644    726.31885  0.021096748  0.020802989            3 
 2870000   0.79233332   -7.7212662    724.10658  0.021025162  0.020796925            3 
 2871000   0.78146232   -7.6667449    724.48348  0.021028779  0.020790869            4 
 2872000   0.78683473   -7.6532559     727.2255  0.021101018  0.020784868            2 
 2873000   0.78205847   -7.6625174    726.33032  0.021067709  0.020778862            2 
 2874000    0.7803176   -7.6710287    725.58947  0.021038897  0.020772895            9 
 2875000   0.78030925   -7.6735046      724.716  0.021006261  0.020766898            2 
 2876000   0.79785465   -7.6729167    726.55681  0.021052295  0.020760901            2 
 2877000   0.78202738   -7.6829763    726.52219  0.021043975  0.020754929            2 
 2878000   0.80547336   -7.7003369    725.77543   0.02101504  0.020748919            3 
 2879000   0.78727341    -7.691421    725.71267  0.021005924  0.020742915            3 
 2880000   0.80679698   -7.6745488    726.68701  0.021026823   0.02073693            2 
 2881000   0.80478562   -7.6749086    727.01764  0.021029088  0.020730936            4 
 2882000   0.78848926   -7.6594881    724.03159   0.02093545  0.020724956            3 
 2883000   0.79367278    -7.683454    726.24133  0.020992061  0.020718953            3 
 2884000   0.80513805   -7.6586584    727.38623  0.021017864  0.020712947            3 
 2885000   0.79042965   -7.7077051    724.88097  0.020938214  0.020706933            4 
 2886000   0.78066895   -7.7074469    727.31717  0.021001304  0.020700903            7 
 2887000   0.79112527   -7.6908963    725.31583  0.020936261  0.020694917            9 
 2888000   0.80285184   -7.7131229    726.41106  0.020960615  0.020688924            3 
 2889000   0.78582823   -7.7079256    725.12012  0.020916122   0.02068289            3 
 2890000   0.78983325   -7.6891043    726.07255  0.020936348  0.020676854            3 
 2891000   0.78620866   -7.6796299    728.50521  0.020999228  0.020670872            3 
 2892000   0.76079343   -7.7099549     727.7477  0.020970139  0.020664854            7 
 2893000   0.78265724   -7.7046936    726.86109  0.020937351  0.020658856            1 
 2894000   0.77486908   -7.6570268    728.44738  0.020975794  0.020652921            1 
 2895000   0.78921279   -7.6771088    727.55319  0.020942809  0.020646964            3 
 2896000   0.79932435   -7.6932482    726.95385  0.020918331  0.020640998            7 
 2897000   0.77492083   -7.6767985    727.76004  0.020934301  0.020635011            3 
 2898000   0.79386011    -7.711593    725.94558  0.020874902  0.020629005            5 
 2899000   0.80925807   -7.7248907    726.78979  0.020891968  0.020622982            2 
 2900000   0.80323715   -7.6782418    727.35112  0.020900894  0.020616996            3 
 2901000   0.79237429   -7.6966385     725.9251  0.020852726  0.020611021            2 
 2902000   0.79402929   -7.7125509    726.25104    0.0208549  0.020605007            4 
 2903000   0.78246244   -7.7224072    727.24033  0.020876115  0.020599025            3 
 2904000   0.78476181   -7.7130204    727.61342  0.020879632  0.020593043            3 
 2905000   0.77356745   -7.6786589    729.65252  0.020930939  0.020587068            2 
 2906000   0.78718258      -7.6993     727.4717  0.020861198  0.020581129            2 
 2907000   0.79815749   -7.6788551    728.65737  0.020888011  0.020575169            2 
 2908000    0.7958497   -7.6889166    727.36685  0.020843846  0.020569213            4 
 2909000   0.78810538   -7.6849447    728.47712  0.020868486  0.020563257            4 
 2910000   0.77809534   -7.6856087    726.78819  0.020812949  0.020557243            4 
 2911000   0.77652318   -7.6756014    727.89197  0.020837397  0.020551243           12 
 2912000   0.78461747   -7.7113193    729.07498  0.020864096  0.020545246            3 
 2913000   0.77834509   -7.7199222    726.70277  0.020789071  0.020539247            3 
 2914000   0.78509136   -7.6765106    727.70891   0.02081071  0.020533267            2 
 2915000   0.77604929   -7.6928026    726.72358  0.020775403  0.020527285            1 
 2916000   0.79632848   -7.6670384    727.82921  0.020799875  0.020521299            3 
 2917000   0.78624517   -7.7039446    727.11605   0.02077237  0.020515275            2 
 2918000    0.7867834   -7.6788287    727.58725  0.020778708   0.02050928            3 
 2919000    0.7902096    -7.724158    728.22751  0.020789868   0.02050326            2 
 2920000   0.79475922   -7.7066658    728.08576  0.020778703  0.020497234            2 
 2921000    0.7858528   -7.7388517    726.23471  0.020718781  0.020491191            3 
 2922000   0.78294812   -7.7224668    726.01398  0.020705395  0.020485153            5 
 2923000   0.78337256   -7.6871938    729.59357  0.020800364  0.020479119            3 
 2924000   0.79381414   -7.7260052     726.6304  0.020708801  0.020473089            3 
 2925000   0.79191834   -7.7079926    727.88217  0.020737384   0.02046706            2 
 2926000   0.76977357   -7.7166422    727.32906  0.020714544  0.020461017            2 
 2927000   0.77968281   -7.7107589    726.14886  0.020673866  0.020454953            8 
 2928000   0.79068581    -7.697178    726.86058  0.020687061  0.020448924            2 
 2929000   0.77209137   -7.7137678    727.24098  0.020690821  0.020442873            2 
 2930000   0.77519789   -7.7105204     726.8411  0.020672386  0.020436784            5 
 2931000   0.78669634   -7.7239919    728.09022  0.020700848  0.020430707            3 
 2932000   0.77788906    -7.703851    726.10606  0.020637394  0.020424633            4 
 2933000   0.78164188   -7.6961544    727.92962  0.020682169  0.020418564            4 
 2934000   0.78928346   -7.7107019     725.6405  0.020610103   0.02041249            2 
 2935000   0.78884329   -7.7325286     727.4414  0.020654213  0.020406384            2 
 2936000   0.79210519   -7.7154344    726.30392  0.020614893  0.020400296            3 
 2937000   0.78833305   -7.7207424    726.33345  0.020608712  0.020394208            2 
 2938000    0.7706224   -7.6972591    727.18315  0.020625798  0.020388116            3 
 2939000   0.77076646   -7.7315638    727.16455  0.020618253   0.02038205            2 
 2940000   0.79571201   -7.7298127    726.50062  0.020592421  0.020375981            3 
 2941000   0.77292443   -7.7193606    728.17385   0.02063283  0.020369934            4 
 2942000   0.79390698   -7.7305389    727.92837  0.020618864  0.020363868            3 
 2943000   0.76546391   -7.7136563    727.37868  0.020596293  0.020357826            3 
 2944000   0.79407851   -7.6995795    727.38022   0.02058934  0.020351789            3 
 2945000   0.79030061   -7.7123996    728.23469  0.020606528  0.020345782            7 
 2946000   0.79128244    -7.704618    726.65933  0.020554971  0.020339757            2 
 2947000   0.79882477   -7.7542072    728.39213  0.020596995  0.020333711            2 
 2948000   0.77728595   -7.6993391    728.06876  0.020580867  0.020327645            3 
 2949000   0.77900274   -7.7243754    727.73103  0.020564345    0.0203216            2 
 2950000   0.78757054   -7.7165727    729.55654  0.020608942  0.020315549            4 
 2951000   0.79087578   -7.7222363    726.97268  0.020528993  0.020309505            3 
 2952000   0.77698889   -7.7107747    727.44889  0.020535481  0.020303464            3 
 2953000   0.76429129   -7.6790835    727.89418  0.020541093  0.020297419            3 
 2954000   0.75921879   -7.7365294    727.09779  0.020511673  0.020291383            3 
 2955000   0.77626864   -7.7228785    726.24467  0.020480673  0.020285319            2 
 2956000    0.7685448   -7.7411517    726.63911  0.020484864  0.020279237            3 
 2957000   0.77882462    -7.718179    726.26821  0.020467484  0.020273144            4 
 2958000   0.77469222   -7.7663169    727.17143  0.020486011  0.020267038            3 
 2959000   0.76993342   -7.7605024    727.49138  0.020488098  0.020260915            3 
 2960000   0.77266239   -7.7454691    727.05509  0.020468893  0.020254805            3 
 2961000   0.75717324   -7.7331035    727.44058   0.02047283  0.020248706            4 
 2962000   0.77570824   -7.7191553    727.12343  0.020456995  0.020242634            4 
 2963000   0.79407908   -7.7223973    729.16407  0.020507483  0.020236577            2 
 2964000   0.77037959   -7.7032339    727.93086  0.020465892  0.020230528            3 
 2965000   0.79244744   -7.7152104    728.67025  0.020479771  0.020224473            5 
 2966000   0.78847014   -7.7285037    728.99493  0.020481988  0.020218426            2 
 2967000    0.7717845   -7.6973611    728.11154  0.020450273  0.020212383            3 
 2968000   0.77595605   -7.7179568    728.62498  0.020457799  0.020206356            4 
 2969000   0.77049775   -7.7166175    729.45365  0.020474168  0.020200333            3 
 2970000   0.76570188   -7.7322801    729.15496  0.020458893   0.02019429            4 
 2971000    0.7722575   -7.7146421    729.64573  0.020465773  0.020188275            3 
 2972000   0.79489202   -7.7333248    728.95035  0.020439388  0.020182275            4 
 2973000   0.78690399   -7.7362459    728.76001  0.020427178  0.020176271            2 
 2974000   0.78667807    -7.757675    729.15356  0.020431337  0.020170268            6 
 2975000   0.78329237   -7.7183143     731.8881  0.020501067  0.020164262            4 
 2976000   0.77287602   -7.7215983    729.33102  0.020422575  0.020158242            3 
 2977000   0.79220725   -7.7537913    727.82217  0.020373479  0.020152212            6 
 2978000   0.78594345   -7.7410124    727.99104  0.020371363  0.020146178            1 
 2979000   0.79098765   -7.7438625     728.4751  0.020378066  0.020140159            3 
 2980000   0.77372333   -7.7295657    730.12784  0.020417445  0.020134127            3 
 2981000   0.78261957   -7.7467617    729.21434  0.020385059  0.020128088            3 
 2982000   0.78059928   -7.7460044    728.95199  0.020370892  0.020122061            5 
 2983000   0.75297613   -7.7434295    729.36144  0.020375501  0.020116046            2 
 2984000   0.78927674   -7.7216612    730.00814  0.020386733  0.020110023            2 
 2985000   0.77350635   -7.7265593    729.54224  0.020366897   0.02010401            4 
 2986000    0.7752679   -7.7389416    730.44979  0.020385404  0.020098008            3 
 2987000   0.77333001   -7.7690342    730.81123  0.020388663  0.020092013            4 
 2988000   0.77346918   -7.7155439    731.09183  0.020389665  0.020086023            5 
 2989000   0.77217429   -7.7380525    729.99415   0.02035224  0.020080048            3 
 2990000   0.76556794   -7.7456663    729.90707  0.020343006  0.020074056            3 
 2991000   0.77835233   -7.7450248     729.3886   0.02032176  0.020068066            3 
 2992000   0.78182765   -7.7192236     728.9292  0.020302173  0.020062067            2 
 2993000   0.77385218   -7.7493413    729.27519  0.020305022  0.020056069            3 
 2994000   0.77803904   -7.7403326    731.83643  0.020369529  0.020050084            2 
 2995000   0.77908796   -7.7544639    729.66906  0.020302422  0.020044109            4 
 2996000   0.77105827   -7.7518937    729.91092  0.020302373  0.020038116            4 
 2997000   0.77988018   -7.7202007    731.39695  0.020336919  0.020032154            4 
 2998000   0.78035695    -7.742526    730.47099  0.020304397  0.020026178            2 
 2999000   0.77283573   -7.7612324    730.53467  0.020299396  0.020020204            3 
 3000000   0.77140779   -7.7645168    731.29127  0.020313646  0.020014223            4 
 3001000   0.76704817   -7.7340827    731.21528  0.020304767  0.020008251            3 
 3002000    0.7590228   -7.7343997    730.79386  0.020286305  0.020002274            4 
 3003000   0.78426584   -7.7297024    731.22897  0.020291624  0.019996297            4 
 3004000   0.76064178   -7.7463186    731.29918  0.020286817  0.019990353            2 
 3005000   0.77825959   -7.7624306     729.5885  0.020232626  0.019984386            3 
 3006000   0.77520741   -7.7422823     731.7515  0.020285859  0.019978414            2 
 3007000   0.76527831   -7.7436084    729.73095  0.020223117  0.019972442            2 
 3008000   0.76389481   -7.7529818     729.8046  0.020218434  0.019966465            4 
 3009000   0.77534901   -7.7177852    729.37578  0.020199839  0.019960519            3 
 3010000   0.76515404   -7.7471453    731.22651  0.020244366  0.019954561            3 
 3011000   0.78307477   -7.7115032    731.94296  0.020257472  0.019948616            3 
 3012000   0.77606365   -7.7441443    731.10559  0.020227578  0.019942676            2 
 3013000   0.77154736   -7.7763247    729.12744  0.020166153  0.019936713            5 
 3014000   0.78025075   -7.7218102    731.83967  0.020234452  0.019930742            3 
 3015000   0.78663331   -7.7672205    730.51974  0.020191259  0.019924772            2 
 3016000   0.76991573   -7.7780066    729.03654  0.020143583  0.019918765            4 
 3017000   0.76389286   -7.7768337    729.23893  0.020142496  0.019912749            3 
 3018000   0.77708243   -7.7422736    731.20227  0.020190034  0.019906746            4 
 3019000   0.77038378   -7.7307253    731.11799   0.02018102  0.019900763            2 
 3020000   0.75622878   -7.7205814    731.60162  0.020187683  0.019894807           10 
 3021000   0.76494709    -7.734007    731.60345  0.020181051  0.019888849            4 
 3022000   0.74995449   -7.7611826    730.76523  0.020151258  0.019882856            1 
 3023000   0.75000239   -7.7469705    731.95245   0.02017732  0.019876861            3 
 3024000   0.77684274   -7.7258657     731.3217  0.020153265  0.019870896            2 
 3025000   0.76078506   -7.7366946     732.0172  0.020165763   0.01986492            8 
 3026000    0.7765824   -7.7538789    731.57012  0.020146787  0.019858926            5 
 3027000    0.7608005   -7.7127537    729.35353  0.020079108  0.019852927            3 
 3028000   0.75809505   -7.7390999    731.14138   0.02012168  0.019846964            3 
 3029000   0.77006704   -7.7330214    731.24082  0.020117773  0.019840961            3 
 3030000   0.76907317   -7.7660924    731.00702  0.020104704  0.019834963            1 
 3031000   0.77681296   -7.7649867    731.25455  0.020104876  0.019828951            3 
 3032000   0.78528483   -7.7867965     730.3019  0.020072062  0.019822944            3 
 3033000   0.78271067   -7.7490229    732.97633  0.020138925  0.019816934            4 
 3034000   0.77950651   -7.7616452    729.78149  0.020044537  0.019810916            4 
 3035000   0.77264339   -7.7640297    729.88548  0.020040788  0.019804898            4 
 3036000   0.75325785   -7.7682742    730.22558  0.020043522  0.019798878            3 
 3037000   0.76265389   -7.7481215    730.92447  0.020056099  0.019792843            2 
 3038000   0.76937325   -7.7454062    731.45802  0.020064133   0.01978683            3 
 3039000    0.7799309   -7.7605873    729.89735  0.020014735  0.019780837            2 
 3040000   0.78124539    -7.740068    732.04734  0.020067087  0.019774855            2 
 3041000   0.77542666   -7.7562104     731.8162  0.020054154  0.019768871            3 
 3042000   0.76799182   -7.7484918    730.87395   0.02002175  0.019762895            4 
 3043000   0.75489025    -7.762754    730.44437  0.020003406  0.019756917            3 
 3044000   0.74230948   -7.7709094    730.24023  0.019991246  0.019750938            2 
 3045000   0.75557793   -7.7847551    728.16688  0.019927939  0.019744932            3 
 3046000   0.77241455   -7.7536627    730.70508  0.019990837  0.019738933            4 
 3047000   0.76490274   -7.7357409    729.85179   0.01996094  0.019732939            4 
 3048000   0.75058298   -7.7571641     730.0497  0.019959802  0.019726935            5 
 3049000   0.77495704   -7.7504603    731.61663  0.019996082  0.019720956            3 
 3050000   0.74558922    -7.742391    730.54373  0.019960211  0.019714961            4 
 3051000    0.7591229    -7.751122    731.00534  0.019966277  0.019708957            2 
 3052000   0.75241329   -7.7740754    730.89629  0.019956758  0.019702961            2 
 3053000   0.75606874   -7.7563417    731.36458  0.019963003   0.01969695            2 
 3054000   0.76698924   -7.7714485     732.4732  0.019986717  0.019690941            3 
 3055000   0.75570354   -7.7683971    730.56531  0.019928132  0.019684914            2 
 3056000   0.76259462   -7.7954222    729.19544  0.019884256  0.019678911            3 
 3057000   0.77112586   -7.7483974     730.5677  0.019915159  0.019672897            1 
 3058000   0.76593242   -7.7779245    729.38243  0.019876347  0.019666884            6 
 3059000   0.76753744   -7.7790755    730.39745    0.0198975  0.019660863            5 
 3060000   0.74482301   -7.7952907    730.19381  0.019885452  0.019654875            4 
 3061000    0.7655392   -7.7693313    730.85795  0.019897037  0.019648885            2 
 3062000   0.77692959   -7.7575209    731.97534  0.019920949  0.019642894            3 
 3063000   0.76276043   -7.7812208    731.26605  0.019895148  0.019636909            5 
 3064000   0.76792171   -7.7863802    730.84886  0.019877308  0.019630909            2 
 3065000   0.75670099   -7.7681347    730.97002  0.019874117  0.019624921            6 
 3066000   0.75398127   -7.7675189    731.36521  0.019878376  0.019618928            3 
 3067000    0.7630711   -7.7628857     732.4277  0.019900763   0.01961293            3 
 3068000   0.75793511   -7.7547623    731.52064  0.019869639  0.019606938            4 
 3069000   0.75672132   -7.7428648    731.75798  0.019869609  0.019600959            3 
 3070000   0.74756643   -7.7601569    732.80105  0.019891451   0.01959499            2 
 3071000    0.7637647   -7.7841092    731.08438  0.019838391  0.019589023            2 
 3072000   0.74967117   -7.7809781    731.64753   0.01984721  0.019583008            3 
 3073000   0.77162207   -7.7979138    732.31288  0.019858794  0.019576994            2 
 3074000   0.74004101   -7.7785847    729.81132  0.019784518  0.019570988            2 
 3075000   0.76118506   -7.7532134     730.7149  0.019802572  0.019564999            6 
 3076000   0.75864004   -7.7611793     733.7718   0.01987895  0.019558988            6 
 3077000   0.74575141    -7.755062    731.65692  0.019815213  0.019553007            3 
 3078000   0.76600026   -7.7403309    732.27236  0.019825437   0.01954702            2 
 3079000   0.74503277   -7.7552917    730.83447  0.019780082  0.019541029            2 
 3080000   0.77441963   -7.7703801    731.48492  0.019791259  0.019535061            5 
 3081000   0.75753259   -7.7529098    732.57548  0.019814332  0.019529052            4 
 3082000   0.76489803   -7.7652429    732.27309  0.019799727  0.019523055            6 
 3083000   0.75298649   -7.7690837    731.01449  0.019759285  0.019517053            4 
 3084000   0.75146956   -7.7771466    730.96891  0.019751646  0.019511039            2 
 3085000   0.75671154   -7.7924538    729.23751  0.019698474  0.019505008            2 
 3086000   0.75477327   -7.7758525    731.31416  0.019748168  0.019498994            3 
 3087000   0.75000964   -7.7797279    732.28656  0.019768021  0.019492968            8 
 3088000   0.73784768   -7.8126448    732.00545  0.019754033  0.019486956            3 
 3089000   0.74901913   -7.7997193    732.38216  0.019757801  0.019480953            4 
 3090000    0.7565131   -7.7728512    732.88397   0.01976494  0.019474953            3 
 3091000   0.75309897   -7.7791096    731.54925  0.019722561  0.019468966            2 
 3092000   0.75039345   -7.7784664    731.22621  0.019707477  0.019462949            5 
 3093000   0.76191608    -7.765408    732.17606  0.019726696  0.019456947            3 
 3094000   0.74738605    -7.764502     732.7695  0.019736304  0.019450954            3 
 3095000   0.75313895   -7.7642714    731.55301  0.019697173  0.019444966            4 
 3096000   0.75885612   -7.7669691    732.95011  0.019728416  0.019438996            4 
 3097000   0.77382479    -7.763129    731.91923  0.019694307  0.019433041            3 
 3098000    0.7580866   -7.7876743    732.18764   0.01969517  0.019427064            3 
 3099000   0.73490646   -7.7365422    733.82898  0.019732951  0.019421092            3 
 3100000   0.77458956   -7.7470563    733.38847  0.019714744  0.019415148            5 
 3101000    0.7464662   -7.7904049    732.41199  0.019682145  0.019409208            2 
 3102000   0.75813555   -7.7831738    732.03267   0.01966561  0.019403229            2 
 3103000   0.74952445   -7.8084065    732.26494   0.01966551  0.019397246            3 
 3104000   0.76536881   -7.7906709    733.04265  0.019680054  0.019391278            2 
 3105000   0.75001018   -7.7941803    733.25285  0.019679357  0.019385322            4 
 3106000   0.75474252   -7.7919886    731.84342  0.019635207  0.019379347            4 
 3107000    0.7414445   -7.7885842    733.06061  0.019661533  0.019373394            3 
 3108000   0.75288118    -7.773552    733.54574  0.019668215  0.019367461            3 
 3109000    0.7479621    -7.760605    733.15334  0.019651371  0.019361521            2 
 3110000   0.75052978   -7.7950469    730.90867  0.019584905  0.019355587            3 
 3111000   0.76440441     -7.78338    733.54147  0.019649134  0.019349631            5 
 3112000   0.76510774   -7.7514293    733.43611  0.019639999  0.019343698            2 
 3113000     0.740308   -7.8003291    733.21999  0.019627904  0.019337771            4 
 3114000   0.74460589   -7.8083866    731.49014  0.019575309  0.019331828            3 
 3115000   0.75477994   -7.7890555    732.45364    0.0195948  0.019325907           12 
 3116000   0.75108044   -7.8069851    733.27782  0.019610554  0.019319992            5 
 3117000   0.74918399   -7.8042287    733.23621   0.01960315  0.019314065            3 
 3118000    0.7590513   -7.7630701    732.97229  0.019589809  0.019308156            5 
 3119000   0.74360986   -7.7865082    734.03249  0.019611855  0.019302277            2 
 3120000   0.75488718   -7.7918935    733.43003  0.019589477  0.019296365            2 
 3121000   0.75368138   -7.8042618    732.13329  0.019548577  0.019290416            5 
 3122000   0.73905577   -7.7800227    732.32205  0.019547353  0.019284495            3 
 3123000   0.77587796   -7.7952368    733.39523  0.019569731  0.019278585            2 
 3124000   0.75699922   -7.7806048    733.69332  0.019571418  0.019272675            4 
 3125000   0.73707586   -7.7591882    736.27904  0.019634108  0.019266789            1 
 3126000   0.75820629   -7.8058024    732.99929  0.019540395  0.019260899            3 
 3127000    0.7668067   -7.8094444    734.02159   0.01956139  0.019254977            3 
 3128000   0.76794256   -7.8227489     733.2309  0.019534071  0.019249022            5 
 3129000   0.75712057   -7.8153451    732.59337  0.019510849  0.019243089            5 
 3130000    0.7593584   -7.7787047    735.26582  0.019575767   0.01923717            5 
 3131000    0.7662825   -7.7971079    735.04993  0.019563769  0.019231247            3 
 3132000   0.75868061   -7.7997749    733.85276  0.019525669   0.01922532            7 
 3133000   0.75105485   -7.8035078    735.30546  0.019558077  0.019219399            2 
 3134000   0.76078315   -7.7924352    733.48625  0.019503463  0.019213445            2 
 3135000   0.74313191    -7.835199    733.52864  0.019498369  0.019207514            3 
 3136000   0.74137702   -7.8022611    734.72626  0.019523976  0.019201578            2 
 3137000   0.74868125   -7.7939306    734.24581  0.019504989  0.019195638            4 
 3138000   0.75452201   -7.8002003    732.99017  0.019465428  0.019189711            3 
 3139000   0.75128043   -7.8064163    735.84474   0.01953501   0.01918379            3 
 3140000   0.75488945   -7.8051567    733.77641  0.019473896  0.019177871            2 
 3141000   0.74121006   -7.8175658    732.21871  0.019426369  0.019171942            2 
 3142000   0.74580672   -7.7939398    732.71337  0.019433306  0.019166012            6 
 3143000   0.73454199   -7.8110724     731.9322  0.019406411   0.01916009            3 
 3144000   0.76248569   -7.7931169    732.80012  0.019423243  0.019154143            2 
 3145000   0.75859136    -7.795454    732.69211  0.019414205   0.01914819            5 
 3146000   0.74740591   -7.8027361    733.65015  0.019433412   0.01914226            3 
 3147000   0.74359091   -7.7721641    731.72951  0.019376377  0.019136368            5 
 3148000   0.75403363   -7.8270739    733.28975  0.019411524  0.019130426            6 
 3149000   0.76292019   -7.8113181    734.25216  0.019430829  0.019124508            2 
 3150000   0.75605346   -7.7698385    734.17088   0.01942251  0.019118614            8 
 3151000   0.75100376   -7.7634535    735.17566  0.019442919  0.019112728            3 
 3152000    0.7354343   -7.8126638    733.87769  0.019402435  0.019106833            3 
 3153000    0.7434837    -7.782796    733.23635   0.01937933  0.019100916            4 
 3154000   0.74046223   -7.7946613    733.89849  0.019390681     0.019095            2 
 3155000   0.74710153   -7.7981237    733.81743  0.019382394    0.0190891            4 
 3156000   0.73033863   -7.7927436    733.89067  0.019378186   0.01908322            2 
 3157000   0.75914211   -7.7825246    736.21173  0.019433316  0.019077353            2 
 3158000   0.75217281   -7.7943017    734.68522  0.019386881  0.019071479            3 
 3159000   0.73656633   -7.7983963    735.48039   0.01940172  0.019065608            2 
 3160000   0.76433768   -7.8153532    735.28515  0.019390431  0.019059741            3 
 3161000   0.75233935   -7.8000749    734.93613  0.019375096  0.019053853            4 
 3162000   0.72975407   -7.8090616    736.08536  0.019399256  0.019047975            2 
 3163000   0.74796147   -7.7754238    735.71572  0.019383384  0.019042103            3 
 3164000   0.74448292   -7.8005815    735.78832   0.01937917  0.019036249            7 
 3165000   0.75444604   -7.7606555    735.21424  0.019357931    0.0190304            3 
 3166000   0.73585325   -7.7791283    734.39462  0.019330244  0.019024549            2 
 3167000   0.74550818   -7.8025377    735.49699  0.019353147  0.019018691            2 
 3168000   0.74286825   -7.7841353    735.93914  0.019358668  0.019012866            4 
 3169000   0.72314498   -7.7666073     736.0949  0.019356656  0.019007048            5 
 3170000    0.7447328   -7.7772823     736.1869  0.019352968  0.019001231            4 
 3171000   0.73818619   -7.7786983     735.4995    0.0193288  0.018995381            3 
 3172000   0.74001162   -7.7964817    734.01693  0.019283757  0.018989538            4 
 3173000   0.74985271   -7.7870207    736.42261  0.019340861  0.018983708            1 
 3174000   0.73779511   -7.8025879    736.38122   0.01933368  0.018977879            3 
 3175000   0.75046934   -7.8242246    734.36594  0.019274697  0.018972038            5 
 3176000   0.75270642   -7.8228487    733.87134   0.01925565  0.018966174            3 
 3177000   0.74550857   -7.8185824    735.40972  0.019289941  0.018960322            3 
 3178000   0.75221217   -7.8111572    736.08079  0.019301468  0.018954485            2 
 3179000   0.74121886   -7.7921566    735.85596  0.019289503  0.018948637            2 
 3180000   0.74846182   -7.8012879    735.70741  0.019279544  0.018942807            3 
 3181000   0.73646347   -7.8040573    736.66701  0.019298622  0.018936949            5 
 3182000   0.74664555   -7.7878992    735.12063  0.019252059  0.018931088            4 
 3183000   0.74492224   -7.8142959    735.48052  0.019255433  0.018925204            3 
 3184000   0.75953719   -7.8260101    734.19565  0.019215757  0.018919306            3 
 3185000   0.75771756   -7.8214722    734.16979  0.019209047  0.018913412            2 
 3186000   0.75351683   -7.8235733    732.71638  0.019165003  0.018907544            5 
 3187000   0.77737477   -7.8331197    733.92129  0.019190495  0.018901641            5 
 3188000   0.75280885   -7.8162823    735.46019  0.019224702  0.018895756            2 
 3189000   0.74861596   -7.8526968    732.70457  0.019146665  0.018889854            3 
 3190000   0.74314184   -7.8240383    735.98116  0.019226258   0.01888396            2 
 3191000   0.75075679   -7.8098422    735.51014  0.019207932  0.018878102            3 
 3192000   0.73922045   -7.8018953    734.25792  0.019169223  0.018872229            3 
 3193000   0.74449428   -7.8035709    735.60238  0.019198308  0.018866383            3 
 3194000   0.73235616   -7.8203103    736.37233  0.019212386  0.018860516            3 
 3195000   0.76016835   -7.8057667    734.35498  0.019153755  0.018854632            4 
 3196000   0.74534101   -7.8402425    734.65919  0.019155694  0.018848753            5 
 3197000   0.73572119    -7.832616    733.73713  0.019125668  0.018842876            3 
 3198000   0.73868889   -7.8278989    733.84744  0.019122562  0.018836993            5 
 3199000   0.72446651   -7.8250031    734.79269  0.019141208  0.018831109            2 
 3200000    0.7334994   -7.8102573    734.36286  0.019124033   0.01882523            2 
 3201000   0.72894589   -7.7906068    736.11293  0.019163619  0.018819377            2 
 3202000   0.73768831   -7.8525198    734.79868   0.01912343  0.018813531            2 
 3203000   0.73296696   -7.8284362    734.80674  0.019117669  0.018807667            3 
 3204000   0.74296169   -7.8139244    733.41184  0.019075422  0.018801821            4 
 3205000   0.74653601   -7.8323456    734.93414  0.019109052  0.018795962            4 
 3206000   0.73474941    -7.798774    734.62632   0.01909509  0.018790117            2 
 3207000   0.75691252   -7.8105993    734.92015  0.019096771  0.018784266            8 
 3208000   0.72873008   -7.7914237    736.23153  0.019124884  0.018778415            3 
 3209000    0.7260022   -7.8154629    734.72546  0.019079814  0.018772548            1 
 3210000   0.72095154   -7.8156387    733.79859  0.019049808  0.018766685            4 
 3211000   0.72981049   -7.8331299    733.58748  0.019038396  0.018760819            4 
 3212000   0.75967297    -7.849447    734.70367  0.019061428   0.01875493            3 
 3213000   0.74300093   -7.8412884    733.18742  0.019016169  0.018749024            2 
 3214000   0.74264311   -7.8411088    735.00799  0.019057457  0.018743159            2 
 3215000   0.73962555     -7.81432    734.35206  0.019034527  0.018737297            1 
 3216000   0.74655232   -7.8463572    734.17376  0.019023988  0.018731428            2 
 3217000   0.72936356   -7.8195135    734.90838  0.019037104  0.018725571            5 
 3218000    0.7336479   -7.8136429     736.5477  0.019073641  0.018719722            3 
 3219000   0.72644908   -7.8257994    735.01973  0.019028159  0.018713842            4 
 3220000   0.73162753    -7.849695    734.76378  0.019015626  0.018707953            9 
 3221000    0.7341976   -7.8341187    734.14749  0.018993778  0.018702073            3 
 3222000    0.7388985   -7.8185244     734.9944  0.019009787  0.018696199            2 
 3223000   0.74902313   -7.8440791    735.57021  0.019018777  0.018690319            3 
 3224000   0.72808927   -7.8260996    735.35991  0.019007442  0.018684434            2 
 3225000   0.74187809   -7.8114674    736.74476  0.019037332  0.018678619            6 
 3226000   0.74408629   -7.8295103    736.11037  0.019015044  0.018672759            5 
 3227000   0.72731028   -7.8146988    735.13711  0.018984018  0.018666913            3 
 3228000   0.73477189   -7.7933573    734.03307  0.018949635  0.018661052            4 
 3229000   0.74545674   -7.8193866     735.5529   0.01898299  0.018655207            7 
 3230000   0.72213813   -7.8353084     735.2186  0.018968488  0.018649341            2 
 3231000   0.72102315   -7.8252308    734.16249  0.018935378  0.018643478            4 
 3232000   0.72434092   -7.8255918    735.34942  0.018960123  0.018637623            2 
 3233000   0.71832244   -7.8346116    735.75499  0.018964713  0.018631787            4 
 3234000    0.7331858   -7.8020802    736.49598  0.018977942  0.018625955            3 
 3235000   0.74829495   -7.8369411    734.17258  0.018912225  0.018620125            4 
 3236000   0.72027346   -7.8025641    735.45906   0.01893951  0.018614275            2 
 3237000    0.7351449   -7.8084432    737.57989  0.018988258  0.018608445            4 
 3238000   0.74089165    -7.841035     735.2435  0.018922264  0.018602602            3 
 3239000   0.72950831   -7.8411836    735.86292  0.018932359  0.018596762            4 
 3240000   0.72998621   -7.8331148    736.72442  0.018948673  0.018590928            2 
 3241000   0.74508336   -7.8532281    735.16024  0.018902608  0.018585095            2 
 3242000   0.71006537   -7.8231688    736.42911  0.018929393  0.018579275            5 
 3243000   0.74184985   -7.8340213    735.81411  0.018907753  0.018573441            4 
 3244000   0.73860924   -7.8437701    735.55622    0.0188953  0.018567597           11 
 3245000   0.73367408   -7.8056244    735.03421  0.018876071  0.018561758            3 
 3246000    0.7456426   -7.8271385    735.78147   0.01888944  0.018555931            2 
 3247000   0.74469452   -7.8251943    735.03842  0.018864552  0.018550089            2 
 3248000   0.72364986   -7.8427615    737.28899  0.018916487   0.01854425            3 
 3249000   0.73918904   -7.8164217    735.80357  0.018872565  0.018538399            7 
 3250000   0.72193638   -7.8260771    734.94911  0.018844849  0.018532553            2 
 3251000   0.74575646   -7.7981988    735.01682  0.018840788  0.018526706            7 
 3252000   0.73749463   -7.8171513    734.66597  0.018826004  0.018520884            3 
 3253000   0.73772012   -7.8148103    735.76834  0.018848456   0.01851506            3 
 3254000   0.73795462   -7.8243624    736.37464  0.018858191  0.018509233            5 
 3255000   0.71614191   -7.8400234    736.86323  0.018864906  0.018503422            2 
 3256000    0.7248028   -7.8221155    737.04144  0.018863673  0.018497595            2 
 3257000   0.72516375   -7.8389653    734.85358  0.018801903  0.018491774            4 
 3258000   0.73680807   -7.8278184    734.93508  0.018798217  0.018485955            2 
 3259000   0.73586745   -7.8189243    735.91124  0.018817409  0.018480149            2 
 3260000   0.73470569   -7.8243175    736.26604  0.018820707  0.018474342           11 
 3261000   0.73267043   -7.8177261    736.56038  0.018822457  0.018468541            4 
 3262000   0.71508158   -7.8456838    735.70878  0.018794931  0.018462728            2 
 3263000   0.72151648   -7.7933997    738.40634  0.018858064  0.018456916            7 
 3264000   0.73088604    -7.827497    736.65335   0.01880753  0.018451118            2 
 3265000   0.72053825   -7.8316651    736.23897  0.018791194   0.01844528            2 
 3266000   0.73706072   -7.8241976    737.24307   0.01881106  0.018439441            5 
 3267000   0.72886278   -7.8564532    735.46986  0.018760072  0.018433603            4 
 3268000   0.70905812   -7.8471093    735.40053  0.018752563  0.018427784            3 
 3269000    0.7290382    -7.823471     737.2469  0.018793895  0.018421992            4 
 3270000   0.73117704   -7.8408692    736.30596  0.018764168  0.018416204            3 
 3271000   0.72543519   -7.8432997    737.34163  0.018784817  0.018410402            5 
 3272000   0.74334476   -7.8486332    737.46586   0.01878224  0.018404615            2 
 3273000   0.71562814     -7.82912    736.35348  0.018748179  0.018398829            3 
 3274000   0.73539875   -7.8287312    735.98374  0.018733042   0.01839306            2 
 3275000   0.74457805   -7.8410868    737.47491  0.018765265  0.018387296            3 
 3276000   0.73731462   -7.8616378     737.2102  0.018752803  0.018381527            4 
 3277000   0.71959937   -7.8331771    736.61278  0.018731888  0.018375735            3 
 3278000    0.7147541   -7.8229994    735.66695  0.018702129  0.018369951            4 
 3279000   0.72691467   -7.8408328    737.11426  0.018733208  0.018364183            2 
 3280000    0.7124527   -7.8297595    736.21146  0.018704559  0.018358428            3 
 3281000   0.75252137   -7.8342632     737.9773  0.018743709  0.018352661            4 
 3282000   0.72373958   -7.8371048    736.77612  0.018707499  0.018346891            4 
 3283000   0.71960986   -7.8759714    735.45392  0.018668238  0.018341102            2 
 3284000   0.73896798   -7.8449923    735.88041  0.018673376  0.018335319            4 
 3285000   0.73137324   -7.8537839     735.1662  0.018649574  0.018329546            2 
 3286000   0.70463409   -7.8370792    737.36883  0.018699757  0.018323773           10 
 3287000   0.72683154   -7.8588613    736.69539  0.018676995  0.018318009            5 
 3288000   0.73241801   -7.8219164    736.03933  0.018654687  0.018312238            3 
 3289000   0.73261765   -7.8520561    736.96805  0.018672546   0.01830648            3 
 3290000   0.71309278   -7.8429883    738.43958  0.018704143  0.018300722            4 
 3291000   0.72472081   -7.8469652    736.95098  0.018660766   0.01829497            3 
 3292000   0.72598456   -7.8164344    738.36528  0.018690899  0.018289225            5 
 3293000   0.71188148   -7.8446397    738.58039  0.018690667  0.018283482            4 
 3294000   0.70139945   -7.8432461    738.65728  0.018686938  0.018277757            1 
 3295000   0.73534368   -7.8428408    738.97367  0.018689268  0.018272022            3 
 3296000   0.72346646   -7.8660794    738.35497  0.018667955  0.018266307            5 
 3297000   0.71641791   -7.8469905    737.26648  0.018634781  0.018260594            5 
 3298000   0.73861468   -7.8688706    737.98205  0.018647212  0.018254861            6 
 3299000    0.7442888   -7.8367413    737.76223  0.018636007  0.018249149            5 
 3300000   0.72333748   -7.8470535    738.11109  0.018639169   0.01824344            5 
 3301000   0.72319184   -7.8682173    738.02872  0.018631443  0.018237746            1 
 3302000   0.72166067   -7.8505631    739.53837    0.0186639  0.018232032            3 
 3303000    0.7202825   -7.8385845    739.19787  0.018649659  0.018226327            4 
 3304000   0.70995615   -7.8312704    738.86513  0.018635622   0.01822064            3 
 3305000   0.72928145   -7.8567734    737.53109  0.018596346  0.018214939            2 
 3306000   0.73228588   -7.8397878    738.56842  0.018616869  0.018209256            4 
 3307000   0.70569067   -7.8589017    736.36345  0.018555676  0.018203546            3 
 3308000   0.71304843   -7.8663843    738.53624  0.018604802  0.018197824            3 
 3309000   0.72568659   -7.8632212    738.05292  0.018587008  0.018192109            4 
 3310000   0.72740768   -7.8489347    738.14975  0.018583831  0.018186406            5 
 3311000   0.73831351   -7.8487292    738.21041  0.018579745   0.01818071            2 
 3312000   0.72731536   -7.8588918    737.74575  0.018562443  0.018175016            2 
 3313000   0.72914498   -7.8609355    738.21652  0.018568682  0.018169333            5 
 3314000   0.73307465   -7.8828873    738.43084  0.018568468  0.018163642            4 
 3315000   0.72163486   -7.8620308    738.65654   0.01856854  0.018157947            4 
 3316000   0.71916584   -7.8614718    739.24674  0.018577773   0.01815226            3 
 3317000   0.70361324   -7.8756966    738.69375  0.018558279  0.018146579            6 
 3318000   0.72571523   -7.8646605    737.96443  0.018534369  0.018140877            4 
 3319000   0.72961283   -7.8496104    737.63522  0.018520519  0.018135194            6 
 3320000   0.72331945   -7.8799908    741.54318  0.018613032  0.018129517            3 
 3321000   0.72338068   -7.8663665    737.81485  0.018513873  0.018123825            2 
 3322000   0.71957382   -7.8696549    739.29197  0.018545353  0.018118095            3 
 3323000   0.70798531   -7.8479095    738.27851  0.018514357  0.018112406            4 
 3324000   0.72225288   -7.8677716    737.96471   0.01850092   0.01810672            5 
 3325000   0.71397208   -7.8661827    739.80558  0.018541493  0.018101017            5 
 3326000   0.73410775   -7.8505222    739.03559  0.018516626  0.018095335            5 
 3327000   0.70277026   -7.8741696    737.16436  0.018464191  0.018089652            1 
 3328000   0.72301466   -7.8524287    737.65784     0.018471   0.01808395            6 
 3329000   0.70619424   -7.8653098     738.8415  0.018495081  0.018078268            4 
 3330000   0.71373886   -7.8712101    738.55735  0.018482416  0.018072601            5 
 3331000   0.71866765   -7.8755392    738.17147  0.018467214  0.018066906            8 
 3332000   0.72786142   -7.8866022    738.27554  0.018464274  0.018061232            1 
 3333000   0.71793651   -7.8929126    738.26369  0.018458438  0.018055562            7 
 3334000   0.71566698   -7.8624055    738.63143  0.018462093  0.018049887            2 
 3335000   0.74020463   -7.8618347    738.83071  0.018461537  0.018044228            5 
 3336000   0.72792667   -7.8682973    738.46608  0.018446894  0.018038593            5 
 3337000   0.73384281   -7.8670745    739.60599  0.018469833   0.01803296            4 
 3338000   0.69724462   -7.8591808    738.95891  0.018448145  0.018027333            3 
 3339000   0.70325962   -7.8651005    738.99428  0.018443503  0.018021695            2 
 3340000   0.72078179   -7.8959315    739.21315  0.018443442  0.018016064            6 
 3341000    0.7133319   -7.8886817    738.68575  0.018424767  0.018010428            7 
 3342000   0.70183691   -7.8619844    738.57834  0.018416575  0.018004798            3 
 3343000   0.72743008   -7.8793524    740.17358  0.018450832  0.017999177            3 
 3344000   0.73102377   -7.8742081    739.56927  0.018430255  0.017993547            4 
 3345000   0.71745392   -7.8864672    738.38188  0.018395164   0.01798792            2 
 3346000   0.71647322   -7.8709174    739.78314  0.018424565  0.017982311            2 
 3347000   0.71199402    -7.858706    740.86619  0.018446026  0.017976711            6 
 3348000    0.7104234   -7.8328129    740.19418   0.01842379  0.017971111            4 
 3349000   0.70268881   -7.8297074    741.73513  0.018456632  0.017965527            4 
 3350000   0.71710536   -7.8500771    738.67167  0.018374917  0.017959944            3 
 3351000   0.69947474   -7.8687286    740.71444  0.018420234  0.017954352            2 
 3352000    0.6968578   -7.8379514    741.29644  0.018429207  0.017948746            4 
 3353000   0.71804094   -7.8797855    740.51451  0.018404278  0.017943163            3 
 3354000   0.72925443   -7.8539457    742.10204  0.018438234  0.017937571            4 
 3355000   0.71423574   -7.8834125    739.83435  0.018376412  0.017931992            2 
 3356000   0.72212065   -7.8704535    741.45984  0.018411299  0.017926414            3 
 3357000   0.71331513   -7.8448654    740.00434  0.018369684  0.017920828            5 
 3358000   0.70224235   -7.8894167    739.43657  0.018350123  0.017915263            2 
 3359000   0.69573851   -7.8630474    740.02822  0.018359339  0.017909687            3 
 3360000   0.72728689   -7.8745418    742.19331  0.018407572   0.01790412            4 
 3361000   0.69790772   -7.8557246    741.44325  0.018383498  0.017898549            2 
 3362000   0.71787775   -7.8643202    741.08586  0.018369172  0.017892988            2 
 3363000   0.71795589   -7.8362961    741.94894  0.018385096   0.01788743            4 
 3364000   0.71525953   -7.8565958    738.80724  0.018301804  0.017881869            6 
 3365000   0.71078955   -7.8956283    740.32732   0.01833401  0.017876302            3 
 3366000   0.70335244   -7.9001255    740.70771  0.018337981  0.017870712            2 
 3367000   0.70082745   -7.8927216    740.50183  0.018327439  0.017865128            2 
 3368000   0.71515724   -7.8898444    740.95647  0.018333246  0.017859551            8 
 3369000   0.69428595   -7.8824849    740.01944  0.018304626  0.017853973            3 
 3370000   0.72735415     -7.88839    741.45061  0.018334585  0.017848404            3 
 3371000   0.72541327   -7.8657804    741.58126  0.018332376  0.017842854            3 
 3372000      0.70013    -7.875845    741.60693  0.018327574  0.017837325            2 
 3373000   0.72294696    -7.899549    740.55669  0.018296193   0.01783177            5 
 3374000   0.71712962   -7.8961826    739.97034  0.018276288  0.017826204            2 
 3375000   0.70070595   -7.8815976     742.4991  0.018333311  0.017820653            3 
 3376000    0.6969133   -7.8632433    740.49546  0.018278423  0.017815107            2 
 3377000   0.71158237   -7.8876147    740.38542  0.018270295   0.01780957            4 
 3378000   0.69888828   -7.8722602    741.94697  0.018303409  0.017804032            3 
 3379000   0.71530841   -7.8836439    741.55496  0.018288324  0.017798515            2 
 3380000   0.69836043   -7.8912174    742.53387  0.018307048  0.017792993            3 
 3381000   0.71680348   -7.8880528    740.54287   0.01825256  0.017787466            3 
 3382000    0.7209284   -7.8695697    740.84481  0.018254603  0.017781949            3 
 3383000   0.71588716   -7.8727573    741.89981  0.018275195  0.017776438            4 
 3384000   0.70801377   -7.8715004    742.71274  0.018289813  0.017770934            3 
 3385000   0.70170448   -7.8517787    743.04698  0.018292639  0.017765435            3 
 3386000   0.69932732   -7.8849174    742.04037  0.018262462  0.017759924            6 
 3387000   0.70257495   -7.8789514    742.36539  0.018265067  0.017754413            3 
 3388000   0.71951723   -7.9026604    741.50454  0.018238502    0.0177489            4 
 3389000   0.71635415   -7.8791099     743.0588  0.018271339  0.017743393            4 
 3390000   0.69216667   -7.8767327    743.15666  0.018268355   0.01773791            2 
 3391000   0.72157524   -7.9064402    741.84877  0.018230826  0.017732429            6 
 3392000   0.71116725   -7.8781426    742.55218  0.018242732  0.017726932            2 
 3393000    0.7131049   -7.8993036    743.08052  0.018250332   0.01772144            2 
 3394000   0.72047923   -7.9041982    742.22641  0.018223984  0.017715939            3 
 3395000   0.70703752   -7.8993071    742.20615  0.018218119   0.01771044            5 
 3396000   0.70361571   -7.8782043     744.0158   0.01825716  0.017704949            3 
 3397000   0.69443564   -7.9067702    740.84364  0.018173968  0.017699459            2 
 3398000   0.71286781   -7.8657246    741.38705  0.018181946  0.017693976            5 
 3399000   0.71045622   -7.8831977    741.29733  0.018174398  0.017688493            3 
 3400000   0.69010824   -7.8761492    741.09495  0.018164092  0.017683011            4 
 3401000   0.70626543    -7.884722    741.55829  0.018170104  0.017677531            2 
 3402000   0.70043213   -7.8788032    742.10006  0.018178034  0.017672059            6 
 3403000   0.70960954   -7.8772747    743.41021  0.018204776  0.017666588            3 
 3404000   0.71654479    -7.883947    743.30806  0.018196927  0.017661114            3 
 3405000   0.70279463   -7.9039544    742.88864  0.018181318  0.017655642            4 
 3406000   0.71071748   -7.9017274    743.03076  0.018179457  0.017650164            1 
 3407000   0.70787354   -7.9118365    742.69162  0.018165826  0.017644693            4 
 3408000   0.70175785   -7.8914674    740.68897  0.018111526  0.017639218            3 
 3409000   0.71201514    -7.897858    742.54536  0.018151593  0.017633715            3 
 3410000   0.71859407   -7.9244385    742.02871  0.018133644  0.017628219            2 
 3411000   0.70537592   -7.8816477    741.36569   0.01811213   0.01762273            3 
 3412000   0.69379388   -7.8945982     744.2342  0.018176881  0.017617248            4 
 3413000   0.71040944   -7.9356826    742.17132  0.018121187   0.01761177            2 
 3414000   0.71586611   -7.9109263    743.81872  0.018156091  0.017606298            2 
 3415000   0.70313421   -7.8791461    743.30154  0.018138154  0.017600813            3 
 3416000   0.69752168    -7.872377    742.74881   0.01811936  0.017595349            4 
 3417000    0.7173652   -7.8912849    743.72667  0.018137905  0.017589886            1 
 3418000   0.70313015   -7.8604292    741.99151  0.018090294  0.017584421            5 
 3419000   0.69542192   -7.8836019    743.88884  0.018131248  0.017578957            5 
 3420000   0.70976802   -7.8788555     742.8973  0.018101786  0.017573503            4 
 3421000   0.70677753   -7.8822271    743.88946  0.018120663  0.017568044            3 
 3422000   0.68911088     -7.89011    742.57869  0.018083448  0.017562585            3 
 3423000   0.70164444   -7.9132764    741.49258  0.018051723  0.017557105            2 
 3424000   0.71235589   -7.9197876    742.39715  0.018068466   0.01755162            2 
 3425000   0.69910841   -7.8943333     741.5186  0.018041815  0.017546134            4 
 3426000   0.70062656   -7.8952183    743.15065  0.018076247  0.017540662            2 
 3427000   0.71684728   -7.9035701    741.02861  0.018019371   0.01753518            2 
 3428000   0.70639135   -7.9356999    741.00918  0.018013642  0.017529679            3 
 3429000   0.69166786   -7.9091908    743.28993  0.018063817    0.0175242            2 
 3430000   0.71164543    -7.923281    741.99841  0.018027172  0.017518726            3 
 3431000   0.71475124   -7.8850003    742.55918  0.018035538  0.017513245            2 
 3432000    0.6993027   -7.9365809    741.53127  0.018005324  0.017507753            3 
 3433000   0.70563731   -7.9180979    741.08666  0.017989287  0.017502258            5 
 3434000   0.68563568   -7.8985556    742.18629  0.018010733  0.017496795            8 
 3435000   0.71929064   -7.8971481    742.72324  0.018018516  0.017491326            3 
 3436000   0.70806311   -7.8910943    741.61021  0.017986278   0.01748586            2 
 3437000   0.69411939   -7.9071258     742.5039  0.018002713  0.017480392            2 
 3438000   0.69883447   -7.9179068    741.16612   0.01796505  0.017474923            3 
 3439000   0.69524218   -7.9116391    741.02991  0.017956526  0.017469446            2 
 3440000   0.69438684    -7.916537    741.29866  0.017957816  0.017463971            9 
 3441000   0.70665326   -7.9234384    742.79221  0.017988768  0.017458497            3 
 3442000   0.70932231   -7.9256856    742.61891  0.017979346   0.01745302            6 
 3443000   0.69178299   -7.8991442    741.49509  0.017946924  0.017447533            6 
 3444000   0.68898046   -7.9103856    742.05524  0.017955266  0.017442052            2 
 3445000   0.69526974   -7.8893302    741.93401  0.017947122  0.017436577            2 
 3446000   0.68503757   -7.9205583     742.5347   0.01795644  0.017431118            3 
 3447000    0.6938029   -7.9045568    742.41807  0.017948411  0.017425667            4 
 3448000   0.69474668   -7.8969114    743.21169  0.017962386  0.017420235            7 
 3449000   0.72075158   -7.8945186    741.86294   0.01792459  0.017414795            4 
 3450000   0.71305527   -7.9167053    742.16409  0.017926669  0.017409354            4 
 3451000   0.71828868    -7.924773    743.11431   0.01794442  0.017403906            5 
 3452000   0.70672316   -7.9125223    740.48841  0.017875831  0.017398431            4 
 3453000   0.71302289   -7.9349457    742.15521   0.01791088   0.01739295            5 
 3454000   0.69539384   -7.9090208      741.885  0.017899175  0.017387486            2 
 3455000   0.69617899   -7.9416194    742.06999  0.017898456  0.017382019            5 
 3456000   0.70233205   -7.9148099    743.89264  0.017937226  0.017376568            4 
 3457000   0.69280399   -7.9082401    742.45935  0.017897487  0.017371123            3 
 3458000   0.71528305    -7.910764    741.89961  0.017878822  0.017365674            2 
 3459000   0.69954135   -7.9056782    743.40642  0.017909955  0.017360217            4 
 3460000   0.69019858   -7.9295589     742.2091  0.017875942  0.017354763            2 
 3461000   0.71360207   -7.9210461    741.62306  0.017856666   0.01734932            2 
 3462000   0.69878264   -7.9089136    742.17157  0.017864711  0.017343877            3 
 3463000   0.70629048   -7.9172065    743.04156  0.017880488  0.017338444            4 
 3464000   0.67949527   -7.8970533    742.47525  0.017861703  0.017333017            5 
 3465000   0.70403609   -7.8918843    741.40404  0.017830785  0.017327585            5 
 3466000   0.69478525   -7.8907435    742.40703  0.017849755  0.017322168            4 
 3467000   0.70000232   -7.8948348    741.32322  0.017818556  0.017316732            2 
 3468000   0.69880787   -7.8860515    742.56125  0.017843167  0.017311316            3 
 3469000   0.69244755   -7.9086609    741.84489  0.017820815  0.017305885            3 
 3470000   0.69209766   -7.9157466    742.94557  0.017842113  0.017300423            2 
 3471000   0.69211746   -7.9362124    741.70109  0.017807094  0.017294947            4 
 3472000   0.69898182   -7.9202513    741.96882  0.017808391  0.017289464            6 
 3473000   0.69761897   -7.9352799    742.52094  0.017816512  0.017283989            5 
 3474000   0.69638651   -7.9243747    741.50073  0.017786911  0.017278531            2 
 3475000   0.69876827   -7.9373408    742.09598  0.017796067  0.017273062            2 
 3476000   0.69328978   -7.9055155    743.27212  0.017819144  0.017267612            2 
 3477000   0.68471676   -7.9197852    742.40506  0.017793238  0.017262158            3 
 3478000   0.68422978   -7.9147199    742.32951  0.017786312    0.0172567            2 
 3479000   0.69748972   -7.9251507    741.47262  0.017760674  0.017251239            4 
 3480000   0.70220417    -7.929989    741.74996  0.017762212  0.017245782            3 
 3481000   0.68448612   -7.9471626    742.44602  0.017773772   0.01724031            2 
 3482000   0.69442941   -7.9313095    741.68783  0.017750522   0.01723483            3 
 3483000   0.70180676   -7.9596996    742.62249  0.017767788  0.017229351            3 
 3484000   0.69635483   -7.9408803    741.46592  0.017735025  0.017223878            2 
 3485000   0.68434533   -7.9305417    740.09011  0.017697037  0.017218401            1 
 3486000   0.69156492   -7.9420881    741.27573  0.017720303  0.017212926            5 
 3487000   0.70972687   -7.9393462    739.24299  0.017666642  0.017207436            2 
 3488000   0.70544399   -7.9286886    741.01512  0.017703916  0.017201952            4 
 3489000    0.6926427   -7.9383002     739.9428   0.01767323  0.017196468            4 
 3490000   0.69632353   -7.9502841    740.83943  0.017689576  0.017190985            4 
 3491000   0.70523042   -7.9465956    740.87142  0.017685272  0.017185513            3 
 3492000    0.6919719   -7.9462642    741.62533  0.017698199  0.017180042            1 
 3493000   0.67727973   -7.9670801    738.77337  0.017625092  0.017174571            2 
 3494000   0.68416741   -7.9403938    740.23695  0.017654955  0.017169096            2 
 3495000   0.68452442   -7.9811954    739.44045  0.017630912  0.017163613            3 
 3496000   0.67828243   -7.9432436    743.37587  0.017719677  0.017158146            4 
 3497000   0.68960491   -7.9707428    740.41115   0.01764396  0.017152669            5 
 3498000   0.70770493   -7.9868766    740.65132  0.017644638  0.017147194            4 
 3499000   0.70128056     -7.94521    740.92692  0.017646159  0.017141725            4 
 3500000   0.68104228   -7.9414997    740.82488  0.017638688  0.017136257            3 
 3501000   0.67685945   -7.9749638    740.08589  0.017616059  0.017130786            8 
 3502000   0.69459923   -7.9486687    743.17386   0.01768451  0.017125318            3 
 3503000   0.68629933   -7.9712465    741.81128  0.017647047  0.017119863            9 
 3504000    0.6957293   -7.9336447    741.45775  0.017633603  0.017114406            2 
 3505000   0.69315306   -7.9449279    740.44413  0.017604473  0.017108957            5 
 3506000   0.66971943   -7.9661389    741.05501  0.017613971   0.01710349            4 
 3507000   0.68519945   -7.9629488     742.0177  0.017631825   0.01709804            3 
 3508000   0.69232804   -7.9662004    741.67771  0.017618722  0.017092609            4 
 3509000     0.700589   -7.9681439    740.54775  0.017586866  0.017087173            4 
 3510000   0.70345546   -7.9611046    741.19917  0.017597321   0.01708172            2 
 3511000   0.68321497   -7.9449914    742.12531  0.017614291  0.017076271            1 
 3512000   0.70079554   -7.9628443    740.83453  0.017578648  0.017070831            6 
 3513000   0.69484416    -7.954955     741.0689  0.017579203  0.017065394            8 
 3514000   0.70325235   -7.9599709    739.99288  0.017548683  0.017059959            4 
 3515000   0.68679964   -7.9411013    740.82196  0.017563347  0.017054531            3 
 3516000   0.69535212   -7.9439803    740.86644  0.017559405  0.017049108            6 
 3517000    0.6823204   -7.9309022      741.974  0.017580656  0.017043702            3 
 3518000   0.67434918   -7.9491853    740.44963   0.01753955  0.017038292            2 
 3519000   0.68909659     -7.95908    742.64171  0.017586476  0.017032875            3 
 3520000   0.68398491   -7.9379013     742.4127  0.017576058  0.017027463            6 
 3521000   0.68765521    -7.955228    742.33228  0.017569163  0.017022043            4 
 3522000   0.69898795   -7.9658173    742.50993  0.017568378  0.017016621            4 
 3523000   0.68876043   -7.9634997    742.06233  0.017552804  0.017011206            1 
 3524000   0.69462304   -7.9617724    741.48153  0.017534088  0.017005801            2 
 3525000   0.68808135   -7.9611084    741.66489  0.017533449  0.017000388            3 
 3526000   0.69160364   -7.9417794    742.07112  0.017538077  0.016994963            3 
 3527000   0.69529817   -7.9579437     740.3537  0.017492527  0.016989533            6 
 3528000    0.6794979   -7.9507579    741.66889  0.017518634  0.016984104            3 
 3529000   0.68620949   -7.9493573    740.36749  0.017482939  0.016978666            4 
 3530000   0.67833846    -7.962955    741.20013  0.017497642  0.016973234            3 
 3531000    0.6877208   -7.9504367      743.187  0.017539578  0.016967824            4 
 3532000   0.67677081   -7.9573948    742.74327  0.017524143  0.016962426            3 
 3533000   0.67194367   -7.9573644    742.54792  0.017514575  0.016957032            4 
 3534000    0.6797019   -7.9505311    741.64805    0.0174884  0.016951635            4 
 3535000   0.68841294   -7.9463156    742.99714  0.017515255  0.016946246            6 
 3536000    0.6834431   -7.9585472    741.77316  0.017481456  0.016940856            3 
 3537000   0.69350746    -7.955055    740.75445  0.017452513  0.016935468            7 
 3538000   0.68071608   -7.9692005    740.83816  0.017449552  0.016930071            5 
 3539000   0.67541585   -7.9395376     743.9677  0.017518313  0.016924688            6 
 3540000    0.6864593   -7.9626764     742.1397  0.017470332  0.016919306            2 
 3541000   0.69381001   -7.9420592    742.51763  0.017474292  0.016913936            3 
 3542000   0.68447949   -7.9518038    744.99427  0.017527627  0.016908562            4 
 3543000    0.6772238   -7.9459598    742.94033   0.01747437  0.016903207            2 
 3544000   0.68397474   -7.9487157    741.14557  0.017427238  0.016897838            4 
 3545000   0.68168283   -7.9413945    742.13658  0.017445618  0.016892471            2 
 3546000   0.66910108   -7.9445226    742.85605  0.017457606  0.016887108            6 
 3547000   0.67432322   -7.9553513    743.37724  0.017464929  0.016881731            2 
 3548000   0.68025723    -7.954821    742.68712  0.017443798  0.016876362            2 
 3549000   0.69785598   -7.9568216    743.60301  0.017460388  0.016870993            3 
 3550000   0.68904884   -7.9663811    741.77195  0.017412487  0.016865628            1 
 3551000   0.69427089    -7.944913    742.02421  0.017413504  0.016860259            3 
 3552000   0.68067694   -7.9685004    742.26734  0.017414305  0.016854888            3 
 3553000   0.69253897   -7.9465475    742.77904  0.017421405  0.016849528            3 
 3554000   0.69255134   -7.9445958    742.12029  0.017401057  0.016844178           10 
 3555000   0.67742438   -7.9513851    741.67204  0.017385655   0.01683881            4 
 3556000   0.69524819   -7.9709367    741.69036  0.017381195  0.016833449            2 
 3557000   0.68871411   -7.9662106    742.73772  0.017400846  0.016828077            6 
 3558000   0.68280774   -7.9429983    743.96243   0.01742464  0.016822709            5 
 3559000   0.67690267   -7.9206313    742.18064  0.017378024  0.016817345            5 
 3560000   0.67457481   -7.9434583    741.64063  0.017360502  0.016811981            2 
 3561000   0.68416497   -7.9858012    742.21792  0.017369136  0.016806623            3 
 3562000   0.67836914   -7.9554742    743.13991   0.01738583  0.016801249            3 
 3563000   0.67956861    -7.943251    741.45261  0.017341487  0.016795871            3 
 3564000    0.6940316   -7.9509492    741.01719   0.01732644  0.016790501            8 
 3565000   0.67770037   -7.9606656    742.83539  0.017364081  0.016785138           11 
 3566000   0.68137607   -7.9608817    741.43061  0.017326384  0.016779736            5 
 3567000   0.68919117   -7.9423441    741.56964  0.017324774  0.016774363            6 
 3568000   0.66898522   -7.9621708    742.20421   0.01733474  0.016768992            6 
 3569000   0.69580449    -7.960038    741.77845  0.017319941  0.016763626            4 
 3570000   0.68285786   -7.9633184    741.31566  0.017304287  0.016758252            8 
 3571000   0.67292503   -7.9467093    739.43668  0.017255593  0.016752899            5 
 3572000   0.68594881   -7.9724302     741.4635  0.017298047  0.016747542            2 
 3573000   0.67879392    -7.988094    741.30619  0.017289537   0.01674218            3 
 3574000   0.67948763   -7.9398938    741.73561  0.017294712  0.016736832            2 
 3575000   0.67666564   -7.9621648     742.0013  0.017296068  0.016731491            2 
 3576000   0.69171976    -7.959904    742.05301  0.017292436  0.016726148            2 
 3577000   0.68403056   -7.9464302    741.71883  0.017279816  0.016720799            5 
 3578000   0.68282437   -7.9498338    741.81687   0.01727727  0.016715458            3 
 3579000   0.67925197    -7.978892    742.41594  0.017286391  0.016710108            3 
 3580000   0.67684602   -7.9537484     742.1704  0.017275847  0.016704778            6 
 3581000   0.67174113   -7.9679419    742.22144  0.017272211  0.016699447            6 
 3582000   0.67824157   -7.9505744    741.23792  0.017244508  0.016694108            7 
 3583000   0.67496225    -7.955466    741.54725  0.017246889  0.016688772            3 
 3584000   0.67190419   -7.9616622    742.79937  0.017271191   0.01668345            4 
 3585000   0.70014956   -7.9727025    743.85997  0.017291027  0.016678131            5 
 3586000   0.69616278   -7.9723812    742.04393  0.017244003  0.016672814            3 
 3587000   0.69011107   -7.9770821    741.60878  0.017229086  0.016667487            4 
 3588000   0.67718992   -7.9959683     741.2469  0.017215879  0.016662155            5 
 3589000   0.68758276    -7.960139    742.32777  0.017236179   0.01665682            4 
 3590000   0.67446442   -7.9775022    741.99888  0.017223744  0.016651489            5 
 3591000   0.66748506   -7.9728593    743.44416  0.017252487  0.016646166            2 
 3592000    0.6767156   -7.9917031    742.19818  0.017218777  0.016640835            7 
 3593000   0.67091707   -7.9765456    742.80545   0.01722807  0.016635516            4 
 3594000   0.67923357    -7.976661    742.64005  0.017219441  0.016630191            3 
 3595000    0.6753341   -7.9857091    741.11191  0.017179228  0.016624861            4 
 3596000   0.67134163   -7.9710357    743.06495  0.017219711  0.016619527            4 
 3597000   0.68910593   -7.9922346    741.68267  0.017182899  0.016614184            6 
 3598000   0.68150185   -7.9742742    742.36205  0.017193859   0.01660885            3 
 3599000   0.66961769   -7.9911788    741.17532  0.017161603  0.016603528            3 
 3600000   0.68200892   -7.9781815    742.32269  0.017183395  0.016598209            3 
 3601000   0.67872109    -8.007927    742.64766  0.017186144  0.016592882            3 
 3602000   0.65354193   -7.9656781    741.82573  0.017162357  0.016587552            4 
 3603000   0.68171899   -7.9665897     742.7334  0.017178587  0.016582239            4 
 3604000    0.6831228    -7.986207    741.21579   0.01713873  0.016576926            4 
 3605000    0.6628498   -7.9706754    742.82599  0.017171197  0.016571623            2 
 3606000   0.67409553   -7.9665282    742.37731  0.017156067  0.016566321            4 
 3607000    0.6714444   -7.9573639      742.749  0.017159897  0.016561032            2 
 3608000   0.66634258   -7.9876538    742.49433  0.017149259  0.016555744            7 
 3609000   0.67471953   -8.0020926    742.62821  0.017147599  0.016550447            3 
 3610000    0.6824731   -7.9630654    742.43978  0.017138499  0.016545153            4 
 3611000   0.68084872   -7.9978632    741.19945  0.017105129  0.016539856            6 
 3612000   0.68825971   -7.9811572    742.62999  0.017133398  0.016534568            3 
 3613000   0.67412965    -7.992373    741.71425  0.017107534   0.01652928            8 
 3614000   0.67675658   -7.9854598    741.57653  0.017099625  0.016523991            6 
 3615000   0.66215177   -7.9736287    741.58039  0.017094984  0.016518705            4 
 3616000   0.69512238   -7.9812328    743.30219  0.017129936   0.01651342            4 
 3617000   0.67809261   -7.9876385    742.96404  0.017117409   0.01650815            4 
 3618000   0.66492345   -7.9780649    744.12926  0.017139517  0.016502882            4 
 3619000   0.64818808   -7.9705418     742.9861  0.017108458  0.016497623            3 
 3620000   0.66528099   -7.9572048    742.47484  0.017091962  0.016492376            3 
 3621000   0.67929146   -7.9814745    743.58131  0.017112706  0.016487124            4 
 3622000   0.67028026   -7.9652402    743.58853  0.017108148  0.016481869            3 
 3623000   0.67029577   -7.9867824    743.76233  0.017107423  0.016476618            5 
 3624000   0.66767544   -7.9908524    741.83492  0.017058382  0.016471362            5 
 3625000   0.68160712   -7.9997755    742.31615  0.017064739  0.016466089            1 
 3626000   0.68833544   -8.0022073     742.9866  0.017075441  0.016460832            5 
 3627000   0.65743794   -7.9992549    741.98294  0.017047673  0.016455566            6 
 3628000   0.68176188   -8.0084743    742.03786  0.017044236   0.01645031            3 
 3629000   0.67693813   -7.9990986    742.88903  0.017059085  0.016445034            5 
 3630000   0.67560342   -7.9948299    743.63882  0.017071598  0.016439759            4 
 3631000   0.66273867   -8.0038049    742.02553  0.017029871  0.016434484            3 
 3632000   0.66985357   -7.9970123    741.76522  0.017019209  0.016429213            4 
 3633000   0.67725188   -7.9931091    742.10473  0.017022312  0.016423934            2 
 3634000   0.67763284   -7.9841762    743.56542  0.017051124  0.016418669            4 
 3635000   0.68226183    -8.002398    742.72473   0.01702716  0.016413391            3 
 3636000   0.68049751   -7.9865672    743.03738  0.017029643  0.016408122            4 
 3637000   0.66587649   -7.9839552    742.00534  0.017001314   0.01640286            4 
 3638000   0.67472698   -8.0111039    741.08913  0.016975654  0.016397609            3 
 3639000   0.67109882   -8.0054631    742.63542  0.017006399  0.016392354            4 
 3640000   0.67166589   -8.0061377    743.00248   0.01701013  0.016387092            4 
 3641000   0.67383528   -7.9827493    742.22504  0.016987664  0.016381844           10 
 3642000   0.67549453   -7.9954535    740.61093  0.016946067  0.016376603            4 
 3643000   0.67429447   -7.9820114     743.3709   0.01700455   0.01637135            6 
 3644000   0.65865643   -8.0016695    742.44825  0.016978784  0.016366106            4 
 3645000   0.66813605   -8.0154887    742.82967  0.016982846  0.016360846            9 
 3646000   0.66436102   -8.0092756    742.53393  0.016971428  0.016355595            5 
 3647000   0.65937475   -8.0016094    741.67582  0.016947167  0.016350344            7 
 3648000   0.66629306    -8.004516    742.70326  0.016965992  0.016345095            3 
 3649000   0.66316831   -8.0109008    742.89773  0.016965783  0.016339858           10 
 3650000   0.66517851   -8.0186888     741.4815  0.016928801  0.016334613            5 
 3651000   0.67596767   -8.0038799    742.94938  0.016957669   0.01632938            5 
 3652000   0.66260893   -7.9864674    742.21752  0.016936325  0.016324132            5 
 3653000   0.65948858   -8.0002371      742.277  0.016933046  0.016318891            4 
 3654000    0.6702377   -8.0133811    742.67882  0.016937576   0.01631365            4 
 3655000   0.66373745   -8.0187908    742.22813  0.016922666  0.016308407            5 
 3656000   0.67054116   -8.0212926    743.24174  0.016941141  0.016303171            2 
 3657000   0.68029053    -8.038979    742.57295  0.016921269  0.016297934            4 
 3658000   0.65188389   -7.9826543    742.68526  0.016919201  0.016292702            3 
 3659000    0.6694872   -7.9984759    742.28621  0.016905489  0.016287476            5 
 3660000   0.66723393   -8.0112519    742.14505  0.016897656  0.016282249            2 
 3661000    0.6655084   -8.0090846    742.92574  0.016910811   0.01627702            3 
 3662000   0.64759311   -7.9963906    743.11509  0.016910502  0.016271789            3 
 3663000   0.65780704   -8.0170325    742.39902  0.016889595  0.016266545            5 
 3664000   0.66609008    -8.036731    742.51628  0.016887652  0.016261312            2 
 3665000   0.64525565    -8.003232     743.1346  0.016897103  0.016256062            3 
 3666000   0.65955112   -7.9983509     742.2532  0.016872459  0.016250832            4 
 3667000    0.6599554   -8.0453788    742.31969  0.016869368   0.01624559            5 
 3668000   0.65206922    -8.026817    742.27196  0.016863685  0.016240354            3 
 3669000   0.66891899   -8.0293363    742.39499  0.016861883   0.01623512            2 
 3670000   0.66869179     -8.00951    742.32957  0.016855803  0.016229886            3 
 3671000   0.65596504   -8.0183356    742.17773  0.016847765  0.016224655            4 
 3672000   0.66507657   -8.0003293    742.17314  0.016843072  0.016219427            3 
 3673000   0.66937703   -7.9910765    744.62728  0.016894166  0.016214225            3 
 3674000   0.64824579   -8.0021446    743.16012   0.01685629  0.016209013            2 
 3675000   0.65872938   -8.0149446    742.12432  0.016828216  0.016203799            1 
 3676000   0.64993869   -7.9726228    742.43985  0.016830791  0.016198583            5 
 3677000   0.66078842   -8.0189787    743.21102  0.016843691  0.016193375            3 
 3678000   0.66572652   -8.0005315    743.48004  0.016845207  0.016188154            6 
 3679000   0.67492687   -8.0105457    742.64799  0.016821781  0.016182943            2 
 3680000   0.65067016    -8.018398    741.97639  0.016802002   0.01617773            3 
 3681000   0.67631845   -8.0163162    741.80925  0.016793653  0.016172505            5 
 3682000   0.69331768   -8.0034253    741.36727  0.016779089  0.016167278            3 
 3683000   0.65450224   -8.0331041    742.37624  0.016797363  0.016162049            3 
 3684000   0.66357187   -8.0616758    741.54303  0.016773956  0.016156814            5 
 3685000   0.66010993   -8.0544645    740.40727  0.016743719  0.016151575            3 
 3686000    0.6673603   -8.0237857    741.71335  0.016768705  0.016146355            8 
 3687000   0.66345151   -8.0199062    740.53181  0.016737452  0.016141136            4 
 3688000   0.65127306   -8.0309977    740.49288  0.016732034  0.016135924            3 
 3689000   0.66526937   -8.0125528    742.11197  0.016764073  0.016130716            2 
 3690000   0.66153224   -8.0217613    740.84642  0.016730949   0.01612551            3 
 3691000   0.64105631   -8.0032199    741.38385   0.01673855  0.016120307            5 
 3692000   0.66210989   -8.0108143    741.44764  0.016735456  0.016115116            5 
 3693000   0.66503834   -8.0226663    741.17239  0.016724713  0.016109912            3 
 3694000   0.64801427   -7.9969029    743.21417  0.016766246  0.016104723            5 
 3695000   0.65291725   -8.0061122    741.71937  0.016727997  0.016099525            4 
 3696000    0.6456142   -8.0130626     741.6349  0.016721566  0.016094338            5 
 3697000   0.66581299    -8.008975    741.89932  0.016723003  0.016089149            3 
 3698000   0.64698866   -8.0243403    742.18585  0.016724938  0.016083972            3 
 3699000   0.64591128   -8.0224191    742.36945  0.016724553   0.01607879            7 
 3700000   0.65422346   -8.0007435    743.78002  0.016751802  0.016073615            3 
 3701000   0.65436154   -8.0155107    742.38045  0.016715763  0.016068437            6 
 3702000   0.66341008   -8.0361096    742.37883  0.016711211  0.016063264            7 
 3703000   0.66493434   -8.0198058    743.16436  0.016724376  0.016058098            4 
 3704000   0.65838814   -8.0372278    742.11334  0.016696214  0.016052915            5 
 3705000   0.65797161   -8.0020733    742.99917  0.016711632  0.016047747            2 
 3706000   0.66240811   -8.0215022    742.14182  0.016687845  0.016042565            2 
 3707000   0.65233546    -8.030678    741.98465   0.01667981  0.016037395            5 
 3708000   0.65839147    -8.032398    742.07485  0.016677338  0.016032223            3 
 3709000   0.66113038    -8.031062    741.14952  0.016652052  0.016027039            4 
 3710000   0.67212974   -8.0460309    741.03618  0.016645018  0.016021861            4 
 3711000   0.66786115   -8.0337448    740.78819  0.016634963  0.016016679            2 
 3712000   0.66279051   -8.0404687    741.40791  0.016644395  0.016011496            3 
 3713000   0.65099983   -8.0198676    741.28004  0.016637042  0.016006324            3 
 3714000   0.66245797   -8.0254142    741.27349  0.016632415   0.01600115            3 
 3715000   0.65513357   -8.0409077    742.05802  0.016645537  0.015995968            7 
 3716000   0.65314443   -8.0566045    742.00744  0.016639923  0.015990795            3 
 3717000   0.66847002   -8.0206299    741.72311  0.016629072  0.015985615            3 
 3718000   0.66075149   -8.0511423    741.49599  0.016619508  0.015980434            5 
 3719000   0.64579922   -8.0170649    740.54804  0.016593799  0.015975264            4 
 3720000   0.65857116   -8.0294074    740.80643  0.016595126  0.015970087            8 
 3721000   0.65295767   -8.0316222    741.57513  0.016607882  0.015964913            2 
 3722000   0.64632613   -8.0175348     741.7132  0.016606511  0.015959735            5 
 3723000   0.66762334   -8.0333394    743.02507  0.016631414  0.015954566            6 
 3724000   0.66827391   -8.0441358    742.36102  0.016612089    0.0159494            4 
 3725000    0.6529953   -8.0204733    740.92707   0.01657555  0.015944239            6 
 3726000   0.65461898    -8.048986    741.29571  0.016579346  0.015939069            4 
 3727000   0.64721824   -8.0392717    742.43401  0.016600349   0.01593391            2 
 3728000   0.64758998   -8.0344249    741.55396  0.016576224  0.015928744            3 
 3729000   0.63359582   -8.0355771    741.03678  0.016560221  0.015923582            4 
 3730000   0.66692271   -8.0265038    742.45893  0.016587554  0.015918422            2 
 3731000   0.65482863   -8.0207555     741.6417  0.016564855  0.015913269            2 
 3732000   0.65814811   -8.0353525    741.50504  0.016557365  0.015908105            6 
 3733000   0.65694818   -8.0234816    742.09282  0.016566051  0.015902946            4 
 3734000   0.65068675   -8.0144951    741.68215  0.016552449  0.015897805            4 
 3735000   0.65892816    -8.026616    743.30392  0.016584202   0.01589267            3 
 3736000   0.64299756   -8.0274321     742.4817  0.016561423  0.015887547            4 
 3737000   0.66266438   -8.0410819    743.63919  0.016582802  0.015882405            5 
 3738000   0.64852723   -8.0128515    741.90101  0.016539616  0.015877277            6 
 3739000    0.6473858   -8.0305317    741.39707  0.016523961  0.015872139            3 
 3740000   0.66246157   -8.0094223    742.64814  0.016547418  0.015866998            5 
 3741000    0.6516019    -8.022181    742.49657  0.016539619  0.015861861            5 
 3742000   0.64673247   -8.0338917    741.22429  0.016506865  0.015856714            3 
 3743000   0.64995703   -8.0196611    740.48916  0.016486089  0.015851558            3 
 3744000   0.64155513   -8.0596254    740.16181  0.016474399  0.015846403            3 
 3745000     0.649792   -8.0461274    740.49494  0.016477413  0.015841249            7 
 3746000     0.673167   -8.0178285     741.2679   0.01649021  0.015836098            2 
 3747000   0.65039779   -8.0403066    741.72276  0.016495925  0.015830952            4 
 3748000   0.66174669   -8.0427249    742.20284  0.016502198  0.015825801            2 
 3749000   0.64444606   -8.0172177    742.43904  0.016503046  0.015820642            4 
 3750000   0.64999696   -8.0217897     741.1646  0.016470324  0.015815499            3 
 3751000   0.66101738   -8.0329656    741.60369  0.016475689  0.015810366            2 
 3752000   0.64275698   -8.0294107    741.93632  0.016478685  0.015805227            5 
 3753000   0.65656178   -8.0354596     742.7737  0.016492888  0.015800072            7 
 3754000   0.64911879   -8.0368627    741.28571  0.016455463   0.01579493            3 
 3755000   0.66056627   -8.0364565    740.81653  0.016440669  0.015789786            3 
 3756000   0.64893166   -8.0412821    740.63381  0.016432238  0.015784651            5 
 3757000   0.65674006   -8.0405964    740.55265  0.016426063  0.015779502            4 
 3758000   0.64706502   -8.0513514    740.88404  0.016429041  0.015774356            8 
 3759000   0.64723837   -8.0555778    741.17531  0.016431128  0.015769215            3 
 3760000   0.65348997   -8.0451971    741.34288  0.016430472  0.015764083            7 
 3761000   0.66037939   -8.0697342    739.95909  0.016395442  0.015758945            3 
 3762000    0.6423112   -8.0645574    740.20475  0.016396526  0.015753809            3 
 3763000   0.64451429   -8.0502837    739.49209  0.016376386  0.015748679            3 
 3764000   0.63910534   -8.0540625    740.76997  0.016400327  0.015743547            2 
 3765000   0.65887107   -8.0443162    741.00906  0.016401263  0.015738412            5 
 3766000   0.65635933   -8.0393619    741.40196  0.016405602  0.015733285            2 
 3767000   0.64098375   -8.0254019    742.13738  0.016417516  0.015728156            4 
 3768000   0.64528608   -8.0506577    740.09655  0.016368023  0.015723025            3 
 3769000   0.66389342   -8.0362512    741.17962  0.016387628  0.015717902            2 
 3770000   0.65871073   -8.0223788     740.5019    0.0163683  0.015712782            2 
 3771000   0.63613999   -8.0592804    739.93483  0.016351428  0.015707654            2 
 3772000   0.65863463   -8.0364709    741.43225  0.016380175  0.015702526            2 
 3773000   0.64886318   -8.0451112    741.25583  0.016371937  0.015697387            3 
 3774000   0.65098252   -8.0314558    739.80978  0.016335669  0.015692257            2 
 3775000   0.66423871   -8.0453051    741.35494  0.016365451  0.015687135            2 
 3776000   0.64442615   -8.0378012    740.25289  0.016336796  0.015682015            3 
 3777000   0.63025705   -8.0433179    740.35604  0.016334746  0.015676892            6 
 3778000   0.64962068   -8.0610253    740.11679  0.016325145  0.015671754            2 
 3779000   0.65854374   -8.0395391    740.76948  0.016335218  0.015666621            2 
 3780000   0.64129082   -8.0493802    740.71452  0.016329685  0.015661499            4 
 3781000    0.6429014   -8.0745156    740.29354  0.016316088  0.015656372            4 
 3782000   0.65007311   -8.0560282    740.39634  0.016314039  0.015651241            2 
 3783000   0.64117346   -8.0583523    739.91019  0.016299017  0.015646099            5 
 3784000   0.64004939   -8.0760066    741.62304  0.016332431   0.01564096            3 
 3785000   0.64550222   -8.0785426    739.53449  0.016282133  0.015635832            4 
 3786000   0.64103742   -8.0529395    742.14642  0.016335324  0.015630702            3 
 3787000   0.65595394   -8.0411534     740.3861  0.016292274  0.015625586            2 
 3788000   0.65423397   -8.0431031    742.05129  0.016324606  0.015620476            5 
 3789000   0.64201592   -8.0504545    740.65408  0.016289568  0.015615381            3 
 3790000   0.63706535   -8.0504263    740.82748  0.016289083  0.015610277            5 
 3791000   0.64788535   -8.0498502    739.08167   0.01624641   0.01560516            8 
 3792000   0.65054406   -8.0642856    740.35686  0.016270149  0.015600051            5 
 3793000    0.6586115    -8.063906    739.73916  0.016252288  0.015594947            3 
 3794000   0.64867651   -8.0692194    740.20759  0.016258294  0.015589844            3 
 3795000   0.64441676   -8.0535189    741.49123  0.016282196   0.01558476            4 
 3796000   0.63719534    -8.056824    740.30708  0.016251912  0.015579668            4 
 3797000   0.63942756   -8.0693145      739.552   0.01623106  0.015574566            2 
 3798000   0.64532434   -8.0860851    740.07182  0.016238192  0.015569477            6 
 3799000   0.64980557   -8.0662966    738.79804  0.016205976  0.015564385            4 
 3800000   0.64517609   -8.0524196    740.05838  0.016229351  0.015559296            2 
 3801000   0.64901878   -8.0726832    739.78059   0.01621899   0.01555421            2 
 3802000   0.64134747   -8.0690864    741.43513  0.016250989  0.015549116            3 
 3803000   0.62843179   -8.0586138    740.88407  0.016234641  0.015544043            6 
 3804000   0.63978402   -8.0549798    741.51786  0.016244257  0.015538965            5 
 3805000   0.63867773   -8.0586357     740.9429  0.016227396  0.015533889            2 
 3806000   0.63752025    -8.074736    739.95572  0.016201518  0.015528824            6 
 3807000   0.64557423   -8.0790152    741.39651    0.0162288  0.015523752            5 
 3808000   0.63944837   -8.0959932    740.45448  0.016203923  0.015518682            2 
 3809000   0.63020963    -8.067493    740.60637  0.016202992  0.015513611            3 
 3810000   0.64585727   -8.0611893    740.17973  0.016189408  0.015508535            7 
 3811000   0.63563058   -8.0808204    741.04161  0.016204006  0.015503478            4 
 3812000   0.62936584   -8.0601118    742.76396  0.016237407  0.015498421            5 
 3813000   0.64715711    -8.070838    741.12285  0.016197282  0.015493351            4 
 3814000   0.64721304   -8.0580712    741.73898  0.016206498  0.015488295            3 
 3815000   0.66464464   -8.0604538    743.46331  0.016239915  0.015483242            9 
 3816000   0.66028196   -8.0747546    740.13634  0.016163005  0.015478183            6 
 3817000    0.6351714   -8.0915241    741.36707   0.01618564  0.015473128            5 
 3818000   0.64171072   -8.0773716    741.53546  0.016185076  0.015468067            7 
 3819000   0.64003829   -8.0487669    740.67223  0.016162002  0.015463034            3 
 3820000   0.62711763   -8.0548923    741.89372  0.016184418  0.015457988            3 
 3821000   0.65219452   -8.0653612    742.69858  0.016197736  0.015452956            4 
 3822000   0.63805212   -8.0558417    741.89275  0.016175928  0.015447939            2 
 3823000   0.64423445   -8.0714418    742.62465   0.01618765   0.01544291            5 
 3824000   0.64557551   -8.0545642    741.97261  0.016169208  0.015437892            5 
 3825000   0.63808336   -8.0461209    742.57293  0.016178059  0.015432889            4 
 3826000   0.65142105   -8.0635469    742.19497  0.016165599  0.015427873            1 
 3827000   0.63807661   -8.0712946    741.88351  0.016154593  0.015422867            3 
 3828000   0.63932301   -8.0547644     743.1726  0.016178435  0.015417857            2 
 3829000   0.64190213   -8.0737624    741.05936  0.016128218  0.015412841            4 
 3830000   0.64068774   -8.0451071    742.69179  0.016159525  0.015407836            2 
 3831000    0.6542976   -8.0681988    741.54491   0.01613036  0.015402825            3 
 3832000    0.6495951    -8.049854    742.85839  0.016154714  0.015397819            4 
 3833000   0.63940191    -8.062802    740.00213  0.016088402  0.015392827            3 
 3834000   0.64133581    -8.069414    741.64272  0.016119864  0.015387839            4 
 3835000   0.64733624      -8.0773    741.26909  0.016107542  0.015382846            3 
 3836000   0.64583726   -8.0635758    740.77922  0.016092701  0.015377857            5 
 3837000   0.64516625   -8.0612789    741.49515  0.016104056  0.015372859            2 
 3838000   0.63726576   -8.0466033    743.20995  0.016137093  0.015367863            2 
 3839000   0.64035207   -8.0875018    741.79263  0.016102124  0.015362873            3 
 3840000   0.63935552   -8.0615774    741.64306  0.016094684  0.015357886            3 
 3841000   0.63899844   -8.0727834    741.85941  0.016095188  0.015352906            4 
 3842000   0.63964232   -8.0720615    742.44303  0.016103658  0.015347928            3 
 3843000   0.64437073   -8.0811034    741.90682   0.01608784  0.015342936            4 
 3844000   0.63400122   -8.0860863      741.462  0.016074011  0.015337943            4 
 3845000   0.63485543   -8.0837541    742.21411  0.016086132  0.015332959            4 
 3846000   0.64043109   -8.0854022    742.08539   0.01607916  0.015327978            3 
 3847000   0.63947182   -8.0953016    741.88614  0.016070664  0.015322983            1 
 3848000   0.64005788   -8.0850944    742.16657  0.016072561  0.015317999            3 
 3849000   0.64325331   -8.0717242      741.662  0.016057461  0.015313008            3 
 3850000   0.64806563   -8.0764729    740.59405  0.016030174   0.01530802            2 
 3851000   0.63446626   -8.1163021    741.43545  0.016044219  0.015303047            3 
 3852000   0.63682253   -8.0672538    741.50951  0.016041656  0.015298061            2 
 3853000   0.63159581   -8.0655355    742.44736  0.016057777   0.01529309            6 
 3854000   0.63456299   -8.0858408    741.94382  0.016042722  0.015288129            4 
 3855000   0.63428667   -8.0795302    740.91684   0.01601636  0.015283154            5 
 3856000   0.62974493   -8.0883286    739.21381  0.015975402  0.015278172            2 
 3857000   0.63098558   -8.0978267    741.69579  0.016024885  0.015273193            2 
 3858000    0.6340172   -8.1036908    741.42783  0.016014944  0.015268203            3 
 3859000   0.63003998   -8.0954829    742.06814  0.016024621  0.015263223            3 
 3860000   0.63821361   -8.0728192    741.38256  0.016005668  0.015258254            2 
 3861000   0.64594519   -8.0922193    740.93061  0.015991768  0.015253284            2 
 3862000   0.63036213   -8.0983947    740.14069  0.015970583  0.015248309            8 
 3863000   0.63524642   -8.0843592    741.78502   0.01600192  0.015243343            2 
 3864000   0.62634641   -8.0880932    741.43955  0.015990328  0.015238368            6 
 3865000    0.6199031   -8.0859381     741.6449  0.015990619  0.015233404            4 
 3866000   0.62861341   -8.0862698    742.21246  0.015998717  0.015228436            5 
 3867000   0.63976845   -8.0537302    742.69719  0.016005025   0.01522348            4 
 3868000   0.64111613    -8.064404    742.30111  0.015992354  0.015218536            5 
 3869000   0.63520779     -8.06963    741.62935  0.015973752  0.015213597            2 
 3870000   0.64688767   -8.0846116    742.52121  0.015988829  0.015208659            2 
 3871000    0.6318287   -8.1002425    742.60225  0.015986443  0.015203719            2 
 3872000   0.62697579   -8.0955015    740.92593  0.015946236  0.015198774            4 
 3873000   0.62443156   -8.0795716    741.69515   0.01595867  0.015193828            4 
 3874000   0.62459702   -8.0819896    742.83755  0.015979125  0.015188883            3 
 3875000   0.62163502   -8.0901136    741.63866  0.015949218  0.015183949            3 
 3876000   0.63267826   -8.0823683    741.73155  0.015947101  0.015179012            4 
 3877000   0.63021885   -8.0615717    741.84432  0.015945411  0.015174072            2 
 3878000   0.62970838   -8.0768467    740.76546  0.015918116  0.015169135            2 
 3879000   0.62379847   -8.0924711    741.84734  0.015937255  0.015164192            3 
 3880000   0.62624394    -8.100797    740.33435  0.015900652  0.015159245            2 
 3881000   0.63742951   -8.0940759    741.75195  0.015926994  0.015154299            6 
 3882000   0.63699157   -8.0785538    743.83115  0.015967524  0.015149367            4 
 3883000   0.62954496   -8.0755214     742.1585  0.015927515  0.015144433            4 
 3884000   0.64379242   -8.0972212    741.72513  0.015914116  0.015139485            5 
 3885000    0.6289006   -8.0989229    741.83298  0.015912333  0.015134539            3 
 3886000   0.61684387   -8.0858764     741.9842  0.015911481  0.015129605            2 
 3887000   0.63204396   -8.0872101    740.63946  0.015878558  0.015124667            4 
 3888000   0.63028473   -8.1002628    742.73355  0.015919358  0.015119734            4 
 3889000   0.63338455   -8.0674345    741.99035  0.015899339  0.015114803            8 
 3890000   0.62895174   -8.0819778    741.28653  0.015880174  0.015109871            5 
 3891000   0.62805123   -8.0910521    740.86073  0.015866974  0.015104943           10 
 3892000    0.6328759   -8.1188929    740.81416    0.0158619  0.015100013           13 
 3893000   0.63060427   -8.0898406    741.63439  0.015875383  0.015095082           11 
 3894000    0.6228862   -8.0847693    741.41512  0.015866614  0.015090154            8 
 3895000   0.63499833   -8.1059664    740.74512  0.015848205   0.01508522           13 
 3896000   0.62053809   -8.1045243    740.78065  0.015844898  0.015080282            6 
 3897000   0.64466815   -8.0892511    740.42232  0.015833169  0.015075351           12 
 3898000   0.62981248   -8.0846601    741.68907  0.015856188  0.015070424            2 
 3899000   0.62604803   -8.1122027    740.69562  0.015830889  0.015065494            5 
 3900000    0.6355825    -8.108273    739.75902  0.015806817   0.01506056           13 
 3901000   0.63034307   -8.1084072    741.21154  0.015833794  0.015055627            5 
 3902000   0.62097231    -8.085724     741.5755  0.015837509  0.015050695            3 
 3903000   0.63563198   -8.1126425    741.12508  0.015823834   0.01504578            2 
 3904000   0.61851652   -8.0889793    741.98903  0.015838222  0.015040865            5 
 3905000    0.6064646   -8.1245334    742.03232   0.01583509  0.015035935            5 
 3906000   0.62056755   -8.0944294    741.55228  0.015820795  0.015031009            4 
 3907000   0.62747459   -8.0969538    741.31504  0.015811685  0.015026098            3 
 3908000   0.62810764   -8.0922599      740.148  0.015782753  0.015021189            2 
 3909000   0.63274377   -8.0869492    742.12651  0.015820894  0.015016283            4 
 3910000   0.61937967   -8.1012452      741.667  0.015807054  0.015011373            3 
 3911000   0.63247656   -8.0840869    741.45077  0.015798406   0.01500646            4 
 3912000   0.62866855   -8.0966856    740.73335  0.015779085   0.01500156            3 
 3913000   0.63537398   -8.1060856    742.22878    0.0158069  0.014996662            3 
 3914000   0.62494888   -8.0997961    741.76286  0.015792941  0.014991764            3 
 3915000   0.61875405   -8.0921922    742.25383  0.015799358  0.014986868            3 
 3916000   0.62365894   -8.0784134    741.49539  0.015779183  0.014981976            3 
 3917000   0.62760373   -8.0973812    740.35038  0.015750795  0.014977081            4 
 3918000   0.63218766   -8.0923952    740.83587  0.015757101  0.014972196           12 
 3919000   0.63214154   -8.0991778    740.93756  0.015755243  0.014967302            3 
 3920000   0.62891371   -8.0904109    741.66806  0.015766753  0.014962418            2 
 3921000   0.63256997   -8.1131323    741.18661    0.0157525  0.014957535            4 
 3922000   0.62889837   -8.0805007    741.00705  0.015744668  0.014952651           11 
 3923000   0.63086702   -8.1118436    742.40182  0.015770282  0.014947769            6 
 3924000   0.62992113    -8.087751     741.6683  0.015750686  0.014942892            3 
 3925000   0.61973895   -8.0987684      741.557   0.01574431  0.014938022            7 
 3926000   0.62266685   -8.0928648    743.52266  0.015782023  0.014933149            8 
 3927000   0.62080759   -8.1067448    742.17968  0.015749505  0.014928284            3 
 3928000   0.62300023   -8.0959074    740.62531  0.015712519  0.014923418            2 
 3929000   0.62037439   -8.1074301    740.28728  0.015701351  0.014918546            4 
 3930000   0.63583996   -8.0918323    741.30304  0.015718894  0.014913679            3 
 3931000   0.62259154   -8.1132228    740.54035  0.015698727  0.014908817            6 
 3932000   0.61236845   -8.1060169     742.6425  0.015739287  0.014903955            4 
 3933000   0.62041213   -8.1165799    741.00829  0.015700659  0.014899089            2 
 3934000   0.61454568   -8.1143119    741.71111  0.015711556  0.014894219            3 
 3935000   0.60623408   -8.1076713    740.75429    0.0156873  0.014889349            2 
 3936000   0.61281104   -8.1325589    740.72761  0.015682749   0.01488448            2 
 3937000   0.62643749   -8.0964569    740.56876  0.015675403  0.014879613            5 
 3938000   0.62139754   -8.1108494    740.64381  0.015673011  0.014874748            4 
 3939000   0.61806613    -8.098023    741.44018   0.01568588  0.014869876            4 
 3940000    0.6263404   -8.1161587    742.07648  0.015695357  0.014865007            6 
 3941000   0.61583573   -8.1168636    740.39286  0.015655774  0.014860135            7 
 3942000   0.61823122   -8.1032396    741.28096  0.015670577  0.014855269            3 
 3943000   0.62422694   -8.0926257    740.45946   0.01564924   0.01485041            5 
 3944000   0.62766982   -8.1110022    739.74164  0.015630106  0.014845549            3 
 3945000   0.62090473   -8.1158604    741.39795  0.015661131   0.01484069            5 
 3946000   0.62877547   -8.1139348    740.12925  0.015630369  0.014835833            3 
 3947000   0.63213641   -8.0838056    741.28736   0.01565086  0.014830986            3 
 3948000   0.62617094   -8.0989201    741.20131   0.01564508   0.01482614            5 
 3949000    0.6193464   -8.1018412    740.84631  0.015633627  0.014821297            4 
 3950000   0.62487268   -8.1024321    742.07096  0.015655505   0.01481645            3 
 3951000   0.62495769   -8.1124967    740.76824  0.015624066  0.014811603            5 
 3952000   0.61091316   -8.1157509    741.22909  0.015629831  0.014806763            9 
 3953000   0.61240889   -8.1093268      740.842  0.015617717  0.014801925            3 
 3954000   0.63019527   -8.0888147    740.35759  0.015603557  0.014797104            6 
 3955000   0.61085884   -8.1139963     740.6306  0.015605365  0.014792274            7 
 3956000   0.62245954   -8.0925539    742.22085  0.015634919  0.014787442            4 
 3957000    0.6076431   -8.1174749    741.96668  0.015625615  0.014782625            2 
 3958000   0.61428823   -8.1293447    740.07857  0.015581914  0.014777795            5 
 3959000   0.61732406   -8.0937548    741.75119  0.015613185  0.014772964            3 
 3960000   0.61869025   -8.1272267    742.23576  0.015619439  0.014768134            2 
 3961000   0.61954068   -8.1404521    741.32252  0.015596283  0.014763318            3 
 3962000   0.62376451   -8.1240123    741.34291  0.015592775  0.014758504            4 
 3963000   0.61953429   -8.0836989    742.17264  0.015606288  0.014753687            3 
 3964000    0.6178032   -8.1076098    740.34714  0.015563975  0.014748871            2 
 3965000   0.62537554   -8.1125496    740.90481   0.01557177  0.014744058            6 
 3966000    0.6062399   -8.1117389    740.43743  0.015558023  0.014739238            5 
 3967000   0.63009132    -8.109005    741.79373  0.015582592  0.014734429            4 
 3968000   0.62307726   -8.1293766    739.53269  0.015531181   0.01472962            6 
 3969000   0.61814334   -8.1118425    741.17874  0.015561828  0.014724809            3 
 3970000   0.60330788   -8.1288233    740.36979  0.015540927  0.014720005            4 
 3971000   0.61968654   -8.1233265    741.31208  0.015556788  0.014715192            2 
 3972000   0.61729064   -8.0871185    742.41519  0.015576015  0.014710392            5 
 3973000   0.61508509   -8.1101226    740.61633  0.015534364  0.014705591            4 
 3974000   0.61953158   -8.1158305      741.145  0.015541541  0.014700788            2 
 3975000   0.62538772    -8.109954    740.81195  0.015530649  0.014695984            3 
 3976000   0.62178796   -8.1055336    740.73795  0.015525192  0.014691181            7 
 3977000   0.61465167   -8.1207335    741.28829   0.01553282  0.014686385            2 
 3978000   0.61132393   -8.1126053    741.44487  0.015532195   0.01468159            2 
 3979000   0.60470191   -8.1314812    740.61757  0.015510965  0.014676784            2 
 3980000   0.60933418   -8.1456051    740.15501  0.015497383  0.014671974            2 
 3981000   0.62254983   -8.1165297    741.06242  0.015512485  0.014667178            2 
 3982000   0.62400784    -8.161437    739.92351  0.015484755  0.014662384            4 
 3983000   0.62094854   -8.1194236    739.55488  0.015473154  0.014657577            2 
 3984000   0.60894888   -8.1367075    739.48495  0.015467808  0.014652773            4 
 3985000   0.60365022   -8.1400498    741.09983  0.015497696  0.014647977            2 
 3986000   0.61430725   -8.1403533    739.49136  0.015460181  0.014643185            3 
 3987000   0.62105016   -8.1362911    740.40943  0.015475492  0.014638386            4 
 3988000   0.60739993   -8.1470174     740.5818  0.015475213  0.014633579            2 
 3989000   0.61195094   -8.1100603    739.79069  0.015454807  0.014628776            4 
 3990000   0.62890008   -8.1159057    740.02794  0.015455888  0.014623973            2 
 3991000   0.60935717   -8.1209759    741.38026  0.015480253  0.014619182            4 
 3992000   0.61259203   -8.1146701     739.9191  0.015445873  0.014614383            3 
 3993000   0.62358579   -8.1321465     740.7603  0.015459561  0.014609591            4 
 3994000   0.62499715    -8.151269    739.93066   0.01543838  0.014604791            3 
 3995000   0.60268963   -8.1221284    741.44071  0.015466014  0.014599994            5 
 3996000   0.60055351   -8.1405747    739.64411  0.015424677  0.014595207            7 
 3997000   0.61808026   -8.1331646    740.06796  0.015429655  0.014590418            3 
 3998000   0.62123268   -8.1567434    741.25767  0.015450594  0.014585637            2 
 3999000   0.60206352   -8.1640629    740.49916  0.015430924  0.014580851            3 
 4000000   0.60574195   -8.1483428    740.00637  0.015416799  0.014576068            2 
 4001000   0.60154831   -8.1502156    740.94578  0.015432512  0.014571284            2 
 4002000   0.60677681   -8.1416631    741.45099  0.015439176   0.01456651            3 
 4003000    0.6061621   -8.1286378    741.07944  0.015427584   0.01456174            7 
 4004000   0.60278266   -8.1392292    740.27691  0.015407029  0.014556969            3 
 4005000   0.61616362   -8.1272585    742.18686  0.015442923  0.014552202            3 
 4006000   0.60805602   -8.1233991    740.34573  0.015400768  0.014547431            2 
 4007000   0.60329741   -8.1547668     739.7457  0.015384446   0.01454266            2 
 4008000    0.6184604    -8.140116     740.7243  0.015400954  0.014537886            2 
 4009000   0.60103719    -8.141767    740.24086  0.015387064  0.014533116            2 
 4010000    0.6166226   -8.1459187     740.2457  0.015383327  0.014528348            6 
 4011000   0.61761827   -8.1565317    739.85616  0.015371399  0.014523585            2 
 4012000   0.61526093   -8.1394902    739.99526  0.015370457  0.014518815            3 
 4013000   0.62045245   -8.1282476    741.58561  0.015399651  0.014514062            6 
 4014000    0.6008712   -8.1456227    741.21213  0.015388061  0.014509311            2 
 4015000   0.61162872   -8.1530585    741.17131  0.015383381  0.014504553            2 
 4016000    0.6033595   -8.1643597     739.5267  0.015345425  0.014499796            2 
 4017000   0.61242129   -8.1291613    740.13463  0.015354216  0.014495037            2 
 4018000   0.61857914   -8.1535178    740.08395  0.015349344  0.014490277            4 
 4019000   0.59911691     -8.13965    740.99486  0.015364412  0.014485526            3 
 4020000    0.5975903   -8.1385483    741.79083   0.01537709   0.01448077            2 
 4021000   0.60004719   -8.1435937    740.63712  0.015349356  0.014476016            2 
 4022000   0.62373701   -8.1263543    739.72097  0.015326558  0.014471265            2 
 4023000   0.60721886   -8.1467817    739.89685  0.015326391  0.014466518            1 
 4024000   0.60924264   -8.1329606    741.33425  0.015352349  0.014461779            2 
 4025000   0.60082455   -8.1443018    739.55177  0.015311631  0.014457036            2 
 4026000   0.60515405   -8.1512093    738.83217  0.015292933  0.014452294            2 
 4027000   0.61116254   -8.1471966    739.57353  0.015304477   0.01444755            2 
 4028000   0.61092764   -8.1543411    738.62933  0.015281143  0.014442806            2 
 4029000   0.61196305   -8.1536813    740.57282  0.015317548  0.014438058            5 
 4030000   0.62425931   -8.1404922    740.06089  0.015303161  0.014433321            3 
 4031000   0.61789398    -8.146307    741.18665  0.015322638  0.014428583            2 
 4032000   0.61124888   -8.1421072    741.45102  0.015324302  0.014423849            2 
 4033000   0.60378535   -8.1348194    741.16283  0.015314547  0.014419125            3 
 4034000   0.61561961   -8.1158068    740.86049  0.015304505  0.014414401            3 
 4035000   0.60246141   -8.1339651    739.42563  0.015271079  0.014409677            3 
 4036000   0.60083129   -8.1407504    740.01488  0.015279462  0.014404953            3 
 4037000   0.60422256   -8.1452059    740.81745  0.015292244  0.014400238            5 
 4038000   0.60502697   -8.1364034    740.95937  0.015291385  0.014395519            3 
 4039000   0.61185049   -8.1447282    740.85346  0.015285414  0.014390801            3 
 4040000    0.6110639   -8.1299041    740.17446  0.015267625   0.01438608            3 
 4041000   0.60989057   -8.1512466    740.10658  0.015262447  0.014381368            6 
 4042000   0.60142783   -8.1511371    741.15574  0.015280301  0.014376661            2 
 4043000   0.60975946   -8.1330984     740.0169  0.015253048  0.014371936            3 
 4044000   0.58218871   -8.1487935    740.15252  0.015252071  0.014367218            4 
 4045000   0.60770542   -8.1428894    740.65765  0.015258707   0.01436251            2 
 4046000   0.61019917    -8.155459    739.67212  0.015234638  0.014357803            2 
 4047000   0.59489171   -8.1723947    739.62809  0.015229967  0.014353086            3 
 4048000    0.6016961   -8.1612465    740.80526  0.015250438  0.014348377            4 
 4049000   0.60335661   -8.1555361    740.07565  0.015231655  0.014343672            4 
 4050000   0.61160465   -8.1555638    739.68174  0.015219789  0.014338968            3 
 4051000   0.60084707   -8.1480612    739.70882  0.015216589  0.014334271            4 
 4052000   0.60404934   -8.1389825    739.67184  0.015212073  0.014329565            3 
 4053000    0.6037477   -8.1574587    738.68407   0.01518801  0.014324861            4 
 4054000   0.60428695   -8.1457316    741.03247  0.015232537  0.014320167            3 
 4055000   0.60032466   -8.1539258     740.6458  0.015220834  0.014315477            3 
 4056000   0.60171353   -8.1478815    739.50045   0.01519355  0.014310783            6 
 4057000   0.60748062   -8.1417517    739.55758  0.015190978  0.014306095            7 
 4058000   0.60199807   -8.1420709    740.33733  0.015203247  0.014301398            4 
 4059000   0.59796288   -8.1534145    740.31639  0.015199072  0.014296704            3 
 4060000   0.59434985   -8.1331161    740.64642  0.015202102  0.014292011            1 
 4061000   0.60405117   -8.1454815    739.40453  0.015172875  0.014287318            3 
 4062000   0.60635443   -8.1415706    740.54717  0.015192581  0.014282624            3 
 4063000   0.61450589   -8.1636233    739.33217  0.015163922  0.014277933            5 
 4064000   0.58977414   -8.1742582    739.88915  0.015171612  0.014273235            3 
 4065000   0.60374584   -8.1615156    739.27321  0.015155252  0.014268542            5 
 4066000   0.60204566   -8.1455127    740.17569  0.015170021  0.014263855            5 
 4067000    0.6003565   -8.1728434    740.03928  0.015163496  0.014259174            3 
 4068000   0.60172859   -8.1857814    739.97239  0.015158399  0.014254492            5 
 4069000   0.59212054   -8.1654438    738.85144  0.015131716  0.014249802            3 
 4070000   0.61200013   -8.1435634    740.13743  0.015154329  0.014245129            4 
 4071000    0.5992565   -8.1503628    740.46717  0.015157356  0.014240453            4 
 4072000   0.58709284   -8.1593084    740.81972  0.015160849  0.014235775            6 
 4073000   0.59958175    -8.167012    740.44631  0.015149487  0.014231102            2 
 4074000   0.59092143   -8.1609892    740.49715  0.015146808  0.014226433            4 
 4075000    0.6051114   -8.1626029    738.99428  0.015112357  0.014221759            3 
 4076000   0.59745145   -8.1715172    738.81569  0.015104998  0.014217086            6 
 4077000    0.5912801   -8.1575455     738.2211   0.01508914  0.014212407            3 
 4078000    0.5878625   -8.1514477    739.27264  0.015106928  0.014207738            5 
 4079000   0.59980587   -8.1745184    739.55831  0.015109061  0.014203075            5 
 4080000   0.61720778   -8.1638785    739.63922   0.01510701  0.014198417            3 
 4081000   0.59546203   -8.1706123     738.9844  0.015089937  0.014193761            4 
 4082000   0.61060203   -8.1688866    739.45198  0.015095786  0.014189109            5 
 4083000   0.58948473   -8.1528179    739.59054  0.015094917  0.014184458            3 
 4084000   0.59028861   -8.1718795    741.00759  0.015120135   0.01417981            3 
 4085000   0.59302928   -8.1756954    739.12725  0.015078075  0.014175161            7 
 4086000   0.60542201   -8.1424992    739.83153  0.015088749  0.014170516            5 
 4087000   0.60104038    -8.135644    740.16928  0.015091944  0.014165871            5 
 4088000   0.59809937     -8.16314    740.57481  0.015096519  0.014161232            6 
 4089000   0.60287164   -8.1600171    739.26425  0.015066117  0.014156594            3 
 4090000   0.59843779   -8.1347515    740.81172  0.015093963  0.014151961            4 
 4091000   0.59407715   -8.1420547    739.99988  0.015073737   0.01414733            4 
 4092000   0.59050519   -8.1484699    740.50203  0.015080279  0.014142692            4 
 4093000   0.59631314   -8.1595002    740.71922  0.015081017  0.014138057            6 
 4094000   0.59824784   -8.1747328    740.35205  0.015069859  0.014133429            2 
 4095000   0.59874618   -8.1409757    740.75629  0.015074406  0.014128808            5 
 4096000   0.59824721   -8.1640159    739.81671  0.015051609  0.014124184            4 
 4097000   0.60874214   -8.1632897    740.13394  0.015054388  0.014119556            2 
 4098000   0.59129312   -8.1531343    740.27937  0.015053672  0.014114933            3 
 4099000   0.59803988   -8.1562736    738.07891  0.015005264  0.014110309            7 
 4100000   0.60465762   -8.1859617    738.85484  0.015017375  0.014105683            5 
 4101000   0.60384016   -8.1507068    739.25132  0.015021769  0.014101056            2 
 4102000   0.59055914    -8.158298    740.23272  0.015038045  0.014096433            2 
 4103000   0.60197719   -8.1546688    740.28254  0.015035392  0.014091823            3 
 4104000   0.58530408    -8.188646    740.34372   0.01503297  0.014087205            3 
 4105000    0.6003458    -8.165112    739.09942  0.015004048   0.01408259           11 
 4106000   0.59510229    -8.171976    739.52109  0.015008952  0.014077978            4 
 4107000   0.59303984   -8.1706995    742.14105  0.015058458  0.014073367            3 
 4108000   0.59310577    -8.175989      740.726  0.015026087  0.014068757            2 
 4109000   0.58274659   -8.1763896    740.17824  0.015011322  0.014064145            4 
 4110000   0.58645192   -8.1787761    739.95301  0.015003102  0.014059528            3 
 4111000   0.60807932   -8.1811651    740.48131  0.015010162  0.014054919            4 
 4112000   0.60984984   -8.1800301    738.81868  0.014972817   0.01405031            4 
 4113000   0.59852746   -8.1630445    739.30076  0.014978944  0.014045712            7 
 4114000   0.58721174    -8.155634    740.09252  0.014991341  0.014041112            7 
 4115000   0.59516941   -8.1506164    739.84674   0.01498272  0.014036515            2 
 4116000   0.58935286   -8.1680602     740.0242  0.014982673  0.014031914            3 
 4117000   0.59755314   -8.1720608     739.8207  0.014974915  0.014027313            6 
 4118000   0.59017648   -8.1358513    740.85499  0.014992209  0.014022717            3 
 4119000   0.59270857   -8.1875308    739.92186   0.01496969  0.014018119            4 
 4120000   0.58027624   -8.1722249    740.42754  0.014976285  0.014013516            2 
 4121000   0.58483864   -8.1526882    737.84726  0.014920474  0.014008919            5 
 4122000   0.59267201   -8.1903073    740.77341  0.014976011  0.014004327            4 
 4123000   0.60077386   -8.2136184    739.62684  0.014949204  0.013999744            5 
 4124000   0.59998037   -8.1673796    740.30068  0.014959196  0.013995152            3 
 4125000   0.59860354   -8.1806494    740.13235  0.014952169  0.013990568            3 
 4126000   0.60432375   -8.1593692    739.95468  0.014944956  0.013985986            3 
 4127000    0.5928925   -8.1882032    738.91783  0.014920399  0.013981407            3 
 4128000   0.58413868   -8.1876348    739.76385  0.014933863  0.013976825            3 
 4129000   0.59070954   -8.1578729    738.25616  0.014899817  0.013972242            2 
 4130000   0.58514509   -8.1770209    738.77015  0.014906581  0.013967668            3 
 4131000   0.58785957   -8.1828069    738.21416  0.014891757   0.01396309            4 
 4132000    0.5902388   -8.1668917    739.48871  0.014913858  0.013958523            2 
 4133000   0.59126378   -8.1702359    739.10986   0.01490261   0.01395396            4 
 4134000   0.59545884   -8.1771257    740.34536  0.014923911  0.013949399            3 
 4135000   0.59854389   -8.1644646    740.18707  0.014917111   0.01394484            2 
 4136000   0.58674757   -8.1769463    738.88891  0.014887349  0.013940287            4 
 4137000   0.60250677   -8.1711986    740.57351  0.014917684  0.013935731            3 
 4138000   0.58626409   -8.1495262    740.26521   0.01490787  0.013931172            3 
 4139000   0.59276728   -8.2162678    740.29362   0.01490484   0.01392662            4 
 4140000   0.58829274   -8.1812272    741.43686  0.014924252   0.01392206            3 
 4141000   0.58856438   -8.1677696    739.68793  0.014885453  0.013917511            4 
 4142000   0.58636084   -8.1599003    740.55196  0.014899243  0.013912967            6 
 4143000   0.59569791   -8.1560616    741.38801  0.014912463  0.013908424            8 
 4144000    0.5960569   -8.1619069    739.51777  0.014871255   0.01390388            4 
 4145000   0.59181845   -8.1831662    739.36651  0.014864626  0.013899326            4 
 4146000   0.59225562   -8.1844308     738.6955  0.014847554  0.013894783            3 
 4147000   0.58100396   -8.2018998    740.03212  0.014870833  0.013890239            2 
 4148000   0.58476577   -8.1649744    739.11698  0.014848863  0.013885695            3 
 4149000   0.60199772   -8.1610789    741.28639  0.014888857   0.01388115            5 
 4150000    0.5797033   -8.1832208    740.03676  0.014860176  0.013876604            4 
 4151000   0.57542359   -8.1676655    739.86437  0.014853135  0.013872062            4 
 4152000    0.5938184    -8.195042    741.54502   0.01488329  0.013867524            3 
 4153000   0.57325759   -8.1792827    740.01109  0.014848926  0.013862983            2 
 4154000   0.60019351   -8.1852596    739.23046  0.014829691  0.013858448            3 
 4155000   0.58370841   -8.1997258    739.07289  0.014822962  0.013853915            4 
 4156000   0.58899602   -8.1953874    740.43146  0.014846637  0.013849388            2 
 4157000   0.57706161   -8.1858771    739.66258  0.014827652  0.013844864            5 
 4158000   0.59065397   -8.1844415    739.86298  0.014828102  0.013840339            2 
 4159000   0.58367043   -8.1625008    739.73276  0.014821928  0.013835808            3 
 4160000   0.58513451   -8.1959086    739.11229  0.014805935  0.013831288            5 
 4161000   0.59515374   -8.1914765     739.5836  0.014811816  0.013826763            3 
 4162000   0.58466303   -8.1848584    739.54339  0.014807452  0.013822235            3 
 4163000   0.56890327   -8.1807312     740.1903  0.014816845  0.013817702            2 
 4164000   0.58726527   -8.1778321    740.30639   0.01481561  0.013813176            4 
 4165000   0.56923933   -8.1954663    740.71718  0.014820272  0.013808656            2 
 4166000   0.58465396   -8.2094718    739.83708  0.014799109  0.013804126            4 
 4167000    0.6013666   -8.1839101     739.4736  0.014788289  0.013799604            2 
 4168000   0.58675133   -8.2014395    740.22027   0.01479967  0.013795078            5 
 4169000   0.58213087   -8.1930376    739.43028  0.014780329  0.013790555            2 
 4170000   0.57975801   -8.1711171    739.00213  0.014768228  0.013786034            3 
 4171000   0.58812218     -8.18497    740.08316  0.014786285  0.013781516            5 
 4172000   0.57919864   -8.1973775    739.20223  0.014765145  0.013777005            4 
 4173000   0.58694677   -8.2065956    739.01591  0.014757886  0.013772489            2 
 4174000   0.57991701   -8.1743722    739.54789  0.014764971  0.013767975            2 
 4175000   0.59232048   -8.1915619    738.53828  0.014741283  0.013763458            3 
 4176000   0.57228826   -8.1923186    740.50747  0.014777049  0.013758945            3 
 4177000   0.57735848    -8.186638    741.02144  0.014783765  0.013754438            3 
 4178000   0.58546694   -8.2016186    738.86301  0.014737175  0.013749933            3 
 4179000   0.59068939    -8.191997    738.77328  0.014731859  0.013745426            2 
 4180000   0.58170945   -8.2015446     739.3438  0.014739709  0.013740924            2 
 4181000   0.57353387   -8.1917302    738.65076   0.01472237  0.013736423            3 
 4182000   0.58881498   -8.1693802    738.94523  0.014724718  0.013731922            2 
 4183000   0.58226724   -8.1912234    738.86773  0.014719654  0.013727422            2 
 4184000    0.5716127   -8.2063725    739.45174  0.014727767  0.013722921            2 
 4185000   0.58833448   -8.2018444    740.64887  0.014748086   0.01371842            4 
 4186000   0.57245852   -8.2019839     739.8201  0.014728064  0.013713918            2 
 4187000   0.56605378   -8.1977776    738.82552  0.014704751  0.013709417            5 
 4188000    0.5748775   -8.1871676     739.4893  0.014714448  0.013704917            5 
 4189000   0.57998192   -8.1835178    739.27436   0.01470666  0.013700419            3 
 4190000   0.58086775   -8.2043854    739.76634  0.014712934  0.013695922            2 
 4191000   0.57818258   -8.1936367    740.56761  0.014725356  0.013691432            2 
 4192000   0.58746584   -8.2174045    737.92648   0.01466934  0.013686942            2 
 4193000   0.59131887   -8.1881914    738.83681  0.014683934   0.01368246            3 
 4194000   0.58228502   -8.1859278    739.44827  0.014692582  0.013677981            3 
 4195000   0.58126813   -8.1886596    739.53807  0.014690864   0.01367351            3 
 4196000   0.57110088   -8.1746175    739.08882   0.01467844  0.013669025            2 
 4197000   0.58518621    -8.186082    738.23923  0.014658074  0.013664549            4 
 4198000   0.57249333    -8.195174    738.40509  0.014657875   0.01366008            2 
 4199000   0.59079773   -8.2161147     739.8969   0.01468399  0.013655605            3 
 4200000   0.58095505   -8.1913055    738.87648  0.014660248  0.013651124            2 
 4201000   0.57557514   -8.1938855    738.64645  0.014652195  0.013646646            2 
 4202000     0.586909   -8.1983035    739.77167  0.014671023  0.013642175            2 
 4203000    0.5723078   -8.1899592    739.97629   0.01467159  0.013637708            3 
 4204000    0.5835973   -8.1947265    738.49169  0.014638671  0.013633243            4 
 4205000   0.58213067   -8.2164259    739.21366  0.014649498  0.013628776            2 
 4206000   0.58098158    -8.186811    740.93764  0.014680172  0.013624309            4 
 4207000   0.58073957   -8.2042119    739.66374  0.014651449   0.01361985            3 
 4208000   0.58167226   -8.1858602     739.6477  0.014647649  0.013615384            3 
 4209000   0.57653927   -8.2112097    738.27191   0.01461693  0.013610921            5 
 4210000   0.56959574   -8.1814966    740.09706  0.014649586  0.013606457            5 
 4211000   0.58159065   -8.2025089    738.06649  0.014605923  0.013601993            5 
 4212000    0.5780382   -8.2026618    739.59013    0.0146326  0.013597533            3 
 4213000   0.58117475   -8.2063617    738.17809  0.014601197   0.01359308            3 
 4214000   0.58779329   -8.1953215    738.27123  0.014599573  0.013588626            3 
 4215000    0.5790599   -8.1993714    739.09111  0.014612319  0.013584171            3 
 4216000   0.58950834   -8.2142386     738.6182  0.014599506   0.01357972            3 
 4217000    0.5728258   -8.1921274    739.18099  0.014607165  0.013575271            4 
 4218000   0.58322639   -8.1889802    739.17774  0.014603638  0.013570828            4 
 4219000   0.56634575   -8.2039388    737.95736  0.014576072  0.013566383            2 
 4220000   0.57813945   -8.1952936    737.70014  0.014567538   0.01356194            4 
 4221000   0.56141062   -8.1912913    740.37828   0.01461696  0.013557496            3 
 4222000   0.57708057   -8.1888712    738.19218  0.014570349  0.013553055            4 
 4223000   0.57581863   -8.2055259    739.81626  0.014598947  0.013548611            3 
 4224000    0.5820605   -8.2150223    739.12366  0.014581827  0.013544178            5 
 4225000   0.58106247   -8.2087757     738.0104  0.014556418  0.013539734            3 
 4226000   0.57240498   -8.1889215    738.92734  0.014571055  0.013535294            2 
 4227000   0.56769603   -8.1865107    738.94699  0.014567995  0.013530856            4 
 4228000   0.57611627   -8.2130756    739.28386  0.014571189  0.013526424            2 
 4229000   0.56933416   -8.2059045    738.71903  0.014556614  0.013521987            4 
 4230000   0.56972421    -8.181588    737.44275  0.014528029  0.013517564            4 
 4231000   0.58091686   -8.1974046    738.82599  0.014551839  0.013513136            3 
 4232000   0.57009902   -8.2010383    739.11614  0.014554114  0.013508714            5 
 4233000   0.57976598   -8.2065623     740.5271  0.014578453  0.013504296            5 
 4234000   0.57266266   -8.2059587    738.83357  0.014541678  0.013499878            3 
 4235000   0.57345427   -8.1773295    738.80852  0.014537751  0.013495468            3 
 4236000    0.5818888   -8.2045047    737.93137  0.014517064   0.01349105            3 
 4237000   0.56364167   -8.1941548    739.28271  0.014540215  0.013486635            3 
 4238000   0.56992002   -8.1989852    738.44443  0.014520301  0.013482224            3 
 4239000   0.57793293     -8.18255    737.97207   0.01450759  0.013477814            3 
 4240000   0.56243211   -8.1930196    738.63891  0.014517274  0.013473405            2 
 4241000   0.57401613   -8.2044355    739.08439  0.014522604  0.013468992            2 
 4242000   0.57442443   -8.2067055    739.09442  0.014519378   0.01346458            2 
 4243000   0.57733082   -8.2065475    738.34542  0.014501246  0.013460171            2 
 4244000   0.58331464   -8.2004489    739.95551  0.014529444  0.013455766            4 
 4245000   0.56789593   -8.2004158    738.48425  0.014497139  0.013451357            2 
 4246000   0.56536552   -8.1863092    740.12193  0.014525866  0.013446955            3 
 4247000    0.5768284   -8.2128701    738.62894  0.014493151  0.013442553            2 
 4248000   0.57893622   -8.2124425    738.66225  0.014490393  0.013438153            3 
 4249000   0.56577893   -8.1946659    739.53776  0.014504153  0.013433755            6 
 4250000   0.56786869   -8.2030453    738.79896  0.014486254  0.013429356            3 
 4251000   0.56671839   -8.2024386    738.96108  0.014486024  0.013424955            4 
 4252000   0.56741505   -8.2139778     739.5739  0.014494628  0.013420562            6 
 4253000   0.56137542   -8.1917537     738.2828  0.014465922  0.013416177            3 
 4254000   0.57129142   -8.2223747    737.86702  0.014454377  0.013411785            4 
 4255000   0.57193006   -8.2217892    739.21824  0.014477443  0.013407391            3 
 4256000   0.56243205   -8.2143109     737.6828  0.014443977   0.01340299            4 
 4257000   0.56892142   -8.2067473    737.96188  0.014446047   0.01339859            4 
 4258000   0.58280353   -8.2020824    737.38431  0.014431351  0.013394194            2 
 4259000   0.56088384   -8.2083299    737.93648  0.014438767  0.013389803            3 
 4260000   0.58348699   -8.2188351    738.44721  0.014445368  0.013385413            3 
 4261000   0.58135961   -8.2274857    737.46311  0.014422732  0.013381021            3 
 4262000    0.5602272   -8.2375574    738.57221  0.014441033  0.013376632            3 
 4263000   0.57056537   -8.2023799    739.14978  0.014448936  0.013372237            2 
 4264000   0.57796171   -8.2291573    737.69108  0.014417039  0.013367848            4 
 4265000   0.57845615   -8.2180129    738.46749  0.014428829  0.013363461            4 
 4266000   0.57163583   -8.2055324    739.59565  0.014447485  0.013359076            4 
 4267000   0.57966631   -8.2269729    738.59728  0.014424601  0.013354693            2 
 4268000   0.57961168   -8.2101253    737.06288  0.014391262  0.013350304            2 
 4269000   0.56891189   -8.2324688    737.30996  0.014392714  0.013345919            3 
 4270000   0.56794193   -8.2090241    736.77464  0.014378896  0.013341536            6 
 4271000    0.5668918   -8.2146007    737.43819  0.014388476  0.013337161            2 
 4272000   0.57483673   -8.1976755    738.08532  0.014397732  0.013332795            4 
 4273000   0.57260496   -8.2181602    738.40153  0.014400529  0.013328424            2 
 4274000   0.57025165   -8.2010439    738.20506  0.014393329  0.013324049            3 
 4275000   0.58009527   -8.2123929    738.68673  0.014399352  0.013319679            5 
 4276000   0.56184005   -8.2266631    738.09477  0.014384447  0.013315314            5 
 4277000   0.55605611   -8.2148279    737.71869  0.014373757  0.013310943            3 
 4278000   0.57314117   -8.2336045    738.11786  0.014378173  0.013306576            2 
 4279000   0.56693161   -8.2253142    736.86727  0.014350457  0.013302212            4 
 4280000   0.56052433   -8.2292007    739.14122  0.014391379  0.013297849            2 
 4281000   0.56695232   -8.2169132    738.21894  0.014370064  0.013293484            2 
 4282000   0.55784156    -8.222156    738.14363  0.014365243  0.013289127            8 
 4283000   0.56635784   -8.2446936    737.88238  0.014356806  0.013284763            5 
 4284000   0.57365723   -8.2226936    739.31017  0.014381228  0.013280399            3 
 4285000   0.56601814   -8.2187319    738.06649  0.014353685  0.013276043            7 
 4286000   0.56546254    -8.229052    737.53779  0.014340057  0.013271681            5 
 4287000   0.56016915   -8.2260125    738.43753  0.014354201  0.013267326            4 
 4288000   0.57446937   -8.2413113    737.83855  0.014339213  0.013262965            3 
 4289000   0.57175691   -8.2298952    737.76753   0.01433449  0.013258614            4 
 4290000   0.56556434   -8.2186711    736.95682    0.0143154  0.013254261            2 
 4291000    0.5732544   -8.2267031    736.66602  0.014306417  0.013249907            2 
 4292000   0.57853417   -8.2190967    737.93912  0.014327802  0.013245559            4 
 4293000   0.56603579   -8.2231978    737.64014  0.014318661  0.013241209            3 
 4294000   0.56202471   -8.2297268    736.97747  0.014302466   0.01323686            5 
 4295000   0.56543959   -8.2194804    738.65983  0.014331778  0.013232518            3 
 4296000   0.55767504   -8.2251432    738.18382  0.014319208  0.013228179            3 
 4297000   0.56229465   -8.2176463    737.12051  0.014295255  0.013223841            4 
 4298000   0.56004871   -8.2119621    737.84703  0.014306015  0.013219502            4 
 4299000   0.58900555   -8.2219706    738.78938  0.014320954  0.013215164            5 
 4300000   0.55825369   -8.2236454    737.10999  0.014285077  0.013210828            2 
 4301000   0.56047773   -8.1916965    738.91706  0.014316768  0.013206491            5 
 4302000   0.56401654    -8.223841    737.47157   0.01428544   0.01320216            4 
 4303000    0.5637686   -8.2508374    737.40574  0.014280846  0.013197823            4 
 4304000   0.55807595   -8.2436597    737.69145  0.014283059   0.01319349            2 
 4305000   0.56656822   -8.2397809    737.38873  0.014273882  0.013189159            2 
 4306000   0.55565645   -8.2238642    738.72449  0.014296418  0.013184828            4 
 4307000   0.55289717   -8.2342509    737.30204  0.014265576  0.013180506            2 
 4308000   0.55159245   -8.2228932    739.29775  0.014300869  0.013176185            3 
 4309000   0.56627348   -8.2307929    736.95398  0.014252224  0.013171861            2 
 4310000   0.56008503   -8.2273882    736.65983  0.014243229  0.013167539            3 
 4311000   0.55670879   -8.2253035    737.56757  0.014257473   0.01316322            3 
 4312000   0.56049413   -8.2675403    737.53786  0.014253592  0.013158897            4 
 4313000   0.55316565   -8.2472381    737.50706  0.014249692  0.013154585            2 
 4314000   0.57096992   -8.2351395    737.91943  0.014254355  0.013150273            3 
 4315000   0.56174032   -8.2328239    738.03035  0.014253193  0.013145962            3 
 4316000   0.56177031   -8.2246637    739.46252  0.014277543  0.013141659            5 
 4317000   0.55905769   -8.2318562    737.24238  0.014231379   0.01313735            5 
 4318000   0.56288043   -8.2418297    738.17703  0.014246122  0.013133047            3 
 4319000   0.56100881   -8.2375425    737.69543  0.014233531  0.013128741            2 
 4320000   0.55780143   -8.2228764    736.44645  0.014206143  0.013124438            3 
 4321000   0.56007202   -8.2309395    736.32609  0.014200534  0.013120135            2 
 4322000   0.55041774   -8.2368991    738.66173  0.014242282  0.013115831            2 
 4323000   0.56061319   -8.2287524    738.43831  0.014234681  0.013111533            6 
 4324000    0.5551084   -8.2197431    738.42748   0.01423118  0.013107241            3 
 4325000   0.56360352   -8.2270945    737.41174  0.014208319  0.013102946            1 
 4326000   0.55626401   -8.2349736    737.52536  0.014207223  0.013098662            3 
 4327000   0.56496313    -8.232096    737.19416  0.014197561  0.013094371            3 
 4328000   0.55780557    -8.234482    737.43473  0.014198913  0.013090079            3 
 4329000    0.5503673   -8.2233858    736.69988  0.014181487  0.013085784            3 
 4330000   0.56459753   -8.2511624    737.47855  0.014193198  0.013081492            2 
 4331000   0.56089037   -8.2451508     738.1243  0.014202345  0.013077203            2 
 4332000   0.55737804   -8.2393017    737.08299  0.014179036  0.013072915            5 
 4333000    0.5526992   -8.2457223    738.32322  0.014199616  0.013068633            3 
 4334000   0.55221725   -8.2242587    737.96867  0.014189522  0.013064355            3 
 4335000   0.56374678   -8.2435791    737.90162   0.01418496  0.013060077            3 
 4336000   0.54420266   -8.2359683    738.03987  0.014184346  0.013055797            5 
 4337000   0.55948173   -8.2428574    737.91645  0.014178704   0.01305152            6 
 4338000   0.54884067   -8.2503602    737.75851  0.014172401  0.013047241            3 
 4339000   0.56057365   -8.2501389    738.64179  0.014186099  0.013042964            3 
 4340000   0.55894617   -8.2489028    737.97781  0.014170081  0.013038689            3 
 4341000   0.55472219   -8.2396534    737.52231  0.014158072  0.013034412            4 
 4342000   0.55918885   -8.2479877    737.28531  0.014150263   0.01303014            2 
 4343000    0.5556185   -8.2497412    737.59593  0.014152965  0.013025868            4 
 4344000   0.57156538   -8.2706558    737.93016  0.014156119  0.013021595            2 
 4345000   0.55890363   -8.2559576    736.31607  0.014121904   0.01301732            3 
 4346000   0.56765587   -8.2574316    738.77467  0.014165798  0.013013053            4 
 4347000   0.54646727   -8.2639725    737.57442  0.014139529  0.013008782            4 
 4348000   0.55621314   -8.2522049    737.21003  0.014129294  0.013004513            3 
 4349000   0.57181529   -8.2516887    736.61058  0.014114558  0.013000243            5 
 4350000   0.56031126    -8.265519    735.60171  0.014091987  0.012995977            3 
 4351000   0.55801983    -8.262946    737.99567  0.014134599  0.012991709            4 
 4352000   0.54744291   -8.2774751    737.65288  0.014124787  0.012987444            2 
 4353000   0.55105449   -8.2392081    736.10745  0.014091957  0.012983181            5 
 4354000   0.55617748    -8.263472     736.8245  0.014102444  0.012978917            3 
 4355000   0.56357672   -8.2335071    736.04585  0.014084306  0.012974655            4 
 4356000    0.5528829   -8.2659586    736.40754  0.014087992  0.012970396            6 
 4357000   0.55415255   -8.2667302    735.42131  0.014065896  0.012966137            4 
 4358000   0.55535979   -8.2606231    737.93135  0.014110665  0.012961881            3 
 4359000   0.56136809   -8.2462378    737.64418  0.014101938  0.012957631            2 
 4360000   0.54633083   -8.2445789    737.56814   0.01409725  0.012953378            3 
 4361000   0.56376499      -8.2467    736.89702  0.014081194  0.012949128            5 
 4362000    0.5480097   -8.2600737    736.62439  0.014072757  0.012944881            3 
 4363000   0.55155247   -8.2411714    736.89018  0.014074608  0.012940628            3 
 4364000    0.5641142   -8.2492582    736.54764  0.014064842  0.012936382            5 
 4365000   0.54751867   -8.2524954    736.75383  0.014065556  0.012932135            2 
 4366000   0.54425722   -8.2608582    736.40421  0.014055661  0.012927891            4 
 4367000   0.56237709   -8.2648419    736.14792  0.014047552   0.01292365            4 
 4368000   0.54109626   -8.2546412    737.48987  0.014069938  0.012919408            8 
 4369000   0.55866789   -8.2586163    737.60055  0.014068829  0.012915171            6 
 4370000   0.55378981   -8.2445932     736.6867  0.014048183   0.01291093           10 
 4371000   0.56234594   -8.2725096    737.93282  0.014068726  0.012906692            4 
 4372000   0.55989958    -8.270167    737.83567  0.014063656  0.012902461            7 
 4373000   0.54221749   -8.2584876    737.46008  0.014053283  0.012898225            3 
 4374000   0.56135682   -8.2744779    736.71742  0.014035921  0.012893996            4 
 4375000   0.55507098   -8.2630702    736.73342  0.014033017   0.01288977            2 
 4376000     0.547725   -8.2469005    737.07429  0.014036302  0.012885549            3 
 4377000   0.54891764   -8.2638335    737.77922  0.014046516  0.012881325            2 
 4378000   0.54806874   -8.2567726    737.49009  0.014037804  0.012877103            3 
 4379000   0.55269925   -8.2555716    737.09726  0.014027123  0.012872884            4 
 4380000   0.53977233   -8.2540682    737.42311   0.01403012  0.012868665            8 
 4381000    0.5456135   -8.2590949    737.52301  0.014028818  0.012864443            5 
 4382000   0.54912475   -8.2596344     736.9662  0.014015027  0.012860221            3 
 4383000   0.55025304    -8.259048    736.98055  0.014012103  0.012856001            3 
 4384000   0.53858411   -8.2579163    736.39375  0.013997752  0.012851779            5 
 4385000   0.55874159   -8.2397821     737.8319  0.014021891  0.012847568            4 
 4386000   0.54535812   -8.2422446    737.45438  0.014011521  0.012843354            4 
 4387000   0.53546079    -8.260615    736.33191  0.013987005  0.012839144            2 
 4388000   0.55742325   -8.2573114    736.38192  0.013984768  0.012834933            7 
 4389000   0.55920328   -8.2653073    736.75389  0.013988644  0.012830726            5 
 4390000   0.56095674   -8.2738952    737.90317  0.014007274  0.012826519            3 
 4391000   0.55250272   -8.2767503    738.06584  0.014007171  0.012822312            4 
 4392000   0.53606196   -8.2585586    736.86025  0.013981107  0.012818104            4 
 4393000   0.54592157   -8.2673927    736.14055  0.013964272  0.012813901            4 
 4394000   0.54507304   -8.2680964    735.28829   0.01394493  0.012809696            5 
 4395000   0.54589021   -8.2525788     736.2345  0.013959699  0.012805492            4 
 4396000   0.54299553   -8.2774904    737.27021  0.013976157  0.012801292            6 
 4397000   0.54878933   -8.2805423    736.70351  0.013962238  0.012797093            3 
 4398000   0.55286337   -8.2726938    737.96543  0.013982974  0.012792895            4 
 4399000    0.5358981   -8.2840678    736.39853  0.013950112  0.012788696            3 
 4400000   0.54965843   -8.2730544    735.79868  0.013935581  0.012784496            5 
 4401000   0.54204423    -8.267106    736.57257  0.013947068  0.012780301            2 
 4402000   0.55801972   -8.2896526    736.24772   0.01393775  0.012776112            4 
 4403000   0.54565897   -8.2841483    736.19664  0.013933618  0.012771925            5 
 4404000   0.54769922   -8.2882925    736.57451  0.013937604  0.012767737            5 
 4405000   0.54203694   -8.2656584    736.06445  0.013924791  0.012763549            4 
 4406000   0.56059599   -8.2665616    736.02216  0.013920831  0.012759361            4 
 4407000   0.53564448    -8.269544    734.34151  0.013885892  0.012755176            8 
 4408000   0.56321987   -8.2972586    736.46929  0.013922968  0.012750992            3 
 4409000   0.53892009    -8.276106    737.12866  0.013932272   0.01274681            3 
 4410000   0.54893134   -8.2800335    736.82739   0.01392342  0.012742633            4 
 4411000   0.55279615   -8.2515435    736.06851  0.013905927  0.012738455            8 
 4412000   0.54920797   -8.2672645    736.23061  0.013905837  0.012734281            6 
 4413000   0.53895168     -8.26714    736.45623  0.013906946  0.012730101            4 
 4414000   0.54847095   -8.2863506    737.10507  0.013916045  0.012725923            4 
 4415000   0.54935239   -8.2801162    737.07819  0.013912386   0.01272175            5 
 4416000   0.54603532   -8.2725765    736.55308  0.013899326  0.012717574            5 
 4417000   0.53627434   -8.2691946    736.86634  0.013902089  0.012713404            5 
 4418000   0.54572259   -8.2653164    736.11795  0.013884826  0.012709231            3 
 4419000   0.54552823   -8.2794558    734.81799   0.01385717  0.012705057            3 
 4420000   0.53549373    -8.267361    736.69097  0.013889347  0.012700888            9 
 4421000   0.55192408   -8.2737132     734.9309  0.013853029  0.012696713            6 
 4422000   0.55222794   -8.2756335    735.82229  0.013866695  0.012692545            3 
 4423000   0.54719285   -8.2922595    735.60567  0.013859478  0.012688371            4 
 4424000   0.54948676   -8.2855631    736.30452  0.013869509  0.012684204            4 
 4425000   0.52920464   -8.2836834    735.57074  0.013852556  0.012680037            3 
 4426000   0.54905968    -8.277329     735.5057  0.013848202   0.01267587            6 
 4427000   0.55271547   -8.2633987    735.01097  0.013835761   0.01267171            4 
 4428000   0.54662093   -8.2810129    736.50058   0.01386067  0.012667548            3 
 4429000   0.53708544   -8.2809152    735.46564  0.013838068  0.012663386            3 
 4430000   0.54219088    -8.292634    735.95722  0.013844191   0.01265923            5 
 4431000   0.54657161   -8.2792298    736.41804  0.013849734  0.012655077            4 
 4432000   0.54361574   -8.2596379    736.27837  0.013843983  0.012650924            6 
 4433000   0.53223695   -8.2638762     734.8974    0.0138149  0.012646773            3 
 4434000   0.55081937   -8.3035593    735.81162  0.013828966  0.012642624            4 
 4435000   0.55270936   -8.2808075    735.53985  0.013820741  0.012638477            2 
 4436000   0.53792832   -8.2835569    736.01234  0.013826502   0.01263433            5 
 4437000   0.53243541   -8.2759565    737.19853  0.013845664  0.012630189            2 
 4438000   0.54072302   -8.2834847    735.68784  0.013814178  0.012626047           11 
 4439000   0.54929799   -8.2749917    735.41787  0.013805997  0.012621909            2 
 4440000   0.54383345   -8.2729793    736.95616   0.01383176  0.012617767            3 
 4441000   0.53978223   -8.2887927    736.08543  0.013812306  0.012613629            4 
 4442000   0.54541032   -8.2715567    736.67368  0.013820233  0.012609495            6 
 4443000   0.54004974    -8.268353    736.98111  0.013822888  0.012605358            3 
 4444000   0.53876441   -8.3011488    736.35323  0.013808004  0.012601221            4 
 4445000   0.53823485   -8.2619848     735.3299  0.013785712  0.012597086            4 
 4446000   0.53821233    -8.272794    734.58119  0.013768578  0.012592951            5 
 4447000   0.54574013   -8.2858624    734.35746   0.01376129  0.012588825            5 
 4448000    0.5405021   -8.2710438    735.62865  0.013782012  0.012584694            7 
 4449000   0.55967942   -8.2754283    735.56739  0.013777766   0.01258057            3 
 4450000   0.53616696   -8.2752626    735.64437  0.013776112  0.012576445            5 
 4451000   0.54739747   -8.2747584    735.79764  0.013775886  0.012572324           13 
 4452000   0.53405076   -8.2828471    736.38704  0.013783825  0.012568206            5 
 4453000   0.53990327   -8.2702047    734.82078  0.013751418  0.012564088            4 
 4454000   0.53806946    -8.307338     736.1395  0.013773004  0.012559972           10 
 4455000   0.54703267   -8.2809507    736.01111  0.013767511  0.012555855            4 
 4456000   0.54265804   -8.2703783    736.26789  0.013769223  0.012551742            4 
 4457000   0.54054192   -8.2930512    735.64598  0.013754506   0.01254763            4 
 4458000   0.53158909   -8.2885757    737.91031  0.013793747  0.012543519            3 
 4459000   0.53827394   -8.2720948    736.29223  0.013760414  0.012539407            4 
 4460000   0.53735362   -8.2834604     735.8826  0.013749675  0.012535297            3 
 4461000   0.54259605   -8.2854524    736.59434  0.013759888  0.012531196            4 
 4462000   0.54054017   -8.2900488    736.78364   0.01376034   0.01252709            6 
 4463000   0.53986812   -8.2712838    737.47516  0.013770169  0.012522985            5 
 4464000   0.53158257    -8.270363    734.90123  0.013719034  0.012518882            6 
 4465000   0.53114659   -8.2859112    736.11639  0.013738641  0.012514777            4 
 4466000   0.54257263    -8.301123    736.22579  0.013737606  0.012510674            4 
 4467000   0.53418244   -8.2839196    735.62793  0.013723378  0.012506579            4 
 4468000   0.53510391   -8.2891506    736.52188  0.013736979  0.012502484            3 
 4469000   0.54705256   -8.2789357    737.28777  0.013748187  0.012498391            2 
 4470000   0.54427872   -8.2693763    735.66517  0.013714861    0.0124943            5 
 4471000   0.53717427   -8.2915266    734.88852  0.013697318  0.012490203            7 
 4472000   0.53990714   -8.2974664    734.84348  0.013693416  0.012486107            4 
 4473000   0.54194511   -8.2954452    736.08894  0.013713558  0.012482014            3 
 4474000   0.53681732   -8.2829587    735.36865  0.013697077  0.012477923            6 
 4475000   0.52598161   -8.2894354    735.73994   0.01370093  0.012473835            4 
 4476000   0.53819342   -8.2873304    736.34933  0.013709214  0.012469752            5 
 4477000   0.52971206   -8.2524159     736.3014   0.01370526  0.012465668            3 
 4478000   0.53179281    -8.281861    735.33092  0.013684139  0.012461589            4 
 4479000   0.53694422     -8.26893    735.79393  0.013689699  0.012457509            5 
 4480000   0.53690686   -8.2929722    735.64917   0.01368395  0.012453432            4 
 4481000   0.52714816   -8.2955024    735.56243  0.013679283   0.01244935            3 
 4482000   0.52859529   -8.3043933    737.16991  0.013706119  0.012445275            2 
 4483000   0.53531875    -8.287101    735.51008  0.013672208  0.012441205            3 
 4484000   0.53455076   -8.2960167    735.98991  0.013678076  0.012437135            2 
 4485000   0.53277789   -8.2875315    736.86344  0.013691257  0.012433065            2 
 4486000   0.53731335   -8.2953757    735.75904  0.013667689  0.012428999            3 
 4487000   0.54066419   -8.2931993    735.40691  0.013658103  0.012424929            5 
 4488000   0.54518708   -8.2881705    734.06162  0.013630081  0.012420857            3 
 4489000   0.52283452   -8.2903064     735.3914   0.01365173  0.012416791            6 
 4490000   0.54772529   -8.2945116    736.53203  0.013669859  0.012412724            5 
 4491000    0.5323779   -8.2734031    735.85941  0.013654335  0.012408661            3 
 4492000    0.5323254   -8.3089707    735.16513  0.013638415  0.012404597            3 
 4493000   0.54860454   -8.2984112     735.4888  0.013641383  0.012400536            4 
 4494000   0.52802331   -8.3006617    734.90981  0.013627611  0.012396472            3 
 4495000   0.52972174   -8.2781184    735.03863  0.013626968  0.012392415            4 
 4496000   0.53809381   -8.2934491    735.47952  0.013632109  0.012388358            4 
 4497000   0.52472853   -8.2872757    735.57418  0.013630831  0.012384303            4 
 4498000   0.54093629   -8.2846866    736.42651  0.013643592  0.012380254            5 
 4499000   0.54341485   -8.2716673    736.86733  0.013648724  0.012376204            4 
 4500000   0.53594732   -8.2950109    735.74808  0.013624964  0.012372158            2 
 4501000   0.52884131   -8.3032633    735.63196  0.013619787  0.012368113            3 
 4502000   0.52205629   -8.2981373    735.13863   0.01360763  0.012364068            4 
 4503000   0.52805981   -8.2871695    735.77865  0.013616453  0.012360025            9 
 4504000   0.52346418   -8.3036622    735.59853  0.013610097  0.012355984            5 
 4505000   0.54159331   -8.2967213    735.38892  0.013603199   0.01235194            9 
 4506000   0.54146836   -8.3082983    735.48332  0.013601926    0.0123479            4 
 4507000   0.51875403   -8.3036979    735.64454  0.013601889  0.012343862            4 
 4508000   0.53869364   -8.2851593    736.26464  0.013610334  0.012339828            7 
 4509000    0.5347855    -8.300334    736.85573   0.01361824  0.012335797            6 
 4510000   0.52350588   -8.2972288    735.98817   0.01359919  0.012331764            5 
 4511000   0.54171073    -8.272412    735.72939  0.013591395  0.012327731            5 
 4512000   0.54036126   -8.2890192    736.16581  0.013596443  0.012323706            6 
 4513000    0.5178211   -8.2936249    735.47139  0.013580608  0.012319679            3 
 4514000   0.53020494   -8.2734129    736.55296  0.013597566  0.012315651            5 
 4515000   0.53167494   -8.2805854    735.49934  0.013575108  0.012311629            5 
 4516000   0.52328334     -8.30283    735.82371  0.013578087  0.012307604            5 
 4517000   0.54009274   -8.3084444    735.67233  0.013572289  0.012303576            3 
 4518000   0.53095334   -8.3002036    735.81017  0.013571827  0.012299551            7 
 4519000   0.52910901   -8.2857767    735.32835  0.013559939  0.012295526            6 
 4520000   0.52019274   -8.2888717    735.55503  0.013561118  0.012291509            2 
 4521000   0.53340831   -8.2888996    736.05506  0.013567335  0.012287491            4 
 4522000    0.5334579   -8.2864764    734.54815  0.013536565  0.012283477            4 
 4523000   0.52754849   -8.2855989    735.99839  0.013560292  0.012279461            5 
 4524000   0.53632078   -8.2897366     736.6507   0.01356931   0.01227545            4 
 4525000   0.52927904   -8.2872336    735.09297  0.013537624   0.01227144           10 
 4526000    0.5321747   -8.2985232    736.06877  0.013552599  0.012267434            3 
 4527000   0.53741389   -8.3026827    734.77472  0.013525785  0.012263427            2 
 4528000   0.53466124   -8.2824828    734.73017  0.013521977  0.012259425            2 
 4529000   0.53257044    -8.309025    735.66115  0.013536122   0.01225542            5 
 4530000   0.52304515   -8.3144578    735.30166  0.013526521  0.012251419            6 
 4531000   0.52207601   -8.2987149    734.47703  0.013508369  0.012247419            3 
 4532000   0.52113576   -8.2870936    734.52267  0.013506227  0.012243418            4 
 4533000   0.54287305   -8.3083301    735.36644  0.013518759  0.012239419            4 
 4534000   0.52375008   -8.2884142    735.30532  0.013514654  0.012235421            7 
 4535000   0.53325295    -8.293081    735.55552  0.013516272  0.012231422            6 
 4536000   0.51825218   -8.3009368    735.14541  0.013505758   0.01222743            3 
 4537000   0.51645004   -8.3132831    734.73497  0.013495242  0.012223434            3 
 4538000   0.51938039   -8.2962213    735.26792  0.013502055  0.012219444            3 
 4539000   0.52944914   -8.3125663    734.06831  0.013477056  0.012215452            4 
 4540000   0.51850241    -8.321057    734.60693  0.013483974  0.012211459            4 
 4541000   0.53482587   -8.3118085     735.4262   0.01349604  0.012207469            3 
 4542000   0.52550159    -8.315591    735.30683  0.013490878  0.012203481            2 
 4543000   0.52045094   -8.2954458    734.30672  0.013469563  0.012199494            3 
 4544000   0.52725542   -8.2990293    734.63848  0.013472683  0.012195508            3 
 4545000   0.54192961   -8.3106227    735.51962  0.013485875  0.012191525            1 
 4546000   0.53152831   -8.3018193    734.83807  0.013470415  0.012187544            3 
 4547000   0.52022465   -8.3142539    734.58628  0.013462838  0.012183562            3 
 4548000   0.52222429   -8.3021666    735.63114  0.013479023  0.012179586            3 
 4549000   0.51324337   -8.3080925    734.90977  0.013462845   0.01217561            3 
 4550000   0.52413299   -8.3026496    735.39917  0.013468849   0.01217164            4 
 4551000   0.53098943   -8.3081738    735.42237  0.013466315  0.012167667            2 
 4552000   0.52910364   -8.2967471    734.92923  0.013454328  0.012163697            4 
 4553000   0.52546954   -8.3228454    735.56852  0.013463074  0.012159732            6 
 4554000   0.52984987   -8.3020291    735.76165  0.013463652  0.012155765            4 
 4555000   0.52556135   -8.3061772    734.36626  0.013435168  0.012151799            5 
 4556000   0.52439335    -8.310753    735.05613  0.013444837  0.012147833            4 
 4557000   0.53635683   -8.3105132    734.41278  0.013430122   0.01214387            5 
 4558000   0.50734506   -8.3002397    734.17319  0.013422795  0.012139907            2 
 4559000   0.52959784   -8.3089748    735.36057  0.013441555  0.012135944            2 
 4560000   0.52421951   -8.3076569    734.23857  0.013418103  0.012131984            4 
 4561000   0.52230298   -8.3035256    735.52661  0.013438694  0.012128026            3 
 4562000   0.52608368   -8.3156571     734.1356  0.013410339  0.012124071            3 
 4563000   0.51655754   -8.3057937    735.09158  0.013424859  0.012120117            2 
 4564000   0.52375081   -8.3218246    735.63451  0.013431831  0.012116165            6 
 4565000   0.51958895   -8.2983594    735.42412  0.013425048  0.012112209            3 
 4566000   0.51736971   -8.3043858    734.53432  0.013405868  0.012108263            4 
 4567000   0.51740278   -8.3046428    735.38285  0.013418416  0.012104314            3 
 4568000   0.52250289     -8.29324    735.09938  0.013410307  0.012100368            2 
 4569000   0.52032793   -8.2983969    734.92517  0.013404194  0.012096425            4 
 4570000   0.53740874   -8.3013943    734.91261  0.013401032  0.012092486            3 
 4571000   0.52088831   -8.3049406    735.27956   0.01340479  0.012088542            5 
 4572000   0.51780378   -8.3207653    735.69673  0.013409462  0.012084602            5 
 4573000   0.51367239   -8.3093221    735.07931  0.013395279  0.012080663            6 
 4574000    0.5191437   -8.3060635    735.67116  0.013403133  0.012076726            2 
 4575000   0.51500256   -8.3127365    734.24444  0.013374216   0.01207279            4 
 4576000   0.53057328   -8.2968852    735.31455  0.013390781  0.012068858            8 
 4577000   0.51434947   -8.3119918    735.29106  0.013387427  0.012064928            3 
 4578000    0.5182631   -8.3221218    736.36701  0.013404089     0.012061            3 
 4579000   0.52002524   -8.3370417     734.2495  0.013362625  0.012057068            4 
 4580000   0.51777405   -8.3246736    733.60976  0.013348067  0.012053136            3 
 4581000   0.52113859   -8.3096642    735.59131    0.0133812  0.012049216            5 
 4582000   0.50927663   -8.3139115    734.09253  0.013351021  0.012045295            4 
 4583000   0.52011423   -8.3041956    734.58333  0.013357032  0.012041368            5 
 4584000   0.51915283   -8.3225253    734.03393   0.01334413  0.012037445            3 
 4585000   0.51080031   -8.3045431    735.17365  0.013361935  0.012033523            6 
 4586000   0.51686957   -8.3468985    734.43546  0.013345607  0.012029602           10 
 4587000   0.51017782   -8.2962216    734.15781  0.013337654  0.012025682            4 
 4588000   0.52045306   -8.3016741    735.03288  0.013350641  0.012021762            3 
 4589000    0.5067387   -8.3140361    734.42298  0.013336656  0.012017847            3 
 4590000   0.51681557   -8.3005587    734.35122  0.013332448   0.01201393            3 
 4591000   0.51560422   -8.3045694    733.48622  0.013313843  0.012010016            3 
 4592000   0.51235304   -8.3101872     733.5517  0.013312132  0.012006105            9 
 4593000   0.51034017   -8.3236996    735.58382  0.013346103  0.012002192            3 
 4594000   0.52675462   -8.3030016    734.85932  0.013330056  0.011998285            2 
 4595000   0.53100814   -8.3146328    735.14999  0.013332426  0.011994377            4 
 4596000    0.5054955   -8.3226885    734.89178  0.013324844  0.011990474            4 
 4597000   0.51784611   -8.3143608    733.64632  0.013299368  0.011986566            3 
 4598000   0.51904548   -8.3140759     734.3451   0.01330914  0.011982663            6 
 4599000   0.52530247    -8.307204    735.52661  0.013327655  0.011978764            2 
 4600000   0.51953397    -8.329839    734.84205  0.013312356  0.011974864            3 
 4601000    0.5183493   -8.3217744    735.42731  0.013320063  0.011970969            7 
 4602000   0.50795121    -8.319032    735.19287  0.013312923  0.011967069            6 
 4603000   0.50959338   -8.3047016    734.58388  0.013299006  0.011963169            5 
 4604000   0.50639696   -8.3305285    734.79869  0.013300005  0.011959271            7 
 4605000    0.5048833   -8.3278612    734.61725  0.013293834  0.011955374            4 
 4606000   0.51188344   -8.3207533    734.05037  0.013280691  0.011951475            3 
 4607000   0.50850958   -8.3299632    735.03008   0.01329553  0.011947578            3 
 4608000   0.51198973   -8.3288697    734.68929  0.013286482  0.011943683            5 
 4609000   0.51756524   -8.3371501    734.77248  0.013285103  0.011939792            6 
 4610000   0.50827539   -8.3252574    733.49067   0.01325905    0.0119359            4 
 4611000   0.51927767   -8.3126489    733.76319    0.0132611  0.011932012            3 
 4612000   0.51106316   -8.3233046    735.22094  0.013284564  0.011928124            5 
 4613000   0.51430352   -8.3006958    733.58679  0.013252164  0.011924237            6 
 4614000   0.51338504   -8.3169383    734.98915   0.01327462  0.011920353            4 
 4615000   0.50170293   -8.3132087    735.28285  0.013277047  0.011916472            4 
 4616000   0.52172101   -8.3357531    734.75995   0.01326473   0.01191259            8 
 4617000   0.50200489   -8.3190208    733.50292  0.013239169  0.011908707            4 
 4618000    0.5186652   -8.3209775    733.27156  0.013232127   0.01190483            3 
 4619000   0.51818401   -8.3373257     735.4378  0.013268344   0.01190095            5 
 4620000   0.50644659   -8.3188007    733.38083   0.01322837  0.011897074            7 
 4621000   0.51183092   -8.3198111    733.69371   0.01323115  0.011893195            3 
 4622000   0.50272401    -8.328268    734.60499  0.013244717  0.011889319            5 
 4623000   0.51198061   -8.3321971    733.91482  0.013229411  0.011885451            6 
 4624000   0.51387983   -8.3270688    733.08851  0.013211659  0.011881584            5 
 4625000   0.51072676   -8.3213714    734.45847  0.013233486  0.011877718            3 
 4626000   0.49865131   -8.3393543    734.54206  0.013232131  0.011873849            4 
 4627000   0.51490145     -8.31782    733.61647  0.013212601  0.011869984            7 
 4628000   0.50855821    -8.327488    735.18257  0.013237946  0.011866123            7 
 4629000   0.50776248   -8.3366632    733.75424  0.013209373   0.01186226            5 
 4630000   0.51596148   -8.3335935    734.60139  0.013221767  0.011858401            5 
 4631000   0.50855712   -8.3254839    734.24277  0.013212459  0.011854542            5 
 4632000   0.50964334   -8.3171011    734.85167  0.013220561  0.011850685            4 
 4633000   0.51559949   -8.3357352    734.12853  0.013204701  0.011846831            3 
 4634000   0.51366078   -8.3290322    734.88426  0.013215441  0.011842982            6 
 4635000   0.50778538   -8.3120212    735.59181  0.013225311  0.011839135            2 
 4636000   0.51533776   -8.3142427    734.29919  0.013199223  0.011835287            5 
 4637000   0.50195305    -8.331497    734.42864  0.013198703  0.011831439            7 
 4638000    0.5142888   -8.3339539    734.59691  0.013198881  0.011827595            3 
 4639000   0.51120897   -8.3302555    734.49451  0.013194196  0.011823752            6 
 4640000   0.51284142   -8.3516631    733.69372  0.013176971  0.011819907            6 
 4641000   0.51249842   -8.3196503    733.68677  0.013174006  0.011816066            3 
 4642000   0.50843491   -8.3141716    733.67155  0.013170895  0.011812229            7 
 4643000   0.49897301   -8.3488556    734.89573   0.01319003  0.011808389            4 
 4644000   0.50930077   -8.3346857     734.0558  0.013172118   0.01180455            4 
 4645000   0.50544693   -8.3400209    734.81017  0.013182816  0.011800715            4 
 4646000   0.51216654   -8.3444578    734.52704    0.0131749  0.011796882            4 
 4647000   0.50860342   -8.3281332    733.14445  0.013147272  0.011793053            8 
 4648000   0.50148827   -8.3430047    733.87037  0.013157458  0.011789221            4 
 4649000    0.5046706   -8.3293314    734.95853  0.013174133  0.011785391            6 
 4650000   0.51115309   -8.3318748    734.06194  0.013155232  0.011781561            2 
 4651000   0.50892119   -8.3221688    733.92776  0.013149999  0.011777734            3 
 4652000   0.51164193   -8.3306218    732.90245  0.013128806  0.011773909            2 
 4653000   0.51109975   -8.3412676    733.98391  0.013145353  0.011770088            4 
 4654000   0.51095013   -8.3308565    733.62873  0.013136168  0.011766265            4 
 4655000   0.50783541   -8.3243596    733.54555  0.013131857  0.011762446            5 
 4656000   0.50089726   -8.3296997    735.02385  0.013155496  0.011758624            4 
 4657000   0.50420809   -8.3440896    733.82938  0.013131297  0.011754805            3 
 4658000    0.5097351   -8.3431236     733.8618  0.013129057  0.011750984            3 
 4659000   0.50626039   -8.3442893    733.30127  0.013116214  0.011747162            4 
 4660000   0.49997894   -8.3362635     733.9481  0.013124966  0.011743344            4 
 4661000   0.49403421   -8.3567434    733.59877  0.013115904  0.011739528            4 
 4662000   0.49963406   -8.3494888    733.66273  0.013114234  0.011735711            3 
 4663000    0.4975443   -8.3406107    732.60244  0.013092473  0.011731897            4 
 4664000   0.50499968   -8.3405818    732.74666  0.013092243  0.011728084            3 
 4665000   0.50457402   -8.3546446    733.47556  0.013102457  0.011724272            6 
 4666000   0.50256235   -8.3523519    732.67131  0.013085286  0.011720461            2 
 4667000   0.50408802   -8.3254798    733.55965  0.013098344  0.011716652            5 
 4668000   0.49957156   -8.3611582    734.49612  0.013112256  0.011712845            4 
 4669000   0.51162188    -8.334733    734.15504   0.01310336  0.011709041            3 
 4670000   0.50687903   -8.3490266    734.10279  0.013099622  0.011705238            5 
 4671000   0.49652771   -8.3592014    734.18045  0.013098203  0.011701434            3 
 4672000   0.50578069   -8.3545575    733.77661  0.013088196  0.011697632            4 
 4673000   0.49639755   -8.3362534    733.78216  0.013085494  0.011693835            4 
 4674000   0.51253295   -8.3464121    733.17918  0.013071944  0.011690038            5 
 4675000   0.50884403    -8.344713    733.62762  0.013077141  0.011686247            8 
 4676000   0.50514281   -8.3532347    733.09683  0.013064885  0.011682452            4 
 4677000    0.5004764   -8.3639667    733.66023   0.01307213   0.01167866            6 
 4678000   0.49239677   -8.3529538    733.06802  0.013058786  0.011674872            5 
 4679000   0.50173154   -8.3429271    732.58258   0.01304735  0.011671081            5 
 4680000   0.50271026   -8.3567281    734.01392  0.013070048  0.011667292            6 
 4681000   0.50674162   -8.3511096    733.47394  0.013057643  0.011663505            4 
 4682000   0.49991836   -8.3595565     734.2325  0.013068356  0.011659719            3 
 4683000   0.49695589   -8.3546647    733.07452  0.013044959  0.011655936            6 
 4684000   0.50787497   -8.3386984    734.01468  0.013058901  0.011652154            4 
 4685000   0.50738074   -8.3518671    732.15129  0.013022968  0.011648373            3 
 4686000   0.50285556   -8.3390398    733.71623  0.013048019  0.011644595            2 
 4687000   0.50000028   -8.3446479     732.9206   0.01303109  0.011640816            4 
 4688000   0.50595083   -8.3600848     733.8326  0.013044521  0.011637041            3 
 4689000   0.50317402   -8.3535256     733.3764  0.013033632  0.011633265            5 
 4690000   0.50636895    -8.351835    732.78463  0.013020338  0.011629493            5 
 4691000   0.50470992    -8.343798    734.25007  0.013043595   0.01162572            6 
 4692000   0.51543202   -8.3490688    734.00668  0.013036493   0.01162195            7 
 4693000   0.49575129    -8.341118    733.17726  0.013018987  0.011618177            4 
 4694000   0.50518889   -8.3551381    732.97797  0.013012675   0.01161441            7 
 4695000   0.51384084   -8.3513357    733.13003  0.013012603  0.011610645            3 
 4696000   0.50604231   -8.3484093    733.15522  0.013010279  0.011606881            2 
 4697000   0.49828232   -8.3583143     732.6274  0.012998144  0.011603116            9 
 4698000   0.49918113   -8.3553059    734.23175  0.013023836  0.011599355            4 
 4699000   0.50012003   -8.3566666    732.90544  0.012997543  0.011595597            5 
 4700000   0.49681095    -8.348042    734.35121  0.013020411  0.011591841            5 
 4701000   0.50930497   -8.3543011    733.34727  0.012999845  0.011588084            6 
 4702000   0.50229519   -8.3449883     732.6001  0.012983838  0.011584328            6 
 4703000    0.4917647   -8.3623015    733.05982  0.012989224  0.011580576            3 
 4704000   0.50393091   -8.3488729    733.61423  0.012996284  0.011576823            4 
 4705000   0.49212425   -8.3516054    734.18231  0.013003583  0.011573074            3 
 4706000   0.48890251   -8.3544854    733.57827  0.012990124  0.011569323            3 
 4707000   0.49612153   -8.3544926    734.50299  0.013003735  0.011565575            5 
 4708000   0.50844967   -8.3575987    732.97202  0.012973875  0.011561827            6 
 4709000   0.49104655   -8.3609846    731.81906  0.012950716  0.011558079            6 
 4710000   0.49096908   -8.3419953    734.53688  0.012996052  0.011554335            4 
 4711000   0.49322834   -8.3560084    734.05649  0.012984796  0.011550593            6 
 4712000   0.50352326   -8.3626662    733.47489  0.012971755   0.01154685            7 
 4713000    0.5005785   -8.3549494    732.40673  0.012950115  0.011543106            3 
 4714000   0.50855782   -8.3548372     733.1993  0.012961379  0.011539361            2 
 4715000   0.49161765     -8.34838    732.20016  0.012940971   0.01153562            4 
 4716000   0.48449524   -8.3621396     733.4761  0.012960774  0.011531884            4 
 4717000    0.4859965    -8.354386    733.04946  0.012950489  0.011528149            4 
 4718000   0.49353911   -8.3482412    732.79017  0.012943164  0.011524412            4 
 4719000   0.50589793   -8.3555683    734.08232  0.012963239  0.011520682            5 
 4720000   0.49380545   -8.3445577    732.61498  0.012934587  0.011516951            5 
 4721000   0.48863674   -8.3564528    732.69929  0.012933335  0.011513221            3 
 4722000   0.49488192    -8.326716    732.34769  0.012924391   0.01150949            3 
 4723000   0.48729999   -8.3469962    733.19315  0.012936572  0.011505757            5 
 4724000   0.48704669   -8.3560117     734.2978   0.01295332  0.011502029            3 
 4725000   0.49147922   -8.3485404    731.77415   0.01290607  0.011498303            5 
 4726000   0.48964888   -8.3544688    733.53367  0.012934364  0.011494578            2 
 4727000   0.49692318   -8.3444391      733.197  0.012925693  0.011490852            3 
 4728000   0.49049044   -8.3422708    732.57208  0.012911944  0.011487131            5 
 4729000   0.50452709    -8.370489    733.23087  0.012920823  0.011483407            3 
 4730000   0.50139938    -8.350525    732.32982  0.012902217  0.011479687            3 
 4731000   0.49965185   -8.3652862    733.15642  0.012914049   0.01147597            4 
 4732000   0.48290634   -8.3473195     733.7926  0.012922524  0.011472253            5 
 4733000   0.49866488   -8.3643167     732.4386  0.012895954  0.011468535            3 
 4734000    0.4927228   -8.3646415    732.03509  0.012886127  0.011464821            2 
 4735000    0.4956627   -8.3616941    731.47446  0.012873539  0.011461105            3 
 4736000   0.49011608   -8.3556536     732.3105  0.012885531  0.011457396            4 
 4737000   0.48053882   -8.3656988    733.47457  0.012903289  0.011453687            4 
 4738000   0.49340535   -8.3741374    733.00072  0.012892232  0.011449978            2 
 4739000   0.48327174   -8.3590331     732.0069  0.012872035  0.011446269            7 
 4740000   0.48638672   -8.3606533      733.326  0.012892511  0.011442564            5 
 4741000   0.50030734      -8.3575    733.24975  0.012888451  0.011438862            6 
 4742000    0.4951554   -8.3668593    732.84022  0.012878536  0.011435161            3 
 4743000   0.48203109   -8.3494909    734.03757  0.012896858  0.011431458            4 
 4744000    0.4979503   -8.3779173    733.14798  0.012878513  0.011427762            5 
 4745000   0.50025934   -8.3557344    731.52995  0.012847382  0.011424065            3 
 4746000   0.50290776   -8.3608433     733.9843   0.01288777   0.01142037            3 
 4747000   0.49026314   -8.3507227    732.96514  0.012867164  0.011416673            5 
 4748000   0.50427307   -8.3784259    733.29052  0.012870165   0.01141298            4 
 4749000   0.48263217   -8.3690604    731.48831   0.01283583  0.011409287            4 
 4750000   0.49466596   -8.3597736    732.93197  0.012858456  0.011405594            7 
 4751000   0.48945253    -8.352353    732.68294  0.012851381  0.011401907            7 
 4752000   0.49403317   -8.3609252    732.75522  0.012849944  0.011398218            6 
 4753000   0.49414088   -8.3721429     732.9495  0.012850647   0.01139453            6 
 4754000   0.49878766   -8.3715788    732.62659  0.012842284  0.011390845            8 
 4755000   0.48907724   -8.3757178    733.08305  0.012847582  0.011387162            2 
 4756000   0.48252083   -8.3666111    731.71355  0.012820885  0.011383478            3 
 4757000   0.49494327   -8.3505916    733.20091  0.012844245  0.011379795            4 
 4758000   0.49117835   -8.3923672    732.84069  0.012835237  0.011376116            3 
 4759000   0.49569982   -8.3709951    732.53778  0.012827236   0.01137244            3 
 4760000   0.48248179    -8.361891    731.93191  0.012813934  0.011368761            3 
 4761000   0.48387654   -8.3623515    733.08826  0.012831483  0.011365086            2 
 4762000   0.49448333   -8.3622554    732.27692   0.01281459  0.011361408            6 
 4763000   0.48647228   -8.3737992    732.82511  0.012821491  0.011357733            3 
 4764000   0.49545602   -8.3756022     731.9417  0.012803346  0.011354062            3 
 4765000   0.49011808   -8.3733222    732.71117  0.012814116  0.011350392            4 
 4766000   0.49769963   -8.3797387    733.79329  0.012830348  0.011346723            3 
 4767000   0.49642356   -8.3858976    732.11199  0.012798266  0.011343056            2 
 4768000   0.48499174   -8.3813305     732.3454  0.012799661  0.011339389            5 
 4769000   0.48940603   -8.3866786      732.525  0.012800115  0.011335725            3 
 4770000   0.48453004   -8.3786665    732.88289  0.012803684  0.011332063            4 
 4771000    0.4938838   -8.3756382    732.57235  0.012795577  0.011328402            4 
 4772000   0.48125051   -8.3639478    732.84042  0.012797576  0.011324741            5 
 4773000   0.49466036   -8.3680032    732.34916  0.012786318  0.011321081            3 
 4774000   0.47382862   -8.3756882    732.60159  0.012788046  0.011317422            3 
 4775000   0.48520174    -8.374493    731.76583  0.012770782  0.011313764            1 
 4776000   0.49551768   -8.3853562    731.80372   0.01276877  0.011310109            2 
 4777000   0.48183472   -8.3797311    733.03639    0.0127876  0.011306452            6 
 4778000   0.48403874   -8.3625411    733.01419  0.012784537  0.011302801            2 
 4779000   0.47975213   -8.3713995    732.13704  0.012766566  0.011299147            6 
 4780000   0.48908679   -8.3741737     733.8145   0.01279314  0.011295499            4 
 4781000   0.50038421   -8.3669196    731.97579  0.012758415  0.011291853            2 
 4782000   0.48022895   -8.3737043    733.19948  0.012777072  0.011288203            3 
 4783000   0.47609905   -8.3755407    732.92479  0.012769614  0.011284558            4 
 4784000   0.49029528   -8.3719593    731.62012  0.012744219  0.011280911            3 
 4785000   0.48853757   -8.3703073    732.21934  0.012751991  0.011277269            5 
 4786000    0.4862628   -8.3596207    732.99075  0.012762759   0.01127363            4 
 4787000   0.49021145   -8.3912699    732.95428  0.012759458  0.011269989            4 
 4788000   0.48902674   -8.3724385    733.22596  0.012761521  0.011266351            4 
 4789000   0.48823481   -8.3562854    732.52374  0.012746637  0.011262713            4 
 4790000   0.48839497    -8.378058    732.60685  0.012745422  0.011259079            5 
 4791000   0.47457762   -8.3815521    732.19015  0.012735514  0.011255444            4 
 4792000   0.48327099   -8.3788651    731.69444  0.012724236  0.011251807            3 
 4793000   0.48116076   -8.3729057    732.61089  0.012737515  0.011248176            3 
 4794000   0.48759921   -8.3827455    732.11338   0.01272621  0.011244546            3 
 4795000   0.48808022   -8.3721543    732.30196  0.012726833  0.011240916            4 
 4796000   0.49235823    -8.373214    733.12905   0.01273855  0.011237288            5 
 4797000   0.48216785   -8.3671165    733.41624  0.012740884  0.011233662            4 
 4798000   0.49272437   -8.3756091    732.54829  0.012723154  0.011230034            5 
 4799000   0.47999062   -8.3731809    731.87909  0.012708882  0.011226412            5 
 4800000   0.47600757   -8.3742566    733.93414  0.012741912   0.01122279            4 
 4801000   0.48485267   -8.3861136    732.63567   0.01271672   0.01121917            4 
 4802000   0.48670759   -8.3696468    733.09595  0.012722059  0.011215551            3 
 4803000   0.49015863   -8.3584776    731.93216  0.012699219  0.011211937            4 
 4804000    0.4708189   -8.3759166    732.82097  0.012711993  0.011208321            2 
 4805000   0.48459974   -8.3840168     732.6745  0.012706807  0.011204708            5 
 4806000   0.47411304    -8.375185    732.99005  0.012709635  0.011201094            1 
 4807000   0.48085088   -8.3928723    732.07378  0.012691106  0.011197482            2 
 4808000   0.47520165   -8.3580915    731.93857  0.012686123  0.011193872            3 
 4809000   0.47720329   -8.3960839    732.90984  0.012700316  0.011190263            2 
 4810000   0.48251634   -8.3824819    732.46897  0.012690038  0.011186653            3 
 4811000   0.48537034   -8.3822116    732.68328  0.012691112  0.011183047            2 
 4812000   0.48125683   -8.3713307    731.87832  0.012674534  0.011179442            3 
 4813000   0.48354461   -8.3688545    732.86012    0.0126889  0.011175838            5 
 4814000   0.48261766   -8.3849944    732.14864  0.012673948  0.011172236            3 
 4815000   0.48028812   -8.3866844    732.61447  0.012679378  0.011168636            3 
 4816000   0.47724627   -8.3727692    732.65266  0.012677406  0.011165035            4 
 4817000   0.46747839   -8.3678056    732.74305  0.012676338  0.011161439            3 
 4818000   0.46283612   -8.3728002    731.97673  0.012660453  0.011157839            4 
 4819000   0.47820475   -8.3880201    731.48469  0.012649317  0.011154243            3 
 4820000   0.49004825   -8.3951186    731.74609  0.012651212  0.011150648            3 
 4821000   0.47602888   -8.3749504    732.17301  0.012655967  0.011147053            2 
 4822000   0.47897412   -8.3743161    732.61342  0.012660954  0.011143465            4 
 4823000   0.47532338   -8.3839871    732.21346  0.012651418  0.011139876            4 
 4824000   0.47546445   -8.3854621    732.05257  0.012646016  0.011136287            2 
 4825000   0.47141271   -8.3892427    732.22857  0.012646435    0.0111327            2 
 4826000   0.48941502   -8.3827672    732.85968  0.012654712  0.011129117            3 
 4827000   0.47841318   -8.3756451    731.44545  0.012627675  0.011125531            4 
 4828000   0.48604113   -8.3786137    732.06272  0.012635714   0.01112195            3 
 4829000   0.49490998   -8.3867714    731.78027  0.012628223  0.011118369            4 
 4830000   0.47525511   -8.4005482    731.97733  0.012629008  0.011114787            4 
 4831000   0.47131274   -8.3867668    732.51644  0.012635694  0.011111207            4 
 4832000   0.48324905   -8.3806368    731.84128  0.012621435  0.011107633            3 
 4833000    0.4800668   -8.3779218    732.20218  0.012625046  0.011104058            5 
 4834000   0.49300278   -8.3701866    731.82566  0.012615944  0.011100482            4 
 4835000    0.4805661   -8.3862835    732.39535  0.012623153   0.01109691            4 
 4836000   0.48190389   -8.3902477    731.71852   0.01260888  0.011093342            5 
 4837000   0.48172451   -8.3841967     731.8917  0.012609257  0.011089773            3 
 4838000   0.48509978   -8.3894514    732.04228  0.012609244  0.011086202            4 
 4839000    0.4801034   -8.3927596    731.50929   0.01259746  0.011082634            3 
 4840000   0.48291097   -8.3866713    732.51705  0.012612208  0.011079067            6 
 4841000   0.46814692    -8.391104    731.76396  0.012596639  0.011075503            4 
 4842000   0.47880021   -8.3997411    731.00749  0.012581018  0.011071938            6 
 4843000   0.48010419   -8.3784647    732.52351  0.012604507  0.011068374            5 
 4844000   0.47766637   -8.3887719    732.09965  0.012594613  0.011064813            3 
 4845000   0.47179755   -8.4036973    732.61478  0.012600873  0.011061256            6 
 4846000    0.4788583    -8.375884    731.34496  0.012576437  0.011057699            2 
 4847000    0.4869117   -8.4048907    732.81459  0.012599109  0.011054142            6 
 4848000   0.47685137   -8.3849663    731.06462   0.01256643  0.011050589            7 
 4849000   0.47649621   -8.4032273    729.67092  0.012539887  0.011047035            4 
 4850000   0.47968759   -8.3782069    731.05556  0.012561092  0.011043482            3 
 4851000   0.46910691   -8.3973501    731.28052  0.012562367  0.011039932            3 
 4852000   0.47244051   -8.3937222    732.86631  0.012587014  0.011036381            2 
 4853000   0.47238049   -8.4013902    732.52683  0.012578591  0.011032829            3 
 4854000   0.46950077   -8.3925025    731.02898  0.012550285  0.011029279            4 
 4855000   0.47364425   -8.3788668     732.1123  0.012566294  0.011025733            4 
 4856000   0.47684368   -8.3885071    731.80607  0.012558451  0.011022188            4 
 4857000   0.48285401   -8.3707246    731.70412  0.012554116  0.011018647            4 
 4858000   0.48464846   -8.3771331    731.34447  0.012545363  0.011015105            6 
 4859000   0.47584041   -8.3904697    732.27834  0.012558797  0.011011566            3 
 4860000   0.47013265   -8.3824604    731.40933  0.012541312   0.01100803            3 
 4861000   0.46497911    -8.387238    731.93732  0.012547784  0.011004491            3 
 4862000   0.47222525   -8.3962952    731.08775  0.012530642  0.011000958            3 
 4863000   0.48177043   -8.3807439     731.9009  0.012541999  0.010997423            2 
 4864000   0.47785796   -8.3801866    732.34795   0.01254708   0.01099389            5 
 4865000   0.46991464   -8.3829694    731.14085  0.012523824  0.010990358            4 
 4866000   0.46461651      -8.3796    733.28268  0.012557931   0.01098683            3 
 4867000   0.48166782   -8.3891478    731.46818  0.012524282  0.010983301            3 
 4868000   0.47319595   -8.3925441    730.95993  0.012513009  0.010979775            3 
 4869000   0.46679421   -8.3819294    731.72067  0.012523459  0.010976248            2 
 4870000   0.47149501   -8.3853849    731.41635   0.01251568  0.010972724            7 
 4871000    0.4886889   -8.3996417     731.6689  0.012517431    0.0109692            3 
 4872000   0.48141141   -8.3853312    730.99326  0.012503306  0.010965678            2 
 4873000   0.47201952    -8.405599    731.10324  0.012502621  0.010962153            4 
 4874000    0.4622609   -8.3920325     731.3003  0.012503425  0.010958631            7 
 4875000   0.47014472   -8.3976132    731.57809  0.012505608  0.010955112            4 
 4876000   0.47675537   -8.3856561    730.56014  0.012485646  0.010951596            4 
 4877000   0.47303867   -8.3841506    730.80647  0.012487295   0.01094808            5 
 4878000   0.47294566   -8.4092426    732.20544  0.012508635  0.010944564            8 
 4879000   0.47698967   -8.4037401    731.66824  0.012496896   0.01094105            3 
 4880000   0.46774301   -8.4039823    731.95277  0.012499194  0.010937536            7 
 4881000   0.46670423   -8.3979135    731.72965  0.012492823  0.010934027            3 
 4882000   0.46849285   -8.4016865       731.15   0.01248037   0.01093052            6 
 4883000   0.46495569   -8.3941877    731.76013  0.012488227  0.010927011            3 
 4884000   0.47209364   -8.3994347    730.30632  0.012460864  0.010923504            4 
 4885000   0.46799223   -8.3857665    731.19641  0.012473497  0.010919999            5 
 4886000   0.46748369   -8.4125508    732.70195  0.012496622  0.010916493            3 
 4887000   0.47342497   -8.3978005    731.49238  0.012473439  0.010912989            4 
 4888000   0.46047231   -8.3972846    731.56974  0.012472206  0.010909488            2 
 4889000   0.47393397   -8.4058008    731.54054  0.012469158  0.010905989            2 
 4890000   0.46402992   -8.4024912    731.10577  0.012459199  0.010902493            3 
 4891000   0.46508954   -8.4039527    732.04409  0.012472638  0.010898997            2 
 4892000   0.47774323   -8.4005701    730.84308   0.01244963    0.0108955            3 
 4893000   0.46505675   -8.4029831    730.66804  0.012444105  0.010892006            5 
 4894000   0.48628971   -8.3961125     731.4303  0.012454541  0.010888515            3 
 4895000   0.46851883   -8.4106054    731.70761  0.012456718  0.010885029            4 
 4896000   0.46679331   -8.3916908    731.83768  0.012456388  0.010881542            3 
 4897000   0.46168732   -8.3994524     731.4125  0.012446608  0.010878056            7 
 4898000   0.47740458   -8.3911342    731.77795  0.012450285   0.01087457            5 
 4899000   0.46214503   -8.4032318    731.44351  0.012442055  0.010871086            2 
 4900000   0.47429403   -8.3960894    731.75662  0.012444841  0.010867603            4 
 4901000   0.46410792   -8.4020447    731.29395  0.012434434  0.010864122            4 
 4902000   0.45934472   -8.3943054    730.30606  0.012415104  0.010860643            3 
 4903000   0.46245986   -8.4104626    730.49547  0.012415791  0.010857164            3 
 4904000   0.47022128   -8.3999866    731.77521  0.012435006  0.010853685            3 
 4905000    0.4610805   -8.4038617    731.75533  0.012432133  0.010850208            3 
 4906000   0.46860515   -8.3999701    730.65817  0.012410962  0.010846736            3 
 4907000   0.47210233   -8.4056288    731.11599  0.012416208  0.010843262            3 
 4908000   0.46612451   -8.4084199    731.36242  0.012417862  0.010839791            5 
 4909000   0.45775829   -8.3995106    730.81018  0.012405958  0.010836322            3 
 4910000    0.4747241   -8.3998072     730.9328  0.012405513  0.010832851            9 
 4911000   0.45908112   -8.3911258    731.32486  0.012409639  0.010829383            3 
 4912000   0.47743706   -8.4039761    730.58396  0.012394543  0.010825915            5 
 4913000   0.47417765   -8.3699096    732.30559  0.012421222  0.010822451            4 
 4914000    0.4603039   -8.3966437    730.49072  0.012387917   0.01081899            2 
 4915000   0.47003494   -8.4080642    730.29249  0.012382036  0.010815524            2 
 4916000   0.46260321   -8.4011438    731.30007  0.012396597  0.010812064            3 
 4917000   0.46225802   -8.4099949    730.34771  0.012377936  0.010808604            4 
 4918000    0.4695054   -8.3993758    731.56185  0.012395992  0.010805145            5 
 4919000   0.46014695   -8.3867875    730.65963  0.012378187  0.010801686            4 
 4920000   0.46306788   -8.4050424    730.63159  0.012375196   0.01079823            5 
 4921000   0.47883476   -8.3943435     732.3624  0.012401991  0.010794777            4 
 4922000   0.46269261   -8.4062433    731.49125  0.012384723  0.010791324            2 
 4923000   0.45894127   -8.4060678    731.18876  0.012377086  0.010787873            3 
 4924000   0.45782197   -8.4075826      730.051  0.012355318  0.010784422            6 
 4925000   0.46562649   -8.4237841    732.38249  0.012392259  0.010780975            3 
 4926000   0.45179748   -8.3888544    730.94936  0.012365499  0.010777532            4 
 4927000   0.46060454    -8.409782    731.13622  0.012366149  0.010774086            3 
 4928000   0.44807551   -8.4012037    730.54376  0.012353621  0.010770643            3 
 4929000    0.4553564   -8.4008929    730.89994  0.012357137  0.010767201            3 
 4930000   0.46211831   -8.4207662    729.73701  0.012334973  0.010763757            3 
 4931000   0.45660282   -8.3988983    731.82883  0.012367823  0.010760316            3 
 4932000   0.45682461     -8.41106    730.99767  0.012351272  0.010756876            3 
 4933000   0.46452146   -8.4104883    730.24932  0.012336126  0.010753438            2 
 4934000   0.45410745   -8.3971435    730.22842  0.012333273  0.010750002            3 
 4935000   0.46426299   -8.4045811    729.65591  0.012321106  0.010746565            3 
 4936000   0.46297618   -8.3930886    730.33251  0.012330033  0.010743131            4 
 4937000   0.45975431   -8.3985943    732.41172  0.012362631  0.010739699            4 
 4938000   0.46513604   -8.4175274    731.18726  0.012339464  0.010736268            3 
 4939000   0.46298325    -8.406769    731.36844  0.012340022  0.010732838            4 
 4940000   0.44635978   -8.3975871    730.83994  0.012328609  0.010729407            6 
 4941000   0.46838687   -8.4045577    732.06107  0.012346709   0.01072598            3 
 4942000   0.46457438   -8.3978603     730.9011  0.012324651  0.010722553            6 
 4943000   0.45980914   -8.4111207    731.43745    0.0123312  0.010719127            6 
 4944000   0.47092293   -8.4058473    731.18434  0.012324439  0.010715702            9 
 4945000   0.46800627   -8.3937602    730.69016  0.012313619   0.01071228            5 
 4946000   0.44692076   -8.3913553    731.00315  0.012316403  0.010708858            4 
 4947000   0.46224307   -8.4080306    730.91839  0.012312485  0.010705438            3 
 4948000   0.46174162   -8.3993459    731.46654  0.012319229  0.010702019            3 
 4949000   0.45714808   -8.4253622    730.91372  0.012307431    0.0106986            3 
 4950000   0.45935994   -8.4243599     731.5229    0.0123152  0.010695185            2 
 4951000   0.45785246   -8.4173231    731.32908  0.012309451  0.010691771            2 
 4952000   0.45830882   -8.4228297    732.44476   0.01232574  0.010688359            4 
 4953000   0.46610753   -8.4087525    731.04064  0.012299627  0.010684948            2 
 4954000   0.45673492   -8.4241383    731.43499  0.012303778  0.010681537            4 
 4955000   0.45664782   -8.4157459    730.17333  0.012280076   0.01067813            4 
 4956000    0.4602573   -8.4032631    732.09914   0.01230998  0.010674725            7 
 4957000   0.46270647   -8.4134362    731.01938  0.012289345  0.010671319            4 
 4958000    0.4607691   -8.4129391     730.7702  0.012282678  0.010667911            5 
 4959000   0.45672066   -8.4081713    731.55318  0.012293359  0.010664508            4 
 4960000   0.45880626   -8.4108499    731.44982  0.012289144  0.010661103            5 
 4961000   0.46166664   -8.3993241     731.1074  0.012280914  0.010657703            5 
 4962000   0.46038801   -8.4243697    731.52564  0.012285464  0.010654303            4 
 4963000   0.44748459   -8.4085936    731.81292  0.012287812  0.010650905            3 
 4964000   0.46150925   -8.4273544    730.98889  0.012271503  0.010647508            6 
 4965000   0.45137875   -8.4176206    730.69159  0.012264041  0.010644111            5 
 4966000   0.45999236   -8.4300924    731.46201    0.0122745  0.010640713            5 
 4967000   0.46193707   -8.4135151    731.09432   0.01226586  0.010637321            5 
 4968000    0.4633178   -8.4161824    730.52683  0.012253872   0.01063393            5 
 4969000   0.45676046   -8.4136546     731.0074  0.012259465  0.010630539            4 
 4970000   0.45137089    -8.414773    730.65921  0.012251161   0.01062715            5 
 4971000   0.45774007   -8.4056491    730.58806  0.012247503  0.010623761            5 
 4972000   0.45252292   -8.4185924     730.4379  0.012242523  0.010620372            4 
 4973000   0.45578245   -8.4157483    731.22195    0.0122532  0.010616987            3 
 4974000   0.47080999   -8.4310373     729.9344  0.012229165    0.0106136            4 
 4975000   0.45545717   -8.4265297    730.00671  0.012227918  0.010610219            5 
 4976000   0.45297949   -8.4200828    730.78398  0.012238478  0.010606837            3 
 4977000   0.45667671   -8.4275492     730.3061  0.012228017  0.010603456            3 
 4978000   0.45411635   -8.4222112    729.72169  0.012215778  0.010600078            3 
 4979000    0.4475504   -8.4188768    731.22384  0.012238466  0.010596702            6 
 4980000   0.45481561   -8.4144298    730.17896  0.012218523  0.010593326            2 
 4981000   0.45482496   -8.4222481    730.68166  0.012224481  0.010589948            4 
 4982000   0.45315206   -8.4069355    730.47995  0.012218653  0.010586575            4 
 4983000   0.46087173   -8.4223628      730.123  0.012210231  0.010583202            6 
 4984000   0.44820227   -8.4122644    730.66277  0.012216807  0.010579834            5 
 4985000   0.44856022   -8.4163661    730.55823  0.012212608  0.010576463            6 
 4986000   0.44652664   -8.4191059    730.29223  0.012205713  0.010573094            3 
 4987000   0.44833841    -8.429535    731.15839  0.012217739  0.010569725            7 
 4988000   0.45664811   -8.4247259    730.43952   0.01220328  0.010566358            4 
 4989000   0.44987888   -8.4372746    730.25785  0.012197799  0.010562994            4 
 4990000   0.44662374   -8.4192861    730.01484  0.012191297  0.010559632           10 
 4991000   0.45623454   -8.4229551    731.53071  0.012214164  0.010556272            5 
 4992000   0.44902931    -8.414683    730.55801   0.01219548  0.010552912            7 
 4993000   0.45889819   -8.4319696    730.05844  0.012184699  0.010549554            6 
 4994000   0.45093217   -8.4141258    730.19006  0.012184456  0.010546196            7 
 4995000   0.45938479   -8.4271122    731.02079  0.012195876   0.01054284            3 
 4996000   0.46831837    -8.430188    731.20021  0.012196427  0.010539484            4 
 4997000   0.44975463   -8.4257607    731.48935  0.012198808   0.01053613            4 
 4998000    0.4582963   -8.4350358    730.86043  0.012185882  0.010532778            4 
 4999000   0.43891754   -8.4268264    730.28196  0.012173801  0.010529427            3 
 5000000     0.456095   -8.4381566    729.34664  0.012155777  0.010526077            7 
 5001000   0.44548987   -8.4387879    730.31964   0.01216956  0.010522727            4 
 5002000   0.44816792   -8.4302056    730.15593    0.0121644  0.010519379            2 
 5003000   0.44992194   -8.4174061    729.85332  0.012156928  0.010516031            3 
 5004000   0.45087089   -8.4190817    730.75064  0.012169442  0.010512689            2 
 5005000    0.4482841   -8.4164133    731.23952   0.01217515  0.010509347            7 
 5006000   0.44579041   -8.4254089     730.3006  0.012157088  0.010506005            3 
 5007000   0.45383535   -8.4374475    730.94688  0.012165416  0.010502665            6 
 5008000   0.45050158   -8.4198053    730.77849  0.012160185  0.010499327            4 
 5009000   0.44287467   -8.4189122    730.51179   0.01215332  0.010495988            7 
 5010000    0.4514483   -8.4159487    730.49412  0.012150601  0.010492651            3 
 5011000   0.44216892   -8.4347165    731.72017  0.012168565  0.010489314            4 
 5012000   0.45592446   -8.4417981    730.00956  0.012137695  0.010485982            3 
Loop time of 11672.9 on 48 procs for 5000000 steps with 4000 atoms

Performance: 74017.718 tau/day, 428.343 timesteps/s
99.4% CPU use with 48 MPI tasks x no OpenMP threads

MPI task timing breakdown:
Section |  min time  |  avg time  |  max time  |%varavg| %total
---------------------------------------------------------------
Pair    | 737.67     | 785.49     | 835.21     |  85.3 |  6.73
Neigh   | 76.414     | 79.678     | 83.519     |  21.2 |  0.68
Comm    | 735.22     | 782.28     | 834.4      |  94.3 |  6.70
Output  | 13.459     | 13.464     | 13.556     |   0.4 |  0.12
Modify  | 9896.2     | 9909.6     | 9924.2     |   7.1 | 84.89
Other   |            | 102.3      |            |       |  0.88

Nlocal:        83.3333 ave          92 max          77 min
Histogram: 2 3 6 8 13 7 4 4 0 1
Nghost:        1981.08 ave        2000 max        1959 min
Histogram: 2 1 7 8 3 3 8 10 3 3
Neighs:        12702.8 ave       14229 max       11137 min
Histogram: 1 3 6 8 6 7 8 3 4 2
FullNghs:      25405.5 ave       27892 max       23322 min
Histogram: 4 0 6 10 9 9 4 4 1 1

Total # of neighbors = 1219464
Ave neighs/atom = 304.86600
Neighbor list builds = 268245
Dangerous builds = 0

#clear
#
#next RN
#
#jump SELF
Total wall time: 3:14:35
