
units lj                  # Use reduced LJ style units
atom_style atomic         # Uncharged point particles
atom_modify map hash      # Needed for indexing of clusters etc
                          # Used to be able to find where atoms are in relation to each other.

lattice fcc 1.0 spacing 1 1 1
Lattice spacing in x,y,z = 1.5874011 1.5874011 1.5874011
region box block 0 10 0 10 0 10 units lattice
create_box 2 box
Created orthogonal box = (0.0000000 0.0000000 0.0000000) to (15.874011 15.874011 15.874011)
  3 by 4 by 4 MPI processor grid
create_atoms 1 box
Created 4000 atoms
  using lattice units in orthogonal box = (0.0000000 0.0000000 0.0000000) to (15.874011 15.874011 15.874011)
  create_atoms CPU = 0.002 seconds
set type 1 type/fraction 2 0.44 78393
Setting atom values ...
  1760 settings made for type/fraction
mass 1 1.0
mass 2 1.0
pair_style lj/cut  3.5
pair_modify tail  yes
pair_coeff 1  1  1.0  1.0   # Intearaction between 1 and 1 set with epsilon = 1 and sigma = 1
pair_coeff 1  2  1.5  0.8
pair_coeff 2  2  0.5  0.88

write_data data.0
System init for write_data ...
Neighbor list info ...
  update every 1 steps, delay 10 steps, check yes
  max neighbors/atom: 2000, page size: 100000
  master list distance cutoff = 3.8
  ghost atom cutoff = 3.8
  binsize = 1.9, bins = 9 9 9
  1 neighbor lists, perpetual/occasional/extra = 1 0 0
  (1) pair lj/cut, perpetual
      attributes: half, newton on
      pair build: half/bin/atomonly/newton
      stencil: half/bin/3d
      bin: standard
WARNING: Not all mixed pair coeffs generated from mixing. Use write_data with 'pair ij' option to store all pair coeffs. (../write_data.cpp:312)


#############################
#   M E L T   S Y S T E M   #
#############################

velocity all create 2.4 9580093 mom yes dist gaussian # Assign velocities
                                                    # Temperature 2.4, random number seed, zero linear momentum
                                                                                # Gaussian distribution

timestep 0.002   # simulation timestep
thermo 1000       # output thermodynamic data every 1000 steps bf 100

# Define a fix  in this case with index 1 applied to all
# particles in the simulation. This fix is for simulations
# in the anisotropic NPT ensemble. Note that we use the MTK
# correction.
fix 1 all npt temp 2.4 2.4 0.1 iso 5.68 5.68 0.5 mtk yes tchain 5 pchain 5 # Use NPT ensemble
                                                                         # Set temperature and pressure and damping
                                                                         # Numbers of thermostats in chain and in barostat
run 10000          # run for 10000 steps
Per MPI rank memory allocation (min/avg/max) = 3.642 | 3.644 | 3.648 Mbytes
Step Temp E_pair E_mol TotEng Press Volume 
       0          2.4   -5.6445478            0   -2.0454478   -4.2010474         4000 
    1000    2.4161376   -4.9976553            0   -1.3743551    5.6134386    3814.2716 
    2000      2.38389   -4.9818799            0   -1.4069388     5.708731    3807.0119 
    3000    2.3782699   -4.9965906            0   -1.4300775    5.6583815     3808.655 
    4000    2.4061008   -5.0473746            0   -1.4391257    5.3083253    3808.3646 
    5000    2.3735725    -5.070759            0   -1.5112904    5.3509605    3798.6593 
    6000    2.3867041    -5.018833            0   -1.4396719    5.6789175     3795.977 
    7000    2.4368073   -4.9546617            0   -1.3003645    5.6370037    3827.3477 
    8000     2.407904   -5.0144123            0   -1.4034592    5.8349389    3790.9391 
    9000    2.4002495   -5.0194688            0   -1.4199947    6.0216093    3777.9609 
   10000    2.3998322   -5.0749714            0    -1.476123    5.6898578    3768.0035 
Loop time of 2.5844 on 48 procs for 10000 steps with 4000 atoms

Performance: 668626.715 tau/day, 3869.368 timesteps/s
99.6% CPU use with 48 MPI tasks x no OpenMP threads

MPI task timing breakdown:
Section |  min time  |  avg time  |  max time  |%varavg| %total
---------------------------------------------------------------
Pair    | 1.1627     | 1.2176     | 1.3479     |   3.1 | 47.11
Neigh   | 0.2128     | 0.21928    | 0.23788    |   0.9 |  8.48
Comm    | 0.73742    | 0.87632    | 0.96759    |   4.6 | 33.91
Output  | 0.00025084 | 0.00025531 | 0.00033006 |   0.0 |  0.01
Modify  | 0.2136     | 0.25533    | 0.28666    |   3.9 |  9.88
Other   |            | 0.01564    |            |       |  0.61

Nlocal:        83.3333 ave          94 max          77 min
Histogram: 3 9 7 5 10 11 1 1 0 1
Nghost:        1706.94 ave        1741 max        1680 min
Histogram: 1 3 9 5 10 10 8 0 1 1
Neighs:        10124.5 ave       11574 max        9182 min
Histogram: 8 4 5 8 6 6 7 3 0 1

Total # of neighbors = 485976
Ave neighs/atom = 121.49400
Neighbor list builds = 902
Dangerous builds = 186

# Equilibrate just above the melting temperature to avoid step fn in T

fix 1 all npt temp 1.25 1.25 0.1 iso 5.68 5.68 0.5 mtk yes tchain 5 pchain 5
run 2000
Per MPI rank memory allocation (min/avg/max) = 3.643 | 3.645 | 3.649 Mbytes
Step Temp E_pair E_mol TotEng Press Volume 
   10000    2.3998322   -5.0749714            0    -1.476123    5.6898578    3768.0035 
   11000    1.2677061   -7.0621583            0   -5.1610746    5.5252709    3002.2353 
   12000    1.2415348   -7.1409262            0   -5.2790896    5.5748098    2977.9233 
Loop time of 0.635996 on 48 procs for 2000 steps with 4000 atoms

Performance: 543399.297 tau/day, 3144.672 timesteps/s
99.6% CPU use with 48 MPI tasks x no OpenMP threads

MPI task timing breakdown:
Section |  min time  |  avg time  |  max time  |%varavg| %total
---------------------------------------------------------------
Pair    | 0.28085    | 0.30698    | 0.34614    |   2.3 | 48.27
Neigh   | 0.039962   | 0.042419   | 0.048499   |   0.7 |  6.67
Comm    | 0.19502    | 0.23561    | 0.2634     |   3.0 | 37.05
Output  | 5.4685e-05 | 5.5991e-05 | 7.1617e-05 |   0.0 |  0.01
Modify  | 0.040052   | 0.04591    | 0.051069   |   1.4 |  7.22
Other   |            | 0.005019   |            |       |  0.79

Nlocal:        83.3333 ave          93 max          77 min
Histogram: 5 4 4 12 4 11 5 2 0 1
Nghost:        2008.56 ave        2033 max        1984 min
Histogram: 1 3 4 7 9 10 5 5 3 1
Neighs:        12844.2 ave       14265 max       11398 min
Histogram: 2 2 3 7 10 11 6 1 4 2

Total # of neighbors = 616520
Ave neighs/atom = 154.13000
Neighbor list builds = 142
Dangerous builds = 13

#############################
# L I N E A R  Q U E N C H  #
#############################

# Define solid atoms. This closely follows ten Wolde  Ruiz-Montero and Frenkel  Faraday Discuss  1996  104  93-110
# Compute components of the per-atom q6 vector
compute q6 all orientorder/atom degrees 1 6 components 6 nnn NULL cutoff 1.3 # compute the Q6 parameter.
                                                                             # Use all neighbours within 1.3 unit cell.

# get number of connections
compute coord_number all coord/atom orientorder q6 0.5

# An atom is solid if it has 8 or more connections (of a possible 14)
variable is_solid atom c_coord_number>=8
group solid dynamic all var is_solid    # Must be dynamic to update
dynamic group solid defined

# do clustering
compute cluster solid cluster/atom 1.3 # Create a cluster where all atoms within are solid and max 1.3 units from another member

# define chunks one chunk per cluster
compute clus_chunks solid chunk/atom c_cluster nchunk every compress yes  # Says which atoms are in which chunk

# count the size of each chunk
compute size_chunks solid property/chunk clus_chunks count


# Find the maximum entry in the vector of chunk sizes
variable max_n equal max(c_size_chunks)


# Thermo style which includes this variable
# thermo_style custom step temp pe vol v_max_n

thermo ${N}  # Print the thermo information every 100 steps
thermo 1000  

# Reset the npt fix at a lower temperature (below freezing)
fix 1  all npt temp  ${temp} ${temp}  0.1  iso  5.68  5.68  0.5  mtk yes tchain  5  pchain  5
fix 1  all npt temp  0.45 ${temp}  0.1  iso  5.68  5.68  0.5  mtk yes tchain  5  pchain  5
fix 1  all npt temp  0.45 0.45  0.1  iso  5.68  5.68  0.5  mtk yes tchain  5  pchain  5

dump dmp2 all dcd ${N} traj.dcd
dump dmp2 all dcd 1000 traj.dcd


compute msd all msd com yes
variable twopoint equal c_msd[4]/6/(step*dt+1.0e-6)
fix 9 all vector 10 c_msd[4]
variable fit equal slope(f_9)/6/(10*dt)
thermo_style custom step temp pe c_msd[4] v_twopoint v_fit v_max_n

fix 1 all npt temp 1.25 ${temp} 0.1 iso 5.68 5.68 0.5 mtk yes tchain 5 pchain 5
fix 1 all npt temp 1.25 0.45 0.1 iso 5.68 5.68 0.5 mtk yes tchain 5 pchain 5
run 5000000 # 5000000  # Run for this many steps
Neighbor list info ...
  update every 1 steps, delay 10 steps, check yes
  max neighbors/atom: 2000, page size: 100000
  master list distance cutoff = 3.8
  ghost atom cutoff = 3.8
  binsize = 1.9, bins = 8 8 8
  4 neighbor lists, perpetual/occasional/extra = 1 3 0
  (1) pair lj/cut, perpetual
      attributes: half, newton on
      pair build: half/bin/atomonly/newton
      stencil: half/bin/3d
      bin: standard
  (2) compute orientorder/atom, occasional
      attributes: full, newton on
      pair build: full/bin/atomonly
      stencil: full/bin/3d
      bin: standard
  (3) compute coord/atom, occasional
      attributes: full, newton on
      pair build: full/bin/atomonly
      stencil: full/bin/3d
      bin: standard
  (4) compute cluster/atom, occasional
      attributes: full, newton on
      pair build: full/bin/atomonly
      stencil: full/bin/3d
      bin: standard
Per MPI rank memory allocation (min/avg/max) = 9.832 | 9.837 | 9.842 Mbytes
Step Temp PotEng c_msd[4] v_twopoint v_fit v_max_n 
   12000    1.2415348   -7.1409262 5.9164568e-34 4.1086504e-36 8.3333333e+20            1 
   13000     1.262681   -7.1446318   0.48675196 0.0031202047  0.039790174            1 
   14000    1.2448654   -7.1085983    0.9029074 0.0053744486  0.036746667            2 
   15000    1.2604832   -7.1357088    1.3297473 0.0073874848  0.035649837            1 
   16000    1.2318283   -7.1427267    1.7530541 0.0091304897  0.035768115            1 
   17000    1.2683338   -7.1374828    2.1388734  0.010484673  0.035337405            3 
   18000    1.2619536   -7.1431826    2.6446131  0.012243579  0.035490604            2 
   19000    1.2359097   -7.1379178    3.1443647  0.013791073  0.036113134            2 
   20000    1.2680007   -7.0935638    3.5264008  0.014693336  0.036509541            1 
   21000    1.2667458   -7.1416177    3.9690849  0.015750336  0.036440655            1 
   22000    1.2142604   -7.1663988    4.3803382   0.01659219  0.036408562            2 
   23000    1.2298404   -7.1307147    4.7909019   0.01735834  0.036288002            2 
   24000    1.2200434   -7.0963067    5.1916985   0.01802673   0.03615621            2 
   25000    1.2329983   -7.1697699    5.6059901  0.018686633  0.035995571            1 
   26000    1.2567459   -7.1266421    6.0065455  0.019251748  0.035813094            1 
   27000    1.2099926    -7.189136    6.4456605  0.019894014  0.035719039            4 
   28000    1.2375493   -7.0997359    6.8878479  0.020499547  0.035678266            1 
   29000    1.2578277   -7.1634428    7.3547673  0.021134388  0.035707142            2 
   30000    1.2466713   -7.1409366    7.7374534  0.021492926  0.035707727            2 
   31000    1.2644038   -7.1717739    8.2068149   0.02206133  0.035688908            1 
   32000    1.2565549   -7.1466009    8.6272749  0.022466861  0.035677442            1 
   33000    1.2671469   -7.1674031    9.1884202  0.023203081  0.035777316            2 
   34000    1.2631536   -7.1256926    9.4994972  0.023283081  0.035815922            1 
   35000    1.2236131   -7.2102637    9.8092026  0.023355244  0.035720572            1 
   36000    1.2376147   -7.0962551    10.257107  0.023743303  0.035655675            1 
   37000    1.2389039   -7.1887063    10.705097  0.024110578   0.03564181            2 
   38000    1.2599538   -7.1142448    11.230033  0.024627266  0.035631178            1 
   39000    1.2570481   -7.1495779    11.639489  0.024870702    0.0356739            2 
   40000     1.235553   -7.1655898    12.069802  0.025145421  0.035664461            2 
   41000    1.2362946   -7.1380773    12.459606  0.025324403  0.035649176            1 
   42000    1.2429706   -7.1621501    12.819914  0.025436337    0.0356094            1 
   43000     1.266255   -7.1534729    13.253899  0.025685851   0.03555464            2 
   44000    1.2270781   -7.1549161    13.632925  0.025819933  0.035522368            1 
   45000    1.2440295   -7.1210489    14.113149   0.02613546  0.035502179            3 
   46000    1.2499173   -7.1555847    14.462687  0.026200519  0.035492646            1 
   47000     1.245057   -7.1198331    14.942763  0.026494261  0.035472618            2 
   48000    1.2322512   -7.1554815    15.349761  0.026648891  0.035451869            3 
   49000    1.2418499   -7.1825742     15.73856  0.026766259  0.035425111            2 
   50000    1.2398824   -7.1691718    16.155192   0.02692532  0.035392037       -1e+20 
   51000    1.2112119   -7.1438917    16.659567  0.027221514  0.035386593            1 
   52000    1.2508811   -7.1830775    16.968514  0.027193132   0.03536741            3 
   53000    1.2555899   -7.1604684    17.467984  0.027465384  0.035356085            2 
   54000    1.2316742   -7.1160336    17.933332  0.027674895  0.035351045            1 
   55000    1.2538819   -7.1440415    18.454158  0.027960845  0.035363267            2 
   56000     1.251971   -7.1518777    18.761565  0.027918996  0.035368948            6 
   57000    1.2324212   -7.1274139    19.189944  0.028055474  0.035372821            1 
   58000    1.2433253   -7.1776148    19.522599  0.028049711  0.035359632            2 
   59000    1.2279465   -7.2116429    19.895652  0.028101203  0.035337798            2 
   60000    1.2407977   -7.1211946    20.323493  0.028227074   0.03531511            2 
   61000    1.2386042   -7.1750349      20.7199  0.028305875  0.035275568            3 
   62000    1.2443879   -7.1589434    21.188426  0.028479067  0.035251398            2 
   63000    1.2735063   -7.1675037    21.548966  0.028503924   0.03523864            2 
   64000    1.2651765   -7.2017385    21.997051  0.028641993  0.035219318            2 
   65000    1.2338565   -7.2055684    22.366283  0.028674721  0.035210228            1 
   66000    1.2535417   -7.2020046    22.747692  0.028721833   0.03517851            2 
   67000    1.2378713   -7.1479632    23.084817  0.028712459   0.03513426            1 
   68000    1.2503955   -7.1616493    23.430355   0.02871367  0.035086193            2 
   69000    1.2609655   -7.1501726    23.913356  0.028880865  0.035045957            2 
   70000    1.2311623   -7.1737449     24.26022  0.028881214  0.035019323            2 
   71000    1.2255902   -7.1077351    24.817583  0.029128618  0.034983823            1 
   72000    1.2488548   -7.2203827    25.174703  0.029137387  0.034961574            2 
   73000    1.2013394   -7.1405148    25.675344  0.029309753  0.034934292            1 
   74000    1.2289988   -7.1328349    25.956584  0.029230387  0.034905659            1 
   75000    1.2159766   -7.1849395    26.330868  0.029256519  0.034882567            2 
   76000    1.2224585   -7.1175015    26.799854  0.029385804  0.034863417            1 
   77000    1.2615321   -7.1536161    27.117887  0.029348363  0.034830623            2 
   78000    1.2290841   -7.1813037    27.457387  0.029334815  0.034798987            1 
   79000    1.2499845   -7.2084486     27.86123  0.029389483  0.034767504            3 
   80000    1.2185721   -7.1356171    28.552835  0.029742536  0.034742824            2 
   81000    1.2604428   -7.1387827    28.911141  0.029743972  0.034731906            4 
   82000    1.2510145   -7.1363355    29.420487  0.029898868  0.034722931            1 
   83000    1.2496388   -7.1748547    29.700036  0.029819313   0.03471071            3 
   84000     1.272234    -7.156043    30.053932  0.029815409  0.034702161            1 
   85000    1.2438731   -7.1755039    30.316281  0.029721844   0.03467859            1 
   86000    1.2370077   -7.1224299    30.955604   0.02999574  0.034656324            1 
   87000    1.2270795   -7.1376295    31.479444  0.030152724  0.034644532            2 
   88000    1.2758357   -7.1603287    32.043168  0.030343909  0.034646352            2 
   89000    1.2403579   -7.1781351    32.306723  0.030249741   0.03465419            4 
   90000    1.2337855   -7.1641445    32.675888  0.030255452  0.034648093            2 
   91000     1.251141   -7.1632788    33.028849  0.030246199  0.034639638            2 
   92000    1.2573085   -7.1544591    33.592426  0.030427922  0.034645374            3 
   93000    1.2528587   -7.1903724    33.904108  0.030380025  0.034641358            1 
   94000     1.239877   -7.1878198    34.109619  0.030239024  0.034632228            1 
   95000    1.2272587   -7.1672969    34.437859  0.030208648  0.034609508            2 
   96000    1.2110107   -7.1371193    34.788543  0.030198388  0.034586408            2 
   97000    1.2536252   -7.1573529    35.223092  0.030260388  0.034560141            2 
   98000    1.2189058   -7.1790074    35.537656  0.030219095   0.03452981            2 
   99000     1.239898   -7.1822954    36.004277   0.03030663  0.034499019            2 
  100000    1.2272531   -7.2092009    36.470526  0.030392105  0.034486701            1 
  101000    1.2577465   -7.2007155    36.868076  0.030419204  0.034474304            1 
  102000    1.2309109   -7.1713268    37.278033  0.030455909  0.034451122            2 
  103000    1.2363793   -7.1419317     37.55397  0.030383471  0.034427277            3 
  104000    1.2561284   -7.1659827    37.725754  0.030228969  0.034399026            4 
  105000    1.2276521   -7.1264374    38.079772  0.030222041  0.034361696            1 
  106000    1.2197254   -7.1763537    38.285247  0.030098464  0.034313784            1 
  107000    1.2402478   -7.1543305    38.766194   0.03019174  0.034271133            2 
  108000    1.2349602   -7.1907173    38.915151  0.030027122  0.034224916            4 
  109000    1.2481527   -7.2027731    39.516565  0.030211441  0.034182417            2 
  110000    1.2297437   -7.1656894    39.912129  0.030236461  0.034145771            3 
  111000    1.2164352   -7.2013176    40.148368  0.030141417  0.034104649            3 
  112000    1.2434052   -7.1930973    40.779163  0.030341639  0.034065446            2 
  113000    1.2260099   -7.2017152    40.938355  0.030190527   0.03403401            2 
  114000    1.2154619   -7.1796705    41.536902  0.030363232   0.03400124            1 
  115000    1.2441402   -7.1950925    41.811604  0.030298263  0.033966791            3 
  116000    1.2411485   -7.1439893     42.28581  0.030377737  0.033934536            3 
  117000    1.2584684   -7.1383804    42.749863  0.030448621  0.033903454            1 
  118000    1.2328647   -7.1930449     43.10298  0.030439958  0.033882593            2 
  119000    1.1926745   -7.2000797    43.449286   0.03042667  0.033855593            1 
  120000    1.2213649   -7.1904704    43.970872  0.030535328  0.033836158            2 
  121000    1.2397062   -7.1927721     44.63879  0.030742968  0.033822326            1 
  122000    1.2345415    -7.208688    44.850575  0.030635639  0.033811477            3 
  123000    1.2189913   -7.2171225    45.349283  0.030724446  0.033806109            3 
  124000    1.2304981   -7.1987135     45.72041  0.030726082   0.03379818            1 
  125000     1.221206   -7.2028666    46.074315   0.03071621  0.033785827            2 
  126000    1.2376426   -7.1499141    46.738012  0.030911383  0.033778907            2 
  127000    1.2047781   -7.2045187    47.121947  0.030919913  0.033777646            2 
  128000    1.2404307   -7.1338595    47.618719   0.03100177  0.033773508            2 
  129000    1.2466585   -7.1864737    47.854952  0.030914052   0.03376774            2 
  130000    1.2404086   -7.1496411    48.560328  0.031128415  0.033767652            1 
  131000    1.2437127   -7.2025733    48.741793   0.03100623  0.033766417            1 
  132000    1.2186212   -7.2055444    49.139895  0.031022661  0.033764193            1 
  133000    1.2202738   -7.2172218    49.331943  0.030909739    0.0337571            2 
  134000    1.2020433   -7.1894482    49.833515  0.030990992  0.033753177            3 
  135000    1.2465188   -7.1848254     50.29135  0.031044043  0.033748787            5 
  136000    1.2244589   -7.2072027    50.669231  0.031047323  0.033746148            1 
  137000      1.23476   -7.1771892    51.127383  0.031099381  0.033743156            1 
  138000    1.2113607   -7.1707194    51.408183  0.031043589  0.033736975            1 
  139000      1.21392    -7.182958    51.659712   0.03097105  0.033727258            6 
  140000     1.247814   -7.1702572    52.036211  0.030973935  0.033718536            1 
  141000    1.2154442   -7.1914706    52.202011  0.030852252  0.033703522            1 
  142000    1.2408007   -7.1953359    52.860031  0.031021145  0.033690303            2 
  143000     1.261966   -7.2167913    52.983977  0.030876443   0.03367619            1 
  144000    1.2192801   -7.1918531    53.466543  0.030941286  0.033662122            1 
  145000    1.2161909   -7.1679147    53.676036  0.030848297  0.033645386            2 
  146000    1.2270542   -7.1932146    54.104033  0.030881297  0.033628904            2 
  147000    1.2038783   -7.1898157    54.482783  0.030885931  0.033611109            2 
  148000    1.2521829   -7.1689421    55.044004  0.030993245  0.033597846            1 
  149000     1.212722   -7.1996819    55.597339  0.031094708  0.033584196            1 
  150000    1.2287504   -7.1258658    55.928859  0.031071588  0.033569872            4 
  151000    1.2176878   -7.1858447    56.021099  0.030916721  0.033554794            1 
  152000    1.2301606   -7.2238552    56.425885  0.030935244  0.033537912            2 
  153000    1.2228233   -7.1774555    56.629728  0.030844079  0.033519262            1 
  154000    1.2316573   -7.2040659    56.908279  0.030794523  0.033497958            1 
  155000    1.2264089   -7.2142633    57.259924  0.030784905  0.033476859            1 
  156000    1.2199056    -7.184239    57.820706  0.030887129  0.033457398            1 
  157000    1.2265772   -7.1729031    58.336253  0.030964041  0.033439888            2 
  158000    1.2265517    -7.213841     58.65324  0.030935253  0.033424634            2 
  159000    1.2156469   -7.1523395    59.266528  0.031062121  0.033411795            1 
  160000    1.2308774   -7.1892465    59.382688  0.030928483  0.033398501            2 
  161000    1.2446591    -7.187973    59.679343  0.030889929   0.03338109            1 
  162000    1.2113945   -7.1850828    59.963483  0.030845413  0.033362106            1 
  163000    1.2144894   -7.2258168     60.26023  0.030807889  0.033339467            2 
  164000    1.2368028    -7.223936    60.651659  0.030818932  0.033319235            1 
  165000    1.2390197   -7.1860545    60.971748  0.030793812  0.033298439            1 
  166000    1.2015384   -7.1813939    61.470203  0.030858535  0.033276838            2 
  167000    1.2165943   -7.1710171    62.036827    0.0309565  0.033258108            2 
  168000     1.231125   -7.1847948    62.279962  0.030892838  0.033241739            1 
  169000    1.2317514   -7.2086498    62.368616  0.030753755  0.033223071            1 
  170000    1.2024402   -7.1897251    62.835175  0.030801556  0.033199889            1 
  171000    1.2127388   -7.1668997    63.353701  0.030874123  0.033176895            2 
  172000    1.1978465   -7.2165034    63.214095  0.030626984  0.033151224            1 
  173000    1.2304489   -7.1548986    63.876975  0.030769256  0.033125825            3 
  174000    1.2141459   -7.2095533    64.181733  0.030738378  0.033104685            2 
  175000    1.2028588   -7.1918209    64.620328  0.030771585   0.03308547            1 
  176000    1.2139344   -7.1842756    64.944816  0.030750386  0.033066265            1 
  177000    1.2421193   -7.1803437    65.529803  0.030852073   0.03304648            1 
  178000    1.2070795   -7.1867942    65.662968   0.03074109  0.033028528            2 
  179000    1.2358567    -7.201004    66.355055  0.030891553  0.033010038            3 
  180000    1.2344235   -7.2132405    66.459351  0.030768218  0.032991988            2 
  181000    1.2238665   -7.2150722    66.817506  0.030763124  0.032973089            1 
  182000    1.2086052   -7.1782252    67.353413  0.030839475  0.032955739            1 
  183000    1.1878208   -7.1746867    67.351852  0.030670242  0.032937837            3 
  184000    1.2254162   -7.2161243    67.817527   0.03071446   0.03291664            2 
  185000    1.2463431   -7.1916724    68.427024  0.030822984  0.032897864            2 
  186000    1.2324712   -7.1943361    68.693478  0.030776648  0.032879394            2 
  187000    1.2104899   -7.2193672    69.115059  0.030799937  0.032861483            2 
  188000    1.2299577   -7.2015126    69.628897  0.030863873  0.032844047            2 
  189000    1.2101658   -7.1839113    70.162643  0.030935909  0.032827567            2 
  190000    1.2334246   -7.2369308    70.068128  0.030731635  0.032812278            2 
  191000    1.2150499   -7.2569544    70.449135   0.03073697  0.032795426            1 
  192000     1.204488   -7.2176455     70.81463  0.030735517  0.032777342            2 
  193000    1.2282876    -7.171222    71.289204  0.030781176  0.032759338            1 
  194000    1.2066587   -7.2158324    71.601894  0.030756827  0.032743189            2 
  195000    1.2369882   -7.1998137    72.292582  0.030894266  0.032730975            1 
  196000    1.2443584   -7.1952814    72.889191  0.030990302  0.032719467            1 
  197000    1.2247203   -7.2471268    72.867939  0.030824001  0.032709645            2 
  198000    1.2280077   -7.2198543    73.566653  0.030962396  0.032697126            1 
  199000    1.2050031   -7.1766173    73.937471   0.03096209  0.032684852            2 
  200000    1.2279214   -7.2004566    74.545807  0.031060753  0.032673803            3 
  201000    1.2375161   -7.2193463    74.596756  0.030927345  0.032663686            1 
  202000    1.2291694    -7.204271    74.858745   0.03088232  0.032653768            1 
  203000    1.2054389   -7.2116243    75.557837  0.031017174  0.032643259            1 
  204000    1.2204985   -7.1988925    75.808125  0.030967371  0.032635334            1 
  205000    1.2343582   -7.2167981    76.331793  0.031029184   0.03262772            1 
  206000    1.2256104   -7.2571379    76.377571  0.030897076  0.032619862            2 
  207000    1.2305598   -7.1960759    77.020029  0.031006453  0.032610417            2 
  208000    1.2124526   -7.1981211    77.275049  0.030959555  0.032600933            1 
  209000    1.2283828   -7.1809014    77.737419  0.030995781  0.032591958            2 
  210000    1.2308454   -7.1803504    78.309257  0.031075102  0.032581932            4 
  211000    1.2264178   -7.2330456    78.281622  0.030916912  0.032573023            1 
  212000    1.2295785   -7.2246292    78.991389  0.031050074  0.032566632            2 
  213000    1.2310495   -7.2093744    79.550712  0.031123127  0.032561441            1 
  214000    1.2223386   -7.1924018    79.704144  0.031037439  0.032554995            2 
  215000    1.2221779   -7.2370838    79.829103  0.030941513  0.032546494            1 
  216000    1.2238955   -7.2230699    80.416736  0.031024975  0.032539332            1 
  217000     1.234802   -7.1959768    80.710988  0.030995003  0.032531513            1 
  218000    1.2086376   -7.2244093    81.045725  0.030980782  0.032524348            1 
  219000     1.207231   -7.2460778    81.503919  0.031013668  0.032515421            1 
  220000    1.2021242   -7.2200641    82.147221  0.031116372  0.032507626            1 
  221000    1.2056049   -7.2469236    81.856449  0.030865931  0.032499367            1 
  222000    1.2114711   -7.2278121    82.496747  0.030967247  0.032487518            1 
  223000    1.1887965    -7.205018     82.89878  0.030978617  0.032476102            1 
  224000    1.2417787   -7.2442854    83.019368  0.030885182   0.03246803            1 
  225000    1.2175847   -7.1827491    83.639969  0.030977766  0.032457929            2 
  226000    1.2277338   -7.2635469    83.924705  0.030945687   0.03244846            3 
  227000    1.1927696   -7.2279832    84.237468   0.03092418  0.032439561            1 
  228000    1.1945045   -7.2417019    84.734339  0.030970153  0.032430578            1 
  229000    1.2449795   -7.2496296    85.139183  0.030982235  0.032424061            1 
  230000    1.2010937   -7.2117131    85.750512  0.031069026  0.032416473            1 
  231000    1.2402671   -7.2028885    86.012182  0.031028926  0.032409966            3 
  232000    1.2162763   -7.2571114     86.26557  0.030986196  0.032403236            1 
  233000    1.2257127   -7.2094853    86.596837  0.030971687  0.032395164            2 
  234000    1.2003271   -7.2557247    86.800739  0.030911944   0.03238604            1 
  235000    1.2225867   -7.2265732    87.596151  0.031062465   0.03238026            2 
  236000    1.2132903   -7.2257507    88.131045  0.031119719  0.032374155            2 
  237000    1.2239798   -7.2582498    88.347563  0.031064544  0.032370789            2 
  238000    1.2093227   -7.2631057    88.826353  0.031101664  0.032367922            1 
  239000    1.2089457   -7.1873869    89.742448  0.031290951  0.032364294            1 
  240000    1.1931137   -7.2297526    89.612906  0.031115592  0.032361019            2 
  241000    1.2036061   -7.1692834    90.467155  0.031281865  0.032357261            4 
  242000     1.225001   -7.2169746    90.075111    0.0310176  0.032353562            1 
  243000    1.1948001   -7.2058225    90.417191  0.031007267  0.032347933            1 
  244000    1.2183096   -7.2109143    90.924957  0.031053605  0.032340854            2 
  245000    1.2225724    -7.203086    91.529726   0.03113256  0.032335015            1 
  246000    1.2095882   -7.2187659    91.167094  0.030883162  0.032329192            2 
  247000    1.2020209   -7.2354482      92.2474  0.031122605  0.032322028            5 
  248000     1.186403   -7.2338747    92.801234   0.03118321  0.032317301            1 
  249000    1.1981782   -7.2030787    93.589454  0.031321772  0.032314366            2 
  250000    1.1968387   -7.2643607    93.408224  0.031136075  0.032312866            2 
  251000    1.2323893    -7.233167    94.161542  0.031262132    0.0323117            3 
  252000    1.2185712   -7.2107568    94.950079  0.031398836  0.032311996            3 
  253000    1.2175781   -7.2697061    94.751311  0.031209259  0.032311742            2 
  254000    1.2070046   -7.2149005    95.198717  0.031233175  0.032311782            2 
  255000    1.1910246   -7.2428344    95.710014  0.031277782  0.032311517            1 
  256000    1.2137828   -7.2196111    96.492687   0.03141038  0.032310788            4 
  257000     1.207072   -7.2364921    96.296681  0.031224605   0.03230955            3 
  258000     1.212332   -7.2408026    96.325851  0.031113001  0.032307311            1 
  259000    1.2073635   -7.2600423    96.890688   0.03117461  0.032303011            2 
  260000    1.2315059   -7.2731773    97.137752  0.031133895  0.032298616            3 
  261000    1.1867241   -7.2258926    97.681239  0.031188135  0.032296518            1 
  262000    1.1943479   -7.1951235    98.270096  0.031256392  0.032294855            2 
  263000    1.1973385   -7.2501298    98.264601  0.031135805  0.032291315            1 
  264000    1.2073354   -7.2576083    98.484273  0.031087207  0.032286556            2 
  265000    1.2177212   -7.2002103    99.050303  0.031147894  0.032282691            3 
  266000    1.2082927   -7.2353598    99.024232  0.031022629  0.032277237            3 
  267000    1.1705055   -7.2454069    99.181535  0.030955535  0.032270473            3 
  268000    1.2129379   -7.2439413    100.09029  0.031122603  0.032263483            1 
  269000    1.1846729   -7.2166003     100.5401   0.03114625  0.032257774            1 
  270000     1.199667   -7.2537365    101.02112  0.031179357  0.032254575            1 
  271000    1.2215045   -7.2267793    101.59693  0.031241368  0.032251024            2 
  272000    1.2186864   -7.2249895     101.7126  0.031161948  0.032247163            2 
  273000    1.1934576   -7.2370294    101.88349  0.031099965  0.032242459            1 
  274000    1.2390147   -7.2335215    102.21646   0.03108773  0.032236239            3 
  275000      1.16841   -7.2325007    102.50225  0.031061287  0.032229842            2 
  276000    1.2118233   -7.1990053    103.16534  0.031148956  0.032223702            2 
  277000    1.1902321   -7.2265936    103.13957  0.031028752  0.032216739            2 
  278000    1.1688569   -7.2751452    103.45496  0.031011679  0.032208934            3 
  279000    1.1872146    -7.255701    103.84656  0.031017492  0.032201841            2 
  280000    1.2218711   -7.2250294    104.67114  0.031152125  0.032196717            2 
  281000    1.2061293   -7.2495324    104.95563  0.031125632  0.032191506            2 
  282000     1.215409   -7.2390124    105.01168  0.031031821  0.032186653            2 
  283000    1.2033486   -7.2473222    105.57396  0.031087739  0.032180388            2 
  284000    1.2206591   -7.2428005    105.94452  0.031087008  0.032175028            2 
  285000    1.2038152   -7.2857644    106.00157  0.030994612  0.032168624            2 
  286000    1.2145314   -7.2406472    106.53984  0.031043078  0.032161506            2 
  287000    1.2086247   -7.2658696    106.75792  0.030998233  0.032154215            1 
  288000    1.1969975   -7.2783615    107.15782  0.031006313  0.032147639            1 
  289000    1.2098691   -7.2185819    108.00348  0.031142873  0.032142574            1 
  290000    1.2107529   -7.2472596    107.74012  0.030959806  0.032135855            5 
  291000    1.1849203   -7.1912372    108.35826   0.03103043  0.032129026            3 
  292000    1.2163234   -7.2119999    108.77015  0.031041708  0.032122356            2 
  293000    1.2175046   -7.2252628    109.13525  0.031039606  0.032115233            1 
  294000    1.1950776   -7.2907395    109.06348  0.030913684    0.0321075            3 
  295000    1.2105011   -7.2050211    109.86028  0.031033978  0.032100062            2 
  296000    1.1896548   -7.2166839    109.57178   0.03084791   0.03209246            3 
  297000    1.2053784    -7.213577    110.39019  0.030973677   0.03208475            4 
  298000     1.213342   -7.2467042    110.87565  0.031005494  0.032077382            2 
  299000    1.2215992   -7.1961687    111.48175  0.031070722  0.032069998            1 
  300000    1.1859549   -7.2639298    111.32924  0.030924788  0.032062964            3 
  301000    1.1977746   -7.1928198    111.92867  0.030988004  0.032055698            2 
  302000    1.1887074   -7.2251321    112.64784   0.03108384  0.032049685            1 
  303000    1.2279313   -7.2885687    112.31017  0.030888385  0.032043197            5 
  304000     1.208434   -7.2515793    113.24926  0.031044205  0.032035846            2 
  305000    1.2021874   -7.2653595     113.6205  0.031043854  0.032030021            2 
  306000     1.230382   -7.2678126    113.94206  0.031029974  0.032024192            1 
  307000    1.2103663   -7.2587048    114.18501  0.030994845  0.032018125            4 
  308000    1.2190069   -7.1723898    115.51629  0.031254406  0.032013213            4 
  309000    1.1783022   -7.2491398    115.00413  0.031015138  0.032009114            1 
  310000     1.184365   -7.3051228    115.04888  0.030927117  0.032002947            2 
  311000    1.1923908    -7.254111    115.64451  0.030987276  0.031996919            2 
  312000     1.226471   -7.2334797    116.09604  0.031008558  0.031989968            1 
  313000    1.2242649   -7.2392586    116.01565  0.030888085  0.031982315            2 
  314000    1.2240492   -7.2314097    116.69493  0.030969993   0.03197489            1 
  315000    1.2272807   -7.2694246    116.70182  0.030873497   0.03196857            2 
  316000    1.1879493   -7.2521135    117.21966  0.030912359  0.031961245            2 
  317000    1.2181656   -7.2377923    117.55716  0.030903564  0.031954367            2 
  318000     1.208278   -7.1971108    118.65513  0.031094111   0.03194888            1 
  319000    1.2099713   -7.2819378    118.58779  0.030979046  0.031943204            1 
  320000    1.2106301    -7.256089    118.59015  0.030882851  0.031937539            1 
  321000    1.1776979   -7.2643096    119.12258  0.030924864  0.031930595            2 
  322000    1.1898515    -7.264784    119.59678  0.030951548  0.031924614            2 
  323000    1.2328355    -7.285893    119.94743  0.030946188   0.03191833            4 
  324000    1.1946423   -7.2530948    120.07363  0.030883134  0.031911342            1 
  325000    1.2225717   -7.2299241    120.88437  0.030995992  0.031904434            1 
  326000    1.2008204    -7.256277    120.27481  0.030745093  0.031896702            1 
  327000    1.1873567   -7.2362108    120.97674  0.030829955  0.031889261            1 
  328000    1.1904624   -7.2436486    121.54784  0.030881056  0.031880751            2 
  329000    1.1904359   -7.2517472    122.27672  0.030971814  0.031874084            1 
  330000    1.2145728   -7.2221802    122.51841  0.030938993  0.031867513            2 
  331000    1.2161605   -7.2591438    122.57806  0.030860539  0.031860325            5 
  332000    1.1843684   -7.2629975    122.52602  0.030754522  0.031852139            1 
  333000    1.1972973   -7.2642781    123.02354  0.030786672  0.031843698            2 
  334000    1.1966908   -7.2373355    123.89878   0.03091287  0.031836163            1 
  335000    1.1847488   -7.2268517    124.22669  0.030902163  0.031829877            2 
  336000    1.2349906   -7.2561565    124.35573  0.030842196  0.031823062            1 
  337000    1.1980953   -7.2569348    124.71119  0.030838574  0.031814691            1 
  338000    1.2167132   -7.2874447    124.86595   0.03078549  0.031806922            2 
  339000    1.2007805   -7.2658833    124.95044  0.030715448   0.03179874            3 
  340000    1.1972998   -7.2888392    125.47001  0.030752454  0.031788983            3 
  341000    1.1974806   -7.2547211     125.7871  0.030739759  0.031779222            2 
  342000     1.187457   -7.2572791    126.24427  0.030761275  0.031770668            1 
  343000    1.2036145    -7.281611    126.31936  0.030689835  0.031762223            1 
  344000    1.1834666    -7.245324    126.77099  0.030710026  0.031752953            3 
  345000    1.1874264   -7.2469675    127.30123  0.030749089  0.031744304            2 
  346000    1.2109342    -7.282874    127.42825  0.030690811   0.03173606            1 
  347000    1.1984552   -7.2412964    127.88265  0.030711492  0.031727802            3 
  348000    1.1864113   -7.2729627    128.18746   0.03069623  0.031719958            2 
  349000    1.2217783   -7.3084541    128.04804  0.030574985  0.031711593            2 
  350000    1.1995872   -7.2607253    129.00417  0.030715277  0.031702597            2 
  351000    1.2089077   -7.2532913     129.5125  0.030748456   0.03169408            1 
  352000    1.2028799   -7.2309725    129.90758  0.030754635  0.031686957            3 
  353000    1.1950799   -7.2381448     130.3005  0.030760268  0.031679627            1 
  354000    1.1705057   -7.2894986    130.61749  0.030747998  0.031671138            1 
  355000    1.1928663   -7.2828409    131.31191  0.030824391  0.031664127            2 
  356000    1.1735953   -7.2770806    131.09418  0.030686841  0.031657153            2 
  357000    1.1815069   -7.2309213    131.80411    0.0307666  0.031650152            1 
  358000     1.164378   -7.2230542    132.76427  0.030904161  0.031643247            2 
  359000    1.1783773   -7.2587913    132.40995  0.030735829  0.031636605            2 
  360000    1.2023675   -7.2824691    132.58817  0.030691707   0.03162965            1 
  361000     1.203234   -7.2466263    132.86448  0.030670472  0.031622195            1 
  362000     1.175857   -7.2786069    133.04637  0.030627617  0.031614185            1 
  363000    1.2270469   -7.2636565    133.56597  0.030662529  0.031605417            2 
  364000    1.1875357   -7.2754322    133.55339  0.030575411  0.031596912            1 
  365000    1.1770529   -7.2471613    134.62179  0.030735569  0.031587276            1 
  366000    1.1903423   -7.2985309    134.27227   0.03057201  0.031579031            4 
  367000    1.1990618   -7.2776922    134.57467  0.030557373  0.031570993            1 
  368000    1.1731753   -7.2577115    135.82726  0.030757984  0.031564179            2 
  369000    1.1977838   -7.2556374    136.08152  0.030732051  0.031558033            2 
  370000    1.2138224   -7.2991519    136.09113  0.030651156  0.031551476            1 
  371000    1.1829048   -7.2972725    136.11462  0.030573814  0.031543279            1 
  372000    1.2052489   -7.3078072    137.05968  0.030703334   0.03153614            2 
  373000    1.1843989   -7.2776251    137.61632  0.030745379  0.031529882            3 
  374000    1.1803809   -7.2958382    137.48723  0.030634409  0.031523078            2 
  375000    1.1986618   -7.2477567     138.2765  0.030728111  0.031517403            2 
  376000     1.198133   -7.3303546    138.44701  0.030684179  0.031511062            3 
  377000     1.209022   -7.2648228    139.31167  0.030793915  0.031504394            1 
  378000    1.1916491   -7.2872158    138.72099  0.030582229  0.031497685            1 
  379000    1.1957003   -7.2666625    139.58343  0.030691168  0.031490645            4 
  380000    1.1668948   -7.2394351    139.91261  0.030682589  0.031483291            1 
  381000    1.1843208   -7.2566828    141.02096   0.03084448  0.031476975            2 
  382000    1.1868447   -7.3235215    140.21773  0.030588511  0.031470678            2 
  383000    1.2081404   -7.2908299    140.61906  0.030595966  0.031463976            4 
  384000    1.2136458    -7.281128    141.13724  0.030628741   0.03145638            2 
  385000    1.1950672   -7.2853551    142.00468  0.030736943  0.031450425            1 
  386000    1.1720225    -7.286677    142.31638  0.030724607  0.031445252            2 
  387000    1.1751116   -7.2610233    142.77898  0.030744828  0.031439335            1 
  388000    1.1950003   -7.2887807    142.80395  0.030670951  0.031432778            1 
  389000    1.1848326   -7.2731895    143.07401  0.030649959  0.031425696            1 
  390000    1.1688698   -7.2838491    143.38467  0.030637751  0.031419808            2 
  391000    1.1715256   -7.3392345    143.73095  0.030633194  0.031412858            2 
  392000    1.2153494   -7.2737228     144.0641  0.030625871  0.031406199            2 
  393000    1.1793793   -7.2407854    144.82481  0.030709246  0.031399884            1 
  394000    1.1828235   -7.2950506    144.76911  0.030619523  0.031393277            3 
  395000    1.1728803   -7.2565423    145.53878  0.030704383  0.031387101            3 
  396000    1.1682285   -7.2901204    145.04942  0.030523868  0.031379727            2 
  397000    1.1598059   -7.3169839    145.51989  0.030545737  0.031372327            3 
  398000    1.2013558   -7.2454224    146.58395  0.030691782   0.03136571            2 
  399000     1.184512   -7.2656235    146.16131  0.030526589  0.031358129            1 
  400000    1.1797687    -7.295675    146.43708  0.030507725  0.031350908            2 
  401000    1.1853422   -7.3119884    146.77847  0.030502592  0.031342974            2 
  402000    1.1953091   -7.3107201    147.39706  0.030554947  0.031335116            1 
  403000    1.1929199   -7.2666062    147.78851  0.030560072  0.031328315            2 
  404000    1.1619454   -7.3057569    147.71432  0.030469126  0.031320264            2 
  405000     1.152788   -7.3162576    147.93475  0.030439248   0.03131251            6 
  406000    1.1580117   -7.2454348    149.07587  0.030598495  0.031305377            2 
  407000    1.1671057   -7.2898726    149.50324  0.030610819  0.031298657            3 
  408000    1.2111115   -7.2499746    150.00216  0.030637697  0.031291595            1 
  409000    1.1822308    -7.285851    150.00349  0.030563058  0.031285424            1 
  410000    1.1912614   -7.2951678    150.03368   0.03049465   0.03127865            1 
  411000    1.1993755   -7.2943338    150.76086  0.030567894  0.031271641            1 
  412000    1.1692425   -7.3043542    150.44689  0.030430195  0.031265412            3 
  413000    1.1689038   -7.2634827    151.12894  0.030494137  0.031258591            3 
  414000     1.206055   -7.2984528    151.70982  0.030537403  0.031251551            4 
  415000    1.1947529   -7.2954616    151.66844  0.030455509  0.031244263            1 
  416000     1.181279   -7.2722937     151.9837  0.030445453  0.031236901            1 
  417000    1.1854579   -7.2799519    152.87617  0.030550793   0.03122995            1 
  418000    1.2065149    -7.314452    152.71567  0.030445708  0.031223548            2 
  419000    1.1687833    -7.305921     153.6547  0.030559804  0.031217044            3 
  420000    1.1637582   -7.2632454    153.55768  0.030467793  0.031211024            2 
  421000    1.2079531   -7.3112746    154.34039  0.030550355  0.031204537            1 
  422000    1.1754412   -7.2875871    154.11332  0.030433121  0.031198328            5 
  423000    1.1741915   -7.2962005    154.44932  0.030427369  0.031192215            1 
  424000     1.190347   -7.2965108    154.77611  0.030419832  0.031185374            2 
  425000    1.2040752   -7.3392346    155.06172   0.03040426  0.031177934            3 
  426000    1.1928407   -7.2941252    155.27899  0.030375389  0.031170011            1 
  427000    1.1947059   -7.2847246    155.83344   0.03041246  0.031162419            1 
  428000    1.1734986   -7.2752608    156.13636  0.030400381  0.031154607            2 
  429000    1.1827509   -7.3076795    156.05062  0.030312863    0.0311465            2 
  430000     1.167966     -7.29256      156.487  0.030326938  0.031138073            1 
  431000    1.1807565   -7.3295119    156.31436  0.030223194  0.031129767            6 
  432000    1.1529374   -7.3200539    156.87484  0.030261351  0.031121207            1 
  433000    1.1555231   -7.3354188    156.56388  0.030131617  0.031111902            6 
  434000    1.1561888   -7.2963489    157.36128    0.0302153  0.031102426            1 
  435000    1.1617993   -7.2872704    157.60573  0.030192669   0.03109265            4 
  436000    1.2101489   -7.2443645    158.94904  0.030380169  0.031083574            2 
  437000    1.1810028   -7.2421664    158.94961  0.030310757   0.03107486            2 
  438000    1.2034569   -7.2774718    159.09759  0.030269709  0.031066235            2 
  439000    1.1767348   -7.3025301    159.70508  0.030316074  0.031057854            1 
  440000    1.1748068   -7.2787969    159.87782  0.030279889  0.031050533            1 
  441000    1.1633534   -7.2991507    159.95702  0.030226194  0.031042739            2 
  442000    1.1895624   -7.2774866    160.86446  0.030328895  0.031035101            4 
  443000    1.1827807   -7.2518749    161.74543  0.030426153  0.031028411            1 
  444000    1.2035924   -7.3552209    160.94304  0.030207026  0.031021249            2 
  445000    1.1840019   -7.2707453    161.97486  0.030332371  0.031014214            2 
  446000    1.1618335   -7.3676259    162.08626  0.030285175  0.031007533            1 
  447000    1.1696929   -7.2852988    162.82502  0.030355149  0.031000749            1 
  448000    1.1798185   -7.2846807     163.1665  0.030350912  0.030994272            4 
  449000     1.187492   -7.3425097    163.15432  0.030281055  0.030987742            4 
  450000    1.1802966    -7.336711     163.1801  0.030218538  0.030980933            2 
  451000    1.1830355   -7.3124192    163.70914  0.030249287  0.030973943            2 
  452000    1.1613995   -7.2779249    164.39322  0.030308484  0.030967004            4 
  453000    1.1649521   -7.2971753    164.67069  0.030292621  0.030960192            7 
  454000    1.1861187   -7.3394557    165.07337   0.03029981  0.030953807            5 
  455000    1.1805453   -7.3481369    165.00509  0.030220712  0.030947176            2 
  456000    1.1837077   -7.3124425    165.76833  0.030293921  0.030940704            1 
  457000    1.1634513   -7.3075499    166.04865  0.030278748  0.030934932            2 
  458000    1.1675349   -7.2831028    166.68726  0.030328831   0.03092856            1 
  459000    1.1655873   -7.3010713    167.46556   0.03040406  0.030922395       -1e+20 
  460000    1.1978056   -7.2829178    167.64516  0.030370499  0.030916748            1 
  461000    1.2109682   -7.2936836    168.30382  0.030423684  0.030911583            4 
  462000    1.1819556   -7.3037144     168.6811  0.030425884  0.030906581            1 
  463000    1.1886569   -7.3199583    168.75396  0.030373283  0.030901218            2 
  464000    1.1781053    -7.295708    169.20633  0.030389069  0.030896013            1 
  465000    1.1987293   -7.3008232    170.01357  0.030468381  0.030891684            2 
  466000    1.1554392   -7.2967224    169.79496  0.030363905  0.030886531            2 
  467000    1.1676534   -7.3347725    170.06175  0.030346494  0.030880951            2 
  468000    1.1860233   -7.3465461    170.44705  0.030350259  0.030875359            1 
  469000    1.1559968   -7.2918989    170.92697  0.030370819  0.030869812            1 
  470000    1.1983996   -7.2865278     171.0038  0.030319822  0.030864336            1 
  471000     1.176512   -7.3520245    171.51593   0.03034606  0.030858928            1 
  472000     1.183109   -7.3565234    172.01283  0.030369496  0.030853922            1 
  473000    1.1574428   -7.2960617    172.08091  0.030317285  0.030848528            3 
  474000    1.1838952   -7.3015819    172.32059  0.030295462  0.030843503            1 
  475000    1.1930422   -7.3700086     172.0549  0.030185069  0.030838013            2 
  476000    1.1787871   -7.3659679    172.51055  0.030201428  0.030831837            1 
  477000     1.189244   -7.3077514    172.90426  0.030206894  0.030825764            1 
  478000    1.1830488   -7.3315558    173.28525   0.03021012  0.030818975            2 
  479000    1.2003993   -7.3249403    173.97802  0.030267574  0.030811787            2 
  480000    1.1708803   -7.3273846    173.93576   0.03019718  0.030805152            2 
  481000    1.1763535   -7.3198375     174.5779  0.030245651  0.030799821            1 
  482000     1.168004   -7.2957262    175.69095  0.030375338  0.030794784            2 
  483000    1.1661503   -7.3421819    175.70484  0.030314845  0.030789833            2 
  484000    1.1982195    -7.387179    175.50114  0.030217138  0.030785081            3 
  485000    1.1610954   -7.3286111    176.14884  0.030266124  0.030780136            1 
  486000    1.1537047   -7.3272523    176.22779  0.030217384  0.030774725            2 
  487000    1.1839966    -7.280557    177.30311   0.03033934   0.03076964            1 
  488000    1.1778928   -7.3223107    176.74726  0.030182251  0.030764271            2 
  489000    1.1596002   -7.3344639    177.35453  0.030224016  0.030758252            4 
  490000    1.1689211   -7.2911837    178.10464  0.030289905  0.030752828            1 
  491000     1.183556   -7.3304695    178.56581  0.030306486  0.030746755            3 
  492000    1.2087251   -7.2655992    178.62096  0.030254228  0.030740925            1 
  493000    1.1968697   -7.3346772    178.35253  0.030147486  0.030734998            1 
  494000    1.1997314   -7.3296643    178.89376   0.03017776   0.03072877            2 
  495000    1.1483262   -7.3432841    179.28031  0.030181871  0.030722902            1 
  496000    1.1766366   -7.3536504    178.76668  0.030034724  0.030716407            1 
  497000    1.1580014   -7.3033842    180.00464  0.030181864  0.030710262            1 
  498000    1.1575125   -7.3004544    179.95912  0.030113642  0.030703616            1 
  499000    1.1793736   -7.3657609     180.1628  0.030087308  0.030696846            2 
  500000    1.1656354   -7.3564939    180.32257  0.030053761  0.030690489            2 
  501000    1.1615334   -7.3036234    180.79198  0.030071853  0.030683803            2 
  502000    1.1811183   -7.3559881    180.73439  0.030002388  0.030676628            2 
  503000    1.1532138    -7.306987    181.44003  0.030059646  0.030669708            2 
  504000    1.1753659   -7.3494862    181.24901  0.029968421   0.03066277            1 
  505000    1.1786305       -7.346    181.62486    0.0299711  0.030655361            1 
  506000    1.1384598   -7.3629104    182.20779  0.030007871   0.03064783            1 
  507000    1.1925704   -7.3624815    182.10919  0.029932478  0.030640101            6 
  508000    1.1720497   -7.3120094    183.12726  0.030040561  0.030632814            2 
  509000    1.1520499   -7.3531047    182.91393  0.029946615  0.030625289            2 
  510000       1.1774   -7.3100004    183.97599  0.030061437    0.0306186            1 
  511000    1.1882811   -7.3551469    183.38827  0.029906762  0.030611911            2 
  512000    1.1961438   -7.3364472    184.71941  0.030065009  0.030605381            3 
  513000    1.1736717    -7.296868    185.53498  0.030138886  0.030599286            3 
  514000    1.1826699   -7.3777114     184.6991  0.029944731  0.030592492            3 
  515000    1.1790507   -7.2939134    185.59304  0.030031237  0.030586053            1 
  516000    1.1631861   -7.2961452    186.16671  0.030065682  0.030579469            3 
  517000    1.1647068   -7.3094493    186.49471  0.030060398  0.030572949            3 
  518000    1.1717527   -7.3718327    186.25858  0.029964379  0.030565778            2 
  519000    1.1497375   -7.3729407    186.53705  0.029951357  0.030558623            2 
  520000    1.1817212   -7.3398476     187.0143   0.02997024  0.030552186            1 
  521000    1.1855956   -7.3453683    186.51164  0.029832315  0.030545424            2 
  522000    1.1755186   -7.3052558    187.89661  0.029996267  0.030537978            2 
  523000    1.1842239   -7.3336674    188.14958  0.029979219  0.030530711            2 
  524000    1.1737783   -7.3583033     187.7155  0.029852973  0.030522698            1 
  525000    1.1616834   -7.4021011    187.51313  0.029763989  0.030514661            1 
  526000    1.1614028   -7.3273513    188.40124  0.029848105  0.030506599            3 
  527000     1.201891   -7.3532476    188.05712  0.029737052  0.030498335            1 
  528000    1.2040561   -7.3182138    189.12744  0.029849659  0.030490208            1 
  529000     1.142699   -7.3645887    188.87306   0.02975316  0.030482108            1 
  530000    1.1670337   -7.3357964     188.9391  0.029707405  0.030473899            2 
  531000    1.1849573   -7.2993677    190.41444  0.029882995   0.03046618            2 
  532000    1.1453768   -7.3291257     190.5528  0.029848496   0.03045876            3 
  533000    1.1359707   -7.3166415    191.14982  0.029885839  0.030450899            2 
  534000    1.1656718   -7.2819644    190.73023  0.029764393  0.030443401            1 
  535000    1.1628575   -7.3026211    191.48673  0.029826593  0.030435677            2 
  536000    1.1663301   -7.3158215    191.45904  0.029766642  0.030427951            1 
  537000    1.1756281   -7.2761005    192.33379  0.029846956  0.030420233            2 
  538000    1.1727118   -7.3429549    192.38005  0.029798644  0.030412785            1 
  539000    1.1659629   -7.3427067    192.39268  0.029745312  0.030404944            2 
  540000    1.1679902   -7.3428338    192.51927  0.029709764  0.030397009            1 
  541000    1.1804926   -7.3205201     192.7005  0.029682763   0.03038867            2 
  542000    1.1681574   -7.3775788    192.52133  0.029600451  0.030379854            3 
  543000    1.1725602   -7.3504758    192.60264  0.029558416  0.030370996            2 
  544000    1.1782932   -7.3962355    193.56115  0.029650912  0.030362182            1 
  545000    1.1948582   -7.3470915     193.0395  0.029516743  0.030353205            1 
  546000    1.1589767   -7.3308091    194.65969  0.029709965  0.030344766            6 
  547000    1.1666728   -7.3534638    194.76399   0.02967154  0.030335955            2 
  548000    1.1649086    -7.322035    195.03603  0.029658764  0.030327786            3 
  549000    1.1338941   -7.3405071    194.75726  0.029562426  0.030319452            3 
  550000    1.1733916   -7.2837343    195.62588  0.029640285  0.030310971            3 
  551000    1.1583071   -7.3472563    195.16673  0.029517049    0.0303019            2 
  552000    1.1513476   -7.3477361    195.29306  0.029482648  0.030292521            3 
  553000    1.1635409   -7.3248741    196.08035  0.029547973  0.030282808            2 
  554000    1.1849043   -7.3976569    195.66462  0.029432103   0.03027303            4 
  555000     1.180203   -7.3891029    195.95819  0.029423151  0.030263291            3 
  556000    1.1490935   -7.4027084    196.09413  0.029390608  0.030253741            2 
  557000    1.1766536   -7.3481393    196.86189  0.029452707  0.030244101            2 
  558000    1.1709033   -7.4075515    197.35761  0.029473956  0.030234639            1 
  559000    1.1593065    -7.313091    197.92043  0.029505133   0.03022594            2 
  560000    1.1731082   -7.3790114    197.38321  0.029372502  0.030216879            1 
  561000    1.1435501   -7.3449849    198.65152  0.029508545  0.030207279            1 
  562000    1.1584015   -7.3396156    197.94292  0.029350966  0.030197937            3 
  563000    1.1487079   -7.3679453    198.95234  0.029448245  0.030187994            2 
  564000    1.1786656   -7.3888085    198.82514  0.029377237  0.030178292            3 
  565000    1.1535347   -7.3583732    199.29214  0.029394121  0.030168697            3 
  566000    1.1534341   -7.4160316    199.60336  0.029388009   0.03015893            3 
  567000    1.1554818   -7.3497904    200.49892  0.029467802  0.030149225            3 
  568000    1.1573449   -7.3170784    200.75405  0.029453352  0.030140068            1 
  569000     1.165368   -7.3520198    201.17834  0.029463729  0.030131319            1 
  570000    1.1496268   -7.3242467    201.16357  0.029409878  0.030122174            2 
  571000    1.1648058   -7.3499221    201.45808  0.029401355  0.030112601            2 
  572000    1.1458207   -7.3352926    200.96597  0.029278259  0.030102884            2 
  573000    1.1473336    -7.362595    201.52104  0.029307888  0.030093028            1 
  574000    1.1414498   -7.3613201    202.41318   0.02938635  0.030083046            5 
  575000    1.1489891   -7.3951715    202.24703  0.029311164  0.030072706            1 
  576000    1.1637729   -7.3741052    202.62052  0.029314311   0.03006248            5 
  577000    1.1565169   -7.3185192    203.15064   0.02934007  0.030053027            1 
  578000    1.1492739   -7.3412516    202.84402    0.0292451  0.030043321            2 
  579000    1.1532022   -7.2969993    204.06227   0.02936993  0.030033575            1 
  580000    1.1403132   -7.3037981    204.03734   0.02931571  0.030024198            2 
  581000    1.1219523   -7.3652933    204.13533  0.029279308  0.030014808            2 
  582000    1.1573899   -7.3739424    204.89743  0.029338121  0.030005304            5 
  583000    1.1736155   -7.4025828    204.74029  0.029265336  0.029996309            1 
  584000    1.1718013   -7.3309067    205.98599  0.029392978  0.029987168            2 
  585000    1.1638024   -7.3580704     205.7167  0.029304374  0.029977905            2 
  586000    1.1438268   -7.3693295    205.54179  0.029229493  0.029968287            1 
  587000    1.1528559   -7.3619543      205.824  0.029219761  0.029959087            1 
  588000    1.1635845   -7.3208633    207.14971  0.029357952  0.029950153            2 
  589000    1.1663687   -7.3827568    206.95704  0.029280848  0.029941598            3 
  590000    1.1591487    -7.367335    207.68364  0.029333847  0.029933016            1 
  591000    1.1447845   -7.3816548    207.94662  0.029321295  0.029924426            3 
  592000    1.1664533   -7.3823736    208.41388  0.029337539   0.02991563            3 
  593000    1.1511885   -7.3326458    208.74201  0.029334178  0.029907154            1 
  594000    1.1571646   -7.3719692    208.07219  0.029190823  0.029898551            1 
  595000     1.144963   -7.3442758    208.40849  0.029188864  0.029889749            2 
  596000    1.1703245    -7.387608    209.15921  0.029244856  0.029880619            1 
  597000    1.1862287   -7.3226409    209.22065  0.029204445  0.029871795            2 
  598000    1.1719061   -7.3584092    209.48685  0.029192704   0.02986286            3 
  599000    1.1525227   -7.3445728    209.91524  0.029203568  0.029853864            2 
  600000    1.1772611   -7.3169787    211.23604  0.029338339  0.029845181            2 
  601000    1.1522752   -7.4093318    210.19733  0.029145498  0.029836329            2 
  602000    1.1647885   -7.3721413    210.69492  0.029165963  0.029827813            2 
  603000    1.1674648    -7.373236    211.42927  0.029219081  0.029819189            4 
  604000    1.1471834   -7.3813612    211.58227  0.029191814  0.029810486            4 
  605000    1.1629628   -7.3780797    211.84712  0.029180045   0.02980215            3 
  606000    1.1648893   -7.3999191    212.01494   0.02915497  0.029793666            2 
  607000    1.1658458   -7.4119324    212.84275  0.029220586  0.029785345            3 
  608000    1.1696589   -7.3630586    212.96794  0.029189685  0.029777326            1 
  609000    1.2011275    -7.351068    213.28334  0.029184912  0.029768912            2 
  610000    1.1426115   -7.3900247     213.0678  0.029107623  0.029760329            2 
  611000    1.1745805   -7.3765121    214.41105  0.029243187  0.029751841            1 
  612000    1.1534187   -7.3634715    214.44949  0.029200638  0.029743825            3 
  613000    1.1586878    -7.372989    214.55379  0.029167182  0.029735515            1 
  614000    1.1667572   -7.3155771    214.87698  0.029163542  0.029726878            3 
  615000    1.1568905   -7.3894472    215.04616  0.029139046   0.02971925            1 
  616000    1.1060585   -7.3472361    216.22514  0.029251236  0.029711544            2 
  617000    1.1942485   -7.3416611    216.45454  0.029234811  0.029703692            2 
  618000    1.1566903   -7.3629809    216.47928  0.029190842  0.029696144            2 
  619000    1.1614016   -7.4048528    216.88248  0.029197965  0.029688868            1 
  620000    1.1352456   -7.3791588    216.70136  0.029126526  0.029681094            2 
  621000    1.1654532   -7.3776809    218.10062  0.029267394  0.029673343            2 
  622000    1.1641613   -7.3910744    217.48049  0.029137258  0.029665673            1 
  623000    1.1657733   -7.3281308    218.22943  0.029190667  0.029658322            2 
  624000    1.1773852   -7.3266868     219.2917  0.029285751  0.029651322            3 
  625000    1.1478753   -7.3920411    218.56925  0.029142567  0.029644189            2 
  626000    1.1742021   -7.3367928    219.70121    0.0292467   0.02963643            1 
  627000    1.1438864   -7.3771199    218.96584  0.029102318  0.029629543            3 
  628000    1.1412167   -7.3912141    219.60643  0.029140981  0.029622843            2 
  629000    1.1621076   -7.3313944    220.72839  0.029243294  0.029616008            1 
  630000     1.156472    -7.374628     220.4583  0.029161151  0.029609369            2 
  631000    1.1484706   -7.3730639    220.46727  0.029116122  0.029602119            4 
  632000    1.1255133   -7.3810458    220.50778  0.029075393  0.029594571            2 
  633000    1.1365251   -7.3910446    221.55142  0.029166854  0.029587144            2 
  634000    1.1779291   -7.4165501    221.22981  0.029078577  0.029579402            2 
  635000    1.1613604   -7.4017811    221.20549  0.029029592  0.029571527            1 
  636000    1.1275337   -7.3938484    221.53699  0.029027383  0.029563569            2 
  637000    1.1524735   -7.3740012    221.96627  0.029037973  0.029555915            2 
  638000     1.154333   -7.3891719    222.44977  0.029055612  0.029547882            2 
  639000    1.1587904   -7.3320677    223.51416  0.029148951  0.029540332            3 
  640000    1.1374566   -7.3849025    223.01073  0.029037856  0.029532871            1 
  641000     1.129256   -7.4161656    222.74143  0.028957544  0.029525238            2 
  642000    1.1390986   -7.3790808    224.20856  0.029102876  0.029517411            1 
  643000    1.1600783   -7.3633241    224.49005  0.029094096  0.029509838            2 
  644000    1.1660551    -7.407974    223.41097  0.028909286   0.02950198            3 
  645000    1.1443627   -7.3749501    224.14609  0.028959443  0.029493991            1 
  646000    1.1483238   -7.4006195    224.53761  0.028965119  0.029486523            2 
  647000    1.1554062    -7.395148    224.67347  0.028937851  0.029478468            2 
  648000    1.1457019    -7.437841    224.88177  0.028919981  0.029470199            5 
  649000    1.1632686   -7.4306999     225.3381  0.028934013  0.029461977            2 
  650000    1.1664243   -7.4125414    226.30711  0.029013732  0.029454284            2 
  651000    1.1716776    -7.390524    226.10089  0.028942766  0.029446528            2 
  652000    1.1280398    -7.379111    227.07176  0.029022464  0.029438589            1 
  653000     1.141511   -7.3985699    226.90132  0.028956268  0.029430903            2 
  654000    1.1156982   -7.4219375    226.90634  0.028912632  0.029423337            2 
  655000    1.1581613   -7.3395676    227.98713  0.029005996  0.029415972            1 
  656000    1.1496772   -7.3598548    228.66826  0.029048306  0.029409008            1 
  657000    1.1128262   -7.4028038    227.97209   0.02891579  0.029401744            3 
  658000    1.1361167   -7.3670915    228.54526  0.028944435  0.029394499            6 
  659000    1.1420333   -7.3818633    228.40181  0.028882374  0.029386718            1 
  660000    1.1546575   -7.3613251    228.91972  0.028904005  0.029378834            2 
  661000    1.1470984   -7.4354613    228.46577  0.028803047  0.029370657            2 
  662000    1.1767002   -7.4052155    229.43243  0.028881223  0.029362564            1 
  663000    1.1321284   -7.3879622    229.87769  0.028893626  0.029354723            2 
  664000    1.1614897    -7.379559    230.38041  0.028913204  0.029346691            1 
  665000    1.1663353   -7.3766305     230.2954  0.028859073  0.029338694            1 
  666000    1.1491138   -7.3502134    230.85734  0.028886054  0.029330752            1 
  667000    1.1380496   -7.3933932    230.02066  0.028738214  0.029322461            1 
  668000    1.1294098   -7.4161724     230.7002  0.028779965   0.02931422            1 
  669000    1.1387434   -7.4148519    230.90492  0.028762447  0.029306265            1 
  670000    1.1516242   -7.3882666    232.36077  0.028900593  0.029298553            7 
  671000    1.1152918   -7.4097484    231.76016  0.028782931  0.029291079            1 
  672000    1.1264696   -7.4250568    232.84149  0.028874192  0.029283418            2 
  673000    1.1745427    -7.394407    232.38288  0.028774502  0.029275939            1 
  674000    1.1308341   -7.3809689    233.57985  0.028879804  0.029268179            1 
  675000    1.1559637   -7.3731149    233.48511  0.028825322  0.029260335            2 
  676000     1.123347   -7.4391404    232.95247  0.028717021  0.029252564            2 
  677000    1.1454153   -7.3839907    234.22334  0.028831037  0.029244972            1 
  678000    1.1338639   -7.3904035    234.01152  0.028762478  0.029237676            1 
  679000    1.1501376   -7.4060251    234.30986  0.028756733  0.029229965            1 
  680000    1.1396517   -7.4464654    234.75856  0.028769432  0.029222363            4 
  681000    1.1793976    -7.452282    234.47099  0.028691996  0.029214758            1 
  682000    1.1460656   -7.3535134     235.6564   0.02879477  0.029207256            1 
  683000    1.1422875   -7.3710197    236.11412  0.028808457  0.029200128            2 
  684000    1.1189948   -7.4059376    235.96798  0.028748536  0.029192569            3 
  685000    1.1271554   -7.4017628    235.74829  0.028679841  0.029184913            2 
  686000    1.1405461   -7.3840783    236.48934  0.028728054  0.029177372            2 
  687000    1.1580974   -7.3756753    237.80687  0.028846054  0.029170082            3 
  688000    1.1284183   -7.3925038    237.86744  0.028811463  0.029162764            1 
  689000    1.1451966   -7.3822154     238.0857  0.028796045  0.029155456            2 
  690000    1.1349051   -7.4331418    237.64388  0.028700952   0.02914823            2 
  691000    1.1406305   -7.4083915    238.63537  0.028778988  0.029140909            1 
  692000    1.1422714    -7.369422    239.49447  0.028840857   0.02913389            4 
  693000    1.1319745   -7.4241407    238.79234  0.028714808  0.029126839            3 
  694000     1.142793     -7.37728    239.63517  0.028774637  0.029119795            1 
  695000    1.1225911   -7.4304038    238.74028  0.028625933    0.0291127            2 
  696000    1.1414712   -7.4224912    240.13153  0.028751381   0.02910547            2 
  697000     1.145184   -7.4157008     239.8191  0.028672776  0.029098242            2 
  698000    1.1325939   -7.3975593    239.99019  0.028652124  0.029091063            2 
  699000    1.1321723   -7.3960916    240.94514  0.028724981   0.02908437            1 
  700000    1.1481378   -7.4521596    241.45888  0.028745105  0.029077286            3 
  701000    1.1270011   -7.3729423    241.72033  0.028735179  0.029070417            1 
  702000    1.1623087   -7.4292479    241.12757  0.028623881  0.029063371            3 
  703000    1.1640305   -7.4145242    241.50378   0.02862776  0.029056239            2 
  704000    1.1389322    -7.422552    241.65889  0.028605455  0.029048737            2 
  705000    1.1209667   -7.4227101    241.92549  0.028596393  0.029041082            2 
  706000    1.1369018   -7.3836768    242.21121  0.028589614  0.029033442            2 
  707000     1.137307   -7.4121458    242.90574   0.02863104  0.029025727            1 
  708000    1.1347856   -7.4059834    242.70817  0.028567346  0.029017755            1 
  709000    1.1303883   -7.3591299    243.00198  0.028561586  0.029009996            2 
  710000    1.1329783   -7.3828301    243.68377  0.028601382  0.029002253            2 
  711000    1.1278185   -7.4436663    242.88138   0.02846711  0.028994377            3 
  712000     1.113061   -7.4461217    243.65215   0.02851734  0.028986123            2 
  713000    1.1158539   -7.4070671    243.88677  0.028504765  0.028977854            1 
  714000    1.1237896   -7.3768967    244.29688  0.028512708  0.028969708            1 
  715000     1.132434   -7.3725108    244.32473  0.028476076  0.028961613            1 
  716000    1.1383992   -7.3723031    244.57485  0.028465416  0.028953795            5 
  717000    1.1525738   -7.4118715    246.29752  0.028625932  0.028945989            2 
  718000    1.1533418   -7.4163178    245.23986  0.028463308  0.028938343            2 
  719000    1.1444122   -7.4229181    245.33572  0.028434831  0.028930761            2 
  720000     1.144686   -7.4519315      246.428   0.02852176  0.028923422            4 
  721000    1.1349137   -7.3895449    247.77236  0.028637581  0.028915835            3 
  722000    1.1525465    -7.407113    247.86037  0.028608076  0.028908381            1 
  723000    1.1300231   -7.4385811    247.04419  0.028474435  0.028900696            4 
  724000    1.1495644   -7.3937493    247.42892  0.028479388  0.028892903            3 
  725000    1.1326724   -7.4578385    246.61314  0.028346338  0.028884838            3 
  726000    1.1425592   -7.4528284    247.78685  0.028442017  0.028877221            3 
  727000    1.1283099   -7.4438154    247.61271  0.028382933  0.028869357            2 
  728000    1.1216235   -7.4267478    247.44125  0.028324319  0.028860626            1 
  729000    1.1349365   -7.4213586    248.24854  0.028377748  0.028852409            2 
  730000    1.1505605   -7.4178039    248.23671  0.028337524  0.028844387            4 
  731000     1.109751    -7.409175    249.13215  0.028400838  0.028836399            8 
  732000    1.1306277   -7.3900577    249.70913  0.028427724  0.028828613            2 
  733000    1.0902099   -7.3963491      249.559  0.028371874  0.028820467            2 
  734000    1.1252886   -7.3987612    250.19007  0.028404867  0.028812311            1 
  735000     1.105461    -7.444218    249.41047  0.028277831  0.028804338            2 
  736000    1.1236757   -7.4197212    250.85931  0.028403454  0.028796435            3 
  737000    1.1635308   -7.4467638    250.84807  0.028363644  0.028788383            1 
  738000    1.1546207   -7.3843565    251.45103  0.028393296  0.028780843            1 
  739000    1.1264472   -7.4030349    251.65243  0.028377586  0.028773333            2 
  740000    1.1332459   -7.4438456    250.92791  0.028257648  0.028765929            1 
  741000    1.1310445   -7.4326739    252.10138  0.028351483  0.028758466            3 
  742000      1.11338   -7.3929503    252.47531  0.028355268  0.028750457            2 
  743000    1.1514766   -7.4354994    251.97913  0.028261455  0.028742697            2 
  744000     1.126213   -7.4378026    253.56569  0.028401175  0.028735182            1 
  745000     1.158384   -7.4531669    253.52251  0.028358222  0.028728038            3 
  746000    1.1310876   -7.4106124    254.27978  0.028404801  0.028720784            3 
  747000     1.147347   -7.4234736    254.03675  0.028339664  0.028713703            1 
  748000    1.1092959   -7.4177518    254.75044  0.028381288   0.02870638            1 
  749000    1.1491537   -7.4089009    255.11035  0.028383439  0.028698732            6 
  750000    1.1476941   -7.4253249    254.43605  0.028270673  0.028691339            2 
  751000     1.125721   -7.4425745    254.93352  0.028288229  0.028683497            6 
  752000    1.1150226   -7.3676448    256.14475  0.028384835  0.028675868            2 
  753000    1.1203974   -7.4309674    255.76081  0.028304649  0.028668202            1 
  754000    1.1114368   -7.4233753      256.388  0.028336428  0.028660394            2 
  755000    1.1430175    -7.416612    256.46104  0.028306958    0.0286525            1 
  756000    1.1236834   -7.4030264    256.73761  0.028300001  0.028645087            3 
  757000    1.1439399   -7.4199828    257.22854  0.028316661  0.028637643            2 
  758000    1.1356535   -7.4232963    257.56459  0.028316247  0.028630417            1 
  759000    1.1441158   -7.4149821    257.18116  0.028236842  0.028622953            2 
  760000    1.1301915   -7.4196658    257.76079  0.028263244  0.028615507            2 
  761000    1.1142267   -7.4404726    257.84705  0.028235551  0.028607896            4 
  762000    1.1548152   -7.4231334    258.52474   0.02827261  0.028600464            1 
  763000    1.1363336   -7.4231857    258.62018  0.028245979  0.028593068            1 
  764000    1.1504717    -7.426249    259.10528   0.02826192    0.0285856            1 
  765000    1.1193243   -7.4465529    258.85439  0.028197646  0.028578379            2 
  766000    1.1407642    -7.415364     259.5709  0.028238784  0.028571144            2 
  767000    1.1242764   -7.4501748    259.40673  0.028184129  0.028564004            2 
  768000    1.1445251   -7.4056649     259.8641   0.02819706  0.028556871            1 
  769000     1.143639   -7.4397986    260.35808  0.028213923  0.028549853            2 
  770000    1.1402177   -7.3943099    260.55921  0.028199049  0.028542692            2 
  771000    1.1225898   -7.4149736    261.32301  0.028245029  0.028535843            2 
  772000    1.1552284   -7.4489549    261.81229  0.028261258  0.028529009            1 
  773000    1.1128894   -7.4408218    260.82487  0.028118248  0.028521911            3 
  774000    1.1187977   -7.4167404    262.00694  0.028209188  0.028514721            2 
  775000    1.1174497   -7.4145963    262.71632  0.028249067  0.028507768            2 
  776000    1.1507607   -7.4398278    262.31711  0.028169792  0.028500629            4 
  777000    1.1178007   -7.4288256    263.67214  0.028278865  0.028493812            2 
  778000    1.1176296   -7.4430497    263.07251  0.028178289  0.028486674            3 
  779000     1.162141     -7.38477    264.15582  0.028258004   0.02847984            2 
  780000    1.1279239   -7.4273839    263.78643  0.028182311  0.028472936            1 
  781000    1.1522863   -7.4694633    263.88729  0.028156988  0.028466234            2 
  782000    1.1080393   -7.4672732    264.64615  0.028201849   0.02845952            1 
  783000    1.1127673   -7.4179781    265.52375  0.028259233  0.028453125            1 
  784000    1.1512975   -7.4329476    265.23417  0.028192407  0.028446876            3 
  785000    1.1363565   -7.4158517    266.44742  0.028285289  0.028440573            1 
  786000    1.1062786     -7.40485    266.58303   0.02826368  0.028434414            1 
  787000    1.1563323   -7.4826692    265.53559  0.028116856  0.028428062            3 
  788000    1.1195534   -7.4514841    267.24402  0.028261847  0.028421637            1 
  789000    1.1472439   -7.4052915    267.18076  0.028219345  0.028415282            1 
  790000    1.1137259   -7.3902103    267.13345  0.028178634  0.028408954            2 
  791000    1.1278487   -7.4316418    268.36987  0.028273269  0.028402544            3 
  792000     1.134591   -7.4345484    267.96326  0.028194787  0.028396195            2 
  793000    1.1489009   -7.4079019    268.11255  0.028174922  0.028390202            2 
  794000    1.1460224    -7.427384    268.85691  0.028217559  0.028384652            1 
  795000    1.1013621   -7.4246314    269.54469   0.02825416  0.028378918            3 
  796000    1.1228702   -7.4535612    269.77905  0.028243201   0.02837349            5 
  797000    1.0877141   -7.4449503    270.23293  0.028255221  0.028367596            1 
  798000    1.1075783   -7.4389877    270.65229  0.028263606  0.028362205            1 
  799000    1.1512525   -7.4587811    271.17618  0.028282873  0.028356785            2 
  800000    1.1142104   -7.3933295    272.30943  0.028365566  0.028351624            1 
  801000    1.1141315   -7.4585026    271.24821  0.028219748  0.028346538            3 
  802000    1.1074215   -7.4510407    271.66933  0.028228317  0.028341343            2 
  803000    1.1263755   -7.4261717    272.26926  0.028255423  0.028336179            1 
  804000    1.1289571   -7.4261017    273.04664  0.028300854  0.028331265            2 
  805000    1.0886545   -7.4442777    273.95831  0.028360074  0.028326295            2 
  806000    1.1284365   -7.4133434    273.62498  0.028290424  0.028321392            2 
  807000    1.1431168   -7.4691813    273.75562  0.028268857  0.028316495            2 
  808000    1.1243715   -7.4128338    274.82801  0.028344473  0.028311758            1 
  809000    1.1316397   -7.4743967    273.86132   0.02820986  0.028307007            3 
  810000    1.1385758   -7.4350468    275.16613  0.028309272  0.028302411            3 
  811000    1.1208238   -7.4436055    275.07473  0.028264975  0.028297395            2 
  812000    1.1197479   -7.4497925    274.80626  0.028202613  0.028292455            1 
  813000    1.1423714   -7.4371337      275.355  0.028224169  0.028287358            2 
  814000    1.1191885   -7.4212377    275.18829   0.02817243  0.028281991            3 
  815000    1.1349024   -7.4412675    275.63645  0.028183687  0.028276816            2 
  816000     1.122385   -7.4270232    276.04903  0.028191282  0.028271649            2 
  817000    1.1291586   -7.4595945     276.3195  0.028184364  0.028266049            3 
  818000    1.1090022   -7.5034782    276.39797  0.028157903  0.028260616            2 
  819000    1.0977979    -7.439555    276.76158  0.028160519  0.028255552            2 
  820000    1.1285574   -7.4114599    278.56148  0.028309093  0.028250646            2 
  821000    1.1359784   -7.5050138    276.66457  0.028082071  0.028245331            2 
  822000    1.1196864    -7.502238    276.59601  0.028040958  0.028239597            1 
  823000    1.1296494   -7.4607941     277.9538   0.02814437  0.028233941            1 
  824000     1.135401   -7.4586297    277.87489  0.028102234  0.028228072            1 
  825000     1.122168   -7.4921521    278.07029  0.028087908  0.028222261            4 
  826000    1.1538966   -7.4748982    277.75492  0.028022086    0.0282165            1 
  827000    1.1204123   -7.4637051    279.30406  0.028144302  0.028210636            3 
  828000    1.1159849   -7.4098795    279.65011   0.02814514  0.028205299            2 
  829000    1.1296312   -7.4719916    278.86822  0.028032592  0.028199776            2 
  830000    1.1026655   -7.4808056    279.03625  0.028015688  0.028193913            1 
  831000    1.1049825   -7.4629808    279.88251  0.028066838   0.02818805            3 
  832000    1.1260642   -7.4615623    280.39598  0.028084533  0.028182637            1 
  833000    1.1419605   -7.4151844    281.21179  0.028132432  0.028177439            2 
  834000    1.1427133   -7.4597722    281.09252  0.028086783  0.028172067            1 
  835000    1.1303742   -7.4788559    281.34479  0.028078323  0.028166283            3 
  836000    1.1096171   -7.3953358    281.68992  0.028079139   0.02816049            2 
  837000    1.1001975   -7.4198506    282.23125  0.028099487  0.028155017            2 
  838000    1.1283502   -7.4553557     281.9209  0.028035094  0.028149343            1 
  839000    1.1119675   -7.4801922    282.03751   0.02801326  0.028143859            2 
  840000    1.1308701   -7.4497526    281.87602  0.027963891  0.028138146            1 
  841000    1.1193381   -7.4801864    281.80364  0.027923468  0.028132358            3 
  842000    1.1290926   -7.4834569    282.02968  0.027912677   0.02812618            1 
  843000    1.1211113    -7.450614    283.20363  0.027995614  0.028120119            1 
  844000    1.1190838   -7.4822345    282.33945  0.027877118  0.028114141            2 
  845000    1.1270323   -7.4403614    283.97438  0.028005363  0.028108122            4 
  846000    1.1190688   -7.5032767    282.45977  0.027823066  0.028102005            1 
  847000    1.0858454   -7.4474473    283.57515  0.027899955  0.028095845            1 
  848000    1.1166782   -7.4161763    284.63325  0.027971035  0.028089795            1 
  849000    1.1135453   -7.4894485    284.54301  0.027929231  0.028083787            2 
  850000     1.145517   -7.4615786    284.97088  0.027938321   0.02807761            1 
  851000    1.0962882   -7.3907071    287.01526  0.028105685  0.028071721            1 
  852000    1.1315273   -7.4534967    286.33192  0.028005861  0.028066225            3 
  853000    1.1250502   -7.4689659    286.39371  0.027979065  0.028060733            2 
  854000    1.1182468   -7.3781099     287.3217  0.028036856  0.028055304            2 
  855000    1.1110386   -7.4807813    286.58812  0.027932566  0.028049716            3 
  856000    1.1286679    -7.440079    287.23704  0.027963108  0.028043906            2 
  857000    1.1340344   -7.4507293    286.98666  0.027906131  0.028038071            1 
  858000    1.1180066   -7.4202425    287.39018  0.027912799  0.028031975            2 
  859000    1.1209542   -7.4349014    287.63317  0.027903877  0.028026093            1 
  860000     1.105325    -7.443303    288.34912  0.027940806   0.02802027            1 
  861000    1.1063472   -7.4549606    288.09878  0.027884125  0.028014235            1 
  862000    1.1442218   -7.4543173    287.75582  0.027818622  0.028008074            3 
  863000    1.0955043    -7.454012    288.83432  0.027890529  0.028002183            2 
  864000    1.1219855   -7.3879737    289.65635  0.027937534  0.027996001            2 
  865000    1.1104735   -7.4470022    287.99131  0.027744828  0.027990054            1 
  866000    1.1013028   -7.4629514    288.68023  0.027779083  0.027983814            5 
  867000    1.1229144   -7.4971102    288.25896  0.027706551  0.027977385            1 
  868000    1.1092434   -7.4405455    289.09534  0.027754929  0.027970838            3 
  869000    1.0814999   -7.4577786    289.29928  0.027742547  0.027964308            2 
  870000    1.0990559   -7.5151324    288.62124  0.027645713  0.027957607            2 
  871000    1.1191832   -7.4660824    288.67453  0.027619071  0.027950787            2 
  872000    1.1170494   -7.4483667    289.27486  0.027644769  0.027943881            2 
  873000    1.1023241   -7.4555717    290.45172  0.027725441  0.027936944            2 
  874000     1.125706   -7.4574089    290.43115  0.027691757  0.027930171            1 
  875000    1.1050969   -7.5176311    289.24442  0.027547088  0.027923057            2 
  876000    1.1117607    -7.505654    290.04561  0.027591857  0.027916016            2 
  877000    1.1361363   -7.4493559    290.90076  0.027641653  0.027909001            5 
  878000    1.1412649   -7.4334321    291.74402  0.027690207  0.027902169            3 
  879000    1.1286293   -7.4675883    291.23188  0.027610152  0.027895255            2 
  880000    1.1172841   -7.5183623    291.19225  0.027575024  0.027888261            2 
  881000    1.1174941   -7.4885601    291.25976  0.027550109   0.02788112            2 
  882000    1.1144577   -7.4907424    291.44004  0.027535907  0.027874041            2 
  883000    1.1172978   -7.4682928    291.87538  0.027545808  0.027866821            1 
  884000    1.0935533    -7.465733    292.42691  0.027566639  0.027859703            1 
  885000    1.1048748   -7.4979732    292.14368  0.027508821  0.027852532            1 
  886000    1.1101331   -7.4730349    292.39872  0.027501761  0.027845293            2 
  887000    1.1056733   -7.4439487    292.98733  0.027526055  0.027838149            1 
  888000    1.1077844   -7.5135269    292.32683  0.027433074  0.027830693            4 
  889000    1.0757142   -7.4738506    292.77971  0.027444667  0.027823499            2 
  890000    1.0876208   -7.4756505     293.0739  0.027441376  0.027815961            2 
  891000    1.0867806   -7.4732234     293.6497  0.027464432  0.027808506            1 
  892000    1.1287751   -7.4887495    293.13215  0.027385291  0.027801104            2 
  893000     1.122343   -7.4766061    293.74506   0.02741182  0.027793578            2 
  894000    1.0991336   -7.4889919     293.4721  0.027355714  0.027786227            1 
  895000    1.1019944   -7.4844278     293.5169  0.027329321  0.027778608            2 
  896000    1.0963302   -7.4811739    294.58839  0.027398473  0.027771004            3 
  897000    1.1174559   -7.4742334    295.23086  0.027427616  0.027763197            2 
  898000    1.0917461   -7.4774355    294.91448  0.027367714  0.027755775            1 
  899000    1.1142308   -7.4296531    296.11766    0.0274488  0.027748367            1 
  900000    1.1168382   -7.5015329    295.75587  0.027384803  0.027741049            1 
  901000    1.1080149   -7.4801759    296.98825  0.027468391  0.027733803            3 
  902000    1.0907234   -7.4306616    297.06575  0.027445099  0.027726819            1 
  903000    1.1002223   -7.5014886    297.29863  0.027436197  0.027719815            2 
  904000    1.0976862   -7.4524203    298.24161  0.027492774  0.027712999            2 
  905000    1.0927265    -7.456911     298.2541  0.027463545  0.027706184            4 
  906000    1.0982081   -7.4320312    298.41154  0.027447713  0.027699284            1 
  907000    1.1081882   -7.5226291    298.18677    0.0273968  0.027692411            2 
  908000    1.0889011    -7.456898    299.92539  0.027526192   0.02768569            3 
  909000    1.1030829   -7.4520945    299.30837  0.027439345   0.02767869            3 
  910000    1.1004092   -7.5322072    297.76784  0.027268117  0.027671687            2 
  911000    1.0949539   -7.4621431    299.13407  0.027363161  0.027664503            2 
  912000    1.0804137   -7.4933723    299.43862  0.027360985  0.027657558            4 
  913000    1.0954782    -7.487168    299.43922  0.027331072  0.027650429            2 
  914000    1.1116502   -7.4714603    300.63073  0.027409804  0.027643467            2 
  915000    1.1128789   -7.5159567    299.23308  0.027252557  0.027636427            1 
  916000    1.1185752   -7.4962842    300.79632  0.027365022   0.02762927            1 
  917000    1.0973956   -7.4780651     300.9563  0.027349719  0.027622021            1 
  918000     1.108552   -7.4879985    300.77001  0.027303015  0.027614838            3 
  919000    1.1317144   -7.4880294    301.22991  0.027315008  0.027607744            3 
  920000    1.1176194   -7.4651846    302.28229  0.027380642  0.027600813            2 
  921000    1.1180259   -7.4969704    302.34263  0.027356372  0.027593847            2 
  922000    1.1215408   -7.4473964    302.86293  0.027373728  0.027586843            2 
  923000    1.0880591   -7.4968006    302.61392  0.027321589   0.02757978            3 
  924000    1.0934258   -7.4839747    301.72932   0.02721224  0.027572306            1 
  925000    1.0917728   -7.4950911    301.73873   0.02718367   0.02756504            1 
  926000    1.1010307   -7.5156022     302.6521   0.02723651    0.0275576            3 
  927000    1.1132423   -7.4705686    304.54271  0.027377086  0.027550137            2 
  928000    1.1003308   -7.4763045    302.84443  0.027195082  0.027543004            1 
  929000    1.1186313   -7.5233931    302.83893  0.027165315  0.027535476            1 
  930000    1.1027552   -7.5031571     302.9942  0.027150017  0.027528245            2 
  931000    1.1247347   -7.5040579    303.18604  0.027138027  0.027520782            2 
  932000    1.1017928   -7.5200668    304.19287  0.027198933  0.027513412            1 
  933000    1.1150459   -7.4924369    303.85147  0.027139288  0.027506158            1 
  934000    1.0787991   -7.5017466     304.3509  0.027154791  0.027498957            2 
  935000    1.1171804   -7.5255201    305.77399  0.027252584  0.027491768            2 
  936000    1.1151972   -7.4611025    305.98316   0.02724209  0.027484646            1 
  937000    1.0580163   -7.4816179    306.55575  0.027263941  0.027477571            1 
  938000    1.0887403   -7.4963508    306.79506  0.027256136  0.027470591            1 
  939000    1.1014235   -7.4755147    306.85543  0.027232466  0.027463627            1 
  940000    1.1036727   -7.5053125    306.57038  0.027178225  0.027456727            3 
  941000    1.1014531   -7.5029443    306.95767   0.02718364  0.027449648            1 
  942000    1.1093227    -7.537663    305.46454  0.027022695  0.027442141            3 
  943000    1.1245276   -7.4991007    306.33802  0.027071228  0.027434668            3 
  944000    1.1002465   -7.4891974     306.9388  0.027095586  0.027427141            1 
  945000    1.0987312   -7.4904209    307.51924  0.027118099   0.02741967            6 
  946000    1.1257453   -7.4900973    307.38465  0.027077577  0.027412292            3 
  947000    1.0927376   -7.5011646    308.06745  0.027109068  0.027405089            1 
  948000    1.0844861   -7.4644463    309.31525  0.027190159   0.02739815            4 
  949000    1.0871447   -7.5003598    309.01806  0.027135411  0.027391199            5 
  950000    1.1124322   -7.5234366    308.71096  0.027079909  0.027384054            2 
  951000    1.1055873   -7.5041274     308.6782  0.027048563  0.027376968            1 
  952000    1.1126734   -7.4873729    309.95802   0.02713218  0.027370064            3 
  953000    1.1235936   -7.5183159    310.28318  0.027132143  0.027362941            2 
  954000    1.0846398   -7.5319151     309.8989  0.027070135  0.027355728            2 
  955000    1.1150127   -7.4961582    310.23598  0.027071202  0.027348727            3 
  956000    1.1130833   -7.5435499     310.3431  0.027052223  0.027341703            1 
  957000    1.1085041   -7.5334773    310.43382  0.027031855  0.027334696            2 
  958000    1.0902715   -7.4880148     311.6384   0.02710842  0.027328064            2 
  959000     1.104766   -7.4610834    312.89371  0.027189234  0.027321447            2 
  960000    1.0807857   -7.4733902    312.07332  0.027089698  0.027314829            5 
  961000    1.1122323    -7.499741    311.57153  0.027017996  0.027307889            2 
  962000    1.0801825   -7.5104334    312.80024  0.027096348  0.027300956            2 
  963000    1.0835804   -7.4903864    312.06921  0.027004951  0.027294115            3 
  964000     1.078626    -7.539551     311.9569  0.026967229  0.027287283            2 
  965000    1.1139463   -7.5012059    313.45729  0.027068851  0.027280678            2 
  966000    1.1003544   -7.4699127    314.49331  0.027130203  0.027274121            1 
  967000    1.0857623   -7.5160273    314.03264  0.027062448  0.027267368            3 
  968000    1.0796827   -7.5026285    313.63602  0.027000346  0.027260372            2 
  969000    1.1169226    -7.549216    313.63953  0.026972784  0.027253303            1 
  970000    1.0962444    -7.528771     314.6679  0.027033325   0.02724626            2 
  971000    1.1006174   -7.4941861    314.12049  0.026958504  0.027239365            2 
  972000    1.1040165   -7.4781744    314.84605  0.026992974  0.027232607            4 
  973000    1.0868943   -7.5653782    315.02827  0.026980838  0.027225723            3 
  974000    1.1065663   -7.4688929    315.64069  0.027005534  0.027218577            3 
  975000    1.0855384    -7.499995    315.23827  0.026943442  0.027211631            2 
  976000    1.1091932   -7.5273038     315.5532  0.026942725  0.027204765            2 
  977000    1.1042222   -7.4827858    316.02254   0.02695518   0.02719783            2 
  978000    1.1176903   -7.4933066    316.68448  0.026984022  0.027190819            1 
  979000    1.1034965    -7.540174    316.59769  0.026949072  0.027183774            3 
  980000    1.1017221   -7.5051166     316.4015  0.026904889  0.027176603            1 
  981000    1.0790435   -7.5042867    315.99867  0.026843244  0.027169466            4 
  982000    1.0875136   -7.5026811    317.39085   0.02693405  0.027162564            6 
  983000    1.1063687    -7.506179    316.75573  0.026852808  0.027155575            1 
  984000     1.086866   -7.5169511    316.14255   0.02677359  0.027148373            1 
  985000    1.0831551   -7.4894222    317.31949  0.026845981  0.027141106            3 
  986000    1.1054573   -7.5114172    317.84035  0.026862774  0.027133664            2 
  987000    1.0860606   -7.5196933     317.1228  0.026774975  0.027126198            3 
  988000     1.097731   -7.4816122    319.62437  0.026958871  0.027119004            1 
  989000    1.0976997   -7.5218972    318.17561  0.026809539  0.027111841            2 
  990000    1.0787086    -7.557953    318.55768  0.026814619  0.027104352            3 
  991000    1.0776814   -7.5664503    317.45196  0.026694581  0.027096577            6 
  992000    1.0790943   -7.5408613    318.05129  0.026718019  0.027089115            3 
  993000    1.1215389   -7.4915423    319.76295  0.026834755  0.027081725            1 
  994000    1.0938993    -7.546733    319.36797  0.026774645  0.027074416            2 
  995000    1.0856396    -7.511686    319.81898  0.026785509    0.0270672            1 
  996000    1.0863857   -7.5624084    320.23899  0.026793758  0.027059922            3 
  997000    1.0949076   -7.4789227    321.33993  0.026858904  0.027052631            2 
  998000    1.0893162   -7.5146123    321.57952  0.026851997  0.027045421            4 
  999000    1.0778382   -7.5209419     320.8302  0.026762613  0.027038172            2 
 1000000    1.0937383   -7.5196514    321.17517  0.026764598  0.027030722            4 
 1001000    1.0754562   -7.5341952    321.60635  0.026773755  0.027023625            2 
 1002000    1.0762479   -7.5506478    321.54413   0.02674186   0.02701646            1 
 1003000    1.0778992    -7.516018    322.86202  0.026824695  0.027009414            2 
 1004000    1.0880023    -7.529056    322.78276  0.026791398  0.027002276            2 
 1005000     1.078844   -7.5101677    323.38726  0.026814864   0.02699553            1 
 1006000    1.0937546   -7.4983471    322.89652  0.026747558  0.026988661            1 
 1007000    1.0931651    -7.479861    323.99155  0.026811614  0.026981963            1 
 1008000    1.0652724   -7.5086525    324.83391  0.026854656  0.026975299            2 
 1009000    1.0604753   -7.5240622    324.97535  0.026839721  0.026968694            1 
 1010000    1.0969795   -7.5462283    325.29759  0.026839735  0.026962248            2 
 1011000    1.1163503   -7.5797881    325.65657  0.026842777   0.02695573            3 
 1012000    1.0690481   -7.5363583    325.55582  0.026807956  0.026949368            3 
 1013000    1.1094686   -7.4833321     326.1201  0.026827912  0.026943113            3 
 1014000    1.0799912   -7.5761626    325.55487  0.026755002  0.026936782            2 
 1015000    1.0938671   -7.5374364    326.93118  0.026841641  0.026930367            4 
 1016000      1.09993   -7.4913763    328.34309  0.026931028  0.026924239            2 
 1017000    1.0763395   -7.4752493    328.43788  0.026912314  0.026918299            6 
 1018000    1.0685828   -7.5737479    327.09169  0.026775678  0.026912097            2 
 1019000    1.0827144   -7.5212638    328.13498  0.026834722  0.026905941            3 
 1020000    1.0972514   -7.5772827    328.02457  0.026799393  0.026899656            2 
 1021000    1.0984302   -7.5920025    326.30452  0.026632755  0.026893165            2 
 1022000    1.0785811   -7.5117241    328.89694  0.026818081  0.026886843            4 
 1023000    1.0942012   -7.5293863     328.8211  0.026785687  0.026880636            1 
 1024000    1.0728971   -7.5151943    329.74877  0.026835024  0.026874652            3 
 1025000    1.0828182   -7.5574189    328.26009  0.026687812  0.026868613            1 
 1026000    1.0879221   -7.5108748    330.45711  0.026840246  0.026862403            1 
 1027000    1.0861283   -7.5427557    329.33192  0.026722811  0.026856161            1 
 1028000    1.0803509    -7.570424    329.79862  0.026734649  0.026849559            1 
 1029000    1.1042486    -7.551192    329.22818   0.02666247  0.026843094            2 
 1030000    1.0623688   -7.5438918    329.81838  0.026684335  0.026836694            1 
 1031000    1.0956506   -7.5607945    329.71154  0.026649817  0.026829973            2 
 1032000    1.0685714   -7.5331744    330.11937  0.026656926  0.026823384            1 
 1033000     1.077575   -7.5485459    331.71812  0.026760093  0.026817007            3 
 1034000    1.0833823   -7.5389973     331.2139  0.026693577  0.026810886            2 
 1035000    1.0927951   -7.5264941    331.31009   0.02667553  0.026804546            1 
 1036000    1.0861201    -7.550459    331.02171  0.026626585  0.026798183            2 
 1037000    1.0771789   -7.5354751    331.33516  0.026626097   0.02679172            2 
 1038000    1.0805873   -7.5356841    331.82045  0.026639407  0.026785322            2 
 1039000    1.1071774   -7.5549388    332.14337  0.026639667  0.026778816            2 
 1040000    1.0568637   -7.5538673    332.59534  0.026650267  0.026772431            3 
 1041000    1.0633274   -7.5558319    332.68266  0.026631657  0.026766055            1 
 1042000    1.0910557   -7.5425388    333.04949  0.026635436   0.02675961            2 
 1043000    1.0722359   -7.5557092    331.93031  0.026520479   0.02675286            1 
 1044000    1.0900961   -7.5609533    331.71729  0.026478072  0.026746204            1 
 1045000     1.085686   -7.5743823    332.93732  0.026550025   0.02673958            2 
 1046000    1.0793747   -7.5788326    332.63389  0.026500469  0.026733089            2 
 1047000    1.0972179   -7.5726465    333.76643    0.0265653   0.02672643            2 
 1048000    1.0944418   -7.5687757    334.38063   0.02658879   0.02671997            2 
 1049000    1.0733672    -7.565292    334.27706  0.026555216  0.026713463            2 
 1050000     1.087267   -7.5806391    334.95931  0.026584072  0.026707033            2 
 1051000    1.0888259   -7.5672955    334.43367  0.026517101  0.026700599            2 
 1052000    1.0895394   -7.5574232    335.99863  0.026615861  0.026694154            7 
 1053000    1.0755556   -7.6007547    334.51002  0.026472777  0.026687663            2 
 1054000    1.0797359   -7.5731989     334.9724  0.026484219  0.026681067            5 
 1055000    1.0891044   -7.5801565    334.46947  0.026419389  0.026674453            2 
 1056000    1.1009219     -7.55854    334.99133  0.026435553  0.026667735            5 
 1057000    1.0865962   -7.5319483    335.16072  0.026423898  0.026661019            2 
 1058000    1.0905337   -7.5542137    336.48525  0.026503249  0.026654424            5 
 1059000    1.0701162   -7.5632599    336.75655  0.026499571  0.026647931            2 
 1060000    1.0861196   -7.5692059    336.62502  0.026464231  0.026641415            3 
 1061000    1.0893125   -7.5890542    336.47471  0.026427483  0.026634863            2 
 1062000    1.0828818   -7.5143241    337.34577  0.026470949  0.026628328            3 
 1063000    1.0972979   -7.5280736    337.41777  0.026451691   0.02662178            1 
 1064000     1.082639   -7.5633699    337.80703  0.026457317  0.026615183            1 
 1065000    1.0825908    -7.568188    337.31563  0.026394024  0.026608646            2 
 1066000    1.0754127   -7.5755387    338.79661  0.026485038  0.026602252            1 
 1067000    1.0666595   -7.5139654    339.68422  0.026529539  0.026595909            4 
 1068000    1.0709762   -7.5834911    339.03338  0.026453915  0.026589525            2 
 1069000    1.0817708   -7.5913734    338.83953  0.026414057  0.026582892            1 
 1070000    1.1081219   -7.5626197    339.30259  0.026425435  0.026576396            7 
 1071000    1.0718963   -7.5850441     339.5116  0.026417024  0.026569822            3 
 1072000    1.0739021   -7.5359335    339.53504  0.026394204   0.02656329            5 
 1073000    1.0805967   -7.5362605    340.02343  0.026407536  0.026556573            2 
 1074000    1.0756404   -7.5589865    339.85806  0.026370116  0.026549929            1 
 1075000    1.0800242   -7.5749175    340.23098  0.026374494  0.026543344            3 
 1076000    1.1047802   -7.5676723    340.42586  0.026365076  0.026536819            3 
 1077000    1.1103115   -7.5500045    340.85523  0.026373819  0.026530227            4 
 1078000    1.0819792   -7.5164131    342.13028  0.026447919  0.026523996            3 
 1079000    1.0741493    -7.548107    341.99949  0.026413306  0.026517714            4 
 1080000    1.0800513   -7.5329395    341.54098  0.026353471  0.026511131            4 
 1081000      1.08273   -7.6041739    340.78618  0.026270905  0.026504701            2 
 1082000    1.0643338    -7.596584    341.31343  0.026287233  0.026497921            3 
 1083000    1.0893055     -7.53815    341.91204  0.026309021  0.026491361            2 
 1084000    1.1005521   -7.5781846    342.26389  0.026311799  0.026484666            3 
 1085000     1.086383   -7.5720662    341.74057  0.026247356   0.02647796            2 
 1086000    1.0588035   -7.5596852    343.25814  0.026339636  0.026471247            4 
 1087000    1.0549009    -7.599701    342.24841  0.026237995  0.026464416            1 
 1088000    1.0825881   -7.5427396    344.12591  0.026357683  0.026457648            1 
 1089000    1.0583253   -7.5729619    343.41333  0.026278951  0.026450975            2 
 1090000    1.0852291   -7.5615879    343.79882  0.026284313   0.02644434            1 
 1091000    1.0747662   -7.5227511    344.63127  0.026323806  0.026437894            1 
 1092000    1.0836039   -7.5474994    344.32296  0.026276173  0.026431385            2 
 1093000      1.07774   -7.5468102    344.85961  0.026293048  0.026424873            2 
 1094000    1.0923591   -7.5967893    344.71534  0.026258024  0.026418299            2 
 1095000    1.0781474   -7.5750046    344.80935  0.026241199  0.026411707            3 
 1096000    1.0889046   -7.5512895    345.36797   0.02625973  0.026405136            1 
 1097000    1.0563974    -7.599216    345.57043  0.026251172  0.026398579            2 
 1098000    1.0853172    -7.579165    345.70539  0.026237507  0.026391961            2 
 1099000     1.068439   -7.5615191    345.91749  0.026229716  0.026385482            1 
 1100000    1.0581196   -7.5493003    346.45804  0.026246822  0.026379076            4 
 1101000    1.0583318   -7.5561924    347.70034   0.02631701  0.026372602            2 
 1102000    1.0647865    -7.574847    346.91306  0.026233595  0.026366248            1 
 1103000    1.0658479   -7.5555309    347.19391   0.02623103  0.026359917            2 
 1104000    1.0564846   -7.5827863    348.82071  0.026330066   0.02635364            2 
 1105000    1.0763971    -7.556357    348.22346  0.026261196  0.026347366            2 
 1106000      1.09063   -7.5611071    349.16739  0.026308574  0.026341037            6 
 1107000    1.1047228     -7.58079    348.45766  0.026231381  0.026334921            1 
 1108000    1.0686524   -7.5741062    347.86933  0.026163457  0.026328575            5 
 1109000    1.0472755   -7.5798619     348.1721  0.026162617  0.026322148            1 
 1110000    1.0774104   -7.5505081    348.80541  0.026186593  0.026315884            1 
 1111000    1.0528615   -7.5799389    350.01427  0.026253695  0.026309876            1 
 1112000    1.0720309   -7.5483889     348.7193  0.026133041  0.026303672            2 
 1113000    1.0810694   -7.6063504    349.15094   0.02614188  0.026297099            6 
 1114000    1.0633814   -7.5506394    349.91754  0.026175758  0.026290627            1 
 1115000    1.0745074   -7.6206511    350.25619  0.026177592  0.026284036            2 
 1116000    1.0441439   -7.5793166     349.4798  0.026096162  0.026277421            2 
 1117000    1.0770692   -7.5862377    350.48715  0.026147952  0.026270889            2 
 1118000    1.0762228   -7.5274646    350.72341  0.026142174  0.026264483            3 
 1119000    1.0544325   -7.5589878    351.47624  0.026174876  0.026258186            1 
 1120000    1.0595061     -7.58699    351.50746  0.026153829  0.026251875            1 
 1121000    1.0755708   -7.5471435    351.59329  0.026136878  0.026245754            2 
 1122000     1.082963   -7.5351067    352.76886  0.026200896  0.026239674            2 
 1123000    1.0779603   -7.5821545    353.75416   0.02625068  0.026233506            1 
 1124000    1.0749919   -7.6019563    352.57696  0.026140048  0.026227356            3 
 1125000    1.0781901   -7.5986974    353.34318  0.026173569  0.026221269            2 
 1126000    1.0811928   -7.5862682    353.22918  0.026141887  0.026215188            2 
 1127000    1.0753082   -7.5452978    353.51308  0.026139683  0.026209069            1 
 1128000    1.0387096   -7.5327711    355.28282  0.026247253  0.026202942            2 
 1129000    1.0810802   -7.6291127    353.55327  0.026096344  0.026196813            2 
 1130000    1.0890729   -7.5557288    354.95352  0.026176513   0.02619058            6 
 1131000    1.0717673   -7.5850368    353.67189  0.026058937  0.026184184            2 
 1132000    1.0737756   -7.6024292     354.1096  0.026068139  0.026177944            2 
 1133000     1.077956   -7.5896939    355.50488  0.026147755  0.026171758            4 
 1134000     1.043796   -7.5830523    355.52327  0.026126049  0.026165586            1 
 1135000    1.0759676   -7.5554411    355.36179  0.026091174  0.026159316            4 
 1136000    1.0729635   -7.6004884    354.69118  0.026019012  0.026152942            1 
 1137000    1.0928622   -7.6201255    354.97329  0.026016806   0.02614654            2 
 1138000     1.090919   -7.5739602    355.64085  0.026042827   0.02614029            5 
 1139000    1.0908728   -7.5720521     356.2946  0.026067793  0.026134002            1 
 1140000    1.0868611   -7.5401777    356.90144  0.026089287  0.026127735            4 
 1141000    1.0582845   -7.5725353    355.94309  0.025996428  0.026121504            8 
 1142000    1.0499571   -7.5947568    356.32956  0.026001865  0.026115044            4 
 1143000    1.0781751   -7.5952846     356.4798   0.02599007   0.02610883            1 
 1144000    1.0877083   -7.5653297    357.35746  0.026031284   0.02610254            2 
 1145000    1.0368092   -7.5815698    357.73701  0.026036173   0.02609634            4 
 1146000    1.0822552   -7.5403037    358.05784  0.026036783  0.026090053            1 
 1147000    1.0866986   -7.5688239    358.20449  0.026024738  0.026083828            1 
 1148000    1.0836696   -7.5802672    357.50484  0.025951281   0.02607758            1 
 1149000    1.0488177   -7.5555542    358.28584  0.025985338  0.026071217            3 
 1150000     1.085988    -7.556676    358.86598  0.026004781  0.026064965            2 
 1151000    1.0787665   -7.6037489    358.13214  0.025929057  0.026058664            3 
 1152000    1.0876628   -7.5902241    357.91074  0.025890534  0.026052184            2 
 1153000     1.071784   -7.6151656    357.49181  0.025837801  0.026045372            8 
 1154000    1.0589594   -7.5786572    359.05139  0.025928032   0.02603864            1 
 1155000    1.0835671   -7.6007086    358.48809  0.025864942  0.026031859            1 
 1156000    1.0645631   -7.5784165    359.32507  0.025902903  0.026025182            1 
 1157000    1.0745968   -7.5498443    359.13952   0.02586715  0.026018599            1 
 1158000    1.0722784   -7.5965291    358.53251  0.025801131  0.026011838            2 
 1159000    1.0701539   -7.5750294    359.72221   0.02586441  0.026005097            3 
 1160000    1.0627218   -7.5951967    359.26823  0.025809499  0.025998291            2 
 1161000    1.0666908   -7.5882478    360.34358  0.025864454  0.025991686            4 
 1162000    1.0568061   -7.6140484    359.18063  0.025758795  0.025984957            4 
 1163000    1.0689052   -7.6390594    360.10368  0.025802786  0.025978075            2 
 1164000    1.0512642    -7.619424    359.82894  0.025760949  0.025971346            2 
 1165000     1.046056   -7.5915253    359.59709  0.025722252  0.025964642            3 
 1166000     1.057776   -7.5814445     360.4194  0.025758962  0.025957886            6 
 1167000    1.0718113   -7.5669703    360.91469  0.025772257  0.025951183            2 
 1168000    1.0763322   -7.6004226    361.30564  0.025778085  0.025944348            4 
 1169000    1.0655384   -7.5824802    361.07828  0.025739826  0.025937414            4 
 1170000    1.0614438   -7.5378749    362.15043   0.02579419  0.025930613            1 
 1171000    1.0824607   -7.5505541    362.15526  0.025772506  0.025923899            1 
 1172000    1.0773226   -7.5828085    361.42151  0.025698344   0.02591712            1 
 1173000    1.0589113   -7.6035994    362.21068  0.025732501  0.025910084            1 
 1174000    1.0705646   -7.5727138    361.78116  0.025680094  0.025903101            1 
 1175000    1.0597019   -7.6507092    360.50351  0.025567625  0.025896102            4 
 1176000    1.0763039   -7.6276124    361.44886  0.025612873  0.025889031            1 
 1177000    1.0432196   -7.6062609    362.95697  0.025697888  0.025882084            3 
 1178000    1.0578882   -7.5679111    364.46161  0.025782513  0.025875312            2 
 1179000     1.084944    -7.623668    363.04302  0.025660378  0.025868634            3 
 1180000    1.0679034   -7.5911998    363.27644  0.025655116  0.025861853            2 
 1181000    1.0942249   -7.5880175    364.58413  0.025725665  0.025855174            4 
 1182000    1.0760858   -7.5923836    365.54602  0.025771716  0.025848443            2 
 1183000    1.0591556    -7.612064    363.83268  0.025629239  0.025841698            2 
 1184000    1.0494572   -7.6208378    364.52377  0.025656234  0.025834976            3 
 1185000    1.0738394   -7.5909384    364.98349  0.025666912  0.025828213            1 
 1186000    1.0891187    -7.593729    365.03983  0.025649229   0.02582157            1 
 1187000    1.0647869   -7.6199105    365.22038  0.025640296  0.025814807            3 
 1188000    1.0798158   -7.5704931    366.98916  0.025742786   0.02580812            1 
 1189000     1.084935   -7.6199254    365.41754  0.025610985  0.025801528            4 
 1190000    1.0761884   -7.6102131    365.81536  0.025617322  0.025794809            1 
 1191000    1.0577542   -7.5813594    367.18124  0.025691383  0.025787982            4 
 1192000    1.0544181   -7.5842119    366.56263  0.025626582  0.025781247            4 
 1193000    1.0919782   -7.6262247    366.84556  0.025624865  0.025774543            3 
 1194000    1.0621365   -7.6024104     366.9049  0.025607545  0.025767962            1 
 1195000    1.0687728   -7.5776327    368.05814  0.025666537  0.025761262            3 
 1196000    1.0650485   -7.6254048    367.15956  0.025582466  0.025754527            2 
 1197000    1.0510023   -7.6136565     367.7653  0.025603265  0.025747868            1 
 1198000    1.0451869   -7.6161184    368.12392  0.025606839  0.025741299            3 
 1199000    1.0629144   -7.6351823    366.83614  0.025495978  0.025734581            2 
 1200000     1.063431   -7.6136849    368.18655  0.025568511  0.025727815            3 
 1201000    1.0732241   -7.5973762    368.48739  0.025568095  0.025721109            2 
 1202000    1.0869132   -7.5958587    368.99572  0.025582066  0.025714575            1 
 1203000    1.0596878   -7.6039398    369.86671  0.025621135   0.02570821            1 
 1204000    1.0698654   -7.5690242    370.47908   0.02564224  0.025701875            3 
 1205000    1.0569322   -7.6270521    368.92368  0.025513394  0.025695347            3 
 1206000    1.0714165   -7.5810691    371.00803  0.025636265  0.025688734            2 
 1207000    1.0701358   -7.6200109    370.64525  0.025589979  0.025682161            1 
 1208000    1.0592726   -7.5941872    370.28946  0.025544251   0.02567556            3 
 1209000    1.0737341   -7.6099987    369.92342  0.025497892  0.025668774            1 
 1210000    1.0478623   -7.5971435     370.0767  0.025487376  0.025662154            1 
 1211000    1.0656357   -7.6478826    371.26934    0.0255484  0.025655476            7 
 1212000    1.0662538   -7.6127844    371.58747  0.025549193  0.025648766            2 
 1213000    1.0455321   -7.6145435    371.34834  0.025511702  0.025642269            2 
 1214000    1.0322093   -7.6108378    371.99482  0.025535065  0.025635843            2 
 1215000     1.048523   -7.6241563    371.75973  0.025497924  0.025629407            1 
 1216000    1.0525841   -7.6275278    372.56205  0.025531939  0.025623019            1 
 1217000    1.0523269   -7.6210763    373.90047  0.025602607  0.025616504            1 
 1218000    1.0516887   -7.6392154    372.64293  0.025495548  0.025610124            2 
 1219000    1.0433568   -7.6502149    372.00409  0.025430961  0.025603617            2 
 1220000    1.0214886   -7.6112598    372.64526  0.025453911  0.025597069            3 
 1221000    1.0863118    -7.591229    373.25481  0.025474666  0.025590691            1 
 1222000    1.0649524   -7.6090726    373.62354  0.025478965  0.025584437            5 
 1223000    1.0848551   -7.5606394    373.57676  0.025454944  0.025578313            5 
 1224000    1.0776606   -7.6392915    373.12679  0.025403512   0.02557192            4 
 1225000    1.0347412   -7.6385201      372.972  0.025372245  0.025565403            4 
 1226000    1.0429674   -7.6643505    373.44875  0.025383956  0.025558887            2 
 1227000    1.0434399   -7.6541529    374.24495  0.025417342  0.025552241            1 
 1228000    1.0579645   -7.6160217    374.56857  0.025418606   0.02554565            3 
 1229000     1.052964   -7.6581548    374.60726  0.025400546  0.025539054            1 
 1230000    1.0664033   -7.5927105     375.0156  0.025407561  0.025532636            2 
 1231000    1.0741831   -7.5968847    376.15869  0.025464303  0.025526339            2 
 1232000     1.034948   -7.6314503    376.73085  0.025482335  0.025519993            5 
 1233000      1.04364   -7.6348375    377.13867  0.025489232  0.025513765            1 
 1234000     1.047952   -7.6019567     376.3875  0.025417848  0.025507545            1 
 1235000    1.0761382   -7.6176223    376.88639   0.02543093  0.025501254            2 
 1236000    1.0427843   -7.6302555    377.27407  0.025436493  0.025494824            1 
 1237000    1.0371797   -7.6186452    377.15912  0.025408186  0.025488376            4 
 1238000    1.0529661    -7.607265    378.28182  0.025463235  0.025481959            2 
 1239000    1.0330153   -7.6575613    377.47141  0.025388176   0.02547566            5 
 1240000    1.0606024   -7.5935654    377.29139  0.025355604  0.025469346            2 
 1241000    1.0298373   -7.6420227    376.54256  0.025284888  0.025463174            2 
 1242000    1.0414886   -7.6289786    379.09836  0.025436014  0.025456957            3 
 1243000    1.0524514   -7.6180451    378.46692  0.025373218  0.025450701            2 
 1244000    1.0391986   -7.6372378     378.9776  0.025387031  0.025444212            1 
 1245000    1.0497774   -7.6739201    377.44843  0.025264286  0.025437752            5 
 1246000    1.0535179   -7.6431131    379.59523  0.025387589  0.025431309            1 
 1247000    1.0726297   -7.6477278    378.11802  0.025268512   0.02542479            2 
 1248000     1.050712   -7.6585301     378.7576  0.025290972  0.025418287            2 
 1249000    1.0446348   -7.5680665    380.23414  0.025369238  0.025411902            4 
 1250000    1.0316287   -7.6500303    380.04909  0.025336606   0.02540554            2 
 1251000    1.0733551   -7.5898991     380.0412  0.025315828  0.025399211            1 
 1252000    1.0686814   -7.6020224    380.18088  0.025304904  0.025392903            2 
 1253000    1.0453546   -7.5805341    381.21655  0.025353588  0.025386736            5 
 1254000    1.0503428   -7.6045177    380.86433  0.025309963  0.025380571            5 
 1255000     1.065538   -7.6326186    380.61037  0.025272933  0.025374251            2 
 1256000    1.0488925   -7.6580643    380.62131  0.025253537  0.025367927            3 
 1257000    1.0577638   -7.6158707    381.94686  0.025321325  0.025361663            1 
 1258000    1.0473331   -7.6015921    381.14572  0.025248127  0.025355317            1 
 1259000    1.0592038    -7.666606     381.1722  0.025229825  0.025348918            3 
 1260000    1.0575262   -7.6226916    381.89847  0.025257836  0.025342555            1 
 1261000    1.0514326   -7.6276516     381.5897  0.025217401  0.025336204            4 
 1262000     1.055542   -7.6464971    381.90879  0.025218488  0.025329862            2 
 1263000    1.0665221   -7.6513944    382.44985  0.025234221  0.025323578            2 
 1264000    1.0417794   -7.6561224     381.6139  0.025159144  0.025317195            2 
 1265000    1.0510951   -7.5994565    382.66646  0.025208594  0.025310786            1 
 1266000    1.0549955   -7.6634756    383.07084    0.0252153  0.025304372            2 
 1267000    1.0461606   -7.6141835    382.70105  0.025171077  0.025298016            2 
 1268000    1.0308787    -7.621528    383.79748  0.025223283  0.025291682            3 
 1269000    1.0543024    -7.613959    384.43622  0.025245352  0.025285432            5 
 1270000    1.0447252   -7.6552138    383.30633  0.025151334  0.025279093            3 
 1271000    1.0337583   -7.6310844    383.92304   0.02517198  0.025272736            4 
 1272000    1.0486668   -7.6362289    384.72493  0.025204725  0.025266398            2 
 1273000    1.0572393    -7.678505    383.38682   0.02509733  0.025259889            2 
 1274000    1.0330049   -7.5982809    384.42493  0.025145534  0.025253392            2 
 1275000    1.0349073   -7.6746219    383.16489  0.025043457  0.025246901            1 
 1276000    1.0520029   -7.5984641    385.30383  0.025163521   0.02524033            1 
 1277000    1.0484244   -7.6418565    384.01749  0.025059873  0.025233816            1 
 1278000    1.0538087    -7.651595    384.41074  0.025065906  0.025227098            1 
 1279000    1.0453957   -7.6172616    384.79871  0.025071587   0.02522028            3 
 1280000     1.030574   -7.6143923    384.74823  0.025048713  0.025213403            2 
 1281000    1.0384753   -7.6612166    384.72045  0.025027352  0.025206385            2 
 1282000      1.03798   -7.6309979    384.49571  0.024993221  0.025199414            2 
 1283000    1.0510226   -7.6311111    384.72253  0.024988473  0.025192314            2 
 1284000    1.0536622   -7.6145527    384.74768  0.024970644  0.025185281            2 
 1285000    1.0449683   -7.6454522    385.20776  0.024981048  0.025178399            3 
 1286000    1.0432502   -7.6265287    385.39089  0.024973489  0.025171439            2 
 1287000    1.0390397   -7.6264144    385.94958   0.02499026  0.025164442            3 
 1288000    1.0610402   -7.6105894    384.53057  0.024879048  0.025157378            2 
 1289000    1.0486119   -7.6203825    386.03134  0.024956772  0.025150309            1 
 1290000    1.0379079    -7.615202    384.94521  0.024867262  0.025143233            2 
 1291000    1.0468241   -7.6797231    385.04533  0.024854462  0.025135987            3 
 1292000    1.0280824   -7.6754948    383.89416  0.024760975  0.025128463            4 
 1293000    1.0232444   -7.6755823     384.5005  0.024780904  0.025121005            6 
 1294000    1.0402256   -7.6300431    385.91635  0.024852934  0.025113697            1 
 1295000    1.0232456   -7.6367065    386.47905  0.024869952  0.025106484            1 
 1296000    1.0394977   -7.6771927    386.11312  0.024827233  0.025099137            1 
 1297000    1.0525525   -7.6105161    386.90754  0.024859133  0.025091855            3 
 1298000    1.0373618   -7.6452112    385.98202  0.024780561  0.025084561            6 
 1299000    1.0636517   -7.6401578    386.89495  0.024820051  0.025077228            1 
 1300000    1.0240977   -7.6138113    388.74247  0.024919389  0.025069982            2 
 1301000    1.0023215    -7.658794    385.56959  0.024697002  0.025062802            5 
 1302000    1.0443702    -7.662203    387.97876   0.02483223  0.025055477            3 
 1303000    1.0606424   -7.6423573    388.04017  0.024817099  0.025048336            2 
 1304000    1.0321134   -7.6643928    388.55549     0.024831  0.025041177            2 
 1305000    1.0431619    -7.714989    387.95638  0.024773715   0.02503396            1 
 1306000    1.0295714   -7.6607318    387.69364  0.024737981  0.025026859            2 
 1307000      1.03631   -7.6386656    389.05761  0.024806019  0.025019771            2 
 1308000    1.0657381    -7.657957    389.40213  0.024809004  0.025012803            2 
 1309000    1.0377229   -7.6906572    388.88856  0.024757357  0.025005813            5 
 1310000    1.0391752   -7.6597082    388.91784  0.024740321  0.024998854            1 
 1311000    1.0399105   -7.6594203    389.37687  0.024750627  0.024991755            2 
 1312000    1.0183255   -7.6778434    389.64886  0.024749039  0.024984702            2 
 1313000    1.0510383   -7.6576617     389.9717  0.024750679  0.024977546            1 
 1314000     1.052034   -7.6631255    390.11354  0.024740838  0.024970443            3 
 1315000     1.044282   -7.6526248    390.71402  0.024760077  0.024963331            4 
 1316000    1.0369195   -7.6326605    391.81776  0.024811155  0.024956323            4 
 1317000    1.0471667   -7.6500719     390.8211  0.024729252   0.02494934            1 
 1318000    1.0480758   -7.6544694    391.06877  0.024726149  0.024942115            1 
 1319000    1.0600495   -7.6471846    390.72855  0.024685908  0.024934989            1 
 1320000    1.0569777   -7.6286352    391.21322  0.024697804  0.024927889            3 
 1321000     1.044231   -7.6484035    391.32836  0.024686371  0.024920751            3 
 1322000     1.053807   -7.6386228    392.22469  0.024724199  0.024913627            3 
 1323000    1.0240411   -7.6552552    391.41453   0.02465448  0.024906502            3 
 1324000    1.0308349   -7.6859386    391.82981  0.024661997   0.02489932            4 
 1325000    1.0488324    -7.657809    391.54792  0.024625655  0.024892081            3 
 1326000    1.0276525   -7.6969374     391.6292  0.024612192  0.024884795            3 
 1327000    1.0587329   -7.6654082      392.703  0.024661077  0.024877493            6 
 1328000    1.0355004   -7.6526636    393.15939  0.024671146  0.024870233            7 
 1329000     1.046401   -7.6805889    392.43117  0.024606921  0.024863151            2 
 1330000    1.0421528   -7.6762237    393.02733  0.024625772  0.024856041            3 
 1331000    1.0221938    -7.666459     391.8462  0.024533321  0.024848829            4 
 1332000    1.0383552   -7.6675711    393.49886  0.024618297  0.024841636            3 
 1333000    1.0456968   -7.6904122    393.07943  0.024573608  0.024834328            3 
 1334000    1.0453947   -7.6915187    392.22044  0.024501527  0.024827057            6 
 1335000    1.0298308   -7.6376298    393.52733  0.024564752  0.024819904            2 
 1336000    1.0543561   -7.6169727    393.79928  0.024563328  0.024812829            4 
 1337000     1.011486   -7.6239973    394.06294   0.02456139  0.024805559            3 
 1338000    1.0563767   -7.6650741    393.66897  0.024518496  0.024798276            1 
 1339000    1.0442737   -7.6576595    393.66505  0.024499941  0.024790996            1 
 1340000    1.0480799   -7.7263326    392.36086  0.024400551  0.024783447            6 
 1341000    1.0580886   -7.6342977    393.68994  0.024464948  0.024775859            2 
 1342000    1.0415237    -7.714951    393.24085  0.024418831    0.0247683            3 
 1343000    1.0359435   -7.6482152    393.93231  0.024443554  0.024760731            2 
 1344000     1.029004   -7.6824133    394.05013  0.024432672  0.024753238            3 
 1345000    1.0250458   -7.6579752    395.05849  0.024476982    0.0247458            2 
 1346000    1.0423885   -7.6610883    395.43434  0.024482067  0.024738367            1 
 1347000    1.0336739   -7.6435287     395.2548  0.024452784  0.024730965            1 
 1348000    1.0328268   -7.6411571    396.69654  0.024523772  0.024723688            2 
 1349000    1.0061531   -7.6618038    396.54036  0.024495945  0.024716428            4 
 1350000    1.0258344   -7.6366836    395.81771  0.024433192  0.024709071            2 
 1351000    1.0220583   -7.6639735    395.68676  0.024407029  0.024701787            5 
 1352000    1.0328729   -7.6791443    396.96781  0.024467937   0.02469433            2 
 1353000    1.0455253   -7.6735309    395.86137  0.024381705   0.02468698            3 
 1354000    1.0278131    -7.641212    396.93097  0.024429528  0.024679566            2 
 1355000    1.0085289   -7.6833694     396.5494  0.024388032  0.024672195            3 
 1356000    1.0536659   -7.6809849    395.66711  0.024315826  0.024664833            1 
 1357000    1.0277102   -7.6497006    397.05468  0.024383117  0.024657555            4 
 1358000    1.0256769   -7.6611512    396.81361  0.024350369  0.024650348            2 
 1359000     1.029747   -7.6943423    397.75307  0.024390058  0.024643074            2 
 1360000    1.0224849   -7.6791371    398.31574  0.024406602  0.024635892            2 
 1361000    1.0289129   -7.6794803    398.18135   0.02438044  0.024628649            2 
 1362000    1.0314579   -7.7029744    398.74092  0.024396777  0.024621278            2 
 1363000    1.0322755   -7.6713138     398.7373  0.024378656  0.024613895            2 
 1364000    1.0318559   -7.6718887     399.2711  0.024393396  0.024606695            2 
 1365000    1.0420873   -7.7134838    397.87835  0.024290498  0.024599431            2 
 1366000    1.0224338   -7.6939695    398.88429  0.024334083  0.024592106            2 
 1367000    1.0309013    -7.667835    398.40522  0.024287077  0.024584786            2 
 1368000    1.0400571   -7.6923621    399.06318  0.024309404  0.024577548            4 
 1369000     1.011751   -7.6698616    400.13516  0.024356901  0.024570272            2 
 1370000    1.0342264   -7.6814652    398.86013  0.024261565  0.024562915            2 
 1371000    1.0513371   -7.6660926    399.80596  0.024301359  0.024555504            4 
 1372000    1.0300428   -7.7189884     398.8126  0.024223312  0.024548084            5 
 1373000    1.0506982   -7.6716808    400.41432  0.024302884  0.024540752            1 
 1374000    1.0346368   -7.6700218    399.95776  0.024257506  0.024533607            4 
 1375000    1.0197784    -7.652111    400.98765  0.024302282  0.024526462            1 
 1376000    1.0492144   -7.6539685      401.603  0.024321887  0.024519325            3 
 1377000    1.0210544   -7.7214829    400.43929  0.024233799  0.024512238            2 
 1378000    1.0396354   -7.6936095    401.39472  0.024273991  0.024505061            1 
 1379000    1.0368181   -7.6710029    402.51327  0.024323983  0.024497998            2 
 1380000    1.0543869   -7.6725922    402.69659  0.024317427   0.02449104            2 
 1381000    1.0387941   -7.7158887    402.98181   0.02431703  0.024483947            1 
 1382000    1.0450438   -7.6997909    402.19082  0.024251738  0.024476778            4 
 1383000    1.0345701   -7.6825276    402.40742  0.024247254  0.024469635            2 
 1384000    1.0473592   -7.6939148    402.47464  0.024233781  0.024462589            2 
 1385000    1.0159191   -7.6732035    403.86694  0.024300057  0.024455491            2 
 1386000    1.0309298   -7.6901564    403.41365   0.02425527  0.024448374            2 
 1387000    1.0118771   -7.7177977    403.65584  0.024252334  0.024441115            4 
 1388000    1.0195582     -7.69749    403.16356  0.024205305  0.024433868            1 
 1389000    1.0243443   -7.7188503    402.86904  0.024170209  0.024426636            2 
 1390000    1.0207261   -7.6751525    403.63136  0.024198523  0.024419419            1 
 1391000    1.0125584   -7.6649085    404.63186  0.024241065  0.024412195            2 
 1392000    1.0022542   -7.6831791    403.96465  0.024183707  0.024404875            3 
 1393000    1.0251079   -7.6587144    405.20833  0.024240747  0.024397585            2 
 1394000    1.0473678   -7.6818246    404.37122  0.024173315  0.024390426            1 
 1395000     1.031549   -7.6575985    403.78116  0.024120738  0.024383297            6 
 1396000    1.0237335   -7.7070476    405.11374  0.024183008  0.024376082            2 
 1397000    1.0398254   -7.7098751    405.46977  0.024186934  0.024368869            2 
 1398000    1.0258713   -7.6829581      405.313  0.024160288  0.024361669            2 
 1399000    1.0299427   -7.6958412    405.45727  0.024151613  0.024354462            1 
 1400000    1.0338484   -7.6881081    405.42509  0.024132446  0.024347255            2 
 1401000    1.0285559   -7.6563299    406.45353  0.024176394   0.02434006            2 
 1402000    1.0263932   -7.7064569    404.54353  0.024045621  0.024332782            2 
 1403000    1.0077148   -7.6565076    405.19247  0.024067027  0.024325463            3 
 1404000    1.0365745   -7.7139847    404.87704  0.024031163  0.024318146            1 
 1405000    1.0249877   -7.6897719     405.3128  0.024039905   0.02431079            2 
 1406000    1.0055129   -7.6702911    405.42802  0.024029636  0.024303476            6 
 1407000    1.0263655     -7.71742    405.65179  0.024025811  0.024296041            1 
 1408000    1.0284547   -7.7000913    406.58512  0.024063987  0.024288664            2 
 1409000    1.0128089   -7.7060187    405.78319  0.023999479  0.024281397            4 
 1410000    1.0333772   -7.7001091    406.86376  0.024046322  0.024274163            2 
 1411000     1.041878   -7.6963395     407.8636   0.02408833  0.024266936            2 
 1412000    1.0264391   -7.7421565    405.39357  0.023925494  0.024259598            3 
 1413000    1.0417722   -7.6841594     407.3425  0.024023502  0.024252261            1 
 1414000    1.0158332   -7.6500834    408.15293  0.024054275  0.024245028            2 
 1415000    1.0065601   -7.7159186    406.71684  0.023952699  0.024237808            2 
 1416000     1.040594   -7.7063726    407.78582  0.023998695  0.024230552            1 
 1417000    1.0200433   -7.6497681    408.41103  0.024018527  0.024223348            2 
 1418000    1.0154438   -7.6430597    409.00907  0.024036734  0.024216258            2 
 1419000    1.0102777   -7.6870438    407.68875  0.023942257  0.024209102            2 
 1420000    1.0219497   -7.6846152    409.62344  0.024038934  0.024201896            3 
 1421000     1.048012    -7.697339    409.37572   0.02400749  0.024194697            3 
 1422000    1.0116647   -7.6854049    409.06313  0.023972288   0.02418746            2 
 1423000    1.0252513   -7.6861456    409.68163  0.023991662  0.024180289            3 
 1424000    1.0127855   -7.6870372    409.82673  0.023983306  0.024173206            1 
 1425000    1.0470491   -7.7107271    408.15571  0.023868755  0.024166149            2 
 1426000     1.022209   -7.6795706     410.1839  0.023970541  0.024159074            2 
 1427000    1.0479899   -7.7086415    409.42013  0.023909141  0.024151984            1 
 1428000    1.0265857   -7.6907918    410.76278  0.023970751  0.024144778            2 
 1429000    1.0153056   -7.7166081    408.93854  0.023847594  0.024137633            3 
 1430000    1.0142534   -7.6459161    411.11821  0.023957938  0.024130515            1 
 1431000    1.0207701   -7.6960541    411.14452  0.023942728  0.024123412            2 
 1432000    1.0574315   -7.7136906    409.36274  0.023822319  0.024116175            2 
 1433000    1.0128863   -7.6536619    412.43154  0.023984156  0.024109065            2 
 1434000    1.0399293   -7.6951844     410.7466  0.023869514  0.024101812            2 
 1435000    1.0078484    -7.726635      409.861  0.023801452  0.024094468            3 
 1436000    1.0273449   -7.7189314      410.985  0.023850105  0.024087053            1 
 1437000    1.0263996   -7.6691505    412.09524  0.023897891  0.024079748            1 
 1438000    1.0241252   -7.6959869     411.6979  0.023858247  0.024072486            2 
 1439000    1.0247665   -7.6872066    411.92093  0.023854583  0.024065232            2 
 1440000    1.0198264   -7.7177713    411.67482  0.023823774  0.024057828            1 
 1441000    1.0325721   -7.7050477    411.28507  0.023784702  0.024050311            2 
 1442000    1.0038234   -7.7037381    412.04242  0.023811975   0.02404305            1 
 1443000    1.0361094    -7.650713    411.77698  0.023780144   0.02403573            2 
 1444000    1.0233227   -7.6917531    412.96972  0.023832509  0.024028474            2 
 1445000    1.0366951   -7.6788562    411.41879  0.023726574  0.024021086            1 
 1446000    1.0230152    -7.708437    412.51752  0.023773486  0.024013672            4 
 1447000    1.0315593   -7.6993066    412.83162  0.023775145  0.024006248            2 
 1448000    1.0449262   -7.7228825    412.16852  0.023720564  0.023998773            2 
 1449000     1.027118   -7.6811054    412.64938  0.023731848    0.0239913            1 
 1450000    1.0343206   -7.7335225    411.16933  0.023630421  0.023983689            2 
 1451000    1.0096379   -7.7215165    410.77121  0.023591271  0.023976024            2 
 1452000    1.0255094   -7.7064247    412.22901   0.02365869  0.023968199            2 
 1453000    1.0280183   -7.7366827    409.96167  0.023512369  0.023960349            2 
 1454000    1.0102016   -7.7324041    411.47464  0.023582911  0.023952498            4 
 1455000    1.0257729   -7.7195789    413.21485  0.023666372  0.023944678            3 
 1456000    1.0178668   -7.6874538    412.64644  0.023617585  0.023936949            1 
 1457000    1.0509062   -7.6989444    412.11864  0.023571188  0.023929306            3 
 1458000    1.0378647   -7.7183273    412.99271  0.023604979  0.023921587            2 
 1459000    1.0151097   -7.7010773    414.32058  0.023664643  0.023913979            2 
 1460000    1.0152774   -7.6925477    413.97918  0.023628949  0.023906449            5 
 1461000    1.0172154   -7.7321778    411.99503  0.023499602  0.023898865            2 
 1462000     1.018786   -7.7108821    413.84425  0.023588933  0.023891155            2 
 1463000    1.0175061   -7.7495569    413.19276  0.023535701  0.023883521            2 
 1464000    1.0278293   -7.6984699    414.41833  0.023589386  0.023875835            2 
 1465000   0.99948804   -7.7352126     414.8048  0.023595267   0.02386825            7 
 1466000    1.0257302   -7.7479818    414.30452  0.023550735  0.023860775            3 
 1467000   0.99588448   -7.6953221    414.81267  0.023563546  0.023853318            4 
 1468000    1.0182395    -7.707296    414.18572  0.023511905  0.023845634            2 
 1469000    1.0345791    -7.712032    414.33234  0.023504217  0.023837982            2 
 1470000    1.0077827   -7.7428535     415.2967  0.023542897  0.023830464            2 
 1471000     1.013304   -7.6817776    415.27318   0.02352556  0.023822878            2 
 1472000    1.0056298   -7.6716555    415.69764  0.023533607  0.023815398            3 
 1473000    1.0245118   -7.6815377    416.98958  0.023590721  0.023807918            2 
 1474000    1.0111683   -7.6832968    416.24019  0.023532349  0.023800556            1 
 1475000    1.0287813   -7.7091552    416.37967  0.023524275  0.023793097            3 
 1476000    1.0496526   -7.7003509    415.06266  0.023433981  0.023785515            1 
 1477000    1.0380592   -7.7660649    414.82952  0.023404961  0.023777754            5 
 1478000    1.0238095   -7.7166535    415.45049  0.023424137  0.023769915            3 
 1479000    1.0080869   -7.7094083    416.12729  0.023446433  0.023762161            4 
 1480000      1.01514   -7.6989397    416.65283  0.023460182   0.02375459            1 
 1481000    1.0281761   -7.7146635    416.48934  0.023435142  0.023747037            1 
 1482000    1.0306587   -7.7529534    416.41643  0.023415229  0.023739397            3 
 1483000    1.0113387   -7.7145549    415.81781  0.023365802  0.023731722            3 
 1484000     1.029306    -7.733459     416.7814  0.023404167  0.023724031            3 
 1485000     1.038253   -7.7227515    416.74264  0.023386231  0.023716466            5 
 1486000    1.0071373   -7.7070116    417.21447  0.023396953  0.023708773            3 
 1487000    1.0170131    -7.702987     418.5535   0.02345626  0.023701178            2 
 1488000   0.99718871   -7.7456269    417.43083  0.023377623  0.023693481            1 
 1489000    1.0259006   -7.7068763    419.01231  0.023450431  0.023685866            2 
 1490000    1.0088126   -7.7170562    417.78392  0.023365991  0.023678282            4 
 1491000    1.0064232   -7.7288294    418.11848  0.023369019  0.023670497            2 
 1492000    1.0151538   -7.6974724    417.31693  0.023308586  0.023662676            3 
 1493000    1.0027855   -7.7098215    417.79972  0.023319922  0.023654828            2 
 1494000   0.99981645   -7.7283684    417.40362  0.023282219  0.023646974            2 
 1495000   0.99792228    -7.745219    418.12925  0.023307093  0.023639151            2 
 1496000    1.0060199   -7.7307461    417.39905  0.023250838  0.023631364            2 
 1497000    1.0093086   -7.7649109    419.02073  0.023325581  0.023623536            2 
 1498000    1.0000736   -7.7059575    418.07712  0.023257517  0.023615725            2 
 1499000    1.0192534    -7.739405    417.75398  0.023224037  0.023607929            3 
 1500000     1.008447   -7.7619311    418.66928  0.023259405  0.023600171            3 
 1501000    1.0217542   -7.7401603    418.69684  0.023245438  0.023592367            3 
 1502000    1.0236946   -7.6896376    420.41103  0.023325068  0.023584584            1 
 1503000    1.0000817   -7.7340035    420.71857  0.023326601  0.023576916            3 
 1504000   0.99918833   -7.6996348    419.06681  0.023219571  0.023569223            2 
 1505000    1.0123129    -7.731576    419.30687  0.023217434  0.023561524            2 
 1506000    1.0049785    -7.765541    419.47394  0.023211263  0.023553818            4 
 1507000    1.0042939   -7.7373592    420.57307   0.02325664  0.023546108            2 
 1508000    1.0107445   -7.7665434    420.35869  0.023229371  0.023538453            3 
 1509000    1.0097918   -7.7367163    420.24204  0.023207535  0.023530794            1 
 1510000    1.0274276   -7.7617682    420.67411   0.02321601  0.023523176            3 
 1511000   0.99099279   -7.7271612    421.52945  0.023247819  0.023515553            2 
 1512000    1.0076438   -7.7017364    421.29597  0.023219575  0.023508013            4 
 1513000    1.0055234   -7.7291594    420.79526   0.02317665   0.02350051            3 
 1514000    1.0227953   -7.7781794    420.66469  0.023154155  0.023492907            2 
 1515000    1.0187051   -7.7175249    421.88923  0.023206228  0.023485372            6 
 1516000    1.0085565   -7.7056035    421.75436  0.023183507  0.023477884            2 
 1517000    1.0117607    -7.707142    423.01406  0.023237424  0.023470444            6 
 1518000   0.99514903   -7.7008123    423.68925  0.023259182   0.02346296            3 
 1519000    1.0136311   -7.6706829    424.49616  0.023288137  0.023455518            3 
 1520000    1.0064795   -7.7584227    421.39841  0.023102983  0.023447971            2 
 1521000   0.99945949   -7.7660779    421.63755  0.023100896  0.023440368            7 
 1522000   0.98962099    -7.742907    423.65425  0.023196137   0.02343283            2 
 1523000   0.99707159   -7.7196088    422.66053  0.023126534  0.023425296            2 
 1524000    1.0045274   -7.7437982    422.63223  0.023109811  0.023417855            2 
 1525000    1.0029037   -7.7401717    424.13421  0.023176733  0.023410327            2 
 1526000    1.0224285   -7.7459364    424.17513  0.023163779  0.023402937            2 
 1527000   0.99805143    -7.753029    424.73386  0.023179102  0.023395448            2 
 1528000    1.0132481   -7.7545948    423.02476  0.023070722  0.023388013            7 
 1529000    1.0040175   -7.7582956    423.65327  0.023089888  0.023380573            4 
 1530000   0.99632954   -7.7436834    424.59672  0.023126183  0.023373103            2 
 1531000    0.9905041   -7.7359803    425.05073   0.02313579  0.023365699            1 
 1532000     1.016708   -7.7454063    425.25088  0.023131575  0.023358276            2 
 1533000   0.98523087   -7.7739249    423.62133  0.023027905  0.023350702            2 
 1534000   0.99269952    -7.756572    423.73411  0.023019019  0.023343072            1 
 1535000    1.0081623   -7.7640957    425.76786  0.023114433  0.023335583            5 
 1536000    1.0187376   -7.7192808    425.51456  0.023085642  0.023328129            1 
 1537000    1.0096704   -7.7555346    424.73122  0.023028151  0.023320612            3 
 1538000    1.0153573   -7.7453105    425.67788  0.023064471  0.023313215            5 
 1539000    1.0150813   -7.7383074    425.90456  0.023061759  0.023305743            3 
 1540000    1.0031242   -7.7664046    425.98836  0.023051318  0.023298224            2 
 1541000     1.000757   -7.7634105    425.85557  0.023029178   0.02329084            5 
 1542000    1.0178022   -7.7585855    426.17522  0.023031519    0.0232834            1 
 1543000    1.0216379   -7.7422219    425.38174  0.022973738  0.023275863            1 
 1544000   0.99959976   -7.7596747    425.81335  0.022982154  0.023268329            3 
 1545000    1.0165676   -7.7648498    425.87822  0.022970778  0.023260758            1 
 1546000   0.98788041   -7.6954321    426.67242  0.022998729  0.023253157            2 
 1547000    1.0065455   -7.7375589    425.85631    0.0229399  0.023245696            3 
 1548000    1.0177207   -7.7285189    427.45134  0.023010946  0.023238168            3 
 1549000   0.98918138   -7.7722628    426.91969  0.022967489  0.023230599            3 
 1550000    1.0066728   -7.7622337    426.23109   0.02291565  0.023223071            2 
 1551000   0.99097117   -7.7426319    427.44295  0.022965987   0.02321552            2 
 1552000    1.0009857   -7.7252381    426.34152  0.022892049  0.023207945            4 
 1553000    1.0150795   -7.7469611    427.09091   0.02291752  0.023200323            1 
 1554000    1.0028369   -7.7110489    428.34647  0.022970103  0.023192744            4 
 1555000    1.0202424    -7.751186    426.98933  0.022882601  0.023185119            1 
 1556000   0.98600204   -7.7786156    427.53776  0.022897266  0.023177415            4 
 1557000    1.0151534   -7.7725302    428.12438  0.022913957  0.023169736            2 
 1558000   0.98156443   -7.7670728    428.26599  0.022906825  0.023162169            6 
 1559000   0.99113153   -7.7569776     428.2857  0.022893185  0.023154653            5 
 1560000     1.006507   -7.7950766    427.90711  0.022858286  0.023147085            2 
 1561000    1.0357824   -7.7805963    428.72289  0.022887192  0.023139598            4 
 1562000    1.0014759   -7.7736407    428.87572  0.022880694  0.023131947            3 
 1563000    1.0051686   -7.7414274    429.18323   0.02288245  0.023124502            2 
 1564000   0.99399961   -7.7541076    428.41396  0.022826831  0.023117105            2 
 1565000   0.99707119   -7.7368178    429.89107  0.022890898  0.023109629            4 
 1566000    1.0021439   -7.7275188    430.16662  0.022890944  0.023102169            7 
 1567000    1.0057472   -7.7440244      428.861  0.022806903  0.023094684            2 
 1568000    1.0034457   -7.7704441    428.76132   0.02278706  0.023087132            5 
 1569000    1.0071072   -7.7908187    429.08674  0.022789821  0.023079521            2 
 1570000   0.99831519   -7.7770565    429.11807  0.022776967  0.023071943            6 
 1571000    1.0238995   -7.7591108    429.28688  0.022771424  0.023064392            2 
 1572000   0.97811935   -7.7466524    429.61781  0.022774481  0.023056795            2 
 1573000     1.003042   -7.7838395    430.51213  0.022807381  0.023049293            2 
 1574000   0.99377576   -7.7636758    429.42617  0.022735397  0.023041768            2 
 1575000   0.97726514   -7.7425259    430.23756  0.022763892  0.023034211            1 
 1576000       1.0164   -7.7703058    430.31671  0.022753633  0.023026705            2 
 1577000   0.99494481   -7.7391927    430.87396  0.022768651  0.023019234            2 
 1578000   0.99844239   -7.7718582    431.18356  0.022770572  0.023011889            3 
 1579000    1.0016629   -7.7998051    432.03201  0.022800929  0.023004447            3 
 1580000   0.97572667   -7.7476791    430.88232  0.022725861  0.022997091            3 
 1581000   0.99790697   -7.8140069    430.61221  0.022697249  0.022989648            2 
 1582000   0.99752877   -7.7510978    432.65554  0.022790536  0.022982202            2 
 1583000   0.99850907   -7.7306579    433.32074  0.022811157  0.022974802            2 
 1584000   0.99705903   -7.7948128    431.59918  0.022706186   0.02296737            4 
 1585000    1.0091194   -7.7512775    432.13992   0.02272029  0.022959857            2 
 1586000     1.004549   -7.7420072    432.62011  0.022731195  0.022952325            1 
 1587000    1.0175073   -7.7814757    431.68569  0.022667805  0.022944868            4 
 1588000   0.98720014   -7.8002142    432.66862  0.022705112  0.022937401            3 
 1589000   0.98855642   -7.7554145    432.87138  0.022701457  0.022929967            2 
 1590000   0.96313755   -7.7535182    433.48032  0.022719095  0.022922534            3 
 1591000    1.0139237   -7.7871262    432.52517  0.022654786  0.022915138            2 
 1592000   0.97892412   -7.7761101    433.06771  0.022668955  0.022907685            2 
 1593000    1.0012099    -7.776636    434.74793   0.02274262  0.022900225            2 
 1594000   0.98614441   -7.7689153      434.237  0.022701641  0.022892794            1 
 1595000     1.003421   -7.7690545    432.72012  0.022608157  0.022885373            2 
 1596000   0.98408069   -7.7839541    433.88418  0.022654771  0.022877926            2 
 1597000   0.99708514   -7.8022764     432.3003  0.022557937  0.022870369            1 
 1598000   0.99810189   -7.7574286    435.16146  0.022693026  0.022862867            1 
 1599000    1.0049356    -7.778043     433.9347    0.0226149  0.022855536            2 
 1600000   0.99098355   -7.7683371    434.80589   0.02264614  0.022848253            5 
 1601000    1.0049316   -7.7934734    433.77229  0.022578196  0.022840857            3 
 1602000    0.9972457    -7.767367    435.03701   0.02262989  0.022833507            2 
 1603000   0.98503091   -7.7961425    435.95859  0.022663682  0.022826234            3 
 1604000    1.0118103    -7.725255    436.93702  0.022700386  0.022819094            2 
 1605000    0.9820051   -7.8104415    435.81367  0.022627917  0.022811979            1 
 1606000   0.99381098    -7.763454    436.61311  0.022655309  0.022804789            4 
 1607000   0.99672216   -7.7939018    436.78827  0.022650294  0.022797637            3 
 1608000   0.99070272   -7.7756369    436.15176  0.022603221  0.022790432            2 
 1609000    1.0120899   -7.7993112    436.64449  0.022614693  0.022783263            1 
 1610000   0.99959013   -7.7690985    437.16705  0.022627694  0.022776078            3 
 1611000   0.98992381   -7.8005697    436.29874  0.022568733  0.022768821            3 
 1612000   0.99687518   -7.7834787    434.99349  0.022487256  0.022761438            6 
 1613000   0.99051562    -7.779312    436.64009  0.022558385  0.022754162            3 
 1614000   0.99427766   -7.7412427    437.39639  0.022583457  0.022746955            2 
 1615000   0.98047988   -7.7472483    437.83843  0.022592282   0.02273984            2 
 1616000   0.99900917   -7.7852318    436.37856   0.02250302  0.022732648            2 
 1617000   0.98584335   -7.7696452    438.19201  0.022582561  0.022725543            4 
 1618000   0.98785853    -7.756759     438.7838  0.022599083  0.022718428            3 
 1619000   0.98868352   -7.7367526     438.3062  0.022560541  0.022711389            1 
 1620000   0.98322716   -7.7677948    439.29924  0.022597697  0.022704432            2 
 1621000   0.97861429     -7.76242    439.54756  0.022596523  0.022697459            1 
 1622000    0.9809305   -7.7397276    440.15853  0.022613981  0.022690404            1 
 1623000    1.0088603   -7.7367438    440.07889  0.022595959  0.022683313            1 
 1624000   0.99413119   -7.8260759    438.07042  0.022478983  0.022676277            4 
 1625000   0.99015492   -7.8065501    439.31694  0.022529074  0.022669208            5 
 1626000   0.97865498    -7.800696    439.85544  0.022542816  0.022662154            3 
 1627000   0.97997509   -7.7647907    439.90403   0.02253145  0.022655165            1 
 1628000   0.98456206   -7.7878515    438.42559  0.022441932  0.022648029            2 
 1629000    0.9784846   -7.7912159    440.40291  0.022529308  0.022641014            1 
 1630000    1.0041615   -7.7971472    439.99475  0.022494619  0.022634056            1 
 1631000     1.000736   -7.8173068    439.82055  0.022471927  0.022627119            2 
 1632000   0.97286383   -7.7854843    441.04539    0.0225207  0.022620089            3 
 1633000   0.96778542   -7.7883678    440.64675  0.022486566  0.022613076            2 
 1634000   0.99966804   -7.7775374    443.04392  0.022595059  0.022606113            2 
 1635000   0.97795871   -7.7874919     440.2794  0.022440336  0.022599172            6 
 1636000   0.99410128   -7.8090426     440.1647  0.022420777  0.022592163            2 
 1637000   0.98375719   -7.7688718    439.43334   0.02236985  0.022585028            4 
 1638000    1.0000151   -7.7911149    441.00659  0.022436233  0.022577917            3 
 1639000   0.96700373   -7.7803081    441.30618  0.022437776  0.022570785            3 
 1640000    0.9940264   -7.8054267    440.68603  0.022392583   0.02256359            1 
 1641000   0.98145761   -7.7570822     441.9246  0.022441834  0.022556541            1 
 1642000   0.97856276   -7.8012433    442.17688  0.022440971  0.022549491            1 
 1643000   0.99430642   -7.7814976    442.14439  0.022425664  0.022542355            3 
 1644000   0.99151316   -7.8185943    441.67981  0.022388474  0.022535266            1 
 1645000   0.98200515   -7.8116903    441.47625  0.022364552  0.022528142            3 
 1646000   0.97981448   -7.7849593    442.31452  0.022393404  0.022521082            4 
 1647000    1.0073526   -7.7924103    443.10545  0.022419826  0.022514056            1 
 1648000    1.0033374   -7.7768379     442.8087  0.022391216  0.022506962            3 
 1649000   0.96899854   -7.8235278    442.57993  0.022366077  0.022499912            2 
 1650000   0.98580643   -7.7385312    444.40148  0.022444519  0.022492898            2 
 1651000   0.99065747   -7.7779137    443.06195  0.022363313  0.022485882            1 
 1652000   0.99214606   -7.8057055    442.21379  0.022306991  0.022478768            2 
 1653000   0.99983282   -7.8256321    443.86011  0.022376493  0.022471594            3 
 1654000   0.98466802   -7.7963881    443.67225  0.022353499  0.022464522            1 
 1655000   0.98272691   -7.8234259    442.76213  0.022294165  0.022457482            3 
 1656000   0.95951056   -7.7645669    445.36989  0.022411931  0.022450492            2 
 1657000    1.0060338   -7.7511755    444.18875  0.022339004  0.022443568            3 
 1658000   0.98649868   -7.7939241    444.52413  0.022342387  0.022436691            1 
 1659000   0.98556246   -7.7593027    445.23954  0.022364856  0.022429749            2 
 1660000   0.99654726    -7.818958    444.93691   0.02233619  0.022422921            3 
 1661000   0.95432413   -7.8153366    444.36863  0.022294232  0.022415946            3 
 1662000    1.0093862   -7.8120755    445.60189  0.022342654  0.022408939            3 
 1663000   0.98755515   -7.8107197    445.44186    0.0223212  0.022401995            2 
 1664000     1.000046   -7.8089488    444.54671  0.022262956  0.022395022            1 
 1665000    1.0089758   -7.7931395    445.59755  0.022302179  0.022387954            7 
 1666000   0.98060996   -7.8005124    444.30322   0.02222405  0.022380926            3 
 1667000   0.98116426   -7.7666565    446.16271  0.022303675  0.022373992            3 
 1668000   0.99696849   -7.8257893    446.08253  0.022286297  0.022367034            2 
 1669000    0.9862284   -7.8390303    445.61703  0.022249702  0.022359924            3 
 1670000   0.99868246   -7.8276256    445.20514  0.022215825  0.022352834            3 
 1671000   0.96640918    -7.793407    446.93429  0.022288764   0.02234591            4 
 1672000   0.98842048   -7.7801723    446.61354  0.022259447   0.02233896            3 
 1673000   0.97009855   -7.8206216    446.34599  0.022232815  0.022332048            3 
 1674000   0.98886962   -7.7767514    446.84456  0.022244353  0.022325099            1 
 1675000   0.97400456   -7.7955318    446.45104  0.022211495  0.022318111            2 
 1676000    1.0052941   -7.7685162    446.62677  0.022206979  0.022311187            2 
 1677000   0.99004191   -7.7961147    447.26829  0.022225616   0.02230427            2 
 1678000   0.98171692    -7.785934    448.06186  0.022251781   0.02229731            2 
 1679000   0.96941755   -7.7717798     447.9656   0.02223375  0.022290429            1 
 1680000    1.0052219   -7.8190089    447.20409  0.022182743  0.022283453            2 
 1681000   0.98407897   -7.8282539    447.24384  0.022171517  0.022276393            3 
 1682000   0.95899021   -7.8307568    446.94452  0.022143506  0.022269414            1 
 1683000   0.98052755   -7.8157147    447.49236  0.022157475  0.022262351            2 
 1684000   0.97262655    -7.797019    447.89414  0.022164199  0.022255411            2 
 1685000   0.95752486    -7.827434    446.85253  0.022099532  0.022248418            1 
 1686000   0.95483051   -7.8185132    447.46471  0.022116682  0.022241377            5 
 1687000   0.99008947   -7.8136704    447.54601  0.022107588  0.022234302            9 
 1688000   0.98198905   -7.8245134    448.53573  0.022143352  0.022227261            4 
 1689000   0.96691792   -7.8362986    449.19708  0.022162871  0.022220169            2 
 1690000   0.98634306   -7.8379075    448.49559  0.022115167  0.022213198            2 
 1691000   0.97687615   -7.7984061    448.26856  0.022090901   0.02220611            3 
 1692000   0.99660425   -7.8131048    448.39075  0.022083863  0.022199169            4 
 1693000   0.95427105   -7.8391286    450.01562  0.022150799  0.022192226            3 
 1694000    0.9938322   -7.8412752    449.13981  0.022094638  0.022185312            2 
 1695000   0.97041824   -7.8511692      450.171  0.022132301  0.022178377            2 
 1696000   0.97856377   -7.8070704    450.31534  0.022126344  0.022171501            3 
 1697000   0.97509346   -7.8559808    449.89166  0.022092499  0.022164587            1 
 1698000   0.99259213   -7.8596548    449.17505  0.022044319  0.022157638            4 
 1699000    1.0020974   -7.8189171    449.92817  0.022068284  0.022150699            3 
 1700000   0.95860276   -7.8167083    449.55426  0.022036973   0.02214383            2 
 1701000   0.98683806    -7.864331    449.62346  0.022027409  0.022136908            4 
 1702000   0.99778843   -7.8338032    451.77406  0.022119764   0.02213007            6 
 1703000   0.99799298   -7.8303506    451.31905   0.02208451   0.02212322            1 
 1704000   0.99402226   -7.8278436    450.93229  0.022052636   0.02211642            2 
 1705000   0.98497845   -7.8519802    449.97627  0.021992975  0.022109498            4 
 1706000   0.98889759   -7.8511819    451.30397  0.022044938  0.022102597            2 
 1707000   0.98232309   -7.8385067     451.2333  0.022028573  0.022095705            4 
 1708000   0.97147516   -7.8285207    451.59075  0.022033116  0.022088869            2 
 1709000   0.97346953   -7.8419351    452.11477  0.022045776  0.022082016            2 
 1710000    0.9809187   -7.8150909    452.15186  0.022034691  0.022075174            5 
 1711000   0.94866124   -7.8418748     452.4289  0.022035306  0.022068377            5 
 1712000    0.9773065   -7.8569972       452.16  0.022009346  0.022061568            2 
 1713000   0.97300088   -7.8598717    451.53999  0.021966336  0.022054822            2 
 1714000   0.97805618   -7.8349537    452.40392  0.021995523  0.022048096            1 
 1715000   0.98423384   -7.8095401    452.71685  0.021997903  0.022041312            2 
 1716000   0.96491469    -7.827307    453.43783  0.022020097   0.02203452            2 
 1717000   0.98067895   -7.8261322    452.57146  0.021965223  0.022027664            2 
 1718000   0.99551816   -7.8073107    453.07226   0.02197673  0.022020906            3 
 1719000   0.95906279   -7.8345316    453.34681  0.021977254  0.022014201            2 
 1720000   0.98613129   -7.8736439    451.69697  0.021884543  0.022007376            3 
 1721000   0.98471425   -7.8095126    454.13263  0.021989765  0.022000637            2 
 1722000   0.97623375   -7.8016062     454.4815  0.021993878  0.021993991            3 
 1723000   0.94404016   -7.8307457    453.90373   0.02195317  0.021987346            4 
 1724000   0.96533992   -7.8055993    454.45034  0.021966857  0.021980664            4 
 1725000   0.98928955   -7.8092318    453.65082  0.021915499  0.021973944            1 
 1726000   0.97134482   -7.8234539    453.98174  0.021918779   0.02196716            5 
 1727000   0.98286318   -7.8071673      456.062  0.022006466  0.021960407            2 
 1728000   0.98900789   -7.8019881    455.58038  0.021970505  0.021953729            2 
 1729000   0.98347861   -7.8042155    454.65559  0.021913225  0.021946986            5 
 1730000   0.98207386   -7.8146905    456.00259  0.021965443  0.021940271            4 
 1731000   0.95611305   -7.8175797    455.12714  0.021910608  0.021933517            2 
 1732000    1.0035178    -7.860363    454.04536  0.021845908  0.021926698            2 
 1733000   0.97965121   -7.8499181    456.04065  0.021929248  0.021919835            3 
 1734000   0.95394704   -7.8534493    453.78638  0.021808265  0.021913037            2 
 1735000    0.9553735   -7.8244107    454.98871  0.021853444    0.0219062            3 
 1736000   0.97923328   -7.8486068    455.49338  0.021865081   0.02189939            6 
 1737000   0.98062317   -7.8676931    453.97662  0.021779727  0.021892536            1 
 1738000   0.98712486   -7.8519313     455.4566  0.021838157  0.021885666            2 
 1739000   0.94539862   -7.8190602    455.48729   0.02182707  0.021878791            3 
 1740000   0.97309493   -7.8368495    455.60891   0.02182035  0.021871895            3 
 1741000   0.97181819   -7.8762344    454.88407  0.021773122   0.02186498            2 
 1742000   0.97950779   -7.8385645    455.04039  0.021768101  0.021858001            3 
 1743000   0.95776633   -7.8416522     455.8872  0.021796099  0.021851062            3 
 1744000   0.97928425   -7.8396906      456.705  0.021822678  0.021844168            1 
 1745000   0.96416253   -7.8622263    455.70447  0.021762391  0.021837202            2 
 1746000   0.97514726   -7.8394518    456.38914  0.021782605  0.021830284            3 
 1747000   0.95120752   -7.8316878    455.95312  0.021749338  0.021823413            3 
 1748000   0.94562618   -7.8249288    457.23078  0.021797806  0.021816545            3 
 1749000   0.98358465   -7.8371529    457.15294  0.021781634  0.021809645            2 
 1750000   0.96961744   -7.8105387    457.10221  0.021766772  0.021802679            4 
 1751000   0.98427534   -7.8504565    455.49502  0.021677852  0.021795742            4 
 1752000   0.96721051   -7.8386659    456.21588  0.021699766  0.021788823            4 
 1753000   0.96387689   -7.7987137     457.0464  0.021726868  0.021782054            2 
 1754000   0.96314716   -7.8566106    455.94666  0.021662232  0.021775136            3 
 1755000   0.96595692   -7.8748151    455.96958  0.021650977  0.021768171            4 
 1756000   0.95879531    -7.827504    457.15479  0.021694893  0.021761253            2 
 1757000   0.97284586   -7.8477378     455.6085  0.021609206  0.021754379            7 
 1758000   0.97849425   -7.8315526     458.2041  0.021719952  0.021747555            4 
 1759000   0.95241016   -7.8670881    456.29676  0.021617243  0.021740662            4 
 1760000   0.96639624   -7.8682018    456.79186  0.021628402  0.021733699            2 
 1761000   0.96383968   -7.8517255     456.3767  0.021596475  0.021726788            4 
 1762000   0.98223117   -7.8690438    456.12081  0.021572115  0.021719781            2 
 1763000    0.9767599   -7.8363668    457.00646  0.021601742  0.021712794            2 
 1764000   0.96971316   -7.8619409     457.6868  0.021621636  0.021705781            3 
 1765000   0.97176106   -7.8595893    455.59141  0.021510454  0.021698839            3 
 1766000    0.9611453   -7.8632295    457.47468   0.02158714  0.021691774            2 
 1767000   0.94324133   -7.8615563     457.2272  0.021563252  0.021684775            2 
 1768000   0.96861909   -7.8828205     457.2855  0.021553804  0.021677728            3 
 1769000   0.94507685   -7.8443325     456.9273  0.021524746  0.021670732            4 
 1770000   0.96638127   -7.8260054    458.06256  0.021566034  0.021663715            2 
 1771000   0.97847305   -7.8538986    457.56597   0.02153049  0.021656656            3 
 1772000     0.975525   -7.8384985    458.69233   0.02157131  0.021649657            2 
 1773000   0.95630849   -7.8518137     458.5972  0.021554672  0.021642796            1 
 1774000   0.96190957   -7.8411098    459.33939  0.021577386   0.02163591            3 
 1775000   0.97964392   -7.8816162    457.60491  0.021483799  0.021628967            1 
 1776000    0.9760276   -7.8589732    459.37496  0.021554756  0.021622039            3 
 1777000   0.95805169   -7.8315552    460.03584  0.021573618  0.021615101            3 
 1778000   0.98250241   -7.8490795    459.76121  0.021548613  0.021608177            3 
 1779000   0.96959294   -7.8653409    458.21897  0.021464258  0.021601257            5 
 1780000   0.97927669   -7.8185278    460.58912  0.021563161  0.021594432            2 
 1781000   0.97058459   -7.8551255    459.58597  0.021504116  0.021587599            2 
 1782000   0.96712511   -7.8799549    459.88316  0.021505947  0.021580735            1 
 1783000   0.95886877   -7.8825062    458.80477  0.021443483  0.021573869            5 
 1784000   0.95988254   -7.8332752    460.13098  0.021493413  0.021566937            3 
 1785000   0.96374409   -7.8737024    458.56018  0.021408038  0.021559911            4 
 1786000    0.9916663   -7.8577684    460.41156  0.021482436  0.021552954            3 
 1787000   0.96226032   -7.8896301    459.34822  0.021420827  0.021545973            8 
 1788000   0.96100211   -7.8533788    460.55559  0.021465119  0.021538954            3 
 1789000    0.9728044   -7.8381801    459.80487  0.021418151   0.02153201            4 
 1790000   0.97268638   -7.8464414     461.3664  0.021478882  0.021525049            3 
 1791000   0.96109931   -7.8141623    461.86062  0.021489886  0.021518213            3 
 1792000   0.97641768   -7.8329035    460.71455  0.021424598   0.02151133            2 
 1793000   0.96135782   -7.8434118    460.61495   0.02140802  0.021504446            2 
 1794000   0.97380287   -7.8325509    461.44704  0.021434738  0.021497545            3 
 1795000   0.98334807   -7.8312621    463.13449  0.021501137  0.021490661            1 
 1796000   0.97278375   -7.8375088    461.08956  0.021394282  0.021483718            1 
 1797000     0.981137   -7.8857319     462.0726  0.021427963  0.021476781            2 
 1798000   0.96392234   -7.8827903    462.14522  0.021419411  0.021469822            3 
 1799000   0.95805233   -7.8736423    461.10866  0.021359489  0.021462851            2 
 1800000   0.96886653   -7.8594602     461.3202  0.021357417  0.021455846            3 
 1801000   0.95393681   -7.8555427    463.47589  0.021445303  0.021448964            4 
 1802000    0.9482105   -7.8962749    460.71619   0.02130578  0.021442005            2 
 1803000   0.93812174   -7.8777719    462.39243  0.021371438  0.021435057            2 
 1804000   0.95852482   -7.8813957    461.99576  0.021341267  0.021428161            2 
 1805000   0.94878731   -7.9181431    462.53114  0.021354161  0.021421296            5 
 1806000   0.97387607   -7.8806518    463.38884  0.021381914  0.021414378            2 
 1807000   0.97429085   -7.8605852    461.98263  0.021305231  0.021407394            3 
 1808000   0.95946535   -7.8714454    462.59751  0.021321788  0.021400485            3 
 1809000   0.94034635   -7.8303324    464.24247  0.021385778  0.021393674            4 
 1810000    0.9820452   -7.8811857    462.98197  0.021315929  0.021386922            2 
 1811000   0.96114052   -7.8679823    463.38321  0.021322621  0.021380101            3 
 1812000   0.95928404   -7.8645291    464.26532  0.021351422  0.021373277            3 
 1813000   0.94749589   -7.8747693    463.98377  0.021326704  0.021366457            2 
 1814000   0.95696671   -7.8657439    464.95524  0.021359576  0.021359676            4 
 1815000   0.94973788     -7.86035    464.26421  0.021316079  0.021352927            6 
 1816000   0.95376022   -7.8755299    464.20806  0.021301765   0.02134613            4 
 1817000   0.94386441   -7.8439107    465.03369  0.021327907  0.021339351            1 
 1818000   0.95493387   -7.9160398    462.79523  0.021213569  0.021332524            5 
 1819000   0.98505041   -7.8464331    464.85558  0.021296297  0.021325661            3 
 1820000   0.96842135   -7.8840448    464.69736  0.021277351    0.0213188            3 
 1821000   0.96388839   -7.8807719    464.53289  0.021258141   0.02131198            1 
 1822000   0.96611393   -7.8884343    464.76398  0.021257043  0.021305156            3 
 1823000    0.9505956   -7.8514509    464.36819   0.02122729  0.021298335            4 
 1824000   0.96875874   -7.8465911    465.31674  0.021258988  0.021291604            4 
 1825000   0.98420141   -7.9062121    464.59043  0.021214175   0.02128487            2 
 1826000   0.95039992   -7.8722405    463.77977  0.021165561   0.02127798            1 
 1827000   0.97067572   -7.8660056    464.77056  0.021199168  0.021271055            1 
 1828000   0.95322728   -7.8809655    464.91452  0.021194134  0.021264166            1 
 1829000   0.97084277    -7.848356    465.99652  0.021231844  0.021257271            2 
 1830000   0.97760471   -7.8567187    466.28353  0.021233312  0.021250394            3 
 1831000   0.98707246   -7.8728824    465.91821  0.021205089  0.021243511            5 
 1832000   0.94097608   -7.8680734    465.55223  0.021176867   0.02123658            3 
 1833000   0.95587786   -7.9046427    464.01847  0.021095584  0.021229648            3 
 1834000   0.95729597   -7.8803051    464.34663  0.021098992  0.021222683            1 
 1835000   0.99745551   -7.8772589    465.64571   0.02114649  0.021215709            3 
 1836000   0.94290846   -7.9014649    464.38589  0.021077791  0.021208724            1 
 1837000   0.95742031   -7.8710156    465.95148  0.021137338  0.021201716            2 
 1838000   0.96416841    -7.880761    466.04618  0.021130132  0.021194745            2 
 1839000   0.95223384   -7.9069888    464.43408   0.02104559  0.021187702            4 
 1840000   0.95060293   -7.8902209     464.7113  0.021046707  0.021180627            3 
 1841000   0.94125711   -7.8888614    465.24761  0.021059551  0.021173655            2 
 1842000   0.96235263   -7.8735144    466.22964  0.021092546  0.021166769            3 
 1843000   0.95928391   -7.9081763    465.82489    0.0210628  0.021159833            2 
 1844000   0.96268878    -7.847002    466.90554  0.021100214  0.021152924            2 
 1845000   0.95581989    -7.899248    466.92595    0.0210897  0.021146046            4 
 1846000   0.95946877   -7.8672456    467.03406  0.021083156  0.021139098            2 
 1847000   0.95151375   -7.8322355    468.04561   0.02111738  0.021132277            1 
 1848000   0.98068556   -7.8827513    467.41285  0.021077419  0.021125479            1 
 1849000   0.95922952   -7.8914134     467.3742  0.021064278  0.021118617            2 
 1850000   0.93781458   -7.9124917    466.92619  0.021032711  0.021111734            3 
 1851000   0.95138981   -7.9083432     466.8393  0.021017437  0.021104806            2 
 1852000   0.95843349   -7.8745109    467.58937  0.021039838  0.021097946            1 
 1853000    0.9688675   -7.8869018    468.13214  0.021052893  0.021091222            2 
 1854000   0.94753972   -7.9018809    468.09837   0.02104002  0.021084365            3 
 1855000   0.96469143   -7.8678209    467.41792   0.02099811  0.021077496            5 
 1856000    0.9537916   -7.8911572    468.25824  0.021024526  0.021070717            1 
 1857000   0.94872079   -7.8530666    468.87584  0.021040919  0.021063901            3 
 1858000   0.94248984   -7.8566303    468.68066   0.02102084   0.02105711            4 
 1859000   0.97111492   -7.8514494    469.60801  0.021051103  0.021050352            2 
 1860000   0.95710853   -7.8730577    469.51815  0.021035759  0.021043575            2 
 1861000   0.95326028    -7.906057    468.75012  0.020990064  0.021036795            1 
 1862000   0.95408246   -7.8822463    468.64035  0.020973879  0.021029978            2 
 1863000   0.96954378   -7.8715978    470.25347  0.021034777  0.021023199            1 
 1864000   0.96251683   -7.9132717    468.27533  0.020935056  0.021016372            2 
 1865000   0.97404877   -7.9403485    468.14681  0.020918088  0.021009477            3 
 1866000   0.94966292   -7.8796048    469.73673  0.020977882  0.021002621            3 
 1867000   0.95830285   -7.9116038    469.55349  0.020958467  0.020995761            4 
 1868000   0.98013826   -7.8882109    468.67164  0.020907907  0.020988953            3 
 1869000   0.95983257   -7.9118097    469.85883  0.020949653  0.020982088            4 
 1870000   0.95308566   -7.9085514    470.17425  0.020952507  0.020975335            3 
 1871000   0.96376748   -7.8836243    471.05009  0.020980318  0.020968535            1 
 1872000    0.9447369   -7.8471854    471.65252  0.020995928  0.020961789            8 
 1873000   0.94858897    -7.865657    469.18573  0.020874966  0.020954981            3 
 1874000   0.94788192   -7.9080681    469.33048  0.020870263  0.020948175            1 
 1875000   0.95739935   -7.9174746    470.88294  0.020928131  0.020941369            7 
 1876000   0.96588624   -7.9166556    469.54295  0.020857452  0.020934598            3 
 1877000   0.92481705   -7.9070896    472.08852  0.020959355   0.02092788            3 
 1878000   0.93684084   -7.9211587    470.81492  0.020891681  0.020921104            2 
 1879000   0.95674052   -7.9276036    470.31222  0.020858268  0.020914403            5 
 1880000   0.95768663   -7.9180817    470.43175  0.020852471  0.020907606            5 
 1881000   0.94457121   -7.9115116    471.24664  0.020877487  0.020900925            2 
 1882000   0.94574383   -7.8563438    472.99428  0.020943778  0.020894298            1 
 1883000   0.93355587    -7.880873    472.66444  0.020918058  0.020887625            4 
 1884000   0.93691548   -7.8853751    471.75501  0.020866729  0.020880941            2 
 1885000   0.95539158   -7.8941729    473.49275  0.020932482   0.02087421            4 
 1886000   0.95535556   -7.9051723    472.43891  0.020874819  0.020867484            2 
 1887000   0.96107928   -7.9175408    472.41043  0.020862499  0.020860736            3 
 1888000   0.95439533   -7.9453175    471.27649  0.020801399  0.020853929            2 
 1889000   0.94858385   -7.9141748    471.96957  0.020820962  0.020847139            8 
 1890000   0.94612765   -7.9399328    472.21782  0.020820892  0.020840399            3 
 1891000   0.95266364   -7.9372211    471.94922  0.020798044  0.020833671            2 
 1892000   0.96576131   -7.8951901    473.00471  0.020833541  0.020826942            3 
 1893000   0.93521839   -7.9584687    471.51178  0.020756814  0.020820211            3 
 1894000   0.94548542   -7.8962633    471.93584  0.020764513  0.020813413            2 
 1895000   0.93724312    -7.904124     473.2746  0.020812428  0.020806636            2 
 1896000   0.95362164   -7.9179618    472.38614  0.020762401   0.02079996            1 
 1897000    0.9620819   -7.8722559    472.86954  0.020772691  0.020793276            4 
 1898000    0.9594563   -7.8946553    473.30131  0.020780704   0.02078662            2 
 1899000   0.95871558   -7.9189712    473.59722  0.020782746  0.020780004            2 
 1900000   0.96427141   -7.9106317    472.74305  0.020734344  0.020773347            1 
 1901000   0.94120575   -7.9277782    474.19135  0.020786926  0.020766686            3 
 1902000   0.94282003   -7.8871056    474.43555  0.020786696  0.020760057            3 
 1903000   0.94996156    -7.898988     473.9091  0.020752719  0.020753349            2 
 1904000   0.93233045   -7.9279007    472.25586  0.020669462  0.020746601            7 
 1905000   0.95412721   -7.9048009    474.83622  0.020771488  0.020739942            4 
 1906000   0.94629085   -7.9023008    474.36796  0.020740117  0.020733227            2 
 1907000   0.94037841   -7.9176165    473.89628   0.02070863   0.02072658            2 
 1908000   0.95284988    -7.892638    474.49744  0.020724032  0.020719865            3 
 1909000   0.93724932   -7.8829967    475.24632  0.020745867  0.020713137            2 
 1910000   0.92720497   -7.9257605    473.61093  0.020663653  0.020706457            1 
 1911000   0.94994964   -7.9003815     474.7771  0.020703693  0.020699691            4 
 1912000   0.94318163   -7.8884515    476.06273  0.020748899  0.020692985            2 
 1913000   0.95438004   -7.8826542    475.38026  0.020708323  0.020686359            2 
 1914000   0.93732317   -7.8963979     475.8454  0.020717755  0.020679735            2 
 1915000   0.95500515   -7.9507893    473.95392  0.020624627  0.020673057            2 
 1916000   0.94469913   -7.9588876    474.83702  0.020652271  0.020666306            2 
 1917000   0.93983748   -7.9489002    474.29104  0.020617764  0.020659547            2 
 1918000   0.92747487   -7.9153543    476.47094  0.020701727   0.02065285            3 
 1919000   0.96276629   -7.9043877      475.079  0.020630493  0.020646165            3 
 1920000   0.93727669   -7.8957028    475.91003  0.020655817  0.020639493            3 
 1921000   0.92411565   -7.9624085    474.29101  0.020574831   0.02063274            3 
 1922000   0.93835229   -7.9266691    475.09353  0.020598922  0.020625946            3 
 1923000   0.94912883   -7.8939378    476.73865  0.020659501  0.020619197            3 
 1924000   0.92466413   -7.9098706    475.80717  0.020608419  0.020612505            4 
 1925000   0.93196993   -7.8651062    476.66861  0.020635005  0.020605839            2 
 1926000   0.93862171   -7.9507247    475.59113  0.020577671  0.020599227            5 
 1927000   0.93494114   -7.9310262    477.07272  0.020631064  0.020592511            1 
 1928000   0.96103874   -7.9135716    475.42773  0.020549262  0.020585876            2 
 1929000   0.93080985   -7.8938634    476.68306   0.02059284  0.020579255            3 
 1930000   0.94816137   -7.9274976    476.15087  0.020559191  0.020572657            3 
 1931000   0.91943558   -7.9420241    476.69522  0.020572036  0.020565988            2 
 1932000   0.95947465   -7.9012121    477.56819  0.020599042  0.020559336            2 
 1933000   0.94910863   -7.9210871    477.65811  0.020592262    0.0205527            2 
 1934000   0.92637343   -7.9266346    477.26164  0.020564531  0.020546031            4 
 1935000   0.95390286   -7.9578207    476.17585  0.020507142  0.020539393            4 
 1936000   0.94455726   -7.9615149    477.17585  0.020539594  0.020532662            3 
 1937000    0.9665473   -7.9201255    476.53881  0.020501584  0.020525942            2 
 1938000   0.94747277   -7.9252828    477.01231  0.020511365  0.020519259            3 
 1939000    0.9370453   -7.9124234    477.52752  0.020522929  0.020512569            2 
 1940000    0.9392737   -7.9281481    476.59802  0.020472424  0.020505904            4 
 1941000   0.93845218   -7.9190027    478.32837  0.020536165  0.020499255            4 
 1942000   0.95722078   -7.9041455    478.76364  0.020544269  0.020492683            2 
 1943000    0.9283491   -7.8910378    477.73651  0.020489643  0.020486018            3 
 1944000   0.93694405   -7.9182574    478.12092  0.020495581   0.02047935            2 
 1945000   0.94015938   -7.9088445    478.87593  0.020517392  0.020472711            6 
 1946000   0.93605892   -7.9122577    478.17723  0.020476928  0.020466033            4 
 1947000   0.90757884   -7.9049156    479.40233  0.020518846  0.020459405            2 
 1948000   0.94438591   -7.8992569    478.79182  0.020482196  0.020452822            1 
 1949000   0.94746315   -7.9085386    479.05443  0.020482916  0.020446278            3 
 1950000   0.93207966     -7.94379    476.57388  0.020366405  0.020439579            2 
 1951000    0.9152903   -7.9524596    478.58813  0.020442001  0.020432867            2 
 1952000   0.94972576     -7.92427    479.36503  0.020464696  0.020426179            2 
 1953000   0.92025238   -7.9216559    478.46925  0.020415994  0.020419513            2 
 1954000   0.92872084   -7.8726801    480.29872  0.020483569  0.020412931            6 
 1955000   0.93308035   -7.8935041    479.11442  0.020422609  0.020406344            3 
 1956000   0.93707607   -7.9054065    480.91712   0.02048897  0.020399696            2 
 1957000   0.92937489   -7.9048102    480.21006  0.020448393  0.020393101            2 
 1958000   0.92986369   -7.9163377    479.82133  0.020421405  0.020386494            2 
 1959000   0.93569691   -7.9723438    480.50682  0.020440141  0.020379852            2 
 1960000   0.95140232   -7.9285378    480.15479  0.020414744  0.020373206            2 
 1961000   0.92413006   -7.9718338     480.0227  0.020398721  0.020366563            5 
 1962000   0.92726269   -7.9642013    479.33303  0.020359031  0.020359936            5 
 1963000    0.9588562   -7.9242934    480.54124  0.020399951  0.020353299            2 
 1964000   0.95253061    -7.919131    479.47988   0.02034453  0.020346657            4 
 1965000    0.9327693   -7.9615683    479.93946  0.020353667  0.020340054            3 
 1966000   0.93650246   -7.9751774    479.86903  0.020340329  0.020333416            2 
 1967000   0.95314542   -7.9331817    481.21274  0.020386915  0.020326832            1 
 1968000    0.9368944   -7.9383551    481.54309  0.020390544   0.02032029            2 
 1969000    0.9407353   -7.9632159    480.36922  0.020330507  0.020313789            6 
 1970000   0.95716743   -7.9560707     480.7702  0.020337149  0.020307216            4 
 1971000   0.91969206    -7.932996    481.76896  0.020369058  0.020300689            4 
 1972000   0.92052095   -7.9386898    481.55767    0.0203498  0.020294168            3 
 1973000   0.94973013   -7.9519726    481.94584  0.020355881  0.020287668            7 
 1974000   0.94249487   -7.9054095    483.32641   0.02040385  0.020281237            1 
 1975000    0.9401263   -7.9209433    483.01691   0.02038046  0.020274842            2 
 1976000   0.92999293   -7.9370166    480.53807  0.020265607  0.020268414            2 
 1977000   0.92620818   -7.9181991    482.99069  0.020358738  0.020261934            3 
 1978000   0.94240723   -7.9028282    482.69657  0.020336054  0.020255416            7 
 1979000   0.93578428   -7.9077185    483.39834  0.020355328  0.020248914            5 
 1980000   0.93176811   -7.9548607    481.86931  0.020280695  0.020242395            3 
 1981000   0.93877692   -7.9367411    482.76888  0.020308299  0.020235825            5 
 1982000   0.95534932   -7.9398599    483.03632  0.020309297  0.020229249            6 
 1983000   0.92058454   -7.9417245    482.72125  0.020285815   0.02022276            2 
 1984000    0.9452713   -7.9227825    484.75103  0.020360847  0.020216297            2 
 1985000   0.91528738   -7.9346128    483.38246  0.020293134  0.020209859            5 
 1986000   0.93013113   -7.9655338    483.28235  0.020278715  0.020203418            1 
 1987000   0.92949761   -7.9288168    484.31917  0.020311994   0.02019705            6 
 1988000   0.93752967   -7.9536174    484.34575   0.02030289  0.020190614            3 
 1989000    0.9338103   -7.9428309    484.34467  0.020292637  0.020184177            4 
 1990000    0.9164502   -7.9617772    483.01415  0.020226723  0.020177696            2 
 1991000   0.92065425    -7.943784    483.77197  0.020248283  0.020171247            6 
 1992000   0.93951454   -7.9277895    483.67385  0.020234013  0.020164854            4 
 1993000   0.94432178   -7.9681079    484.33577  0.020251537  0.020158404            2 
 1994000   0.94429788   -7.9581617    483.83486  0.020220447  0.020151908            3 
 1995000   0.94899039   -7.9455041    484.35438  0.020232013  0.020145438            5 
 1996000   0.94680579    -7.927874    485.60708  0.020274177  0.020138983            7 
 1997000   0.93643763   -7.9325433     485.0548  0.020240978  0.020132533            4 
 1998000   0.92315348   -7.9468344    485.36176   0.02024365  0.020126058            3 
 1999000   0.92749824   -7.9281291    483.70813  0.020164588  0.020119579            2 
 2000000   0.93701287   -7.9312722    483.40677  0.020141949  0.020113126            2 
 2001000   0.93671159   -7.9449685    484.37873  0.020172361  0.020106623            2 
 2002000   0.93139876   -7.9372347     485.5048  0.020209158  0.020100143            3 
 2003000   0.94626146   -7.9502232    484.60917  0.020161806  0.020093607            2 
 2004000   0.91822427   -7.9521638    484.23985  0.020136388  0.020087107            2 
 2005000   0.93211815   -7.9598786    484.80512  0.020149839  0.020080578            3 
 2006000   0.93922201   -7.9420014    484.81127  0.020140049  0.020074025            2 
 2007000   0.93410293   -7.9536743    486.04964  0.020181433  0.020067538            5 
 2008000   0.91527938   -7.9491202    484.61566  0.020111872  0.020061114            1 
 2009000   0.92148071   -7.9450527    485.25299  0.020128297  0.020054645            2 
 2010000   0.93906626   -7.9315378    486.39543  0.020165648  0.020048259            3 
 2011000    0.9241917   -7.9431117    486.11321  0.020143926  0.020041878            6 
 2012000   0.90883373   -7.9593476    485.09717  0.020091831  0.020035409            2 
 2013000   0.93369949   -7.9849027    484.71691  0.020066108   0.02002886            4 
 2014000   0.92521956   -7.9589014    485.62601  0.020093761  0.020022263            4 
 2015000   0.91679091   -7.9832576    484.27987  0.020028117  0.020015705            2 
 2016000   0.95681313   -7.9160617    485.58243  0.020072025  0.020009121            2 
 2017000   0.92199185   -7.9359975    487.59233  0.020145114  0.020002646            2 
 2018000   0.93467659    -7.979226    485.68309  0.020056289   0.01999616            5 
 2019000   0.94138015   -7.9218487    487.32801  0.020114248   0.01998968            1 
 2020000   0.93058738   -7.9416869    486.06591  0.020052224  0.019983216            2 
 2021000    0.9105754   -7.9536659    486.97559  0.020079812  0.019976753            2 
 2022000   0.94252263   -7.9754755    485.66755  0.020015972  0.019970252            5 
 2023000   0.91810057   -7.9450513    485.95335  0.020017851  0.019963778            2 
 2024000     0.911472   -7.9932922    486.32413  0.020023227  0.019957291            3 
 2025000   0.94301497   -7.9551178    486.85179  0.020035053  0.019950822            3 
 2026000   0.91339311   -7.9684961    486.72382    0.0200199  0.019944317            4 
 2027000   0.92339529    -7.960163    486.92563   0.02001832  0.019937857            3 
 2028000   0.93259567   -7.9681633    485.90977  0.019966706  0.019931354            4 
 2029000   0.93253334   -7.9514225     486.1367  0.019966186  0.019924862            2 
 2030000   0.91812535   -7.9429364    487.98726  0.020032318   0.01991839            1 
 2031000   0.93932634   -7.9514762    486.81214  0.019974238  0.019911948            2 
 2032000   0.92305183   -7.9253757    487.95933  0.020011456  0.019905459            3 
 2033000   0.91881749   -7.9570407    486.64852  0.019947881  0.019898944            4 
 2034000   0.92943325   -7.9785133    486.50622  0.019932245  0.019892388            2 
 2035000   0.95384332   -7.9468627    487.17023  0.019949641  0.019885828            4 
 2036000   0.91777462   -7.9749491    487.34242   0.01994689  0.019879346            4 
 2037000   0.92874809   -7.9792667    486.74832  0.019912793  0.019872807            3 
 2038000   0.91844836   -8.0097746     486.5689  0.019895686  0.019866248            3 
 2039000   0.93450219   -7.9538168    488.54127  0.019966539  0.019859732            3 
 2040000   0.91844008   -8.0048425    486.24812  0.019863077  0.019853195            3 
 2041000   0.94092226    -7.975996    488.70749   0.01995376  0.019846671            2 
 2042000   0.91752288   -7.9452942    487.24181  0.019884175  0.019840233            2 
 2043000   0.92425678   -8.0013288    487.83994  0.019898839  0.019833772            3 
 2044000    0.9427669   -7.9534251    488.52209  0.019916915  0.019827279            4 
 2045000   0.90758865   -7.9952257    488.09146  0.019889628  0.019820836            1 
 2046000   0.93389218   -7.9630254    488.12717  0.019881361   0.01981434            1 
 2047000   0.92637417   -7.9726243    487.84087  0.019859993  0.019807915            3 
 2048000   0.93399178    -7.978536    487.64023  0.019842132  0.019801447            4 
 2049000   0.91743324   -7.9607903    488.14512  0.019852982  0.019794969            5 
 2050000   0.92796928   -7.9694187    488.74772  0.019867794  0.019788515            2 
 2051000   0.92791979   -7.9861518    488.96534  0.019866949  0.019782081            5 
 2052000   0.93702601    -7.957025    487.72786  0.019807012  0.019775658            2 
 2053000    0.9178274    -7.960706    489.03615  0.019850469  0.019769229            1 
 2054000   0.93460248   -7.9275802    491.44431  0.019938507  0.019762811            6 
 2055000   0.92301676   -7.9971601    488.60902  0.019813829  0.019756362            4 
 2056000   0.89260298   -7.9620697    489.17111  0.019826974  0.019749911            3 
 2057000   0.92468284   -7.9653114    489.89701  0.019846743  0.019743447            1 
 2058000   0.92658458   -7.9884918    489.77712  0.019832245  0.019736999            4 
 2059000   0.92670161   -7.9624786    488.86846  0.019785837  0.019730522            1 
 2060000   0.91935748   -7.9745903    489.13891  0.019787173  0.019724045            3 
 2061000   0.91119202   -7.9326467    489.66435  0.019798817  0.019717642            3 
 2062000   0.91278022   -7.9682756    489.54587  0.019784427  0.019711238            3 
 2063000   0.93618393   -7.9550001     489.5094  0.019773364  0.019704774            1 
 2064000    0.9052117   -7.9682457     489.8355   0.01977695  0.019698294            3 
 2065000   0.91835106   -7.9587052    488.83297  0.019726915  0.019691801            8 
 2066000   0.91799113   -7.9745237    490.69959  0.019792659  0.019685385            6 
 2067000   0.92316381   -7.9860334    490.31375  0.019767527   0.01967887            2 
 2068000   0.90561976   -7.9995458    490.29918  0.019757382   0.01967235            6 
 2069000   0.91227857   -8.0176852    489.30968  0.019707978  0.019665795            5 
 2070000   0.91333123    -8.057143    489.25959  0.019696441  0.019659256            2 
 2071000   0.92844905   -7.9883193     490.2634  0.019727322  0.019652793            6 
 2072000   0.93567418   -7.9859206    489.70672  0.019695412  0.019646288            2 
 2073000   0.91888543    -7.968465    491.01081  0.019738334  0.019639808            2 
 2074000   0.90988845   -7.9726002    490.24521  0.019698056  0.019633304            2 
 2075000   0.88845588   -8.0026891    490.07802  0.019681848   0.01962682            3 
 2076000   0.92434834   -8.0093927    488.89532  0.019624892  0.019620305            4 
 2077000   0.92859022   -7.9615011    490.75532   0.01969007  0.019613833            2 
 2078000   0.91482199   -7.9901448    490.59396  0.019674124  0.019607366            2 
 2079000    0.9233719   -7.9868745    491.01624  0.019681587  0.019600799            1 
 2080000   0.91346491   -8.0300499     488.7205  0.019580148  0.019594232            4 
 2081000   0.92117846   -7.9742954    490.50548  0.019642219  0.019587649            5 
 2082000   0.92738726   -7.9658854    491.35083   0.01966662  0.019581155            1 
 2083000   0.91290178   -7.9553843    490.63628  0.019628592  0.019574693            4 
 2084000   0.93303089   -7.9564286    490.39809  0.019609648  0.019568213            8 
 2085000     0.932924   -7.9850769    491.09645  0.019628155    0.0195617            3 
 2086000   0.90313025   -7.9856208    490.62726  0.019600003  0.019555245            7 
 2087000    0.9156669   -7.9932614     491.1712   0.01961233  0.019548776            3 
 2088000   0.92332745   -7.9461689    491.91301  0.019632543  0.019542279            1 
 2089000   0.91497359   -8.0078023    491.75507  0.019616845  0.019535763            4 
 2090000    0.9103644   -7.9760822    491.36967  0.019592092  0.019529269            2 
 2091000   0.92319814   -7.9885516     492.1022  0.019611916  0.019522765            5 
 2092000    0.9289174   -7.9669991    491.55795  0.019580862  0.019516259            3 
 2093000   0.93616438   -7.9742832    492.19788  0.019596985   0.01950978            3 
 2094000   0.91145873   -7.9963013    491.86417  0.019574346  0.019503266            2 
 2095000   0.91996674   -7.9904526    491.35563  0.019544774  0.019496787            5 
 2096000   0.93756363    -7.998622    490.84613  0.019515193  0.019490282            4 
 2097000    0.8986484    -8.005933    491.22734  0.019521036  0.019483732            2 
 2098000   0.89819324   -7.9795395    492.46483  0.019560885  0.019477218            1 
 2099000   0.92434326   -7.9853696    492.45419  0.019551143  0.019470754            2 
 2100000   0.92632474   -7.9969485    491.18764  0.019491573   0.01946422            2 
 2101000   0.94669162   -7.9885503    491.69995  0.019502616  0.019457669            3 
 2102000   0.91015181   -7.9916956    492.58319  0.019528354  0.019451198            6 
 2103000   0.91102291   -7.9925473    492.29794  0.019507764  0.019444649            3 
 2104000    0.9100586   -8.0039916    492.36955  0.019501329  0.019438077            6 
 2105000   0.91757583   -8.0048585    492.79631  0.019508959  0.019431551            1 
 2106000    0.9210764    -7.958433    491.88325  0.019463566  0.019425051            7 
 2107000   0.90918365   -8.0059483    490.93647  0.019416883   0.01941852            3 
 2108000   0.91900012   -7.9696099     492.6182  0.019474154  0.019411989            5 
 2109000   0.92391015   -7.9848093    493.23259  0.019489197  0.019405426            2 
 2110000   0.91844439   -7.9715383     492.1222  0.019436106  0.019398863            4 
 2111000   0.92234979   -7.9942887    491.58714  0.019405777  0.019392323            1 
 2112000   0.91945799   -7.9914646    492.73944  0.019442055  0.019385749            2 
 2113000   0.92669302   -7.9592221    492.65218  0.019429412  0.019379164            2 
 2114000   0.91189449   -7.9984896    493.46092  0.019452102  0.019372624            2 
 2115000   0.90077757   -7.9658454    494.28213  0.019475261  0.019366125            2 
 2116000   0.90664106   -7.9583329    492.96297  0.019414106  0.019359562            4 
 2117000    0.9038057   -8.0297321    492.04391  0.019368757  0.019352948            2 
 2118000   0.93617055   -7.9857356    493.47805  0.019416039  0.019346302            4 
 2119000   0.88628252   -7.9688811    493.25241  0.019398003  0.019339722            2 
 2120000   0.90932695   -7.9594979     493.0982  0.019382791  0.019333183            2 
 2121000   0.91472262   -7.9867728    492.15666   0.01933666  0.019326615            2 
 2122000   0.91642457   -7.9935623    493.67557  0.019387197  0.019320064            1 
 2123000   0.89648053   -7.9962473    493.16704  0.019358103  0.019313546            4 
 2124000   0.92569471   -8.0364116    492.70699   0.01933094  0.019306979            2 
 2125000   0.93709997    -8.017429    493.27167  0.019343987  0.019300355            3 
 2126000   0.90674413   -8.0224867    493.73232  0.019352944  0.019293752            2 
 2127000   0.91235021   -8.0263575    493.69552  0.019342404  0.019287123            5 
 2128000   0.91968616    -7.978241    493.44262  0.019323411  0.019280537            5 
 2129000   0.90901495   -7.9983632    494.09282  0.019339785  0.019273971            2 
 2130000   0.93602791   -8.0319311     492.7513   0.01927822  0.019267374            2 
 2131000   0.90498113   -8.0030098    493.43443  0.019295887  0.019260794            3 
 2132000   0.91556115   -7.9965215    493.77242  0.019300048  0.019254258            5 
 2133000   0.90520984   -8.0109273    493.02378  0.019261751  0.019247709            2 
 2134000   0.89704826   -8.0323373    493.96677  0.019289549  0.019241176            3 
 2135000   0.90519822   -8.0428081    492.63223  0.019228424  0.019234623            2 
 2136000   0.90986057   -8.0203181    492.68397  0.019221441  0.019228024            3 
 2137000    0.9174957   -8.0056476    494.86621  0.019297544  0.019221422            4 
 2138000   0.92483318   -8.0067036    494.56357  0.019276722   0.01921484            3 
 2139000   0.90750685   -8.0253533    492.55272  0.019189369  0.019208246            1 
 2140000    0.9164298   -7.9898519    494.52693  0.019257279  0.019201643            1 
 2141000   0.90459746   -8.0020577    495.64966  0.019291984  0.019195093            6 
 2142000   0.90801687   -8.0204485    495.37072  0.019272126  0.019188537            5 
 2143000   0.92937151   -7.9852841    494.03432  0.019211165  0.019181969            4 
 2144000    0.9273288   -7.9707749    494.84691  0.019233789  0.019175458            3 
 2145000   0.89819302   -7.9842813    494.83867  0.019224502  0.019168923            1 
 2146000   0.89680644   -8.0351378    493.89605   0.01917894  0.019162343            5 
 2147000    0.9110054   -7.9762832    494.78507  0.019204513  0.019155745            4 
 2148000   0.91714232   -8.0212159    494.45818   0.01918289  0.019149133            2 
 2149000   0.91115238   -7.9810063    495.38782  0.019210013  0.019142511            2 
 2150000    0.9085801    -8.024975    493.61442  0.019132342  0.019135941            2 
 2151000   0.90658508   -8.0123747    495.39704  0.019192509  0.019129324            3 
 2152000   0.91116828   -8.0084936    494.93236  0.019165596  0.019122765            2 
 2153000   0.91749461   -8.0321038    493.84063  0.019114438  0.019116184            4 
 2154000   0.90845149   -8.0190281     494.8782  0.019145706  0.019109588            1 
 2155000    0.9111359   -8.0339462    493.63404   0.01908871  0.019102911            2 
 2156000   0.90489764   -8.0236144    494.37627  0.019108545  0.019096198            2 
 2157000   0.92095641   -8.0280981    494.94762  0.019121759  0.019089592            3 
 2158000   0.91759305   -8.0266596    495.42313  0.019131261  0.019082938            2 
 2159000   0.90126553   -8.0286982     493.8012  0.019059796  0.019076288            2 
 2160000   0.88731136   -8.0534334     494.3089  0.019070559  0.019069605            3 
 2161000    0.9056517   -8.0216341    494.08719  0.019053185  0.019062874            3 
 2162000   0.91105243   -8.0205815    494.85456   0.01907395  0.019056205            2 
 2163000   0.92030299   -8.0449517    493.62883  0.019017908   0.01904951            2 
 2164000   0.92155829   -8.0163853    494.76868  0.019053014  0.019042815            3 
 2165000   0.89640965   -8.0067703    494.78557  0.019044864  0.019036118            3 
 2166000   0.89817254   -7.9911549    494.52803  0.019026163  0.019029463            2 
 2167000   0.89243471   -8.0492954    494.04597  0.018998845  0.019022739            4 
 2168000   0.90079619   -8.0334455    494.76229  0.019017616  0.019015951            3 
 2169000   0.88311215   -8.0307439    494.86779  0.019012901  0.019009203            2 
 2170000   0.90415899   -8.0518172    494.36171  0.018984705  0.019002492            2 
 2171000   0.88070074   -8.0451489     495.3817  0.019015112  0.018995743            6 
 2172000   0.91308403    -8.051722    494.32554  0.018965835  0.018988983            2 
 2173000   0.88955773   -8.0760225    494.00968  0.018944995  0.018982271            5 
 2174000   0.92092048    -8.034596    495.04435  0.018975941  0.018975495            3 
 2175000   0.91334013   -8.0408547    494.97669  0.018964624  0.018968778            6 
 2176000   0.90307806   -8.0568208    494.63549  0.018942842  0.018962001            2 
 2177000   0.89658541   -8.0329525    493.82589   0.01890315  0.018955258            3 
 2178000   0.89178227   -8.0420913    495.02489  0.018940346  0.018948523            4 
 2179000   0.88948301   -8.0309824    495.02577  0.018931688  0.018941825            5 
 2180000   0.90393944   -8.0315571    494.42362  0.018899986  0.018935147            5 
 2181000   0.89471414   -8.0089626    496.14853  0.018957227  0.018928492            5 
 2182000   0.91447734   -8.0113012    496.65439  0.018967858  0.018921827            2 
 2183000   0.89809787    -7.990613    496.22701  0.018942854  0.018915214            3 
 2184000   0.89661588   -8.0355601    496.00166  0.018925582  0.018908587            4 
 2185000   0.90530154   -8.0744594    494.46595   0.01885835  0.018901888            3 
 2186000   0.91138032   -8.0631239    495.42602  0.018886323  0.018895165            4 
 2187000   0.92793387   -8.0282764    497.15697  0.018943643  0.018888472            2 
 2188000   0.89358905   -8.0142011    497.10525  0.018933015  0.018881843            3 
 2189000   0.89885679   -7.9872745    496.75356  0.018910978   0.01887523            2 
 2190000   0.87693173   -8.0368748    497.60821  0.018934863   0.01886859            2 
 2191000   0.91125495   -8.0216792    497.08119  0.018906176  0.018861947            2 
 2192000   0.92084293   -8.0520895    496.44974  0.018873546  0.018855319            2 
 2193000   0.88741128   -8.0591171    495.38798  0.018824593  0.018848627            3 
 2194000      0.90754   -8.0417922    496.65556  0.018864158  0.018841937            2 
 2195000   0.90482337   -8.0410594    497.61424  0.018891961  0.018835329            2 
 2196000   0.88890156   -8.0682694    496.72757  0.018849711  0.018828712            4 
 2197000   0.90531669   -8.0733494     496.1828  0.018820467  0.018822077            3 
 2198000   0.90085723    -8.055303    496.32035   0.01881712  0.018815401            3 
 2199000   0.87901879   -8.0636811    496.87732  0.018829669  0.018808734            4 
 2200000    0.9033365   -8.0303339    498.09512   0.01886724  0.018802079            3 
 2201000   0.90025385   -8.0476668    497.60135  0.018839973  0.018795444            3 
 2202000   0.88494718   -8.0677554    496.62688  0.018794538  0.018788809            6 
 2203000   0.87697376   -8.0384004    496.70399  0.018788924  0.018782195            2 
 2204000   0.90027983   -8.0435387    497.93583  0.018826975  0.018775622            2 
 2205000    0.8926355   -8.0340914    498.15842  0.018826849  0.018769142            6 
 2206000   0.89739858   -8.0460441    498.11128  0.018816534  0.018762618            2 
 2207000   0.89542272   -8.0081029    497.69935  0.018792454  0.018756067            3 
 2208000   0.91426046   -8.0664998    496.59094   0.01874211  0.018749514            2 
 2209000   0.88931317   -8.0640379    497.56504  0.018770373  0.018742988            6 
 2210000   0.88696342   -8.0377659    498.87461   0.01881126   0.01873645            8 
 2211000   0.88300786   -8.0250362    498.20904  0.018777666  0.018729926            2 
 2212000   0.92358823   -8.0268063    498.94199   0.01879679  0.018723381            6 
 2213000   0.89887265    -8.056148    498.25301  0.018762352  0.018716885            2 
 2214000   0.90187596   -8.0248035    498.96125  0.018780535  0.018710335            4 
 2215000   0.90976219   -8.0378735    498.96322   0.01877213   0.01870374            5 
 2216000   0.89143699   -8.0388283     499.5735  0.018786609  0.018697184            2 
 2217000   0.90058165   -8.0107016    499.00831   0.01875689  0.018690597            3 
 2218000   0.90093724   -8.0212449    498.41018  0.018725961  0.018684006            5 
 2219000   0.87558401   -8.0160162    499.72055  0.018766732  0.018677421            2 
 2220000   0.90288192   -8.0620259    498.58024  0.018715475  0.018670893            2 
 2221000   0.89576962   -8.0294325     498.2102  0.018693164  0.018664333            2 
 2222000   0.89706259   -8.0364719    497.00892  0.018639698  0.018657795           13 
 2223000   0.88033895   -8.0591733    498.53121   0.01868838  0.018651224            3 
 2224000   0.90832203   -8.0498548    498.89887  0.018693753   0.01864466            2 
 2225000    0.8591251    -8.031086    499.11848  0.018693576  0.018638155            3 
 2226000   0.91756405   -8.0074806    500.06981  0.018720793  0.018631607            3 
 2227000   0.90899596   -8.0283284    499.64485  0.018696484  0.018625082            2 
 2228000   0.90052333   -8.0535139     498.2512  0.018635966  0.018618566            2 
 2229000   0.89019883    -8.027564    500.31966  0.018704937  0.018611996            5 
 2230000   0.87885693   -8.0197074    499.33234  0.018659654  0.018605464            2 
 2231000   0.89718393   -8.0471479    499.13792  0.018644028  0.018598964            4 
 2232000    0.9021619   -8.0619744    499.54873  0.018651013   0.01859245            3 
 2233000   0.91986927     -8.05213    498.87894  0.018617665  0.018585929            4 
 2234000   0.89914703   -8.0518031    500.84947  0.018682836  0.018579397            4 
 2235000   0.88061431   -8.0292653    500.39439  0.018657509  0.018572842            2 
 2236000   0.89733524   -8.0029515    500.43388  0.018650636  0.018566332            2 
 2237000    0.8867234   -8.0732427    500.15285   0.01863183  0.018559847            2 
 2238000   0.90595267   -8.0501596    500.09001  0.018621165  0.018553338            3 
 2239000    0.8688743   -8.0544473     499.6603  0.018596855  0.018546806            2 
 2240000   0.90610936   -8.0309532      500.214  0.018609152  0.018540238            5 
 2241000   0.89689757   -8.0511675    500.56851   0.01861403  0.018533693            7 
 2242000   0.88848498   -8.0279925    502.07741  0.018661813  0.018527162            4 
 2243000   0.91256677   -8.0425256    501.48047  0.018631315  0.018520647            5 
 2244000   0.89071889   -8.0124732    501.52697  0.018624739  0.018514144            2 
 2245000   0.87427734   -8.0424921    501.43963  0.018613201   0.01850764            3 
 2246000   0.89627949   -8.0502187    501.19262  0.018595749  0.018501153            5 
 2247000   0.89734571   -8.0527114    501.97025  0.018616312  0.018494657            4 
 2248000   0.87426978   -8.0030792     502.3858  0.018623436  0.018488234            4 
 2249000   0.88066846   -8.0857161    500.30153  0.018537925  0.018481819            4 
 2250000   0.90535264   -8.0426706     503.1078  0.018633622  0.018475371            8 
 2251000    0.8903714   -8.0335058    502.37981  0.018598394  0.018468968            4 
 2252000   0.88943539   -8.0590236    501.92438  0.018573282  0.018462583            2 
 2253000   0.90114148   -8.0205319    502.09121  0.018571209  0.018456185            3 
 2254000   0.91326568   -7.9899601    502.61706  0.018582411   0.01844978            3 
 2255000   0.88212592   -8.0436502    501.75883  0.018542455  0.018443358            5 
 2256000    0.8665843   -8.0556273    501.45298  0.018522938   0.01843697            3 
 2257000    0.9039996    -8.079227    502.00844   0.01853524  0.018430553            3 
 2258000   0.87829469   -8.0516307    501.69414  0.018515432   0.01842414            7 
 2259000   0.87659481   -8.0620627    502.79636  0.018547896  0.018417748            5 
 2260000   0.88417386    -8.051555    501.36982  0.018487088  0.018411364            3 
 2261000   0.89239092   -8.0256913    503.65188  0.018563021  0.018404977            5 
 2262000   0.90453277   -8.0699159    502.40123   0.01850874  0.018398609            3 
 2263000   0.90020251   -8.0745721    502.20345  0.018493278  0.018392167            2 
 2264000   0.87647511   -8.0666561    502.70796  0.018503679  0.018385722            5 
 2265000   0.88321721   -8.0598695    502.50392  0.018488003  0.018379246            3 
 2266000   0.88160794   -8.0530529    502.27648   0.01847148  0.018372837            3 
 2267000   0.89054749   -8.0270227    501.72591  0.018443093  0.018366427            1 
 2268000   0.89853289   -8.0780869     502.1107    0.0184491  0.018360011            4 
 2269000   0.87527962    -8.054715    502.94215  0.018471506  0.018353565            3 
 2270000   0.89548554    -8.071521    502.77143  0.018457101  0.018347147            4 
 2271000   0.88944295    -8.080835    501.19166  0.018391005  0.018340702            2 
 2272000   0.89202923   -8.0694776    502.22935  0.018420971  0.018334295            2 
 2273000   0.87902224   -8.0291849    505.06215  0.018516723   0.01832793            5 
 2274000   0.88189108   -8.0677172    503.20528  0.018440534   0.01832155            4 
 2275000   0.89118442   -8.0959315    502.32632  0.018400232  0.018315146            3 
 2276000   0.88776979   -8.0411373    502.79611  0.018409348  0.018308718            1 
 2277000   0.87809622   -8.0740444    503.41825  0.018424032  0.018302325            2 
 2278000    0.8829184   -8.0841954    503.30332   0.01841174  0.018295976            4 
 2279000   0.90001953   -8.0844517    502.88516  0.018388371  0.018289594            4 
 2280000   0.89788731   -8.0613808    503.10756  0.018388434  0.018283231            2 
 2281000   0.89144842   -8.0517703    504.39644   0.01842746  0.018276862            3 
 2282000   0.88846857   -8.0532909    503.93548  0.018402552  0.018270535            2 
 2283000   0.87586454   -8.0420051     505.2091   0.01844098  0.018264219            3 
 2284000   0.87752115   -8.0650267    504.51838  0.018407705  0.018257878            3 
 2285000   0.89362277   -8.0537693    504.19781  0.018387958  0.018251535            3 
 2286000   0.89108515   -8.0808193      504.326  0.018384587  0.018245137            2 
 2287000   0.87165753   -8.0579388    504.65784   0.01838864  0.018238752            4 
 2288000   0.86991615    -8.043691    504.07484  0.018359369  0.018232411            4 
 2289000   0.89161124   -8.0595418    503.83883  0.018342756  0.018226081            1 
 2290000   0.88563627   -8.0689086    505.62813  0.018399859  0.018219695            4 
 2291000   0.86900719   -8.0572562    504.83186  0.018362864  0.018213382            1 
 2292000   0.89405794   -8.0570578    504.58257  0.018345789  0.018207056            2 
 2293000   0.89253784   -8.1015156    502.55769  0.018264199  0.018200712            3 
 2294000   0.87781774   -8.0877647    503.90782  0.018305283  0.018194274            2 
 2295000   0.88740898   -8.0864122    504.78496  0.018329156  0.018187931            3 
 2296000   0.87714479   -8.0373719    505.93691  0.018362983  0.018181642            4 
 2297000   0.88331461   -8.0708021    505.15429  0.018326596   0.01817535            2 
 2298000   0.89174116   -8.0649358    506.50327  0.018367539   0.01816905            4 
 2299000   0.88977752   -8.0970027    504.76573  0.018296569  0.018162742            2 
 2300000   0.86912599   -8.1233519    505.11815  0.018301382  0.018156437            3 
 2301000    0.8815543   -8.1165158    504.82383  0.018282769  0.018150131            5 
 2302000   0.89688306   -8.1051619    504.99807  0.018281135  0.018143813            3 
 2303000    0.8860745   -8.0705798     504.9121  0.018270086   0.01813752            6 
 2304000   0.88322812   -8.0899518    506.18356  0.018308144  0.018131253            4 
 2305000   0.88842689    -8.079102    505.88065   0.01828925  0.018125025            2 
 2306000   0.87347367   -8.0946832    505.88629  0.018281523  0.018118794            1 
 2307000   0.89575207   -8.0709943    506.54407  0.018297358  0.018112551            2 
 2308000   0.89748384   -8.0265293    507.25258  0.018315012  0.018106331            4 
 2309000   0.86792002   -8.0750869    506.18871  0.018268685  0.018100134            5 
 2310000   0.87448997   -8.1204415    506.77767  0.018282023  0.018093894           13 
 2311000   0.86164233   -8.0899313    506.37811  0.018259704   0.01808764            2 
 2312000   0.87382971   -8.1037279    505.30018  0.018212953   0.01808137            5 
 2313000    0.8776001   -8.0913643    506.73432  0.018256749  0.018075126            5 
 2314000   0.89032596   -8.0995668    505.66167   0.01821023   0.01806886            7 
 2315000   0.87453799   -8.1145864    506.95965  0.018249088  0.018062605            4 
 2316000   0.88439038   -8.0845013    507.46036  0.018259224  0.018056362            3 
 2317000   0.87897505     -8.08474    505.92554  0.018196142  0.018050174            3 
 2318000   0.89990058   -8.1134713      506.246  0.018199813  0.018044006            2 
 2319000   0.87169125   -8.0176271    508.49132  0.018272651  0.018037863            4 
 2320000   0.87037417    -8.103012    506.95039  0.018209425  0.018031732            2 
 2321000   0.89360005    -8.115118     506.2513  0.018176479  0.018025542            3 
 2322000   0.90506752   -8.1166894    507.60114  0.018217095  0.018019343            4 
 2323000   0.88899656   -8.0927715    506.71718  0.018177543  0.018013129            3 
 2324000   0.87690769   -8.1126012    506.86736  0.018175106  0.018006915            5 
 2325000   0.86618221   -8.1071487    507.92442  0.018205176  0.018000698            2 
 2326000   0.88417292   -8.1429768    506.25814  0.018137652  0.017994502            6 
 2327000   0.85537783   -8.0804228    507.63498  0.018179164   0.01798827            3 
 2328000   0.88857955   -8.1122083    507.01825  0.018149279   0.01798204            2 
 2329000   0.87243256    -8.079834    508.04982  0.018178396  0.017975873            5 
 2330000   0.87871383   -8.1222209     507.1792  0.018139456  0.017969697            2 
 2331000   0.85512107   -8.0759656    508.40614  0.018175538  0.017963501            5 
 2332000    0.8598183   -8.0695686    508.35435  0.018165893  0.017957349            3 
 2333000   0.89354255   -8.1063307    507.60954  0.018131502  0.017951141            4 
 2334000   0.88734824   -8.0967538    507.63439  0.018124621   0.01794496            3 
 2335000   0.87238004   -8.0977927    508.69017  0.018154539  0.017938773            2 
 2336000   0.89500339   -8.0963969    509.57434  0.018178308  0.017932635            4 
 2337000   0.85572859   -8.1073957    508.32627  0.018126026  0.017926459            6 
 2338000    0.8747084   -8.1165206    507.61083  0.018092773  0.017920273            8 
 2339000   0.87674633   -8.1310313    508.68104  0.018123167  0.017914063            1 
 2340000    0.8872407   -8.0859892    508.57247  0.018111555  0.017907878            1 
 2341000   0.89330764   -8.0794277    508.81279  0.018112373  0.017901726            8 
 2342000   0.86547452   -8.0790175    509.72132  0.018136967  0.017895611            6 
 2343000   0.88462961    -8.102728    509.03192  0.018104706  0.017889546            3 
 2344000   0.88524652   -8.0965653    510.02706  0.018132361   0.01788348            3 
 2345000   0.87749229   -8.1210748    509.58422  0.018108892  0.017877368            3 
 2346000   0.87130403    -8.083183    509.49621  0.018098047  0.017871259            6 
 2347000   0.86352835    -8.088329    510.09481  0.018111589  0.017865159            6 
 2348000   0.85990994    -8.124544    509.14123  0.018070032  0.017859012            3 
 2349000   0.86792766   -8.1166156    510.70062  0.018117661  0.017852885            4 
 2350000    0.8793939   -8.1233152    508.08324  0.018017136  0.017846757            3 
 2351000   0.86830703   -8.0896526    509.86799  0.018072735  0.017840665            6 
 2352000   0.86029812   -8.1142203    509.12748  0.018038814  0.017834575            4 
 2353000   0.89883823   -8.0841134    510.29946  0.018072654  0.017828485            2 
 2354000   0.86920161   -8.1040594    510.38492  0.018068002  0.017822406            4 
 2355000   0.88536943   -8.1080433    509.56556  0.018031336  0.017816278            3 
 2356000    0.8756275   -8.1181965    510.54712  0.018058401  0.017810183            3 
 2357000   0.87634246   -8.1295633    509.76131  0.018022957   0.01780411            5 
 2358000   0.88326755   -8.0491968     510.6087  0.018045261  0.017798054            3 
 2359000   0.87736414   -8.0925621    510.44897  0.018031969  0.017792037            2 
 2360000   0.86945431    -8.109374    510.37148  0.018021592  0.017785999            2 
 2361000   0.88152457   -8.0802669    512.06087  0.018073587  0.017779989            2 
 2362000   0.86351654   -8.1139954    510.35513  0.018005755  0.017773966            2 
 2363000    0.8769501   -8.0919403    511.63768  0.018043366  0.017767887            4 
 2364000   0.87912249   -8.1313226    510.16577  0.017983847  0.017761784            2 
 2365000   0.87416805   -8.1159707    511.32823  0.018017203  0.017755714            3 
 2366000   0.84395167   -8.1272228    510.00203  0.017962878  0.017749648            3 
 2367000   0.88240145   -8.1164541    510.28724   0.01796533  0.017743604            3 
 2368000   0.87526529   -8.1012425    510.21323  0.017955139  0.017737593            4 
 2369000   0.87736739   -8.1179212    510.71652  0.017965264  0.017731554            3 
 2370000   0.87222405   -8.0934158    511.66444  0.017991014  0.017725517            2 
 2371000   0.88820275   -8.1036541    510.79675  0.017952929  0.017719509            2 
 2372000   0.87006811   -8.1056899    511.79995  0.017980605  0.017713503            3 
 2373000   0.87131554   -8.1089555    511.54591  0.017964107  0.017707512            2 
 2374000   0.88080818   -8.1095102    511.93966  0.017970361  0.017701484            3 
 2375000   0.87526295   -8.1045064    511.47125   0.01794636  0.017695487            4 
 2376000   0.88601072    -8.098559    511.74164   0.01794829  0.017689463            3 
 2377000   0.86345529   -8.1516956    511.32718  0.017926209  0.017683401            4 
 2378000   0.87988836    -8.141224    511.47227  0.017923755   0.01767734            4 
 2379000   0.88698718   -8.1633154    512.00391  0.017934843  0.017671279            3 
 2380000   0.86138475   -8.1201068    511.82972  0.017921209  0.017665258            5 
 2381000   0.86216719   -8.1344506    512.13777  0.017924463  0.017659239            1 
 2382000   0.88295503   -8.1145963    512.01834   0.01791276  0.017653208            4 
 2383000   0.87051473   -8.1169001    511.24565  0.017878223  0.017647224            3 
 2384000   0.84568883   -8.1112923    511.36662  0.017874952  0.017641209            6 
 2385000   0.87299009   -8.0965454    512.59968  0.017910541  0.017635198            2 
 2386000   0.88331363    -8.150276    511.83619  0.017876369  0.017629173            2 
 2387000   0.88844944    -8.115012     512.0177  0.017875216  0.017623159            2 
 2388000   0.86888206   -8.1538804    513.52882  0.017920464  0.017617143            3 
 2389000   0.85809431   -8.0845045    512.22784  0.017867582  0.017611157            2 
 2390000   0.87008181   -8.1272584    511.63677  0.017839497  0.017605168            2 
 2391000   0.87362532   -8.1499005    512.85216  0.017874396  0.017599184            1 
 2392000   0.86609583   -8.1130947     512.1456  0.017842308   0.01759318            3 
 2393000   0.86946175   -8.0847895    512.69005  0.017853812  0.017587196            2 
 2394000   0.87254771   -8.1126134    511.79623  0.017815241  0.017581165            5 
 2395000   0.86704545   -8.0742891    513.63659  0.017871837  0.017575213            3 
 2396000   0.88557165   -8.0927435    514.06786  0.017879378  0.017569268            2 
 2397000   0.87012189   -8.1154538    513.68009  0.017858437  0.017563317            5 
 2398000   0.87804515   -8.1036437    512.74297  0.017818424  0.017557342            3 
 2399000   0.84406185   -8.1525518    512.94195  0.017817908  0.017551356            4 
 2400000   0.88159755   -8.1506826    511.96057  0.017776409   0.01754535            3 
 2401000   0.86724934   -8.1605677    513.08775  0.017808127  0.017539305            4 
 2402000   0.88132564   -8.1215949    513.60905  0.017818799  0.017533305            2 
 2403000   0.86419526   -8.1153685    512.75394  0.017781729  0.017527355            1 
 2404000   0.85214822   -8.1185627    512.07898  0.017750935   0.01752136            2 
 2405000   0.85819499   -8.1209574    514.39316  0.017823741  0.017515372            4 
 2406000   0.87248918   -8.1410361    513.17349  0.017774089  0.017509357            3 
 2407000   0.87213896   -8.1265901    512.68988  0.017749961  0.017503352            2 
 2408000    0.8575629   -8.1500197    511.36302  0.017696671  0.017497317            2 
 2409000   0.86911392   -8.1061013    513.15546  0.017751331  0.017491331            2 
 2410000   0.88040393    -8.151385    512.44043   0.01771924  0.017485371            3 
 2411000   0.87739363   -8.1770119    512.85936  0.017726371  0.017479349            2 
 2412000   0.84782255   -8.1564033    512.10356  0.017692909  0.017473315            3 
 2413000   0.86598662   -8.1631438    513.28689  0.017726443  0.017467281            8 
 2414000   0.85163482   -8.1491875    512.40892  0.017688792  0.017461265            8 
 2415000   0.86567686   -8.1414734    513.11128  0.017705703  0.017455292            2 
 2416000   0.86444164   -8.1151969    513.27552   0.01770404  0.017449319            4 
 2417000   0.84678292   -8.1362772    513.81985  0.017715482  0.017443344            2 
 2418000   0.85698623   -8.0982004     515.7745  0.017775521  0.017437459            3 
 2419000   0.88940525   -8.0836838    515.14212  0.017746387  0.017431564            2 
 2420000   0.84569227   -8.1058526     513.3952  0.017678898  0.017425672            4 
 2421000   0.86288706   -8.1353782     514.8127  0.017720388  0.017419759            2 
 2422000   0.85094174   -8.0891353    513.82436  0.017679066  0.017413827            4 
 2423000   0.85720506   -8.0876826    514.65006  0.017700167  0.017407888            7 
 2424000   0.86484653   -8.1285976    513.39415  0.017649689  0.017401945            2 
 2425000   0.87103297   -8.1311262    514.10245  0.017666751  0.017395991            6 
 2426000   0.86564395    -8.165076    512.41269  0.017601425  0.017389998            4 
 2427000   0.85354033    -8.155232    512.84837  0.017609132  0.017383982            3 
 2428000   0.85215685   -8.1192289    514.57574  0.017661166  0.017377986            5 
 2429000   0.85329719   -8.1343137    514.64258  0.017656189  0.017371999            7 
 2430000   0.85989963   -8.1399068    513.34917  0.017604567  0.017366004            4 
 2431000   0.86433648   -8.1549341    512.70785  0.017575341  0.017360008            2 
 2432000   0.87271782   -8.1418261    514.40972  0.017626429  0.017354022            4 
 2433000   0.86449524   -8.1521747    514.66502  0.017627929  0.017348056            3 
 2434000   0.86480736    -8.164665    514.44077  0.017613009  0.017342049            4 
 2435000   0.87235191   -8.1448721    514.13095  0.017595173  0.017336047            3 
 2436000   0.86586204   -8.1315251    514.48956  0.017600218  0.017330069            4 
 2437000   0.87608974    -8.116813    515.08166  0.017613243  0.017324128            2 
 2438000   0.87339864   -8.1165257     514.7238  0.017593786  0.017318208            4 
 2439000   0.89904165   -8.1557867    514.35737  0.017574053  0.017312237            6 
 2440000   0.86573115   -8.1544868    514.20612  0.017561684  0.017306249            2 
 2441000   0.88465336   -8.1493818    513.19229  0.017519879  0.017300266            2 
 2442000   0.85765244   -8.1491265    514.60662  0.017560968  0.017294296            4 
 2443000   0.85355637   -8.1537714    515.98364  0.017600752  0.017288313            4 
 2444000    0.8510663   -8.1319306    514.50558  0.017543153  0.017282367            2 
 2445000    0.8504426   -8.1501026    514.25545  0.017527452  0.017276396            1 
 2446000   0.86315968   -8.1614913    513.52459  0.017495387  0.017270403            4 
 2447000   0.85448774   -8.1417824    513.58764  0.017490384  0.017264419            2 
 2448000    0.8347404   -8.1373014     515.0734  0.017533817  0.017258438            2 
 2449000   0.86111858   -8.1498171    513.94624  0.017488303   0.01725245            3 
 2450000   0.84727167   -8.1408232    515.32072  0.017527916  0.017246466            3 
 2451000   0.87219566   -8.1398816    514.82936  0.017504058  0.017240472            3 
 2452000   0.85218535   -8.1433859    515.59266  0.017522861  0.017234488            1 
 2453000   0.86112215   -8.1865864    513.79708  0.017454718  0.017228475            3 
 2454000   0.85652414   -8.1641282    515.55781  0.017507396  0.017222486            6 
 2455000   0.86838558   -8.1602028    513.49009  0.017430078  0.017216474            2 
 2456000    0.8524569   -8.1581303    514.41121  0.017454235  0.017210464            3 
 2457000   0.85763229   -8.1705111    515.85918  0.017496241  0.017204457            2 
 2458000   0.86324858   -8.1767354    515.15081  0.017465107  0.017198457            1 
 2459000   0.86407515   -8.1707976    513.35132  0.017397022   0.01719246            3 
 2460000    0.8680003   -8.1850176    514.93894  0.017443731  0.017186494            3 
 2461000   0.85666214   -8.1701052    514.03327  0.017405976  0.017180529            3 
 2462000   0.83722356   -8.1347758    515.95126  0.017463825  0.017174556            2 
 2463000   0.87170526   -8.1509034    514.30882  0.017401165  0.017168608            3 
 2464000   0.85615002   -8.1241744    516.45118  0.017466558  0.017162658            2 
 2465000   0.85923516   -8.1461984    516.30888  0.017454661  0.017156787            3 
 2466000   0.86383107   -8.1149285    515.79833   0.01743033  0.017150866            5 
 2467000    0.8517448   -8.1411961    515.71933  0.017420596  0.017144927            9 
 2468000   0.85528512   -8.1340518    515.35181  0.017401128  0.017138982           10 
 2469000   0.86183427   -8.1047718     516.5159   0.01743337  0.017133066            3 
 2470000   0.84353003   -8.1583215    515.54094  0.017393419  0.017127136            3 
 2471000   0.87774126   -8.1458898    516.18649  0.017408151  0.017121224            2 
 2472000   0.86746665   -8.1134526    515.94874  0.017393094   0.01711532            3 
 2473000   0.84491693   -8.1478211    516.41583  0.017401801  0.017109437            4 
 2474000   0.84411642   -8.1335243    517.12739  0.017418734  0.017103518            4 
 2475000     0.852379   -8.1860588    516.13202  0.017378182  0.017097585            1 
 2476000   0.84535097   -8.1606993    515.98344  0.017366163   0.01709166            3 
 2477000   0.85494245   -8.1248562    516.40374  0.017373292   0.01708574            5 
 2478000   0.86554435   -8.1705047    516.33651   0.01736402  0.017079823            6 
 2479000   0.86095373   -8.1793747    515.65498  0.017334106  0.017073875            2 
 2480000   0.84630254   -8.1639962    516.73856  0.017363527  0.017067954            4 
 2481000   0.85341999   -8.1847004    516.97519  0.017364476   0.01706201            5 
 2482000   0.86635927   -8.1630032    516.19986  0.017331449  0.017056108            3 
 2483000    0.8473896   -8.1734254    516.02305  0.017318534  0.017050199            7 
 2484000   0.85119145   -8.1301808    518.07334  0.017380345  0.017044319            6 
 2485000   0.85345101   -8.1528342     517.2488  0.017345701  0.017038432            3 
 2486000   0.84429302   -8.1706624    516.92027  0.017327711  0.017032538            5 
 2487000   0.84753847   -8.1547529     517.2125  0.017330535  0.017026597            4 
 2488000   0.86743555   -8.1469355    516.93708  0.017314345  0.017020739            3 
 2489000   0.84612822   -8.1864653    516.92961  0.017307138  0.017014838            2 
 2490000   0.86723836   -8.1695595    517.22846  0.017310189  0.017008904            3 
 2491000    0.8532471   -8.1619381    516.53137   0.01727992  0.017002971            2 
 2492000   0.85014063   -8.1881001     515.4386  0.017236443  0.016997053            3 
 2493000    0.8626949   -8.1631759    516.27889  0.017257618  0.016991138            5 
 2494000   0.86242461   -8.1400017    516.11408  0.017245191  0.016985244            5 
 2495000   0.85024439   -8.1505816    516.89347  0.017264311  0.016979321            3 
 2496000   0.84873132   -8.1456444    518.63809  0.017315642  0.016973388            3 
 2497000   0.84133087   -8.1443146    516.46954  0.017236335  0.016967486            4 
 2498000   0.87581116   -8.1837963     516.8953  0.017243638  0.016961562            2 
 2499000   0.86128645   -8.1670043    516.45565  0.017222077  0.016955627            4 
 2500000   0.83854278   -8.1685303    517.70597  0.017256866  0.016949691            3 
 2501000   0.85226667   -8.2015602    515.38678   0.01717269  0.016943747           10 
 2502000   0.84595915   -8.1783856    516.89177  0.017215953   0.01693778            4 
 2503000   0.87147915   -8.1770489    517.34094  0.017224029  0.016931808            5 
 2504000   0.85669913   -8.1739107    517.02262  0.017206557  0.016925863            2 
 2505000   0.86927127    -8.192071    517.17044  0.017204606  0.016919891            2 
 2506000   0.86370856   -8.1927162    516.96966  0.017191063  0.016913963            2 
 2507000   0.83629968   -8.1764318      517.491  0.017201536  0.016908051            4 
 2508000   0.85976693   -8.2194831    516.84961  0.017173365  0.016902119            4 
 2509000   0.84052629   -8.1597972    517.35911  0.017183443  0.016896168            7 
 2510000   0.83817205   -8.1916217    517.28676  0.017174195  0.016890246            2 
 2511000   0.84373677    -8.195918    517.54915  0.017176064  0.016884322            6 
 2512000   0.84606003   -8.1810182    516.96516  0.017149853  0.016878404            2 
 2513000   0.85060911    -8.201029    516.87572  0.017140062  0.016872481            9 
 2514000   0.85825759   -8.1874902    516.59279  0.017123866  0.016866553            8 
 2515000   0.83242936    -8.191708    518.12938  0.017167972  0.016860603            5 
 2516000   0.85048511   -8.2211288    516.88514  0.017119937  0.016854654            5 
 2517000   0.85028072   -8.1893617    518.36858  0.017162249  0.016848757            6 
 2518000   0.86071868   -8.1824399    518.81068  0.017170065  0.016842882            6 
 2519000     0.848068   -8.1945483    516.93399  0.017101164  0.016836998            8 
 2520000   0.84811307    -8.164751    518.69624  0.017152654  0.016831129            4 
 2521000   0.85702758   -8.2173131    516.29174  0.017066367   0.01682526            4 
 2522000   0.84389455   -8.1811561    517.93845  0.017114012  0.016819376            3 
 2523000    0.8614438   -8.1859493    518.84865  0.017137292  0.016813506           13 
 2524000   0.86260805   -8.1826295    518.56817  0.017121242  0.016807635            4 
 2525000   0.86008004   -8.2146364    518.36718  0.017107828  0.016801736            3 
 2526000   0.85306319   -8.2135875    518.48834  0.017105052  0.016795877            5 
 2527000   0.83433566   -8.1574856    519.83292  0.017142624  0.016790049            3 
 2528000   0.86017332   -8.1619161    519.79847  0.017134707  0.016784226            2 
 2529000   0.84536203   -8.1530051    518.76499  0.017093878  0.016778433            2 
 2530000   0.83115358   -8.1629995    518.51214  0.017078793  0.016772603            3 
 2531000   0.84378634   -8.1773708    520.73403    0.0171452  0.016766803            3 
 2532000   0.86024583   -8.1912722    519.07829  0.017083935  0.016760989            2 
 2533000   0.84555214   -8.1668753    519.74181   0.01709902   0.01675518            2 
 2534000   0.84831696   -8.2133309    518.14386  0.017039722  0.016749367            3 
 2535000   0.85607063   -8.1916026    520.42406  0.017107957  0.016743538            2 
 2536000   0.84086569   -8.1759727    519.28181  0.017063677  0.016737735            5 
 2537000   0.84469832   -8.1461781    520.09795  0.017083759  0.016731949            2 
 2538000   0.86620202   -8.1887738    518.54516  0.017026043   0.01672614            1 
 2539000   0.83234529   -8.1916883    519.29024  0.017043791  0.016720334            1 
 2540000   0.84441716   -8.2078393    518.91787  0.017024864  0.016714502            1 
 2541000   0.85312364   -8.2034389    519.79753  0.017047013   0.01670873            3 
 2542000   0.85496275    -8.198714    518.48426  0.016997255  0.016702932            7 
 2543000   0.85289455   -8.2139593    519.40988  0.017020903  0.016697109            1 
 2544000   0.82823769   -8.2085507    519.53678  0.017018369  0.016691293            3 
 2545000   0.84937182    -8.191298    518.08347  0.016964095  0.016685481            4 
 2546000   0.84089564   -8.2006483    519.83649  0.017014811  0.016679675            8 
 2547000   0.83756155    -8.207776    519.93179  0.017011248  0.016673858            3 
 2548000   0.83955118   -8.2060179    518.22551  0.016948767  0.016668041            4 
 2549000   0.84350156   -8.1644748    520.45356  0.017014959  0.016662275            4 
 2550000   0.83417998   -8.1828791     519.1994  0.016967301  0.016656504            5 
 2551000   0.84179816   -8.1785443    520.73813  0.017010915  0.016650703            1 
 2552000   0.84602579   -8.1923271    519.26839  0.016956256  0.016644902            8 
 2553000   0.83937174   -8.1802576    519.91675  0.016970778  0.016639111           12 
 2554000   0.84823674   -8.1795635    520.15797  0.016972004  0.016633304            9 
 2555000   0.82026814      -8.1751    520.33796  0.016971231  0.016627546            5 
 2556000   0.83412882     -8.21026    518.41824  0.016902003  0.016621759            7 
 2557000   0.83650027    -8.196671    520.34357   0.01695814   0.01661594            2 
 2558000     0.850568   -8.1831412    519.54512  0.016925499  0.016610146            5 
 2559000   0.84178787   -8.1941379    520.36829  0.016945691  0.016604391            3 
 2560000   0.83072877   -8.1978222     520.7977   0.01695305  0.016598599            3 
 2561000   0.83524244   -8.2168737    520.20353  0.016927097  0.016592823            3 
 2562000   0.83150512   -8.2395347    518.92031  0.016878751  0.016587025            5 
 2563000   0.85962198   -8.2165124    519.02997  0.016875731   0.01658118            3 
 2564000   0.86135354   -8.2227829    520.08447  0.016903421  0.016575371            3 
 2565000   0.83499265   -8.2108536    520.06023  0.016896044  0.016569576            5 
 2566000   0.82891829   -8.2297527    519.14966  0.016859888  0.016563759            5 
 2567000    0.8429933   -8.2035731    520.11101  0.016884528  0.016557957            8 
 2568000   0.83982968    -8.180882     520.1627  0.016879631   0.01655215            6 
 2569000    0.8481123   -8.2052338     519.9746  0.016866959  0.016546384            2 
 2570000   0.84496043   -8.2166904    519.61323  0.016848678  0.016540615            3 
 2571000   0.84893878    -8.195869    520.91804  0.016884417  0.016534832            4 
 2572000   0.85557777   -8.2024344    520.45942  0.016862993  0.016529061            3 
 2573000   0.82890006   -8.2129004    520.35977  0.016853212  0.016523293            2 
 2574000   0.83036181   -8.1778599    520.84031  0.016862222  0.016517475            5 
 2575000   0.84732048   -8.1893694    520.70487   0.01685129  0.016511729            3 
 2576000   0.84900073   -8.1999783     521.6991  0.016876912  0.016505984            3 
 2577000   0.85993395   -8.1747577    522.18749  0.016886156  0.016500244            3 
 2578000   0.82962538   -8.1681172    522.41495  0.016886959   0.01649453            2 
 2579000   0.83822903   -8.1799329    520.68161  0.016824402  0.016488792            5 
 2580000   0.81842859   -8.2119368    520.70895  0.016818764  0.016483064            6 
 2581000    0.8639929   -8.2004631    520.48451  0.016805002  0.016477321            9 
 2582000    0.8559244   -8.2092497    521.21393  0.016822035  0.016471604            5 
 2583000   0.84372193   -8.2565313    519.74824  0.016768236  0.016465863            4 
 2584000   0.82319592   -8.1939288     521.8568  0.016829747   0.01646012            2 
 2585000   0.83773099    -8.201585    522.81743  0.016854205  0.016454435            3 
 2586000   0.83577534   -8.2253353    521.50184  0.016805293  0.016448726            2 
 2587000   0.84462129   -8.2122073    521.66988  0.016804209  0.016443017            3 
 2588000   0.83704519   -8.2243478    519.99068  0.016743646  0.016437305            2 
 2589000   0.87669471   -8.2281951    522.17745  0.016807566  0.016431578            2 
 2590000   0.84371381   -8.2161861    522.26063  0.016803753  0.016425849            5 
 2591000   0.85051466   -8.2441521    521.82288  0.016783188  0.016420129            5 
 2592000   0.82415636   -8.1936204    523.23217  0.016822022  0.016414446            3 
 2593000   0.83620339   -8.2105201    522.39227  0.016788542   0.01640877            5 
 2594000   0.84581778    -8.199926    522.63978  0.016790021  0.016403098            2 
 2595000   0.82856768   -8.2123193    522.29064  0.016772339  0.016397434            6 
 2596000   0.83806651   -8.2041185    522.36902  0.016768394  0.016391773            5 
 2597000   0.82184012   -8.1528575    523.68586  0.016804193  0.016386111            3 
 2598000   0.83488427   -8.1959953    523.34116  0.016786668  0.016380464            5 
 2599000   0.84961569    -8.230152    522.35762  0.016748673  0.016374825            2 
 2600000   0.81938858   -8.1947954    522.90993  0.016759934   0.01636918            3 
 2601000   0.82741494   -8.2106143    523.57535  0.016774809  0.016363519            4 
 2602000   0.84406701   -8.1858727     523.6066  0.016769363  0.016357869            4 
 2603000    0.8440196   -8.2199007    522.56081  0.016729441  0.016352188            3 
 2604000   0.83571004   -8.2308256    521.96172  0.016703844  0.016346458            5 
 2605000   0.83245691   -8.2347684    521.48953  0.016682327  0.016340726            6 
 2606000   0.82357978   -8.2013367    520.91143  0.016657439  0.016334989            3 
 2607000   0.83813457   -8.2388786    522.45131  0.016700272   0.01632929            7 
 2608000   0.81764431    -8.213233    520.51975   0.01663215  0.016323572            4 
 2609000    0.8238225   -8.2298869    523.03356  0.016706068  0.016317865            5 
 2610000   0.81944407   -8.2026319    521.81127  0.016660641   0.01631216            6 
 2611000   0.84052811    -8.222772    522.15372   0.01666519  0.016306465            3 
 2612000   0.82990862   -8.2152157    522.24893  0.016661847  0.016300803            5 
 2613000   0.82221588    -8.209975    522.26664  0.016656035  0.016295149            3 
 2614000   0.81965725   -8.2145907    522.71987  0.016664112  0.016289481            2 
 2615000   0.83285473   -8.2303882    523.18196  0.016672465  0.016283816            5 
 2616000   0.84696611   -8.2082181    522.92136   0.01665779  0.016278155            3 
 2617000   0.83233332   -8.2097543    522.39556  0.016634682  0.016272467            5 
 2618000   0.82915835   -8.2334624    521.96958  0.016614769  0.016266767            4 
 2619000   0.82017659   -8.2311478    522.77517  0.016634058   0.01626108            2 
 2620000   0.83309289   -8.2142284    521.08067  0.016573813  0.016255412            3 
 2621000   0.83002303   -8.2137856    522.61405  0.016616242  0.016249719            5 
 2622000   0.83181938   -8.2277886    522.24439  0.016598156  0.016243999            3 
 2623000   0.83881712   -8.2595101    521.18004  0.016558014  0.016238244            5 
 2624000   0.79756178   -8.2237886    522.45897   0.01659232  0.016232502            6 
 2625000   0.82985117   -8.2674415    521.10847  0.016543126  0.016226763            4 
 2626000   0.84160287   -8.2193339    522.06562    0.0165672  0.016221019           10 
 2627000   0.83786729   -8.2284271    522.67029  0.016580075  0.016215297            6 
 2628000   0.82988864   -8.1925123    523.48606  0.016599634  0.016209585            2 
 2629000   0.83553524   -8.2503553    521.85667  0.016541672  0.016203917            2 
 2630000   0.82256782   -8.2139483    521.17753  0.016513863  0.016198206            3 
 2631000   0.83554282   -8.2278584    522.15609  0.016538581  0.016192492            3 
 2632000   0.83887727   -8.2181476    523.16823  0.016564344  0.016186813            6 
 2633000    0.8205175   -8.1886791    523.77204  0.016577163  0.016181134            2 
 2634000   0.84274987   -8.2614391    522.09362  0.016517768  0.016175457            3 
 2635000   0.83018376   -8.2121182     522.7779   0.01653314  0.016169777            3 
 2636000   0.83475027   -8.2511774    522.02627  0.016503107  0.016164083            3 
 2637000   0.82823158   -8.2093339    522.35967  0.016507384  0.016158397            3 
 2638000   0.83318188   -8.2727987    521.32854  0.016468554  0.016152685            6 
 2639000    0.8155667   -8.2433788    523.39166  0.016527462  0.016146971            3 
 2640000   0.83663048    -8.213244    523.32817  0.016519197    0.0161413            3 
 2641000   0.83201822   -8.2416167    523.37845  0.016514529  0.016135645            3 
 2642000   0.83084888   -8.2164327    523.63001  0.016516213   0.01612997            1 
 2643000   0.82977092   -8.2460542    523.53098  0.016506841    0.0161243            4 
 2644000   0.82581637   -8.2002993    524.71261  0.016537841   0.01611869            4 
 2645000   0.82044124   -8.2255264    524.60975  0.016528347  0.016113077            6 
 2646000   0.82928237   -8.2446809    521.84792   0.01643512  0.016107417            3 
 2647000   0.82265191   -8.2622398    522.60209  0.016452654   0.01610175            4 
 2648000   0.81960601   -8.2073323    524.33736   0.01650105  0.016096113            2 
 2649000   0.82130472   -8.2005133    523.90106  0.016481095  0.016090503            3 
 2650000   0.82194177   -8.2167659    523.85845  0.016473536   0.01608488            5 
 2651000   0.81993264   -8.2584295     523.2969   0.01644967  0.016079223            3 
 2652000   0.81457882   -8.2472433    522.82392  0.016428605  0.016073546            9 
 2653000   0.83678637   -8.2307661    524.03314  0.016460395  0.016067865            3 
 2654000   0.82051248   -8.2404221    523.24582  0.016429472  0.016062162            5 
 2655000   0.84326917   -8.2385603    523.00673  0.016415779  0.016056479            3 
 2656000    0.8342389   -8.2583361    523.34861  0.016420325  0.016050787            3 
 2657000   0.85169745   -8.2445616    523.94255  0.016432774  0.016045128            2 
 2658000   0.82016255    -8.220662    522.99064  0.016396747  0.016039472            2 
 2659000    0.8265421    -8.257134    523.20855   0.01639741  0.016033814            2 
 2660000   0.81343404   -8.2404804    524.53769  0.016432885  0.016028163            7 
 2661000   0.81706125   -8.2011717    523.94846  0.016408257  0.016022533            2 
 2662000   0.81333412   -8.2551444    523.23619  0.016379796  0.016016877            2 
 2663000   0.83089494   -8.2091601    523.47775  0.016381204  0.016011223            3 
 2664000   0.81603992   -8.2651822     524.5621  0.016408975   0.01600556            3 
 2665000   0.83737843   -8.2115693    523.23926  0.016361453  0.015999881            4 
 2666000   0.82096146    -8.268126    522.82108  0.016342244  0.015994214            4 
 2667000   0.81244231   -8.2195152    523.23409  0.016349022  0.015988558            3 
 2668000   0.82446666   -8.2564465    523.52358  0.016351936  0.015982915            4 
 2669000   0.81661127   -8.2556932     523.6453   0.01634961  0.015977235            2 
 2670000   0.83444589   -8.2835024    522.37074  0.016303706  0.015971525            6 
 2671000   0.82521488    -8.242615    522.78278  0.016310457  0.015965845            2 
 2672000   0.81555297   -8.2669233     523.0245  0.016311892  0.015960177            6 
 2673000   0.83373661   -8.2751789    523.41044  0.016317822  0.015954481            3 
 2674000   0.84763103   -8.2686232     522.0742  0.016270076   0.01594877            4 
 2675000   0.82391472   -8.2935171    522.66473   0.01628239  0.015943026            5 
 2676000   0.84084948   -8.2433402    523.08329   0.01628934  0.015937334            1 
 2677000    0.8231784    -8.279648    522.60921  0.016268497  0.015931623            3 
 2678000    0.8209908   -8.2810766    523.16762  0.016279799  0.015925896           10 
 2679000   0.82633825   -8.2764696    523.40156  0.016280999  0.015920189           12 
 2680000   0.82439736   -8.2700965    522.42961  0.016244702  0.015914489            1 
 2681000    0.8181378   -8.2905003    522.22054  0.016232144  0.015908767            3 
 2682000   0.82398909   -8.3085535    522.26501  0.016227473  0.015903037            7 
 2683000   0.82762804   -8.2884948    523.03464   0.01624533  0.015897285           11 
 2684000   0.80969694   -8.2735683      523.364  0.016249503  0.015891571            5 
 2685000   0.82607886   -8.2975695    522.43368  0.016214577  0.015885892            2 
 2686000    0.8223258   -8.2414998    524.64157   0.01627704  0.015880225            2 
 2687000   0.81220851   -8.2708172    522.97566  0.016219317  0.015874572            3 
 2688000   0.82393375   -8.2287213    523.10208  0.016217202  0.015868915            5 
 2689000   0.81616445   -8.2414174    522.72287   0.01619942  0.015863272            3 
 2690000   0.81656096   -8.2375152    524.15747   0.01623784  0.015857607            3 
 2691000   0.83024348   -8.2439758    524.45467  0.016241009  0.015851982            5 
 2692000   0.83701787   -8.2843858    524.37053  0.016232371  0.015846315            5 
 2693000   0.82428492   -8.2973575    522.73083  0.016175604  0.015840613            2 
 2694000   0.80390993    -8.250652    524.23343   0.01621608  0.015834933            2 
 2695000    0.8199412    -8.262843    524.54782  0.016219784  0.015829268            2 
 2696000   0.83007923   -8.3171197     523.0385  0.016167115    0.0158236            4 
 2697000   0.82347358   -8.2839536    523.24971  0.016167647  0.015817941            3 
 2698000   0.81511467   -8.2490491    524.05703   0.01618659  0.015812282            4 
 2699000   0.80881071   -8.2570659    524.60689   0.01619757  0.015806652            3 
 2700000   0.82283938   -8.2589453    523.05235  0.016143591  0.015801015            5 
 2701000   0.81849639    -8.249168    524.38242   0.01617865  0.015795344            2 
 2702000   0.83155747   -8.2516893    523.69861  0.016151573  0.015789681            2 
 2703000   0.83829723    -8.311149    523.88167  0.016151242  0.015784007            2 
 2704000   0.82820796    -8.290438    524.26115  0.016156963  0.015778363            3 
 2705000   0.80752993   -8.2642825    525.23837  0.016181096  0.015772718            4 
 2706000   0.81672895   -8.2664097    524.42499  0.016150067  0.015767074            4 
 2707000   0.80643862   -8.2579377    524.95662  0.016160467  0.015761438            2 
 2708000   0.82776467   -8.2484246    523.82845  0.016119783  0.015755821            4 
 2709000   0.79792662   -8.2593946    524.64522  0.016138957  0.015750199            3 
 2710000    0.8266361   -8.2448952    524.76733  0.016136757  0.015744575            4 
 2711000   0.80910079   -8.2602024    524.87783  0.016134201  0.015738977            2 
 2712000   0.80189015   -8.2564658    524.46283    0.0161155  0.015733325            3 
 2713000   0.81638224   -8.2926493    524.08668  0.016098006  0.015727682            7 
 2714000   0.81424834   -8.2660115    523.70525  0.016080363  0.015722058            7 
 2715000   0.82839594   -8.2624855    524.16865  0.016088663  0.015716442            3 
 2716000   0.82225178   -8.2597629    523.95706  0.016076247  0.015710812            3 
 2717000   0.80879593   -8.2554493    523.81457   0.01606596  0.015705166            3 
 2718000   0.79317303   -8.2825711    525.71218   0.01611823  0.015699533            6 
 2719000   0.81269518   -8.2468458    525.01971  0.016091078  0.015693934            2 
 2720000    0.8202012   -8.2575921    524.67929  0.016074733  0.015688326            2 
 2721000   0.80706365   -8.2214445    526.22794  0.016116254  0.015682728            2 
 2722000   0.81338683   -8.2889289    524.88124  0.016069105  0.015677143            2 
 2723000   0.81983413   -8.2843185    524.19468  0.016042192  0.015671559            1 
 2724000   0.81025126   -8.2731629    525.87169  0.016087607  0.015665964            3 
 2725000   0.81779464   -8.2936497    524.58686  0.016042412  0.015660392            3 
 2726000   0.79382433   -8.2658085    524.32689  0.016028579  0.015654773            3 
 2727000   0.82275653   -8.3038599    525.18486   0.01604892  0.015649181            2 
 2728000   0.81211369   -8.2699849    525.66003  0.016057552  0.015643559            6 
 2729000   0.81031166    -8.266335    524.48727  0.016015856  0.015637926            6 
 2730000   0.82394062   -8.3005758    523.79536  0.015988869  0.015632316            4 
 2731000   0.83870822    -8.266554    524.43449  0.016002517  0.015626702            2 
 2732000   0.80524274   -8.3031192    524.10868  0.015986722  0.015621098            2 
 2733000   0.80819725   -8.2963096    524.94855  0.016006481  0.015615471            2 
 2734000   0.79084494   -8.2885002    524.53174  0.015987922  0.015609854            2 
 2735000   0.81015902   -8.2981629    525.32864  0.016006357  0.015604258            2 
 2736000   0.82924853    -8.287285    525.04105  0.015991747  0.015598664            5 
 2737000   0.80813815   -8.2843778    525.00314   0.01598475  0.015593059            4 
 2738000   0.82872203    -8.303339    524.80972  0.015973025  0.015587462            4 
 2739000   0.82396951   -8.2899906    524.66186  0.015962695  0.015581876            3 
 2740000   0.80778311   -8.3366784    522.88563  0.015902848  0.015576294            4 
 2741000   0.81303835   -8.2756226    524.85455  0.015956906  0.015570694            3 
 2742000   0.83494331   -8.2785911    526.51305  0.016001491  0.015565117            3 
 2743000   0.80481676   -8.3195295    524.50493   0.01593465  0.015559523            3 
 2744000   0.80776509   -8.2973772    524.33097   0.01592356  0.015553926            3 
 2745000   0.80759426   -8.2868692    525.82874  0.015963228  0.015548365            4 
 2746000   0.80133859   -8.2731223    526.83549  0.015987967  0.015542794            2 
 2747000   0.82027798   -8.3068041    526.68968  0.015977724  0.015537208            4 
 2748000   0.79837321   -8.3035154    525.62605  0.015939655  0.015531631            5 
 2749000   0.80112132   -8.2859812       524.98  0.015914272  0.015526074            6 
 2750000   0.81679508    -8.287349    526.02734  0.015940222  0.015520536            7 
 2751000   0.80644646     -8.27136     527.5101  0.015979344  0.015515005            3 
 2752000   0.80381295   -8.2917104    525.25203  0.015905161  0.015509458            2 
 2753000    0.8165173   -8.2919995    526.55555  0.015938841  0.015503916            2 
 2754000   0.82149117   -8.3157998    526.82847  0.015941312  0.015498387            4 
 2755000   0.81944153   -8.2844519    525.30752   0.01588952  0.015492863            4 
 2756000   0.80016767   -8.2608369    526.62383  0.015923556  0.015487363            3 
 2757000   0.82295106   -8.2672038     526.5037  0.015914149  0.015481857            3 
 2758000   0.82423657   -8.3041857    526.14299   0.01589748  0.015476365            3 
 2759000    0.8142355   -8.2914488    526.64512  0.015906884  0.015470863            2 
 2760000   0.80449195   -8.2816657    526.89093  0.015908542  0.015465367            2 
 2761000   0.80890531   -8.2901079     526.1406  0.015880134  0.015459849            4 
 2762000   0.80922077   -8.2774075    526.82707  0.015895096  0.015454334            6 
 2763000   0.82101101   -8.3045662    525.95335  0.015862992  0.015448799            4 
 2764000   0.79884254   -8.2667087    526.86433  0.015884718    0.0154433            4 
 2765000   0.80549517   -8.2832525    525.97757  0.015852248  0.015437792            4 
 2766000   0.82287619   -8.3001922    526.42994  0.015860145  0.015432279            7 
 2767000   0.82186443   -8.3044453    525.45952  0.015825187  0.015426767            4 
 2768000    0.8059532   -8.2971682     526.2955  0.015844638  0.015421266            3 
 2769000   0.80995516   -8.3035712    525.54758  0.015816407   0.01541573            3 
 2770000   0.81260428   -8.2895523    526.43157  0.015837291  0.015410213            5 
 2771000   0.80913647   -8.3107479    525.78298  0.015812071  0.015404698            8 
 2772000   0.81682633   -8.3112112    525.85305  0.015808473  0.015399169            3 
 2773000   0.81508152   -8.3209456    526.35096  0.015817735  0.015393624            5 
 2774000   0.79331642   -8.2956446    525.91788  0.015799023   0.01538811            2 
 2775000   0.82588367   -8.2992678    526.51123  0.015811148  0.015382622            4 
 2776000   0.80847641   -8.2872727    528.04345  0.015851448   0.01537711            3 
 2777000   0.81307516   -8.2912948    526.71742  0.015805948  0.015371623            2 
 2778000   0.79474343   -8.2963981     527.9908  0.015838457  0.015366115            5 
 2779000    0.7976162   -8.3235679    527.22706  0.015809856  0.015360621            3 
 2780000   0.81001528   -8.3268626    527.05498   0.01579901  0.015355127            3 
 2781000    0.8158731   -8.2962306    526.42358  0.015774409  0.015349633            4 
 2782000   0.79677161   -8.3048139    525.98016  0.015755457  0.015344123            3 
 2783000   0.79051795   -8.2862229    526.31745  0.015759895  0.015338603            6 
 2784000   0.82048957   -8.3081008    526.02738  0.015745552   0.01533309           10 
 2785000   0.80886138   -8.2925415    525.88106   0.01573552  0.015327552            9 
 2786000   0.79193014   -8.3182156    525.79748  0.015727371  0.015321997            7 
 2787000   0.81767021   -8.3028069    526.49184   0.01574249  0.015316451            8 
 2788000    0.7975063   -8.3180385     525.9552  0.015720804  0.015310913            3 
 2789000    0.8068752   -8.3194432    525.51042  0.015701877   0.01530538            7 
 2790000   0.79001615   -8.3245874    525.47139  0.015695083  0.015299835            4 
 2791000   0.79554048   -8.3096715    524.94945  0.015673876  0.015294301            9 
 2792000   0.79277569   -8.3089352    525.94853  0.015698082  0.015288766            8 
 2793000   0.78172635   -8.2806578    526.04881  0.015695453  0.015283275            3 
 2794000   0.78850373   -8.2795002    526.80741  0.015712461  0.015277775            4 
 2795000   0.80408881   -8.2912834    526.55102  0.015699195  0.015272278           14 
 2796000   0.80405593   -8.3128595    526.99179  0.015706718  0.015266775            4 
 2797000   0.80401073   -8.3034462    526.56839  0.015688487  0.015261268            2 
 2798000   0.79939609   -8.3287967    525.68734   0.01565664  0.015255786            3 
 2799000   0.79297573   -8.3376589    526.96789  0.015689171  0.015250272           11 
 2800000   0.80936402   -8.2882296    527.66555  0.015704332  0.015244789            5 
 2801000   0.80482225   -8.3020181    526.80404  0.015673094  0.015239315            6 
 2802000   0.80669238    -8.336709    526.23233  0.015650497  0.015233837            2 
 2803000   0.79058558   -8.2969594    527.37753  0.015678961   0.01522835            6 
 2804000   0.79445496   -8.2987022    527.81885  0.015686485  0.015222886            5 
 2805000   0.80670358   -8.3168743    527.12783  0.015660363  0.015217424            7 
 2806000    0.8089022   -8.3067475    526.90156  0.015648062  0.015211931            2 
 2807000   0.80973724   -8.3244874    526.00318  0.015615817   0.01520642            3 
 2808000   0.79882702   -8.2952755    526.87776  0.015636211  0.015200928            4 
 2809000   0.80563007   -8.2930465    527.39104  0.015645872  0.015195436            3 
 2810000    0.8182345   -8.3105097    526.21373  0.015605389  0.015189931            6 
 2811000   0.81205033    -8.339426    526.63387  0.015612293   0.01518441            9 
 2812000   0.79659248   -8.3286033     526.2347  0.015594912  0.015178916            5 
 2813000   0.79870147   -8.3041497    527.00971  0.015612327  0.015173417            2 
 2814000   0.79554859    -8.300351    527.37052  0.015617464  0.015167951            5 
 2815000   0.80185106   -8.2946245    527.90794  0.015627825  0.015162485            1 
 2816000    0.7987867   -8.2994729     528.9956  0.015654463   0.01515704            2 
 2817000   0.80608857   -8.2953663    526.92234  0.015587574  0.015151606            3 
 2818000   0.81673507   -8.3088639    528.74701  0.015636001  0.015146155            3 
 2819000   0.80826587     -8.31966    526.72377  0.015570645  0.015140709            5 
 2820000   0.79243642   -8.2944179    528.47338  0.015616826  0.015135267            3 
 2821000   0.78850621    -8.268189    527.98877  0.015596974   0.01512985            3 
 2822000   0.80680021   -8.3129255    527.06916  0.015564291  0.015124433            1 
 2823000   0.80248016   -8.2962066    527.22035  0.015563241  0.015118988            4 
 2824000   0.78951697   -8.2763263    527.84517  0.015576168  0.015113544            3 
 2825000   0.79834566   -8.2884546    528.35406  0.015585665  0.015108138            5 
 2826000   0.78455382   -8.3115181    527.66121  0.015559719  0.015102731            4 
 2827000   0.81131749   -8.3233888    527.14366  0.015538959  0.015097295            6 
 2828000   0.79909806   -8.3221809    528.76616  0.015581275  0.015091878            6 
 2829000   0.79660506   -8.2858973    528.05022  0.015554678  0.015086488            5 
 2830000    0.7934338   -8.3093617    528.77808  0.015570615  0.015081101            4 
 2831000   0.79676725    -8.330646    528.09125  0.015544897  0.015075697            2 
 2832000   0.81447705   -8.3457128    528.72917   0.01555818  0.015070283            3 
 2833000   0.80345923   -8.2981925    529.04835  0.015562077  0.015064894            2 
 2834000   0.79547761   -8.2487612    528.44631  0.015538882  0.015059505            4 
 2835000   0.79729335   -8.3129742    527.81765  0.015514922  0.015054096            3 
 2836000   0.79592093    -8.291894    527.71128  0.015506326  0.015048673           16 
 2837000   0.78235879   -8.3512452    527.01973  0.015480547  0.015043245            5 
 2838000   0.80324641   -8.3529443    527.54953  0.015490649  0.015037823            7 
 2839000   0.80964764   -8.3254446     527.0942  0.015471827  0.015032409            4 
 2840000   0.79349227   -8.3616535    526.96381  0.015462553  0.015026975            1 
 2841000   0.78042403   -8.3439819    527.64934  0.015477219  0.015021529            2 
 2842000   0.79828467   -8.3619413     527.9433  0.015480392  0.015016115            3 
 2843000   0.76775346   -8.2947591    528.74616   0.01549848   0.01501071            3 
 2844000   0.79512496   -8.3743931    527.00462  0.015442001  0.015005291            5 
 2845000   0.80410565   -8.3496146    527.64661  0.015455378  0.014999869            6 
 2846000   0.79447782   -8.3348416    528.20884   0.01546641  0.014994434            3 
 2847000   0.79007703   -8.3455925    527.36309  0.015436222  0.014989017            2 
 2848000    0.7745293   -8.3344786    528.87319  0.015474988  0.014983586            2 
 2849000   0.79967248   -8.3462418      527.205  0.015420762  0.014978177            3 
 2850000   0.80852312   -8.3447633    527.22298  0.015415877  0.014972764            5 
 2851000   0.80936682   -8.3434522    527.30736  0.015412936  0.014967339            6 
 2852000   0.80990114    -8.359773    528.31859  0.015437079  0.014961894            4 
 2853000    0.7861713   -8.3262534    527.31765  0.015402432  0.014956481            5 
 2854000   0.80088561   -8.3545419    527.77802  0.015410477  0.014951081            6 
 2855000   0.79826506   -8.3667276    527.96011  0.015410394  0.014945656            3 
 2856000   0.79506743   -8.3753042    526.63058  0.015366205   0.01494022            4 
 2857000   0.79345863   -8.3676776    527.16374  0.015376378  0.014934797            3 
 2858000   0.80432497   -8.3695131    527.49692  0.015380712   0.01492937            2 
 2859000   0.78753317   -8.3494998     528.0998  0.015392906  0.014923929            4 
 2860000   0.80878057    -8.358425    527.33292  0.015365178  0.014918516            3 
 2861000   0.82066666   -8.3510019    528.99844   0.01540832  0.014913084            3 
 2862000   0.78154112   -8.3488165    529.11926  0.015406454  0.014907679            3 
 2863000   0.79478118   -8.3130268    527.58787  0.015356499  0.014902285            2 
 2864000   0.79052394   -8.3537359    528.69935  0.015383477  0.014896888            9 
 2865000   0.80194232   -8.3714137    528.39384  0.015369222  0.014891488            4 
 2866000    0.7839865   -8.3430345    527.66328  0.015342617  0.014886076            3 
 2867000   0.78184982   -8.3706448    527.67114  0.015337494  0.014880663            3 
 2868000   0.80320991   -8.3359097    529.42445  0.015383091  0.014875267            3 
 2869000    0.8150317   -8.3545438    529.02749  0.015366199  0.014869843            6 
 2870000   0.79141052   -8.3270997    528.71401  0.015351742  0.014864464            5 
 2871000   0.81292788   -8.3183377    528.63183   0.01534401  0.014859087            2 
 2872000   0.78241667   -8.3398358     527.4931  0.015305626  0.014853719            2 
 2873000   0.78195369   -8.3211498     527.6292  0.015304246  0.014848347            4 
 2874000   0.80914815   -8.3614162    528.36475  0.015320249  0.014842977            4 
 2875000   0.78093965   -8.3306663    528.47262  0.015318047  0.014837618            2 
 2876000   0.79298647    -8.369698    528.76612  0.015321225  0.014832243            4 
 2877000   0.79614827   -8.3429898     528.2623  0.015301306  0.014826873           11 
 2878000   0.79426905   -8.3840055    527.13895  0.015263463  0.014821489            9 
 2879000    0.8050223    -8.373702    527.73781  0.015275495  0.014816118           20 
 2880000   0.78018813   -8.3632617    527.03951  0.015249986  0.014810723            8 
 2881000   0.79000835   -8.3514327    528.41899  0.015284594  0.014805335           10 
 2882000   0.77808804   -8.3928348    528.05892  0.015268879  0.014799947           13 
 2883000   0.79784955    -8.352482    527.35775  0.015243316  0.014794571            6 
 2884000   0.80139481   -8.3802304    528.04128  0.015257781  0.014789205            6 
 2885000    0.7945935   -8.3831009    526.83012  0.015217508  0.014783836            8 
 2886000   0.79548392   -8.3583779    528.30358  0.015254781  0.014778461            6 
 2887000   0.78658644   -8.3783953    528.04252  0.015241962  0.014773109            4 
 2888000   0.78792243   -8.3568193    530.07109  0.015295219  0.014767768            5 
 2889000   0.78711192   -8.3423355    529.36948  0.015269686  0.014762433            5 
 2890000   0.77138724   -8.3438104    528.83455  0.015248978  0.014757101           10 
 2891000   0.80187038   -8.3333992    529.02037   0.01524906  0.014751782            6 
 2892000   0.78698977   -8.3491429    528.65784   0.01523334  0.014746478           14 
 2893000    0.7756453   -8.3372408    529.64445  0.015256494  0.014741165            8 
 2894000   0.77958372   -8.3264559    530.15586  0.015265948  0.014735866            5 
 2895000   0.78719468   -8.3375196    529.64702  0.015246028  0.014730559           13 
 2896000   0.79513423   -8.3326106    529.46504  0.015235527  0.014725262            6 
 2897000   0.80414133   -8.3081566    529.22159  0.015223265  0.014719989            6 
 2898000   0.78348823   -8.3103504    530.65178  0.015259138  0.014714706            5 
 2899000   0.78283696   -8.3031053     530.8924  0.015260791  0.014709433            3 
 2900000   0.79627605   -8.3308136     529.9385  0.015228118  0.014704173            4 
 2901000   0.79321534   -8.3186415    527.80009  0.015161441  0.014698863            2 
 2902000   0.78995708    -8.328161    528.65519  0.015180772  0.014693572            5 
 2903000   0.80293422   -8.3426202    530.55472   0.01523007  0.014688284            2 
 2904000   0.78083901   -8.3302527     529.6199     0.015198  0.014683008            3 
 2905000   0.79892229   -8.3444979    528.91502  0.015172548  0.014677742           13 
 2906000   0.80917296   -8.3252947     531.1202  0.015230563  0.014672474            6 
 2907000   0.78341165   -8.3439755     530.0551  0.015194791   0.01466721           12 
 2908000   0.78380645   -8.3084958    531.18891  0.015222057  0.014661953           11 
 2909000   0.79161925   -8.3362872     529.3378  0.015163796  0.014656699            8 
 2910000   0.78330724   -8.3128972    530.86677   0.01520237  0.014651434            4 
 2911000   0.80142051   -8.3382914    529.35759  0.015153945  0.014646175            5 
 2912000   0.77615826   -8.3328614    530.03485  0.015168122  0.014640946            2 
 2913000   0.78105708    -8.367649    529.56401  0.015149445  0.014635703            5 
 2914000   0.79022919   -8.3768715    529.96809  0.015155802  0.014630433            6 
 2915000   0.80390879   -8.3356866    530.64927  0.015170076  0.014625179            3 
 2916000   0.79997404   -8.3315467    530.31852  0.015155422  0.014619938            4 
 2917000    0.7887243   -8.3311136    530.04935  0.015142537  0.014614693            8 
 2918000   0.78676211   -8.3575213    529.76192  0.015129139  0.014609435            5 
 2919000    0.7856916   -8.3863818    529.25952  0.015109613   0.01460419           10 
 2920000    0.7686361   -8.3901732    530.52571  0.015140574  0.014598907            9 
 2921000   0.79787551   -8.3540829    530.13553  0.015124259  0.014593624            8 
 2922000   0.80172763   -8.3663563    528.33806  0.015067821  0.014588331            2 
 2923000   0.77982577   -8.3603197    529.46989  0.015094934  0.014583063            5 
 2924000   0.79169109   -8.3492048    529.20485  0.015082217  0.014577803            5 
 2925000   0.79108367   -8.3681404    529.89028  0.015096589  0.014572534            3 
 2926000   0.77804421   -8.3907224    530.37133   0.01510513  0.014567265            6 
 2927000   0.77607625    -8.389751    529.70092  0.015080883  0.014561995            5 
 2928000   0.77529124   -8.3966161    529.48133  0.015069482  0.014556712            5 
 2929000   0.78233282   -8.3909209    529.64017  0.015068857  0.014551447            6 
 2930000   0.80678592   -8.3610281    530.30168  0.015082528  0.014546196            4 
 2931000   0.78569265   -8.3875879    529.17587  0.015045373  0.014540924            4 
 2932000   0.77989429   -8.3805553     531.1146  0.015095345  0.014535659            2 
 2933000   0.77575634   -8.3644009    530.90758  0.015084316   0.01453041            4 
 2934000   0.77633592   -8.3898099    529.81425  0.015048121  0.014525178            6 
 2935000   0.78599292   -8.4012989    530.36762  0.015058706  0.014519921            4 
 2936000   0.79082123   -8.3741951    530.29355  0.015051474  0.014514679            4 
 2937000   0.78956329   -8.3601654     530.4896  0.015051913  0.014509468            5 
 2938000   0.76192977   -8.3702396     530.8929  0.015058228  0.014504266            7 
 2939000    0.7861288   -8.3735837    530.97087  0.015055316  0.014499078            4 
 2940000   0.77076388   -8.3796967    529.73618  0.015015198  0.014493893            3 
 2941000   0.78052841   -8.3863464     530.1178  0.015020906  0.014488667            4 
 2942000   0.78382698   -8.3741134    530.77583  0.015034439  0.014483478            3 
 2943000   0.77022155   -8.3854019    530.40616  0.015018863  0.014478298            6 
 2944000   0.79198095   -8.3519146    532.12533  0.015062424  0.014473122            7 
 2945000   0.78305176   -8.3571063     531.7359   0.01504629  0.014467948            4 
 2946000   0.79909805   -8.3717648    531.02659  0.015021119  0.014462781            9 
 2947000   0.78607496   -8.3725873    531.09294  0.015017898    0.0144576            4 
 2948000   0.79202689    -8.381998    530.69074  0.015001434   0.01445241            5 
 2949000   0.77494238   -8.3969838    530.27622  0.014984634  0.014447216           10 
 2950000   0.77466963    -8.393897    530.23694  0.014978445  0.014442026            3 
 2951000    0.8146143   -8.3961641    529.77816  0.014960413  0.014436834            4 
 2952000   0.76427115   -8.3748534    531.66474  0.015008603  0.014431651            7 
 2953000   0.77171695   -8.3730633    530.88118  0.014981408  0.014426472            9 
 2954000   0.78358553   -8.3911068    531.46673  0.014992855  0.014421308           17 
 2955000   0.79215354   -8.3867028    532.43126  0.015014982   0.01441617           11 
 2956000   0.78585509    -8.350879    532.25386  0.015004901   0.01441103           12 
 2957000   0.77615829   -8.3438365    531.74261  0.014985419  0.014405874            3 
 2958000   0.76878158   -8.3544495    531.50724  0.014973722  0.014400721            8 
 2959000    0.7965592   -8.3464073    532.76516  0.015004088  0.014395597            6 
 2960000   0.77518692   -8.3838757    530.95738  0.014948124  0.014390463            4 
 2961000   0.78489704   -8.3451505    532.63754  0.014990362   0.01438532            5 
 2962000   0.77450576   -8.3825405    532.54553  0.014982712  0.014380203            4 
 2963000   0.76761767   -8.3659879     531.8711  0.014958688  0.014375081            4 
 2964000   0.79390989   -8.3807467    532.15673  0.014961671  0.014369947            3 
 2965000   0.78459583   -8.4094852    532.18875  0.014957525  0.014364826            5 
 2966000   0.77603822   -8.3618952    532.26815  0.014954713  0.014359698            9 
 2967000   0.76823116   -8.3830426    530.73274  0.014906548   0.01435457            3 
 2968000   0.76620924   -8.3703889    531.24668  0.014915956  0.014349448            3 
 2969000   0.78587569   -8.4208299    531.86182  0.014928197  0.014344327            5 
 2970000   0.78689319   -8.3847372    531.43262  0.014911129  0.014339209            2 
 2971000   0.78209594   -8.4171759    530.65784  0.014884378  0.014334076            5 
 2972000   0.77985468    -8.369975    531.94947  0.014915586  0.014328966            8 
 2973000   0.77490912   -8.3828637     531.0831  0.014886285  0.014323846            5 
 2974000   0.76906628   -8.3983711    531.82728  0.014902132  0.014318706            5 
 2975000   0.77181836   -8.3721131    531.93143   0.01490004   0.01431359            8 
 2976000   0.77871536   -8.3933208    531.35894  0.014879002  0.014308446            3 
 2977000   0.78374559   -8.3762905    532.56808  0.014907851  0.014303304            7 
 2978000   0.76646711   -8.3792989    532.00011  0.014886952  0.014298175            3 
 2979000   0.78069254   -8.4185034    530.95905  0.014852832  0.014293036            7 
 2980000   0.75902755    -8.346109    531.99656  0.014876861  0.014287907            5 
 2981000   0.78252354   -8.3807269    531.86456  0.014868181   0.01428278            3 
 2982000    0.7756025   -8.3814956    532.77224   0.01488856  0.014277647            9 
 2983000   0.77643114   -8.4035197     531.5965  0.014850724   0.01427252            5 
 2984000   0.76707483   -8.3917767    532.19149  0.014862363  0.014267394            5 
 2985000   0.77054494    -8.389761    532.20845  0.014857857  0.014262285           12 
 2986000   0.78359461   -8.3934807    531.91375  0.014844657  0.014257167            8 
 2987000   0.77361882   -8.4098009     531.6033  0.014831026  0.014252044            6 
 2988000   0.75662338   -8.4300263    530.86012  0.014805336  0.014246922            5 
 2989000   0.77732934   -8.4039023     532.6885  0.014851358  0.014241812            2 
 2990000   0.77790598   -8.4081807    533.12455  0.014858544    0.0142367            3 
 2991000   0.79439071   -8.3918483    531.26676  0.014801815  0.014231602            2 
 2992000   0.76857952   -8.3805391    531.65135   0.01480758  0.014226495           11 
 2993000   0.77019055   -8.4215292    531.27014  0.014792019  0.014221378           10 
 2994000   0.77735913   -8.4114602    531.04358  0.014780772   0.01421625            2 
 2995000    0.7752589   -8.4335084    530.91686  0.014772311  0.014211141            4 
 2996000   0.76809966   -8.4107315    531.59023   0.01478611  0.014206014            4 
 2997000   0.78449933   -8.4180149    530.47486  0.014750163  0.014200893           17 
 2998000   0.78025081   -8.4233941    531.70349  0.014779394  0.014195786            5 
 2999000    0.7738995   -8.4140137    532.86183  0.014806653   0.01419069            4 
 3000000   0.75525081   -8.3901397    532.09511   0.01478042  0.014185603            4 
 3001000   0.76686137   -8.3935804    531.08036  0.014747317  0.014180522            3 
 3002000   0.76672753   -8.4072521    532.46949  0.014780965  0.014175432            3 
 3003000   0.77976394   -8.4522488    530.97377  0.014734537  0.014170321            5 
 3004000   0.79095024    -8.415004    531.38753   0.01474111  0.014165223            4 
 3005000   0.77320204   -8.4107988    531.83953  0.014748739   0.01416014            7 
 3006000   0.77595822   -8.3961387    532.03451  0.014749238  0.014155063            6 
 3007000   0.76514158   -8.3960711    532.95103  0.014769732  0.014149987            3 
 3008000   0.77554441   -8.4131278    532.72329  0.014758513  0.014144905            6 
 3009000    0.7657116   -8.3725993    532.92157    0.0147591  0.014139834            3 
 3010000   0.79570864   -8.3976192    532.97662   0.01475572  0.014134765            5 
 3011000   0.76597184   -8.3923191    533.28875  0.014759458  0.014129692            4 
 3012000   0.76865535    -8.396005    532.10677  0.014721856  0.014124615            3 
 3013000   0.78162672    -8.392004    532.62184  0.014731216  0.014119538           10 
 3014000   0.77153627   -8.4122707    531.42108  0.014693129  0.014114443            4 
 3015000   0.77805501   -8.4361683    531.86068  0.014700406  0.014109352            5 
 3016000   0.76545936   -8.4460754    531.33488  0.014681003  0.014104242            3 
 3017000   0.77378949   -8.4382308    530.67744  0.014657978  0.014099123            4 
 3018000   0.76349437   -8.4415731    532.25667  0.014696727  0.014094007            4 
 3019000   0.77014078   -8.4306229    530.97167  0.014656389  0.014088886            2 
 3020000   0.76046097   -8.4086986     532.4746  0.014693008  0.014083753            4 
 3021000   0.76927561   -8.4559851     530.5303  0.014634511  0.014078635            4 
 3022000   0.76517829   -8.4466732    531.65036  0.014660555  0.014073543            5 
 3023000   0.76127039   -8.4123179      532.464  0.014678134   0.01406846            3 
 3024000   0.77562379    -8.427995    532.51127  0.014674583    0.0140634            4 
 3025000   0.76850315   -8.4286699    531.95484  0.014654403  0.014058333            2 
 3026000   0.76928518   -8.4503077    530.84492  0.014618994  0.014053255            4 
 3027000   0.76164589   -8.4310908    532.20553  0.014651622  0.014048173            3 
 3028000   0.77322281    -8.451066    531.95297  0.014639833  0.014043087            2 
 3029000   0.76780615    -8.457904    531.97397  0.014635577  0.014038008            2 
 3030000   0.75312135   -8.4542777    531.12822  0.014607487  0.014032952            6 
 3031000   0.77839666   -8.4211984    532.40775  0.014637846  0.014027899           12 
 3032000   0.76482258    -8.463576    531.48148  0.014607561  0.014022849            2 
 3033000   0.75934288   -8.4440431    532.63726    0.0146345  0.014017788            3 
 3034000   0.76246655   -8.4495053    532.46504  0.014624946   0.01401274            4 
 3035000   0.75367452   -8.4382298    531.07326  0.014581913  0.014007687            4 
 3036000   0.76679225   -8.4258569    531.91019  0.014600082  0.014002657            5 
 3037000   0.77797422   -8.4513622    533.14432  0.014629138  0.013997634            3 
 3038000    0.7658937   -8.4404832    533.49891  0.014634049  0.013992626            3 
 3039000    0.7650978   -8.4316112    533.72913  0.014635547  0.013987597            3 
 3040000   0.76410207   -8.4461931    531.13546  0.014559634  0.013982544           14 
 3041000   0.76813352   -8.4518475    531.69257  0.014570113  0.013977487            6 
 3042000   0.76019392   -8.4390144    532.72212  0.014593527  0.013972439            7 
 3043000   0.76505495   -8.4300793    530.85722  0.014537661  0.013967397           12 
 3044000   0.77772169    -8.424644    532.78237  0.014585588  0.013962347            5 
 3045000   0.76234997   -8.4099162    533.64896  0.014604514  0.013957322            2 
 3046000   0.76003375   -8.4052867    531.92041   0.01455243   0.01395228            6 
 3047000   0.77775096   -8.4575057    532.42445  0.014561439  0.013947236            4 
 3048000   0.75738188   -8.4292811    531.61163  0.014534439  0.013942208            4 
 3049000   0.77555419   -8.4267335    531.51648  0.014527071  0.013937165            4 
 3050000   0.75865557   -8.4158222    532.13381  0.014539175   0.01393213            8 
 3051000   0.75907976     -8.43313    532.03052  0.014531588  0.013927094            4 
 3052000   0.74385068   -8.4144108    531.94012  0.014524359   0.01392205            4 
 3053000   0.74553218   -8.4379864    533.21807  0.014554484  0.013917024            2 
 3054000   0.75379587   -8.4470219    533.51198  0.014557738  0.013912017            5 
 3055000   0.76910521   -8.4294334    533.60871  0.014555611  0.013907015            6 
 3056000   0.76550886   -8.4308298    533.18042  0.014539169  0.013902007            5 
 3057000   0.78300338   -8.4281626    531.72712  0.014494797  0.013896992            6 
 3058000   0.76529561   -8.4403802     532.5116  0.014511434  0.013891974            6 
 3059000   0.75365642   -8.4233678    532.84116  0.014515669  0.013886981            4 
 3060000   0.77710451   -8.4427781     532.9639  0.014514267  0.013881988            4 
 3061000   0.75808316   -8.4278011    532.81294  0.014505416  0.013876997            7 
 3062000   0.75107292   -8.4481777    532.26498  0.014485766  0.013871994            5 
 3063000   0.74841336   -8.4533639    533.47056  0.014513836  0.013866981            5 
 3064000   0.77137279    -8.418052    533.38199   0.01450669  0.013861983            6 
 3065000   0.74734179   -8.4030432    533.05426  0.014493047   0.01385699            5 
 3066000   0.75811434   -8.4281328    532.90341   0.01448422  0.013852008           13 
 3067000   0.76016343   -8.4229393    533.21937  0.014488082  0.013847041            7 
 3068000   0.76323401   -8.4046262    533.24057  0.014483935  0.013842074            4 
 3069000   0.76566611   -8.4409806    532.42449  0.014457057  0.013837113            4 
 3070000   0.74342045   -8.4175869    531.77767   0.01443479  0.013832139            5 
 3071000   0.74508785    -8.426589    532.50136  0.014449728  0.013827181            3 
 3072000   0.77446351   -8.4185802    533.38149  0.014468899  0.013822215            6 
 3073000   0.76950623   -8.4212038    533.17276   0.01445853  0.013817276            4 
 3074000   0.76871923   -8.3888862    535.19785  0.014508725  0.013812339            4 
 3075000   0.76617783   -8.4158501    534.73283  0.014491405  0.013807399            2 
 3076000   0.76409464   -8.3901508    533.43472  0.014451526  0.013802469            1 
 3077000   0.76139307   -8.3949843    533.06665  0.014436861  0.013797522            4 
 3078000   0.75896511   -8.4138003    533.73521  0.014450271  0.013792582            3 
 3079000    0.7595253    -8.440342    533.58257  0.014441447  0.013787661            2 
 3080000   0.76429743   -8.4196344    533.57802  0.014436635  0.013782719            5 
 3081000   0.76241306   -8.4541929    534.30773  0.014451686  0.013777777            1 
 3082000    0.7540236   -8.4205539    534.49653  0.014452102   0.01377285            5 
 3083000   0.76541113   -8.4302112    533.28104  0.014414559   0.01376792            9 
 3084000   0.75768905   -8.4230309    534.00588  0.014429472  0.013762989            5 
 3085000   0.75543858   -8.4339916    532.89179    0.0143947  0.013758033            4 
 3086000   0.76214501   -8.4427518     533.3239  0.014401704  0.013753102            3 
 3087000   0.73082764   -8.4045852    533.67868  0.014406616  0.013748159            3 
 3088000   0.75852697   -8.4331571    533.77042  0.014404426  0.013743215            4 
 3089000   0.76655874   -8.4393892    533.33088  0.014387906  0.013738277            4 
 3090000   0.74696675   -8.4466747    533.29308   0.01438223  0.013733327            6 
 3091000   0.75861837    -8.414097    534.57588  0.014412161  0.013728392            5 
 3092000   0.76521237   -8.4356855    533.86817  0.014388426  0.013723463            2 
 3093000   0.77139777   -8.4335434    533.32649   0.01436918   0.01371853            6 
 3094000   0.75069595   -8.4425247    533.71077  0.014374886  0.013713573            2 
 3095000   0.75457868   -8.4494425    532.97005  0.014350297  0.013708613            4 
 3096000   0.76855705   -8.4807578    532.68997  0.014338124  0.013703656            3 
 3097000    0.7570301   -8.4662851    532.60787  0.014331285  0.013698698            7 
 3098000   0.76106747   -8.4753456    532.36773  0.014320199  0.013693733            1 
 3099000   0.74926594   -8.4856224    533.06283   0.01433427  0.013688766            5 
 3100000    0.7531584   -8.4640627    532.15459  0.014305231  0.013683801            3 
 3101000    0.7467176   -8.4604793    533.63909  0.014340511  0.013678835            2 
 3102000   0.75806916    -8.470864    532.28241  0.014299441  0.013673891            7 
 3103000   0.76389788    -8.457861    532.16306  0.014291628  0.013668938            8 
 3104000   0.76735783   -8.4478008    532.36009  0.014292313   0.01366399            4 
 3105000   0.75236634   -8.4847509    531.90291   0.01427544  0.013659041            2 
 3106000   0.75071007   -8.4662042    533.84524  0.014322957  0.013654072            5 
 3107000   0.74234647   -8.4696049    533.21273  0.014301382  0.013649131            3 
 3108000   0.75656821   -8.4694185     533.3372  0.014300118  0.013644195            5 
 3109000    0.7662506    -8.463556    532.00073  0.014259696  0.013639263            7 
 3110000   0.74951547   -8.4584844    533.48533  0.014294891  0.013634331            2 
 3111000    0.7528001   -8.4660934    532.79737  0.014271868  0.013629399            7 
 3112000   0.74848355   -8.4580331    533.93395  0.014297717   0.01362447            6 
 3113000   0.76591276   -8.4575803    533.15721  0.014272331   0.01361955            3 
 3114000   0.75018093   -8.4926412     534.2409  0.014296748  0.013614639            3 
 3115000   0.74942247   -8.4523891    533.63216  0.014275874  0.013609714            3 
 3116000   0.77027544   -8.4622762    532.65748  0.014245226  0.013604799            6 
 3117000   0.76072876   -8.4668275    534.11219  0.014279547   0.01359987            5 
 3118000    0.7542782   -8.4649794     532.2703   0.01422574  0.013594958            9 
 3119000   0.74396511   -8.4472762    533.47042  0.014253244  0.013590064            4 
 3120000   0.75263273   -8.4618572    533.06532  0.014237856  0.013585179           11 
 3121000   0.75799371   -8.4396016    533.48701  0.014244553  0.013580265            3 
 3122000   0.76608204   -8.4637636     533.8454  0.014249557  0.013575352            4 
 3123000   0.74697785   -8.4900496     533.2963  0.014230342   0.01357044            6 
 3124000   0.76610554   -8.4694826    533.62367   0.01423452  0.013565519            6 
 3125000   0.76054125   -8.4716435     534.3883  0.014250355  0.013560621            3 
 3126000   0.75777357   -8.4440052    534.26637  0.014242546   0.01355573            5 
 3127000    0.7589568   -8.4576518    533.46546  0.014216647  0.013550843            4 
 3128000   0.75116403   -8.4442304    533.92975  0.014224471  0.013545957            3 
 3129000   0.73551582   -8.4588774     533.6066  0.014211319  0.013541058            5 
 3130000   0.74629861   -8.4655679    533.53142  0.014204777  0.013536149            4 
 3131000    0.7458668    -8.468117      533.872  0.014209305  0.013531255            9 
 3132000   0.75716377   -8.4583802    532.95095  0.014180261  0.013526338            5 
 3133000   0.74778256   -8.4419319     533.3429  0.014186161  0.013521451            7 
 3134000   0.75448327   -8.4591165    533.31814  0.014180976  0.013516557            3 
 3135000   0.76384659   -8.4432701    533.04825  0.014169278  0.013511667            6 
 3136000   0.74994396   -8.4660877    533.74843  0.014183366  0.013506787            6 
 3137000   0.74553698   -8.4835934     533.6522  0.014176288  0.013501888            5 
 3138000   0.74324842   -8.4879156    533.47781   0.01416714  0.013496971            7 
 3139000   0.72772525    -8.456256    534.14845   0.01418043  0.013492072            3 
 3140000   0.76416321   -8.4741601    534.57813  0.014187318  0.013487196            4 
 3141000   0.75988046   -8.4606154    533.37692  0.014150932  0.013482332            4 
 3142000   0.76180596   -8.4479196    532.21064  0.014115496   0.01347746            5 
 3143000   0.74011231   -8.4346135    534.18562  0.014163369  0.013472604            3 
 3144000   0.73503642   -8.4580423    532.93447  0.014125701  0.013467731            5 
 3145000   0.76642769   -8.4662645    534.16009  0.014153686  0.013462849            4 
 3146000   0.75149443   -8.4684097    533.79136  0.014139419  0.013457978            2 
 3147000   0.74793061   -8.4607336      533.542  0.014128323   0.01345311            3 
 3148000   0.74798424   -8.4532248    533.12718  0.014112854  0.013448246            3 
 3149000   0.74004258   -8.4619056    532.55243  0.014093163  0.013443376            4 
 3150000   0.73789758   -8.4647104     534.3347  0.014135839  0.013438511            3 
 3151000    0.7573196   -8.4661009     534.4606  0.014134682  0.013433654            5 
 3152000   0.75501032   -8.4945212    533.89588  0.014115268  0.013428805            2 
 3153000    0.7678993   -8.4576443    533.30878  0.014095274  0.013423959            4 
 3154000   0.74302867   -8.4899993     533.2229  0.014088536  0.013419118            6 
 3155000   0.74530227   -8.4834083    533.39776  0.014088689  0.013414256            7 
 3156000   0.74171356    -8.468457    534.34831  0.014109324  0.013409403            5 
 3157000   0.74929773   -8.4903468    534.39198  0.014106007  0.013404556            3 
 3158000   0.74148972    -8.475247    533.35347  0.014074136  0.013399711            1 
 3159000   0.75027343   -8.4991355    533.48555  0.014073165  0.013394859            3 
 3160000    0.7480798   -8.4734329    533.60569   0.01407188  0.013390006            2 
 3161000   0.75733565   -8.4881708    533.96422   0.01407688  0.013385147            3 
 3162000   0.74494917   -8.4450104    534.09177   0.01407579   0.01338031            3 
 3163000   0.74490113   -8.4551865    534.98244  0.014094806  0.013375467            3 
 3164000   0.74577722   -8.4884666    533.43456  0.014049583  0.013370628            4 
 3165000   0.74209135   -8.4850641    533.00607  0.014033862  0.013365783            6 
 3166000    0.7457376   -8.4942308    533.75931  0.014049255  0.013360923            9 
 3167000    0.7570954   -8.4674007    533.37362  0.014034671  0.013356097            4 
 3168000   0.73128558   -8.4609614    533.91873  0.014044579  0.013351268            5 
 3169000   0.74962394   -8.4817128     534.3701  0.014052017  0.013346444            5 
 3170000   0.76639792    -8.476345    532.60627  0.014001216  0.013341612            4 
 3171000   0.74320025   -8.4666478    534.56535  0.014048285  0.013336771            5 
 3172000   0.75557562   -8.5008128    533.39421  0.014013089  0.013331926            7 
 3173000   0.72574265   -8.4699567    534.17065  0.014029064  0.013327073            5 
 3174000   0.74241787   -8.4876336    533.08227  0.013996069  0.013322224            5 
 3175000   0.73834573   -8.4939956    533.00263   0.01398957  0.013317383            6 
 3176000    0.7333808   -8.5112409    533.22298  0.013990947  0.013312517            3 
 3177000   0.75396087   -8.4972069     534.0403  0.014007982  0.013307674            5 
 3178000   0.72940617   -8.4813915    534.81695  0.014023939  0.013302824           12 
 3179000   0.75052895   -8.4986473    533.26906  0.013978952  0.013297969            5 
 3180000   0.73656582   -8.5156375    533.36072  0.013976958  0.013293125            4 
 3181000   0.74716909    -8.499623    533.22788  0.013969084  0.013288276            8 
 3182000   0.74264808   -8.4942294     532.2365  0.013938731  0.013283432            5 
 3183000   0.75198964   -8.5077171    532.39341   0.01393846  0.013278581            7 
 3184000   0.72965307   -8.5042785    532.69915  0.013942084  0.013273721           10 
 3185000   0.72903766   -8.4790429    533.36875  0.013955226  0.013268878            4 
 3186000   0.73511204   -8.4872552    534.11303  0.013970314  0.013264036            8 
 3187000   0.72909492   -8.4820397    533.73916  0.013956154  0.013259189            3 
 3188000   0.75380129   -8.4917229    533.53124  0.013946342  0.013254359            8 
 3189000   0.74332803   -8.4963536    532.73432  0.013921143  0.013249531            9 
 3190000   0.72614775   -8.4952276    532.86875  0.013920291  0.013244695            6 
 3191000   0.75423322   -8.4787392     533.3018  0.013927238  0.013239861            3 
 3192000   0.74495878   -8.4913588    533.90624  0.013938655   0.01323505            4 
 3193000   0.73662257   -8.4951662    533.71569  0.013929317  0.013230224            7 
 3194000   0.72581195   -8.4612888    534.04183  0.013933465  0.013225403            4 
 3195000    0.7397206   -8.4888058    534.65223  0.013945024  0.013220584            8 
 3196000   0.75858989   -8.4849338    533.30891  0.013905635  0.013215774            2 
 3197000    0.7353009   -8.5038497    533.66118  0.013910468  0.013210972            3 
 3198000   0.72878626   -8.5157442    533.34231  0.013897809  0.013206168            3 
 3199000   0.75127197   -8.5285171    534.04191  0.013911689  0.013201361            3 
 3200000   0.74509945    -8.514303    533.50454  0.013893347  0.013196553            6 
 3201000   0.75279144   -8.4956561     533.5784   0.01389093  0.013191742            9 
 3202000   0.75223443   -8.4849903    533.17665  0.013876136  0.013186941            8 
 3203000   0.74771675   -8.4934544    534.19128  0.013898202  0.013182152            7 
 3204000   0.73038905   -8.5040823    534.05437  0.013890303   0.01317735            5 
 3205000   0.73341445   -8.5264666    533.45961  0.013870505  0.013172571            7 
 3206000   0.73378854   -8.5197579    533.63833  0.013870824  0.013167752            5 
 3207000   0.73401411   -8.5206741    534.21678  0.013881529  0.013162935            4 
 3208000   0.71303313   -8.5333288    533.30085  0.013853409   0.01315812            5 
 3209000   0.75167047   -8.5329634    532.85374  0.013837482  0.013153305            5 
 3210000   0.73445782   -8.5107032     533.4572  0.013848837   0.01314849           10 
 3211000   0.73886721   -8.5009881    534.70486  0.013876904  0.013143672            6 
 3212000   0.73921692   -8.5491919     532.7836  0.013822738  0.013138879            5 
 3213000   0.73963309   -8.5327124     532.1932  0.013803123  0.013134078            4 
 3214000   0.73903565    -8.534312     533.0745  0.013821679  0.013129272           10 
 3215000   0.74022901   -8.5361405    533.06159  0.013817045  0.013124478           10 
 3216000    0.7225546   -8.5109299    534.02927  0.013837823  0.013119682           13 
 3217000   0.74294034   -8.5232162    533.25502  0.013813466  0.013114887           10 
 3218000   0.73750135   -8.5247685    533.69574  0.013820586  0.013110093            4 
 3219000   0.73337732   -8.5340499    533.00848  0.013798501  0.013105291            7 
 3220000   0.72964307   -8.5203114    532.30345  0.013775969  0.013100488            3 
 3221000   0.73107407   -8.5126952    533.82691  0.013811107  0.013095699            7 
 3222000   0.72747381    -8.530969    532.98676  0.013785091  0.013090912            2 
 3223000   0.74565628   -8.5008014    533.68278   0.01379881  0.013086117            5 
 3224000   0.72944911   -8.5008241     533.8829  0.013799703  0.013081344            7 
 3225000   0.72849944   -8.5321969    534.20537  0.013803756  0.013076576            9 
 3226000   0.72390706   -8.4946416    535.57656  0.013834898  0.013071805            4 
 3227000   0.72457676    -8.552488    533.11986  0.013767169  0.013067028            5 
 3228000    0.7123563   -8.5286363    533.75385  0.013779271   0.01306225            6 
 3229000   0.74010053   -8.5406812    534.26186  0.013788115   0.01305748           11 
 3230000   0.73240528   -8.5135924    533.89453  0.013774369  0.013052699            7 
 3231000   0.74372367   -8.5061019    533.41558  0.013757753  0.013047924            7 
 3232000   0.73828303   -8.5469632    533.72976  0.013761596   0.01304315           10 
 3233000   0.73593507   -8.5160237    533.08499   0.01374072  0.013038397            3 
 3234000   0.74315231   -8.5085799    533.57867  0.013749193  0.013033644            5 
 3235000   0.73032062     -8.50662    533.54552  0.013744089  0.013028888           10 
 3236000   0.75249633   -8.5182215     532.8237  0.013721253  0.013024139            5 
 3237000   0.71565306   -8.5288582    532.92323  0.013719577   0.01301939            4 
 3238000   0.74257488   -8.5368729    534.46756  0.013755084   0.01301463            6 
 3239000   0.72873199   -8.5129004    533.62265    0.0137291  0.013009868            3 
 3240000   0.74350441   -8.5111085    534.65445    0.0137514  0.013005121            3 
 3241000    0.7281627   -8.5078886    534.62285  0.013746345  0.013000389            3 
 3242000    0.7494351   -8.5006176    535.17789  0.013756372  0.012995658            4 
 3243000   0.72673966    -8.536912    533.92876  0.013720032   0.01299092            4 
 3244000   0.71736083    -8.545017    532.86974  0.013688598  0.012986174            4 
 3245000   0.74432419   -8.5441255    532.95957  0.013686686  0.012981424            3 
 3246000   0.72043266   -8.5450489    534.10005  0.013711749  0.012976674            4 
 3247000   0.74486225   -8.5259368    534.25105  0.013711402  0.012971923            7 
 3248000    0.7329263   -8.5334893    535.74612  0.013745539  0.012967194            6 
 3249000   0.74476186   -8.5219155    533.91933  0.013694453   0.01296247            7 
 3250000   0.73258398   -8.5415665    534.60295  0.013707768  0.012957747            8 
 3251000   0.72967226   -8.5378373    534.68045  0.013705538  0.012953015            4 
 3252000   0.73731131   -8.5340195    533.87259  0.013680622  0.012948289            7 
 3253000   0.72236639   -8.5211607    533.39881  0.013664279  0.012943558            5 
 3254000   0.74479581   -8.5523068    533.96803  0.013674658  0.012938836            3 
 3255000   0.71541556   -8.5202352    532.63551  0.013636342  0.012934104            9 
 3256000   0.73405105    -8.546409    533.65407  0.013658222  0.012929374            5 
 3257000   0.73328304   -8.5414898    533.76135  0.013656774  0.012924629            8 
 3258000   0.74330031   -8.5304702    533.26573  0.013639905  0.012919901            5 
 3259000   0.73360511   -8.5119197    534.37426  0.013664065  0.012915163            8 
 3260000   0.73421459   -8.5515479    533.96331  0.013649369  0.012910422           10 
 3261000   0.73459345   -8.5104648    534.29843  0.013653747   0.01290569           12 
 3262000   0.72935521   -8.5066388    534.18474  0.013646657  0.012900971            2 
 3263000   0.72121618    -8.559964    534.32541  0.013646067   0.01289625            8 
 3264000   0.73123623   -8.5295551    533.88777  0.013630713  0.012891531            6 
 3265000   0.72516748   -8.5157872    534.69879  0.013647238  0.012886816            5 
 3266000   0.72528806   -8.5514381    533.37254   0.01360922  0.012882104            2 
 3267000   0.72736284   -8.5046168    534.09871  0.013623577  0.012877409            3 
 3268000   0.73565113   -8.4955117    534.49262  0.013629453  0.012872709            6 
 3269000   0.74079488   -8.5088492    534.48393  0.013625062  0.012868011            7 
 3270000   0.73930151   -8.5138623    534.28818  0.013615907  0.012863328            7 
 3271000   0.72489796    -8.525272    534.03547  0.013605306  0.012858637            9 
 3272000   0.72684102   -8.5204885    533.87362  0.013597026   0.01285395            5 
 3273000   0.71940696   -8.5076527    534.52617  0.013609486  0.012849255            5 
 3274000   0.71475871    -8.515251    535.02167  0.013617941   0.01284456           17 
 3275000   0.71666857   -8.5106533    534.02405  0.013588398  0.012839891           11 
 3276000   0.72488215   -8.5454272    534.33036  0.013592042  0.012835221            4 
 3277000   0.72629921   -8.5420228    534.45724  0.013591121  0.012830537            8 
 3278000   0.72627805   -8.5462532    533.50721  0.013562823  0.012825847            2 
 3279000   0.71756627   -8.5594795    534.01227  0.013571523  0.012821143            6 
 3280000   0.70726389   -8.5573461    534.42581  0.013577892  0.012816449            9 
 3281000    0.7164371   -8.5540559    534.16757  0.013567194  0.012811756           10 
 3282000   0.73689851    -8.542154    534.05107  0.013560102  0.012807072            6 
 3283000   0.73671817    -8.535086     534.6644   0.01357154  0.012802396            9 
 3284000   0.73331205   -8.5596915    534.07912  0.013552556  0.012797723           12 
 3285000   0.72920247   -8.5677108    533.73291  0.013539648  0.012793045            3 
 3286000    0.7361465   -8.5486524    533.79293  0.013537049  0.012788357            7 
 3287000   0.71341183   -8.5550454    534.66315  0.013554993   0.01278368            7 
 3288000    0.7324869   -8.5406573    534.44896  0.013545442  0.012778997            5 
 3289000   0.71466395   -8.5612486    534.21591  0.013535419   0.01277432            3 
 3290000   0.71899938   -8.5439865    534.76733  0.013545272  0.012769648            7 
 3291000   0.70583053   -8.5464948    534.43559  0.013532756  0.012764965            3 
 3292000   0.71642733   -8.5685373    534.57341  0.013532134  0.012760281            8 
 3293000   0.72145967   -8.5408761    534.48492  0.013525785  0.012755614           13 
 3294000   0.72102367   -8.5461173      533.074  0.013485985  0.012750953           18 
 3295000   0.72364678   -8.5540947    533.94821  0.013504001  0.012746304            5 
 3296000   0.72606789   -8.5243281    534.85165  0.013522746   0.01274166            7 
 3297000   0.72556618   -8.5440382    533.69404  0.013489385  0.012737005            4 
 3298000   0.72291869   -8.5493583    533.67225  0.013484745  0.012732358            9 
 3299000   0.71518034   -8.5644623    533.47521   0.01347568  0.012727715            7 
 3300000   0.71414647   -8.5772983    533.56812  0.013473942  0.012723072            3 
 3301000   0.72630096   -8.5685304    532.96491  0.013454633  0.012718418            5 
 3302000   0.72328932   -8.5743375    533.67431  0.013468461  0.012713772            6 
 3303000   0.72815767   -8.5481809    534.24402  0.013478757   0.01270912            7 
 3304000    0.7201754   -8.5248143    534.26125  0.013475112  0.012704497            4 
 3305000   0.71569215   -8.5415045    533.91957   0.01346242  0.012699874           14 
 3306000   0.71340132   -8.5490172     535.5235  0.013498777  0.012695245            2 
 3307000   0.72865283   -8.5471143    533.77154  0.013450548  0.012690626            4 
 3308000     0.736489   -8.5314638    534.91751   0.01347535  0.012685999            3 
 3309000   0.71568811   -8.5505447    534.13946  0.013451684  0.012681379            2 
 3310000   0.72814712   -8.5063248    536.15652  0.013498402   0.01267676            3 
 3311000   0.72656546   -8.5503672    535.18366  0.013469839  0.012672139           11 
 3312000   0.73256939   -8.5700963     534.7284  0.013454318  0.012667506            8 
 3313000   0.71215796   -8.5285017    533.83852  0.013427873  0.012662866            5 
 3314000   0.71872724   -8.5734173    533.20192  0.013407813  0.012658222            5 
 3315000   0.72289411   -8.5552451    532.66189  0.013390193  0.012653571            3 
 3316000   0.71462187   -8.5754742    534.50106  0.013432375  0.012648915           10 
 3317000   0.71363127   -8.5908802    534.05656  0.013417158  0.012644282            5 
 3318000   0.72231175   -8.5501264    533.89385  0.013409028  0.012639643            8 
 3319000   0.72445927   -8.5579627    534.53883  0.013421182  0.012635026            6 
 3320000   0.73216731   -8.5422482    533.81303  0.013398921  0.012630407            3 
 3321000   0.72521251    -8.537895    533.92329  0.013397654  0.012625789            3 
 3322000   0.72073401   -8.5421917    533.70698  0.013388194  0.012621179            8 
 3323000   0.70326656   -8.5722628    533.47945   0.01337846  0.012616562           11 
 3324000   0.72474204   -8.5260876    535.25857  0.013419038  0.012611941           10 
 3325000   0.73133048   -8.5806746    534.95446   0.01340738  0.012607335           15 
 3326000   0.71984989   -8.5697285    533.28718  0.013361575  0.012602714           12 
 3327000    0.7213754     -8.58184    534.28723  0.013382608  0.012598085            4 
 3328000    0.7246137   -8.5699916    534.06892   0.01337312  0.012593479           11 
 3329000   0.71902805   -8.5639425    533.00502  0.013342471   0.01258888            6 
 3330000   0.72300623   -8.5486791    535.80787  0.013408605  0.012584276           16 
 3331000   0.72420321   -8.5598072    533.82781  0.013355044  0.012579682           10 
 3332000   0.72658561   -8.5454692    535.50073  0.013392875  0.012575098            9 
 3333000   0.73020137   -8.5456407    534.47009  0.013363089  0.012570517           14 
 3334000   0.71868781   -8.5510704    534.12065  0.013350346   0.01256593           12 
 3335000   0.71216207   -8.5572465     534.8858  0.013365462  0.012561343           13 
 3336000    0.7071812    -8.547913    533.97026  0.013338586  0.012556747            5 
 3337000   0.72091449    -8.569473    534.84546  0.013356444  0.012552163            7 
 3338000   0.70322279   -8.5431235    534.68375  0.013348406  0.012547569            4 
 3339000     0.722222   -8.5649357    534.08845  0.013329551   0.01254297           10 
 3340000   0.71239694   -8.5575625    535.08973  0.013350542  0.012538384           16 
 3341000   0.72875042   -8.5202285    534.68642  0.013336487  0.012533796           13 
 3342000   0.71375185   -8.5603595    534.89724  0.013337753  0.012529213           12 
 3343000   0.71085425   -8.5599509    533.86518  0.013308036  0.012524633           19 
 3344000   0.72060061   -8.5411449    534.85137  0.013328633  0.012520063           26 
 3345000   0.70584243   -8.5597027    535.88851  0.013350486  0.012515502            7 
 3346000   0.71318513   -8.5989458     533.1407  0.013278061  0.012510929           20 
 3347000   0.71121833   -8.5509223    534.59467  0.013310294  0.012506355           10 
 3348000    0.6999217   -8.5629783    536.08898  0.013343513   0.01250179           11 
 3349000   0.71888911   -8.5564955    534.82251  0.013308015   0.01249723           15 
 3350000   0.71525643   -8.5814702    533.83996  0.013279601   0.01249267            5 
 3351000   0.71245986    -8.587637    533.56202  0.013268726  0.012488111           11 
 3352000   0.73823485   -8.5729161    534.22592  0.013281273  0.012483555            9 
 3353000   0.71627144   -8.5520268    534.76853  0.013290798  0.012478988           24 
 3354000   0.71106462   -8.5706064    535.10185  0.013295117   0.01247442           23 
 3355000   0.72039065   -8.5892542    534.45818  0.013275166  0.012469864           18 
 3356000   0.70217362   -8.5679205    534.00655  0.013259996  0.012465316           22 
 3357000   0.71044716   -8.5508393    535.07162  0.013282485  0.012460771           11 
 3358000   0.70519355   -8.5913615    534.10371  0.013254509  0.012456215           29 
 3359000   0.71621745    -8.577904     533.4258  0.013233745   0.01245166           22 
 3360000   0.71869002   -8.5791421    535.21592  0.013274204  0.012447113           22 
 3361000   0.70372109   -8.5812293    535.07363  0.013266727  0.012442547           17 
 3362000   0.72237861    -8.559933    535.04533  0.013262079  0.012437988           29 
 3363000   0.70709833   -8.5603828    534.46904  0.013243856  0.012433432           26 
 3364000   0.70940661   -8.6058192     533.8705  0.013225092  0.012428878           27 
 3365000   0.71101936   -8.5439194    534.45194  0.013235561  0.012424312           27 
 3366000   0.72864558   -8.5713681    534.03973  0.013221423  0.012419752           20 
 3367000   0.71396979   -8.6014611    534.04538  0.013217636   0.01241519           14 
 3368000   0.70320033   -8.5764525    533.19619  0.013192701  0.012410645           16 
 3369000   0.71128485    -8.565103    535.09631  0.013235785  0.012406102           18 
 3370000    0.7144444   -8.5776445    533.98182  0.013204298  0.012401564           26 
 3371000   0.73018147   -8.6051674    533.72082  0.013193929  0.012397015           25 
 3372000   0.72153913   -8.5910223    533.56303  0.013186117  0.012392471           29 
 3373000   0.70590229   -8.5846466    534.73887  0.013211258  0.012387916           27 
 3374000   0.71524934    -8.597976    534.05994  0.013190574  0.012383369           32 
 3375000   0.69462088   -8.5875139    533.72397   0.01317837  0.012378833           31 
 3376000   0.70628128   -8.5713617    534.85644   0.01320242  0.012374301           23 
 3377000    0.7078524   -8.5517307     534.6395  0.013193157  0.012369772           26 
 3378000   0.71776278   -8.5612132    534.44402  0.013184429  0.012365236           21 
 3379000   0.70914561   -8.5645918    534.89698  0.013191698  0.012360711           21 
 3380000    0.7142812   -8.5804657    534.71814  0.013183386  0.012356188           18 
 3381000   0.71819638   -8.5611111    534.96525  0.013185577  0.012351671           20 
 3382000   0.70031771   -8.5720881    534.51517  0.013170589  0.012347142           14 
 3383000   0.70165714   -8.5910969    534.52411  0.013166916  0.012342622           18 
 3384000   0.70146352   -8.5939549    533.70389  0.013142826  0.012338096           20 
 3385000   0.70951625   -8.5900787    534.19091  0.013150933  0.012333563           27 
 3386000   0.71232312   -8.6131748    533.89515   0.01313977  0.012329035           17 
 3387000   0.70007938   -8.5554709    535.06049  0.013164563  0.012324504           17 
 3388000   0.68986348   -8.5858803    534.67093  0.013151095  0.012319978           20 
 3389000   0.71040295   -8.6042052    532.99995  0.013106126  0.012315442            6 
 3390000   0.71030421   -8.6082035    534.35842  0.013135654  0.012310919            3 
 3391000   0.70490616   -8.6177699    534.00003  0.013122973  0.012306391           13 
 3392000   0.71139571   -8.5924626    533.33306  0.013102719  0.012301861           14 
 3393000   0.70017309   -8.5881276    532.89668  0.013088139  0.012297338           11 
 3394000    0.7145316    -8.604586    534.17871  0.013115761  0.012292818           16 
 3395000    0.7255777   -8.5747451    534.18251  0.013111991  0.012288298            9 
 3396000    0.6996838   -8.5930715    533.44375  0.013090002  0.012283778           15 
 3397000   0.69488681   -8.5988898    534.79163  0.013119214  0.012279265           13 
 3398000   0.72013779   -8.5967057    534.60176  0.013110696  0.012274754           11 
 3399000   0.70262393   -8.5681083    534.08287  0.013094118  0.012270249           17 
 3400000   0.69944454   -8.5943999    534.26088  0.013094629  0.012265752            9 
 3401000   0.72065942   -8.5813973    533.84148  0.013080503   0.01226127            6 
 3402000   0.71300827   -8.5866696    534.91847  0.013103039   0.01225678           14 
 3403000   0.70490843   -8.5695803    534.43259   0.01308729  0.012252306            6 
 3404000   0.70424253   -8.5810734    533.97772   0.01307231  0.012247818            6 
 3405000   0.70646791   -8.5618442    534.71292  0.013086464  0.012243343            8 
 3406000   0.70672868   -8.5852949    534.18609  0.013069732  0.012238877            7 
 3407000   0.71455132   -8.5577331    534.02619  0.013061985  0.012234394           13 
 3408000   0.70364234   -8.5826935    534.73519  0.013075489  0.012229924            5 
 3409000    0.7028768   -8.5758498    533.85169  0.013050056   0.01222545            7 
 3410000   0.70646565   -8.6075361    534.35626   0.01305856  0.012220971            5 
 3411000   0.69993269   -8.5844982    535.44357  0.013081295  0.012216496            7 
 3412000   0.71894921   -8.6112373    534.40891  0.013052191   0.01221202            4 
 3413000    0.7178008    -8.589303    534.91678  0.013060767   0.01220755            9 
 3414000   0.69684639   -8.5786448    534.27281  0.013041223  0.012203074            4 
 3415000   0.69532965    -8.587971     533.8425  0.013026903  0.012198583            7 
 3416000   0.70137135   -8.6029725    533.42065  0.013012799  0.012194098            9 
 3417000   0.69511563   -8.5897654    533.28721  0.013005736   0.01218963            8 
 3418000   0.68772898   -8.5824243    534.18641  0.013023854  0.012185157            7 
 3419000   0.70705306   -8.6047599    534.65412  0.013031445  0.012180686           12 
 3420000   0.70295999   -8.5947243    534.31886  0.013019465  0.012176216           14 
 3421000   0.69300747   -8.5957557    534.83093  0.013028133  0.012171751           15 
 3422000   0.70667993   -8.5866969    534.49812  0.013016221  0.012167292           19 
 3423000   0.73125236   -8.5680875    535.21158  0.013029788  0.012162826           12 
 3424000   0.69717926   -8.6363769    532.62467  0.012963023  0.012158352           12 
 3425000   0.70833444   -8.5923946    533.66567  0.012984566  0.012153879           14 
 3426000   0.71061207   -8.6107208    533.03325  0.012965393  0.012149406           15 
 3427000   0.69974343   -8.6163833    533.68952  0.012977568  0.012144933            9 
 3428000   0.70808819   -8.6081414    533.81823  0.012976911   0.01214047            8 
 3429000   0.70963451   -8.5843235    534.68361  0.012994158  0.012136005            7 
 3430000   0.71588959   -8.5888462       533.86   0.01297036  0.012131543           12 
 3431000   0.69313532   -8.6050104      533.532  0.012958613  0.012127076            9 
 3432000   0.71874836   -8.6029949    534.82264  0.012986175  0.012122603           11 
 3433000   0.70016419   -8.5983383    533.26511  0.012944585   0.01211814           10 
 3434000   0.70513418   -8.6032774    534.46333  0.012969893  0.012113693            7 
 3435000   0.70762525   -8.6182611    533.41896   0.01294078  0.012109235            8 
 3436000   0.71427055   -8.5938291    533.60752  0.012941587  0.012104765            7 
 3437000   0.69728801   -8.6380926    532.61439  0.012913742  0.012100299            6 
 3438000   0.71045578   -8.6276724    532.64342   0.01291069  0.012095837            7 
 3439000   0.70752594   -8.6093576    533.39402  0.012925124  0.012091374            8 
 3440000   0.71021592   -8.6161236    533.42898  0.012922214  0.012086916            9 
 3441000   0.68076271    -8.584556    532.91759  0.012906074  0.012082457           16 
 3442000   0.71638145   -8.5991863    533.06269  0.012905837  0.012078001           10 
 3443000   0.69959167   -8.6294797    532.89649  0.012898066  0.012073549           11 
 3444000   0.69751806   -8.6093194    533.49402  0.012908779    0.0120691            2 
 3445000    0.7085892   -8.6358572    534.33267  0.012925318   0.01206466            5 
 3446000   0.70437719   -8.5947656    533.68636  0.012905938  0.012060216            9 
 3447000   0.69328775   -8.6068197    533.02552  0.012886218  0.012055776           14 
 3448000   0.68321761   -8.6031703    533.65381  0.012897666  0.012051342            9 
 3449000   0.68994514   -8.5893262    533.57372  0.012891991  0.012046917            7 
 3450000   0.68157902   -8.5711366     534.2472  0.012904522  0.012042507           12 
 3451000   0.69720066   -8.6071638    534.11839  0.012897672  0.012038082            6 
 3452000   0.69464084   -8.5807825    534.35654  0.012899685  0.012033647            4 
 3453000   0.68555604   -8.6269344    533.86586  0.012884107  0.012029221            4 
 3454000    0.6953023   -8.6294955    533.30933   0.01286695  0.012024789            8 
 3455000   0.70158163   -8.6047076    533.51905  0.012868284  0.012020363            7 
 3456000   0.70269397   -8.6139612    533.72845   0.01286961  0.012015931            5 
 3457000   0.69245461   -8.6097682    533.62321   0.01286335  0.012011505            5 
 3458000   0.70509236   -8.5876051    534.49747  0.012880699  0.012007083            8 
 3459000   0.69852566   -8.6174486    534.06365  0.012866523  0.012002654            2 
 3460000   0.68920897   -8.6089107    533.52889  0.012849925  0.011998226            8 
 3461000   0.69601284   -8.6171532    533.00471  0.012833591  0.011993803            5 
 3462000   0.69768727   -8.5936008    533.91497  0.012851795  0.011989366            6 
 3463000   0.70550232   -8.6127431    533.51598  0.012838483   0.01198494            4 
 3464000   0.68430189   -8.5967497    534.48571  0.012858105  0.011980513            4 
 3465000   0.70255923   -8.6014784    533.06477  0.012820221  0.011976077            3 
 3466000   0.69688144   -8.6203057    533.46433  0.012826128  0.011971652            6 
 3467000   0.68801525   -8.5874539    533.69542  0.012827983  0.011967229            3 
 3468000   0.68154867   -8.6341301    533.14762  0.012811121  0.011962809            4 
 3469000   0.69438117    -8.606124    535.28877  0.012858864  0.011958391           13 
 3470000   0.69683825   -8.6165725    533.07604  0.012802018   0.01195397            9 
 3471000   0.71554254   -8.5881473    533.62468  0.012811502  0.011949547            3 
 3472000   0.69716155   -8.6179464    533.49341  0.012804661  0.011945143            4 
 3473000   0.69417289   -8.6328672    533.74782  0.012807079   0.01194074            6 
 3474000   0.69838008   -8.6071938     534.8176  0.012829054  0.011936334            7 
 3475000   0.69141232   -8.6049755    533.52636  0.012794397  0.011931942            5 
 3476000   0.69115688   -8.6307402    533.67101  0.012794184  0.011927544           18 
 3477000   0.69773097   -8.6375103    533.33163  0.012782371   0.01192314           14 
 3478000   0.69807429   -8.5969775    533.12794  0.012773815  0.011918749            6 
 3479000   0.70481955   -8.5987637    534.65494   0.01280672  0.011914357            8 
 3480000   0.69387575   -8.6343234     534.0299  0.012788072  0.011909963            7 
 3481000   0.69438357   -8.5981983    534.10851   0.01278628  0.011905562            5 
 3482000     0.722579   -8.6011604    534.49338  0.012791819  0.011901166            5 
 3483000   0.68529343    -8.594342    534.62623  0.012791325  0.011896788           11 
 3484000   0.69586747   -8.5904404    533.92774  0.012770947  0.011892404            6 
 3485000    0.6889919   -8.6021269    533.27698  0.012751721  0.011888017           16 
 3486000   0.69588107    -8.619156    534.17604  0.012769555  0.011883624            9 
 3487000   0.70045086   -8.6335991    533.35154  0.012746189  0.011879235            7 
 3488000   0.71753213   -8.6474148     532.2386  0.012715945   0.01187485           10 
 3489000    0.6891601   -8.6199259    533.96057  0.012753429  0.011870457           10 
 3490000   0.69702625   -8.6130188    532.04084  0.012703936   0.01186607            6 
 3491000   0.69231214   -8.6310223    533.73982  0.012740853  0.011861679            4 
 3492000   0.70523055   -8.6068185    533.86187  0.012740117    0.0118573            5 
 3493000   0.69934462   -8.6083502      533.148  0.012719439  0.011852923            6 
 3494000   0.69583658   -8.6206649    534.04038  0.012737082  0.011848538            7 
 3495000   0.69241802   -8.6069849     533.8397  0.012728653  0.011844167            7 
 3496000   0.69515513   -8.6286068    534.29182  0.012735789  0.011839784           15 
 3497000   0.68971195   -8.6209563    532.98118  0.012700914  0.011835396            6 
 3498000   0.68802046   -8.6251096     533.1216  0.012700629  0.011831014            5 
 3499000    0.6964009   -8.6098831    532.90197  0.012691768  0.011826635            4 
 3500000   0.68706797   -8.6061225    533.28442  0.012697248  0.011822266            3 
 3501000   0.66876432    -8.622579    534.21055  0.012715666  0.011817902           11 
 3502000   0.69357534    -8.617162    533.04952  0.012684407  0.011813544           13 
 3503000   0.69397477   -8.6306248    532.93477  0.012678056  0.011809182           11 
 3504000   0.68156636   -8.6040696    534.16524  0.012703702  0.011804816           18 
 3505000   0.69110355   -8.6138594    533.27108  0.012678818  0.011800454           12 
 3506000   0.69023879   -8.6351842    532.61048    0.0126595  0.011796086            7 
 3507000   0.69038716   -8.6039523    534.01054  0.012689158  0.011791725           17 
 3508000   0.66779136   -8.6220809    534.48604  0.012696837  0.011787365           15 
 3509000   0.68359942   -8.6221716    533.63515  0.012673011   0.01178301           20 
 3510000   0.68207633   -8.6316959    533.57523  0.012667978  0.011778655            7 
 3511000   0.68799776   -8.6316002     533.5937  0.012664808  0.011774294            7 
 3512000   0.67977994   -8.6007041    534.14721  0.012674336  0.011769945            4 
 3513000   0.69557312   -8.6297649    533.07234   0.01264523  0.011765586            8 
 3514000   0.70197388   -8.6288235    532.48603  0.012627728  0.011761236            6 
 3515000    0.7047828   -8.6441087    533.84149   0.01265627  0.011756879            4 
 3516000   0.69361211   -8.6195324    533.30419  0.012639936  0.011752531            7 
 3517000    0.6833393   -8.6197323     533.3704  0.012637911  0.011748181            6 
 3518000   0.70627387   -8.6433111    533.53504  0.012638219  0.011743833            6 
 3519000   0.68575772   -8.6344876    533.76023   0.01263996  0.011739482            5 
 3520000   0.69780789   -8.6058374    532.90285  0.012616071  0.011735139            6 
 3521000   0.68023636   -8.6023243     533.5415  0.012627603  0.011730801            5 
 3522000    0.6883459   -8.6298767    532.61783  0.012602163  0.011726459            4 
 3523000   0.68032189   -8.6418881    532.55666  0.012597139  0.011722115            2 
 3524000   0.68623131   -8.6336107    533.03537  0.012604885  0.011717767            6 
 3525000   0.68014603   -8.6403436     533.0171  0.012600877  0.011713409            5 
 3526000   0.69040129   -8.6301961     533.3757  0.012605779  0.011709061            8 
 3527000   0.69570305   -8.6737146    532.90477  0.012591078  0.011704708            5 
 3528000   0.69177515   -8.6735502    533.71779  0.012606713  0.011700363            3 
 3529000   0.68487571    -8.640795    533.68862  0.012602452   0.01169602            4 
 3530000    0.7056439   -8.6690197    532.69083  0.012575327  0.011691678            3 
 3531000   0.68562016   -8.6425797    531.90213  0.012553151  0.011687329            5 
 3532000   0.69784679   -8.6771964    532.26188  0.012558085  0.011682984            3 
 3533000   0.68204692   -8.6250996    533.22367  0.012577216  0.011678645            3 
 3534000   0.69225058   -8.6372115    533.44293  0.012578828  0.011674313            4 
 3535000   0.68702489   -8.6490232    532.00612  0.012541398  0.011669981            5 
 3536000   0.67947791   -8.6346163    533.61137  0.012575683  0.011665643            6 
 3537000   0.66619696   -8.6673596     531.7153  0.012527455  0.011661313            4 
 3538000   0.69692443   -8.6478962    533.89885  0.012575345  0.011656981            4 
 3539000    0.6888087    -8.660948    532.94523  0.012549337  0.011652665            7 
 3540000   0.68747751   -8.6542494    532.95751  0.012546081  0.011648336            3 
 3541000    0.6752515   -8.6508259    532.78021  0.012538365  0.011644009            4 
 3542000   0.66801802   -8.6622657    532.90455  0.012537751  0.011639689            4 
 3543000   0.68244456   -8.6847331    532.08305   0.01251489  0.011635365            3 
 3544000   0.67802468   -8.6703779    532.85578  0.012529528  0.011631037            6 
 3545000   0.68824678   -8.6634165    532.59918  0.012519962  0.011626726            2 
 3546000   0.68706892   -8.6569679    532.32461  0.012509979  0.011622413            4 
 3547000    0.6861534   -8.6383858    532.98556   0.01252198  0.011618105            4 
 3548000   0.68118325   -8.6515645    532.62332  0.012509943  0.011613793            4 
 3549000   0.68403044   -8.6762356    533.24242  0.012520955   0.01160948            4 
 3550000    0.6901686   -8.6573986    532.86171  0.012508491  0.011605181            3 
 3551000   0.69119676   -8.6455652    533.68415  0.012524269  0.011600884            6 
 3552000   0.68447707   -8.6496322    533.11294  0.012507342  0.011596588            5 
 3553000    0.6877488   -8.6587874    533.64664  0.012516339  0.011592291            6 
 3554000   0.68535933   -8.6385381    533.75114  0.012515268  0.011588004            4 
 3555000   0.67752528   -8.6422288    533.43986   0.01250445  0.011583729            6 
 3556000    0.6914896   -8.6447779    533.71058  0.012507278  0.011579441            8 
 3557000   0.68577855   -8.6515887    533.27353  0.012493523  0.011575159            3 
 3558000   0.68145659   -8.6776556    532.22053  0.012465349  0.011570864            4 
 3559000   0.68445536   -8.6547924    533.36556  0.012488657  0.011566585            4 
 3560000   0.69234146   -8.6613794    531.88041  0.012450384  0.011562292            7 
 3561000   0.67225498   -8.6697505    533.25651  0.012479091  0.011558002           10 
 3562000   0.67849392   -8.6728797    532.69787  0.012462518  0.011553707            5 
 3563000   0.66644725   -8.6665811    534.52217  0.012501688  0.011549413            8 
 3564000   0.67050265   -8.6602949    532.47467  0.012450306   0.01154511           10 
 3565000   0.68798016   -8.6663015    532.40252  0.012445127  0.011540809           11 
 3566000    0.6680796   -8.6790125    531.73944  0.012426141  0.011536503            5 
 3567000    0.6721707   -8.6748176    531.39987  0.012414725  0.011532207            2 
 3568000   0.67880547   -8.6768352    532.09165  0.012427402  0.011527906            3 
 3569000   0.68834879   -8.6835634    532.01893  0.012422222  0.011523603            3 
 3570000   0.67897117   -8.6862469    532.65089  0.012433494  0.011519299            4 
 3571000    0.6635645   -8.6688001    532.11706  0.012417555  0.011515004            3 
 3572000   0.66632696   -8.6809674    531.87692  0.012408476  0.011510719            3 
 3573000   0.67015776   -8.6831398    532.32814  0.012415527  0.011506439            2 
 3574000   0.68321608    -8.674519    531.35449  0.012389351  0.011502149            9 
 3575000   0.68019867   -8.6660933    531.46254  0.012388404  0.011497871           12 
 3576000   0.67757366   -8.6751161      533.189  0.012425172  0.011493609            3 
 3577000   0.67578527   -8.6691886    532.85657  0.012413954   0.01148934            9 
 3578000   0.69565538    -8.669513     531.8297  0.012386568  0.011485072            3 
 3579000   0.67917488   -8.6523223    533.57717  0.012423796  0.011480807            5 
 3580000   0.68433269   -8.6845972      532.154  0.012387197   0.01147654            5 
 3581000   0.68437981   -8.6740695    533.28431  0.012410042  0.011472274            2 
 3582000   0.68149746   -8.6754772    533.29589  0.012406847  0.011468016            2 
 3583000   0.68580783   -8.6756183    532.84705  0.012392945  0.011463755            7 
 3584000   0.67205045   -8.6871817    533.07991  0.012394901    0.0114595            4 
 3585000   0.67906929    -8.671006    532.43341  0.012376416  0.011455229            3 
 3586000   0.68399957     -8.67052    533.10313  0.012388528  0.011450974            6 
 3587000   0.65903009   -8.6781384     532.5201  0.012371529  0.011446716           11 
 3588000   0.67844914   -8.6752444    532.86872  0.012376178  0.011442464           18 
 3589000   0.68333899   -8.7023715    531.98221  0.012352146   0.01143821           12 
 3590000   0.67033974   -8.6856632    531.79107  0.012344268  0.011433956           12 
 3591000    0.6937711   -8.6841009    532.44323  0.012355965  0.011429707            4 
 3592000   0.67956791   -8.6754972    532.80722  0.012360969  0.011425462            4 
 3593000    0.6849035   -8.6783435     532.0841  0.012340757  0.011421218           11 
 3594000   0.67168038   -8.6936702    531.62066  0.012326578  0.011416973           10 
 3595000   0.67525623    -8.686056    531.91847  0.012330053  0.011412733            8 
 3596000   0.67497095   -8.6999581    532.77993  0.012346587  0.011408496           10 
 3597000    0.6677109   -8.6970094    532.38586  0.012334025  0.011404262            5 
 3598000   0.68539575   -8.6779468    532.72482  0.012338448  0.011400031            7 
 3599000   0.68537687    -8.691335    531.59237  0.012308798  0.011395802           14 
 3600000   0.67066904   -8.6694949    532.91975  0.012336105  0.011391574           12 
 3601000    0.6713107   -8.6748328    533.21205  0.012339444  0.011387338           15 
 3602000   0.69853822   -8.6875498    531.80464  0.012303457  0.011383116           11 
 3603000   0.68306034   -8.6790588    532.32429  0.012312062  0.011378887           13 
 3604000   0.67854839   -8.6765842    533.08109  0.012326144   0.01137467           12 
 3605000   0.68092916   -8.6815716    532.75852  0.012315269  0.011370457            5 
 3606000   0.67191429   -8.6699251    532.75468  0.012311765   0.01136625           13 
 3607000   0.67578524   -8.6847952    532.27465  0.012297261  0.011362046            5 
 3608000   0.68119491   -8.6687855    532.97755  0.012310088   0.01135785           11 
 3609000   0.67286056   -8.6687765    531.51121  0.012272818  0.011353638            6 
 3610000   0.67260296   -8.6831021    532.60487  0.012294665   0.01134943            4 
 3611000   0.67667419   -8.6724781    533.12529   0.01230327  0.011345234           13 
 3612000   0.68608062   -8.6818047    530.54985  0.012240445   0.01134102            6 
 3613000   0.67688181   -8.6968348    532.81303  0.012289257  0.011336807            7 
 3614000   0.67311718   -8.6965394    532.13974  0.012270332  0.011332602           19 
 3615000   0.66289373   -8.6853577    532.23733  0.012269187  0.011328397           13 
 3616000   0.67395538   -8.6713081    532.22086  0.012265414  0.011324186            8 
 3617000   0.66645347   -8.7064956     532.1047  0.012259347  0.011319977           10 
 3618000   0.67338923   -8.6802549    533.03493  0.012277385   0.01131577           24 
 3619000   0.67129942   -8.6934117    532.11454  0.012252799  0.011311566            9 
 3620000   0.67287216   -8.6759148    532.45641  0.012257284  0.011307365           12 
 3621000   0.68022694   -8.6962016    532.13806  0.012246572   0.01130316            8 
 3622000   0.67093297   -8.6828558    533.17987  0.012267161   0.01129896           11 
 3623000   0.68158564   -8.7008915     532.4082  0.012246025  0.011294764            6 
 3624000   0.67478175   -8.6989679    533.13633  0.012259389  0.011290564            5 
 3625000   0.66375931   -8.6820385    533.04136  0.012253824  0.011286372           13 
 3626000   0.66095627   -8.6983409    532.69551  0.012242497  0.011282179           17 
 3627000   0.66038255   -8.6818546    532.26535  0.012229238  0.011277991           11 
 3628000   0.65956633   -8.6799124    532.26233  0.012225798  0.011273796            5 
 3629000   0.67385565   -8.6662559    531.71248  0.012209803  0.011269605           12 
 3630000   0.68098426   -8.6933646    532.30693  0.012220086   0.01126542           22 
 3631000   0.65308332   -8.6792331     532.8103  0.012228273  0.011261243           19 
 3632000   0.68023328    -8.690781    532.19307  0.012210744  0.011257063            9 
 3633000   0.67840295   -8.6921096    531.90962  0.012200881  0.011252883            7 
 3634000   0.67552366   -8.6846155    532.90335  0.012220312  0.011248696            9 
 3635000   0.67877478   -8.6848377    530.65384  0.012165379  0.011244508           15 
 3636000   0.67911876   -8.7116471     531.4672  0.012180675  0.011240324           20 
 3637000   0.67470763   -8.6809291     531.1502  0.012170062  0.011236143           12 
 3638000   0.67159122   -8.6993465    531.72086  0.012179789  0.011231957           40 
 3639000   0.66157087   -8.6839659    531.86991  0.012179855   0.01122778           21 
 3640000   0.67067686   -8.6987301    532.33222  0.012187093  0.011223604           25 
 3641000   0.67618924   -8.6971329    532.22857  0.012181373  0.011219429           20 
 3642000   0.65881387   -8.6832879    531.89757  0.012170455   0.01121525           27 
 3643000   0.67067507   -8.7028304    532.39761  0.012178553  0.011211085           17 
 3644000   0.65542937   -8.6883948    532.13418  0.012169186  0.011206915           34 
 3645000   0.69634779   -8.6739406    532.43904  0.012172817  0.011202744           37 
 3646000   0.65379909   -8.7382451    531.70166  0.012152625  0.011198583           17 
 3647000   0.65366883   -8.7061022    532.16559  0.012159894  0.011194414           33 
 3648000   0.66884321   -8.7022119    532.53538  0.012165008  0.011190248           29 
 3649000   0.66359976    -8.685679    532.56843  0.012162429  0.011186084           20 
 3650000   0.65785626   -8.7002884    532.40794  0.012155432  0.011181921           10 
 3651000   0.67216466   -8.7056676    532.04937  0.012143919  0.011177754           23 
 3652000   0.64936419   -8.6965707    531.68193  0.012132209  0.011173584           20 
 3653000   0.66888175   -8.7025032    532.13771  0.012139285  0.011169428           20 
 3654000   0.67184246   -8.7088337    530.85886  0.012106798  0.011165266           33 
 3655000   0.67546419   -8.6981439    531.80012  0.012124946  0.011161115           27 
 3656000   0.65240939   -8.7158899    531.46052  0.012113889  0.011156955           23 
 3657000   0.65999314   -8.6958101    531.40208  0.012109244  0.011152799           21 
 3658000   0.66326117   -8.7067684    532.04805   0.01212065  0.011148644           21 
 3659000   0.66252522   -8.7194065    531.62844  0.012107781  0.011144498           32 
 3660000   0.65957469   -8.6870387    531.40286  0.012099337  0.011140339           22 
 3661000   0.66515023   -8.7162574    531.34584  0.012094734  0.011136187           21 
 3662000    0.6822353    -8.688628    531.88534  0.012103708  0.011132036           28 
 3663000   0.66075396   -8.7097137    531.12616  0.012083132   0.01112789           35 
 3664000   0.66144368    -8.687464    532.10851  0.012102177  0.011123739           40 
 3665000   0.66409607   -8.7250783    531.23779  0.012079077  0.011119588           26 
 3666000   0.66151036   -8.6890887    531.73961  0.012087189  0.011115441           25 
 3667000   0.66998847    -8.718262    530.51408  0.012056042  0.011111291           31 
 3668000   0.66974002   -8.7374052    531.72822  0.012080339  0.011107146           39 
 3669000    0.6748585   -8.6816775    531.85033   0.01207982  0.011102999           27 
 3670000   0.67039956   -8.7093809    531.93972  0.012078559  0.011098859           13 
 3671000    0.6514115   -8.7271732     531.2132  0.012058776  0.011094716           29 
 3672000   0.64983126   -8.7236094    531.97475  0.012072775  0.011090572           27 
 3673000    0.6711869   -8.7180461    532.62718   0.01208429  0.011086437           37 
 3674000   0.67108961   -8.7072613    531.33898  0.012051782  0.011082304           30 
 3675000   0.65815304   -8.7168602    531.30487  0.012047729  0.011078173           23 
 3676000   0.65488037   -8.7164138     532.3032  0.012067084  0.011074048           22 
 3677000      0.66239   -8.7124631    531.19977  0.012038794   0.01106992           37 
 3678000   0.66935821   -8.7282296    532.49745  0.012064923   0.01106579           34 
 3679000   0.66597714   -8.7235097    531.98644  0.012050069  0.011061665           37 
 3680000   0.63864742   -8.7322824    531.17173  0.012028345  0.011057535           31 
 3681000    0.6535736   -8.7088711    531.33725  0.012028825  0.011053412           30 
 3682000   0.66861667   -8.7174088    532.01148  0.012040818  0.011049289           42 
 3683000   0.67665647   -8.7133829    531.28839  0.012021187  0.011045164           23 
 3684000   0.67552131   -8.7288183    531.32462  0.012018744   0.01104104           36 
 3685000   0.66581244   -8.7222798    531.09169  0.012010215  0.011036918           32 
 3686000   0.66958816   -8.7164823    531.10119  0.012007171    0.0110328           32 
 3687000   0.65476656   -8.7236513    530.15823  0.011982602  0.011028678           31 
 3688000   0.67443562   -8.6978181    531.65742  0.012013228  0.011024556           31 
 3689000   0.65712163   -8.7127749     531.7709  0.012012535  0.011020449           26 
 3690000   0.65625733   -8.7066132    531.22565  0.011996966  0.011016349           29 
 3691000   0.66643656   -8.7268194    531.35499  0.011996636  0.011012243           23 
 3692000   0.65821221   -8.7049488    531.87041   0.01200502  0.011008143           31 
 3693000   0.66222229   -8.7306613    531.00642  0.011982273  0.011004039           28 
 3694000   0.66894241   -8.7317216    531.02983  0.011979558   0.01099993           40 
 3695000   0.67060546   -8.6964429    531.36209  0.011983809  0.010995824           35 
 3696000   0.66525261   -8.7326503    532.49407  0.012006089  0.010991729           31 
 3697000   0.65859114   -8.7331037      531.605  0.011982801  0.010987628           34 
 3698000    0.6450882    -8.732693    531.25527   0.01197168  0.010983535           37 
 3699000   0.65500812   -8.6960321    532.29447  0.011991855   0.01097944           27 
 3700000   0.65561725   -8.7192404    531.67324  0.011974623  0.010975343           19 
 3701000   0.65110285   -8.7353382    531.11363  0.011958787  0.010971248           24 
 3702000   0.65450933   -8.7098346    530.66656  0.011945493  0.010967163           25 
 3703000   0.66422913   -8.7295252    531.11048  0.011952257  0.010963077           12 
 3704000   0.65250481   -8.7085004    531.81027  0.011964774  0.010958991           21 
 3705000   0.65560226   -8.7091703    531.62311  0.011957335  0.010954902           21 
 3706000   0.66428538   -8.7236024    530.95123     0.011939  0.010950818           18 
 3707000   0.64933367   -8.7272129     532.0222  0.011959855  0.010946746           27 
 3708000    0.6660241   -8.7619801    531.36133  0.011941778  0.010942664           17 
 3709000   0.64979466   -8.7010831    531.93732  0.011951499  0.010938587           16 
 3710000   0.65208898   -8.7239685    531.37421  0.011935629  0.010934519           20 
 3711000   0.65438093   -8.7007758    531.37955  0.011932533  0.010930458           21 
 3712000   0.65966171   -8.7487716    531.12191  0.011923534  0.010926401           30 
 3713000   0.64415821   -8.7354099    530.38651  0.011903818   0.01092233           33 
 3714000   0.65424226   -8.7291423    531.04262  0.011915334  0.010918255           18 
 3715000    0.6632528    -8.745233    530.96843  0.011910463   0.01091419           17 
 3716000   0.66344398    -8.739168    531.08683  0.011909913  0.010910119           15 
 3717000   0.65599912   -8.7123884    531.52817  0.011916603  0.010906047           21 
 3718000   0.66588051   -8.7261222    530.68796  0.011894566  0.010901983           16 
 3719000   0.65549567   -8.7290562    532.30427  0.011927585  0.010897928           10 
 3720000   0.64216263    -8.748877    530.95653  0.011894188  0.010893873           12 
 3721000   0.64723545   -8.7199398      531.814  0.011910194  0.010889813           20 
 3722000   0.66982432   -8.7374755     531.8186  0.011907097   0.01088576           14 
 3723000   0.67597005   -8.7221856     531.2311  0.011890749  0.010881712           14 
 3724000   0.65449628    -8.718616    531.34093  0.011890014  0.010877659           21 
 3725000   0.65127683   -8.7458369    532.28501  0.011907942    0.0108736           13 
 3726000   0.64611159   -8.7246283    531.06571  0.011877476  0.010869549           19 
 3727000   0.65654885   -8.7299295    531.28658  0.011879228    0.0108655           18 
 3728000   0.66328153   -8.7244816     530.9059  0.011867532  0.010861456           17 
 3729000   0.65457729   -8.7315314    531.69983  0.011882091  0.010857415            8 
 3730000   0.67005185   -8.7177905    531.86114   0.01188251  0.010853369           10 
 3731000   0.64958754   -8.7337866    530.58229  0.011850761  0.010849329           13 
 3732000   0.64881358   -8.7292051    531.24328  0.011862345  0.010845285           20 
 3733000   0.65989645     -8.73052    531.98908  0.011875817  0.010841251           16 
 3734000   0.65223809   -8.7303108    530.70445  0.011843967  0.010837216           24 
 3735000   0.65664043   -8.7288457    531.51111  0.011858793  0.010833183           14 
 3736000   0.64306455   -8.7355729    532.12663  0.011869349  0.010829152           13 
 3737000   0.64533525   -8.7513765    530.39217  0.011827495  0.010825123            6 
 3738000   0.65715427   -8.7269236    530.45803  0.011825799   0.01082109           18 
 3739000   0.64053461   -8.7574286    530.63617  0.011826606  0.010817057           25 
 3740000   0.66208709   -8.7370655    530.82334  0.011827614  0.010813017            8 
 3741000   0.66673727   -8.7403315    531.15131  0.011831759  0.010808984           13 
 3742000   0.63732015   -8.7471861    530.36524  0.011811091   0.01080495            7 
 3743000   0.64922729   -8.7283887    531.25695  0.011827789  0.010800918           11 
 3744000   0.65134012   -8.7362562    531.45132  0.011828956  0.010796888           14 
 3745000   0.64125353   -8.7523828    530.71496  0.011809412  0.010792863           12 
 3746000   0.64939504   -8.7406197    532.02945  0.011835501  0.010788845           14 
 3747000   0.64704171   -8.7464569     531.5848  0.011822454  0.010784831           11 
 3748000   0.65195127   -8.7401689    532.17234  0.011832363  0.010780822           19 
 3749000   0.66286604   -8.7559651    531.87386  0.011822572  0.010776803           18 
 3750000   0.65221113   -8.7525232     530.9868  0.011799707  0.010772786           12 
 3751000   0.63467627   -8.7319298     530.4137  0.011783829  0.010768771           28 
 3752000   0.65424235   -8.7354289    530.16773  0.011775225  0.010764756           25 
 3753000   0.65528347   -8.7309154    531.76461  0.011807545  0.010760742            6 
 3754000   0.65753127   -8.7688638     530.8876  0.011784932  0.010756731           10 
 3755000   0.65171902   -8.7222295    532.16058  0.011810044  0.010752723           12 
 3756000   0.65007369   -8.7668063    530.42134  0.011768312  0.010748719           20 
 3757000   0.65712725   -8.7479699    531.34026  0.011785562  0.010744716           20 
 3758000   0.65208866   -8.7395627    530.85523   0.01177167  0.010740712           15 
 3759000   0.65353057   -8.7507652    531.42492  0.011781168  0.010736721           19 
 3760000   0.64956541   -8.7231967    531.06386  0.011770032  0.010732723           21 
 3761000   0.64604941   -8.7528215    529.74557  0.011737693  0.010728726           10 
 3762000   0.64172813   -8.7619419     530.7114  0.011755968  0.010724728           17 
 3763000   0.66385921   -8.7744651    530.25248   0.01174268  0.010720731           17 
 3764000    0.6572518   -8.7403165    530.50939  0.011745249  0.010716739            8 
 3765000   0.65721715   -8.7519848    530.35913  0.011738803  0.010712751            5 
 3766000   0.63990781   -8.7277586    530.34595  0.011735395  0.010708763           12 
 3767000   0.65735177   -8.7455255    531.49165  0.011757624  0.010704778            6 
 3768000   0.63906849   -8.7329968    530.96644  0.011742888  0.010700789           19 
 3769000   0.64525098   -8.7475907    531.86759  0.011759697  0.010696802           14 
 3770000   0.65384687   -8.7537004    530.82579   0.01173355  0.010692819           17 
 3771000   0.65131086   -8.7436728    531.10759  0.011736666  0.010688844            9 
 3772000   0.64632169   -8.7590533    530.44578  0.011718933  0.010684869            8 
 3773000   0.63421806   -8.7455007    531.41214  0.011737171  0.010680892           10 
 3774000   0.64768249   -8.7766283    530.83665  0.011721353  0.010676924            9 
 3775000   0.64218194   -8.7409881    531.11625  0.011724421  0.010672958           11 
 3776000    0.6435428   -8.7644982    530.73329  0.011712864  0.010668988            9 
 3777000   0.65527383   -8.7667803    530.72447  0.011709568   0.01066502           12 
 3778000   0.63992455   -8.7531464    531.46181  0.011722733  0.010661049            9 
 3779000   0.63910134   -8.7345733    530.74347   0.01170379   0.01065708           18 
 3780000   0.64637067   -8.7553907    529.67529  0.011677145  0.010653121           14 
 3781000   0.64976117   -8.7572636     530.3527  0.011688987   0.01064917           14 
 3782000   0.64174299   -8.7492428    530.63335   0.01169208  0.010645211           12 
 3783000   0.65700277     -8.76623    530.67239  0.011689849  0.010641255           12 
 3784000   0.64273274   -8.7552252    531.15682  0.011697428  0.010637306           12 
 3785000   0.64899468    -8.743521    530.89521  0.011688578  0.010633356           15 
 3786000   0.63949255   -8.7497083    531.53649  0.011699606  0.010629412            8 
 3787000   0.64193929   -8.7402268    531.00757  0.011684877   0.01062547           15 
 3788000   0.64048791   -8.7606572      531.884  0.011701074  0.010621534            6 
 3789000   0.64576175   -8.7412041    531.33722   0.01168596   0.01061759           10 
 3790000   0.64663947   -8.7470171    530.10738  0.011655835  0.010613645           10 
 3791000   0.65036851   -8.7563205    530.93367  0.011670924  0.010609694           10 
 3792000   0.63744447    -8.744494    529.56029  0.011637665  0.010605749           19 
 3793000   0.65388914   -8.7726315    530.30867  0.011651038  0.010601806           14 
 3794000   0.63674581   -8.7560004    531.32781  0.011670353  0.010597861            7 
 3795000   0.63148866   -8.7530188    530.44539    0.0116479  0.010593915           20 
 3796000   0.63811297   -8.7564727    530.51575  0.011646377  0.010589975           21 
 3797000   0.63466022   -8.7952694    530.49764  0.011642912  0.010586032            7 
 3798000   0.64822584   -8.7579175    531.00304  0.011650936  0.010582093           23 
 3799000   0.65135295   -8.7636901    530.94533  0.011646603  0.010578156           14 
 3800000   0.63589058   -8.7674343    531.33015  0.011651977  0.010574228           25 
 3801000    0.6455931   -8.7561052    530.50648  0.011630853  0.010570304            8 
 3802000   0.64339795   -8.7597165    531.23233  0.011643704  0.010566388            7 
 3803000   0.64037735   -8.7605478    531.99386  0.011657329  0.010562471            9 
 3804000   0.65189919   -8.7623475    530.87114  0.011629669  0.010558552           13 
 3805000   0.65079874   -8.7683406     530.7458  0.011623868  0.010554636           15 
 3806000   0.64009106   -8.7659501    530.24546  0.011609858  0.010550712            7 
 3807000   0.64052201   -8.7608941    531.51098  0.011634511  0.010546799           10 
 3808000   0.64907031   -8.7594131    531.01329  0.011620564  0.010542883           15 
 3809000   0.66609154   -8.7600527    530.21822  0.011600119  0.010538972            8 
 3810000   0.63463096    -8.762589     529.6592  0.011584847  0.010535058           12 
 3811000   0.64420988   -8.7616871    530.42339  0.011598517  0.010531148           24 
 3812000   0.63647853   -8.7680416    531.18894   0.01161221  0.010527234           12 
 3813000   0.62840656   -8.7749657    531.29628  0.011611511  0.010523327           17 
 3814000   0.63138237   -8.7530058    531.08541  0.011603859  0.010519417           15 
 3815000   0.64050888   -8.7633746    530.89033  0.011596556  0.010515515            9 
 3816000   0.64826285   -8.7419049    530.78162  0.011591143  0.010511618            7 
 3817000   0.64970444   -8.7424253    531.96427  0.011613926  0.010507719           10 
 3818000   0.63741061   -8.7647098    530.94167  0.011588564  0.010503819           11 
 3819000   0.64379517   -8.7716007    530.44299  0.011574648  0.010499922           15 
 3820000   0.64813714   -8.7592752    531.33816  0.011591147  0.010496023           23 
 3821000   0.64305983   -8.7589418    530.33032  0.011566133  0.010492134           13 
 3822000   0.64000881   -8.7538134    531.16805  0.011581372  0.010488241           10 
 3823000    0.6506561   -8.7621775    530.59255  0.011565798  0.010484352            4 
 3824000   0.64026281   -8.7564224    531.29015  0.011577976  0.010480463           14 
 3825000   0.63561997    -8.779126    531.23217  0.011573686  0.010476576           17 
 3826000   0.64661402   -8.7559581    530.63694  0.011557696  0.010472691            9 
 3827000   0.63492866   -8.7565292    529.74281  0.011535206  0.010468802           18 
 3828000   0.63371094   -8.7694142    530.28919  0.011544087  0.010464913           21 
 3829000   0.63664459   -8.7745217    529.73453  0.011529001  0.010461024           15 
 3830000   0.64508525   -8.7748505    530.75751  0.011548249  0.010457129           14 
 3831000   0.64540656   -8.7751118    530.68737  0.011543708   0.01045324           15 
 3832000   0.62072436    -8.762849    531.06189  0.011548841   0.01044936            7 
 3833000   0.63588945   -8.7641015    530.99424  0.011544357  0.010445479           13 
 3834000   0.64168858    -8.747316    530.96463  0.011540702  0.010441611           13 
 3835000   0.64050658   -8.7585335    530.82783   0.01153472  0.010437741           20 
 3836000   0.65177374   -8.7629766    531.86773  0.011554304  0.010433872           18 
 3837000   0.64400063    -8.778126    530.94508  0.011531255  0.010430007           15 
 3838000   0.62872393   -8.7732966     529.5886  0.011498797  0.010426138           12 
 3839000   0.63935177   -8.7880529    531.25336  0.011531939  0.010422264           12 
 3840000   0.63446505   -8.7466543    529.89615  0.011499482  0.010418392            9 
 3841000   0.64343218   -8.8051309    530.55977  0.011510886  0.010414521            9 
 3842000   0.64338759   -8.8044835    531.68461  0.011532288   0.01041066           10 
 3843000   0.64011322   -8.7870453    529.90113  0.011490613  0.010406798           12 
 3844000   0.62333697    -8.774744    530.05576  0.011490976  0.010402937           11 
 3845000   0.64230759   -8.7857035    531.08797  0.011510359  0.010399081           12 
 3846000   0.64061711   -8.7710788    530.55886  0.011495902  0.010395225           11 
 3847000   0.64382936   -8.7830463     529.9878  0.011480543  0.010391365           11 
 3848000   0.63243563   -8.7724317    530.38384  0.011486137  0.010387515            9 
 3849000   0.62109745   -8.7720815     530.9046  0.011494427  0.010383658           16 
 3850000    0.6518386   -8.7627877    530.11547  0.011474361  0.010379803           13 
 3851000    0.6312158   -8.7834249    530.66546  0.011483283  0.010375948           17 
 3852000   0.63887843   -8.7896981    530.54985    0.0114778  0.010372098           15 
 3853000    0.6392247   -8.7754871     530.6348  0.011476659  0.010368247            9 
 3854000   0.64603215   -8.7866042    530.57334  0.011472352  0.010364403           13 
 3855000   0.65004228   -8.7573138    530.24461   0.01146227  0.010360558           14 
 3856000   0.64174615   -8.7695935    530.12137  0.011456634  0.010356713            9 
 3857000   0.62936497   -8.7956789    530.40108  0.011459707  0.010352867           14 
 3858000   0.62897346   -8.7761537    530.77277  0.011464765  0.010349028           17 
 3859000   0.65204152   -8.7899844    530.81969  0.011462807  0.010345197           13 
 3860000   0.62250964   -8.8001293    530.41134  0.011451022  0.010341362            9 
 3861000   0.62344144   -8.7605472    530.58202   0.01145174  0.010337527           12 
 3862000   0.64065197   -8.7928493    530.63849  0.011449993   0.01033369           10 
 3863000   0.62893015   -8.7642111    530.32948  0.011440363  0.010329862            9 
 3864000   0.64371855   -8.7803501    530.74081  0.011446274  0.010326037            5 
 3865000   0.62742282   -8.7815028    531.45781  0.011458771  0.010322212           15 
 3866000   0.62647043   -8.7855049    530.77701  0.011441132  0.010318398           12 
 3867000   0.63503666   -8.7661138    529.89843   0.01141924  0.010314577           22 
 3868000   0.63894874   -8.7823998     529.7655  0.011413424  0.010310759           10 
 3869000   0.63584062   -8.7976832    529.29568  0.011400355  0.010306939           10 
 3870000   0.63265685   -8.7896335    530.64643  0.011426495  0.010303123           11 
 3871000   0.62721249   -8.7731967    530.64259  0.011423461  0.010299311            9 
 3872000   0.63690637   -8.7796266     530.6384   0.01142042  0.010295501            9 
 3873000   0.62804551   -8.7671034    531.06553  0.011426662  0.010291693           13 
 3874000   0.62536564    -8.766548    531.17016  0.011425963   0.01028788           21 
 3875000   0.62763344   -8.7891568      530.753  0.011414043  0.010284067            7 
 3876000   0.64380664   -8.7886647    530.45459  0.011404682  0.010280256            5 
 3877000   0.66016873   -8.7699181    530.46274  0.011401916  0.010276449           13 
 3878000   0.62493044    -8.812467    530.01383  0.011389329   0.01027264           25 
 3879000   0.62472987   -8.7932474    531.12871  0.011410344  0.010268827           10 
 3880000   0.62610041   -8.7800986    530.10204  0.011385353  0.010265016           12 
 3881000   0.63576106   -8.7888193    529.77375   0.01137537  0.010261208           12 
 3882000   0.62963173   -8.7893291    529.65782  0.011369952  0.010257401           15 
 3883000   0.63082713   -8.8024845    529.92619  0.011372783  0.010253592           10 
 3884000    0.6278819   -8.8036003     529.2031   0.01135434  0.010249783           10 
 3885000    0.6278196   -8.7785054    530.15182  0.011371768  0.010245979           13 
 3886000   0.62287284   -8.7738439    530.48012  0.011375882  0.010242171            8 
 3887000   0.64180293   -8.7976279    530.29129  0.011368907  0.010238363           11 
 3888000    0.6176891   -8.8133514    530.42499  0.011368848  0.010234551           16 
 3889000   0.61824706   -8.7644564    530.94678  0.011377106  0.010230747           14 
 3890000   0.63644271   -8.7832457    531.01651  0.011375675  0.010226947           15 
 3891000   0.62369173   -8.7964219    529.74045  0.011345422  0.010223151           12 
 3892000   0.62713128   -8.7894062    530.44506  0.011357594  0.010219356           11 
 3893000   0.62272459   -8.7908017    529.79109  0.011340677  0.010215563           17 
 3894000   0.63190711   -8.7992283    530.44846  0.011351833  0.010211765           15 
 3895000   0.63173041   -8.7937097      529.558  0.011329867  0.010207972           27 
 3896000   0.64168173   -8.7883127     530.1185  0.011338948  0.010204175            8 
 3897000   0.62425549   -8.7965941    530.06463  0.011334887  0.010200387           18 
 3898000   0.61800348   -8.8116378    529.49529  0.011319807  0.010196599           12 
 3899000   0.62682805   -8.8127115    530.70992  0.011342864  0.010192814           12 
 3900000   0.61693907   -8.8092685    530.19099  0.011328867   0.01018902            8 
 3901000   0.61970049   -8.7842061    529.27583  0.011306413  0.010185229           12 
 3902000   0.63052827   -8.7928916    530.20667  0.011323395  0.010181442           20 
 3903000   0.61621258   -8.7898656    529.15759  0.011298095  0.010177655           11 
 3904000   0.62149624   -8.7797789    530.71006   0.01132834   0.01017387           12 
 3905000   0.63029455   -8.7955624    530.19302  0.011314405  0.010170097           19 
 3906000   0.61629631   -8.7811852    529.51993  0.011297148  0.010166317           12 
 3907000   0.63133848   -8.7824724    529.91331  0.011302647   0.01016254           21 
 3908000     0.602267   -8.7940431    530.47945  0.011311827  0.010158767           19 
 3909000   0.62149288    -8.811741    529.67355  0.011291753  0.010154996           11 
 3910000   0.62916502   -8.7967294    529.91625  0.011294038  0.010151229            9 
 3911000   0.62510032    -8.811625    529.51624  0.011282627  0.010147466           11 
 3912000   0.62731148   -8.8261173     529.0463  0.011269732    0.0101437           16 
 3913000   0.63151195   -8.7896594    529.42299  0.011274874  0.010139929           11 
 3914000   0.63065024   -8.7875975    530.27229  0.011290076  0.010136161           12 
 3915000   0.62320149     -8.79853    529.90143  0.011279298  0.010132394           16 
 3916000    0.6411705   -8.8131995    529.26067  0.011262782  0.010128631            8 
 3917000   0.63139362    -8.809222    529.86555  0.011272776   0.01012487           12 
 3918000   0.63236954    -8.819452    529.33292   0.01125857  0.010121104            8 
 3919000   0.63699076   -8.8001844    529.49514  0.011259147  0.010117345           12 
 3920000   0.62339544   -8.8083076    528.81798  0.011241879  0.010113583           11 
 3921000   0.63298597   -8.7973077    529.45241  0.011252495  0.010109827           13 
 3922000   0.62236785   -8.7842762    530.41596  0.011270099  0.010106075           15 
 3923000   0.61950507   -8.7790915    529.19611  0.011241314  0.010102326           21 
 3924000   0.62762593    -8.809098    528.99855  0.011234254  0.010098569           13 
 3925000   0.61670955   -8.8163678    528.80383  0.011227257  0.010094819           12 
 3926000   0.63089319     -8.81914    529.44862  0.011238084  0.010091064           19 
 3927000   0.61598818   -8.8213415    529.28758  0.011231805  0.010087316            8 
 3928000    0.6244791   -8.8022075    529.99416  0.011243936  0.010083571           16 
 3929000   0.62063593   -8.7855418     529.7931   0.01123681  0.010079825            8 
 3930000   0.62382324   -8.8164248      529.231  0.011222031  0.010076081           17 
 3931000   0.62212602   -8.7990454    529.49584  0.011224791  0.010072337           14 
 3932000   0.63518439   -8.8093619    529.54934   0.01122307  0.010068594           17 
 3933000   0.62141313   -8.8244389     529.9154  0.011227973  0.010064854           16 
 3934000   0.62222079   -8.8058413    528.78426  0.011201158  0.010061115            9 
 3935000    0.6180458   -8.8067949    528.97151  0.011202277  0.010057375            8 
 3936000   0.63472339    -8.835107    528.93422  0.011198641  0.010053635           19 
 3937000    0.6342492   -8.8221309    528.75101  0.011191919  0.010049898           17 
 3938000   0.63104316   -8.7968921    529.60262  0.011207098  0.010046166           10 
 3939000   0.61237249     -8.82506    529.14592  0.011194591  0.010042432           16 
 3940000   0.61196805   -8.8013194     530.6161  0.011222845  0.010038697            8 
 3941000   0.61728951   -8.8039996    529.39794  0.011194239  0.010034974           11 
 3942000   0.62105264   -8.8177271    528.80117  0.011178783  0.010031255           15 
 3943000   0.61910552   -8.8088852    529.02188  0.011180613  0.010027531           14 
 3944000   0.60307034   -8.7921582    528.81224  0.011173349  0.010023811            6 
 3945000   0.62548608   -8.7910174    529.46224  0.011184247  0.010020093            6 
 3946000   0.61535213   -8.7937627    529.22052  0.011176308  0.010016381            7 
 3947000   0.62747552   -8.7985942    529.83542  0.011186459  0.010012667           18 
 3948000   0.62789433   -8.8058847    529.82589  0.011183424  0.010008956           10 
 3949000   0.62282409   -8.7976818    529.24327  0.011168297  0.010005244           10 
 3950000   0.61421309   -8.7997729    529.54729  0.011171884  0.010001539            5 
 3951000   0.62441304   -8.8258125    529.16692  0.011161034 0.0099978285            7 
 3952000   0.63588589   -8.8116997    529.57253  0.011166762 0.0099941249            6 
 3953000   0.62927249   -8.8025204    530.40127  0.011181408 0.0099904218           11 
 3954000   0.61566785    -8.815832    529.64969   0.01116274 0.0099867205            6 
 3955000   0.61849032    -8.821141    528.74184  0.011140789  0.009983016           15 
 3956000   0.61260775   -8.8032412    530.21401  0.011168984 0.0099793187           11 
 3957000    0.6130104   -8.7986158    529.73122  0.011155994 0.0099756241            8 
 3958000   0.62141532   -8.8076421     529.7394  0.011153348  0.009971925           11 
 3959000   0.62444916   -8.8040221    528.65402  0.011127684 0.0099682278           13 
 3960000   0.62368866    -8.806071    529.32098  0.011138909 0.0099645301            7 
 3961000   0.61485018   -8.8379688    529.01493  0.011129659 0.0099608325           13 
 3962000   0.62032727   -8.8033566    529.33951  0.011133676 0.0099571368            5 
 3963000   0.61672218   -8.8157443    529.25196  0.011129026 0.0099534385           15 
 3964000   0.62517518   -8.8054433    529.61003  0.011133746  0.009949746            8 
 3965000   0.62256798   -8.7865824    528.81696   0.01111427 0.0099460553           13 
 3966000   0.60885621   -8.8059727    529.77966  0.011131696 0.0099423706           13 
 3967000   0.62368587   -8.8064951    528.87007  0.011109782  0.009938679            7 
 3968000   0.60270035   -8.8273347    528.83036  0.011106148   0.00993499           11 
 3969000   0.60581855   -8.8215518    528.63498  0.011099248 0.0099313066           14 
 3970000   0.62122242   -8.8315043    528.92546   0.01110255 0.0099276261           14 
 3971000   0.61329037   -8.8181416     528.6279  0.011093509 0.0099239397            9 
 3972000   0.60561296    -8.834821    528.98237  0.011098153  0.009920258           13 
 3973000    0.6262046   -8.8188149    529.04704  0.011096716 0.0099165789           14 
 3974000   0.62684667   -8.8358248    529.56872  0.011104863 0.0099129036            8 
 3975000   0.61822463    -8.828778    528.89214  0.011087886 0.0099092306            8 
 3976000   0.60484503   -8.8295515    529.39033  0.011095538 0.0099055549           10 
 3977000   0.62314475    -8.797895    529.43263  0.011093635 0.0099018806           16 
 3978000   0.60973754    -8.815918    530.77409  0.011118948 0.0098982042           15 
 3979000   0.61369004   -8.8243999     529.0132  0.011079275 0.0098945388            6 
 3980000   0.61812335   -8.8240035    528.71741  0.011070297 0.0098908689           11 
 3981000   0.60771934   -8.8523074    529.20909  0.011077809 0.0098871986           27 
 3982000    0.6206983   -8.8441314    528.06318  0.011051046 0.0098835283           19 
 3983000   0.61688325   -8.8229966    528.99172  0.011067699 0.0098798541           24 
 3984000   0.61743177   -8.8222742    528.88154  0.011062616 0.0098761851            7 
 3985000   0.62968119   -8.8286493    528.88704  0.011059955 0.0098725225           27 
 3986000   0.59959886   -8.8351953    528.65202  0.011052267 0.0098688619           11 
 3987000      0.61695    -8.836271    528.11815  0.011038336 0.0098651972           14 
 3988000   0.61804944   -8.8215665    529.07917   0.01105565 0.0098615375            9 
 3989000   0.61213497   -8.8123921     529.8605  0.011069201 0.0098578787           16 
 3990000   0.63679858    -8.826206    529.21764     0.011053 0.0098542149            9 
 3991000   0.61305466   -8.8225728    529.14205  0.011048652 0.0098505583            8 
 3992000   0.61223762   -8.8346016    527.61053  0.011013914 0.0098468982           25 
 3993000   0.61650152   -8.8307164     528.6429  0.011032701 0.0098432398           17 
 3994000   0.61516881   -8.8547338    528.82553  0.011033749 0.0098395838           17 
 3995000   0.61320577   -8.8248634    528.86841  0.011031882 0.0098359304           12 
 3996000   0.61485306   -8.8185582    529.25428  0.011037168 0.0098322788           18 
 3997000   0.60337929   -8.8254707    529.26228  0.011034573  0.009828632           25 
 3998000   0.60452284   -8.8445704    528.32934  0.011012367  0.009824986           22 
 3999000   0.60066145   -8.8078342    528.54877  0.011014186 0.0098213395           24 
 4000000   0.60148978   -8.8310613    528.43311  0.011009023 0.0098176989           17 
 4001000   0.61882363   -8.8158718    529.11731  0.011020522 0.0098140623           16 
 4002000   0.61750104    -8.846262    528.65869  0.011008219  0.009810421           12 
 4003000   0.59750823   -8.8493246    528.56244  0.011003465 0.0098067792           25 
 4004000   0.60506298   -8.8478582    528.53679  0.011000183 0.0098031389           20 
 4005000   0.63439109   -8.8261345    529.14257  0.011010041 0.0097995068           19 
 4006000   0.60778311   -8.8485074    528.54971   0.01099496 0.0097958716            8 
 4007000   0.61264194   -8.8363709    528.41478   0.01098941  0.009792235           16 
 4008000   0.61762357   -8.8739728    528.72111  0.010993037 0.0097886047           13 
 4009000   0.62820146    -8.854278     527.8215  0.010971595  0.009784971           11 
 4010000   0.60476446   -8.8447339    528.24802  0.010977723 0.0097813419           14 
 4011000   0.60893319   -8.8435607    527.97356  0.010969284 0.0097777139           16 
 4012000   0.61142505   -8.8440104    529.19456  0.010991911 0.0097740829           22 
 4013000   0.60399641   -8.8400904    528.95445  0.010984186 0.0097704527           20 
 4014000    0.6152265   -8.8400187     528.6672  0.010975486 0.0097668255           10 
 4015000   0.59649899   -8.8505783     529.2185  0.010984195 0.0097632032           19 
 4016000   0.59542423   -8.8460748     528.8816  0.010974469 0.0097595806           16 
 4017000    0.6097702    -8.838436    529.00647  0.010974327 0.0097559613           10 
 4018000   0.60502004    -8.835654    527.84717  0.010947552 0.0097523451            8 
 4019000   0.60752748   -8.8401947    528.66095  0.010961702 0.0097487312            8 
 4020000   0.61166429    -8.845016    528.47076  0.010955032 0.0097451249            8 
 4021000   0.60010589   -8.8458976    527.59354  0.010934128 0.0097415182           13 
 4022000    0.6021317   -8.8430816    528.13374  0.010942602 0.0097379099           16 
 4023000   0.61948527   -8.8356441    528.51317  0.010947742 0.0097343056            5 
 4024000   0.59399278   -8.8389789    528.04084  0.010935239 0.0097306995           10 
 4025000   0.60408265   -8.8649274    528.34634  0.010938848 0.0097270895           16 
 4026000    0.6045925   -8.8438009    529.30346  0.010955942 0.0097234866            8 
 4027000   0.60664423   -8.8194139    528.17656  0.010929901 0.0097198844           11 
 4028000   0.60584873   -8.8276875    529.33542  0.010951163 0.0097162894           15 
 4029000   0.60860376   -8.8513162    528.77151  0.010936781 0.0097126942           13 
 4030000    0.6107721   -8.8626766    529.08098  0.010940467 0.0097091013           19 
 4031000   0.61091439   -8.8432125    528.72778  0.010930451 0.0097055078            9 
 4032000    0.6119655   -8.8355193    529.35843  0.010940775 0.0097019166           16 
 4033000   0.60854474   -8.8545461     528.7712  0.010925928 0.0096983249           16 
 4034000   0.59502812   -8.8222574    529.12667  0.010930562 0.0096947314           17 
 4035000   0.61495681    -8.839023    528.77888  0.010920671 0.0096911439           15 
 4036000   0.61597933   -8.8472738    528.72935  0.010916942 0.0096875578           12 
 4037000   0.60902593   -8.8381373    529.37077  0.010927479 0.0096839767           12 
 4038000   0.60114162   -8.8392101    529.11191   0.01091943 0.0096803944           16 
 4039000    0.6084274    -8.846215    528.77307  0.010909736 0.0096768088            9 
 4040000   0.60042696   -8.8456317    529.41346  0.010920245 0.0096732294           12 
 4041000    0.6161046   -8.8530458    528.39891   0.01089662 0.0096696522           29 
 4042000   0.62295786   -8.8526272    527.80216  0.010881621  0.009666079           12 
 4043000     0.607001   -8.8257933    528.42472  0.010891762  0.009662499           16 
 4044000   0.59589071    -8.859217     527.6535  0.010873176 0.0096589213           22 
 4045000   0.59287413   -8.8605356    528.60339  0.010890058 0.0096553496           14 
 4046000   0.60417811   -8.8552881    529.03101  0.010896173 0.0096517749           24 
 4047000   0.60116772   -8.8478434    528.36981  0.010879866 0.0096482055           28 
 4048000   0.60108319   -8.8319829    528.62124  0.010882354 0.0096446324           22 
 4049000   0.61523978   -8.8345523     528.3456  0.010873994 0.0096410623           16 
 4050000   0.59490612   -8.8344872    528.38742  0.010872169 0.0096374999           24 
 4051000   0.59484525   -8.8488333    529.23363  0.010886893 0.0096339405           13 
 4052000   0.60328012   -8.8601056    527.71888  0.010853054 0.0096303832           21 
 4053000   0.58532014   -8.8325645    528.49962  0.010866428 0.0096268268           13 
 4054000   0.61696863   -8.8613702    527.22002  0.010837445 0.0096232742           16 
 4055000   0.61867305   -8.8217982    528.17603  0.010854419   0.00961972           12 
 4056000   0.59630974   -8.8406525    528.49174  0.010858229 0.0096161704           22 
 4057000    0.6083319   -8.8376382    527.92758  0.010843965 0.0096126214           21 
 4058000   0.59991777   -8.8619232     527.5822    0.0108342 0.0096090669           24 
 4059000   0.60261545   -8.8483378    527.98946  0.010839892 0.0096055144           14 
 4060000   0.59794011   -8.8536795    528.95254   0.01085699 0.0096019675           18 
 4061000   0.59088378   -8.8444084    527.86219  0.010831942 0.0095984182           17 
 4062000   0.59331759   -8.8517514     528.4002  0.010840313 0.0095948722           16 
 4063000   0.60050048   -8.8457468    528.48563  0.010839397 0.0095913285           15 
 4064000    0.5995437   -8.8522678    528.36672  0.010834291 0.0095877826            8 
 4065000   0.60532945   -8.8363673    529.14927  0.010847668 0.0095842424           13 
 4066000     0.602886    -8.833978    528.42651  0.010830187 0.0095806998           16 
 4067000   0.58947307   -8.8468101    529.05003  0.010840301  0.009577163           13 
 4068000   0.59371375   -8.8473469    528.81511  0.010832824   0.00957363           22 
 4069000   0.59535762   -8.8610208    527.93315  0.010812099 0.0095700921           10 
 4070000    0.5943611   -8.8418634    528.53081  0.010821679 0.0095665597           14 
 4071000   0.60302371   -8.8419832    528.77795   0.01082408 0.0095630325           16 
 4072000   0.60830098   -8.8520346    528.31863  0.010812022  0.009559503            7 
 4073000   0.58463488   -8.8543326    528.00959  0.010803044 0.0095559732           13 
 4074000   0.59542233   -8.8376973    528.49824  0.010810388 0.0095524425           15 
 4075000   0.59862375   -8.8619443    528.23292  0.010802309 0.0095489142           13 
 4076000    0.6026493    -8.858456    527.59163  0.010786548  0.009545387           18 
 4077000   0.61727814   -8.8827045    527.26768  0.010777281 0.0095418613           11 
 4078000   0.59593562   -8.8420582    527.74134  0.010784317 0.0095383356           44 
 4079000   0.58441693   -8.8587839    527.47146   0.01077616 0.0095348098           30 
 4080000   0.60300781   -8.8605352    527.78459  0.010779914 0.0095312846           27 
 4081000   0.60497242   -8.8681043    527.43577   0.01077015 0.0095277652           17 
 4082000   0.62228162   -8.8526048    528.68851  0.010793086 0.0095242513           18 
 4083000   0.61874892   -8.8530632    527.72513   0.01077078  0.009520734           10 
 4084000   0.59777325   -8.8494568    528.80243  0.010790125 0.0095172213           19 
 4085000   0.60725635    -8.871446    527.81973  0.010767436 0.0095137045           18 
 4086000   0.60310184     -8.86848    527.96314  0.010767726  0.009510189           17 
 4087000   0.60835691   -8.8468597    528.08984  0.010767675 0.0095066733           15 
 4088000   0.59471008    -8.854038    527.35033  0.010749966 0.0095031626            9 
 4089000   0.60215134   -8.8438888    529.22233  0.010785488 0.0094996574           18 
 4090000   0.58961722   -8.8429633    528.39181  0.010765929 0.0094961539           15 
 4091000   0.60356275   -8.8737994    527.87787  0.010752829 0.0094926491            9 
 4092000   0.59189101   -8.8757077    528.61271  0.010765166 0.0094891518           13 
 4093000   0.59961905   -8.8563041    527.77749  0.010745531  0.009485655           21 
 4094000   0.61143133   -8.8719519    527.76419  0.010742635 0.0094821542           18 
 4095000   0.59808892   -8.8580752    528.62415  0.010757512 0.0094786579           26 
 4096000   0.59446088   -8.8867282    528.35885  0.010749488  0.009475163           26 
 4097000   0.59427103   -8.8671434    528.51807  0.010750103 0.0094716676           11 
 4098000    0.5939475   -8.8632889    527.42527  0.010725258 0.0094681782           13 
 4099000   0.60429982   -8.8602533    528.01012  0.010734531 0.0094646851           17 
 4100000   0.58709232   -8.8612833    527.62948  0.010724176 0.0094611954           15 
 4101000   0.58818787    -8.834563    528.24431  0.010734055 0.0094577055           21 
 4102000   0.58760337   -8.8657641    527.67372  0.010719846 0.0094542162           13 
 4103000   0.60226202   -8.8641204    527.58733  0.010715479 0.0094507346           14 
 4104000   0.59661259   -8.8467055    528.88532  0.010739224 0.0094472505           14 
 4105000   0.59945659   -8.8717276    528.38059  0.010726362 0.0094437673            9 
 4106000   0.59005576   -8.8733549    528.28391  0.010721787 0.0094402866           12 
 4107000   0.60419479   -8.8862727    527.97909  0.010712992  0.009436809           15 
 4108000   0.59408294    -8.849553    528.24713  0.010715821 0.0094333297           16 
 4109000   0.59521828   -8.8571604    528.71991  0.010722802 0.0094298568           13 
 4110000   0.60382617    -8.855352    527.86372  0.010702833 0.0094263812           17 
 4111000   0.58885055   -8.8578165    527.71626   0.01069724 0.0094229099           13 
 4112000   0.58859121   -8.8631466    528.54524  0.010711439 0.0094194354           11 
 4113000   0.57534541   -8.8502397    528.22358  0.010702317 0.0094159635           11 
 4114000   0.58554039   -8.8742561    528.25519  0.010700356 0.0094124952            8 
 4115000   0.58398944   -8.8692188    528.37637   0.01070021 0.0094090263           16 
 4116000   0.60852978   -8.8867633    528.45273  0.010699156 0.0094055625           20 
 4117000   0.58983001   -8.8396125    528.70734  0.010701711 0.0094020981           19 
 4118000   0.58390225   -8.8637736    527.23223  0.010669262 0.0093986393           18 
 4119000    0.5977372    -8.877845    529.41222  0.010710776 0.0093951796           10 
 4120000   0.59586965   -8.8782578    528.21839  0.010684029 0.0093917219           10 
 4121000   0.58171153    -8.873762    527.75239  0.010672013 0.0093882621           15 
 4122000   0.59807888   -8.8622204    528.50711  0.010684682 0.0093848045           14 
 4123000   0.58691825   -8.8649958     527.9166  0.010670155 0.0093813517           14 
 4124000   0.59615298   -8.8775769    528.15573    0.0106724 0.0093778969           10 
 4125000   0.60937951   -8.8663128    529.13799  0.010689656 0.0093744431           13 
 4126000   0.59576738   -8.8845904    527.77142  0.010659465 0.0093709908           10 
 4127000   0.60137388   -8.8919413    527.13033  0.010643937 0.0093675345           16 
 4128000   0.58679203   -8.8762755    528.24219  0.010663804 0.0093640873           14 
 4129000   0.58984318   -8.8579888     527.6188   0.01064864 0.0093606372           22 
 4130000   0.59077293   -8.8628685    528.29415  0.010659688 0.0093571946           22 
 4131000   0.59110186   -8.8762891    527.78238  0.010646784 0.0093537487           18 
 4132000   0.58123308   -8.8762883    527.28074   0.01063409 0.0093503012           13 
 4133000   0.59133043   -8.8792166    527.69732  0.010639917  0.009346856           13 
 4134000   0.57119764   -8.8808514    527.81282  0.010639671 0.0093434154           17 
 4135000   0.59246612   -8.8664111    528.21031  0.010645109 0.0093399725           11 
 4136000   0.59553281   -8.8596601    527.69828  0.010632219 0.0093365324           10 
 4137000   0.58101139   -8.8787444     527.3252  0.010622134 0.0093330998           11 
 4138000   0.58429385   -8.8863003    527.35855  0.010620238 0.0093296704           24 
 4139000    0.5938623   -8.8831252    528.16235  0.010633856 0.0093262394           11 
 4140000   0.59014446   -8.8717755    527.36022  0.010615141 0.0093228088           13 
 4141000   0.57614612   -8.9010141    528.04561  0.010626371 0.0093193802            9 
 4142000   0.59319204   -8.8922231    527.57288  0.010614294 0.0093159494           22 
 4143000   0.59670164   -8.8639334    527.05511  0.010601318 0.0093125251           20 
 4144000   0.58596376   -8.8706187    526.94356  0.010596516 0.0093091027           16 
 4145000   0.59669116   -8.8809603    528.39687  0.010623178 0.0093056783           12 
 4146000   0.59246876   -8.8793303    527.13935   0.01059534 0.0093022591           16 
 4147000   0.59227812   -8.8689108    528.24387   0.01061498 0.0092988368           21 
 4148000   0.60117519   -8.8811078    528.07906   0.01060911 0.0092954185           16 
 4149000   0.59649006   -8.8806316    527.90767  0.010603111 0.0092920017           19 
 4150000   0.57426365   -8.8985763    527.56795  0.010593734 0.0092885813           21 
 4151000   0.59200183   -8.8908158    527.61045  0.010592035 0.0092851627           14 
 4152000   0.58358948   -8.8866336    527.57987   0.01058887 0.0092817497           20 
 4153000   0.57997471   -8.8731137    527.22241  0.010579148 0.0092783402           13 
 4154000   0.59467841   -8.8722242    527.13943  0.010574936 0.0092749296           13 
 4155000   0.57888494   -8.8726853    527.65056  0.010582643  0.009271521           27 
 4156000   0.58508591   -8.8710055    527.06928  0.010568441 0.0092681103            8 
 4157000   0.58982451   -8.8948072    527.47039  0.010573939 0.0092647039           15 
 4158000   0.59646598   -8.8882662    528.06162  0.010583246 0.0092612943           21 
 4159000   0.57365785   -8.8833932    528.09178  0.010581305 0.0092578885           23 
 4160000   0.58509118   -8.8842968    528.16682  0.010580265 0.0092544846           24 
 4161000   0.58351046   -8.8922536    528.15069  0.010577399 0.0092510854           16 
 4162000   0.58245943   -8.9024631     526.9166  0.010550148 0.0092476901           15 
 4163000   0.58757242   -8.8924757    528.34818  0.010576271 0.0092442936           16 
 4164000   0.59610789   -8.8964475    527.61898  0.010559137 0.0092408981           17 
 4165000   0.58089243    -8.880247    527.42146   0.01055265 0.0092375001            8 
 4166000   0.59223387   -8.8876764    528.15282  0.010564747 0.0092341081           14 
 4167000   0.58817744   -8.8756184     527.6517   0.01055219 0.0092307174           12 
 4168000   0.57428679   -8.8923896    528.55475  0.010567713 0.0092273292           14 
 4169000   0.58552694   -8.8800227    527.56931  0.010545481 0.0092239394            9 
 4170000    0.5778871   -8.8953349    527.35871  0.010538743 0.0092205536           18 
 4171000   0.58240599   -8.9100644    526.59048  0.010520868  0.009217168           11 
 4172000   0.57680123   -8.8833311    526.98903  0.010526307 0.0092137866           16 
 4173000   0.58624258   -8.9101153    527.37431  0.010531478  0.009210404           14 
 4174000    0.5917133   -8.8882306     526.9574  0.010520632 0.0092070267           19 
 4175000   0.58015378   -8.8965221    527.22689  0.010523491 0.0092036457           12 
 4176000   0.58870863    -8.876954    527.21624  0.010520758 0.0092002697           11 
 4177000   0.58123115   -8.8922093    527.14392  0.010516797 0.0091968951           18 
 4178000   0.58006773   -8.8796325    526.66811  0.010504789 0.0091935201           16 
 4179000   0.57974799   -8.8991986    527.56042  0.010520069 0.0091901467           12 
 4180000   0.58746658   -8.8857309     527.5579  0.010517502  0.009186773           26 
 4181000   0.58860374   -8.9178689    527.77205  0.010519255 0.0091834041           19 
 4182000   0.58870745   -8.8844412    527.18793    0.0105051 0.0091800326           11 
 4183000   0.59121233   -8.9180518    526.70806  0.010493028 0.0091766623           16 
 4184000   0.57489222    -8.904559    527.99689   0.01051619 0.0091732966           28 
 4185000   0.57736167   -8.8877437     526.9285  0.010492403 0.0091699281            9 
 4186000   0.57113945   -8.8848698    527.30642   0.01049742 0.0091665621           16 
 4187000   0.58921424   -8.8915218    527.51301  0.010499025  0.009163196            8 
 4188000   0.59508604   -8.8845648    526.75879  0.010481511 0.0091598352           14 
 4189000   0.57013634   -8.9081431    526.96762  0.010483163 0.0091564732           20 
 4190000   0.58110071   -8.8909237    528.07188  0.010502623 0.0091531158           13 
 4191000   0.58971551   -8.8976681    526.43543  0.010467578 0.0091497592           20 
 4192000   0.57363243   -8.9013484    527.53506  0.010486941 0.0091464047           17 
 4193000   0.57584768   -8.8944391    527.39809  0.010481717 0.0091430495           13 
 4194000   0.58503428   -8.8981677     527.2246  0.010475771 0.0091396965           19 
 4195000   0.57397779   -8.8974164    525.95271  0.010448008 0.0091363462           14 
 4196000   0.58683827   -8.8953545    527.09677  0.010468239 0.0091329977           16 
 4197000   0.57239934   -8.9195567    527.55101  0.010474764 0.0091296502           23 
 4198000   0.57261785   -8.9124526    527.44909  0.010470246 0.0091263047           17 
 4199000   0.58212255   -8.8938505    527.37637  0.010466309 0.0091229569           16 
 4200000   0.56866704   -8.9002907    527.10684  0.010458469 0.0091196142           20 
 4201000   0.58476112   -8.9055873    527.52921  0.010464358 0.0091162746           18 
 4202000   0.57343689   -8.9080235    527.39814  0.010459268 0.0091129303            7 
 4203000   0.58593861    -8.889446    527.07721  0.010450417 0.0091095906           11 
 4204000   0.58097445   -8.8797937    527.45476  0.010455415 0.0091062583           13 
 4205000   0.57055319   -8.9152598    526.80452  0.010440042 0.0091029231           16 
 4206000   0.60181935   -8.9081825    526.90788  0.010439608 0.0090995896           15 
 4207000   0.57426716   -8.8888387    527.31018  0.010445095 0.0090962579           15 
 4208000   0.57919147    -8.898897    526.97665  0.010436008 0.0090929278           19 
 4209000    0.5892243    -8.904004    527.19459  0.010437843 0.0090896012           18 
 4210000   0.57540946   -8.9173711    527.02297  0.010431967 0.0090862738           12 
 4211000   0.58325998   -8.8887605    528.16296  0.010452049 0.0090829506           26 
 4212000   0.57166683   -8.8985783    527.68759  0.010440163 0.0090796249           16 
 4213000   0.57357332   -8.8895454    526.98546  0.010423797 0.0090763008           14 
 4214000    0.5728061   -8.8963108    527.49087  0.010431318 0.0090729765           13 
 4215000   0.57043216   -8.8854255    527.04513   0.01042003 0.0090696609           18 
 4216000   0.57791654   -8.9044918    527.16362  0.010419901 0.0090663415           16 
 4217000   0.57797491   -8.9086697    527.46121  0.010423311 0.0090630271           12 
 4218000   0.58340282   -8.8998673    526.33547  0.010398599 0.0090597098           17 
 4219000   0.57195031   -8.9016448    528.24056  0.010433763  0.009056395           16 
 4220000   0.57209173   -8.9138493    527.47305  0.010416134  0.009053081           15 
 4221000   0.55776854   -8.8949366    527.80604  0.010420241 0.0090497669           12 
 4222000   0.58908845   -8.9102243    527.10753  0.010403986 0.0090464522           23 
 4223000   0.56234765   -8.9082448    526.24323  0.010384467 0.0090431448           14 
 4224000   0.57258957   -8.9010788    527.18535  0.010400595 0.0090398304           20 
 4225000   0.58125117   -8.9225031    526.55267  0.010385654 0.0090365225           19 
 4226000   0.58918914   -8.9101304    527.13516  0.010394683 0.0090332166           16 
 4227000   0.56961405   -8.8977294    526.75573  0.010384744 0.0090299106           15 
 4228000   0.57359315    -8.899896    527.24996  0.010392029 0.0090266072           29 
 4229000   0.55545399   -8.8956162    526.28743  0.010370604 0.0090233079           13 
 4230000   0.58322305   -8.9099628    527.98919  0.010401678 0.0090200078           16 
 4231000   0.57860602   -8.9204918    527.01448  0.010380022 0.0090167047           14 
 4232000   0.57492172   -8.8933377    527.87329   0.01039448 0.0090134076           21 
 4233000   0.57853681   -8.9118308    527.10351   0.01037687 0.0090101135           15 
 4234000   0.58257357   -8.9047014    527.02988   0.01037297 0.0090068177            9 
 4235000   0.57854951   -8.8895947    527.40846   0.01037797 0.0090035225           16 
 4236000   0.57028249   -8.9122929    527.37805  0.010374922 0.0090002307           13 
 4237000   0.57266877   -8.9165361    526.11184   0.01034757   0.00899694           22 
 4238000   0.59127163    -8.922002    527.22017  0.010366922 0.0089936479           14 
 4239000   0.57785507   -8.9067088    526.23428  0.010345095 0.0089903606           31 
 4240000   0.57678607    -8.922647    527.64376  0.010370357 0.0089870746           18 
 4241000   0.57037591   -8.8993891    527.07078  0.010356653 0.0089837878           23 
 4242000   0.56136966   -8.9161744    527.85272  0.010369573 0.0089805082           10 
 4243000    0.5817913   -8.9215458    527.18624  0.010354039 0.0089772251           13 
 4244000   0.57265896   -8.9124401    526.37841  0.010335737 0.0089739435           20 
 4245000   0.58062189   -8.8924383    527.52022  0.010355717 0.0089706646            9 
 4246000   0.57750509   -8.9241526    526.84365  0.010339999 0.0089673894           23 
 4247000    0.5696354    -8.915061    527.06213  0.010341852 0.0089641089           14 
 4248000    0.5780981   -8.9184268    526.71398  0.010332588 0.0089608283           28 
 4249000   0.57297046   -8.9251516    526.50274  0.010326013 0.0089575496           17 
 4250000   0.56518902   -8.9169294    525.58159  0.010305521 0.0089542729            9 
 4251000   0.55741299   -8.8941164     526.6003  0.010323067 0.0089510009            9 
 4252000   0.57769274    -8.926546    527.43791  0.010337055 0.0089477312           10 
 4253000   0.57651375     -8.91718    526.84154  0.010322939 0.0089444665           33 
 4254000   0.58106853   -8.9042176    525.95276  0.010303102 0.0089411991           18 
 4255000   0.57995414   -8.8921966    526.63785  0.010314098 0.0089379338           13 
 4256000   0.55811848   -8.9075611    525.96058  0.010298414 0.0089346697           20 
 4257000   0.57820562   -8.9089967    526.34832  0.010303585 0.0089314046           24 
 4258000   0.56172616   -8.9453238    526.72919  0.010308619 0.0089281373           19 
 4259000   0.57914437   -8.9165411    527.00212  0.010311539 0.0089248748           20 
 4260000   0.56956987   -8.9120048    527.06166  0.010310283 0.0089216149           20 
 4261000   0.57087095   -8.9298447    527.73579  0.010321047 0.0089183557           18 
 4262000   0.57173422   -8.9325847    526.48412  0.010294152 0.0089150962           21 
 4263000   0.57221534   -8.8949058    527.02415  0.010302294 0.0089118369           18 
 4264000   0.57750811   -8.8965451    526.47553  0.010289156 0.0089085821           11 
 4265000   0.57733723    -8.919709    526.43789  0.010286008  0.008905323           13 
 4266000   0.56219598   -8.9250662    526.81772  0.010291017 0.0089020686           24 
 4267000    0.5646516   -8.9297165    526.28771  0.010278254 0.0088988143           17 
 4268000    0.5634097   -8.9200061    526.87766  0.010287365 0.0088955606           12 
 4269000   0.56607576   -8.9136931    525.72292  0.010262413 0.0088923154           10 
 4270000   0.56584853   -8.9059022    526.62732   0.01027766 0.0088890675           15 
 4271000   0.57391535   -8.9179769    526.82392   0.01027909 0.0088858225           25 
 4272000   0.56910031   -8.9289079    526.65065  0.010273304  0.008882577           10 
 4273000   0.56643781   -8.9263383    526.06518  0.010259482 0.0088793296           25 
 4274000   0.58281114   -8.9100752    526.82283  0.010271854 0.0088760858           21 
 4275000   0.56387348   -8.9216275    526.35031   0.01026024 0.0088728438           20 
 4276000   0.56998571   -8.9379108    526.79252  0.010266459 0.0088696003           16 
 4277000   0.56207502   -8.9252655    526.97345  0.010267583 0.0088663615           34 
 4278000   0.57231618   -8.9283611    526.48702  0.010255708  0.008863127           13 
 4279000   0.56448188     -8.92955    526.63774  0.010256246 0.0088598912           34 
 4280000     0.554334   -8.9509596    525.98889  0.010241217  0.008856659           32 
 4281000   0.56380401   -8.9214878    525.98032  0.010238658 0.0088534248           36 
 4282000   0.55708453   -8.9335088    525.69701  0.010230753 0.0088501934           21 
 4283000   0.55589734   -8.9120151    526.90785  0.010251923 0.0088469697           20 
 4284000    0.5777399   -8.9315429    526.63523  0.010244227 0.0088437435           39 
 4285000   0.56936187   -8.9116052    526.86572  0.010246319 0.0088405183           26 
 4286000   0.55544345   -8.9190367    527.33305  0.010253015 0.0088372963           18 
 4287000   0.56661073   -8.9391364    526.74493  0.010239191 0.0088340752           20 
 4288000   0.57229811   -8.9444529    525.96082  0.010221564 0.0088308547           21 
 4289000   0.58108239   -8.9272252    525.92779   0.01021854 0.0088276353           34 
 4290000   0.56920209   -8.9351652     525.5428  0.010208679 0.0088244168           14 
 4291000   0.55448174   -8.9359821    525.93425  0.010213902 0.0088212016           19 
 4292000   0.56084935   -8.9270165    525.91172  0.010211085 0.0088179856           26 
 4293000    0.5784422   -8.9292101     525.8096  0.010206724 0.0088147728           36 
 4294000   0.54285598   -8.9298744     526.7772  0.010223125 0.0088115628           25 
 4295000   0.57026691   -8.9379867    526.30786  0.010211639 0.0088083509           20 
 4296000   0.55765315    -8.929968    526.00636  0.010203413 0.0088051393           14 
 4297000   0.54190471   -8.9108209    527.47395    0.0102295 0.0088019281           18 
 4298000   0.55785729   -8.9309494    526.23437  0.010203086 0.0087987212           26 
 4299000   0.56335871   -8.9314023    526.19422  0.010199935 0.0087955152           22 
 4300000   0.56553387   -8.9244765    526.58316    0.0102051 0.0087923053           35 
 4301000   0.55956651    -8.924952    526.04769  0.010192352 0.0087891037           21 
 4302000   0.57447854   -8.9381931    525.80903   0.01018536  0.008785904           18 
 4303000   0.56246456   -8.9381166    526.67082  0.010199683 0.0087826983           16 
 4304000   0.56132992   -8.9225428    526.18288  0.010187866 0.0087794982           15 
 4305000   0.56610672   -8.9071581    526.47235  0.010191102 0.0087762984           36 
 4306000   0.57279315    -8.912499    527.05485  0.010200009 0.0087731065           32 
 4307000   0.57342928   -8.9437634    526.68418  0.010190469 0.0087699134           23 
 4308000   0.55799858   -8.9306719    525.50563  0.010165305 0.0087667199           19 
 4309000   0.55922038   -8.9196048    526.00157  0.010172538 0.0087635274           18 
 4310000   0.56490133   -8.9382637    526.40477  0.010177973 0.0087603382           13 
 4311000   0.56765606   -8.9338594    525.58548  0.010159775 0.0087571455           25 
 4312000   0.56324225   -8.9383999    525.59666  0.010157635 0.0087539597           14 
 4313000   0.56253996   -8.9273468    526.67349  0.010176086 0.0087507734           28 
 4314000   0.55112481   -8.9501475    526.66037  0.010173473  0.008747587           20 
 4315000   0.56363779   -8.9469899    526.45537  0.010167157 0.0087444058           17 
 4316000   0.56177215   -8.9401176    525.57299  0.010147764 0.0087412243           20 
 4317000   0.56768147   -8.9137419    525.74523  0.010148738 0.0087380463           24 
 4318000   0.56124853   -8.9290284    525.89083  0.010149198 0.0087348704           22 
 4319000   0.56035247   -8.9221846    525.09123   0.01013142 0.0087316933           24 
 4320000   0.56811374   -8.9439997    526.30047  0.010152401  0.008728515           21 
 4321000   0.55607526   -8.9305889    526.10468  0.010146276 0.0087253416           14 
 4322000   0.56092712   -8.9267511    527.25009  0.010166013 0.0087221654           13 
 4323000   0.56252281   -8.9268582    526.71156   0.01015328 0.0087189964           17 
 4324000   0.55532177   -8.9304598    527.26661  0.010161629 0.0087158263           19 
 4325000   0.56005511   -8.9382193    525.79527   0.01013093 0.0087126553           16 
 4326000   0.54520173   -8.9405438    526.64374  0.010144932 0.0087094874           14 
 4327000   0.55828739   -8.9314244    526.38382  0.010137582 0.0087063213           28 
 4328000   0.55702859   -8.9424313    525.87728  0.010125487 0.0087031617           15 
 4329000    0.5585681   -8.9503265    525.96512  0.010124839 0.0086999984           21 
 4330000   0.55830619    -8.925838    526.72004  0.010137029 0.0086968378           13 
 4331000   0.56805541   -8.9388704    526.22936  0.010125247  0.008693682           30 
 4332000    0.5521504   -8.9229879    526.14152   0.01012122 0.0086905253           17 
 4333000   0.57186826   -8.9395674    526.06359  0.010117386 0.0086873704           22 
 4334000   0.54742207   -8.9375883    525.38559  0.010102015 0.0086842176           25 
 4335000   0.55452826   -8.9215501    526.79633  0.010126804 0.0086810627            8 
 4336000   0.55780825   -8.9552616    525.20662  0.010093916 0.0086779094           12 
 4337000   0.55334244   -8.9458246     525.8621  0.010104183  0.008674758           27 
 4338000   0.56281206   -8.9255036    526.56492  0.010115355 0.0086716067           28 
 4339000    0.5570627   -8.9394038    525.70997  0.010096604 0.0086684568           16 
 4340000   0.55943667   -8.9319718    526.44174  0.010108328 0.0086653096           17 
 4341000    0.5566105   -8.9266722    526.16619   0.01010071 0.0086621605           25 
 4342000   0.56630718   -8.9493577    525.59614  0.010087443 0.0086590127           20 
 4343000   0.55637207   -8.9350094    526.20542  0.010096811 0.0086558693           21 
 4344000   0.55314545    -8.937498    526.10831  0.010092624 0.0086527282           23 
 4345000   0.54790396   -8.9452168    526.05941  0.010089363 0.0086495865           15 
 4346000   0.54874559    -8.933422    526.46514  0.010094822 0.0086464455           25 
 4347000   0.54664203   -8.9325559    525.83333  0.010080387 0.0086433058           25 
 4348000   0.56113993   -8.9477224    525.81783  0.010077772   0.00864017           10 
 4349000   0.56179219   -8.9180217    526.20588   0.01008289 0.0086370365            7 
 4350000   0.56289778   -8.9509472    526.49509  0.010086113 0.0086339015           15 
 4351000   0.55950657   -8.9326055    525.68255  0.010068232 0.0086307655           18 
 4352000    0.5547962   -8.9503289    526.78259  0.010086983 0.0086276332           25 
 4353000   0.55524344   -8.9458286    525.58308  0.010061702 0.0086245006           24 
 4354000   0.55796971   -8.9547328     525.9141  0.010065727 0.0086213705           14 
 4355000   0.55792299   -8.9493494    526.16557  0.010068227 0.0086182416            9 
 4356000   0.55663569   -8.9360438    525.53055  0.010053768 0.0086151118           25 
 4357000   0.55770352   -8.9286936    525.63969  0.010053548 0.0086119878           26 
 4358000   0.54563804   -8.9500375    525.88909   0.01005601 0.0086088645           18 
 4359000   0.55922855   -8.9242831    525.77881  0.010051595 0.0086057415           15 
 4360000    0.5547069   -8.9483034    525.07178  0.010035776 0.0086026201           14 
 4361000    0.5661765   -8.9488121    525.61632   0.01004388 0.0085995026           24 
 4362000   0.55473712   -8.9320221    525.55512  0.010040408 0.0085963834           11 
 4363000   0.54810244   -8.9619682    525.60228  0.010039008 0.0085932642           22 
 4364000   0.54254191   -8.9325279    525.82865   0.01004103 0.0085901476           23 
 4365000   0.55135287   -8.9649171    525.56251  0.010033648  0.008587034           14 
 4366000   0.54706481   -8.9586014    525.60601  0.010032181 0.0085839212           19 
 4367000   0.55454494   -8.9506936    526.28466  0.010042834 0.0085808074           19 
 4368000   0.56335985   -8.9381901    525.86286  0.010032487 0.0085776984           17 
 4369000   0.56499646   -8.9433616    525.91222  0.010031133 0.0085745885           18 
 4370000   0.54772203    -8.940976    525.62815   0.01002342 0.0085714776           17 
 4371000   0.55481037   -8.9480548    526.09352  0.010029999 0.0085683753           17 
 4372000   0.56009444   -8.9394615    525.88641  0.010023757 0.0085652677           20 
 4373000   0.56405622    -8.958057    526.08134   0.01002518 0.0085621659           15 
 4374000   0.56465357   -8.9430166    525.53018  0.010012387 0.0085590662           21 
 4375000   0.55923563   -8.9401287    526.03701  0.010019753 0.0085559651           16 
 4376000   0.55112902   -8.9700202    526.83059  0.010032575 0.0085528664           15 
 4377000   0.55173404   -8.9614491    525.54789  0.010005862 0.0085497689           13 
 4378000   0.56201864   -8.9606746     525.9158  0.010010579 0.0085466707           22 
 4379000   0.54553164   -8.9659049    526.18387  0.010013395 0.0085435735           22 
 4380000   0.55764408   -8.9578195    525.10842 0.0099906473 0.0085404789           21 
 4381000   0.53229895   -8.9377945    525.38289 0.0099935877 0.0085373871           16 
 4382000   0.55826824   -8.9423781    526.09985  0.010004942 0.0085342957           21 
 4383000   0.55397305   -8.9491281    525.82158 0.0099973683 0.0085312066           16 
 4384000   0.56031776   -8.9576763     525.5677  0.009990262 0.0085281197           12 
 4385000   0.54652463   -8.9412342    525.39548 0.0099847107 0.0085250337           10 
 4386000   0.54757791   -8.9420012    527.27341  0.010018115 0.0085219501           16 
 4387000   0.55064135   -8.9575125    526.08919 0.0099933362 0.0085188676           17 
 4388000    0.5428467   -8.9517011    526.21802 0.0099935054 0.0085157839           20 
 4389000   0.53914439   -8.9572581    525.73635 0.0099820831 0.0085127019           17 
 4390000   0.55069566   -8.9518329    525.77762 0.0099805926 0.0085096218           21 
 4391000   0.54893433   -8.9537813    524.97355 0.0099630598 0.0085065457           11 
 4392000   0.55931358   -8.9363417     525.9723 0.0099797415  0.008503469           26 
 4393000   0.54349168   -8.9551563    525.03768 0.0099597404 0.0085003941           22 
 4394000   0.54502465   -8.9606531    525.26102 0.0099617095 0.0084973188           22 
 4395000   0.54557652   -8.9437077    525.05025 0.0099554465 0.0084942414           21 
 4396000    0.5291216   -8.9444821    525.70063 0.0099655109 0.0084911696           36 
 4397000   0.53665357   -8.9631841    524.93863 0.0099488028 0.0084880979           15 
 4398000   0.53972844   -8.9730342    525.59822 0.0099590386 0.0084850275           14 
 4399000   0.53923271   -8.9480686    525.44453 0.0099538633 0.0084819596           23 
 4400000   0.55281284    -8.963448    524.60489 0.0099356986 0.0084788949           23 
 4401000   0.55128993    -8.959757    525.76763 0.0099554577 0.0084758259           34 
 4402000   0.56254456   -8.9529079    525.90798  0.009955853 0.0084727627           21 
 4403000   0.53972598   -8.9490589    525.50205  0.009945909 0.0084697011           15 
 4404000    0.5469056   -8.9655355    525.29915 0.0099398114 0.0084666391           14 
 4405000   0.54640479    -8.949175    524.89098 0.0099298332  0.008463578           19 
 4406000   0.54170096   -8.9595656    525.49901 0.0099390794  0.008460519           12 
 4407000   0.55285331   -8.9557271    524.77074 0.0099230532 0.0084574596           19 
 4408000   0.53734258   -8.9624834    525.09313 0.0099268968 0.0084544035           17 
 4409000   0.54667305   -8.9627705     525.1921 0.0099265159 0.0084513505           17 
 4410000   0.54971835   -8.9737667    525.82813 0.0099362836  0.008448295           16 
 4411000   0.55029204   -8.9568894    525.32537 0.0099245329 0.0084452425           19 
 4412000    0.5475758   -8.9709589    525.14922 0.0099189563 0.0084421971           19 
 4413000   0.54611589    -8.965373    525.55222 0.0099243187 0.0084391506           19 
 4414000   0.53087532   -8.9379295    524.94795 0.0099106622 0.0084361021           11 
 4415000   0.55228893   -8.9640945    525.86556 0.0099257373 0.0084330612           14 
 4416000   0.54270628    -8.970608    525.65944 0.0099195999  0.008430017           11 
 4417000   0.54139635   -8.9698675    526.05554 0.0099248272 0.0084269763           10 
 4418000   0.54824322   -8.9767157    525.06577 0.0099039114 0.0084239346           13 
 4419000   0.54589607   -8.9527844    524.12395 0.0098839094  0.008420891           13 
 4420000   0.54145318   -8.9719984    525.13188 0.0099006765 0.0084178531           16 
 4421000    0.5441339   -8.9791861    525.38177 0.0099031473 0.0084148124           12 
 4422000   0.53964216   -8.9517906    525.74783 0.0099078062 0.0084117783           18 
 4423000   0.54298499   -8.9662329    525.62195 0.0099031944 0.0084087484            9 
 4424000   0.53167817    -8.958663    525.55475 0.0098996902 0.0084057158           11 
 4425000   0.54246161   -8.9587084    525.26251 0.0098919493 0.0084026848           19 
 4426000   0.54693003   -8.9582426    525.30232 0.0098904639 0.0083996549           20 
 4427000   0.54633368   -8.9583513    525.64552 0.0098946902 0.0083966308           15 
 4428000   0.52975705   -8.9640288    525.50768 0.0098898615 0.0083936043           34 
 4429000   0.55067299   -8.9876213    524.47008 0.0098681056 0.0083905789           29 
 4430000   0.55018572   -8.9834973    525.91095 0.0098929825 0.0083875564           24 
 4431000   0.55568555   -8.9618329    525.59787 0.0098848618 0.0083845329           16 
 4432000   0.55578957   -8.9636446    525.41094 0.0098791166 0.0083815141           19 
 4433000    0.5334241   -8.9682528    526.10057  0.009889852 0.0083784967           14 
 4434000   0.53570334   -8.9597707    525.98628 0.0098854737 0.0083754757           18 
 4435000   0.54512533   -8.9747794    524.95747 0.0098639135 0.0083724575           19 
 4436000   0.53841078   -8.9597492    525.84117 0.0098782907  0.008369441           19 
 4437000   0.53919426    -8.960093     525.1323 0.0098627507 0.0083664277           14 
 4438000   0.53576455   -8.9618458     525.5147 0.0098677088 0.0083634126           20 
 4439000   0.54244042   -8.9666996    524.77085 0.0098515215 0.0083603993           14 
 4440000   0.54526357   -8.9859881     525.5216 0.0098633935 0.0083573845           15 
 4441000   0.52469904   -8.9747982    525.14388 0.0098540847 0.0083543732           27 
 4442000   0.55087028   -8.9674485    525.27838 0.0098543895 0.0083513641           16 
 4443000   0.54591487   -8.9762641    524.46644 0.0098369428 0.0083483521           12 
 4444000   0.55012064   -8.9819497    525.18168 0.0098481412 0.0083453453           20 
 4445000   0.54133995   -8.9732453    525.51315   0.00985214 0.0083423427           24 
 4446000   0.54379025   -8.9515027    526.20138 0.0098628239 0.0083393373           14 
 4447000   0.54583025   -8.9856351     525.7097 0.0098513923 0.0083363324           12 
 4448000   0.52824673   -8.9677618    525.24452 0.0098404625 0.0083333318           26 
 4449000    0.5307905   -8.9532289     525.0446 0.0098345058 0.0083303313           12 
 4450000   0.54079697   -8.9542075    524.81892 0.0098280697 0.0083273331           21 
 4451000   0.53326234   -8.9538086    526.13421 0.0098504869 0.0083243391           12 
 4452000   0.53765015    -8.947765    525.08368 0.0098286104 0.0083213477           11 
 4453000   0.53892793    -8.972981    524.96103 0.0098241079 0.0083183546           17 
 4454000   0.53985477   -8.9704777    524.63704 0.0098158404   0.00831536           17 
 4455000   0.54796217   -8.9636941    525.99647  0.009839066 0.0083123697           10 
 4456000   0.54569969   -8.9762991    525.29169 0.0098236775 0.0083093812           16 
 4457000   0.54295079   -8.9627219    524.78736 0.0098120439 0.0083063934           13 
 4458000   0.53595434   -8.9648124      525.081 0.0098153321 0.0083034092           13 
 4459000   0.52198272   -8.9491464    524.79804 0.0098078425   0.00830042            4 
 4460000   0.53103516   -8.9800227     524.5308 0.0098006502 0.0082974349           13 
 4461000     0.530428   -8.9646474    526.09315 0.0098276386 0.0082944496           12 
 4462000   0.53738608   -8.9611257    525.23625 0.0098094324 0.0082914654           23 
 4463000   0.54829675   -8.9943673    524.37279  0.009791112 0.0082884813           11 
 4464000    0.5305527   -8.9719867    524.63401  0.009793795 0.0082854986           10 
 4465000   0.55230957   -8.9582323    525.36784 0.0098052976 0.0082825178           15 
 4466000   0.53865882   -8.9666273    525.84695 0.0098120419 0.0082795402           16 
 4467000   0.53230072   -8.9737285    524.85859 0.0097914072 0.0082765634           16 
 4468000   0.53362094    -8.973124    525.40553 0.0097994167 0.0082735898           11 
 4469000   0.54293505   -8.9747975    524.64041 0.0097829569 0.0082706175           15 
 4470000   0.52679122   -8.9849919    524.69435 0.0097817739 0.0082676456           18 
 4471000   0.53610603   -8.9796351    525.08202 0.0097868116 0.0082646753           15 
 4472000   0.52066436   -8.9784095    524.72396  0.009777951 0.0082617039           13 
 4473000   0.54422387   -8.9620258    525.16143 0.0097839151 0.0082587332           14 
 4474000    0.5440072   -8.9674057    525.10903 0.0097807524 0.0082557674           11 
 4475000    0.5437483   -8.9841001    524.93872 0.0097753951 0.0082527995           15 
 4476000   0.53816722    -8.977654    525.14717  0.009777092 0.0082498322           10 
 4477000   0.53542981   -8.9775447    525.04984 0.0097730965 0.0082468702            9 
 4478000   0.52953421   -8.9708089    525.31006 0.0097757566 0.0082439123           19 
 4479000   0.53481779   -8.9822425    525.18551 0.0097712568  0.008240953           10 
 4480000    0.5418048   -8.9641861    524.60951 0.0097583614 0.0082379921           15 
 4481000    0.5383544   -8.9736295    525.24513 0.0097680044 0.0082350335            9 
 4482000   0.53515677   -8.9780848    525.05526 0.0097622947 0.0082320769           14 
 4483000   0.53295127   -8.9638973    524.87092 0.0097566904 0.0082291208           11 
 4484000   0.54453776   -8.9841413    525.37954 0.0097639671 0.0082261667           10 
 4485000   0.53468141   -8.9812581    525.27974 0.0097599358 0.0082232142           16 
 4486000   0.53904566    -8.971254    525.43329 0.0097606124 0.0082202649           11 
 4487000    0.5230769   -8.9605801    524.86114 0.0097478111 0.0082173158           11 
 4488000   0.53311154   -8.9795524    523.36209 0.0097178047 0.0082143655            9 
 4489000   0.52775522   -8.9808499    524.46291 0.0097360753 0.0082114196           15 
 4490000    0.5501918   -8.9728103    524.47444 0.0097341211 0.0082084717           15 
 4491000   0.54798818   -8.9911579     525.4491 0.0097500391 0.0082055272           15 
 4492000   0.52692649   -8.9893824    524.86375 0.0097370093 0.0082025822           13 
 4493000   0.52144401   -8.9750454    524.80248 0.0097337058 0.0081996393           10 
 4494000   0.53359196   -8.9842641     525.1714 0.0097383807 0.0081966945           19 
 4495000   0.52640577   -8.9740835    524.96483 0.0097323847 0.0081937567           14 
 4496000   0.53071782   -8.9735579    524.61095 0.0097236609 0.0081908214           14 
 4497000   0.52682745   -8.9770243      525.019 0.0097290601  0.008187883           14 
 4498000   0.52448969   -8.9714482    525.44668 0.0097348208 0.0081849468            9 
 4499000   0.53332304   -8.9981049    525.54828 0.0097345387 0.0081820147           21 
 4500000    0.5356292   -8.9785955    524.26799 0.0097086665 0.0081790796            7 
 4501000   0.51905565   -8.9887062    525.44887 0.0097283727 0.0081761488           19 
 4502000   0.53738254   -8.9856124    525.26042 0.0097227236 0.0081732216           15 
 4503000   0.53711659   -8.9999439    524.92334 0.0097143264  0.008170295           14 
 4504000    0.5256087    -8.992336    524.40011 0.0097024888  0.008167369            5 
 4505000   0.52417836   -8.9799964    524.45138 0.0097012833 0.0081644412           10 
 4506000   0.53606631   -9.0016877    524.54501  0.009700862 0.0081615163           19 
 4507000   0.52739233   -8.9949972    524.76883  0.009702848  0.008158594            8 
 4508000   0.54220205   -8.9782747    524.81703 0.0097015866 0.0081556751           11 
 4509000   0.52323398   -8.9783255    524.73115 0.0096978478 0.0081527562            9 
 4510000   0.52967576   -8.9859433    525.87095 0.0097167581 0.0081498407            8 
 4511000   0.52364481    -8.996736    524.35173 0.0096865391 0.0081469235           10 
 4512000   0.51582179   -8.9988418    524.30421 0.0096835145 0.0081440063           15 
 4513000    0.5270994   -8.9958439    523.97265 0.0096752466 0.0081410896           11 
 4514000   0.53703651   -8.9933783    524.72553 0.0096870021 0.0081381764            8 
 4515000   0.52782755   -8.9831678    524.75958 0.0096854851 0.0081352618           18 
 4516000   0.53358642   -8.9834913    525.47641  0.009696568 0.0081323505           10 
 4517000   0.52924615   -9.0124439     524.3981 0.0096745277 0.0081294405           19 
 4518000   0.53710782   -8.9977235    524.78854 0.0096795879 0.0081265314           14 
 4519000   0.53492929   -8.9994405    524.97682 0.0096809179 0.0081236241           15 
 4520000    0.5362445   -8.9940999    524.11655 0.0096629157 0.0081207188           15 
 4521000    0.5421098   -9.0016783    524.26612 0.0096635354 0.0081178144           15 
 4522000   0.51998706   -8.9807172    523.62207 0.0096495295 0.0081149119            9 
 4523000   0.53274074   -8.9947242    524.99714 0.0096727309 0.0081120066           20 
 4524000   0.51926608   -8.9878759    524.83838 0.0096676683  0.008109106           15 
 4525000   0.53698885   -8.9741751    524.65803 0.0096622105 0.0081062086            9 
 4526000   0.52594967   -8.9967422     525.1302 0.0096687693 0.0081033125           20 
 4527000   0.52387757    -8.996765    525.22179 0.0096683195 0.0081004168           13 
 4528000   0.52394415   -8.9965681    525.44085 0.0096702159  0.008097524           12 
 4529000    0.5292097   -8.9768353    523.94629 0.0096405809 0.0080946306           13 
 4530000   0.51890943   -9.0030084    524.31435 0.0096452236  0.008091742           11 
 4531000   0.52585064   -8.9784455    524.60106  0.009648368 0.0080888515           17 
 4532000   0.52185861   -8.9858604    524.95538 0.0096527541 0.0080859625           10 
 4533000   0.54272515   -8.9765107    524.54126 0.0096430116 0.0080830737           17 
 4534000   0.53104267   -8.9725275    524.81461 0.0096459089 0.0080801887           19 
 4535000   0.52312065   -9.0051762    524.46067  0.009637278 0.0080773033           11 
 4536000   0.53668091   -9.0012058    523.68763 0.0096209515 0.0080744189           15 
 4537000   0.51810149   -8.9634971    525.34134 0.0096492053 0.0080715341           19 
 4538000   0.52076078   -8.9920364    525.03778 0.0096415047 0.0080686518           16 
 4539000   0.52308204   -8.9982804    524.48856 0.0096292972 0.0080657685           15 
 4540000   0.51446773   -8.9856177      524.568 0.0096286344 0.0080628857           15 
 4541000   0.53125349   -8.9815353    524.48778 0.0096250419 0.0080600061           13 
 4542000   0.53317031   -8.9926128    524.36783  0.009620722 0.0080571254           14 
 4543000   0.51657815   -8.9871203     524.7499 0.0096256127 0.0080542506           10 
 4544000   0.51810411   -8.9999287    524.64301 0.0096215341 0.0080513784           11 
 4545000   0.52954543   -8.9797039    524.67992 0.0096200938 0.0080485055            6 
 4546000   0.51975982   -8.9830317    524.63398 0.0096171356 0.0080456334           10 
 4547000   0.51921335   -8.9914977    524.37405 0.0096102567 0.0080427601           20 
 4548000   0.51433647   -8.9621685    524.66778 0.0096135257 0.0080398914           17 
 4549000   0.52129934     -8.99914    524.32079 0.0096050559  0.008037027           17 
 4550000   0.53353429   -8.9913073     525.3584 0.0096219487 0.0080341623           14 
 4551000   0.52408867   -8.9809246    524.64347 0.0096067433  0.008031297           11 
 4552000   0.53357217   -8.9858587    524.74614 0.0096065125 0.0080284344           10 
 4553000   0.53016124   -8.9947403    524.77102  0.009604858 0.0080255748           12 
 4554000   0.52305906   -8.9831085    525.06895 0.0096082008 0.0080227165           13 
 4555000   0.51979842    -8.978919    524.90248 0.0096030458 0.0080198584           12 
 4556000   0.51438234   -9.0013694    524.77408 0.0095985893 0.0080170012           15 
 4557000   0.51350608   -9.0117078    524.17747  0.009585573 0.0080141448           23 
 4558000   0.51829521   -9.0072444    524.34971  0.009586619 0.0080112877           12 
 4559000   0.52865446   -8.9943483    524.08997 0.0095797685 0.0080084328            7 
 4560000   0.51535876   -9.0027904    525.01802 0.0095946275 0.0080055795            9 
 4561000    0.5190011   -9.0055037    524.51609 0.0095833532 0.0080027232           10 
 4562000   0.52924887   -9.0079597    523.89294 0.0095698696 0.0079998675           19 
 4563000    0.5234178   -8.9994493    524.74342 0.0095833045 0.0079970154           15 
 4564000   0.52478717   -9.0079808    524.01539 0.0095679117 0.0079941645           16 
 4565000   0.52674458   -8.9917456    524.23371 0.0095698012 0.0079913166           13 
 4566000   0.50576995   -9.0012639    524.46576 0.0095719404 0.0079884674           14 
 4567000   0.51690256   -9.0012983    524.82371 0.0095763761 0.0079856189           17 
 4568000   0.51542907   -9.0126322    524.10254 0.0095611233 0.0079827714            7 
 4569000   0.52200053   -8.9939293    525.39751 0.0095826495 0.0079799265           15 
 4570000   0.51451506   -9.0161714     523.5413  0.009546705 0.0079770863            9 
 4571000   0.52531964   -9.0084024    524.29694 0.0095583923 0.0079742443           11 
 4572000   0.52167981   -9.0060571    524.94347 0.0095680859 0.0079714068           23 
 4573000   0.52024681   -8.9934657    525.04993 0.0095679336 0.0079685702           11 
 4574000   0.51473787   -9.0008494    523.96435 0.0095460639 0.0079657329           19 
 4575000   0.52289198   -9.0109682    524.64957 0.0095564585  0.007962898           13 
 4576000   0.52201201   -9.0009827    524.52037 0.0095520173 0.0079600641           22 
 4577000   0.50968972   -9.0055094    525.13921 0.0095611974 0.0079572333           14 
 4578000   0.52178668   -9.0033416    524.45048  0.009546572 0.0079544043           15 
 4579000   0.52014453   -9.0157722    524.86579 0.0095520454 0.0079515764           25 
 4580000   0.52222142   -9.0048692    524.32088 0.0095400451 0.0079487512           30 
 4581000   0.51219549   -9.0084102    524.94891 0.0095493872 0.0079459285           15 
 4582000   0.51614909   -8.9837682    524.61642  0.009541256 0.0079431027           15 
 4583000   0.51518333   -9.0068146    524.07646 0.0095293559 0.0079402778           16 
 4584000   0.51647601   -8.9890522     524.6837 0.0095383162 0.0079374558           19 
 4585000   0.51952067   -8.9996959    524.31058 0.0095294544 0.0079346335           15 
 4586000   0.51937964   -9.0154185    523.72451 0.0095167268 0.0079318135           18 
 4587000   0.53002554   -9.0117584    524.18907 0.0095230919 0.0079289955           19 
 4588000    0.5202463   -9.0199733    523.60857 0.0095104725 0.0079261768           13 
 4589000   0.51715948    -9.018271    524.13503 0.0095179602 0.0079233599           24 
 4590000   0.49914335   -9.0008479    524.59522 0.0095242415 0.0079205444           16 
 4591000     0.517285   -9.0086251    524.16415 0.0095143423 0.0079177299           16 
 4592000   0.51094139   -9.0194561    523.84991 0.0095065678 0.0079149151           13 
 4593000   0.52070677   -9.0156408    524.18949 0.0095106591 0.0079121021           17 
 4594000   0.50881003    -9.011923      524.256 0.0095097954 0.0079092917           20 
 4595000   0.51153579   -9.0015812    524.75021 0.0095166887  0.007906483           14 
 4596000   0.50293554   -9.0128155    525.78725 0.0095334213 0.0079036738           15 
 4597000   0.50810714   -9.0183457    524.20127 0.0095025972 0.0079008672            8 
 4598000    0.5212507   -9.0012575    524.05251 0.0094978344 0.0078980586           11 
 4599000   0.51292149   -9.0259945    524.38366 0.0095017695 0.0078952545            7 
 4600000   0.51870808    -9.014093    523.62479 0.0094859563 0.0078924511           11 
 4601000   0.51669817   -9.0000623    524.45811 0.0094989877 0.0078896492           12 
 4602000   0.52366147   -9.0047819    523.66766 0.0094826102 0.0078868484           12 
 4603000   0.51098933   -9.0092515    523.57601 0.0094788908 0.0078840475           16 
 4604000   0.49763482   -9.0074662    524.46981 0.0094930099 0.0078812484            7 
 4605000   0.52451847   -9.0143507    524.94404 0.0094995302 0.0078784505           17 
 4606000   0.52391239   -9.0227827    523.46324 0.0094706767 0.0078756508           12 
 4607000   0.50841048   -9.0082618    523.84568 0.0094755387  0.007872854           14 
 4608000   0.50583141   -9.0174138     523.6127 0.0094692691 0.0078700603           11 
 4609000   0.51635572   -9.0076518    524.29405 0.0094795337 0.0078672639           13 
 4610000   0.52060395   -9.0172189    524.84535 0.0094874431 0.0078644728           15 
 4611000    0.5098111     -9.02419    524.46806 0.0094785669 0.0078616817           12 
 4612000   0.52259675   -8.9831279    524.25443 0.0094726516 0.0078588942            7 
 4613000   0.52374778   -9.0057116    524.40557 0.0094733285 0.0078561058           10 
 4614000   0.52057831    -9.004471    524.08058 0.0094654057 0.0078533176           16 
 4615000   0.51747753   -9.0115484      523.848 0.0094591549 0.0078505312            5 
 4616000   0.51194512   -9.0146624    524.90772  0.009476237 0.0078477486           12 
 4617000   0.52171064    -9.008614    523.77192 0.0094536842 0.0078449669            9 
 4618000   0.51806188   -9.0168821    524.02049 0.0094561226 0.0078421859           13 
 4619000   0.52152344   -9.0234414    523.91941 0.0094522517 0.0078394065           24 
 4620000   0.50745396    -9.028293    524.04438 0.0094524599 0.0078366288           12 
 4621000   0.50963173   -9.0256591     523.8167 0.0094463085 0.0078338484           21 
 4622000   0.51247025   -9.0327848    524.53892 0.0094572861 0.0078310729            7 
 4623000   0.51069248   -9.0214005    524.12965 0.0094478631  0.007828297           18 
 4624000   0.51259237   -9.0147533    523.11575 0.0094275474 0.0078255244           13 
 4625000   0.51181228   -9.0238554    524.41414 0.0094489034  0.007822751            7 
 4626000   0.50195392    -9.021256    524.15819 0.0094422501 0.0078199785            7 
 4627000   0.51643434   -9.0256414    524.13704 0.0094398285  0.007817204           13 
 4628000   0.52333262   -9.0155743    524.57519 0.0094456783 0.0078144386            7 
 4629000   0.52547765   -9.0206144    524.25522 0.0094378776  0.007811671            6 
 4630000   0.51428587   -9.0165552    523.71977 0.0094262017 0.0078089033            9 
 4631000   0.50134998   -9.0116513    524.37901 0.0094360292 0.0078061374           10 
 4632000   0.50249785   -9.0206892    524.01286 0.0094274047 0.0078033722           15 
 4633000      0.50792   -9.0387187    524.06036 0.0094262241 0.0078006077           12 
 4634000   0.51064841    -9.017404    523.99942 0.0094230942 0.0077978469           13 
 4635000   0.50879846   -9.0213753    523.40484  0.009410371 0.0077950839           12 
 4636000   0.51845915   -8.9996739    524.13766 0.0094215138 0.0077923258           16 
 4637000    0.5131328   -9.0218152    523.77064 0.0094128862 0.0077895709           18 
 4638000   0.52035143   -9.0428467    523.59578 0.0094077148 0.0077868133           17 
 4639000   0.52300789   -9.0311973    523.50791 0.0094041084 0.0077840577           21 
 4640000   0.51695978   -9.0181232    523.45034 0.0094010478 0.0077813008           15 
 4641000   0.50775334   -9.0130153    523.46156 0.0093992236 0.0077785464           21 
 4642000   0.50083825    -9.033498    523.83263 0.0094038602 0.0077757957           11 
 4643000   0.50658612   -9.0385735     523.6128 0.0093978893 0.0077730432            7 
 4644000   0.50863316   -9.0316777    524.06801  0.009404034 0.0077702906           12 
 4645000   0.51553684   -9.0022322    525.06678 0.0094199279 0.0077675457           11 
 4646000   0.50719385    -8.997637    523.61644 0.0093918863 0.0077647994           23 
 4647000   0.52013771   -9.0205271    524.42945 0.0094044446 0.0077620548           17 
 4648000   0.50297598   -9.0145392     525.3011 0.0094180489 0.0077593125           12 
 4649000    0.5105726   -9.0155881    523.78233 0.0093887992  0.007756569           15 
 4650000   0.51109916   -9.0170888    524.85901 0.0094060755  0.007753827           17 
 4651000   0.51436771   -9.0304494    524.01778 0.0093889805 0.0077510855           21 
 4652000   0.51566103   -9.0132063    524.00689 0.0093867671   0.00774835           18 
 4653000   0.49684931    -9.037625    524.80883 0.0093991123 0.0077456126           15 
 4654000   0.50646562   -9.0191803    523.69229 0.0093771001 0.0077428788           14 
 4655000   0.50834858   -9.0265823    523.40827 0.0093700012 0.0077401424           15 
 4656000   0.51723063   -9.0201913    524.43637 0.0093863897 0.0077374087           14 
 4657000   0.50121556   -9.0504895    523.61069 0.0093695993 0.0077346764           18 
 4658000   0.50307307   -9.0312377    523.98055 0.0093742048 0.0077319438           11 
 4659000   0.50867288   -9.0211657    524.01195 0.0093727543  0.007729213           15 
 4660000   0.51172049   -9.0213999    523.59626 0.0093633094 0.0077264849           21 
 4661000   0.50774188   -9.0279002    523.52025 0.0093599416 0.0077237585           12 
 4662000   0.49934263   -9.0081022    524.38646 0.0093734174 0.0077210309           17 
 4663000    0.5069749   -9.0015595    523.82609 0.0093613927 0.0077183041           14 
 4664000   0.50186356   -9.0193146    524.13754 0.0093649502  0.007715582            6 
 4665000   0.50592917   -9.0262576    523.71183 0.0093553382  0.007712858           21 
 4666000   0.49864413   -9.0108403    523.72658 0.0093535966 0.0077101379           12 
 4667000   0.50410327   -9.0263302    524.30707 0.0093619575 0.0077074188           12 
 4668000   0.51326426   -9.0217365    523.71628 0.0093494051 0.0077046971           14 
 4669000   0.50452631   -9.0382878    523.86866 0.0093501224 0.0077019774           12 
 4670000   0.51379335   -9.0398443    524.33007 0.0093563539 0.0076992588           11 
 4671000   0.49638922   -9.0202998    523.97896 0.0093480867 0.0076965447           13 
 4672000   0.50481583   -9.0217191     523.6486 0.0093401933 0.0076938312            6 
 4673000   0.50213398   -9.0206545     523.2286 0.0093307047 0.0076911167           15 
 4674000   0.50384028   -9.0281786    524.23889  0.009346721 0.0076884066           10 
 4675000   0.50291575   -9.0450586    524.19258 0.0093438963 0.0076856945           15 
 4676000   0.50492268     -9.02492    523.31232 0.0093262105 0.0076829833           17 
 4677000    0.4971893   -9.0291998    523.93476 0.0093353069 0.0076802735            7 
 4678000   0.50666199   -9.0262323    524.15205 0.0093371821 0.0076775652           18 
 4679000   0.50965462   -9.0255421    523.96508 0.0093318564  0.007674862           17 
 4680000   0.51635932   -9.0130206    523.99922 0.0093304704 0.0076721581           16 
 4681000   0.49694437   -9.0333657    523.06267 0.0093118042 0.0076694567           10 
 4682000   0.50429541   -9.0323799     522.2512 0.0092953723 0.0076667544           20 
 4683000   0.49548963   -9.0319454     523.5663 0.0093167894 0.0076640515           18 
 4684000   0.49712303   -9.0095768    524.20519 0.0093261669 0.0076613515           15 
 4685000   0.49049117   -9.0348854    524.38593 0.0093273912 0.0076586548           18 
 4686000   0.50458984   -9.0407843    524.14131 0.0093210505 0.0076559567           17 
 4687000   0.50396124   -9.0361308    524.70144 0.0093290208 0.0076532576           19 
 4688000   0.50551335   -9.0228639    522.83744 0.0092938965 0.0076505605           18 
 4689000   0.50330014    -9.047822    522.95659 0.0092940319 0.0076478648           13 
 4690000   0.50698621   -9.0488161    523.83643 0.0093076836 0.0076451701            9 
 4691000   0.50375424   -9.0337375    523.04388 0.0092916201   0.00764248           23 
 4692000   0.50012016   -9.0274065    524.47002  0.009314969   0.00763979           18 
 4693000   0.49650362   -9.0302918    523.78189 0.0093007651  0.007637101           10 
 4694000   0.50167969   -9.0460137    523.20299 0.0092885064 0.0076344106            7 
 4695000   0.50694005   -9.0373394    523.90403 0.0092989712 0.0076317214           16 
 4696000   0.49807992   -9.0376227    523.86178 0.0092962411 0.0076290356           21 
 4697000   0.49966355   -9.0345612     523.3842 0.0092857888 0.0076263533           14 
 4698000   0.49882039   -9.0443561    522.72294 0.0092720828 0.0076236699           13 
 4699000   0.49985531   -9.0444001    523.72303 0.0092878455 0.0076209856            8 
 4700000   0.49976168   -9.0245449     523.5922 0.0092835497 0.0076183045            9 
 4701000   0.49488979   -9.0365883    523.21383 0.0092748675 0.0076156243           15 
 4702000   0.50491406   -9.0538538    523.22213 0.0092730421  0.007612946           12 
 4703000    0.5093687   -9.0295735    524.40226 0.0092919814 0.0076102699           17 
 4704000   0.49644724    -9.026201    522.96585 0.0092645593 0.0076075921           12 
 4705000   0.50184215   -9.0386661    523.35081 0.0092694085 0.0076049152           14 
 4706000   0.50854821   -9.0512316    524.50028 0.0092877936 0.0076022402           18 
 4707000   0.49661651   -9.0296133    523.14848  0.009261888 0.0075995678           20 
 4708000   0.50384502    -9.034996    523.17416 0.0092603752 0.0075968951           19 
 4709000   0.50310345   -9.0336564    522.92817 0.0092540555 0.0075942225           20 
 4710000   0.50406007   -9.0388809    523.13965 0.0092558325  0.007591552           11 
 4711000   0.49413218   -9.0250155    523.04591 0.0092522095 0.0075888798           10 
 4712000   0.49721058   -9.0363708    523.81376 0.0092638257 0.0075862137           18 
 4713000    0.4932517   -9.0579075    523.08434 0.0092489628 0.0075835475           14 
 4714000   0.50103417   -9.0345636    523.38929 0.0092523917 0.0075808811           16 
 4715000   0.49363516   -9.0354115    523.60058 0.0092541637 0.0075782163           12 
 4716000   0.48819375   -9.0318288    523.67113  0.009253448 0.0075755531           15 
 4717000   0.50306183   -9.0381017     522.7934 0.0092359798 0.0075728912           16 
 4718000   0.49487911   -9.0551168    522.86716 0.0092353249 0.0075702313           18 
 4719000    0.5020074   -9.0390123     523.7364 0.0092487179 0.0075675708           11 
 4720000   0.49185202   -9.0251344    523.52194 0.0092429721 0.0075649107           11 
 4721000   0.50404091   -9.0515467    522.81416 0.0092285208 0.0075622554           14 
 4722000   0.49397546   -9.0417183    523.87164 0.0092452287 0.0075596011           15 
 4723000   0.49873418   -9.0290151    522.89273 0.0092259992 0.0075569483           16 
 4724000   0.49854251   -9.0450122    523.32236  0.009231625  0.007554298           12 
 4725000   0.49974951   -9.0329588    523.00029 0.0092239909 0.0075516491           11 
 4726000   0.49630475   -9.0476959    523.60631 0.0092327252 0.0075489995           11 
 4727000   0.49980058   -9.0414712    522.93105 0.0092188677 0.0075463501           16 
 4728000   0.49515917   -9.0289909    523.96126 0.0092350757 0.0075437028           16 
 4729000   0.49920004   -9.0424812    522.97437 0.0092157323 0.0075410569           16 
 4730000   0.49938577   -9.0338465    523.01636 0.0092145237 0.0075384117           17 
 4731000    0.4837139    -9.040274    523.47179  0.009220598 0.0075357672           16 
 4732000    0.4798011   -9.0434219     523.1329 0.0092126813  0.007533123           13 
 4733000   0.49749835   -9.0607399    523.00438 0.0092084721 0.0075304804            9 
 4734000   0.49144287   -9.0640273    523.73299 0.0092193527 0.0075278406           13 
 4735000   0.49802288   -9.0405258    523.33297 0.0092103656 0.0075252027           17 
 4736000   0.49225469   -9.0508501     524.1042 0.0092219912  0.007522566           15 
 4737000   0.48501909   -9.0513856    523.40296 0.0092077081 0.0075199292           23 
 4738000   0.48973692    -9.035781     523.9178   0.00921482 0.0075172945           18 
 4739000   0.49325007   -9.0489768    523.20367 0.0092003177 0.0075146598           14 
 4740000   0.49464392   -9.0296944      522.953 0.0091939697  0.007512026            9 
 4741000   0.49414324   -9.0475248    524.05497    0.0092114 0.0075093972           11 
 4742000   0.50254467   -9.0428561    522.74317 0.0091864047 0.0075067672           15 
 4743000   0.49099819   -9.0400671    523.79505 0.0092029491 0.0075041381            9 
 4744000   0.51043959   -9.0344678    523.93278 0.0092034286 0.0075015139           11 
 4745000   0.49149723   -9.0441376     523.8445 0.0091999385 0.0074988867           17 
 4746000    0.4950155   -9.0487404    522.90096 0.0091814327 0.0074962604           18 
 4747000   0.50318875   -9.0427789    523.31243 0.0091867219 0.0074936386           14 
 4748000   0.49200481   -9.0548799    523.86836 0.0091945443 0.0074910149           14 
 4749000   0.49341313   -9.0560325    522.37817 0.0091664591 0.0074883931            8 
 4750000   0.49028985    -9.041608    523.05886 0.0091764712 0.0074857729            8 
 4751000   0.49308704   -9.0371635    523.29456 0.0091786739  0.007483155           14 
 4752000   0.48691065   -9.0477241    522.97365 0.0091711147 0.0074805346           14 
 4753000   0.49940071   -9.0447822    523.19495 0.0091730652 0.0074779165           11 
 4754000   0.48271054   -9.0537255      522.307 0.0091555708 0.0074752976           16 
 4755000   0.48448237   -9.0466857    523.38834 0.0091725962  0.007472683           17 
 4756000   0.49079362   -9.0421328    523.79659 0.0091778208 0.0074700698           14 
 4757000   0.48948307   -9.0639725    523.22859 0.0091659412  0.007467459           17 
 4758000      0.48024   -9.0521837    522.90722 0.0091583862 0.0074648488           13 
 4759000   0.49070199    -9.045259    524.34542 0.0091816456 0.0074622372           22 
 4760000   0.48205281    -9.051666    523.49333 0.0091647992 0.0074596285           12 
 4761000   0.48491088   -9.0402929    522.56845 0.0091466858 0.0074570217           19 
 4762000   0.48935996   -9.0508929    523.53688 0.0091617121 0.0074544158           17 
 4763000    0.4903065    -9.046786    523.66669 0.0091620597  0.007451808           26 
 4764000   0.48624431   -9.0540921     522.9612  0.009147796 0.0074492036           24 
 4765000   0.49170284   -9.0374645    524.28564 0.0091690389 0.0074466015           18 
 4766000   0.49347559   -9.0325836    523.03394  0.009145229     0.007444           23 
 4767000   0.47326874   -9.0602455    522.95145 0.0091418686 0.0074413994           20 
 4768000   0.48699368   -9.0497891    522.80027  0.009137309 0.0074388001           18 
 4769000   0.48585984   -9.0563637    523.46725 0.0091470479 0.0074362015           27 
 4770000   0.48117511   -9.0471131    522.71829 0.0091320456  0.007433604           27 
 4771000   0.48488895   -9.0352306    523.80153 0.0091490521 0.0074310075           10 
 4772000   0.48194836    -9.043293    522.17309 0.0091186974 0.0074284115           13 
 4773000   0.48059105   -9.0483737     523.1021 0.0091330069 0.0074258187           20 
 4774000   0.49217205   -9.0327044    523.48132 0.0091377132 0.0074232253           16 
 4775000   0.47482518   -9.0478948      522.943 0.0091264049 0.0074206326           20 
 4776000   0.48513985    -9.070733    522.81187 0.0091222059 0.0074180421           27 
 4777000   0.49386152   -9.0649736     523.7191 0.0091361227 0.0074154527           20 
 4778000   0.49170234   -9.0615829     523.0933  0.009123296 0.0074128617           12 
 4779000    0.4878503   -9.0528612    522.50892 0.0091111968 0.0074102776           18 
 4780000   0.49243707   -9.0685897    522.09514  0.009102077 0.0074076911           18 
 4781000   0.47672486   -9.0550215    522.98388 0.0091156641 0.0074051031           26 
 4782000   0.47488438   -9.0429285    523.40478 0.0091210926 0.0074025169           14 
 4783000   0.48695508   -9.0662634    523.51112 0.0091210384 0.0073999329           17 
 4784000   0.49592233   -9.0523756    522.81727 0.0091070455 0.0073973493           11 
 4785000   0.48541562   -9.0574214     523.1687 0.0091112626  0.007394769           15 
 4786000   0.49154141   -9.0402935    523.38576 0.0091131382 0.0073921899           15 
 4787000   0.48819835    -9.054278    523.83937 0.0091191311 0.0073896104           12 
 4788000    0.4810132   -9.0583442    523.08808 0.0091041506 0.0073870314           10 
 4789000   0.48786483   -9.0536027    523.11018 0.0091026342 0.0073844547           16 
 4790000   0.48745879   -9.0429841     522.9433 0.0090978305 0.0073818798            8 
 4791000   0.48889979   -9.0611739    522.16468 0.0090823885 0.0073793067           12 
 4792000   0.47790554    -9.046262    522.89275 0.0090931544 0.0073767366           20 
 4793000   0.48413041   -9.0528758    523.16696 0.0090960248 0.0073741669           17 
 4794000   0.50489703   -9.0447496    524.17619 0.0091116707 0.0073716017           14 
 4795000    0.4759499   -9.0599125    523.06726 0.0090904981 0.0073690343            9 
 4796000   0.49956931   -9.0515567    522.31587 0.0090755469 0.0073664685           11 
 4797000   0.48732614   -9.0580871    523.24735 0.0090898366 0.0073639042           12 
 4798000   0.48663727   -9.0642242    523.41804 0.0090909067 0.0073613398           13 
 4799000   0.48049526    -9.055983    522.96964  0.009081226 0.0073587769           19 
 4800000   0.47507444   -9.0568759    523.09434 0.0090814989 0.0073562133           17 
 4801000   0.47712599   -9.0639786    523.54543 0.0090874372 0.0073536515           14 
 4802000   0.48361888   -9.0442023    523.27088 0.0090807802 0.0073510917           17 
 4803000   0.49252673   -9.0587148     521.8851 0.0090548459 0.0073485331           17 
 4804000   0.47659655   -9.0621419    523.20301 0.0090758224 0.0073459736           14 
 4805000   0.48105465   -9.0611117    522.45309 0.0090609277 0.0073434182           12 
 4806000   0.48356122   -9.0512379     522.9186  0.009067114 0.0073408637           19 
 4807000   0.48191493   -9.0453971    522.85963 0.0090642055 0.0073383102           16 
 4808000   0.47806687   -9.0549505    523.60511  0.009075241  0.007335758           12 
 4809000   0.47579869    -9.076115    522.19395 0.0090489006 0.0073332042           16 
 4810000   0.48674373   -9.0625748    522.68291 0.0090554904 0.0073306539           15 
 4811000   0.49067472   -9.0600415    523.10438 0.0090609088 0.0073281046           19 
 4812000   0.48215228   -9.0531447    522.60951 0.0090504556  0.007325556           13 
 4813000   0.47458365    -9.051492    523.28576  0.009060284 0.0073230099           22 
 4814000   0.48791567   -9.0734808    523.19927 0.0090569047 0.0073204624           23 
 4815000   0.48228094   -9.0666686     522.3167  0.009039749 0.0073179187           22 
 4816000   0.47827549   -9.0617262    522.85132 0.0090471228 0.0073153742            9 
 4817000    0.4801606   -9.0738955    522.68509 0.0090423689 0.0073128288           18 
 4818000   0.47705795   -9.0631701    523.04647 0.0090467426 0.0073102871           19 
 4819000   0.48779836   -9.0609659    522.48051 0.0090350784 0.0073077466           16 
 4820000   0.47747903   -9.0561131    522.81507  0.009038988  0.007305206           16 
 4821000   0.48604176   -9.0816588    523.10598 0.0090421417 0.0073026689           14 
 4822000   0.47700106    -9.073334    522.90505 0.0090367941 0.0073001334           13 
 4823000    0.4739339   -9.0683741    523.17762 0.0090396299 0.0072975963           20 
 4824000   0.46994952   -9.0580362    522.74353 0.0090302572 0.0072950594           17 
 4825000   0.48127944    -9.074275    523.13864 0.0090352096 0.0072925266           25 
 4826000   0.47496115    -9.054132    522.77382 0.0090270379 0.0072899962           13 
 4827000   0.47467918    -9.050257    523.41331  0.009036208 0.0072874652           10 
 4828000   0.48085565    -9.077488    522.92819  0.009025963 0.0072849364           16 
 4829000   0.48107968   -9.0677218    522.62093 0.0090187914 0.0072824064           21 
 4830000    0.4758488   -9.0732585    522.30169 0.0090114163 0.0072798788           19 
 4831000   0.48102214   -9.0682298    523.23546 0.0090256582  0.007277351           19 
 4832000   0.47982937   -9.0768962    523.17176 0.0090226918 0.0072748234           20 
 4833000   0.48713527   -9.0768898    522.23338 0.0090046447 0.0072722978           14 
 4834000   0.47370179   -9.0754655    523.22695 0.0090199103 0.0072697746           16 
 4835000   0.47537463   -9.0681359    523.58591 0.0090242315 0.0072672524           10 
 4836000    0.4852102   -9.0670632    523.19278 0.0090155911 0.0072647328           14 
 4837000   0.48377258   -9.0691979    522.92314 0.0090090818 0.0072622115           19 
 4838000   0.48384263   -9.0775036     523.0785 0.0090098956 0.0072596921           20 
 4839000   0.48314819   -9.0719996    522.49904 0.0089980548 0.0072571747           22 
 4840000   0.48836492   -9.0675556     523.6463 0.0090159486  0.007254658           12 
 4841000   0.47994767   -9.0727621    522.42376 0.0089930414 0.0072521423           21 
 4842000   0.47945883    -9.059185    522.53493 0.0089930973 0.0072496285           12 
 4843000   0.47472722   -9.0626973    522.57007 0.0089918451  0.007247115           24 
 4844000   0.49685809   -9.0529335      521.992 0.0089800441 0.0072446013           17 
 4845000   0.48031711   -9.0606782    523.48183 0.0090038155 0.0072420914           14 
 4846000   0.47828591   -9.0663266    523.16609 0.0089965279 0.0072395806           17 
 4847000   0.47432162   -9.0723947    522.22817 0.0089785464 0.0072370713           16 
 4848000   0.47742424   -9.0788472    523.10525 0.0089917706 0.0072345647           22 
 4849000   0.47532592   -9.0536063    523.36249 0.0089943372 0.0072320586           15 
 4850000   0.48372042    -9.085034    522.52767 0.0089781386 0.0072295528           15 
 4851000   0.46581169   -9.0713371    522.23706 0.0089712956 0.0072270481           13 
 4852000   0.47002553   -9.0557988    522.49932 0.0089739509 0.0072245438           17 
 4853000   0.48386971   -9.0727193    522.77046 0.0089767576 0.0072220415           22 
 4854000   0.48722151   -9.0705031    522.57373 0.0089715308 0.0072195397           19 
 4855000    0.4789886   -9.0685297    523.08113 0.0089783923 0.0072170424           21 
 4856000    0.4865908   -9.0596555    523.01284 0.0089753713 0.0072145441           18 
 4857000   0.48068874   -9.0658567    522.90236 0.0089716279 0.0072120466           16 
 4858000   0.47584046    -9.077865    522.24075  0.008958432 0.0072095521           17 
 4859000   0.47241247   -9.0843139    522.33939   0.00895828 0.0072070566           22 
 4860000   0.46764104   -9.0867962    522.57884 0.0089605424 0.0072045618           28 
 4861000    0.4786014   -9.0826354     522.7175 0.0089610763 0.0072020668           15 
 4862000   0.47101931   -9.0767185    522.50638 0.0089556146 0.0071995741           16 
 4863000    0.4723693   -9.0820491    522.74755 0.0089579058 0.0071970831           15 
 4864000   0.48015505   -9.0713916    522.23696 0.0089473164 0.0071945945           10 
 4865000   0.47562875   -9.0714176    521.90328 0.0089397615 0.0071921055           18 
 4866000   0.48542317   -9.0737859    521.75998 0.0089354702 0.0071896148           16 
 4867000   0.47080597   -9.0787011    522.56815 0.0089474719 0.0071871285           18 
 4868000   0.47686562   -9.0726056    522.49181 0.0089443271 0.0071846437           10 
 4869000   0.47566172   -9.0797765    523.16924 0.0089540843 0.0071821592           15 
 4870000    0.4669837   -9.0769437    522.58312 0.0089422164 0.0071796763           21 
 4871000   0.46828761   -9.0551485    522.78678 0.0089438648 0.0071771939           12 
 4872000   0.47390174   -9.0785673    522.52807 0.0089376038 0.0071747128           22 
 4873000   0.47018971   -9.0674596    522.53514 0.0089358907 0.0071722316           18 
 4874000   0.46503282   -9.0745099    523.31819 0.0089474455 0.0071697526           19 
 4875000   0.47602474   -9.0751175    522.44524 0.0089306878 0.0071672751           20 
 4876000   0.47505031   -9.0695186    522.37253 0.0089276137 0.0071647971           16 
 4877000   0.47950181   -9.0794907    522.06855 0.0089205891 0.0071623213           10 
 4878000   0.46716466   -9.0762418    522.34123 0.0089234186  0.007159847           16 
 4879000   0.46207256   -9.0855669    522.30194 0.0089209185 0.0071573744           14 
 4880000   0.47483384   -9.0820283    521.73994 0.0089094935 0.0071549017           15 
 4881000   0.47533878   -9.0821407    522.12894 0.0089143096 0.0071524306           21 
 4882000   0.46702059   -9.0866175    522.69738 0.0089221865 0.0071499596           18 
 4883000   0.46764531   -9.0791195    521.93887 0.0089074147 0.0071474917           16 
 4884000   0.46389753   -9.0797014    522.49215 0.0089150312  0.007145024           20 
 4885000   0.47942328   -9.0823534    522.76468 0.0089178554 0.0071425565           14 
 4886000   0.46479704    -9.074189    522.18466 0.0089061377 0.0071400915           10 
 4887000   0.47759681   -9.0779313    522.89213  0.008916379 0.0071376272           19 
 4888000   0.46904554   -9.0782446     522.6155 0.0089098388 0.0071351648            9 
 4889000   0.45442527   -9.0621322    521.37643 0.0088868963 0.0071327032           19 
 4890000   0.47904134   -9.0892242    522.96228 0.0089121043 0.0071302426           11 
 4891000   0.46171476   -9.0798936    522.95272 0.0089101192 0.0071277839           12 
 4892000   0.46738668   -9.0698035    522.62307 0.0089026824 0.0071253265            8 
 4893000   0.46130911   -9.0706682    521.72185 0.0088855142 0.0071228684           14 
 4894000   0.47312966   -9.0884291     522.7317  0.008900894 0.0071204108           16 
 4895000   0.46443899   -9.0810678    522.49329 0.0088950169 0.0071179551           10 
 4896000   0.47147425   -9.0618732    522.50666 0.0088934276 0.0071155008           10 
 4897000   0.46053588   -9.0807277     522.5765 0.0088927999 0.0071130469           16 
 4898000     0.468479   -9.0745056    522.23275 0.0088851359 0.0071105942           22 
 4899000   0.47365879   -9.0928907    522.05558 0.0088803086 0.0071081416           11 
 4900000   0.46902884   -9.0757796     522.6463 0.0088885425 0.0071056881           15 
 4901000   0.47787694   -9.0806104    522.18722  0.008878923 0.0071032398           16 
 4902000   0.47029146    -9.070206    521.91207 0.0088724342 0.0071007918           19 
 4903000   0.46346289   -9.0792826    520.92631 0.0088538703 0.0070983445           13 
 4904000   0.46885753   -9.0896068    522.32578 0.0088758459 0.0070958987           15 
 4905000   0.46372487   -9.0579098    521.54648 0.0088607964  0.007093451           14 
 4906000    0.4804626   -9.0681853    522.35553 0.0088727329 0.0070910081           13 
 4907000   0.46372198   -9.0738026    522.72639 0.0088772229 0.0070885674           22 
 4908000   0.47379059   -9.0654866    522.01801 0.0088633864 0.0070861258           16 
 4909000   0.48601913   -9.0903062    522.05652 0.0088622347 0.0070836857           11 
 4910000   0.46166635   -9.0724758    521.94504 0.0088585377 0.0070812467            7 
 4911000   0.45931209   -9.0816528    522.52315 0.0088665436 0.0070788104           14 
 4912000   0.46618418   -9.0812705    522.33361  0.008861523  0.007076372           14 
 4913000   0.46699875   -9.0797358    522.74283 0.0088666604 0.0070739344           28 
 4914000    0.4719332   -9.0916694     522.2594 0.0088566579 0.0070714979           17 
 4915000   0.46754097   -9.0930469    522.77798 0.0088636484 0.0070690633           18 
 4916000   0.45807065     -9.07406    522.18375 0.0088517723 0.0070666305           12 
 4917000   0.46509398   -9.0784597    521.85034 0.0088443214 0.0070641983           19 
 4918000   0.46293239   -9.0965119    522.08492  0.008846498 0.0070617665           16 
 4919000    0.4473631   -9.0776735    522.14128 0.0088456542 0.0070593357           21 
 4920000   0.46484774   -9.0804574    521.72051 0.0088367294 0.0070569063           17 
 4921000   0.45998863   -9.0835393    522.01763 0.0088399653 0.0070544754            9 
 4922000    0.4771671   -9.0875491    521.98592 0.0088376325 0.0070520497           15 
 4923000    0.4701639   -9.0863045    522.60799 0.0088463673 0.0070496241           10 
 4924000   0.45913341   -9.0805173    521.25872 0.0088217357 0.0070472004           13 
 4925000   0.46219876    -9.089925    522.43996 0.0088399316  0.007044777           18 
 4926000   0.46392086   -9.0817762    522.52208 0.0088395263 0.0070423545           12 
 4927000   0.46741064   -9.0757291    521.90914 0.0088273652  0.007039934           14 
 4928000   0.46818323   -9.1033574    521.76693 0.0088231692 0.0070375146           16 
 4929000   0.46525476   -9.0873751    522.19107 0.0088285499  0.007035095           19 
 4930000   0.45984664   -9.0874285    522.96988 0.0088399236 0.0070326753           17 
 4931000   0.46076932   -9.0962549    522.04075 0.0088224286 0.0070302595           24 
 4932000   0.44805881   -9.0789105    522.56506 0.0088294988 0.0070278436           18 
 4933000   0.46280614   -9.0910116    521.73794 0.0088137363 0.0070254292           20 
 4934000   0.46730801   -9.0866828    522.50728 0.0088249439 0.0070230132           12 
 4935000     0.464977   -9.0872737    522.38258   0.00882105 0.0070206002           24 
 4936000    0.4600416   -9.0926888     521.5751 0.0088056304 0.0070181889           18 
 4937000   0.47388345   -9.0828162    521.81708 0.0088079312 0.0070157798           12 
 4938000   0.46782312   -9.0927845    522.45584 0.0088169272 0.0070133721           16 
 4939000   0.47150982   -9.1134166    521.69192 0.0088022528 0.0070109623           13 
 4940000    0.4598968   -9.0970813    522.07709 0.0088069684 0.0070085551           17 
 4941000   0.46136096   -9.1178964    521.58564 0.0087968974 0.0070061497           12 
 4942000   0.46303336   -9.0849232     521.6282 0.0087958351 0.0070037444           14 
 4943000   0.45484911   -9.1052891    522.08854 0.0088018163 0.0070013414           16 
 4944000   0.46400173   -9.1034593    522.42379 0.0088056869 0.0069989384           13 
 4945000   0.46628425   -9.1033291    523.07517 0.0088148832 0.0069965398           19 
 4946000   0.46435204   -9.0888281    521.38901 0.0087846914 0.0069941396           15 
 4947000   0.46413086   -9.0865674    522.33468 0.0087988457 0.0069917384           11 
 4948000   0.45835144   -9.0810204    522.06404 0.0087925094 0.0069893399           20 
 4949000   0.46010788   -9.0982933    522.36691 0.0087958326 0.0069869428           18 
 4950000   0.45782916   -9.0916957    521.85091 0.0087853689  0.006984548           14 
 4951000     0.465412   -9.0944118    521.80942 0.0087828961 0.0069821548           19 
 4952000   0.46340402   -9.0994922    521.52529  0.008776341 0.0069797601           19 
 4953000   0.45536588   -9.1075511    522.43053 0.0087897996 0.0069773678           18 
 4954000   0.45952457   -9.0896227    521.92397 0.0087795042 0.0069749754           10 
 4955000   0.46642355   -9.0855597    522.22949 0.0087828707 0.0069725848           16 
 4956000   0.46240954   -9.0993998    521.25389 0.0087646941 0.0069701956           17 
 4957000   0.45228473    -9.091401    522.21923 0.0087791546 0.0069678068           20 
 4958000   0.45952254   -9.0889695    522.21134 0.0087772512 0.0069654194           10 
 4959000   0.44859027   -9.1097372    522.03703 0.0087725521 0.0069630336            8 
 4960000   0.45675735   -9.0964211    521.88735 0.0087682686  0.006960648           16 
 4961000   0.45322493   -9.0872791    522.10224 0.0087701108 0.0069582629           18 
 4962000   0.45773288   -9.0964943    521.70311 0.0087616403 0.0069558803           15 
 4963000   0.45802903   -9.0864395    521.80086 0.0087615163 0.0069534977           20 
 4964000   0.46002198    -9.096785    522.09863   0.00876475 0.0069511155           26 
 4965000   0.45004398   -9.0777047    522.04688 0.0087621161 0.0069487346           17 
 4966000     0.461648   -9.0881626     522.0508 0.0087604175 0.0069463536           11 
 4967000   0.44730916   -9.0860146     521.6407 0.0087517735 0.0069439777           17 
 4968000   0.45541812   -9.1039113    522.23002 0.0087598971 0.0069416018           11 
 4969000   0.45680065   -9.0997385    521.80961 0.0087510836 0.0069392259            8 
 4970000   0.47189162   -9.0792557    521.87624   0.00875044 0.0069368523           12 
 4971000   0.46009561   -9.1013655    522.77999 0.0087638301 0.0069344803           19 
 4972000   0.44859548   -9.0950668    521.61003 0.0087424583 0.0069321079           16 
 4973000   0.45182633   -9.0978871    521.96947 0.0087467235  0.006929738           13 
 4974000   0.46278184   -9.1105265    521.27381   0.00873331  0.006927368           18 
 4975000   0.44848179   -9.0960889      522.536 0.0087526968 0.0069249997           16 
 4976000   0.45593404   -9.0978168    521.74143 0.0087376312 0.0069226339           15 
 4977000   0.45996663   -9.1082196    521.94425 0.0087392714  0.006920266           17 
 4978000   0.44689306   -9.1022911    522.45974 0.0087461453 0.0069178999           23 
 4979000   0.46091996   -9.0866262    521.78693 0.0087331279 0.0069155336           14 
 4980000   0.44886859   -9.0961645    521.97855 0.0087345808 0.0069131694           15 
 4981000   0.44923865   -9.1139316    521.40812 0.0087232839 0.0069108062           23 
 4982000    0.4514033   -9.1094162    521.40023 0.0087214009 0.0069084428           11 
 4983000   0.44842698   -9.1012763    522.68901 0.0087412036 0.0069060804           12 
 4984000   0.44503133    -9.092232    521.43428 0.0087184704 0.0069037181           17 
 4985000   0.45456664    -9.110414    521.67232 0.0087207008 0.0069013582           11 
 4986000   0.45257978   -9.0850951    521.28381 0.0087124584 0.0068989993           16 
 4987000    0.4575961   -9.0928307     521.4604 0.0087136622 0.0068966424            9 
 4988000   0.45527571    -9.108847    521.48688 0.0087123576 0.0068942853           15 
 4989000   0.44580332   -9.0975774    521.32943 0.0087079813 0.0068919282           18 
 4990000   0.45192547   -9.1082368     521.9119 0.0087159635 0.0068895726           15 
 4991000   0.45296193   -9.0958991    520.78634  0.008695424 0.0068872189            9 
 4992000   0.44911803   -9.1110371    522.23264 0.0087178259 0.0068848655           14 
 4993000   0.45752756   -9.1048074    521.57116 0.0087050398 0.0068825131           15 
 4994000   0.45466049    -9.102484    521.92436 0.0087091904 0.0068801617           12 
 4995000    0.4626273   -9.1065681    521.76523  0.008704792 0.0068778106           12 
 4996000   0.44891687   -9.1089243     521.7871 0.0087034144 0.0068754608           13 
 4997000    0.4601248   -9.1016277    521.04341 0.0086892703  0.006873113           14 
 4998000   0.44576789   -9.0847564    521.76617 0.0086995827 0.0068707653           15 
 4999000   0.44989923   -9.0963343    522.05678 0.0087026869 0.0068684191           11 
 5000000   0.44790859   -9.0992712     521.3601  0.008689335 0.0068660743           10 
 5001000   0.44986434   -9.0999593     521.7309 0.0086937762 0.0068637286           12 
 5002000   0.45526975   -9.1071895      520.908 0.0086783286 0.0068613867           15 
 5003000   0.44085168   -9.1168601    521.58748 0.0086879119  0.006859045           19 
 5004000   0.45468449   -9.1040798    520.89549 0.0086746518 0.0068567037           17 
 5005000   0.45379307   -9.1207027    521.22646 0.0086784292 0.0068543645           13 
 5006000   0.43778462   -9.1090484    521.17508 0.0086758403 0.0068520249           17 
 5007000   0.45579873     -9.10442    521.72371 0.0086832386 0.0068496872            9 
 5008000   0.44869674    -9.106819     521.3306 0.0086749634 0.0068473508           15 
 5009000   0.44449268   -9.1015193    521.73837 0.0086800155 0.0068450174           12 
 5010000   0.44521345   -9.0946657    521.26806 0.0086704601 0.0068426843           16 
 5011000   0.44341657   -9.1061522    521.22284 0.0086679777 0.0068403511            7 
 5012000   0.45296836   -9.1093085    521.53319 0.0086714084 0.0068380176           18 
Loop time of 12472 on 48 procs for 5000000 steps with 4000 atoms

Performance: 69275.359 tau/day, 400.899 timesteps/s
99.4% CPU use with 48 MPI tasks x no OpenMP threads

MPI task timing breakdown:
Section |  min time  |  avg time  |  max time  |%varavg| %total
---------------------------------------------------------------
Pair    | 881.74     | 940.2      | 1010.8     |  95.0 |  7.54
Neigh   | 83.007     | 86.364     | 89.767     |  17.8 |  0.69
Comm    | 787.14     | 856.43     | 929.11     | 107.3 |  6.87
Output  | 14.885     | 14.889     | 14.968     |   0.3 |  0.12
Modify  | 10442      | 10465      | 10489      |  11.1 | 83.91
Other   |            | 108.7      |            |       |  0.87

Nlocal:        83.3333 ave          94 max          77 min
Histogram: 5 7 13 1 10 6 2 1 2 1
Nghost:        2240.19 ave        2258 max        2221 min
Histogram: 2 4 2 4 10 8 3 10 2 3
Neighs:        15076.5 ave       16860 max       13442 min
Histogram: 4 3 5 5 13 4 5 4 1 4
FullNghs:      30154.3 ave       34036 max       27864 min
Histogram: 5 7 11 3 11 2 5 1 2 1

Total # of neighbors = 1447406
Ave neighs/atom = 361.85150
Neighbor list builds = 266583
Dangerous builds = 1

#clear
#
#next RN
#
#jump SELF
Total wall time: 3:27:55
