
units lj                  # Use reduced LJ style units
atom_style atomic         # Uncharged point particles
atom_modify map hash      # Needed for indexing of clusters etc
                          # Used to be able to find where atoms are in relation to each other.

lattice fcc 1.0 spacing 1 1 1
Lattice spacing in x,y,z = 1.5874011 1.5874011 1.5874011
region box block 0 10 0 10 0 10 units lattice
create_box 2 box
Created orthogonal box = (0.0000000 0.0000000 0.0000000) to (15.874011 15.874011 15.874011)
  3 by 4 by 4 MPI processor grid
create_atoms 1 box
Created 4000 atoms
  using lattice units in orthogonal box = (0.0000000 0.0000000 0.0000000) to (15.874011 15.874011 15.874011)
  create_atoms CPU = 0.003 seconds
set type 1 type/fraction 2 0.94 78393
Setting atom values ...
  3760 settings made for type/fraction
mass 1 1.0
mass 2 1.0
pair_style lj/cut  3.5
pair_modify tail  yes
pair_coeff 1  1  1.0  1.0   # Intearaction between 1 and 1 set with epsilon = 1 and sigma = 1
pair_coeff 1  2  1.5  0.8
pair_coeff 2  2  0.5  0.88

write_data data.0
System init for write_data ...
Neighbor list info ...
  update every 1 steps, delay 10 steps, check yes
  max neighbors/atom: 2000, page size: 100000
  master list distance cutoff = 3.8
  ghost atom cutoff = 3.8
  binsize = 1.9, bins = 9 9 9
  1 neighbor lists, perpetual/occasional/extra = 1 0 0
  (1) pair lj/cut, perpetual
      attributes: half, newton on
      pair build: half/bin/atomonly/newton
      stencil: half/bin/3d
      bin: standard
WARNING: Not all mixed pair coeffs generated from mixing. Use write_data with 'pair ij' option to store all pair coeffs. (../write_data.cpp:312)


#############################
#   M E L T   S Y S T E M   #
#############################

velocity all create 2.4 2750902 mom yes dist gaussian # Assign velocities
                                                    # Temperature 2.4, random number seed, zero linear momentum
                                                                                # Gaussian distribution

timestep 0.002   # simulation timestep
thermo 1000       # output thermodynamic data every 1000 steps bf 100

# Define a fix  in this case with index 1 applied to all
# particles in the simulation. This fix is for simulations
# in the anisotropic NPT ensemble. Note that we use the MTK
# correction.
fix 1 all npt temp 2.4 2.4 0.1 iso 5.68 5.68 0.5 mtk yes tchain 5 pchain 5 # Use NPT ensemble
                                                                         # Set temperature and pressure and damping
                                                                         # Numbers of thermostats in chain and in barostat
run 10000          # run for 10000 steps
Per MPI rank memory allocation (min/avg/max) = 3.642 | 3.644 | 3.648 Mbytes
Step Temp E_pair E_mol TotEng Press Volume 
       0          2.4   -2.9877486            0    0.6113514   -2.2401145         4000 
    1000     2.446306   -1.9190648            0    1.7494768    5.6156974    4100.6961 
    2000    2.4418764    -1.881261            0    1.7806379    5.9080182    4086.8022 
    3000     2.446174   -1.8981189            0    1.7702248    5.7627771    4098.5491 
    4000    2.4001513   -1.8619874            0    1.7373395     5.811544    4130.6806 
    5000    2.4275003   -1.8828017            0    1.7575385    5.7176608    4119.8232 
    6000     2.375575   -1.9631803            0    1.5992914    5.3813603    4105.1227 
    7000    2.4434238   -1.9203993            0      1.74382    5.6857183    4084.9333 
    8000    2.3593375   -1.8857551            0    1.6523664    5.6203066    4123.1835 
    9000    2.4269187   -1.9210821            0    1.7183859    5.5199749    4133.3703 
   10000     2.332627   -1.8837013            0    1.6143645    5.7010928    4101.8551 
Loop time of 2.45967 on 48 procs for 10000 steps with 4000 atoms

Performance: 702533.423 tau/day, 4065.587 timesteps/s
99.7% CPU use with 48 MPI tasks x no OpenMP threads

MPI task timing breakdown:
Section |  min time  |  avg time  |  max time  |%varavg| %total
---------------------------------------------------------------
Pair    | 1.0651     | 1.13       | 1.2744     |   3.6 | 45.94
Neigh   | 0.2054     | 0.21453    | 0.24045    |   1.3 |  8.72
Comm    | 0.7225     | 0.85309    | 0.93383    |   4.9 | 34.68
Output  | 0.00024371 | 0.00024767 | 0.00031039 |   0.0 |  0.01
Modify  | 0.20107    | 0.24692    | 0.27532    |   4.7 | 10.04
Other   |            | 0.01489    |            |       |  0.61

Nlocal:        83.3333 ave          97 max          75 min
Histogram: 3 7 8 7 11 7 2 1 1 1
Nghost:        1607.85 ave        1641 max        1572 min
Histogram: 3 1 3 7 6 14 3 4 4 3
Neighs:        9309.25 ave       11221 max        7916 min
Histogram: 3 2 9 6 15 8 2 0 2 1

Total # of neighbors = 446844
Ave neighs/atom = 111.71100
Neighbor list builds = 912
Dangerous builds = 236

# Equilibrate just above the melting temperature to avoid step fn in T

fix 1 all npt temp 1.25 1.25 0.1 iso 5.68 5.68 0.5 mtk yes tchain 5 pchain 5
run 2000
Per MPI rank memory allocation (min/avg/max) = 3.643 | 3.645 | 3.649 Mbytes
Step Temp E_pair E_mol TotEng Press Volume 
   10000     2.332627   -1.8837013            0    1.6143645    5.7010928    4101.8551 
   11000    1.2609766   -2.8682048            0  -0.97721287    5.6451762    3203.8536 
   12000    1.2556475   -2.8593642            0  -0.97636379    5.8595605    3190.7856 
Loop time of 0.593215 on 48 procs for 2000 steps with 4000 atoms

Performance: 582588.079 tau/day, 3371.459 timesteps/s
99.6% CPU use with 48 MPI tasks x no OpenMP threads

MPI task timing breakdown:
Section |  min time  |  avg time  |  max time  |%varavg| %total
---------------------------------------------------------------
Pair    | 0.25271    | 0.28426    | 0.31698    |   2.4 | 47.92
Neigh   | 0.036309   | 0.039765   | 0.04266    |   0.6 |  6.70
Comm    | 0.1844     | 0.21968    | 0.25683    |   3.1 | 37.03
Output  | 5.1241e-05 | 5.4766e-05 | 0.0001781  |   0.0 |  0.01
Modify  | 0.041861   | 0.044648   | 0.048124   |   0.8 |  7.53
Other   |            | 0.00481    |            |       |  0.81

Nlocal:        83.3333 ave          92 max          78 min
Histogram: 5 4 10 6 9 8 2 3 0 1
Nghost:        1910.40 ave        1942 max        1887 min
Histogram: 2 7 5 3 15 8 5 1 1 1
Neighs:        11986.2 ave       13633 max       10301 min
Histogram: 1 0 5 9 10 9 5 6 1 2

Total # of neighbors = 575339
Ave neighs/atom = 143.83475
Neighbor list builds = 140
Dangerous builds = 14

#############################
# L I N E A R  Q U E N C H  #
#############################

# Define solid atoms. This closely follows ten Wolde  Ruiz-Montero and Frenkel  Faraday Discuss  1996  104  93-110
# Compute components of the per-atom q6 vector
compute q6 all orientorder/atom degrees 1 6 components 6 nnn NULL cutoff 1.3 # compute the Q6 parameter.
                                                                             # Use all neighbours within 1.3 unit cell.

# get number of connections
compute coord_number all coord/atom orientorder q6 0.5

# An atom is solid if it has 8 or more connections (of a possible 14)
variable is_solid atom c_coord_number>=8
group solid dynamic all var is_solid    # Must be dynamic to update
dynamic group solid defined

# do clustering
compute cluster solid cluster/atom 1.3 # Create a cluster where all atoms within are solid and max 1.3 units from another member

# define chunks one chunk per cluster
compute clus_chunks solid chunk/atom c_cluster nchunk every compress yes  # Says which atoms are in which chunk

# count the size of each chunk
compute size_chunks solid property/chunk clus_chunks count


# Find the maximum entry in the vector of chunk sizes
variable max_n equal max(c_size_chunks)


# Thermo style which includes this variable
# thermo_style custom step temp pe vol v_max_n

thermo ${N}  # Print the thermo information every 100 steps
thermo 1000  

# Reset the npt fix at a lower temperature (below freezing)
fix 1  all npt temp  ${temp} ${temp}  0.1  iso  5.68  5.68  0.5  mtk yes tchain  5  pchain  5
fix 1  all npt temp  0.45 ${temp}  0.1  iso  5.68  5.68  0.5  mtk yes tchain  5  pchain  5
fix 1  all npt temp  0.45 0.45  0.1  iso  5.68  5.68  0.5  mtk yes tchain  5  pchain  5

dump dmp2 all dcd ${N} traj.dcd
dump dmp2 all dcd 1000 traj.dcd


compute msd all msd com yes
variable twopoint equal c_msd[4]/6/(step*dt+1.0e-6)
fix 9 all vector 10 c_msd[4]
variable fit equal slope(f_9)/6/(10*dt)
thermo_style custom step temp pe c_msd[4] v_twopoint v_fit v_max_n

fix 1 all npt temp 1.25 ${temp} 0.1 iso 5.68 5.68 0.5 mtk yes tchain 5 pchain 5
fix 1 all npt temp 1.25 0.45 0.1 iso 5.68 5.68 0.5 mtk yes tchain 5 pchain 5
run 500000 # 5000000  # Run for this many steps
Neighbor list info ...
  update every 1 steps, delay 10 steps, check yes
  max neighbors/atom: 2000, page size: 100000
  master list distance cutoff = 3.8
  ghost atom cutoff = 3.8
  binsize = 1.9, bins = 8 8 8
  4 neighbor lists, perpetual/occasional/extra = 1 3 0
  (1) pair lj/cut, perpetual
      attributes: half, newton on
      pair build: half/bin/atomonly/newton
      stencil: half/bin/3d
      bin: standard
  (2) compute orientorder/atom, occasional
      attributes: full, newton on
      pair build: full/bin/atomonly
      stencil: full/bin/3d
      bin: standard
  (3) compute coord/atom, occasional
      attributes: full, newton on
      pair build: full/bin/atomonly
      stencil: full/bin/3d
      bin: standard
  (4) compute cluster/atom, occasional
      attributes: full, newton on
      pair build: full/bin/atomonly
      stencil: full/bin/3d
      bin: standard
Per MPI rank memory allocation (min/avg/max) = 9.817 | 9.824 | 9.831 Mbytes
Step Temp PotEng c_msd[4] v_twopoint v_fit v_max_n 
   12000    1.2556475   -2.8593642 1.0215946e-29 7.0944066e-32 8.3333333e+20            3 
   13000    1.2516455   -2.8910053     1.098471 0.0070414802  0.093896766            2 
   14000    1.2525142   -2.8459625    2.3048848  0.013719552  0.098968012            2 
   15000    1.2079276   -2.8526844    3.4968811  0.019427116  0.098967414            1 
   16000    1.2494215   -2.8640072    4.6147714  0.024035267  0.097860113            2 
   17000    1.2280217    -2.873725    5.8106238  0.028483449  0.097437976            2 
   18000    1.2460609   -2.8652685    6.9849565  0.032337761  0.097462821            1 
   19000    1.2365586    -2.883822    8.1044631   0.03554589  0.097441223            1 
   20000     1.247224   -2.8729801    9.2650735  0.038604472   0.09720016            1 
   21000    1.2283281   -2.8812255    10.502075  0.041674902  0.097112533            1 
   22000    1.2346962   -2.9122397    11.416993  0.043246184  0.096868921            2 
   23000    1.2444104   -2.8899872    12.779952  0.046304173  0.096636741            2 
   24000    1.2415511   -2.8751617    13.897751  0.048256079  0.096837187            4 
   25000     1.240744   -2.8890988    14.945642  0.049818807  0.096627505            2 
   26000    1.2340003   -2.9050744    16.216276  0.051975242  0.096592633            1 
   27000    1.2382628   -2.8954592    17.596222  0.054309326  0.096819563            3 
   28000    1.2392679   -2.8967537    18.753318  0.055813446  0.097148623            1 
   29000    1.2274242   -2.8685901    19.747955  0.056746996  0.097165302            2 
   30000    1.2111593   -2.9024689    21.081783  0.058560507  0.097114885            2 
   31000    1.2413352   -2.8986411    22.231031  0.059760836  0.097211085            1 
   32000    1.2004972   -2.9076346    23.238298  0.060516401  0.097206524            3 
   33000    1.2158677   -2.9261459    24.148197  0.060980296  0.096989201            6 
   34000    1.2141677    -2.917239    25.195414  0.061753464  0.096715645            2 
   35000    1.2108058   -2.9098662    26.138207  0.062233824  0.096306235            1 
   36000    1.2243176   -2.9128067    27.255833  0.063092205  0.095977347            3 
   37000    1.2182853   -2.9139435    28.507239  0.064205492  0.095722841            1 
   38000    1.2215336   -2.9250968    29.525646  0.064749223   0.09550045            1 
   39000    1.1942416   -2.9368603    30.659225  0.065511164  0.095321291            2 
   40000    1.2052344   -2.8966326    31.816187  0.066283722  0.095146085            2 
   41000    1.1801975   -2.9272319    32.661196  0.066384544   0.09489662            3 
   42000    1.2011478   -2.9288562    33.978547   0.06741775  0.094675389            1 
   43000    1.2015634   -2.9311309    34.860675  0.067559448   0.09448037            1 
   44000    1.2185663   -2.9242857    36.183907  0.068530126  0.094348535            2 
   45000    1.1886497   -2.9350546    37.498141  0.069441001  0.094276546            1 
   46000    1.1950425   -2.9415789    38.739459  0.070180179  0.094227671            2 
   47000    1.2030894   -2.9211483    39.773861  0.070521029   0.09418859            2 
   48000    1.1917428   -2.9196675    40.806968  0.070845429   0.09416241            2 
   49000    1.1885984   -2.9303502     42.00955  0.071444812  0.094126076            1 
   50000    1.1715512   -2.9349397    43.048793  0.071747987  0.094075732            3 
   51000     1.181321   -2.9368338    44.060002  0.071993466  0.094039674            2 
   52000    1.1714804   -2.9193165    45.179017   0.07240227  0.093974713            1 
   53000    1.1881819   -2.9391262    46.167013  0.072589643   0.09390322            1 
   54000     1.193884   -2.9349925    47.156396  0.072772215  0.093787788            1 
   55000    1.1605305   -2.9490111    48.143409  0.072944558   0.09364427            2 
   56000    1.1940855   -2.9586231    49.114643  0.073087266   0.09348864            5 
   57000    1.2011286    -2.973165    50.493312  0.073820631  0.093344135            1 
   58000    1.1755725   -2.9673714    51.503096    0.0739987  0.093256807            2 
   59000    1.1711843    -2.959932    52.618761  0.074320283  0.093194772            3 
   60000     1.159289   -2.9622946    53.985773  0.074980239    0.0931437            2 
   61000    1.1713122    -2.990164    54.866846  0.074954707  0.093096252            2 
   62000    1.1703825   -2.9550374    55.981406  0.075243825  0.093023913            1 
   63000    1.1605427   -2.9631233    57.435341  0.075972672  0.092976148            2 
   64000    1.1433226   -2.9746138    58.069579  0.075611431   0.09293314            4 
   65000    1.1470284   -3.0091948    59.343909  0.076081934  0.092873513            3 
   66000    1.1567652   -2.9532184    60.563261  0.076468764  0.092870337            1 
   67000    1.1553891   -2.9451216    61.483309  0.076471777  0.092846047            1 
   68000     1.166229    -2.992333    62.426594  0.076503178  0.092787522            3 
   69000    1.1851841   -2.9657109    63.572706   0.07677863  0.092730523            2 
   70000    1.1664737   -2.9966961    64.156425  0.076376696  0.092640083            4 
   71000    1.1622622   -2.9733582    65.588909  0.076982287  0.092552153            1 
   72000    1.1323544   -3.0084893    66.786139  0.077298772  0.092486106            1 
   73000     1.126787   -2.9894068    67.524917  0.077083238  0.092416339            2 
   74000    1.1430285   -2.9912541    68.703226  0.077368497  0.092327305            2 
   75000    1.1579611   -2.9824067    69.661003  0.077401114  0.092245037            2 
   76000    1.1314246   -2.9975246    70.672422   0.07749169  0.092155773            1 
   77000    1.1557979   -2.9702429     71.81114  0.077717684  0.092076985            2 
   78000    1.1585527    -2.989741    72.359356  0.077307003  0.091985456            2 
   79000    1.1877842   -2.9874314    73.622275  0.077660627  0.091888145            2 
   80000    1.1423727    -3.026252    74.618946  0.077728069   0.09178721            3 
   81000    1.1296931   -2.9900029    75.691696  0.077872114  0.091672168            2 
   82000    1.1398361   -2.9858796    76.400521  0.077642806  0.091538641            1 
   83000    1.1795711   -2.9918637     76.72777  0.077035913  0.091387766            2 
   84000    1.1221769   -3.0193865    78.402544  0.077780301  0.091244052            3 
   85000    1.1164813    -3.019936    79.212169  0.077658989  0.091116025            3 
   86000    1.1280908     -2.96482    80.298807  0.077808921  0.090985343            1 
   87000    1.1276154   -2.9877198    81.899825  0.078448108  0.090880807            1 
   88000    1.1329498    -2.998448    82.547175  0.078169673  0.090773065            2 
   89000    1.1038741   -2.9982221    83.462415  0.078148328  0.090671506            2 
   90000    1.1021152    -3.008808    84.728366   0.07845219   0.09056546            1 
   91000    1.1324749   -3.0271826    85.628765   0.07841462  0.090464476            2 
   92000    1.1197714    -3.009831    87.195568  0.078981492  0.090380312            3 
   93000    1.0993395   -3.0349734    87.766882  0.078644159  0.090302661            4 
   94000    1.1318853    -3.046193    89.315475  0.079180385  0.090244158            2 
   95000    1.1403818    -3.002764    90.228873  0.079148134  0.090200695            1 
   96000    1.1145474   -3.0377353    91.570759  0.079488505   0.09014677            4 
   97000    1.1248787   -3.0423124    92.324715  0.079316765   0.09010287            1 
   98000    1.0888024   -3.0565231    94.305303  0.080191583  0.090076309            1 
   99000    1.1190065   -3.0238994    95.415696  0.080316242  0.090077029            2 
  100000    1.1017567   -3.0519171    95.932978  0.079944148  0.090065693            2 
  101000    1.1059597   -3.0492457    97.529216   0.08046965  0.090043821            2 
  102000    1.0888389   -3.0240934    97.958673  0.080031595  0.090010882            2 
  103000    1.1057021    -3.026173    98.906304  0.080021281  0.089967063            2 
  104000    1.0925596   -3.0777979    99.091019  0.079399854  0.089896597            3 
  105000    1.1190674   -3.0170832    100.42701  0.079703979  0.089824064            2 
  106000    1.1096015   -3.0513646    100.70921   0.07917391  0.089745277            3 
  107000    1.0954667   -3.0563314    102.17615  0.079576443  0.089661324            1 
  108000    1.0808097   -3.0719942    102.88781  0.079388744  0.089576475            1 
  109000     1.107148   -3.0086538    104.24168  0.079695471  0.089502666            2 
  110000    1.0753368   -3.0562576     104.8062  0.079398639  0.089413577            3 
  111000    1.0975043    -3.069998    105.20328  0.078981443  0.089305598            2 
  112000    1.0981534   -3.0702621    106.01696  0.078881666   0.08918539            1 
  113000    1.0725295   -3.0640719    107.07546  0.078964206    0.0890665            1 
  114000    1.0685103   -3.0430165      108.069  0.078997805  0.088946318            2 
  115000    1.0783099   -3.0791066    109.14337  0.079089397  0.088835224            2 
  116000    1.0914637    -3.087788    109.24565   0.07848107  0.088709224            2 
  117000    1.0865766   -3.0689027    110.55094  0.078739987  0.088574305            1 
  118000    1.0823163   -3.0482965    111.52863  0.078763156  0.088435135            2 
  119000    1.0781899   -3.0301382    111.20964  0.077877898  0.088278277            2 
  120000    1.0360173   -3.0525634    112.52631  0.078143269   0.08811401            2 
  121000    1.0767237   -3.0737319    113.48856  0.078160167  0.087952282            1 
  122000    1.0692071   -3.0897528    113.76066  0.077705367  0.087781216            2 
  123000    1.0763864   -3.0871871    113.81319  0.077109208  0.087600992            6 
  124000    1.0569689   -3.0917074    115.49505  0.077617639  0.087418899            2 
  125000    1.0722673   -3.0913123    115.38437  0.076922911  0.087229007            3 
  126000    1.0898913   -3.0682978    116.93868  0.077340396   0.08702961            3 
  127000     1.064831   -3.0956153    116.88373  0.076695362  0.086829218            1 
  128000    1.0761108   -3.1070576     117.6964   0.07662526  0.086628267            4 
  129000    1.0636417   -3.0852156    118.62567  0.076631572  0.086426787            3 
  130000    1.0471201   -3.1078443    120.28261  0.077104234   0.08623304            1 
  131000    1.0474768   -3.0939344    120.63637  0.076740695  0.086039526            2 
  132000    1.0706756   -3.0773963    121.07994  0.076439357  0.085850222            2 
  133000    1.0561653    -3.106395    122.06295  0.076480542  0.085665238            1 
  134000    1.0511548   -3.1056495    123.27218  0.076661801  0.085483796            2 
  135000    1.0550678   -3.1123928    124.19668  0.076664615  0.085309512            1 
  136000    1.0506806    -3.115604    125.08655  0.076646173   0.08514269            2 
  137000    1.0696955   -3.1167929    126.42438  0.076900477  0.084982634            1 
  138000     1.050819   -3.0933487     126.8113  0.076576875  0.084813663            4 
  139000    1.0405516   -3.1107252    127.57673  0.076484849  0.084651428            4 
  140000    1.0668084   -3.1117592     128.3952  0.076425716   0.08449088            3 
  141000    1.0236993    -3.100017    129.05791  0.076275359  0.084328333            1 
  142000    1.0427722   -3.1507999    129.41785   0.07594944  0.084161091            3 
  143000    1.0324073   -3.1524678    130.31881  0.075943363  0.083987458            3 
  144000    1.0467986   -3.1202547    131.23507  0.075946221  0.083818491            8 
  145000    1.0358039    -3.115331    131.51746  0.075584747  0.083644047            2 
  146000    1.0071963   -3.1307937    132.22894  0.075473141  0.083468761            2 
  147000    1.0346469   -3.1188053    133.52447  0.075694141  0.083297137            2 
  148000     1.047996   -3.1128396    133.76468  0.075317948  0.083123705            3 
  149000    1.0179173   -3.1371949    134.52512   0.07523776  0.082947943            1 
  150000    1.0315896   -3.1305936    135.36143  0.075200796  0.082770852            1 
  151000    1.0136722    -3.151324    135.89343  0.074996376  0.082599705            1 
  152000    1.0089304    -3.139258    136.74356  0.074969058  0.082429486            1 
  153000    1.0188745   -3.1682817    137.31373  0.074789611  0.082254372            6 
  154000    1.0126165   -3.1485185    138.15763   0.07476062  0.082089305            3 
  155000    1.0126989   -3.1738467    138.28866  0.074348743  0.081925717            4 
  156000    1.0156308   -3.1708964    139.83509  0.074698231  0.081765465            1 
  157000    1.0072621    -3.149579    140.16742  0.074398845  0.081600319            4 
  158000    1.0051901   -3.1448175    141.84591  0.074813243  0.081442019            1 
  159000   0.99687017   -3.1617302    142.03102  0.074439738  0.081281503            3 
  160000    1.0222867   -3.1737404    142.82518  0.074388116  0.081125166            2 
  161000    1.0090302   -3.1561854     143.9055  0.074485249  0.080974774            2 
  162000    1.0373109   -3.1606307    144.53869  0.074351176  0.080827866            2 
  163000    1.0317175   -3.1585347    145.06701  0.074165138  0.080680995            1 
  164000    1.0052866    -3.150961    145.66351  0.074016011  0.080535676            4 
  165000   0.99051619   -3.1866316    146.24357  0.073860391  0.080389477            6 
  166000   0.99856065   -3.1686629    147.71492  0.074154076   0.08023427            2 
  167000    1.0177423   -3.1702414    148.05566  0.073880068  0.080080987            5 
  168000    1.0052305   -3.1895598     148.2048  0.073514285  0.079924639            2 
  169000    1.0245552   -3.1906897    148.87031  0.073407452   0.07976433            2 
  170000   0.97024461   -3.1841803    149.93654  0.073498306  0.079609978            2 
  171000    1.0034992   -3.1647398    150.87323  0.073524968   0.07946183            1 
  172000   0.99497931   -3.1829794    151.08754  0.073201329  0.079307567            3 
  173000   0.99768734   -3.1686232    152.01183  0.073223426  0.079151204            3 
  174000   0.97857189   -3.1735038    152.30773  0.072944317  0.078994069            6 
  175000   0.99026451   -3.1797786    153.25492  0.072978533  0.078841424            4 
  176000   0.99189455   -3.1927981    154.09333  0.072960855  0.078687706            2 
  177000   0.99123791   -3.1967898    154.61284   0.07279324  0.078535749            2 
  178000   0.97616776   -3.2031214    154.57138   0.07236488  0.078380662            3 
  179000   0.96504171   -3.1659625    156.45864  0.072839217  0.078232773            1 
  180000   0.98977072    -3.203716    157.38792  0.072864776  0.078083875            2 
  181000   0.97841493   -3.2307171    157.30345  0.072423322  0.077933812            2 
  182000   0.96284395   -3.1925836    157.78266  0.072244808  0.077786373            3 
  183000   0.97888816    -3.200339    159.06807   0.07243537  0.077637692            2 
  184000   0.97867492      -3.1944    159.37233  0.072179496  0.077496037            2 
  185000   0.97689035   -3.2143749    160.56906  0.072328407  0.077346965            3 
  186000   0.96313419   -3.2262782    160.22712  0.071786344  0.077200724            4 
  187000   0.96802571   -3.1687951    161.32392  0.071891229  0.077052498            2 
  188000   0.97533968    -3.227427    161.48848  0.071581773  0.076904431            2 
  189000   0.94667031   -3.2203776    162.56154  0.071676164  0.076761046            4 
  190000   0.97284997   -3.2091551    162.82594  0.071414888  0.076614893            5 
  191000   0.94278884    -3.199736     163.1205  0.071169501  0.076466195            2 
  192000   0.94725403   -3.2241864     163.7513  0.071072614  0.076317214            3 
  193000   0.94869336   -3.2449792    164.95454  0.071223895  0.076169431            4 
  194000   0.97828359   -3.2279809     165.0563   0.07090047  0.076019112            2 
  195000   0.96675311   -3.2249667    165.94079  0.070914866  0.075874438            3 
  196000    0.9757927   -3.2201412    166.58141   0.07082543  0.075730975            4 
  197000   0.94341758   -3.2314983    167.12322  0.070695102  0.075591623            2 
  198000   0.92499322   -3.2398841    168.55943  0.070942522  0.075449803            3 
  199000   0.96463367   -3.2319398    168.87809  0.070719468  0.075309783            4 
  200000   0.95654584   -3.2363461     170.5201  0.071050043  0.075172371            3 
  201000   0.95995578   -3.2403375    170.55207  0.070709815  0.075035599            4 
  202000   0.96115571   -3.2704148    170.68957  0.070416491  0.074905312            2 
  203000   0.93195731    -3.253197    172.01333  0.070613024  0.074771946            4 
  204000   0.95310348    -3.262448    171.64931  0.070118182  0.074637593            4 
  205000    0.9366904   -3.2568668    172.18643  0.069994482  0.074503758            2 
  206000   0.93572086   -3.2454174    172.61724  0.069828982  0.074367754            2 
  207000   0.90979348    -3.274925    174.75946  0.070354052  0.074230858            4 
  208000   0.92041603   -3.2769881    174.25532  0.069813832    0.0740925            3 
  209000   0.94563455   -3.2597913    174.99163  0.069773378   0.07395245            2 
  210000   0.92489725   -3.2610293    174.56653  0.069272434   0.07381594            6 
  211000   0.93480117   -3.2733335    175.71191  0.069396487  0.073676973            2 
  212000   0.92513116   -3.2848772    176.50413  0.069380555  0.073540693            3 
  213000   0.91745032   -3.2822305    177.56698   0.06947065  0.073403902            3 
  214000   0.93808706   -3.2720588    178.01938  0.069322189  0.073269423            4 
  215000   0.93050537   -3.2651385    178.69717  0.069262469  0.073135618            5 
  216000   0.93312543   -3.2779464    178.96029  0.069043322  0.073007224            5 
  217000   0.90519853    -3.303034     180.5612  0.069339938  0.072876503            2 
  218000   0.91967774    -3.266232    180.75234  0.069094932  0.072743899            4 
  219000   0.92978215   -3.3007917    181.18848  0.068945388  0.072613576            3 
  220000   0.92338554   -3.2909242    181.43365  0.068724869  0.072479953            3 
  221000   0.92716666   -3.3127781     181.1283  0.068298757  0.072344789            2 
  222000   0.89970241   -3.2891498    182.16261  0.068379357  0.072206912            3 
  223000   0.90397576   -3.3159879    181.81202  0.067941711  0.072069112            3 
  224000   0.91199721   -3.2944112    183.77402  0.068368311  0.071933091            6 
  225000   0.91363652   -3.3061334    183.91265  0.068115796  0.071802827            4 
  226000   0.92396608   -3.2934679    184.56059  0.068053314  0.071669238            5 
  227000   0.91194882   -3.2970434    184.64253  0.067783601  0.071536536            4 
  228000   0.90848579   -3.3081158    185.32683  0.067736414  0.071407284            5 
  229000    0.8923506    -3.327436    185.62608   0.06754952  0.071275808            6 
  230000   0.88378734   -3.3306204    187.15959  0.067811447  0.071144286            4 
  231000   0.90796421   -3.2929483    187.54074  0.067655389  0.071013292            5 
  232000   0.90906476   -3.3103111    187.44671  0.067329995   0.07088576            5 
  233000   0.89481471   -3.3190378    188.48375  0.067411928  0.070756463            3 
  234000   0.90457351   -3.3073708    188.80736   0.06723909  0.070627757            5 
  235000   0.88120081   -3.3069337    190.19314  0.067444377  0.070500881            2 
  236000   0.89649266   -3.3597362     190.3544  0.067215537  0.070376107            3 
  237000   0.88687093   -3.3227686    191.06037  0.067180158  0.070251248            2 
  238000   0.88657223   -3.3261461    191.31236  0.066986121  0.070128969            3 
  239000   0.88555639   -3.3620362    191.99812  0.066944952  0.070003203            3 
  240000   0.87754221   -3.3178127    193.28771  0.067113788  0.069881087            4 
  241000   0.88510873   -3.3225594    193.33102  0.066850284  0.069759274            3 
  242000   0.87957606   -3.3269177    193.77881   0.06672824  0.069637118            2 
  243000   0.88834055    -3.341995    194.11449  0.066568754  0.069512638            2 
  244000   0.88345396   -3.3502732    195.07046  0.066622423  0.069390809            4 
  245000   0.88046255    -3.346722    195.08184  0.066354367  0.069269557            4 
  246000   0.86655224    -3.348944    195.82973  0.066337984  0.069149562            4 
  247000   0.86769444   -3.3400227    195.78307  0.066053666   0.06902791            4 
  248000   0.88062979   -3.3596379    196.29441  0.065959143  0.068906926            1 
  249000   0.86184032   -3.3501862     197.0747  0.065955387  0.068783728            2 
  250000   0.85951679    -3.376728    197.46057  0.065820188  0.068659157            2 
  251000   0.85502242   -3.3747997    197.31229  0.065508727  0.068531902            3 
  252000   0.88582166   -3.3504916    198.83371  0.065751888  0.068408269            6 
  253000   0.87965055     -3.35118    199.18818  0.065608756  0.068288524            2 
  254000   0.84493321   -3.3710112    199.24667  0.065369643  0.068165872            3 
  255000   0.85693662   -3.3705999    199.21213  0.065102002  0.068044047            8 
  256000   0.86629349   -3.3798557    200.14591  0.065151662  0.067920289            6 
  257000    0.8666516   -3.3950672    200.06402  0.064871601  0.067793828            3 
  258000   0.84730157   -3.3702116     200.8788  0.064883333  0.067667616            5 
  259000   0.86069674   -3.3822694    201.57951  0.064858272  0.067541355            3 
  260000   0.86171457   -3.3871392     202.0126  0.064747629  0.067418228            4 
  261000   0.85769188   -3.4142376    202.15667  0.064545553  0.067297284            3 
  262000   0.85257723   -3.3721151    203.49003  0.064723292   0.06717478            5 
  263000   0.86016242   -3.4192066    203.81235  0.064579324  0.067053972            4 
  264000   0.81901075   -3.4245682     202.8445  0.064029198  0.066931687            4 
  265000   0.81258941   -3.3907427     204.6319  0.064349655  0.066812907            2 
  266000   0.85498137   -3.3976481    204.37798  0.064028188  0.066693376            2 
  267000   0.85054474   -3.4066551    205.56867   0.06416001  0.066576595            7 
  268000   0.84538304   -3.4036728    205.22882  0.063814933  0.066456949            3 
  269000    0.8303566   -3.3817611    206.69269  0.064031193  0.066339789            3 
  270000   0.85123784   -3.4080822    205.96961  0.063570868  0.066222714            3 
  271000   0.84535643   -3.3826567    207.35174  0.063761298  0.066103057            6 
  272000   0.83121589   -3.4044501     207.0488  0.063434069  0.065982542            4 
  273000   0.83013921   -3.3914468    207.80284  0.063431882  0.065861928            3 
  274000   0.82426508   -3.4137539    208.72673  0.063481365  0.065741946            3 
  275000   0.83970476   -3.3928548    208.91623  0.063307947  0.065622469            3 
  276000   0.80452058   -3.4117137    209.65132  0.063300518  0.065501699            3 
  277000   0.81584947    -3.420017    209.67734  0.063079824  0.065382241           10 
  278000   0.83101131   -3.4336582    209.16398  0.062699034  0.065262895            7 
  279000    0.8245822   -3.4207754      211.029  0.063031363  0.065143222            6 
  280000   0.83103658   -3.4347718    211.56542  0.062965899  0.065027469            3 
  281000   0.81465043   -3.4456726    211.53523  0.062732868  0.064909942            6 
  282000   0.82122847   -3.4389209    211.61623  0.062534348  0.064792398            6 
  283000   0.83001354   -3.4255421    212.92631   0.06269915  0.064675371            3 
  284000   0.80966659   -3.4037609    212.97452  0.062492523  0.064560539            6 
  285000    0.8335245   -3.4121888    213.66872  0.062476234  0.064445305            3 
  286000   0.81647921   -3.4537577    213.44757  0.062193349  0.064329236            2 
  287000   0.79417483   -3.4780108    213.26212  0.061922798   0.06421145            6 
  288000   0.80282081   -3.4629812    214.06798  0.061940967  0.064092623            6 
  289000   0.82313916    -3.466235    214.35752  0.061810127  0.063975968            4 
  290000   0.81086696   -3.4495657    215.21351  0.061842962   0.06385687            4 
  291000   0.79621442   -3.4611772    215.46231  0.061701693  0.063741764            4 
  292000   0.80015845   -3.4580472    216.12068  0.061678276  0.063624546            5 
  293000   0.79734473   -3.4755427    215.71098  0.061351247  0.063507426            4 
  294000   0.81668778   -3.4779144    217.13183  0.061545303  0.063389123            2 
  295000   0.79039814   -3.4792775    216.79629  0.061241891  0.063270941            4 
  296000   0.78630769   -3.4890158    216.62893  0.060987876  0.063151082            2 
  297000   0.81753734   -3.4626779    217.08915  0.060911659  0.063031781            8 
  298000   0.77391633    -3.484115    217.12809  0.060718146   0.06291155            4 
  299000   0.80685917   -3.4715166    217.72287  0.060680843  0.062792293            4 
  300000   0.80685832    -3.474506     217.5176  0.060421556  0.062673465            7 
  301000   0.77357529   -3.4825508    218.79598  0.060574744  0.062555259            4 
  302000   0.78122807   -3.4984358    219.39565  0.060539639   0.06244022            7 
  303000   0.79672464   -3.4888415    219.05049  0.060244908  0.062322537            4 
  304000   0.78309465    -3.480891    220.52219  0.060450163  0.062205575            3 
  305000   0.77887453   -3.4792613    220.78307  0.060323243  0.062091158            3 
  306000   0.78321644   -3.4924331    220.23514   0.05997689   0.06197583            5 
  307000   0.77550379   -3.4862691    221.68313  0.060174574  0.061859666            2 
  308000   0.77417951   -3.4862177    222.08321  0.060087449  0.061745598            4 
  309000   0.77976743   -3.5024058    221.49938  0.059735539  0.061631354            3 
  310000   0.75949214   -3.5035485    222.04881  0.059690541  0.061516387            5 
  311000   0.78888664   -3.5238935    222.09644  0.059511373  0.061400309            2 
  312000   0.77030023   -3.5360013    222.39582  0.059400593  0.061284276            5 
  313000   0.76145461   -3.5157418    223.20313  0.059425753  0.061168378            5 
  314000   0.78526508   -3.5074593    223.24509  0.059247635  0.061052442            4 
  315000   0.76637987   -3.5352164     224.2389  0.059322461  0.060936225            4 
  316000   0.77231668   -3.5265517    224.69089  0.059253926  0.060820884            3 
  317000   0.77091002   -3.5262632    224.51543  0.059020881  0.060704172            3 
  318000   0.74783907   -3.5246057    224.15065  0.058739688  0.060587068            5 
  319000    0.7412473   -3.5329208     223.7463  0.058449921  0.060468394            7 
  320000   0.76527008   -3.5572135    224.42144  0.058443084  0.060349457            4 
  321000   0.77012067   -3.5334808    225.21883  0.058468025  0.060232315            9 
  322000   0.75872631   -3.5527931     225.6838  0.058406782  0.060117057            6 
  323000   0.73890448   -3.5330637    226.10909  0.058335679  0.060000747            6 
  324000   0.75428202   -3.5225777    226.04449  0.058139015   0.05988446            3 
  325000   0.76135297   -3.5268884    226.63288  0.058110996  0.059768654            7 
  326000   0.75039313   -3.5305506    226.78337   0.05797121  0.059653308           10 
  327000    0.7546391    -3.542859    227.78706  0.058049711  0.059536704            5 
  328000   0.74041003   -3.5584781    227.30522   0.05775031  0.059420784            4 
  329000   0.74638276   -3.5697806    227.02004  0.057502543  0.059303129            4 
  330000   0.74032815    -3.556962    227.59897  0.057474488  0.059185115            4 
  331000   0.72773175   -3.5381136    228.35407  0.057490953  0.059066282            4 
  332000    0.7467746   -3.5525105     227.4524  0.057091466  0.058948044            4 
  333000   0.74561221   -3.5522234    227.90802  0.057034039  0.058829249            6 
  334000    0.7388443   -3.5725664    227.76225  0.056826909  0.058708243            4 
  335000   0.73095327   -3.5625104    228.53792   0.05685023  0.058585894            5 
  336000   0.72582789   -3.5613753    228.46194  0.056662187  0.058464197            7 
  337000   0.72001898   -3.5665933    228.30907  0.056456248  0.058342725            3 
  338000   0.72152993   -3.5950267    228.55424  0.056349663  0.058221339            8 
  339000   0.71599775   -3.5716072    228.71942  0.056224047  0.058098461            4 
  340000   0.72175159   -3.5743809    229.40744  0.056227313  0.057973879            6 
  341000   0.71840319   -3.5860274    228.21496  0.055771007  0.057849791            5 
  342000   0.72164722   -3.6102451    228.39443  0.055651663  0.057723218            5 
  343000   0.72289628    -3.592543    229.11056  0.055663402  0.057597641            5 
  344000   0.72688812   -3.5984865    229.24375  0.055533854    0.0574741            7 
  345000   0.70583452   -3.5904013    229.31964  0.055391217   0.05734995           11 
  346000   0.71378076   -3.5810297    230.68317  0.055559531  0.057225817           13 
  347000   0.69596094   -3.6088754    229.76272  0.055178367  0.057101933            7 
  348000    0.7082616   -3.6113613    230.05153  0.055088967  0.056977374            7 
  349000   0.70132361    -3.610877    230.94891  0.055145394  0.056854653            8 
  350000   0.71195802   -3.6113383    231.44072  0.055104933  0.056732283            3 
  351000   0.68784041   -3.6183059    231.32349  0.054920108  0.056609827            5 
  352000   0.69738973   -3.6079553    231.09615  0.054710262  0.056487489            8 
  353000   0.70751684   -3.6228951    231.66654   0.05468993  0.056364812            5 
  354000   0.68998469   -3.6217764    231.51707  0.054500251  0.056241845            6 
  355000     0.697456   -3.6317276    231.79038  0.054410887   0.05611843            8 
  356000   0.70055275   -3.6028416     231.2174  0.054123924  0.055994264           10 
  357000   0.69284463   -3.6306686    231.70472  0.054086068  0.055870794            5 
  358000    0.7024185   -3.6400706    232.02026  0.054008441  0.055748089            3 
  359000   0.68423464   -3.6446482    232.49574   0.05396837  0.055624873            8 
  360000   0.69879584   -3.6490452    231.91775  0.053684664  0.055501053            4 
  361000   0.69573824    -3.631394    233.19671  0.053831189  0.055376844            7 
  362000   0.68040858   -3.6669381    232.10177  0.053430425  0.055253758            6 
  363000    0.6961381     -3.64872    233.39526  0.053580178  0.055130728           13 
  364000   0.67771833   -3.6440417    233.88209  0.053544434  0.055009022            6 
  365000   0.68034341   -3.6644923    233.66892  0.053349069  0.054887856            4 
  366000   0.68606368   -3.6580772    234.39192  0.053367924   0.05476674            5 
  367000   0.69504769   -3.6672167    234.19099  0.053176883   0.05464588           10 
  368000   0.68568424   -3.6686036    234.23338  0.053041979  0.054525626            5 
  369000   0.68035041   -3.6225777    234.36877  0.052928809  0.054404955            6 
  370000   0.68809309   -3.6682228    235.00835  0.052929809  0.054284449            3 
  371000   0.68442794    -3.667569    234.66155  0.052709243  0.054165104            8 
  372000   0.67762807   -3.6621732    235.03754  0.052651779  0.054046709            6 
  373000   0.68402484   -3.6638269    235.35578  0.052581721  0.053928422            6 
  374000   0.66358706    -3.674326    235.62802  0.052501788  0.053809331           10 
  375000   0.65741426   -3.6885234    235.25578  0.052279062  0.053690238            5 
  376000   0.66603318    -3.674344    236.14784   0.05233773  0.053571654           12 
  377000   0.66606834   -3.6888759    235.31451  0.052014701  0.053452394            9 
  378000   0.67196646   -3.6631357    236.29279  0.052092767   0.05333323            9 
  379000   0.66951065   -3.6753858    235.95654  0.051881385  0.053215198            7 
  380000   0.65077963   -3.7111696    236.49803  0.051863602  0.053097164            5 
  381000   0.65086694   -3.6886031    237.46943  0.051939945  0.052978877            4 
  382000   0.66624642   -3.6896395    237.62799  0.051838567  0.052862454            4 
  383000   0.65384196   -3.6957957    236.97898  0.051562006  0.052744261            6 
  384000   0.66243699   -3.7020543    237.37407   0.05151347  0.052626283            8 
  385000   0.64335511   -3.7031808    238.09281  0.051535241    0.0525093            9 
  386000    0.6501669   -3.7196697    237.79715  0.051337898  0.052391679            7 
  387000   0.66434649   -3.7067947    237.66238  0.051176223  0.052274228            7 
  388000   0.65906189   -3.7162843    237.93059  0.051101931  0.052157018           13 
  389000   0.64189307    -3.734068    236.96413  0.050763524   0.05203945           13 
  390000   0.64569218   -3.7256634    237.95474   0.05084503  0.051921868           15 
  391000   0.63837738   -3.7029489     238.3199  0.050792817  0.051804628            6 
  392000   0.65092288   -3.7251821    237.98461  0.050591966  0.051688586            3 
  393000   0.65959896   -3.7322221    237.45709  0.050351376  0.051571314            7 
  394000   0.64715092   -3.7260243    237.49713  0.050232049  0.051453799            6 
  395000   0.65032918   -3.7405867    238.26099  0.050266032  0.051336559            5 
  396000   0.64055791   -3.7433377    237.80902  0.050043986  0.051218228            6 
  397000   0.63351457   -3.7500579    238.37068  0.050035826  0.051099644            8 
  398000   0.63464014   -3.7315634    238.62661  0.049963696  0.050982375            5 
  399000   0.62804627   -3.7475831    238.77246  0.049868934  0.050865438            9 
  400000   0.63420225   -3.7527544    239.00638  0.049792996   0.05074947            6 
  401000   0.62275266   -3.7652806    239.05773  0.049679496  0.050632909            6 
  402000   0.62252422   -3.7888202    238.81908  0.049506443  0.050516052            9 
  403000   0.62619659   -3.7677274     238.8387  0.049387654  0.050399342            6 
  404000    0.6289618   -3.7543714    239.08927  0.049317094  0.050282786            6 
  405000    0.6223849   -3.7421325    239.29305  0.049237254  0.050167176            5 
  406000   0.61086058   -3.7790033    238.90416  0.049036157  0.050051104            9 
  407000   0.61980575   -3.7596095    239.54887   0.04904768  0.049934371           10 
  408000   0.61128776   -3.7814489    238.86081  0.048786931  0.049817543           13 
  409000   0.60665096    -3.777406    239.95538  0.048890665  0.049701382            6 
  410000   0.61149803   -3.7829785    240.02071  0.048784698  0.049585958           13 
  411000   0.60650145   -3.7480347    240.06354  0.048674683    0.0494708            8 
  412000   0.60109362   -3.7981062    239.98202  0.048540052  0.049357105            7 
  413000   0.60311116   -3.7747896    240.94849  0.048617532  0.049243106            5 
  414000    0.6091084   -3.7870922    240.41328  0.048392366  0.049128837           10 
  415000   0.61279983   -3.7723113    239.78872  0.048150345  0.049014955           10 
  416000   0.60415596   -3.7823188    241.27574  0.048332479   0.04890148            6 
  417000    0.6015925   -3.8068045    240.37815    0.0480372  0.048787893            8 
  418000   0.61211699   -3.7905903    240.13536  0.047873876  0.048673813           10 
  419000   0.60618611   -3.7980022    239.64267  0.047661629  0.048560281            9 
  420000   0.60193176   -3.7679084    240.77796  0.047773406  0.048446631            7 
  421000   0.60824428   -3.8113711    240.42784  0.047590626  0.048333606           12 
  422000   0.58634682    -3.790092    240.74479  0.047540441  0.048220623           10 
  423000    0.5991836    -3.812217    240.81529   0.04744194  0.048108583            6 
  424000   0.59042925   -3.8068089    240.96661   0.04735979  0.047996071            9 
  425000   0.59731944   -3.8050105    241.74719  0.047401409  0.047884335            5 
  426000   0.59385675   -3.8295266    241.88308   0.04731672  0.047771835            8 
  427000   0.58708778    -3.830766    242.25986  0.047279443  0.047660485           11 
  428000   0.59282035   -3.8298049    241.44191  0.047009717  0.047549107            9 
  429000   0.59358209   -3.8046412    241.12047  0.046837698  0.047437567            6 
  430000   0.57616028   -3.8267374    241.97604  0.046894582  0.047325947           18 
  431000   0.58833859   -3.8288948    241.57555  0.046708343   0.04721374            8 
  432000   0.58019762   -3.8185197    241.35878  0.046558407  0.047102246           10 
  433000   0.56358331   -3.8412908    241.61276  0.046499761  0.046991296           11 
  434000   0.57109408   -3.8382551    242.22127  0.046509461  0.046881529            8 
  435000   0.57139079   -3.8768645    242.42846  0.046442233  0.046771526            6 
  436000   0.57236314   -3.8620281    241.20381  0.046101646  0.046661325           18 
  437000   0.56894233   -3.8447672    242.22509  0.046190902  0.046551223           21 
  438000   0.56958132    -3.860172    242.56722  0.046150536   0.04644159            9 
  439000   0.56404792   -3.8647899    241.68147  0.045877273  0.046331643           20 
  440000   0.55438555   -3.8616266     242.2362  0.045878069  0.046221626            6 
  441000   0.55173601   -3.8642966    242.58727  0.045840375    0.0461121           14 
  442000   0.57481518   -3.8629994    242.60578  0.045740155  0.046003248           13 
  443000   0.55713557   -3.8711538    242.78059  0.045669788  0.045894796           18 
  444000   0.55405322   -3.8433073    242.51843  0.045517723  0.045785847            8 
  445000   0.55679995    -3.880072    242.77115  0.045462762  0.045677419           14 
  446000   0.55901589   -3.8742902    242.82754  0.045371363  0.045569297            7 
  447000   0.55624459   -3.8867236    242.44061  0.045197728   0.04546104           26 
  448000   0.54047088   -3.8866184    242.97251   0.04519578  0.045352788           12 
  449000   0.54838099   -3.8901874    242.08338    0.0449301  0.045244491           10 
  450000    0.5519442   -3.8876313    242.54129  0.044915053  0.045135913            4 
  451000   0.54523033   -3.8920659    242.36662  0.044783188  0.045028156            5 
  452000   0.53603795   -3.8917484    242.56635  0.044720935  0.044920223           11 
  453000   0.54800747   -3.8922898    242.54358  0.044618025  0.044812186           10 
  454000   0.54270358   -3.8965543    242.80191  0.044567164  0.044704968           23 
  455000   0.52997412   -3.8991312    242.76758  0.044462927  0.044598008           11 
  456000   0.55223792   -3.9151507    242.45099  0.044307564  0.044491142           10 
  457000    0.5486023    -3.900088    242.90814  0.044293971  0.044384233           11 
  458000   0.54585187   -3.9243861    242.85202  0.044187049  0.044277652           10 
  459000   0.53051952   -3.9251707    243.49459  0.044207442  0.044171065           19 
  460000   0.52983585   -3.9376527     243.0077  0.044023134  0.044064492            6 
  461000   0.53803926   -3.9292281    242.92704  0.043913058  0.043958349            7 
  462000   0.53104591   -3.9523308    243.16898  0.043861649  0.043852165            7 
  463000   0.52063526   -3.9500036    243.09678  0.043753919  0.043746208           18 
  464000   0.53017447   -3.9375827     243.4134  0.043716488  0.043641031           16 
  465000   0.52559366   -3.9190792    243.02358  0.043552613  0.043535708           10 
  466000   0.51426262     -3.93005    243.06231  0.043466079  0.043430533           10 
  467000   0.51668037   -3.9530466     243.1916  0.043396075  0.043325148           16 
  468000   0.52360513   -3.9497903    242.95258  0.043260787  0.043219211           10 
  469000    0.5084907   -3.9276636    243.49654  0.043265198  0.043114442            8 
  470000   0.52434669   -3.9632323    243.17475   0.04311609  0.043009871           17 
  471000   0.51638032   -3.9492571    243.47332  0.043077374  0.042905364           14 
  472000   0.51263711   -3.9497624    243.39157  0.042971675  0.042800984           25 
  473000   0.49993432   -3.9581939    243.29134  0.042863168  0.042697076           15 
  474000   0.51613497   -3.9912489    242.93353  0.042709833  0.042593676            9 
  475000   0.50004938   -3.9622812    242.91132  0.042616021  0.042490128           16 
  476000   0.50350704    -3.993271    243.43043  0.042617372   0.04238628           12 
  477000   0.50698116   -3.9797303    243.22568  0.042492257  0.042282978           14 
  478000   0.51152953   -3.9694668    243.08351  0.042378576  0.042180087           23 
  479000   0.49839877   -3.9679047    243.76191  0.042408126  0.042077315           19 
  480000   0.49923329   -3.9960568    243.23003  0.042227436  0.041974503           16 
  481000   0.50367809   -3.9760989    243.05436  0.042109211  0.041871481           32 
  482000   0.49392404   -3.9725694    243.75954  0.042143765  0.041769269           17 
  483000   0.49845441    -3.984055    243.53501  0.042017772  0.041667124           14 
  484000   0.49522709   -3.9879097    243.49716  0.041924443   0.04156534           20 
  485000   0.48519691   -3.9755383    243.91419  0.041909655  0.041463493            9 
  486000   0.50039676   -3.9903288      242.851  0.041641117  0.041362063           12 
  487000   0.49474147   -3.9968079    242.51899    0.0414988  0.041260823           36 
  488000   0.48623083   -3.9973957    243.67631  0.041611392  0.041159276           20 
  489000   0.48831352   -4.0095201    242.71218  0.041361994  0.041057871           30 
  490000   0.48370993   -3.9957684    243.00717   0.04132775  0.040956342           21 
  491000   0.48273902   -4.0063486    242.91115  0.041227283  0.040855409           10 
  492000   0.46967352   -3.9962149     243.4003  0.041226338  0.040754748           14 
  493000   0.48355932   -3.9879079    243.35268  0.041134665   0.04065463           11 
  494000   0.47893183   -4.0159953    243.46813  0.041070873   0.04055477           12 
  495000   0.48620485   -4.0159975    243.59951  0.041010019  0.040454858           10 
  496000   0.47633226   -4.0249691    243.41877  0.040896972  0.040354972           16 
  497000   0.47728874    -4.023323    243.53186  0.040833646   0.04025513            9 
  498000   0.47307036   -4.0304401    243.73938  0.040786376  0.040155926           24 
  499000   0.46719732    -4.025899    243.30992  0.040632919  0.040056694           59 
  500000   0.46156105   -4.0361357    243.42418  0.040570696  0.039957716           32 
  501000   0.47343113   -4.0452231    243.10815   0.04043715  0.039858522           20 
  502000   0.46305618   -4.0433708    243.03554  0.040344545  0.039759508           39 
  503000    0.4571355   -4.0415871    242.62531  0.040196373  0.039660786           35 
  504000   0.45845392   -4.0590501    243.13727  0.040201267  0.039562451           33 
  505000   0.47123047    -4.042841    243.41168  0.040166944  0.039464464           12 
  506000   0.45934081   -4.0537892    243.51788  0.040105053  0.039366778           28 
  507000   0.45433041   -4.0586128    243.53229  0.040028318  0.039269618           26 
  508000   0.44688353    -4.063669    243.21953  0.039898216  0.039172615           16 
  509000   0.45704089   -4.0581208    243.56977  0.039877172  0.039075453           31 
  510000   0.44591776   -4.0669811    243.58216  0.039801007  0.038978588           17 
  511000   0.46007912   -4.0669937    243.51835  0.039712711  0.038881927           15 
  512000   0.44670505   -4.0687582    242.81193   0.03952017  0.038785373           27 
Loop time of 1226.36 on 48 procs for 500000 steps with 4000 atoms

Performance: 70452.457 tau/day, 407.711 timesteps/s
99.4% CPU use with 48 MPI tasks x no OpenMP threads

MPI task timing breakdown:
Section |  min time  |  avg time  |  max time  |%varavg| %total
---------------------------------------------------------------
Pair    | 79.085     | 84.866     | 89.109     |  27.5 |  6.92
Neigh   | 8.2386     | 8.5731     | 8.938      |   5.5 |  0.70
Comm    | 78.534     | 83.921     | 90.025     |  32.6 |  6.84
Output  | 0.83814    | 0.83906    | 0.86364    |   0.4 |  0.07
Modify  | 1034.2     | 1036.8     | 1039.6     |   4.2 | 84.55
Other   |            | 11.31      |            |       |  0.92

Nlocal:        83.3333 ave          90 max          78 min
Histogram: 8 2 4 6 5 10 4 6 2 1
Nghost:        2212.38 ave        2232 max        2198 min
Histogram: 3 7 6 5 10 6 3 6 1 1
Neighs:        14776.5 ave       16289 max       13282 min
Histogram: 1 4 7 3 7 13 5 3 2 3
FullNghs:      29553.4 ave       32409 max       27527 min
Histogram: 6 4 7 7 5 6 9 3 0 1

Total # of neighbors = 1418561
Ave neighs/atom = 354.64025
Neighbor list builds = 27114
Dangerous builds = 0

#clear
#
#next RN
#
#jump SELF
Total wall time: 0:20:29
