
units lj                  # Use reduced LJ style units
atom_style atomic         # Uncharged point particles
atom_modify map hash      # Needed for indexing of clusters etc
                          # Used to be able to find where atoms are in relation to each other.

lattice fcc 1.0 spacing 1 1 1
Lattice spacing in x,y,z = 1.5874011 1.5874011 1.5874011
region box block 0 10 0 10 0 10 units lattice
create_box 2 box
Created orthogonal box = (0.0000000 0.0000000 0.0000000) to (15.874011 15.874011 15.874011)
  3 by 4 by 4 MPI processor grid
create_atoms 1 box
Created 4000 atoms
  using lattice units in orthogonal box = (0.0000000 0.0000000 0.0000000) to (15.874011 15.874011 15.874011)
  create_atoms CPU = 0.029 seconds
set type 1 type/fraction 2 0.84 78393
Setting atom values ...
  3354 settings made for type/fraction
mass 1 1.0
mass 2 1.0
pair_style lj/cut  3.5
pair_modify tail  yes
pair_coeff 1  1  1.0  1.0   # Intearaction between 1 and 1 set with epsilon = 1 and sigma = 1
pair_coeff 1  2  1.5  0.8
pair_coeff 2  2  0.5  0.88

write_data data.0
System init for write_data ...
Neighbor list info ...
  update every 1 steps, delay 10 steps, check yes
  max neighbors/atom: 2000, page size: 100000
  master list distance cutoff = 3.8
  ghost atom cutoff = 3.8
  binsize = 1.9, bins = 9 9 9
  1 neighbor lists, perpetual/occasional/extra = 1 0 0
  (1) pair lj/cut, perpetual
      attributes: half, newton on
      pair build: half/bin/atomonly/newton
      stencil: half/bin/3d
      bin: standard
WARNING: Not all mixed pair coeffs generated from mixing. Use write_data with 'pair ij' option to store all pair coeffs. (../write_data.cpp:312)


#############################
#   M E L T   S Y S T E M   #
#############################

velocity all create 2.4 3143649 mom yes dist gaussian # Assign velocities
                                                    # Temperature 2.4, random number seed, zero linear momentum
                                                                                # Gaussian distribution

timestep 0.002   # simulation timestep
thermo 1000       # output thermodynamic data every 1000 steps bf 100

# Define a fix  in this case with index 1 applied to all
# particles in the simulation. This fix is for simulations
# in the anisotropic NPT ensemble. Note that we use the MTK
# correction.
fix 1 all npt temp 2.4 2.4 0.1 iso 5.68 5.68 0.5 mtk yes tchain 5 pchain 5 # Use NPT ensemble
                                                                         # Set temperature and pressure and damping
                                                                         # Numbers of thermostats in chain and in barostat
run 10000          # run for 10000 steps
Per MPI rank memory allocation (min/avg/max) = 3.642 | 3.644 | 3.648 Mbytes
Step Temp E_pair E_mol TotEng Press Volume 
       0          2.4   -3.4880302            0   0.11106983   -3.0192302         4000 
    1000    2.4053548   -2.7540681            0   0.85306211    5.3316728    3891.9671 
    2000    2.3903222    -2.739308            0   0.84527902     5.459082    3883.1811 
    3000    2.4116286   -2.7429559            0   0.87358267    5.7496555    3849.7722 
    4000    2.4228089    -2.696001            0   0.93730388    5.8292473    3870.2209 
    5000    2.3721448   -2.7697234            0   0.78760423    5.4154996    3870.4557 
    6000    2.3306902   -2.7396947            0   0.75546653    5.5184431      3860.07 
    7000    2.3506099   -2.7289392            0   0.79609418     5.580188    3881.1584 
    8000    2.3604571   -2.6651107            0   0.87468983    6.1411052      3852.96 
    9000    2.4265179   -2.7360718            0   0.90279519     5.626572    3864.4744 
   10000    2.3768988   -2.7531323            0   0.81132454    5.6007148    3859.1056 
Loop time of 2.51438 on 48 procs for 10000 steps with 4000 atoms

Performance: 687246.246 tau/day, 3977.119 timesteps/s
99.6% CPU use with 48 MPI tasks x no OpenMP threads

MPI task timing breakdown:
Section |  min time  |  avg time  |  max time  |%varavg| %total
---------------------------------------------------------------
Pair    | 1.1152     | 1.1948     | 1.2644     |   3.0 | 47.52
Neigh   | 0.20816    | 0.2185     | 0.23723    |   1.1 |  8.69
Comm    | 0.7779     | 0.84989    | 0.92568    |   3.5 | 33.80
Output  | 0.00024569 | 0.00025007 | 0.00031539 |   0.0 |  0.01
Modify  | 0.21159    | 0.23565    | 0.26124    |   2.7 |  9.37
Other   |            | 0.01527    |            |       |  0.61

Nlocal:        83.3333 ave          96 max          75 min
Histogram: 2 3 8 11 14 5 4 0 0 1
Nghost:        1690.96 ave        1720 max        1656 min
Histogram: 4 2 3 4 4 9 6 10 3 3
Neighs:        9897.38 ave       11612 max        8684 min
Histogram: 3 4 7 8 10 7 7 1 0 1

Total # of neighbors = 475074
Ave neighs/atom = 118.76850
Neighbor list builds = 908
Dangerous builds = 228

# Equilibrate just above the melting temperature to avoid step fn in T

fix 1 all npt temp 1.25 1.25 0.1 iso 5.68 5.68 0.5 mtk yes tchain 5 pchain 5
run 2000
Per MPI rank memory allocation (min/avg/max) = 3.643 | 3.645 | 3.649 Mbytes
Step Temp E_pair E_mol TotEng Press Volume 
   10000    2.3768988   -2.7531323            0   0.81132454    5.6007148    3859.1056 
   11000    1.2455152   -4.0184372            0   -2.1506314    5.7951014    2977.6633 
   12000    1.2473923   -4.0308129            0   -2.1601921    5.5594515    2997.1232 
Loop time of 0.620429 on 48 procs for 2000 steps with 4000 atoms

Performance: 557034.093 tau/day, 3223.577 timesteps/s
99.6% CPU use with 48 MPI tasks x no OpenMP threads

MPI task timing breakdown:
Section |  min time  |  avg time  |  max time  |%varavg| %total
---------------------------------------------------------------
Pair    | 0.28389    | 0.30433    | 0.3211     |   1.6 | 49.05
Neigh   | 0.039741   | 0.04251    | 0.045061   |   0.5 |  6.85
Comm    | 0.20732    | 0.22346    | 0.2426     |   1.9 | 36.02
Output  | 5.1941e-05 | 5.3707e-05 | 6.8394e-05 |   0.0 |  0.01
Modify  | 0.040012   | 0.045188   | 0.049645   |   1.4 |  7.28
Other   |            | 0.004878   |            |       |  0.79

Nlocal:        83.3333 ave          91 max          75 min
Histogram: 2 4 4 5 7 9 6 1 7 3
Nghost:        1995.42 ave        2017 max        1965 min
Histogram: 1 1 2 7 4 9 9 7 5 3
Neighs:        12738.0 ave       14661 max       10926 min
Histogram: 3 3 3 6 8 10 7 4 2 2

Total # of neighbors = 611422
Ave neighs/atom = 152.85550
Neighbor list builds = 144
Dangerous builds = 14

#############################
# L I N E A R  Q U E N C H  #
#############################

# Define solid atoms. This closely follows ten Wolde  Ruiz-Montero and Frenkel  Faraday Discuss  1996  104  93-110
# Compute components of the per-atom q6 vector
compute q6 all orientorder/atom degrees 1 6 components 6 nnn NULL cutoff 1.3 # compute the Q6 parameter.
                                                                             # Use all neighbours within 1.3 unit cell.

# get number of connections
compute coord_number all coord/atom orientorder q6 0.5

# An atom is solid if it has 8 or more connections (of a possible 14)
variable is_solid atom c_coord_number>=8
group solid dynamic all var is_solid    # Must be dynamic to update
dynamic group solid defined

# do clustering
compute cluster solid cluster/atom 1.3 # Create a cluster where all atoms within are solid and max 1.3 units from another member

# define chunks one chunk per cluster
compute clus_chunks solid chunk/atom c_cluster nchunk every compress yes  # Says which atoms are in which chunk

# count the size of each chunk
compute size_chunks solid property/chunk clus_chunks count


# Find the maximum entry in the vector of chunk sizes
variable max_n equal max(c_size_chunks)


# Thermo style which includes this variable
# thermo_style custom step temp pe vol v_max_n

thermo ${N}  # Print the thermo information every 100 steps
thermo 1000  

# Reset the npt fix at a lower temperature (below freezing)
fix 1  all npt temp  ${temp} ${temp}  0.1  iso  5.68  5.68  0.5  mtk yes tchain  5  pchain  5
fix 1  all npt temp  0.45 ${temp}  0.1  iso  5.68  5.68  0.5  mtk yes tchain  5  pchain  5
fix 1  all npt temp  0.45 0.45  0.1  iso  5.68  5.68  0.5  mtk yes tchain  5  pchain  5

dump dmp2 all dcd ${N} traj.dcd
dump dmp2 all dcd 1000 traj.dcd


compute msd all msd com yes
variable twopoint equal c_msd[4]/6/(step*dt+1.0e-6)
fix 9 all vector 10 c_msd[4]
variable fit equal slope(f_9)/6/(10*dt)
thermo_style custom step temp pe c_msd[4] v_twopoint v_fit v_max_n

fix 1 all npt temp 1.25 ${temp} 0.1 iso 5.68 5.68 0.5 mtk yes tchain 5 pchain 5
fix 1 all npt temp 1.25 0.45 0.1 iso 5.68 5.68 0.5 mtk yes tchain 5 pchain 5
run 2000000 # 5000000  # Run for this many steps
Neighbor list info ...
  update every 1 steps, delay 10 steps, check yes
  max neighbors/atom: 2000, page size: 100000
  master list distance cutoff = 3.8
  ghost atom cutoff = 3.8
  binsize = 1.9, bins = 8 8 8
  4 neighbor lists, perpetual/occasional/extra = 1 3 0
  (1) pair lj/cut, perpetual
      attributes: half, newton on
      pair build: half/bin/atomonly/newton
      stencil: half/bin/3d
      bin: standard
  (2) compute orientorder/atom, occasional
      attributes: full, newton on
      pair build: full/bin/atomonly
      stencil: full/bin/3d
      bin: standard
  (3) compute coord/atom, occasional
      attributes: full, newton on
      pair build: full/bin/atomonly
      stencil: full/bin/3d
      bin: standard
  (4) compute cluster/atom, occasional
      attributes: full, newton on
      pair build: full/bin/atomonly
      stencil: full/bin/3d
      bin: standard
Per MPI rank memory allocation (min/avg/max) = 9.831 | 9.835 | 9.839 Mbytes
Step Temp PotEng c_msd[4] v_twopoint v_fit v_max_n 
   12000    1.2473923   -4.0308129 1.8583591e-30 1.2905271e-32 8.3333333e+20            1 
   13000    1.2634178   -4.0031842   0.88746662 0.0056888884  0.074602624            2 
   14000    1.2376229   -4.0278523    1.8431439  0.010971095  0.077188881            2 
   15000    1.2508277   -4.0124102    2.7557555  0.015309753  0.077689605            1 
   16000     1.250065   -4.0078228    3.6473586  0.018996659  0.076891718            3 
   17000    1.2572924   -4.0318966     4.605891  0.022577896  0.076862309            1 
   18000    1.2429591   -4.0181432    5.4942385  0.025436289  0.076591209            3 
   19000    1.2748099   -4.0282072    6.4272397  0.028189647  0.076648314            3 
   20000    1.2302637   -4.0352482    7.3506637  0.030627765  0.076807934            2 
   21000     1.218365   -4.0691446     8.201945    0.0325474  0.076808726            2 
   22000    1.2364729   -4.0112492    9.1918232  0.034817512  0.076739481            2 
   23000    1.2584481   -4.0253567     9.992195  0.036203604  0.076452588            1 
   24000    1.2438206   -4.0671976    10.831494  0.037609352  0.075969382            2 
   25000     1.249586   -4.0525445       11.655      0.03885   0.07562473            3 
   26000    1.2540686   -4.0667218    12.555658  0.040242493  0.075349588            1 
   27000    1.2499533   -4.0357264    13.574752  0.041897381  0.075249085            3 
   28000    1.2440768   -4.0320423    14.612369  0.043489194  0.075337723            6 
   29000    1.2584861    -4.085568     15.50843  0.044564453  0.075540943            4 
   30000    1.2390067    -4.067449    16.490972  0.045808255  0.075774794            3 
   31000    1.2536819   -4.0112708    17.573161   0.04723968  0.076069977            2 
   32000    1.2350996   -4.0549532    18.535831  0.048270392  0.076338607            1 
   33000      1.23971   -4.0370298    19.381646  0.048943549  0.076550692            2 
   34000    1.2204777   -4.0426087    20.209521   0.04953314  0.076676518            3 
   35000    1.2456998   -4.0485252    21.098973   0.05023565  0.076729757            2 
   36000    1.2685914   -4.0708756    21.767227    0.0503871  0.076620301            1 
   37000    1.2663341   -4.0594206    22.626431  0.050960429  0.076443228            1 
   38000    1.2513366   -4.0873478    23.458924  0.051445009  0.076250122            1 
   39000    1.2439094   -4.0402968    24.510695   0.05237328  0.076104043            2 
   40000    1.2108524   -4.0579968     25.55925  0.053248437  0.076040782            2 
   41000    1.2550241   -4.0676509     26.28311  0.053420956  0.075993999            2 
   42000    1.2277101   -4.0796579    26.853414  0.053280582  0.075855068            1 
   43000    1.2117995   -4.0789939    27.676323  0.053636284  0.075630534            3 
   44000    1.2323227   -4.0640536    28.831467   0.05460505  0.075449478            1 
   45000    1.2479734   -4.0354455    30.042553  0.055634356  0.075387865            2 
   46000    1.2454771   -4.0534579     30.77692  0.055755289  0.075411283            1 
   47000    1.2388358   -4.0310733    31.883836  0.056531623  0.075419821            2 
   48000    1.2389715   -4.0673749    32.748729  0.056855432  0.075440448            4 
   49000    1.2304703   -4.0800299    33.679391  0.057277876  0.075465244            2 
   50000    1.2448641   -4.1019361    34.466567  0.057444278  0.075488438            1 
   51000    1.1966492   -4.0457561    35.209636  0.057532085  0.075497018            2 
   52000    1.2437971   -4.0319844    36.220461  0.058045609  0.075443006            2 
   53000      1.21714   -4.0848201    36.953291  0.058102659  0.075390731            2 
   54000    1.2346828   -4.0979077    37.655281  0.058110001  0.075330092            2 
   55000    1.2230622   -4.0362589    38.420433  0.058212776  0.075233322            2 
   56000    1.2096507   -4.0646101    39.470112  0.058735284  0.075161327            1 
   57000    1.2247707   -4.0277482    40.718638  0.059530173  0.075116272            3 
   58000    1.2224962   -4.0596144    41.562706  0.059716531  0.075069641            4 
   59000    1.2213758   -4.0967762    42.606222  0.060178279  0.075076918            2 
   60000    1.2126685   -4.0447661    43.528575  0.060456354   0.07508812            1 
   61000    1.2258088   -4.0395241    44.410987  0.060670747  0.075097517            1 
   62000    1.2385989   -4.0808127     45.22759  0.060789771  0.075095939            1 
   63000    1.2496126   -4.0567847    46.115499  0.060999336  0.075101152            1 
   64000    1.2425832   -4.0449536    47.131839  0.061369581  0.075108733            1 
   65000    1.2247225    -4.073455    48.184373  0.061774836  0.075153954            4 
   66000     1.195285   -4.0270399    49.501281  0.062501617  0.075232941            1 
   67000    1.2277749   -4.0667906    50.007273    0.0621981  0.075301974            1 
   68000    1.2292725   -4.0372504    50.880114  0.062353081  0.075347252            2 
   69000    1.2480382   -4.0517345    52.010555  0.062814679  0.075395424            2 
   70000    1.2140473   -4.0772105    52.635366  0.062661149  0.075445427            1 
   71000    1.2139715   -4.0405718    53.385622   0.06265918  0.075472869            2 
   72000    1.2111707   -4.0935675    54.106198  0.062622914  0.075439564            2 
   73000    1.2177268    -4.076125    54.946134  0.062723897  0.075411703            1 
   74000    1.2018192   -4.0736501     55.91677  0.062969335  0.075371834            1 
   75000     1.237314   -4.0709326    56.578928  0.062865475  0.075331979            1 
   76000    1.2355264   -4.0498818    57.760614  0.063334006  0.075291759            1 
   77000    1.2181158   -4.0962158    58.634521  0.063457273  0.075281065            2 
   78000    1.2378951   -4.0876938     59.35632  0.063414871   0.07527117            1 
   79000    1.2422721   -4.0854046     60.10359  0.063400411  0.075240285            1 
   80000     1.204519   -4.0547158    61.274248  0.063827341  0.075203738            1 
   81000    1.2547667   -4.0937244    62.394653   0.06419203  0.075188607            5 
   82000     1.244176   -4.0853748    63.316478  0.064346014  0.075177483            1 
   83000    1.2203547   -4.0686177    63.787621  0.064043796   0.07515952            2 
   84000     1.227075   -4.0546903    64.745312   0.06423146  0.075122643            1 
   85000    1.2370676   -4.0523488    65.647828  0.064360616  0.075083382            2 
   86000    1.2239799    -4.100895    66.658248  0.064591325  0.075063343            4 
   87000    1.2297242   -4.0721098    67.173436  0.064342371  0.075038939            1 
   88000    1.2192608   -4.0386813    68.414043  0.064786025  0.075010676            1 
   89000    1.2424038   -4.1225477     69.07014  0.064672416  0.074971043            1 
   90000    1.2015611   -4.1020547    69.617954  0.064461068  0.074927832            1 
   91000    1.1842862   -4.0512888    70.605148  0.064656729  0.074879973            2 
   92000    1.2364635    -4.042952    71.704374  0.064949614  0.074837614            3 
   93000    1.2251424    -4.093696    72.898344  0.065321096  0.074812855            1 
   94000    1.2028709    -4.102278    73.388954  0.065061129  0.074796988            2 
   95000    1.1864026    -4.080414    74.832785  0.065642794   0.07477119            3 
   96000    1.2339485   -4.0660729    75.613543  0.065636756  0.074743409            2 
   97000    1.1940354   -4.0848356    75.635106  0.064978613  0.074700058            1 
   98000    1.2154068   -4.0808332    76.720599  0.065238605  0.074661149            2 
   99000    1.2206564   -4.0940925    77.095329  0.064895058  0.074602355            1 
  100000    1.2220311   -4.1075671    77.586192  0.064655159  0.074520363            2 
  101000    1.2089561     -4.11207    78.495918  0.064765608  0.074436615            2 
  102000    1.2074037   -4.0723742    79.696227  0.065111296  0.074354389            2 
  103000    1.2183083   -4.0858026    81.074833  0.065594525  0.074293344            2 
  104000    1.2222957   -4.1039583    81.703245  0.065467344  0.074256132            2 
  105000    1.1943787   -4.0725172    82.939923  0.065825335  0.074234645            2 
  106000    1.2010964   -4.1224736    83.653076  0.065764997  0.074217095            1 
  107000    1.2021847   -4.1333384    84.879334    0.0661054  0.074204303            2 
  108000    1.2228461   -4.1052737    86.094175   0.06643069  0.074200428            3 
  109000    1.1816472   -4.0518286    87.151303  0.066629437  0.074205268            1 
  110000    1.2254719   -4.0851606    88.141531  0.066773887  0.074218795            2 
  111000    1.2085497   -4.0990687    88.657846  0.066559944  0.074234539            2 
  112000    1.2109807   -4.0818878    89.411435  0.066526365   0.07424133            1 
  113000    1.1918161   -4.1179648    90.281289  0.066579122  0.074248609            2 
  114000    1.2363117   -4.1185286    91.235219  0.066692411  0.074249096            4 
  115000    1.2112547   -4.0982669    92.550636  0.067065678  0.074261591            1 
  116000    1.2412523   -4.0712379     93.57199  0.067221257  0.074267578            2 
  117000    1.1985831    -4.101432    94.520007  0.067321942  0.074281713            2 
  118000    1.1972167   -4.1457942    95.100961  0.067161696  0.074287785       -1e+20 
  119000    1.2011671   -4.1345707    95.668718    0.0669949  0.074294387            2 
  120000    1.2074901   -4.0848333    96.490703  0.067007433  0.074301592            2 
  121000    1.2000688   -4.0882308     97.73425  0.067310089  0.074288764            1 
  122000    1.2218364   -4.1160042    98.010827  0.066947286  0.074274459            1 
  123000    1.2191671   -4.0831315    99.573243  0.067461546  0.074262831            1 
  124000    1.1984211   -4.1342495    100.20505  0.067342105  0.074267665            2 
  125000    1.2037736    -4.125257    100.96183  0.067307884  0.074273486            3 
  126000    1.2098829   -4.1214823    101.99128  0.067454549  0.074283103            2 
  127000    1.2142644   -4.0911786    103.77683  0.068095035  0.074301788            1 
  128000    1.1940875    -4.131998    103.72809  0.067531308  0.074307947            4 
  129000    1.2043705   -4.1303419     104.6674  0.067614602  0.074305579            1 
  130000    1.2322058   -4.0830788    105.78322  0.067809758  0.074304796            1 
  131000    1.1750017   -4.1106514    106.46064  0.067723053   0.07430097            2 
  132000    1.2057872   -4.1088798     107.2025  0.067678347  0.074296409            5 
  133000    1.2085146    -4.079313    107.82762  0.067561165  0.074290886            1 
  134000    1.2022071   -4.0965744    108.77862  0.067648396  0.074276824            3 
  135000    1.2027128   -4.1025934     110.1838  0.068014694  0.074272013            2 
  136000    1.1955783   -4.0984114    110.88385  0.067943533  0.074267785            3 
  137000    1.2005253   -4.1583785    111.07888  0.067566226  0.074256835            2 
  138000     1.215871   -4.1196144    112.56733  0.067975438  0.074250643            2 
  139000    1.2136923    -4.082928    113.36824  0.067966568  0.074241595            3 
  140000    1.1949894   -4.1318163    114.08144  0.067905616  0.074227294            3 
  141000     1.199754   -4.0826391    114.99536  0.067964162  0.074220434            2 
  142000      1.18834    -4.088754     116.1641  0.068171423  0.074203509            8 
  143000    1.2145009   -4.1173823    116.61736  0.067958836  0.074186383            2 
  144000     1.190588    -4.125631    117.89044  0.068223633   0.07417791            2 
  145000    1.1960618   -4.1052923    118.67571   0.06820443  0.074164497            2 
  146000    1.1847178   -4.0944649    119.45797   0.06818377  0.074156932            3 
  147000    1.2015271    -4.122751    120.29712  0.068195648  0.074154185            4 
  148000    1.1939895   -4.1081757    121.50534  0.068415166  0.074144687            1 
  149000    1.2045958   -4.1181853    122.32652  0.068415278  0.074139126            1 
  150000    1.1769089    -4.115488    123.22915  0.068460637  0.074131175            3 
  151000     1.182931   -4.0916317    124.23976  0.068564986  0.074124543            1 
  152000    1.1825766   -4.1308235    124.64914  0.068338342  0.074111434            2 
  153000     1.189779   -4.1329146    125.12507  0.068150911  0.074096377            2 
  154000    1.1855401   -4.1132056    125.85012  0.068100714  0.074079643            2 
  155000    1.1835274   -4.1244011      127.002  0.068280646  0.074057594            2 
  156000    1.2106473   -4.1115078    127.09475  0.067892496  0.074030755            2 
  157000    1.1994215   -4.1031896    128.15585  0.068023275  0.074009521            1 
  158000    1.1824216   -4.1131855     129.5407  0.068323155  0.073991281            2 
  159000    1.1887081   -4.1467637    129.93057  0.068097785  0.073970132            2 
  160000    1.1908106   -4.1303728    130.22412  0.067825061  0.073941198            2 
  161000    1.2139239   -4.1199582    131.23691  0.067928006  0.073910559            2 
  162000    1.2020736   -4.1300075    131.73748  0.067766191  0.073879445            3 
  163000    1.1843288   -4.1147763    133.40908  0.068205051  0.073850597            3 
  164000    1.1691147   -4.1366406    133.81451  0.067995176  0.073819893            4 
  165000    1.1721891   -4.1341484    134.68715  0.068023812  0.073791247            2 
  166000    1.2114109   -4.1582328    135.55644  0.068050424  0.073765799            2 
  167000    1.1910319   -4.1370291    136.28976   0.06800886  0.073736215            2 
  168000    1.1866562   -4.1415123    137.39925  0.068154391  0.073711977            2 
  169000    1.1955678   -4.0982879    139.35531  0.068715635  0.073689158            2 
  170000    1.1855729   -4.1468434    139.37465  0.068320908  0.073670956            3 
  171000    1.1927246   -4.1310504    140.76653  0.068599675  0.073654702            2 
  172000    1.1803847   -4.1210625    141.07893  0.068352195  0.073641964            1 
  173000    1.2055954   -4.1530056     142.1261  0.068461511  0.073624585            1 
  174000    1.2111959   -4.1658682     142.8026  0.068392048  0.073605004            4 
  175000    1.1843139   -4.1213392    143.48478  0.068326086  0.073577027            1 
  176000    1.1827373   -4.1158952    144.97946  0.068645579  0.073550321            2 
  177000    1.2324209   -4.1609044    144.16174  0.067872761  0.073526708            4 
  178000    1.2098457   -4.1181125    146.23629  0.068462682  0.073496544            3 
  179000     1.192935   -4.1393919    146.95815  0.068416269  0.073474572            2 
  180000     1.193432   -4.1384888    146.82655  0.067975253  0.073441266            2 
  181000    1.1949293   -4.1049342    147.23522  0.067787854  0.073404525            3 
  182000    1.1556484   -4.1295673    148.36685  0.067933539  0.073367965            4 
  183000    1.1722323   -4.1155985    148.77443  0.067747919  0.073327017            2 
  184000    1.1821991   -4.1378703    149.46502  0.067692491  0.073288859            1 
  185000    1.1621403    -4.116324    151.20662  0.068111089  0.073247339            2 
  186000    1.1714212   -4.1444242     151.4323  0.067846014  0.073207991            1 
  187000    1.1920107   -4.1383949    153.02169  0.068191484   0.07317087            3 
  188000    1.1802005    -4.153703    153.49179  0.068037139  0.073136748            2 
  189000    1.1919465   -4.1480147    153.94396  0.067876528    0.0731045            3 
  190000    1.1664027   -4.1502196    155.61071  0.068250312  0.073075435            2 
  191000    1.1751881   -4.1049287    156.34122  0.068211699  0.073044598            1 
  192000    1.1725229   -4.1034167    157.23071  0.068242496  0.073011532            2 
  193000    1.1669227   -4.1350708    157.57856  0.068039102  0.072972063            2 
  194000    1.1603345   -4.1583651    158.32943  0.068010922  0.072936704            1 
  195000    1.1564359   -4.1534207    158.82262  0.067872916  0.072896498            4 
  196000     1.174312   -4.1872324    159.18914  0.067682459  0.072860097            7 
  197000    1.1822866    -4.115466    160.14994   0.06774532  0.072824331            2 
  198000    1.1671663   -4.1391766     161.9054  0.068142004  0.072789438            5 
  199000    1.1583196   -4.1323573    161.85511  0.067778522   0.07275378            5 
  200000    1.1571886   -4.1798062    162.77099  0.067821246  0.072717459            2 
  201000    1.1438771   -4.1346511    164.13516  0.068049404  0.072681476            3 
  202000    1.1645083   -4.1482976    165.60029  0.068316951  0.072650288            1 
  203000    1.1804501    -4.151991    165.98284  0.068137453  0.072618037            2 
  204000    1.1697681   -4.1444287    167.32768   0.06835281  0.072591776            2 
  205000    1.2051406   -4.1593342    167.96925  0.068280181  0.072567989            2 
  206000    1.1760181   -4.1616992    168.55343  0.068185046  0.072544791            2 
  207000    1.2056345   -4.1595003     169.5895  0.068272744  0.072524283            3 
  208000    1.1805201   -4.1540482     170.5007  0.068309575  0.072502038            1 
  209000    1.1656172   -4.1665779    171.31421  0.068307102   0.07248175            2 
  210000    1.1970215   -4.1445108    171.71844  0.068142239  0.072456912            3 
  211000     1.140071   -4.1620705    171.99169  0.067927209  0.072431098            5 
  212000    1.1836518   -4.1794223    173.08996  0.068038504   0.07240319            2 
  213000    1.1486106   -4.1447313    174.84473  0.068405605  0.072376398            1 
  214000    1.1730778   -4.1488234    175.06986  0.068173622  0.072348008            2 
  215000    1.1682566   -4.1438438    174.96074  0.067814239  0.072314759            1 
  216000     1.149065   -4.1445515    176.52112  0.068102283  0.072291572            2 
  217000    1.1637625   -4.1593968    177.54477  0.068181553  0.072273598            1 
  218000    1.1567271   -4.1353411    178.74426  0.068327315  0.072253517            3 
  219000    1.1461225   -4.1454849    179.14046  0.068166081  0.072228077            1 
  220000    1.1785274   -4.1693459    179.64851  0.068048676  0.072200901            4 
  221000    1.1642051   -4.1729526    179.75058  0.067779254  0.072175706            4 
  222000    1.1267751   -4.1649056     181.5981  0.068167453  0.072149812            1 
  223000    1.1576899    -4.137425     181.7477  0.067917674  0.072122788            1 
  224000    1.1731667   -4.1719287     182.9631  0.068066629  0.072095541            2 
  225000     1.151322   -4.1628744    183.73902  0.068051489  0.072069229            1 
  226000    1.1750473   -4.1870853    184.57278   0.06805781  0.072046393            2 
  227000    1.1931226   -4.1891683    184.81111  0.067845489  0.072022014            1 
  228000    1.1527047   -4.2085802    185.23205  0.067701774  0.071992803            3 
  229000    1.1582248   -4.1768074    185.89851  0.067648656  0.071962266            2 
  230000    1.1475918   -4.1808795    187.91382  0.068084718  0.071930784            1 
  231000    1.1476428    -4.158857    188.87034  0.068135045  0.071897222            1 
  232000    1.1847289   -4.1879652    188.51561   0.06771394  0.071864683            5 
  233000    1.1601246   -4.1967694    188.99981  0.067596498  0.071830098            3 
  234000    1.1578874    -4.177287    189.62326  0.067529649  0.071792695            1 
  235000    1.1635121   -4.1964373    191.10474  0.067767639  0.071757669            2 
  236000    1.1672603   -4.1762094    191.50869  0.067623125  0.071725916            1 
  237000    1.1409367   -4.1563183    193.11389   0.06790221  0.071694096            2 
  238000    1.1412277   -4.1544512    193.53376   0.06776392  0.071664255            1 
  239000    1.1827328    -4.156133     194.6907  0.067883787  0.071636639            2 
  240000    1.1520331   -4.1829927    195.16557  0.067765823  0.071606001            2 
  241000    1.1689916   -4.1625607    196.49887  0.067945668  0.071579829            4 
  242000    1.1601492   -4.1985346    197.21168  0.067910357  0.071553193            4 
  243000    1.1646095   -4.1738069     197.7532  0.067816597  0.071527753            2 
  244000    1.1302949   -4.1844035    198.07113  0.067647242  0.071497755            3 
  245000    1.1700596   -4.1753023     199.2954  0.067787551  0.071463947            2 
  246000    1.1390131   -4.1975738    200.02591  0.067759454  0.071431849            4 
  247000    1.1379828   -4.1751287     200.3111  0.067581344  0.071398906            6 
  248000    1.1506055   -4.1766309     201.0046  0.067541868  0.071364712            5 
  249000    1.1532358   -4.1859964    202.20679  0.067672955  0.071334176            2 
  250000     1.124207   -4.1948321    202.61587  0.067538622  0.071303268            1 
  251000    1.1530713    -4.153928    203.39065  0.067526775  0.071271241            1 
  252000    1.1367913   -4.1842723    204.27606  0.067551608  0.071242587            2 
  253000    1.1544348   -4.2011403    205.53185  0.067698236  0.071212853            2 
  254000    1.1481869   -4.2101707    205.49637   0.06742007  0.071180829            1 
  255000    1.1635069   -4.1774607    206.95885   0.06763361  0.071150851            2 
  256000    1.1473104   -4.2104149    207.03172  0.067393139  0.071120558            2 
  257000    1.1473607   -4.1793576    208.32012  0.067548678  0.071088191            2 
  258000    1.1593649   -4.2018441    208.38687  0.067308422  0.071052435            3 
  259000    1.1760984   -4.1990085    209.45299  0.067391567  0.071020355            5 
  260000    1.1517929     -4.13715    209.79413  0.067241709  0.070985788            1 
  261000    1.1394311   -4.1607286    210.45108  0.067193832  0.070948534            3 
  262000     1.150771   -4.1904691    211.13498  0.067154892  0.070910307            3 
  263000    1.1535667   -4.1692573    212.61612  0.067368858  0.070876997            2 
  264000    1.1097707   -4.1908957    212.74951  0.067155779  0.070846234            2 
  265000    1.1205422   -4.1909826    214.38036  0.067415207  0.070813126            1 
  266000    1.1409161   -4.1813175    214.30371  0.067137754  0.070779703            2 
  267000    1.1564743   -4.1724272    215.05039  0.067119347  0.070743557            2 
  268000    1.1450914   -4.1990647    215.85758  0.067119894  0.070706503            1 
  269000     1.129474   -4.1979306    216.54363   0.06708291  0.070668456            2 
  270000    1.1356362   -4.1641332    216.91216  0.066948197  0.070629953            2 
  271000    1.1670688   -4.2089085    217.40148  0.066851625  0.070589129            1 
  272000    1.1495987   -4.1853977    217.97943  0.066782914  0.070546472            4 
  273000    1.1674614   -4.2075769     218.5826  0.066722404  0.070504568            2 
  274000    1.1446814   -4.1778471    219.23989  0.066678799  0.070463884            3 
  275000    1.1467962   -4.2157488    219.59026  0.066542503  0.070422998            4 
  276000    1.1527767   -4.1766448    221.65429  0.066924605   0.07038275            1 
  277000    1.1318317    -4.209236    222.05156  0.066802514  0.070342896            3 
  278000    1.1372183   -4.2169879    223.01558  0.066851194  0.070303363            1 
  279000    1.1717806   -4.1525773    224.08062  0.066929696  0.070268424            2 
  280000    1.1486727   -4.2101225    225.40724  0.067085489  0.070233865            4 
  281000    1.1227952   -4.2196231    224.52575  0.066585334  0.070195701            4 
  282000    1.1274147   -4.2051268    225.36205   0.06659635  0.070157969            2 
  283000    1.1481158   -4.2214745    225.52551  0.066409161  0.070119237            3 
  284000    1.1301328    -4.185362    227.64758  0.066797999   0.07008166            3 
  285000    1.1458413   -4.2254961    229.18003  0.067011706  0.070045789            2 
  286000    1.1459868   -4.2008107    229.08491  0.066749682  0.070014629            2 
  287000    1.1376848   -4.1727867     230.3115  0.066873258   0.06998282            4 
  288000    1.1215761   -4.1906734    231.08364   0.06686448  0.069951404            2 
  289000    1.1524073   -4.1775639    231.88529  0.066864271  0.069916775            3 
  290000    1.1608645   -4.2080405    232.55872  0.066827217  0.069885596            2 
  291000    1.1387347   -4.1764619    233.52793  0.066875122  0.069853104            4 
  292000    1.1400917   -4.2490576    232.48095  0.066347302  0.069818701            2 
  293000    1.1447082   -4.2344744    233.75203  0.066482376  0.069786341            3 
  294000    1.1454256   -4.1701777    235.23132  0.066675543  0.069752355            3 
  295000    1.1221357   -4.1987732    236.37511  0.066772631   0.06971788            2 
  296000    1.1483285      -4.2146    236.44217  0.066565926  0.069682348            3 
  297000    1.1623924   -4.2052462    236.56615  0.066376585  0.069645543            4 
  298000    1.1261948   -4.2195424      237.905  0.066528243  0.069608577            1 
  299000     1.140517   -4.2328598    237.85039   0.06629052   0.06957167            3 
  300000    1.1266243   -4.2205902    238.94737   0.06637427  0.069534361            1 
  301000     1.134549   -4.2299781    239.42151  0.066285025  0.069499267            3 
  302000    1.1608092   -4.2139526    240.91607  0.066477945  0.069463495            1 
  303000    1.1609718   -4.2179665    241.28915  0.066361153   0.06942506            2 
  304000    1.0995009   -4.2167147    242.18063  0.066387234  0.069389345            2 
  305000    1.1350543   -4.2375286    242.51927  0.066262095  0.069351978            2 
  306000    1.1474753   -4.2111904    244.13137  0.066484579  0.069316664            1 
  307000    1.1019751   -4.2400963    243.15911    0.0660041  0.069279374            2 
  308000    1.1088914    -4.227283     243.8969  0.065989421  0.069241361            1 
  309000    1.1158953    -4.197114     244.9518  0.066060356  0.069202282            2 
  310000    1.1363856    -4.231059    245.89787  0.066101578  0.069162369            3 
  311000    1.1324362   -4.2061465    246.27371   0.06598974  0.069125157            3 
  312000     1.119082   -4.2316026    247.31724  0.066056956  0.069088528            2 
  313000    1.1190606    -4.210942    248.78682  0.066237171  0.069051078            4 
  314000    1.1656231   -4.2305295    248.33212  0.065905551  0.069014595            2 
  315000     1.142847   -4.2099107    249.44265  0.065990119  0.068978647            3 
  316000    1.1363488   -4.2256575    249.99425  0.065926752  0.068944682            4 
  317000    1.1333393   -4.1904094    252.46555  0.066368442  0.068911679            2 
  318000    1.1161068   -4.2370218    251.66096  0.065948889  0.068877117            1 
  319000    1.1393065   -4.1996925    253.08812  0.066114974  0.068840407            2 
  320000    1.0929251   -4.2261099    253.04616  0.065897437  0.068805636            2 
  321000    1.1483268   -4.2150346    253.55781  0.065824977   0.06877045            2 
  322000     1.085891   -4.2012861    254.41223  0.065841675  0.068736454            1 
  323000    1.1223813     -4.18595    255.75851  0.065985166  0.068701885            2 
  324000    1.1355325   -4.2402081    256.43844  0.065956389  0.068669736            5 
  325000    1.1551037   -4.2136013    257.24037   0.06595907   0.06863693            3 
  326000    1.1245176   -4.2532505    258.14853  0.065988889   0.06860618            3 
  327000    1.1442678   -4.2213256    259.31309  0.066083866  0.068574388            4 
  328000    1.1177385   -4.2040353    259.95238  0.066044811  0.068543279            6 
  329000    1.1115065    -4.256569    259.90396  0.065831803  0.068511757            2 
  330000    1.1374964   -4.2119629    260.93556  0.065892819   0.06848141            2 
  331000     1.123779    -4.207007     261.4032   0.06581148  0.068450226            1 
  332000    1.1227517   -4.2062501    261.73917  0.065697583  0.068416843            1 
  333000    1.1021673   -4.2420979    262.20434  0.065616701  0.068380515            3 
  334000    1.1230097   -4.2471327    262.34518  0.065455385  0.068344191            2 
  335000    1.1100328   -4.2324413    262.92764  0.065404886  0.068305135            5 
  336000    1.1188343   -4.2136741    263.93803  0.065460821  0.068268877            1 
  337000    1.1208839   -4.2354419    265.66182  0.065692834  0.068234876            3 
  338000    1.1108629   -4.2308322    265.47918  0.065453448   0.06820103            3 
  339000    1.1143295   -4.2312268    265.25334  0.065204852   0.06816633            2 
  340000    1.1115593     -4.26808    265.98845  0.065193248   0.06813309            1 
  341000    1.0821129   -4.2144827    267.62152  0.065401152  0.068098632            2 
  342000    1.1323896   -4.2163056    268.06083  0.065316967   0.06806429            1 
  343000    1.1321273   -4.2388495    268.93178  0.065338139  0.068028619            7 
  344000     1.115487   -4.2458259    268.22012  0.064975803  0.067993355            2 
  345000    1.1087078    -4.226735    270.74664  0.065397739  0.067957983            2 
  346000    1.1207128   -4.2651486    271.93629  0.065495253  0.067921822            3 
  347000    1.1079946   -4.2473147     271.2321  0.065137392  0.067884777            3 
  348000    1.1093529   -4.1955577    272.87637  0.065343959  0.067848733            4 
  349000    1.1047996   -4.2781924    272.85852  0.065152464  0.067814767            6 
  350000    1.1034935   -4.2547372     273.3334  0.065079382  0.067780763            2 
  351000    1.1099704   -4.2645995    273.58956  0.064954786  0.067745813            2 
  352000    1.1089516   -4.2418754    276.05127  0.065353047  0.067710929            3 
  353000    1.0873593   -4.2122311    276.20408  0.065203986  0.067677418            3 
  354000    1.1219912   -4.2430403    276.04729  0.064982883   0.06764186            3 
  355000    1.1117922   -4.2561643    277.41157  0.065120086  0.067606423            1 
  356000    1.1033727   -4.2592651    277.50404  0.064958811  0.067572655            2 
  357000    1.1246345   -4.2416001    278.47739   0.06500406  0.067537376            3 
  358000    1.1320749   -4.2573274    278.43806  0.064813328  0.067501475            3 
  359000    1.0993229   -4.2423745    278.10499  0.064555477  0.067464034            3 
  360000    1.1284458   -4.2256901    279.81508  0.064772009  0.067425814            2 
  361000    1.0994161   -4.2478882    280.98068  0.064861653  0.067386178            2 
  362000    1.1072742    -4.230837    280.48559  0.064568507  0.067347325            2 
  363000    1.0879269   -4.2472347     281.2395  0.064563705  0.067308057            2 
  364000    1.1122829   -4.2800112    281.13339  0.064362039  0.067267537            3 
  365000    1.1049566   -4.2524306     281.3599   0.06423742  0.067226711            2 
  366000    1.1240436   -4.2530386    282.61931  0.064348659  0.067186894            2 
  367000    1.1122386   -4.2826411    283.76307  0.064433031  0.067147684            2 
  368000    1.0980693   -4.2822639    284.78134  0.064488529   0.06710847            1 
  369000    1.1094328   -4.2779115     285.3617  0.064444827  0.067069192            2 
  370000    1.0997813   -4.2627875    286.89762  0.064616581   0.06703054            3 
  371000    1.0963036   -4.2479947    287.68085   0.06461834  0.066994318            2 
  372000    1.1039711   -4.2362775    288.75037  0.064684222  0.066957672            2 
  373000    1.1049811   -4.2441684    288.95033  0.064555481  0.066923814            2 
  374000    1.1116555    -4.240876    291.07541  0.064856374  0.066892356            4 
  375000    1.0990058   -4.2553666    289.34321  0.064298492  0.066858212            1 
  376000    1.1192631    -4.203955    291.38167   0.06457927  0.066824115            2 
  377000    1.0990339   -4.2741768    291.47671   0.06442898  0.066788923            1 
  378000    1.1168203   -4.2623245    292.31307  0.064442917  0.066753423            1 
  379000     1.071032   -4.2486456    292.41192  0.064294618  0.066717229            3 
  380000    1.0969799   -4.2818083    292.35629  0.064113222  0.066680611            2 
  381000    1.0895558   -4.2796697    292.92593  0.064069537  0.066642441            2 
  382000    1.0937922    -4.239852    293.87661  0.064109208  0.066605202            4 
  383000    1.1315153    -4.260104    293.88596  0.063943855  0.066566986            2 
  384000     1.092548   -4.2888082    294.57264  0.063926355  0.066526939            2 
  385000    1.1098786   -4.2651278    295.93554  0.064055312  0.066486665            2 
  386000    1.1064574   -4.2805915    295.03599  0.063695162  0.066446219            2 
  387000    1.0933755    -4.261277     296.6641  0.063881158  0.066404782            1 
  388000    1.0942206    -4.240053     297.3542  0.063864734   0.06636482            2 
  389000    1.1073839   -4.2662021    297.82786  0.063802026  0.066325905            2 
  390000    1.0795487   -4.2944848    298.38767  0.063758049  0.066288478            4 
  391000    1.0817572   -4.2935283    298.32152  0.063580885  0.066250861            3 
  392000    1.0943073   -4.2842683     300.4683  0.063875064  0.066213096            2 
  393000    1.0866261   -4.2779671    300.96674  0.063818222   0.06617565            2 
  394000    1.0881713   -4.2767781    300.50161   0.06355787  0.066137606            3 
  395000    1.0827623   -4.2732787    301.63044  0.063635113  0.066099089            1 
  396000    1.0999146   -4.2628309    302.67157  0.063693512  0.066063213            4 
  397000    1.1126372   -4.2849381    303.31573  0.063668289  0.066026957            4 
  398000     1.094611   -4.2643326    305.92993   0.06405568  0.065992021            3 
  399000    1.1091935   -4.2632622     305.3733  0.063778886  0.065956522            5 
  400000     1.113655   -4.2625679    306.32663  0.063818048  0.065921514            1 
  401000    1.0853862   -4.2612718    306.20546   0.06363372  0.065884653            4 
  402000     1.087414   -4.3165721    307.08513  0.063657781  0.065848867            1 
  403000    1.1067656   -4.2792858    306.06161  0.063288174  0.065812084            2 
  404000    1.0717811   -4.2883921    307.63458  0.063455977  0.065775731            1 
  405000     1.074509   -4.2681448      307.602  0.063292592  0.065739693            2 
  406000    1.0940704   -4.2674043    308.62735  0.063347156  0.065703507            5 
  407000    1.0997657   -4.2730826    309.97296  0.063467027  0.065665853            2 
  408000    1.0764857    -4.288351    310.15613  0.063348883   0.06562752            2 
  409000    1.1109362   -4.2884601    310.41428  0.063246594  0.065589722            2 
  410000    1.0937328   -4.2707933    311.19231  0.063250469  0.065552385            2 
  411000    1.0902038   -4.2926022    312.39926  0.063341294  0.065516887            1 
  412000    1.1037774   -4.3053222    313.45551  0.063401196  0.065480673            4 
  413000    1.1096422   -4.3323029    312.86831  0.063129199  0.065443915            3 
  414000    1.1121647   -4.2946447    314.57773  0.063320798   0.06540718            4 
  415000    1.1011391   -4.3124974    313.98706   0.06304961  0.065371269            6 
  416000    1.0604543   -4.3127159    315.70769  0.063242726  0.065334747            2 
  417000     1.075893   -4.3289247    315.91349  0.063132193  0.065298564            2 
  418000    1.0926466   -4.2863832    316.18656  0.063035597  0.065261708            2 
  419000    1.0851177   -4.3010077    315.73711  0.062795765  0.065225283            2 
  420000    1.1106513   -4.2949512    317.10582  0.062917821  0.065187545            5 
  421000    1.1087056   -4.3026174    317.52132  0.062850617  0.065147509            3 
  422000    1.0933384   -4.2756466    317.90956  0.062778349  0.065108296            5 
  423000    1.1233108   -4.2773081    319.23283  0.062890629  0.065069481            3 
  424000     1.104067   -4.3064465    317.99013  0.062498061   0.06503019            2 
  425000    1.0713036   -4.2870671    320.11132  0.062766925  0.064989144            3 
  426000    1.0476576   -4.2766675       321.33   0.06285798   0.06494946            1 
  427000    1.0610351   -4.2696279    320.80802  0.062608903  0.064910292            2 
  428000     1.106385   -4.2825996    321.72687  0.062641525  0.064870042            2 
  429000    1.0687174   -4.3168355    321.58621  0.062468183  0.064830959            3 
  430000    1.0708797    -4.331555    322.60506   0.06252036  0.064792349            4 
  431000     1.075099   -4.2997311    323.67699  0.062582558  0.064753789            4 
  432000    1.0836453   -4.2942519    324.02362  0.062504556  0.064715157            3 
  433000     1.080463   -4.3473615    323.65147  0.062288581  0.064676345            1 
  434000    1.1005736   -4.2957868    324.83633  0.062372568  0.064638489            2 
  435000    1.0758909   -4.3040602    326.33823  0.062516902  0.064599631            2 
  436000    1.0850886   -4.2760616    326.70707  0.062444012  0.064561983            2 
  437000    1.0721371   -4.3216372    326.73286  0.062306037  0.064525381            2 
  438000    1.0793631   -4.2933705    328.29276   0.06246057  0.064488606            2 
  439000    1.0633468   -4.3122452    328.32486  0.062324385  0.064449809            9 
  440000    1.1068792   -4.3624924    328.64155  0.062242718  0.064411631            3 
  441000     1.068127   -4.3327136    329.87258    0.0623342  0.064372338            4 
  442000    1.0714028   -4.3075569    330.76954   0.06236228  0.064336007            2 
  443000    1.0637756   -4.3176986    330.43845  0.062159226  0.064299646            4 
  444000    1.0903599   -4.3200253    330.99988  0.062124601  0.064261702            3 
  445000    1.0813644    -4.318403    331.03816  0.061992164  0.064223433            2 
  446000    1.0692349   -4.3388518    331.84854  0.062004586  0.064185445            2 
  447000    1.0694283   -4.3069458    332.55819  0.061998172  0.064147655            4 
  448000    1.1000469   -4.3101472    335.04679  0.062322691  0.064111572            5 
  449000    1.0656106   -4.2593273      336.051  0.062370267  0.064075959            2 
  450000    1.0923214   -4.3054806    335.28975  0.062090695  0.064040819            2 
  451000    1.0745493   -4.3233453    336.70311  0.062214173  0.064005835            4 
  452000    1.0676901   -4.3169568    338.19785  0.062352111  0.063972502            3 
  453000    1.0608992   -4.3211838    338.08616  0.062193921  0.063939455            2 
  454000     1.057071   -4.3200071    338.28616  0.062093642   0.06390396            5 
  455000    1.0915561   -4.3114803    338.10862  0.061924656  0.063869941            3 
  456000     1.064809   -4.3066629    340.31684  0.062192405  0.063835847            1 
  457000    1.0833496   -4.3105987    340.47406  0.062084986  0.063802027            3 
  458000    1.0816513   -4.3281527    338.90303   0.06166358  0.063766762            4 
  459000    1.0681119   -4.2995538    341.93926  0.062080475    0.0637314            6 
  460000    1.0672439    -4.326857    341.24664  0.061820044  0.063695558            2 
  461000    1.0660839   -4.3419795    339.88358  0.061439548  0.063658624            2 
  462000     1.039361   -4.3439152    341.22257  0.061548082  0.063621251            2 
  463000    1.0714699   -4.3275224    342.27076  0.061603808  0.063584776            1 
  464000    1.0524155   -4.3225626    341.84543  0.061394653  0.063547917            1 
  465000    1.0709958   -4.2742813    343.42945  0.061546496  0.063509063            1 
  466000    1.0599294   -4.3023275      344.065  0.061528076  0.063469346            3 
  467000    1.0726793     -4.30771    344.00625  0.061385841  0.063430588            5 
  468000    1.0666428   -4.3495645    342.54416   0.06099433  0.063389903            4 
  469000     1.094104   -4.3174854    343.33056  0.061004009  0.063348245            2 
  470000    1.0689725   -4.3303639    344.12394  0.061014882  0.063306861            3 
  471000    1.0523706   -4.3272422    345.50895  0.061130387   0.06326509            2 
  472000     1.083448   -4.3548684    344.79072  0.060874068  0.063222167            4 
  473000    1.0361394   -4.3630293    344.77256   0.06074217   0.06318016            4 
  474000    1.0498897   -4.3010992    347.61288  0.061113375   0.06313824            4 
  475000    1.0668164   -4.3576196    347.18099  0.060908946  0.063098137            1 
  476000    1.0610741   -4.3311385    349.39071  0.061167841  0.063057886            2 
  477000    1.0397878   -4.3266383    348.60859  0.060902969  0.063017591            3 
  478000    1.0797857   -4.3449955    348.17123  0.060699307  0.062976944            2 
  479000    1.0653306    -4.338377    349.88372  0.060870515  0.062937885            7 
  480000    1.0660105   -4.3275378    352.09565  0.061127718  0.062899485            2 
  481000    1.0609667     -4.31754      349.234  0.060504851  0.062859487            3 
  482000    1.0777723   -4.3370704    352.14777  0.060883086  0.062819846            3 
  483000    1.0520013   -4.3522496    352.26033  0.060776454  0.062782287            2 
  484000    1.0762163   -4.3409067    353.89709  0.060932694  0.062743455            5 
  485000    1.0460628   -4.3256038    355.02101  0.061000174  0.062705352            4 
  486000    1.0625869   -4.3349889    355.16875  0.060899992  0.062667385            3 
  487000    1.0674597   -4.3539436    354.32108  0.060629891   0.06262941            2 
  488000    1.0385691   -4.3745841    353.77014  0.060411568  0.062590536            2 
  489000    1.0553574   -4.3254016    355.59191  0.060598485  0.062550195            1 
  490000    1.0675929   -4.3466376    356.91277  0.060699451  0.062511731            3 
  491000    1.0516683   -4.3335435    357.15586  0.060617084  0.062472585            4 
  492000    1.0352187   -4.3340989    358.30365  0.060688288  0.062434313            1 
  493000    1.0610683    -4.355023    358.10885  0.060532261  0.062396271            2 
  494000    1.0430105   -4.3155987    359.76697  0.060689435  0.062358305            5 
  495000    1.0371625   -4.3432617    359.61011  0.060540422  0.062320935            6 
  496000    1.0351431   -4.3486908    360.11291  0.060502841  0.062282744            1 
  497000     1.049715   -4.3418812    360.57444   0.06045849  0.062245434            8 
  498000    1.0441147   -4.3337583    362.64791  0.060684054    0.0622091            4 
  499000    1.0504508   -4.3393658    361.38002  0.060350705  0.062173954            2 
  500000    1.0804401   -4.3745586    363.17957  0.060529928  0.062138486            4 
  501000     1.048597   -4.3333592    364.58318  0.060642578  0.062104296            5 
  502000     1.042721   -4.3289878    365.77439   0.06071952  0.062069566            2 
  503000    1.0308909   -4.3633103    366.38406  0.060699812  0.062036549            4 
  504000    1.0524033   -4.3688603    367.44162  0.060754237  0.062003686            2 
  505000    1.0880857    -4.363936    366.99466  0.060560175  0.061970644            4 
  506000    1.0343439    -4.331427    368.14069   0.06062923  0.061939068            4 
  507000    1.0421219   -4.3725494    368.71061  0.060603322  0.061906705            1 
  508000    1.0629758   -4.3359579    368.24826  0.060408179   0.06187431            3 
  509000    1.0476335    -4.372645    368.51529  0.060333217  0.061841729            1 
  510000      1.01984   -4.3302436    369.24248  0.060333738  0.061809551            3 
  511000    1.0692181   -4.3352566    372.30582  0.060715235  0.061777129            2 
  512000    1.0485911   -4.3391077    371.14923  0.060408403  0.061745116            3 
  513000    1.0309058   -4.3629611    371.35221  0.060323622  0.061711688            3 
  514000     1.066776   -4.3672547    371.81726  0.060281658  0.061679816            5 
  515000    1.0605736   -4.3618539    373.02297  0.060359704  0.061648056            2 
  516000    1.0219047   -4.3603063     373.2081  0.060272625  0.061616805            5 
  517000    1.0359456   -4.3725412    373.62184  0.060222733  0.061583965            4 
  518000    1.0449253   -4.3508554    373.68936  0.060117337  0.061551022            3 
  519000    1.0420468   -4.3675996    375.70901  0.060325789  0.061518257            4 
  520000    1.0215211   -4.3780232    375.53597  0.060182046  0.061486526            2 
  521000    1.0451704   -4.3690796    375.75681  0.060101857  0.061455835            2 
  522000    1.0334622   -4.3535678    379.52704  0.060588608  0.061425397            2 
  523000    1.0611837   -4.3368745    379.51628  0.060471045   0.06139554            4 
  524000    1.0547795   -4.3660807    378.55332  0.060202499  0.061365243            2 
  525000    1.0254267   -4.3566825    378.46781  0.060074256  0.061333072            3 
  526000    1.0157917   -4.3609232    378.24342  0.059924496  0.061300267            3 
  527000    1.0173626   -4.3662738    379.17164  0.059957565  0.061267157            2 
  528000    1.0407503   -4.3548254    380.23349    0.0600116  0.061235083            5 
  529000    1.0440425   -4.3626564    381.13319  0.060039885  0.061203951            2 
  530000    1.0406538    -4.335485    382.27442  0.060106041  0.061172728            2 
  531000    1.0397476   -4.3951413    381.83467  0.059923834   0.06114182            2 
  532000    1.0488253   -4.3551453    380.85738  0.059658111  0.061110056            3 
  533000    1.0315031   -4.3978158    381.68916  0.059676228  0.061078098            3 
  534000    1.0360479   -4.3482099    383.83694  0.059899647  0.061047007            4 
  535000    1.0600682   -4.3689885     383.3296  0.059708661  0.061015627            2 
  536000    1.0546091   -4.3351866    384.16304   0.05972684  0.060982764            2 
  537000    1.0552943   -4.3753681    385.02959  0.059750092  0.060951088            2 
  538000     1.055926   -4.3559706     385.7104  0.059744486  0.060919155            2 
  539000    1.0458084   -4.3831211    385.97706   0.05967487  0.060887253            3 
  540000    1.0652355   -4.3924016    387.23318  0.059758207  0.060855012            5 
  541000    1.0423465   -4.3802599     388.3365  0.059817698  0.060822662            4 
  542000    1.0292213   -4.3843944    387.73578  0.059614972  0.060790532            2 
  543000    1.0467087   -4.4057519    388.02583  0.059549697  0.060759094            4 
  544000    1.0521448   -4.3913774     389.1491  0.059612301  0.060727302            1 
  545000    1.0364588   -4.3796738    389.61955  0.059574855  0.060696534            1 
  546000    1.0335792   -4.4009601    390.20411  0.059554962  0.060666129            2 
  547000    1.0280946   -4.3713413    391.73317  0.059679033  0.060635581            2 
  548000    1.0441536     -4.37204    392.00407  0.059611324  0.060605754            1 
  549000    1.0432737   -4.3831407    393.03209  0.059658787  0.060576386            4 
  550000    1.0185805   -4.3740044    393.18375  0.059573296  0.060545717            3 
  551000    1.0270924   -4.3980502    394.38587  0.059646986  0.060516178            2 
  552000    1.0450779   -4.4011855    393.23987  0.059365922  0.060485238            2 
  553000    1.0337162   -4.3755913    393.77663  0.059339456  0.060455254            8 
  554000    1.0282307   -4.4116887    394.35487  0.059319324  0.060424661            2 
  555000    1.0320024   -4.3934011    396.01525   0.05946175  0.060394437            4 
  556000    1.0391139   -4.3570127    396.27064  0.059393082  0.060364245            7 
  557000    1.0311634   -4.4056722    396.47402  0.059316878  0.060334591            2 
  558000    1.0236732    -4.396358    397.41603  0.059351259  0.060306012            3 
  559000    1.0169456   -4.3841122    399.51909    0.0595586    0.0602776            3 
  560000    1.0534575   -4.4064829    397.49701  0.059151341  0.060249098            1 
  561000    1.0247312   -4.3787992    397.65859  0.059069903  0.060219444            1 
  562000       1.0182   -4.3793731    399.53784  0.059243452  0.060190506            6 
  563000    1.0366253   -4.4091514    400.77923   0.05932197  0.060160779            3 
  564000    1.0588669   -4.4130387    398.72562  0.058913361  0.060130545            5 
  565000    1.0309985   -4.4077597    400.03699  0.059002506  0.060099913            2 
  566000     1.044307   -4.4235529    401.18424  0.059067173  0.060069801            2 
  567000    1.0069043   -4.3820494    401.81114  0.059055135  0.060039965            5 
  568000    1.0354523   -4.3946386    401.65946  0.058928911  0.060009882            1 
  569000    1.0247706   -4.4110875    401.99333  0.058874242  0.059979632            4 
  570000    1.0357575   -4.4068888    402.56984  0.058855239  0.059948766            4 
  571000    1.0244266   -4.4171076    403.21028  0.058845633  0.059918364            2 
  572000    1.0243493   -4.3984856    403.11764   0.05872926  0.059887424            2 
  573000    1.0369298    -4.373998    404.54623  0.058834531  0.059855921            3 
  574000    1.0389076   -4.4026295    404.55714  0.058733616  0.059824185            5 
  575000    1.0289696   -4.3891216    405.80407  0.058812184  0.059794092            3 
  576000    1.0187997   -4.3821731    405.72732  0.058698976  0.059762065            3 
  577000    1.0342768   -4.3864552    405.94311   0.05862841  0.059729807            2 
  578000    1.0327299   -4.3996563     405.8385  0.058511894   0.05969863            5 
  579000    1.0383853   -4.4058596    406.59584  0.058519839  0.059667602            1 
  580000    1.0181513   -4.4079439    407.43232  0.058539127  0.059636858            2 
  581000    1.0224674   -4.4111769     409.7686  0.058773466   0.05960595            2 
  582000    1.0293979   -4.3696413    410.73905  0.058811433  0.059575556            4 
  583000    1.0405307   -4.3913489    410.26925  0.058643404  0.059546498            4 
  584000    1.0300143   -4.3832953    409.80362  0.058476544  0.059517489            2 
  585000    1.0133817   -4.4342464     411.0195  0.058549786  0.059488923            6 
  586000     1.030469   -4.4312982    411.77904  0.058557884  0.059460147            5 
  587000    1.0173165   -4.4079746    413.29603  0.058673485  0.059431354            2 
  588000     1.027474   -4.4038348    413.70038  0.058631006   0.05940156            3 
  589000    1.0215407   -4.4022056    412.89549  0.058417585  0.059372063            2 
  590000    1.0201037   -4.3521527    415.68883  0.058713111  0.059342561            4 
  591000    1.0372216   -4.3634171    414.88552  0.058500496  0.059313302            1 
  592000     1.010905   -4.4045346    414.79297   0.05838865  0.059283588            2 
  593000    1.0199618   -4.4045732    416.43423  0.058520831  0.059253945            4 
  594000    1.0224771   -4.4011734      416.381  0.058414843  0.059224546            2 
  595000    1.0299496   -4.4205165    416.64126  0.058353118  0.059195388            1 
  596000    1.0104308   -4.3776913    416.27936  0.058204608  0.059165267            2 
  597000    1.0052137   -4.4097222     417.1805    0.0582329   0.05913592            2 
  598000    1.0084921   -4.4110016    417.58691  0.058192156  0.059106934            4 
  599000    1.0230562   -4.3827238    418.96866  0.058287237  0.059078327            2 
  600000     1.038521   -4.4332256    417.73678  0.058018997  0.059048911            3 
  601000   0.99974618   -4.3992725    419.89234  0.058221345  0.059019451            1 
  602000     1.016072   -4.3815069    421.74127  0.058380574  0.058990784            7 
  603000   0.97710146   -4.3990431     420.7227  0.058142994  0.058961767            3 
  604000    1.0106735   -4.4121611    421.38334  0.058137878  0.058932631            3 
  605000    1.0076601   -4.4012213    420.52445  0.057923478  0.058902143            5 
  606000    1.0127477   -4.4030398    422.40131  0.058085988  0.058872303            1 
  607000   0.99916084   -4.4454858    422.00491  0.057935874  0.058843091            4 
  608000    1.0170763   -4.4169757    423.07913   0.05798782  0.058813185            2 
  609000    1.0255243    -4.420646    422.94452  0.057874182  0.058784185            3 
  610000    1.0196748   -4.4333394    423.46064  0.057849814  0.058754508            2 
  611000    1.0047998   -4.4284051    424.11583  0.057844493  0.058724781            5 
  612000    1.0055009   -4.4380942    425.30138  0.057911407  0.058694986            4 
  613000    1.0113186   -4.4632523    424.91856  0.057764894  0.058665239           11 
  614000   0.99150285   -4.3906596    426.02491   0.05782097  0.058635895            4 
  615000    1.0132851   -4.4357183    427.09507  0.057871961  0.058606775            3 
  616000    1.0113008   -4.4088943    428.75555  0.058002644  0.058576664            3 
  617000    1.0005573   -4.3884014    427.96318  0.057801618  0.058547394            2 
  618000    1.0287161   -4.4305291    427.68971  0.057671212  0.058517368            1 
  619000    1.0037598   -4.4148502     427.9303  0.057610433  0.058487362            5 
  620000    1.0380272   -4.4183555    428.42556  0.057584081  0.058456688            3 
  621000    1.0269823   -4.4307242    428.24402  0.057466991  0.058426408            3 
  622000     1.009572   -4.4238091    429.47807  0.057539935  0.058396507            2 
  623000    1.0014145   -4.4280899    430.73608  0.057615848  0.058367294            5 
  624000    1.0095404   -4.4780465    429.81574  0.057400606  0.058338376            4 
  625000    1.0377712   -4.4261521      431.148    0.0574864  0.058308767            5 
  626000    1.0051808   -4.4261769    432.16683  0.057530195   0.05827987            2 
  627000     1.000121   -4.4469668    432.03574  0.057421018  0.058251215            5 
  628000   0.98902207   -4.4342612    432.64205  0.057410038  0.058222919            2 
  629000    1.0094241   -4.4295706    434.38414  0.057549568  0.058194051            2 
  630000   0.99310783   -4.4216191    434.42472  0.057463587  0.058165472            3 
  631000    1.0081915   -4.4193343    435.71179  0.057542497  0.058136475            4 
  632000    1.0059462    -4.435943    434.49208  0.057290623  0.058108407            2 
  633000    1.0113975   -4.4267798    435.88211  0.057383111  0.058079983            2 
  634000    1.0388823   -4.4378549    434.89832  0.057163292  0.058050701            4 
  635000    1.0188761   -4.4298265    437.72125  0.057443734  0.058022575            2 
  636000   0.99867194   -4.4463394    436.04939  0.057134354    0.0579938            4 
  637000    0.9925042    -4.429068    438.26709  0.057334784  0.057965479            1 
  638000    1.0025756   -4.4259644    437.75108  0.057177518   0.05793649            3 
  639000    1.0026687   -4.4252859    437.84787  0.057100661  0.057907798            4 
  640000    1.0193323   -4.4392506    438.17779  0.057054399  0.057877774            1 
  641000    1.0080779   -4.4382457    438.84596  0.057052257  0.057849066            5 
  642000   0.98159804   -4.4498443    440.72315  0.057207054  0.057819821            4 
  643000    1.0147278   -4.4550129     439.1289   0.05691147  0.057790871           10 
  644000    1.0134978   -4.4512295    440.39176  0.056986511  0.057762596            2 
  645000   0.99065961   -4.4258531    441.09437  0.056988937  0.057733496            3 
  646000    1.0156918   -4.4611872    440.10942  0.056773661  0.057705188            2 
  647000    1.0033183   -4.4450815    440.83887  0.056779865  0.057676308            3 
  648000   0.97821931   -4.4515933    442.83029   0.05694834   0.05764698            3 
  649000   0.98472586   -4.4148408    442.90151  0.056869736  0.057618043            2 
  650000   0.99977748   -4.4393244    444.80854  0.057026736  0.057589857            4 
  651000   0.99527403   -4.4398157    444.62844  0.056916083  0.057562124            4 
  652000    1.0077683   -4.4656349    446.32033  0.057045032  0.057534355            3 
  653000   0.97427705   -4.5120944    444.00897  0.056662706  0.057506253            5 
  654000   0.99358394    -4.443715     447.5715  0.057030008  0.057478673            5 
  655000   0.98972927   -4.4740457    446.86585  0.056853162  0.057451351            4 
  656000    0.9692213   -4.4306061    449.18596  0.057061225  0.057424205            3 
  657000   0.97395821   -4.4356059    448.35824  0.056869386  0.057396105            4 
  658000   0.97444423   -4.4507849       448.64  0.056818643  0.057368425            4 
  659000   0.99644904   -4.4362885    450.30532   0.05694301  0.057340267            2 
  660000    1.0115818   -4.4394883    449.69273  0.056779385   0.05731319            1 
  661000   0.99467078   -4.5111727    447.99523  0.056479479  0.057285839            8 
  662000   0.99274736   -4.4581868    449.60201  0.056596427  0.057257611            5 
  663000   0.97740516   -4.4650605    451.48857  0.056748187  0.057229912            5 
  664000   0.97607834   -4.4364588    451.09076  0.056612796  0.057201983            2 
  665000   0.97800808   -4.4655974    449.87769   0.05637565  0.057172986            5 
  666000   0.98228911   -4.4577188    452.75381  0.056650877  0.057144529            2 
  667000   0.98842052   -4.4634547    453.03167  0.056600659  0.057116083            3 
  668000    0.9947214   -4.4586481    453.61509  0.056588709  0.057088196            2 
  669000   0.98110982   -4.4621156    454.14818  0.056570525  0.057059981            2 
  670000   0.98698986   -4.4576425    453.64069  0.056422972  0.057032765            5 
  671000   0.98242932    -4.456713    455.14097  0.056525207  0.057005102            2 
  672000    1.0088773   -4.4790828    455.39718  0.056472865  0.056977215            2 
  673000   0.99069548   -4.4657739    454.75455  0.056309379  0.056949158            3 
  674000   0.98353647   -4.4578984    455.65472  0.056337131  0.056921277            4 
  675000   0.96002821   -4.4819297    457.36365  0.056464648   0.05689408            3 
  676000   0.97742416   -4.4685061    457.26021  0.056368369  0.056867039            2 
  677000   0.98386941   -4.4796772    456.11622  0.056144291  0.056839128            3 
  678000   0.98296681   -4.4438344    458.66679  0.056374975   0.05681166            3 
  679000   0.99553282   -4.4712893    458.52941  0.056275087  0.056784482            3 
  680000   0.98296389   -4.4626583    459.11488  0.056264078  0.056757308            3 
  681000   0.97479132   -4.4911856    459.88457  0.056275645  0.056730533            3 
  682000   0.98288844   -4.4670273    462.04721  0.056457381  0.056703338            3 
  683000   0.99076462   -4.4612672    461.57191  0.056316729  0.056676158            3 
  684000   0.97082021   -4.4713711    463.17736   0.05642999  0.056649462            3 
  685000   0.97778267   -4.4934423    463.15152  0.056344467   0.05662318            2 
  686000   0.96308052   -4.4976974    463.56435  0.056312482  0.056597396            3 
  687000   0.98309116   -4.4232777    465.16598  0.056424791  0.056571489            4 
  688000    0.9652347   -4.4776767    462.63789  0.056036566  0.056545681            4 
  689000   0.97604937   -4.4492666    464.17966   0.05614171  0.056518939            3 
  690000   0.97736518   -4.4879088    462.76462  0.055889447  0.056492171            6 
  691000    0.9902756   -4.4900632    464.28662  0.055992115  0.056464981            3 
  692000   0.96712183   -4.4843048    462.82753  0.055735493  0.056436831            3 
  693000   0.98234907   -4.4627786    462.93608  0.055668119  0.056408811            4 
  694000   0.98437665   -4.4954572    462.39364  0.055522772  0.056380144            4 
  695000   0.96578261    -4.488876    464.95442  0.055749931  0.056351761            2 
  696000   0.96868095   -4.4904401     465.0932  0.055686446  0.056323913            5 
  697000   0.95127318   -4.4865777    465.81617   0.05569299  0.056295992            4 
  698000   0.97634145   -4.4861557    466.41378  0.055684549  0.056267923            6 
  699000   0.96592022   -4.4547757    466.65455   0.05563359  0.056240109            4 
  700000   0.98581127   -4.4985774    468.03465  0.055718411  0.056211742            5 
  701000   0.97657837   -4.4746485    467.88928  0.055621645  0.056183574            3 
  702000   0.98669958   -4.4998001    469.10437  0.055686653  0.056155184            3 
  703000   0.97669496   -4.5171539    468.60861  0.055548674   0.05612736            3 
  704000   0.99033271   -4.5031354    470.20168  0.055658343  0.056099533            4 
  705000   0.97747002   -4.5110422    470.41986  0.055605185  0.056071304            3 
  706000   0.98236182   -4.5003107    470.57765  0.055545049  0.056044607            3 
  707000    0.9816218   -4.4755275    472.47267  0.055689848   0.05601722            3 
  708000   0.95441412    -4.473505    471.55483  0.055503158  0.055990927            1 
  709000   0.96524686   -4.4991248     473.4033  0.055642136  0.055964356            3 
  710000   0.96786684   -4.4921676    473.31256  0.055553118  0.055937844            3 
  711000    0.9629081    -4.494242    474.41882  0.055604644  0.055911001            8 
  712000   0.95433275   -4.4705355    472.22039   0.05526924  0.055883163            3 
  713000   0.97010977    -4.520482    473.54397   0.05534642  0.055855783            5 
  714000   0.96266926    -4.484814    474.33303  0.055360998  0.055828301            2 
  715000   0.96876407   -4.4805609     475.4554  0.055414383  0.055800947            3 
  716000   0.97054524   -4.5059982    475.88681  0.055387198  0.055773572            4 
  717000   0.95263396   -4.5058826    475.61897  0.055278821  0.055745882            4 
  718000   0.97429758   -4.4969435    475.84769  0.055228376  0.055717863            5 
  719000   0.96228123   -4.4895653    475.62866  0.055126177  0.055689548            4 
  720000   0.94773329   -4.4856969     476.8107  0.055186423  0.055660848            2 
  721000   0.97294501    -4.475147    476.52956  0.055077388  0.055632548            3 
  722000   0.96428332   -4.4926602    477.09361  0.055066206  0.055604436            4 
  723000   0.95093555   -4.4575264    479.02247  0.055212364  0.055576174            9 
  724000   0.96089386   -4.4633519      478.402  0.055064687   0.05554865            2 
  725000   0.92658322   -4.5195523    477.41327  0.054875089  0.055519841            3 
  726000   0.95779724   -4.5010252    478.35612  0.054907727   0.05549064            5 
  727000   0.96754529   -4.4708404     478.3123  0.054827178  0.055461475            3 
  728000   0.96957603   -4.4975902    478.81505  0.054809414    0.0554322            4 
  729000   0.97248662   -4.5020619    480.01783  0.054871723  0.055403104            3 
  730000   0.94284056   -4.5257385    479.19004   0.05470206  0.055374267            6 
  731000   0.94754535   -4.4916141    482.01058  0.054948767  0.055345677            2 
  732000    0.9684836   -4.4877453     481.8478  0.054855168  0.055317394            5 
  733000   0.95751084   -4.5061884    479.57752  0.054522228  0.055288075            2 
  734000   0.96095304    -4.531093    480.75833  0.054582009  0.055258648            2 
  735000   0.94575156   -4.5111224     480.6702  0.054497755  0.055229289            2 
  736000   0.96503882   -4.5099749    480.33042  0.054385238  0.055199699            3 
  737000   0.95716927   -4.5106756    481.48036   0.05444147  0.055168938            3 
  738000   0.95687713   -4.5510501    480.50339  0.054257384   0.05513864            6 
  739000   0.96834061   -4.5393477    479.39425  0.054058891  0.055107724            2 
  740000   0.94262054   -4.4721116     482.1452   0.05429563  0.055076634            5 
  741000   0.97417289   -4.5301829    481.51483  0.054151465  0.055046228            3 
  742000   0.94815641   -4.5059739    483.62682   0.05431568  0.055015266            3 
  743000   0.95942569   -4.4863225    483.19002  0.054193587  0.054984403            7 
  744000   0.95696355   -4.5374496    483.95295    0.0542062  0.054954336            4 
  745000   0.94473956   -4.5134264    485.85317  0.054345992  0.054924588            3 
  746000   0.95006521   -4.4961997    485.86946  0.054274962  0.054895311            3 
  747000   0.94089435   -4.5084111    485.13412  0.054120272  0.054865281            2 
  748000   0.95420568   -4.5173171    484.70626  0.054000252  0.054835673            2 
  749000    0.9611076   -4.4984164    487.16238  0.054201422  0.054805593            4 
  750000   0.95918896   -4.5503737    484.28254  0.053809171  0.054775821            3 
  751000   0.94856004   -4.4954028    487.40735   0.05408426  0.054745774            4 
  752000   0.98437453   -4.4850816    490.11899  0.054312832  0.054716134            3 
  753000   0.95262149   -4.5415869    488.09207  0.054016387  0.054686847            6 
  754000   0.94229815   -4.5079734    488.75208  0.054017693  0.054657964            6 
  755000   0.96080149   -4.5218011    490.82119  0.054174524  0.054629081            6 
  756000   0.94643648   -4.5144094    489.20544  0.053924762  0.054599724            6 
  757000   0.94662152   -4.5393133    491.28864  0.054082853    0.0545707            4 
  758000   0.95282969   -4.5159402    491.21735  0.054003666  0.054542754            3 
  759000   0.94035622   -4.5400186    493.13324  0.054142868  0.054514263            3 
  760000   0.95811056    -4.513882    493.14215  0.054072604   0.05448648            5 
  761000   0.95936147   -4.5362865    494.06516  0.054102624  0.054458894            5 
  762000    0.9504191   -4.5234983    493.28449  0.053946248  0.054431682            9 
  763000   0.94107127   -4.5188488    493.12453  0.053858074  0.054403489            5 
  764000   0.95180731   -4.5128259    494.86115  0.053977001  0.054375927            4 
  765000   0.93878064   -4.5407165    495.89437  0.054018995  0.054348141            2 
  766000   0.94635643   -4.5337746    495.55936  0.053912028  0.054320459            2 
  767000   0.93767376   -4.5584164    495.50119  0.053835418  0.054293119            2 
  768000   0.95779408   -4.5174952    497.07085  0.053935639  0.054266269            2 
  769000   0.93093198   -4.5210402    497.88865  0.053954123   0.05424008            2 
  770000    0.9697454   -4.5543433    498.31785  0.053930503  0.054213597            8 
  771000   0.93466582   -4.5338721    499.00352  0.053934665  0.054187796            5 
  772000   0.94220028   -4.5615169    498.74909  0.053837337  0.054161615            2 
  773000   0.94569979   -4.5606469    499.21227  0.053817623   0.05413549            4 
  774000   0.94247634   -4.5654243    499.57979  0.053787661  0.054109593            5 
  775000   0.95032198   -4.5398017    500.84501  0.053854303  0.054083634            2 
  776000   0.95448288   -4.5296382    502.75547  0.053990063  0.054058081            3 
  777000   0.94628134   -4.5613638    500.27293  0.053654325  0.054032047            5 
  778000   0.94164664   -4.5449101    503.22929  0.053902024  0.054006122            3 
  779000   0.94667538   -4.5641529    502.46454  0.053751021  0.053980789            3 
  780000   0.94913714   -4.5510909    503.03262  0.053742802  0.053955338            4 
  781000   0.92501721   -4.5616996    502.33239  0.053599274   0.05392931            2 
  782000   0.92345271   -4.5534698    504.95356  0.053810055  0.053903857            3 
  783000   0.92975836   -4.5581936    505.04378  0.053750934   0.05387887            3 
  784000   0.92332514   -4.5519558    505.70707  0.053752877  0.053853367            3 
  785000   0.93798709    -4.545874     505.9086  0.053705796  0.053828349            5 
  786000   0.93964283   -4.5792675    506.36281  0.053685624  0.053803344            4 
  787000   0.92522927   -4.5480643    506.64325  0.053647104  0.053777797            3 
  788000   0.94676316   -4.5314446    507.42273  0.053661456  0.053752663            1 
  789000   0.94525958   -4.5695054    507.60596  0.053612796   0.05372677            4 
  790000   0.92474204    -4.545562    510.60366  0.053861145  0.053701379            4 
  791000   0.93493554    -4.543022    507.49527  0.053465579  0.053675584            6 
  792000   0.95408852   -4.5567477    507.33067  0.053380752  0.053650187            4 
  793000   0.94495291   -4.5502317    508.60786  0.053447652  0.053624337            4 
  794000   0.93090502   -4.5272868    507.81687  0.053297321  0.053598181            1 
  795000   0.93869905   -4.5615452    508.85669  0.053339276  0.053572631            5 
  796000   0.92946521    -4.566779    509.19918  0.053308122  0.053545949            5 
  797000   0.94239308   -4.5601525    510.22982  0.053348998  0.053519367            4 
  798000   0.93356809   -4.5772051    509.33131  0.053188316  0.053493266            3 
  799000   0.95393832    -4.560352    511.26187  0.053323099  0.053466984            2 
  800000   0.94450777   -4.5430335    512.37872  0.053372783  0.053441756            3 
  801000   0.93869451   -4.5652534    512.25974  0.053293772  0.053416415            3 
  802000   0.94464272   -4.5927731    510.60818  0.053055713  0.053390262            5 
  803000   0.94299137   -4.5581968    511.37982   0.05306972  0.053364557            5 
  804000   0.93534989   -4.5496438    513.03525  0.053175296  0.053338873            3 
  805000   0.93286316   -4.5374701    513.57325  0.053164933  0.053312661            4 
  806000   0.93270081   -4.5311861    516.26372  0.053377142  0.053287303            3 
  807000   0.92835523   -4.5852853     514.7959  0.053159428  0.053261858            3 
  808000   0.93150691   -4.5880985    513.07372  0.052916019  0.053235828            3 
  809000   0.92966441   -4.5889739    514.25429  0.052972218  0.053209857            4 
  810000   0.92585054   -4.5824175    514.02525  0.052883256  0.053183413            7 
  811000   0.95563833   -4.5726231    512.92742  0.052705242  0.053156883            4 
  812000   0.92916476   -4.5392721    515.97443  0.052953041  0.053130569            4 
  813000   0.95075681   -4.5721528    515.21484  0.052810049  0.053104186            3 
  814000   0.94643573    -4.581907     515.6661   0.05279137  0.053078177            5 
  815000   0.91847026   -4.5513931    516.91053  0.052853837  0.053052145            2 
  816000   0.94349694   -4.5744894    518.83003  0.052985093  0.053026359            5 
  817000   0.92096751   -4.5528755    518.95353  0.052932837  0.053000957            2 
  818000   0.91600485   -4.5735917    516.50956  0.052619148  0.052975218            4 
  819000   0.91657187   -4.5808543    518.10648  0.052717387  0.052949016            4 
  820000   0.90000711   -4.5806829     518.3616  0.052679025  0.052923028            1 
  821000   0.92618594   -4.5679309    519.52899  0.052733353  0.052896952            2 
  822000    0.9337394   -4.5710688    519.84289  0.052701023   0.05287079            2 
  823000   0.91985028    -4.607767    518.42057  0.052492969  0.052844378            5 
  824000   0.90749976   -4.5696096    520.69318    0.0526591  0.052817475            2 
  825000   0.92239319   -4.5960432    520.59475  0.052585329  0.052790907            2 
  826000   0.92912263   -4.5356668    521.55259    0.0526183  0.052764501            4 
  827000   0.92627746   -4.5567517    521.59877  0.052559328  0.052737998            6 
  828000   0.94070331    -4.576239    519.61118  0.052295811  0.052711157            4 
  829000    0.9266823   -4.5764073    521.91359  0.052464173  0.052684383            3 
  830000   0.90443994   -4.5683202    522.79738  0.052489697   0.05265758            3 
  831000   0.89949086   -4.5627564    523.26541  0.052473467  0.052631074            6 
  832000   0.93348052   -4.5841077    521.75597  0.052259211   0.05260478            2 
  833000   0.91307395   -4.5511949    523.81343  0.052402304  0.052578085            6 
  834000   0.93856853   -4.5889595     522.5334  0.052211571  0.052551535            8 
  835000   0.93070083   -4.5986785    524.68253  0.052363525  0.052525136            3 
  836000   0.91143382   -4.5755635    525.50915  0.052383288  0.052499237            4 
  837000     0.939175   -4.5702849    524.86936  0.052257005  0.052472737            5 
  838000   0.92175339   -4.5650222    526.93978  0.052400535  0.052446942            5 
  839000   0.90805936   -4.5887736    525.82369  0.052227224  0.052420635            5 
  840000   0.93444999    -4.593927    526.31383  0.052213674  0.052394511            3 
  841000   0.92467753   -4.5952284    525.93452  0.052114003  0.052368316            6 
  842000   0.92333362   -4.5815862    527.95239   0.05225182  0.052341756            6 
  843000    0.9278429   -4.5983214    526.89823  0.052085629  0.052315514            7 
  844000   0.93196264   -4.6085712    525.45489  0.051881407  0.052289079            4 
  845000   0.94845998   -4.6148272    526.23587  0.051897029  0.052262414            7 
  846000   0.92555839   -4.6053822    528.58152  0.052066737  0.052235948            3 
  847000   0.92264813   -4.5892269    529.45214  0.052090923  0.052209791            5 
  848000   0.91859072   -4.5878674    529.12283  0.051997134  0.052183276            3 
  849000    0.9188631   -4.5787184    530.36991  0.052058295  0.052157617            1 
  850000   0.92074456    -4.572771    530.55086   0.05201479  0.052131004            3 
  851000   0.92088014   -4.5934795    530.37657  0.051936601  0.052104347            4 
  852000   0.92596024   -4.6007863     528.5502  0.051697007  0.052077515            4 
  853000   0.90010153   -4.5962617      529.223   0.05170213  0.052050328            4 
  854000   0.91878515   -4.5952933     531.5667  0.051870287  0.052023232            2 
  855000   0.90189149    -4.597464    529.08641  0.051567876  0.051996207            6 
  856000   0.90967044   -4.5758561    532.28856   0.05181937   0.05196951            7 
  857000   0.88730463   -4.5730953    530.59029  0.051593766  0.051942328            2 
  858000   0.91707404     -4.60871    533.77225  0.051842682  0.051915709            4 
  859000   0.91290269   -4.5954336    531.96125  0.051606641  0.051888992            3 
  860000    0.9120289   -4.6120048    532.69144  0.051617388  0.051862277            4 
  861000   0.89622207   -4.6234246    533.46827  0.051632624  0.051834798            3 
  862000   0.91960773   -4.6186822    533.94688  0.051618994   0.05180776            7 
  863000   0.92317494     -4.59747    534.71065  0.051632932  0.051780888            3 
  864000   0.93442065   -4.5794555    534.33933  0.051537359  0.051754066            2 
  865000   0.90344216   -4.6171472    534.87338  0.051529228  0.051727541            5 
  866000   0.90685056   -4.5972734    535.02495   0.05148431  0.051700639            4 
  867000   0.89934571   -4.6175926    535.10594  0.051432712  0.051674235            2 
  868000   0.92698595    -4.655365    535.20958  0.051383408   0.05164786            4 
  869000   0.93565663   -4.5925888     536.5995  0.051457566   0.05162152            3 
  870000   0.88920252   -4.5909376    536.73234  0.051411144    0.0515957            4 
  871000   0.91269992   -4.6115519    538.52896  0.051524011  0.051570703            3 
  872000   0.91826309   -4.6163837    538.20127  0.051433607  0.051545335            4 
  873000   0.90563215   -4.6309805    538.13415  0.051368284  0.051519803            4 
  874000   0.90465039    -4.600057    537.56953  0.051255676  0.051494088            4 
  875000   0.89459535   -4.5944921    539.69443  0.051399469  0.051467894            3 
  876000   0.89943218   -4.5962491    540.61164  0.051428047  0.051442272            3 
  877000     0.908985    -4.635593     539.4051   0.05125476  0.051416186            6 
  878000   0.91784842   -4.6462949    539.84173  0.051237825  0.051390063            6 
  879000   0.89037836   -4.5992008    541.46208  0.051333152  0.051364199            5 
  880000   0.89316078   -4.6236355    538.72875   0.05101598  0.051337738            4 
  881000   0.91519887   -4.6198359    540.98283  0.051171286  0.051311053            2 
  882000   0.89366016   -4.6397482    539.20469  0.050945266  0.051284368            2 
  883000    0.9100832   -4.6349359    540.63328  0.051022393  0.051257808            2 
  884000   0.90365593   -4.6222375    540.15629  0.050919711  0.051231288            4 
  885000   0.90099254   -4.6184359    541.48252  0.050987055  0.051204716            2 
  886000    0.9143367   -4.6535752    539.67145  0.050759166   0.05117762           10 
  887000   0.88643387   -4.5909943    540.64717  0.050793609  0.051150642            4 
  888000    0.8961647   -4.6461327    540.40305  0.050713499  0.051123507            3 
  889000   0.89279321    -4.595322    541.64045  0.050772445   0.05109588            4 
  890000   0.89790058   -4.6314996    541.06922  0.050661912   0.05106795           10 
  891000   0.90765394   -4.6089551    543.83063  0.050863321  0.051040969            7 
  892000   0.92490988   -4.6327293    542.27122  0.050660614  0.051014301            4 
  893000   0.89957133   -4.5995827    544.57345  0.050818724  0.050987586            6 
  894000   0.88973103   -4.6500663    544.40111  0.050745816  0.050961173            6 
  895000   0.87649048   -4.6059695    545.65422  0.050805793  0.050934938            4 
  896000   0.91173067   -4.6358746     545.0265  0.050690709  0.050908934            5 
  897000   0.90096205   -4.6665075    544.48381   0.05058378  0.050882423            4 
  898000   0.90072992   -4.6494142    544.55069  0.050533657   0.05085602            3 
  899000   0.90405727   -4.6239526    547.49137  0.050750035  0.050830198            3 
  900000   0.90480558    -4.645419    546.26227   0.05057984  0.050804183            5 
  901000   0.89667823   -4.6238559    546.45106  0.050541163   0.05077807            3 
  902000   0.90238027   -4.6448148    546.54291  0.050493617  0.050751976            3 
  903000   0.88158441   -4.6469729    547.49058  0.050525155  0.050725315            4 
  904000   0.89210594   -4.6315821    547.14346  0.050437265  0.050698691            4 
  905000   0.88937282   -4.6283798    548.40523  0.050497719  0.050671958            4 
  906000   0.89431923   -4.6375827    549.15617  0.050511053  0.050645103            2 
  907000   0.89994762   -4.6620345    546.83246  0.050241865  0.050618441            8 
  908000   0.87448495   -4.6330938    549.10696  0.050395279  0.050591542            6 
  909000   0.89531598   -4.6325634    549.13865  0.050342744  0.050564479            6 
  910000   0.90674192   -4.6444362    550.46798  0.050409155  0.050537768            6 
  911000   0.91006937   -4.6613128    547.85681  0.050114966  0.050511045            4 
  912000   0.87661777   -4.6485238    550.74167  0.050323617  0.050484174            3 
  913000   0.88100665   -4.6408016    550.65675  0.050260747  0.050457137            3 
  914000   0.88783051   -4.6681356    551.89145   0.05031833  0.050430917            3 
  915000   0.87587038   -4.6240142    552.05188  0.050277949  0.050404211            4 
  916000    0.8796167     -4.62836    552.17064  0.050233865  0.050378116            3 
  917000   0.89041984   -4.6458135    553.66231  0.050314641  0.050351897            5 
  918000   0.88778861   -4.6436871     553.1441  0.050212791  0.050325486           11 
  919000   0.88933788   -4.6451827     553.6285  0.050202076  0.050299325            3 
  920000   0.87218214   -4.6307686    552.92982  0.050084223  0.050273445            1 
  921000   0.88448349   -4.6742793    554.70086  0.050190088  0.050247365            6 
  922000   0.88292659    -4.643958      553.259  0.050005332   0.05022105            7 
  923000   0.88843822   -4.6797621    554.20765  0.050036805  0.050195053            6 
  924000   0.87851518   -4.6237921    556.59092  0.050197594  0.050169128            7 
  925000   0.88042059    -4.607552    557.60446  0.050234636  0.050143905            6 
  926000   0.89636744    -4.663619    557.77713  0.050195926  0.050118728            4 
  927000   0.87875624   -4.6353829    558.80081  0.050233802  0.050093337            4 
  928000   0.88470962   -4.6688343    559.22648  0.050217895  0.050067849            3 
  929000   0.91032044   -4.6626851    559.70157  0.050206456  0.050042708            3 
  930000    0.8769734    -4.650179    555.06847  0.049737318  0.050017013            4 
  931000   0.88081898   -4.6680628    558.65498  0.050004922  0.049991647            5 
  932000   0.89890625   -4.6924119    557.76884  0.049872035  0.049966139            2 
  933000   0.88908941   -4.6573386     558.0131  0.049840398  0.049940698            5 
  934000   0.89350991   -4.6587204    559.26539  0.049898768  0.049915607            4 
  935000   0.88056465   -4.6763195    558.29594  0.049758996  0.049890072            5 
  936000   0.88471375   -4.6495594    560.16253   0.04987202  0.049864569            3 
  937000    0.8662612   -4.6436088    561.38232  0.049927278  0.049839455            3 
  938000   0.88691008   -4.6687023    561.12225  0.049850946  0.049814401            4 
  939000   0.87193034   -4.6865804    559.91741  0.049690931  0.049788345            5 
  940000   0.89476631   -4.6860302    561.07008  0.049740255  0.049762585           10 
  941000   0.88617153   -4.6491191    561.11745  0.049691591   0.04973709            2 
  942000   0.88789564   -4.6751939    560.96573  0.049625419  0.049711875            4 
  943000   0.88974253   -4.6713471    561.78608  0.049645288  0.049686329           10 
  944000   0.86961985   -4.6429065    562.27979  0.049636281  0.049660973            4 
  945000   0.87679177   -4.6826548    561.11097  0.049480685  0.049635453            7 
  946000   0.87035327   -4.6544035    561.54684  0.049466776  0.049609756            3 
  947000   0.87478277   -4.6624313    562.99896  0.049542323  0.049583911            4 
  948000   0.87886338   -4.6827946    564.27658  0.049602371  0.049558429            3 
  949000   0.87099587   -4.6683772    564.54105  0.049573327  0.049532511            2 
  950000   0.88159599   -4.6734415    564.34023  0.049503529  0.049506967            4 
  951000   0.90282983    -4.650225    563.93528   0.04941599  0.049481481            5 
  952000   0.84565404   -4.6787511    563.36492  0.049314156  0.049455812            2 
  953000    0.8835343     -4.68559    566.00682  0.049493426  0.049429813            5 
  954000   0.86444739   -4.6767443    563.08402  0.049186235   0.04940368            7 
  955000    0.8750352   -4.6683154    563.75768  0.049193515  0.049377768            5 
  956000   0.87339711   -4.6658678    564.37304  0.049195697   0.04935196            5 
  957000   0.87992382   -4.6714536     564.2916    0.0491372  0.049326098            8 
  958000   0.85387873   -4.6547749    565.03085  0.049150213  0.049299997            6 
  959000   0.85976703   -4.6797361    566.10626  0.049192411  0.049273942            3 
  960000   0.87841686   -4.6860942    567.51411  0.049263377   0.04924806            5 
  961000   0.88887394   -4.6633097    566.67627  0.049139462  0.049222165            5 
  962000   0.85459514   -4.6758875    567.68271  0.049175564  0.049196192            4 
  963000   0.87712292   -4.6576027    569.60038  0.049290445  0.049170604            8 
  964000   0.86836064   -4.6884069    568.58081  0.049151176  0.049145123            4 
  965000   0.89207871   -4.6578176    569.28323  0.049160901  0.049119683            4 
  966000   0.87855503   -4.6935268    569.04392  0.049089365  0.049094139            3 
  967000   0.87756702   -4.6806335    568.17087  0.048963363  0.049068247            5 
  968000   0.87181911   -4.7106301    567.77311  0.048878539  0.049042803            3 
  969000   0.88085548   -4.6802376    570.58196  0.049069656  0.049017611            3 
  970000   0.86905078   -4.6604853    570.45934  0.049008534   0.04899257            8 
  971000   0.86049496   -4.7002272    569.00624  0.048833354  0.048967158            5 
  972000   0.86857288   -4.6731538    571.91217   0.04903225  0.048941853            1 
  973000   0.89329391   -4.6779584    573.61566  0.049127754  0.048916424            4 
  974000   0.88381985   -4.6985732    573.78983  0.049092217  0.048891834            5 
  975000   0.87573355   -4.6858635    573.80305  0.049042995   0.04886731            4 
  976000   0.85628156     -4.67142    572.51847  0.048883066  0.048842949            3 
  977000   0.85891421   -4.6681505    574.07322  0.048965645  0.048818448            5 
  978000   0.86717695    -4.689123    574.87138  0.048983587  0.048794478            5 
  979000   0.85226289   -4.7032845    575.08909  0.048952085  0.048770236            3 
  980000   0.87962232   -4.6742994    574.80085  0.048877623  0.048745769            5 
  981000   0.86278294   -4.6986562    576.87333  0.049003851  0.048721692            2 
  982000   0.86576166   -4.7156501    576.00069  0.048879896  0.048697139            3 
  983000    0.8516273   -4.6711486    576.36077  0.048860696   0.04867314            3 
  984000   0.84313636    -4.732012    575.47962  0.048736418  0.048648787            7 
  985000   0.85272898   -4.6929397    577.61268  0.048867401    0.0486248            5 
  986000   0.85618522   -4.6963186    578.02024  0.048852285  0.048600836            5 
  987000   0.85780979   -4.6836761    579.29817  0.048910686  0.048577014            4 
  988000   0.87369849   -4.7170088    577.48259  0.048708046    0.0485529            6 
  989000   0.86410372   -4.7072071    577.11114  0.048627497  0.048528702            5 
  990000   0.85446421   -4.7017752    578.10279  0.048661851  0.048504438            4 
  991000   0.86053948   -4.6919603    579.42922  0.048724286  0.048480467            6 
  992000   0.86068652   -4.7157384    577.53321  0.048515895  0.048456553            4 
  993000   0.85840071    -4.717923    577.28358  0.048446088  0.048432443           10 
  994000   0.84730477   -4.7217895     579.1409   0.04855306  0.048407716            3 
  995000    0.8603427   -4.7130517    580.11078  0.048585492  0.048382864            5 
  996000   0.86674809   -4.7202681    579.60265  0.048494197   0.04835866            3 
  997000   0.84016232   -4.7190236    580.64516  0.048532694  0.048334176            3 
  998000   0.84960719   -4.7148339    578.12388  0.048273537  0.048309374            5 
  999000   0.86420347   -4.7251758    579.65709  0.048353111  0.048284787            3 
 1000000     0.852088   -4.7050739    581.45253  0.048454377  0.048260294            7 
 1001000   0.85775061   -4.7189839    579.77749  0.048266524  0.048235882            4 
 1002000   0.86980316   -4.7139479    583.13743   0.04849779  0.048211362            4 
 1003000   0.85968417   -4.7080021    582.05578   0.04835957  0.048187153            7 
 1004000   0.86952146   -4.7023006    582.05869  0.048311644  0.048162846            3 
 1005000   0.85357477   -4.7060897    584.98786  0.048506456  0.048138643            4 
 1006000   0.87855606   -4.7080143    583.49201  0.048334328  0.048114287            3 
 1007000   0.85983138   -4.7178192    581.06897  0.048085813  0.048089676            2 
 1008000   0.85000557   -4.7199458    582.02269  0.048116955  0.048064813            7 
 1009000   0.85589384   -4.7199465    582.63838  0.048120117  0.048039987            4 
 1010000   0.85318242   -4.7175045    583.54301  0.048147113  0.048015254            3 
 1011000   0.86140252   -4.7212891    583.18966  0.048070365  0.047990631            4 
 1012000   0.85705509   -4.7160134    583.41275  0.048041234  0.047966138           10 
 1013000   0.86016169    -4.735726    584.28331  0.048065426  0.047941731            4 
 1014000   0.84568367   -4.7414708    585.47477  0.048115941  0.047917245            9 
 1015000   0.84752681   -4.7100427    586.25409  0.048132519  0.047893089            3 
 1016000    0.8507193   -4.6961753    587.40933  0.048179899  0.047869072            4 
 1017000   0.84716845   -4.7024783    587.10686   0.04810774  0.047844976            5 
 1018000   0.86141696   -4.7050901      585.713  0.047946382  0.047821142            4 
 1019000   0.84854612   -4.7193804    586.48694  0.047962622  0.047797285            4 
 1020000   0.85487527   -4.7284614    586.17474  0.047890093  0.047772959            3 
 1021000   0.84756917   -4.7458605    587.00713  0.047911127   0.04774861            6 
 1022000   0.83959781   -4.7242596    586.18264  0.047797019  0.047724454            8 
 1023000    0.8462487   -4.7486117    588.92238  0.047973475  0.047700405            5 
 1024000   0.82977195   -4.7093334    588.81269    0.0479177  0.047676212            3 
 1025000   0.84754547   -4.7123931    587.04483  0.047727222  0.047651827            2 
 1026000   0.84001747   -4.7224787    587.66191  0.047730824   0.04762732            7 
 1027000   0.84642635   -4.7326343    588.35594  0.047740663  0.047603164            2 
 1028000    0.8504146   -4.7013289    589.43614  0.047781788  0.047579015            5 
 1029000   0.84426243   -4.7500862    591.10355  0.047870388  0.047554748            3 
 1030000   0.83511685   -4.7314739    589.35145  0.047682156  0.047530376            4 
 1031000   0.84088431   -4.7243639    589.63088  0.047658493   0.04750644            5 
 1032000   0.82068639   -4.7517117    591.31007  0.047747906  0.047482181            7 
 1033000   0.85006395   -4.6991786    592.57318   0.04780358  0.047458599            7 
 1034000   0.84394602     -4.72573    591.07901  0.047636928  0.047434997            9 
 1035000   0.82473061   -4.7465129    592.51753  0.047706725  0.047411307            6 
 1036000   0.83157829   -4.7402603    589.39472  0.047409485  0.047387283            8 
 1037000   0.82306425   -4.7334782    592.64274  0.047624779  0.047363051           10 
 1038000   0.84131098   -4.7345559    592.95029  0.047603588  0.047338592            3 
 1039000   0.84572506   -4.7285124    592.10593  0.047490049  0.047314496            3 
 1040000    0.8384635   -4.7388626    591.27326  0.047377665   0.04729035           12 
 1041000   0.83457581   -4.7821171    590.64195  0.047281616  0.047266002            6 
 1042000   0.85248286   -4.7762938    592.80869  0.047409524  0.047241511            6 
 1043000   0.83397162   -4.7502727    592.44417  0.047334945  0.047217061            8 
 1044000   0.84141028   -4.7505834    593.58716   0.04738084  0.047192411            4 
 1045000   0.83690685   -4.7638182    591.02997  0.047131576  0.047167654            3 
 1046000   0.83825448   -4.7252727    593.37238  0.047273134    0.0471433            5 
 1047000   0.83457151   -4.7178796    594.12812  0.047288134  0.047118894            4 
 1048000   0.83490877   -4.7553849    592.95513   0.04714974  0.047094656            5 
 1049000   0.82831454   -4.7372758    594.82871  0.047253631  0.047070077            3 
 1050000   0.83924794   -4.7420757    594.45307  0.047178815  0.047045696            4 
 1051000   0.85023667   -4.7508815    593.26291  0.047039558  0.047020664            4 
 1052000   0.84274763    -4.736013    594.43646  0.047087806  0.046995641            4 
 1053000    0.8137824   -4.7596193    595.49234  0.047126649   0.04697086            4 
 1054000   0.84371708      -4.7623    594.22373  0.046981636  0.046946342            5 
 1055000   0.81804473   -4.7588011    593.78064  0.046902104  0.046921358            4 
 1056000   0.82021858   -4.7514781    595.51206  0.046994323  0.046896714           13 
 1057000    0.8318106   -4.7135784    598.82187  0.047210807  0.046872225            3 
 1058000   0.81701371    -4.770178    596.34715  0.046971263  0.046847747            8 
 1059000   0.83868965   -4.7486454    597.19541  0.046993659  0.046823215            6 
 1060000   0.81004305   -4.7605616    596.78487   0.04691705  0.046798811            7 
 1061000    0.8191659   -4.7381313    597.57687  0.046935035  0.046774338            5 
 1062000   0.82206706   -4.7646384    597.20228  0.046861447   0.04674991            3 
 1063000   0.80924407   -4.7762736    595.71114  0.046700465  0.046725319            4 
 1064000   0.83696413   -4.7468982    599.31499   0.04693883   0.04670098            5 
 1065000   0.83268193   -4.7721554    600.07726  0.046954402  0.046676811            7 
 1066000   0.84160049    -4.772242    597.92872  0.046742395  0.046652458            7 
 1067000   0.84124287   -4.7706574    599.40745  0.046814077  0.046627676           11 
 1068000   0.84277772   -4.7741793    599.09786  0.046746088  0.046603198            9 
 1069000   0.82266819   -4.7817771    597.60403  0.046585908  0.046578536            6 
 1070000   0.83065178   -4.7400884    599.27224  0.046672292  0.046553971            7 
 1071000   0.82825047   -4.7632029    598.52409  0.046570502  0.046529597            6 
 1072000   0.80857097   -4.7946471    598.55867  0.046529747  0.046505145            3 
 1073000   0.82415314    -4.765004    600.65202  0.046648961   0.04648039            6 
 1074000    0.8309672   -4.8064491    598.96373  0.046474529   0.04645564            4 
 1075000    0.8326222   -4.7716481    601.80446  0.046651509  0.046430911            6 
 1076000   0.81891364   -4.7558181    601.98351  0.046622019  0.046406045            4 
 1077000   0.83431408   -4.7502304    599.66563  0.046399384  0.046381198            5 
 1078000   0.81610079   -4.7784024    600.23034  0.046399995  0.046356161            3 
 1079000   0.83485307   -4.7465899    602.06579  0.046498748  0.046331198            5 
 1080000   0.84666886   -4.7579823    602.08882  0.046457471  0.046306423            5 
 1081000   0.82449853   -4.7712806    600.48564  0.046290906  0.046281368            6 
 1082000   0.82504148   -4.7532584    603.44238  0.046475845   0.04625657            4 
 1083000   0.83330719   -4.7667863    602.78201  0.046382118  0.046231544            3 
 1084000   0.81973175   -4.7602181    601.10372   0.04621031    0.0462063            7 
 1085000    0.8193846   -4.7795597    602.04442  0.046239971  0.046181383            3 
 1086000   0.82944903   -4.8046431    601.73017  0.046173279  0.046156419           11 
 1087000   0.81373864   -4.7740469    604.29506  0.046327434  0.046131468            6 
 1088000   0.80742995   -4.7723227    603.77005  0.046244642  0.046106495            5 
 1089000   0.82726852   -4.7837192    603.16904  0.046156186  0.046081528            3 
 1090000   0.80627174   -4.7971479    601.59247  0.045993308  0.046056568            6 
 1091000   0.78439318   -4.7739818    603.23171   0.04607636   0.04603162            3 
 1092000   0.83633786   -4.8029992    603.65246  0.046066275  0.046006351            5 
 1093000   0.82259103   -4.7911557    602.00158   0.04589826  0.045980835            7 
 1094000   0.80825274   -4.7676815    603.95029  0.046004745  0.045955915            6 
 1095000   0.81510275   -4.7948313    603.50364   0.04592874  0.045930946            4 
 1096000    0.8309851   -4.7820346    603.92722  0.045919041  0.045905777            4 
 1097000   0.83071354   -4.7726012    605.99603  0.046034339  0.045880647            6 
 1098000   0.82680847   -4.8049769    605.09194  0.045923796  0.045855432            6 
 1099000   0.81481525   -4.7825312    606.73401  0.046006522  0.045830554           16 
 1100000   0.82415462   -4.8036419    603.96273  0.045754752  0.045805729            4 
 1101000   0.79557317   -4.8025138    604.88505  0.045783004  0.045780749            8 
 1102000   0.81790656   -4.7752143    607.56653  0.045944232  0.045756068            5 
 1103000   0.82355711   -4.7929022    606.08347  0.045790531  0.045731325            5 
 1104000   0.81287907   -4.7963109    606.02869  0.045744919  0.045706555            5 
 1105000   0.81347312   -4.7942213    605.13285  0.045635962   0.04568163           12 
 1106000   0.80517186   -4.7953475     606.0809  0.045666132  0.045656495           10 
 1107000    0.8117615   -4.8181527    606.53257  0.045658881  0.045631214            8 
 1108000   0.80581101   -4.7880004    608.89065  0.045795025  0.045606038            2 
 1109000   0.82513257    -4.762106    608.83506  0.045749553  0.045581411            4 
 1110000   0.82230299   -4.7920314     608.0987  0.045653056  0.045556496            4 
 1111000   0.80707351   -4.7979816    607.57184  0.045572446  0.045531669            6 
 1112000   0.78344356   -4.7635785    609.51005  0.045676712  0.045506957            8 
 1113000   0.80814742   -4.7970619    608.75235  0.045578942  0.045482193            6 
 1114000   0.83446978   -4.8217115    608.20699  0.045497231  0.045457596            8 
 1115000   0.80573795   -4.7918714    609.53943  0.045556011  0.045432828            7 
 1116000   0.80380473    -4.783947    608.67737  0.045450819  0.045408204            3 
 1117000   0.80850074   -4.8040721    608.08243  0.045365744  0.045383657            7 
 1118000   0.81500496   -4.8139903     608.5487  0.045359921  0.045358502            8 
 1119000   0.80135112   -4.8390629    609.62258  0.045399358  0.045333586            3 
 1120000   0.81598904   -4.7725266    609.76631  0.045369517  0.045308742            3 
 1121000   0.80862616   -4.7757906    611.89331  0.045487162  0.045284062            3 
 1122000   0.78568254   -4.7944515    610.50468  0.045343484  0.045259316            4 
 1123000   0.80648956   -4.8075192    610.80556  0.045325435  0.045234308            7 
 1124000   0.81701803   -4.8148609    611.45299   0.04533311  0.045209121            6 
 1125000   0.81593542   -4.8120222    610.40162  0.045214935  0.045184206            7 
 1126000   0.80399654   -4.8252209    611.38811  0.045247788  0.045159308            3 
 1127000   0.78534684   -4.8009168    612.07323  0.045258299  0.045134501            7 
 1128000   0.79524599   -4.7953562    611.29295  0.045160531  0.045109636            5 
 1129000   0.78968305   -4.8045536    612.49982  0.045209612  0.045084779            2 
 1130000   0.82239504   -4.8005213    613.62336   0.04525246  0.045060069            5 
 1131000   0.79633871   -4.8432132    608.97282  0.044869792  0.045034944            6 
 1132000    0.8143629   -4.7898758    611.61522  0.045024678  0.045009535            3 
 1133000   0.78663615   -4.8472885    610.74178  0.044920696  0.044984255            5 
 1134000   0.79309769   -4.8131803    611.76932  0.044956593  0.044958769            5 
 1135000   0.79192852   -4.8285697    610.42199  0.044818061  0.044933406            6 
 1136000   0.78794706   -4.8277519    611.18914  0.044834884  0.044908391            8 
 1137000   0.79891212   -4.8149833    614.12825  0.045010866  0.044883188            8 
 1138000    0.8034678   -4.8008721    614.89121  0.045027183  0.044858753            4 
 1139000    0.8134577   -4.8240766    615.15457  0.045006919  0.044834048            3 
 1140000   0.79163048   -4.8218555    615.34893  0.044981647  0.044809142           18 
 1141000   0.81076089   -4.8313427    615.57581  0.044958794  0.044784517            6 
 1142000   0.78789751   -4.8460208    614.36552  0.044831109  0.044759639            6 
 1143000    0.7881984   -4.8309772    616.08637  0.044917349  0.044734742            6 
 1144000   0.81294281   -4.7916829    617.57163  0.044986278  0.044709981            4 
 1145000   0.80645333   -4.8077142    616.46481  0.044866435   0.04468543            5 
 1146000   0.79022032    -4.799884    616.10671  0.044801244  0.044660675            3 
 1147000   0.80116062   -4.8337145    614.61122  0.044653533   0.04463594           11 
 1148000   0.78357217   -4.8303937    615.87369  0.044706279  0.044611183            8 
 1149000   0.79032953    -4.835164    614.82597  0.044591382   0.04458616            4 
 1150000   0.79991264   -4.8205266    617.03565  0.044712728  0.044561387            3 
 1151000   0.79253115   -4.8397723    617.52103  0.044709024  0.044536282            7 
 1152000     0.787912   -4.8532612    617.68755  0.044682259  0.044511173            6 
 1153000   0.79213498   -4.8269331    617.79264  0.044651101  0.044485988            9 
 1154000   0.78477278   -4.8452117    614.97601  0.044409013  0.044460796            9 
 1155000   0.80082584   -4.8424865    617.36836  0.044543172  0.044435357            7 
 1156000    0.8051799   -4.8405893    616.62082  0.044450751  0.044409844            4 
 1157000   0.78967675   -4.8228981    616.65748  0.044414972   0.04438458           12 
 1158000   0.78690779   -4.8646487    617.92885   0.04446811  0.044358993            4 
 1159000   0.77504582   -4.8288875     617.8934  0.044427193  0.044333537            6 
 1160000   0.78912145   -4.8368014    617.67041  0.044372874  0.044308307            4 
 1161000   0.80472097    -4.852932    616.81353   0.04427315   0.04428298            6 
 1162000   0.77543316   -4.8638783    616.31766  0.044199488  0.044257603           10 
 1163000   0.78505269   -4.8491283    618.65573  0.044329015  0.044232172            6 
 1164000    0.7799835   -4.8341715    618.48521  0.044278723  0.044207029            5 
 1165000   0.77852878   -4.8397529    620.20515  0.044363745  0.044181689            6 
 1166000   0.78279766   -4.8394782    618.86471  0.044229897  0.044156506            3 
 1167000   0.78793717   -4.8497072    618.54558  0.044169208  0.044131345           10 
 1168000   0.79526528   -4.8477349    619.74596  0.044217034  0.044106338           13 
 1169000   0.78251736   -4.8193946    618.39727  0.044083067  0.044081197            4 
 1170000   0.78557863    -4.846054    618.75274  0.044070708  0.044056119            4 
 1171000    0.8125287   -4.8287822    619.66309  0.044097857   0.04403123            6 
 1172000   0.77726129   -4.8325971    620.98715  0.044154376  0.044006302            2 
 1173000   0.79007099   -4.8601259    619.34233  0.043999881  0.043981499            3 
 1174000   0.77069404   -4.8795467    619.80539  0.043995272  0.043956491            3 
 1175000   0.79099642   -4.8342018    621.48926  0.044077253  0.043931496            4 
 1176000   0.78095157   -4.8427704    620.17688  0.043946774  0.043906763            7 
 1177000   0.78201085   -4.8517784    622.44767  0.044070212   0.04388211            5 
 1178000   0.76150273   -4.8475119    621.85681  0.043991003  0.043857236            3 
 1179000    0.7828601   -4.8143942    624.48259  0.044139284  0.043832619            3 
 1180000   0.77889523   -4.8656477    622.76688  0.043980712  0.043808083           10 
 1181000    0.7747151   -4.8361314    624.09161  0.044036947  0.043783324            4 
 1182000   0.78405546    -4.852101    624.05028  0.043996776  0.043758822            4 
 1183000    0.7851185   -4.8836905    622.24827  0.043832648  0.043734003           11 
 1184000   0.77065961   -4.8668719    624.48759  0.043953237  0.043709109            5 
 1185000   0.78695016   -4.8698452    622.82391  0.043799149  0.043684286            5 
 1186000   0.77833379   -4.8589159    623.10019  0.043781632   0.04365937            5 
 1187000     0.768833   -4.8348921    622.57761  0.043708061  0.043634552            4 
 1188000   0.77573204    -4.846426    624.85169  0.043830787  0.043609876           10 
 1189000   0.78461946   -4.8650373    625.55425  0.043843163  0.043585276            4 
 1190000   0.79841512    -4.852521    624.66753  0.043744225  0.043560525            4 
 1191000   0.78708248   -4.8473343    623.67909  0.043638336  0.043536056            4 
 1192000   0.76992148   -4.8564793    625.77396   0.04374818  0.043511505            7 
 1193000   0.79075673   -4.8557584    624.30951  0.043609214  0.043486932            9 
 1194000   0.77631785   -4.8640808    625.72442  0.043671442  0.043462407           10 
 1195000   0.79380304   -4.8583454    623.85527  0.043504552  0.043437683            8 
 1196000   0.76573753   -4.8391424    624.88846  0.043540166  0.043413018            7 
 1197000   0.77192066    -4.840702    627.18911  0.043663959  0.043388685            6 
 1198000   0.77456896   -4.8792616    624.36537  0.043431091  0.043364303            7 
 1199000   0.77294152   -4.8697925    625.27621  0.043458174  0.043339792            6 
 1200000   0.77227781   -4.8690148    624.70056  0.043381983  0.043314838            9 
 1201000   0.75986043   -4.8765255    626.48572  0.043469728   0.04329019            9 
 1202000   0.77348168   -4.8974673    624.68215  0.043308524  0.043265392            5 
 1203000    0.7623404   -4.8599584     627.7676  0.043486257  0.043240744            4 
 1204000   0.75902356   -4.8761559    626.68227  0.043375018  0.043216074            4 
 1205000   0.77431617   -4.8555146    628.80577  0.043485876  0.043191534           11 
 1206000   0.77173841   -4.8756863    627.69735  0.043373227  0.043166957            4 
 1207000    0.7711163   -4.8557056    627.87013  0.043349222  0.043142568            6 
 1208000   0.78246922   -4.8549879    629.18597  0.043404109  0.043117974            5 
 1209000   0.78599287   -4.8765397    627.82351  0.043274298  0.043093606            6 
 1210000   0.78956019   -4.8788962    628.99612  0.043319292  0.043069174           13 
 1211000   0.77432651   -4.8774848    627.93259  0.043210335  0.043044905            7 
 1212000   0.75871869   -4.8983054    627.62265  0.043153373  0.043020423           16 
 1213000   0.78003014   -4.8874571    629.23239  0.043228386  0.042995841            4 
 1214000    0.7639089   -4.8589938    630.03722  0.043248024  0.042971492            7 
 1215000   0.78043086   -4.8638649    629.40958  0.043169381  0.042947466           12 
 1216000    0.7771129   -4.8657605    629.89797   0.04316735   0.04292329            7 
 1217000   0.77223802   -4.8867725     629.2963   0.04309068  0.042898918           15 
 1218000    0.7626051   -4.8678723    630.40893  0.043131426   0.04287463            6 
 1219000   0.76516503   -4.8947942    628.42895  0.042960688  0.042849984            4 
 1220000   0.75422821   -4.9039845    628.23053  0.042911922  0.042825255            6 
 1221000   0.78022681   -4.8922015     631.4426     0.043096  0.042800557           10 
 1222000   0.77697461   -4.8714678     632.4236  0.043127632  0.042776025            4 
 1223000   0.76012678   -4.8991501    629.08235  0.042864701  0.042751594            6 
 1224000   0.75664057   -4.9118299    628.24295  0.042772532  0.042727094            7 
 1225000   0.76000011   -4.8691751     631.7066  0.042973238   0.04270249            5 
 1226000   0.76805117   -4.8906276    631.84078  0.042947307  0.042678178           10 
 1227000   0.76651578    -4.884204    632.89531  0.042983925  0.042654142            7 
 1228000   0.76444471    -4.887361    632.99829   0.04295591  0.042629924            8 
 1229000   0.74864266   -4.8977821    631.07333  0.042790435   0.04260578            9 
 1230000   0.76824893   -4.8916461     634.3017   0.04297437  0.042581925            5 
 1231000   0.76197263    -4.895288    631.21567  0.042730549  0.042557942            6 
 1232000   0.76379963   -4.8691923    631.38824  0.042707538  0.042534039            5 
 1233000   0.74927673   -4.8700444    635.15304  0.042927348  0.042510014            8 
 1234000   0.75226363   -4.9184137    632.84552  0.042736732  0.042486373            9 
 1235000   0.77061269   -4.8865643    633.36109  0.042736916  0.042462424            5 
 1236000   0.75908365   -4.9147152    634.68588  0.042791659  0.042438368            4 
 1237000    0.7567869   -4.8932074    636.55001  0.042882647  0.042414762           10 
 1238000   0.76066793   -4.9020851    633.36979  0.042633938  0.042390917            9 
 1239000   0.75814015   -4.8903657    634.36032   0.04266615  0.042366926            6 
 1240000   0.77288339   -4.9148877    633.30135  0.042560575   0.04234296            7 
 1241000   0.74191221   -4.8801202    633.98562  0.042572228  0.042318913            4 
 1242000   0.75441146   -4.8882664    634.01013  0.042539595  0.042295013            3 
 1243000   0.75000052   -4.9084027    636.86604  0.042696838   0.04227134            7 
 1244000   0.76115638   -4.9099267    634.76266  0.042521615  0.042247647            7 
 1245000   0.73729653    -4.922835    636.43189  0.042599189  0.042224064            5 
 1246000   0.74623904   -4.8783652    638.26193  0.042687395  0.042200545            5 
 1247000   0.75907709    -4.884841    637.71173  0.042616394  0.042177069            8 
 1248000   0.75354233   -4.8957499    637.64313  0.042577666  0.042153502            6 
 1249000   0.76267365   -4.9095036    637.75931  0.042551328  0.042130011            4 
 1250000   0.78517364   -4.8961662    638.96207  0.042597471  0.042106424            8 
 1251000   0.76513336   -4.9201365    637.89711   0.04249248   0.04208309            5 
 1252000   0.77053494   -4.9056824     637.8293  0.042454027  0.042059675           12 
 1253000   0.76706206   -4.8967704    639.48919  0.042530539  0.042036065           11 
 1254000   0.75374011   -4.9060421    640.35966   0.04255447  0.042012681            4 
 1255000   0.76359459   -4.8968565     638.7664  0.042414767  0.041989531            6 
 1256000   0.75840675   -4.9436208    638.99316  0.042396043  0.041966332           11 
 1257000   0.74725748   -4.8997885    641.66721  0.042539592   0.04194332            7 
 1258000   0.73941586   -4.9284916    638.93907  0.042325057  0.041920279            4 
 1259000   0.75814109   -4.9038349    639.24351   0.04231159  0.041897244            5 
 1260000   0.76279109   -4.9234608    639.26524  0.042279447  0.041874372            6 
 1261000   0.75895819   -4.9257324    641.10601  0.042367566  0.041851319           15 
 1262000   0.73839551   -4.9081165    640.14611   0.04227061  0.041828286            4 
 1263000   0.75833705   -4.9394663    640.77667  0.042278746  0.041805422            4 
 1264000   0.75936367   -4.9273196     641.9256  0.042321045  0.041782397            4 
 1265000   0.74712534   -4.9241605     643.6402   0.04240054  0.041759437            7 
 1266000   0.74567843   -4.9216808    642.40058  0.042285452  0.041736549            4 
 1267000    0.7657095   -4.9165667    643.30108  0.042311305  0.041713861            4 
 1268000   0.74048247   -4.9243578    642.53842  0.042227814  0.041691106            4 
 1269000   0.75733172   -4.9157139    643.23968  0.042240588  0.041668495            9 
 1270000   0.75161767   -4.9310314    642.04826  0.042129151  0.041645784            8 
 1271000   0.74577005    -4.927029    642.58859  0.042131431  0.041622844            9 
 1272000   0.74269016   -4.9432127    642.61849  0.042100268   0.04160006            9 
 1273000   0.74181693   -4.9120537    642.49047  0.042058816  0.041577048            4 
 1274000   0.72832687   -4.9304659     643.4021  0.042085433  0.041554205            5 
 1275000   0.75034907   -4.9433666    642.29931  0.041980347  0.041531583            7 
 1276000   0.74797145   -4.9369403    642.35646   0.04195118  0.041508773           23 
 1277000   0.75402531   -4.9485993    644.03784   0.04202805  0.041486048            7 
 1278000   0.75891972   -4.9092724    641.90239   0.04185592  0.041463368            8 
 1279000    0.7417264   -4.9613683    644.67238  0.042003673  0.041440856           10 
 1280000   0.74863565   -4.9350626    644.96739  0.041990064  0.041418222           13 
 1281000   0.74204637   -4.9724564    645.16829  0.041970354  0.041395515            8 
 1282000   0.74784011   -4.9188141    646.24681  0.042007723  0.041372824            8 
 1283000   0.72738502   -4.9268883    646.42431   0.04198651  0.041350044            9 
 1284000   0.73883238   -4.9382117    645.95563  0.041923392   0.04132746            5 
 1285000    0.7392192   -4.9300257    644.91809  0.041823482  0.041304898            5 
 1286000   0.72663508    -4.924259    647.47035  0.041956347  0.041282483            4 
 1287000   0.72862438   -4.9259856    647.20392  0.041906496  0.041260183           10 
 1288000     0.736051     -4.94938    646.50774  0.041828917  0.041237742            6 
 1289000   0.73322905   -4.9315943    646.86323  0.041819448  0.041215341            5 
 1290000   0.73922535   -4.9450068     647.0502  0.041799109  0.041192898           14 
 1291000   0.74443471   -4.9518232    646.83924  0.041753114  0.041170455            9 
 1292000   0.73552951   -4.9585867    645.87254  0.041658446  0.041147915           13 
 1293000   0.73902098   -4.9346079    648.11362  0.041770664  0.041125447            9 
 1294000   0.73269891   -4.9266842    645.69575  0.041582673  0.041102758           10 
 1295000   0.72407652   -4.9806864     647.1911  0.041646789  0.041080356            4 
 1296000   0.75415309   -4.9440266    647.41965   0.04162935  0.041057774            7 
 1297000   0.73298546    -4.955816    648.06001  0.041638397  0.041035436            9 
 1298000   0.74864877   -4.9504864    647.54646  0.041573347  0.041013045            6 
 1299000   0.74573972   -4.9325755    648.09244  0.041576369   0.04099062            3 
 1300000   0.74008514   -4.9166643    647.52863  0.041508246  0.040968222            3 
 1301000   0.73657861   -4.9506371    645.84226  0.041368323  0.040945702            5 
 1302000   0.73507682   -4.9847206    646.32233  0.041367277  0.040923039            9 
 1303000   0.74916759   -4.9551569    647.58458  0.041416256  0.040900576            7 
 1304000   0.73712453   -4.9324598    648.77935  0.041460848  0.040878111            8 
 1305000   0.73075997   -4.9451417    650.61401  0.041546233  0.040855717           11 
 1306000   0.73336778    -4.985747    650.48247  0.041506028  0.040833321            5 
 1307000   0.73619255    -4.937158    649.64695  0.041420999  0.040811033            6 
 1308000   0.71986083   -4.9533197    647.67877  0.041263938  0.040788533            6 
 1309000    0.7364092   -4.9633123    649.33781  0.041338032  0.040766097            5 
 1310000   0.73017316   -4.9513574    649.11493  0.041292298  0.040743552            6 
 1311000   0.74057731   -4.9348403    649.58269  0.041290534   0.04072115           12 
 1312000    0.7229575   -4.9696247    650.52928  0.041319187  0.040698902            4 
 1313000   0.72496879    -4.975966    650.00838  0.041254657  0.040676631            5 
 1314000   0.74113334   -4.9475422    650.05284  0.041226081  0.040654341            3 
 1315000   0.72733624   -4.9771337    648.56566  0.041100486  0.040631714            6 
 1316000    0.7385573   -4.9737935     650.8086  0.041211284  0.040609192            6 
 1317000   0.72287932   -4.9394923    650.86249  0.041183402  0.040586591            8 
 1318000   0.72755852   -4.9668108    650.18774  0.041109493  0.040564157            6 
 1319000   0.74362442   -4.9662725    650.76989  0.041115105  0.040541437            4 
 1320000   0.71886971     -4.95841    649.23708  0.040987189  0.040518938           19 
 1321000   0.72692482   -4.9590796    651.96621  0.041128325  0.040496415           11 
 1322000    0.7310193   -4.9494255    652.12877  0.041107462  0.040473942           11 
 1323000   0.74072209   -4.9572749    651.83401  0.041057824  0.040451396            9 
 1324000   0.72738947   -4.9359718    651.27339  0.040991527   0.04042878            7 
 1325000   0.71792486   -4.9607382    651.41144  0.040969273  0.040406214            5 
 1326000   0.74672377    -4.974485    650.81946  0.040901173  0.040383474            5 
 1327000   0.70974396   -4.9504642    651.55668  0.040916647  0.040360802           10 
 1328000   0.71573144   -4.9643882    651.32055  0.040871018  0.040338168            6 
 1329000   0.71584279   -4.9685746    651.95506  0.040880051  0.040315442           12 
 1330000   0.73552232     -4.97252    651.73026   0.04083523  0.040292894            7 
 1331000   0.71842933   -4.9663481    652.10366  0.040827928  0.040270068            9 
 1332000   0.71527088   -4.9707737    650.34406  0.040687191  0.040247231            3 
 1333000   0.71097286   -4.9481379    652.04448  0.040762971  0.040224431            3 
 1334000   0.72527527   -5.0003289    650.98553  0.040666262  0.040201521            9 
 1335000   0.73135517   -4.9870213    651.27864  0.040654097  0.040178395           10 
 1336000   0.72886233   -4.9773959    651.43351  0.040633327  0.040155339            8 
 1337000   0.72066575   -4.9683986    651.46642  0.040604988  0.040132319            6 
 1338000   0.72420553   -4.9794129    651.14848  0.040554838  0.040109344            8 
 1339000   0.73124124   -4.9908375    650.50665  0.040484606  0.040086543            2 
 1340000    0.7279647   -4.9979318    651.07138  0.040489514  0.040063513            4 
 1341000   0.73350708   -5.0209534    650.78756  0.040441683  0.040040478            7 
 1342000   0.72595218   -4.9857017    654.27395   0.04062804  0.040017679            5 
 1343000   0.72456642   -4.9939905    652.33057  0.040477201  0.039994907            6 
 1344000   0.70997262    -4.995072    652.11782  0.040433892  0.039971968            7 
 1345000   0.74443328   -4.9765422    652.78894  0.040445411  0.039949117           12 
 1346000   0.71086038   -4.9914844    653.83423  0.040480079  0.039926192            5 
 1347000   0.73233587   -4.9801892    652.69049  0.040379268  0.039903373            4 
 1348000    0.7296339   -5.0160497    652.42325  0.040332792  0.039880427            3 
 1349000   0.71022515   -5.0088037    651.18123  0.040226169   0.03985758           20 
 1350000   0.70239238   -5.0268044     652.7784  0.040294963  0.039834674            7 
 1351000    0.7089797   -5.0085507    653.03868  0.040281192  0.039811699            6 
 1352000   0.70444113   -5.0008148     653.2918     0.040267  0.039788921            7 
 1353000   0.70037231   -5.0092634    653.26087  0.040235333  0.039765993           10 
 1354000   0.71410452   -5.0144628    653.06155   0.04019335  0.039743018           11 
 1355000   0.71953087   -5.0087736    652.95547  0.040157163  0.039720131            8 
 1356000   0.71426958   -5.0203828    656.22332  0.040328375  0.039697353           10 
 1357000   0.70690642   -5.0179347    653.89028  0.040155384   0.03967458           14 
 1358000   0.70876707   -4.9898833    652.83823  0.040061256  0.039651486            7 
 1359000   0.70990015   -4.9992297     654.7963  0.040151846  0.039628575            6 
 1360000     0.730995   -4.9925154    653.62209  0.040050373  0.039605818            6 
 1361000   0.71048945   -4.9958607    655.53319  0.040137962  0.039582913           14 
 1362000   0.72069749   -4.9995197     655.8207  0.040126083  0.039560105           11 
 1363000   0.71509808   -5.0013668    654.30994  0.040004276  0.039537064            6 
 1364000   0.71484856   -4.9994871    654.45482  0.039983799  0.039514054           11 
 1365000   0.71535131   -4.9906054    654.28408  0.039944083  0.039491027            7 
 1366000   0.72310642   -5.0319297     651.3854  0.039738007  0.039467902           13 
 1367000    0.7162964   -5.0127556    654.00962  0.039868911   0.03944489            3 
 1368000   0.71501159   -5.0302488    653.90848  0.039833606  0.039421944            7 
 1369000   0.70215798    -4.993809    654.07491   0.03981464  0.039398919            4 
 1370000   0.70084239   -4.9969868    654.83186  0.039831622  0.039376051            5 
 1371000   0.70800235   -4.9914801    655.78817  0.039860696  0.039353168            6 
 1372000   0.71174884   -5.0149752    655.04402  0.039786444  0.039330345            8 
 1373000   0.70323525    -5.022177    654.86233  0.039746439   0.03930732           13 
 1374000    0.7121528    -5.004821     654.7341  0.039709734  0.039284371            9 
 1375000   0.69907372    -5.015828    653.60409  0.039612369  0.039261357            9 
 1376000   0.70064111   -4.9922615    656.57103  0.039763265  0.039238406            4 
 1377000   0.70736836   -4.9970381    656.57893  0.039734866  0.039215349            6 
 1378000   0.71193886   -4.9864055    657.54773  0.039764618  0.039192331           12 
 1379000   0.70133774   -4.9974264     656.5896  0.039677883  0.039169464           13 
 1380000   0.71842264   -5.0078463    655.39148   0.03957678  0.039146392            9 
 1381000   0.69146751   -5.0134221    657.00748  0.039645636  0.039123234            5 
 1382000    0.6929674   -5.0110878    653.87204  0.039427885  0.039100017            9 
 1383000   0.68749541   -5.0275744    652.17329  0.039297017  0.039076693            8 
 1384000   0.69448462   -5.0040721    656.76177  0.039544904  0.039053501            4 
 1385000   0.71525935   -5.0147279     655.2665  0.039426384  0.039030417            9 
 1386000   0.69933558   -5.0256396    653.69176  0.039303256  0.039007202            8 
 1387000   0.69574519   -5.0219479     654.9063  0.039347891  0.038983849            8 
 1388000   0.69365364   -5.0169457    655.91764  0.039380261  0.038960595            9 
 1389000   0.68977866   -5.0275189    655.62319  0.039334244    0.0389372           12 
 1390000   0.69776911   -5.0180211    654.35168  0.039229717  0.038913693           11 
 1391000    0.7076913   -5.0404328    654.24698  0.039195242  0.038890144            8 
 1392000   0.69121215    -5.007276    655.34978  0.039233104  0.038866714            6 
 1393000   0.69864407   -5.0243094    656.19528   0.03925552  0.038843278           19 
 1394000   0.68856025    -5.043801    653.94293  0.039092715  0.038819749            9 
 1395000   0.70185155   -5.0351116    653.69478  0.039049868  0.038796106            5 
 1396000   0.70310584    -5.025945    654.37225  0.039062336  0.038772327            9 
 1397000   0.69586184   -5.0326141    655.06797  0.039075875  0.038748591           10 
 1398000   0.70871783   -5.0361468    654.50515  0.039014375  0.038724946            6 
 1399000   0.70820997   -5.0173736    654.98233  0.039014911  0.038701296            9 
 1400000   0.68735272    -5.034591    654.51561  0.038959262  0.038677493           11 
 1401000   0.69645782   -5.0453239    653.97878  0.038899523  0.038653581            7 
 1402000    0.6793794   -5.0148735    655.56209  0.038965888  0.038629828            7 
 1403000   0.69662979   -5.0315636    655.64479  0.038943026  0.038606226            8 
 1404000   0.68166694   -5.0245051    655.53948  0.038909039  0.038582589            6 
 1405000   0.69718065   -5.0473159     654.8737  0.038841857   0.03855894            5 
 1406000    0.6901178     -5.05362    655.19043  0.038833003   0.03853514            5 
 1407000   0.68961306   -5.0355737    655.82924  0.038843239  0.038511472           11 
 1408000   0.68413877   -5.0302267    654.78894   0.03875408  0.038487763           10 
 1409000   0.68307593   -5.0391677    654.00045  0.038679941   0.03846407            9 
 1410000   0.68540307   -5.0307148    654.51947  0.038683184  0.038440342            4 
 1411000   0.70051348   -5.0513051    656.25323  0.038758164   0.03841661            4 
 1412000   0.69493068    -5.033506    655.50978  0.038686838  0.038393095            5 
 1413000   0.68044695   -5.0254673    656.93783   0.03874368  0.038369784            7 
 1414000   0.69470586   -5.0539314    656.05705  0.038664371  0.038346375           14 
 1415000   0.68334351   -5.0549315    657.54634  0.038724755   0.03832299            7 
 1416000   0.68362377   -5.0752209    657.48404   0.03869374  0.038299556           13 
 1417000   0.70261989   -5.0489787    658.71943  0.038739087  0.038276264            6 
 1418000   0.67974284    -5.063864    657.95447  0.038666812  0.038253113            8 
 1419000   0.68376597   -5.0541237    659.27416  0.038717064   0.03822984            7 
 1420000   0.70075422   -5.0546746    657.02945  0.038558066   0.03820649           12 
 1421000   0.70371017   -5.0614397    657.60745  0.038564828    0.0381831            5 
 1422000   0.68718526   -5.0498215    657.65418  0.038540446  0.038159805            4 
 1423000   0.69065563   -5.0598326    657.99927  0.038533572  0.038136562            7 
 1424000   0.69420921   -5.0559678    660.00683  0.038623995  0.038113408            7 
 1425000   0.67637992   -5.0280267     661.0978   0.03866069  0.038090143            8 
 1426000   0.68810655   -5.0643194    658.88081  0.038504021  0.038067075            7 
 1427000   0.68176166   -5.0524242    660.24517  0.038556714  0.038044155            9 
 1428000   0.67613398   -5.0725097    658.25965  0.038413845  0.038021085            5 
 1429000   0.68423278   -5.0642071    659.27073  0.038445925  0.037997988           11 
 1430000   0.67625191   -5.0529996    658.87233  0.038395824  0.037974851           17 
 1431000   0.68879527   -5.0647981    657.94165  0.038314795  0.037951606           10 
 1432000   0.69225483   -5.0733565     657.4015  0.038256605  0.037928497            5 
 1433000   0.68079027   -5.0513904    661.04677  0.038441892  0.037905371            7 
 1434000   0.66798076   -5.0760792    658.48809  0.038266393  0.037882116            7 
 1435000   0.66481577   -5.0466136    660.42484  0.038352197  0.037859018           10 
 1436000   0.68753271   -5.0626012    660.07662  0.038305282  0.037835899            8 
 1437000   0.68117891   -5.0656462    660.38366  0.038296431  0.037812806           12 
 1438000   0.68421681   -5.0919436    657.74699  0.038117002  0.037789542            9 
 1439000   0.67638964   -5.0982709    657.96795   0.03810331  0.037766269            6 
 1440000   0.67814783   -5.0622033    659.19131  0.038147645  0.037742927            4 
 1441000    0.6800505   -5.0824423    657.93671  0.038048618  0.037719561           11 
 1442000   0.68447799   -5.0534187    659.35572  0.038104237  0.037696286            8 
 1443000   0.68229145   -5.0704218    660.16307  0.038124456  0.037673069            6 
 1444000   0.67085489   -5.0624058    657.70717  0.037956323  0.037649782           11 
 1445000   0.68504344   -5.0753995    660.03126  0.038064086   0.03762645           11 
 1446000   0.66324573   -5.0427311    660.55176  0.038067759  0.037603074           24 
 1447000    0.6695098   -5.0580895    659.98027  0.038008539  0.037579852           30 
 1448000   0.68225095   -5.1020733    657.13416  0.037818494  0.037556539           27 
 1449000    0.6792555   -5.0575287    659.10082  0.037905499  0.037533141           14 
 1450000    0.6859035   -5.0570407    660.66449  0.037969223  0.037509764            8 
 1451000   0.66833493   -5.0871527    658.15041  0.037798668    0.0374863           14 
 1452000   0.67058428   -5.0967403    659.87684  0.037871719  0.037462958           10 
 1453000   0.65535837   -5.0916811    659.67738  0.037834215  0.037439494            9 
 1454000   0.66999204   -5.1048093    660.05321  0.037829735  0.037416201           12 
 1455000   0.66670909   -5.0801933    660.24776  0.037814877  0.037393048           19 
 1456000   0.67927707   -5.0800332     659.2888   0.03773402  0.037369735            4 
 1457000   0.66302754    -5.082792    659.47643  0.037718854  0.037346417            5 
 1458000   0.68265613   -5.0726231    660.21028  0.037734927  0.037323219            9 
 1459000   0.66256174   -5.0986129    658.48663  0.037610614  0.037299941            8 
 1460000   0.67619817   -5.0984511    659.83049  0.037661558  0.037276634           14 
 1461000   0.65946959   -5.0821525     660.3149   0.03766341  0.037253214           13 
 1462000   0.66541647   -5.0664828     660.9548  0.037674122  0.037229948           19 
 1463000   0.67285036   -5.1083946    658.51097  0.037509169  0.037206629           10 
 1464000   0.66232025   -5.0831397    661.02934  0.037626898  0.037183375           19 
 1465000   0.65716591   -5.0857559    660.80977  0.037588724  0.037160241            7 
 1466000   0.65817668   -5.1054053    659.82753  0.037507249  0.037136982            6 
 1467000    0.6702589   -5.0808654      660.906  0.037542945  0.037113803           12 
 1468000   0.65540506   -5.0729531    660.98338  0.037521763   0.03709055            6 
 1469000   0.67133241   -5.0994802    661.84276  0.037544972  0.037067174           15 
 1470000   0.67933676   -5.1042844    659.42447  0.037382339  0.037043927            4 
 1471000   0.65579088   -5.0722899    660.64498   0.03742607  0.037020722           10 
 1472000   0.67397811    -5.092475    662.42539  0.037501437  0.036997478            9 
 1473000   0.67523403     -5.09522    660.47389  0.037365574  0.036974288           15 
 1474000    0.6685688    -5.034238    662.43802  0.037451267  0.036951269            5 
 1475000   0.66512956   -5.1078111    661.62025  0.037379675   0.03692815           23 
 1476000   0.67275463   -5.1053344    660.45182  0.037288382  0.036904903           17 
 1477000   0.66156375   -5.0985413    661.18287  0.037304382  0.036881614            6 
 1478000    0.6521129   -5.0935469    661.67465   0.03730687  0.036858342            6 
 1479000   0.65929847    -5.113667     661.4704  0.037270137   0.03683524           13 
 1480000   0.67427778   -5.0849312    662.82218  0.037321068  0.036812102            5 
 1481000   0.66357274    -5.086086    661.89319  0.037243596  0.036788916            8 
 1482000   0.67219126   -5.0807526    662.31111  0.037241965  0.036765758           17 
 1483000   0.67124516   -5.0888355    662.90326  0.037250127   0.03674264            8 
 1484000   0.67068506   -5.0887964    662.92154  0.037226052  0.036719542           13 
 1485000   0.65957044   -5.1292188    660.43417  0.037061401  0.036696338            9 
 1486000   0.67228438   -5.1240384    660.41677  0.037035485  0.036672993           11 
 1487000   0.65270535   -5.0973601    659.64528  0.036967344  0.036649676           10 
 1488000   0.66585616   -5.0924285    662.20888  0.037086071  0.036626549            8 
 1489000   0.65406605   -5.0816663    663.34151  0.037124553  0.036603492           11 
 1490000   0.66872759   -5.1029651      661.566  0.037000335  0.036580356            8 
 1491000   0.64023502    -5.111246    660.47891  0.036914761  0.036557248           12 
 1492000   0.65420462    -5.113634    660.36413  0.036883609  0.036533973            8 
 1493000    0.6529655   -5.1234507    661.69752  0.036933329  0.036510734            8 
 1494000    0.6696661   -5.0930601    662.16288  0.036934565  0.036487594            8 
 1495000   0.65232021   -5.1075727    660.75137   0.03683118  0.036464525           11 
 1496000    0.6574965   -5.1087164    661.85846   0.03686823  0.036441351            8 
 1497000   0.64941263   -5.1276418    659.78841  0.036728369  0.036418193            7 
 1498000   0.66230787     -5.11157    663.54574  0.036912869  0.036394995           20 
 1499000   0.64952799   -5.1255903    661.65244  0.036782991  0.036371853            8 
 1500000    0.6567944   -5.1026853     662.5433  0.036807961  0.036348738           15 
 1501000   0.65960473   -5.1044102     662.0736  0.036757362  0.036325609            9 
 1502000   0.65455658   -5.1080225    663.39803  0.036806371  0.036302616            9 
 1503000   0.64701302   -5.1059445    661.76279  0.036691217  0.036279563            9 
 1504000   0.64571206   -5.1067912    662.62609  0.036714655  0.036256475            9 
 1505000   0.65259533   -5.1033559     663.2542  0.036725039  0.036233495            7 
 1506000   0.66256561   -5.1174739     663.2625  0.036701112  0.036210543            8 
 1507000   0.64076932   -5.1249538     662.5142  0.036635379  0.036187545           11 
 1508000    0.6502381   -5.1140463    660.29735   0.03648858  0.036164434           38 
 1509000   0.64374774   -5.1155006    661.82886  0.036548976  0.036141332            7 
 1510000   0.64898238   -5.1263671    663.30434    0.0366062  0.036118307           19 
 1511000   0.65554893   -5.1272984    662.47281  0.036536114  0.036095268           12 
 1512000   0.64711657   -5.1402851    663.02487  0.036542376  0.036072303           10 
 1513000   0.64165957   -5.1061685    661.38611  0.036427964  0.036049343            8 
 1514000    0.6492472   -5.1258317     663.0912  0.036497754  0.036026286            7 
 1515000   0.64225952   -5.1395272    662.28967  0.036429575  0.036003135            8 
 1516000   0.64080614   -5.1232144     662.8187  0.036434625  0.035980092           10 
 1517000   0.64551414   -5.1318731    663.92362  0.036471304  0.035957176           10 
 1518000   0.64390852   -5.1287312    662.79145  0.036385126  0.035934377            8 
 1519000   0.65465043   -5.1294673    662.43925  0.036341851  0.035911544           22 
 1520000   0.65004796   -5.1403876    662.98525  0.036347875  0.035888689            7 
 1521000   0.65616415   -5.1262789     664.2659  0.036394143  0.035865799           10 
 1522000   0.63782432   -5.1352487    663.11649  0.036307298  0.035842947           12 
 1523000   0.64695891   -5.1484754    663.90301  0.036326494  0.035820066           16 
 1524000   0.65697168   -5.1229253     664.5586  0.036338506   0.03579723           16 
 1525000   0.63423529   -5.1581494    664.38242   0.03630505  0.035774421           10 
 1526000   0.64140914   -5.1574346    660.81023  0.036086186  0.035751411           12 
 1527000   0.62631288   -5.1422741    663.30559  0.036198733  0.035728549           25 
 1528000   0.64692638   -5.1280655    665.09921  0.036272863  0.035705863            7 
 1529000   0.63759906   -5.1409176    665.40248  0.036265668  0.035683139           20 
 1530000   0.63907795   -5.1338099    663.46931  0.036136673  0.035660442           16 
 1531000    0.6402868   -5.1328786    665.31513  0.036213539  0.035637811           11 
 1532000   0.65357194   -5.1356855    665.44944  0.036197206  0.035615236            8 
 1533000   0.64329394   -5.1705184    664.63896  0.036129537  0.035592549           12 
 1534000   0.63859529   -5.1387377    665.73171  0.036165347  0.035569816           20 
 1535000   0.63270836   -5.1546866    664.33555  0.036065991  0.035547142            8 
 1536000   0.63544666    -5.142086    667.05441  0.036190018  0.035524542           10 
 1537000   0.63749699   -5.1572439    666.74386  0.036149635  0.035501925            5 
 1538000   0.62908839   -5.1764336    665.20574   0.03604279  0.035479256           14 
 1539000   0.64725604   -5.1246075    666.65187  0.036097676  0.035456649            8 
 1540000   0.65097317    -5.139976    664.29679  0.035946796  0.035434074           11 
 1541000   0.63869131   -5.1571694    664.18173  0.035917247  0.035411386            8 
 1542000   0.64186489    -5.161203    665.32397  0.035955684  0.035388724           15 
 1543000   0.63192102   -5.1278247    664.84454  0.035906489  0.035366213           11 
 1544000   0.63601235   -5.1508307    665.97918  0.035944472  0.035343719           10 
 1545000   0.63099012    -5.157337    665.72261  0.035907368  0.035321148           15 
 1546000   0.63900148   -5.1645374    667.27079  0.035967593  0.035298696           11 
 1547000   0.63433091   -5.1669837    664.50924  0.035795585  0.035276261            7 
 1548000    0.6351043   -5.1858281    666.88068  0.035900123  0.035253837           19 
 1549000   0.63293552   -5.1635415    664.57699  0.035753012  0.035231319           20 
 1550000   0.64263147   -5.1678059    663.87985  0.035692465  0.035208842           15 
 1551000   0.64024815    -5.138474    666.40282  0.035805008  0.035186298           13 
 1552000   0.62397159   -5.1736664    664.73589  0.035692434  0.035163788            5 
 1553000   0.62049547   -5.1723706    664.43044  0.035653061  0.035141334           10 
 1554000   0.63078554   -5.1693668    665.63834  0.035694892  0.035118768           10 
 1555000   0.63230458   -5.1752691    665.84259  0.035682883  0.035096116           13 
 1556000   0.62777788   -5.1972188    664.35185  0.035580112  0.035073526           21 
 1557000   0.62709887   -5.1867149     664.4165  0.035560721  0.035051071           10 
 1558000   0.63367434   -5.1650254    666.70907  0.035660519  0.035028696           17 
 1559000   0.64467168   -5.1840806    665.79761  0.035588925  0.035006291           31 
 1560000   0.63279678   -5.1573965    666.59422  0.035608666  0.034983787           14 
 1561000   0.61986305    -5.203843     663.4374  0.035417328  0.034961411           13 
 1562000    0.6349957   -5.1740136    666.88574  0.035578624  0.034939063           13 
 1563000   0.62960737   -5.1995221    664.61373  0.035434727  0.034916608           10 
 1564000   0.62082179   -5.1921717    664.98297  0.035431744  0.034894197           13 
 1565000   0.62742656   -5.1873681    666.45569  0.035487523  0.034871944           16 
 1566000    0.6250067   -5.1907494    665.98984  0.035440072  0.034849602           23 
 1567000   0.62660086   -5.1757058    667.63961  0.035505191  0.034827463           24 
 1568000   0.62122164   -5.1923254     668.8687  0.035547869  0.034805367           12 
 1569000   0.63640134   -5.1857229    667.03758  0.035427957  0.034783312            8 
 1570000   0.63503568   -5.1900426    666.67685  0.035386245  0.034761147            7 
 1571000   0.62305784   -5.1667763    668.03488  0.035435756  0.034739035           14 
 1572000   0.61715494   -5.1766147    669.54178  0.035493097  0.034716943           16 
 1573000   0.60922527   -5.1635411    668.27496   0.03540342  0.034694978            7 
 1574000   0.62232947   -5.1653639    668.14137  0.035373855  0.034672967            7 
 1575000   0.62918257   -5.1661199     667.6899  0.035327508  0.034651051           12 
 1576000   0.62430941   -5.1695241    669.81762  0.035417598  0.034629152           14 
 1577000    0.6161906    -5.148412    669.54823  0.035380904  0.034607262           22 
 1578000    0.6291463   -5.1817664     668.7148   0.03531447  0.034585167           18 
 1579000   0.62741174   -5.2034317    668.38498  0.035274698  0.034563108           15 
 1580000   0.62072614   -5.2082165    667.43618   0.03520233  0.034541138            7 
 1581000   0.61317724   -5.1770851    669.17632  0.035271786  0.034519112            6 
 1582000   0.62528326   -5.2079115    668.19608  0.035197855  0.034497052            6 
 1583000   0.61182139   -5.2021693    667.65385  0.035147076  0.034475103           28 
 1584000   0.62610424   -5.1693908    668.28887  0.035158295  0.034453149            7 
 1585000   0.62214084   -5.1826261    668.83807  0.035164988  0.034431312            7 
 1586000   0.62393337   -5.1704849     669.8006   0.03519339  0.034409517            8 
 1587000   0.60820502   -5.1770366    666.58881  0.035002563  0.034387653           13 
 1588000   0.62196532   -5.1932377    666.26581  0.034963571  0.034365615           25 
 1589000   0.61875605   -5.2100332    668.81891  0.035075462  0.034343605           12 
 1590000   0.60289492   -5.1957003    669.45906  0.035086953  0.034321669            9 
 1591000   0.63444491   -5.1684509    669.66367  0.035075617  0.034299782           13 
 1592000    0.6192485     -5.20703    667.52893  0.034941841  0.034277822           11 
 1593000    0.6200681   -5.1728353    669.27378  0.035011183  0.034255947            6 
 1594000   0.62066912   -5.2224113    666.77083  0.034858366  0.034234044           16 
 1595000   0.61705204   -5.2119116    668.41251  0.034922284  0.034212037           17 
 1596000   0.61738416    -5.211547    668.24896  0.034891863  0.034189994            7 
 1597000   0.61197157   -5.2149589    668.53309  0.034884841  0.034168194            8 
 1598000   0.61610155   -5.2106238    669.22661  0.034899177  0.034146417            8 
 1599000   0.61262349   -5.2015857    668.41103  0.034834846  0.034124645           14 
 1600000   0.62140088   -5.2087715    668.64266  0.034825139  0.034102855           10 
 1601000   0.62053845   -5.2033217    670.37293  0.034893449  0.034081038           24 
 1602000   0.61191461   -5.2219079    668.65787  0.034782453  0.034059322           11 
 1603000   0.60935773    -5.223798    667.68277  0.034710063  0.034037542            9 
 1604000   0.60925959   -5.2050986    668.62603  0.034737429  0.034015788           32 
 1605000   0.60679976   -5.2107444    668.73662  0.034721527  0.033993994           26 
 1606000   0.61971377   -5.2075655     667.4219  0.034631688  0.033972175           10 
 1607000   0.60775388   -5.2001571    668.48193  0.034665108  0.033950361           29 
 1608000    0.6034171   -5.2134192    668.97951  0.034669336  0.033928497           14 
 1609000   0.61884108   -5.1897642    670.19794  0.034710894  0.033906697           18 
 1610000   0.61472116    -5.200187    670.44812  0.034702284  0.033884908           19 
 1611000    0.6115315   -5.2268687    669.84403  0.034649495  0.033863064           18 
 1612000   0.60874862   -5.2271919    668.63804  0.034565656  0.033841145           36 
 1613000   0.60211983   -5.2142042    668.26499  0.034524953  0.033819271           11 
 1614000   0.61182178   -5.2273312    669.04765  0.034543972  0.033797384           10 
 1615000   0.60476428   -5.2334905    668.87223  0.034513531  0.033775513           11 
 1616000   0.59870293   -5.2141506    668.41434  0.034468561  0.033753637           21 
 1617000   0.61880243   -5.2208977    668.37594  0.034445266  0.033731742           16 
 1618000    0.6154225   -5.2245733     667.5311  0.034380464  0.033709765            8 
 1619000   0.61393552   -5.2096497    668.68427  0.034418585  0.033687907            7 
 1620000   0.60303246   -5.2227796    669.01845  0.034414529  0.033666037           11 
 1621000   0.60961326   -5.2401868     668.2099  0.034351732  0.033644112           15 
 1622000   0.61524039   -5.2478895    666.94113  0.034265369  0.033622087           24 
 1623000   0.61055577    -5.224014    668.29499   0.03431377  0.033600027           35 
 1624000    0.6135006   -5.2307855    667.02631   0.03422754  0.033578089           13 
 1625000   0.60346664   -5.2357684    667.96191  0.034254457  0.033556089           23 
 1626000   0.60844252    -5.230581    668.69468  0.034270945  0.033534328           11 
 1627000   0.60029914   -5.2412132    669.02726  0.034266916  0.033512557            8 
 1628000   0.60904477   -5.2011187    669.40508  0.034265207  0.033490939           15 
 1629000   0.59224548   -5.2483525     668.5352  0.034199673  0.033469316            4 
 1630000   0.60893229   -5.2379915     669.6695  0.034236682   0.03344767           10 
 1631000   0.60572381   -5.2381985    668.10166  0.034135584  0.033425897           19 
 1632000   0.59528858   -5.2586582    669.18707  0.034170092  0.033404213           21 
 1633000    0.5989817    -5.240157    668.67396  0.034122982  0.033382556           17 
 1634000   0.61531087   -5.2302596     668.7872  0.034107875  0.033360909           17 
 1635000   0.60114668   -5.2596551    668.56899  0.034075891  0.033339301           19 
 1636000    0.6093079   -5.2394835    669.75606  0.034115529  0.033317776           14 
 1637000   0.60463828   -5.2281073    668.97788  0.034055074  0.033296161            9 
 1638000   0.61334332   -5.2410359    670.24515  0.034098756  0.033274625           13 
 1639000   0.60665861   -5.2405296     669.6802  0.034049227    0.0332531           17 
 1640000   0.59778846   -5.2539013    669.11069  0.033999527  0.033231532           10 
 1641000   0.60131401   -5.2566424    670.71114  0.034060082   0.03320994            8 
 1642000   0.61098578   -5.2402238    671.05273  0.034056675  0.033188431           12 
 1643000   0.58644956   -5.2490758    670.22344  0.033993885  0.033166908            8 
 1644000   0.59277775   -5.2444165    670.54174  0.033989342  0.033145407           14 
 1645000   0.60759693   -5.2309711    671.13278  0.033998621  0.033123927           16 
 1646000   0.59808964   -5.2184271    671.27857  0.033985347  0.033102479           12 
 1647000   0.60404021   -5.2446222    669.96702  0.033898352   0.03308106           12 
 1648000   0.58969399    -5.256174    669.30988  0.033844553  0.033059566           11 
 1649000   0.58941102   -5.2611042    670.75002  0.033896807   0.03303807           13 
 1650000    0.5952749   -5.2359789    669.63753  0.033820077   0.03301656           10 
 1651000    0.5954081   -5.2361753    670.11477  0.033823681  0.032995167           12 
 1652000   0.58777653   -5.2446409    670.18751  0.033806876  0.032973808            8 
 1653000   0.59004591   -5.2253132    670.59715  0.033807075  0.032952454           14 
 1654000    0.5893168   -5.2541029     671.5606  0.033835177  0.032931083           25 
 1655000   0.59290424   -5.2879949     668.4571  0.033658464  0.032909561           16 
 1656000   0.59330422    -5.260895    667.46929   0.03358843  0.032888067            6 
 1657000    0.5850261   -5.2618545    668.20857   0.03360534  0.032866598           18 
 1658000   0.59063161     -5.26529    669.67437  0.033658744  0.032845064           13 
 1659000   0.58055034   -5.2675448    669.68752  0.033639116  0.032823479           15 
 1660000   0.58385455   -5.2488126    668.25746  0.033547061  0.032801969           36 
 1661000   0.58889205   -5.2561142    669.22635  0.033575474  0.032780397           12 
 1662000   0.58055974    -5.262404    668.43054   0.03351537  0.032758928           12 
 1663000   0.58548038   -5.2778884    670.18751  0.033583259  0.032737473           14 
 1664000   0.58385251   -5.2575539    671.03611  0.033605575  0.032715956           11 
 1665000   0.58539324   -5.2601679    670.74164  0.033570653   0.03269457            8 
 1666000   0.58209882   -5.2466078    669.50479  0.033488635  0.032673138           10 
 1667000    0.5905121   -5.2658806    670.99452  0.033543017  0.032651782           13 
 1668000   0.58608852   -5.2629767    668.86078  0.033416306  0.032630352           10 
 1669000   0.57221913   -5.2593116    670.08436  0.033457378  0.032608868            8 
 1670000   0.57920597   -5.2520108    668.84646  0.033375572  0.032587383           29 
 1671000   0.57723524   -5.2617987    667.60904  0.033293888  0.032565892           13 
 1672000   0.59127188   -5.2638781    669.04037  0.033345314  0.032544367           19 
 1673000   0.59057284   -5.2434069    670.47715  0.033396949  0.032522915           12 
 1674000   0.56720833   -5.2553005    669.62803  0.033334729  0.032501469           17 
 1675000   0.58797107   -5.2697178    668.42977  0.033255212  0.032479925           42 
 1676000   0.57618966    -5.253156    668.96057  0.033261763  0.032458287           10 
 1677000   0.58558996    -5.272644    668.61069  0.033224542  0.032436715           13 
 1678000   0.57249608    -5.278474    669.95858  0.033271681  0.032415171           24 
 1679000   0.57482421   -5.2834921    667.72372  0.033140943  0.032393613           11 
 1680000   0.57889729   -5.2930626    669.20053  0.033194471  0.032372081           17 
 1681000   0.58368103    -5.289304    669.63368  0.033196197  0.032350475           18 
 1682000   0.57977543   -5.2646709    668.80566  0.033135437  0.032328853            8 
 1683000   0.59104725   -5.2718951     668.9081  0.033120821  0.032307388           12 
 1684000   0.56973356    -5.280774    668.67307  0.033089522  0.032285894            9 
 1685000   0.57390658   -5.2862859     669.4282  0.033107231  0.032264418           26 
 1686000    0.5843346   -5.2742394    669.57192  0.033094698  0.032243005           19 
 1687000   0.57326416   -5.2736334    669.06825    0.0330502  0.032221472           19 
 1688000   0.57436206   -5.2731817     667.6557  0.032960886  0.032200004           10 
 1689000    0.5799146   -5.2933086    669.50804  0.033032763  0.032178566           13 
 1690000   0.58205777     -5.27515    668.98913   0.03298763  0.032157111           10 
 1691000   0.57655645   -5.2777365    668.29205  0.032933769  0.032135726           14 
 1692000   0.59038599   -5.2859581    668.42796  0.032920999  0.032114323           15 
 1693000   0.57288416   -5.3009706    668.55626  0.032907869  0.032092922           14 
 1694000   0.57449694   -5.2882002    669.29064  0.032924569  0.032071471           15 
 1695000   0.57342839   -5.3021463    668.97741  0.032889745  0.032050077            9 
 1696000   0.59432809   -5.2548471    669.28391  0.032885412  0.032028697           27 
 1697000   0.58800898   -5.2628465     668.7933  0.032841942  0.032007477            6 
 1698000   0.56773512   -5.2683447    670.87594  0.032924811  0.031986295           10 
 1699000   0.57660602   -5.2753239    668.38865  0.032783434  0.031965091           16 
 1700000   0.57019606   -5.2996362    669.14339  0.032801146  0.031943766           17 
 1701000   0.57739903   -5.2986207    668.67747  0.032759037  0.031922554           13 
 1702000   0.56449791   -5.2928202    669.44198  0.032777222  0.031901294           12 
 1703000   0.57184195   -5.3012977    669.22737  0.032747474  0.031880133           12 
 1704000   0.56604735   -5.3112522    670.10463  0.032771157  0.031858844           22 
 1705000   0.57949217   -5.2844967    669.31584  0.032713384  0.031837661           15 
 1706000   0.56861194   -5.3149259    669.35741  0.032696239  0.031816416           14 
 1707000   0.56878151   -5.2923762    669.63704  0.032690736  0.031795277           15 
 1708000   0.55897293   -5.2919789    669.34363  0.032657281  0.031774118            8 
 1709000   0.57268172   -5.2979385    669.15875  0.032629157  0.031753012           24 
 1710000   0.55810169   -5.2856298    670.01812  0.032651955  0.031731988           17 
 1711000    0.5702759    -5.318152      669.502  0.032607734  0.031710911           26 
 1712000   0.58832496    -5.293525    669.57207  0.032592098  0.031689746           26 
 1713000   0.56867067   -5.2987752    669.44576  0.032566928  0.031668674           32 
 1714000   0.56244105   -5.2949301     669.8443  0.032567304  0.031647558            9 
 1715000   0.56633381   -5.3357092    667.59096  0.032438822  0.031626401           12 
 1716000   0.56189303   -5.3055003     670.3137  0.032552141  0.031605262           23 
 1717000    0.5796205   -5.3169379    668.30076  0.032435486  0.031584072           12 
 1718000   0.56699772   -5.3071255    669.12659  0.032456664  0.031562905           26 
 1719000    0.5742513   -5.3164615    669.51066  0.032456402  0.031541771           33 
 1720000   0.55700576   -5.3196668    669.50537  0.032437276  0.031520535           35 
 1721000   0.57320041   -5.3186966    668.57701  0.032373475  0.031499303           19 
 1722000   0.56911435   -5.3403178    668.58461  0.032355043  0.031478102           36 
 1723000   0.57144871   -5.3162867    668.49337  0.032331852  0.031456944           42 
 1724000   0.54908585   -5.3198138    669.86669  0.032379481  0.031435758           11 
 1725000   0.55490732   -5.3178673    667.62392  0.032252363  0.031414647           17 
 1726000    0.5613321     -5.31594    669.21645  0.032310566  0.031393575            7 
 1727000   0.56550808   -5.3355145    667.56527  0.032212183  0.031372474           13 
 1728000   0.56572049   -5.3176702    669.67207  0.032295142  0.031351413           13 
 1729000   0.56778751   -5.3131626    668.51754  0.032220819  0.031330352           25 
 1730000   0.57074075   -5.3444978    669.27858  0.032238852  0.031309322           15 
 1731000   0.55695872    -5.318235    668.74128  0.032194361  0.031288273           27 
 1732000   0.54416599   -5.3329966    668.19372  0.032149429  0.031267239           26 
 1733000   0.55945693   -5.3149598    670.16364  0.032225603  0.031246184            7 
 1734000   0.56798439    -5.339095    668.75146  0.032139151  0.031225226           20 
 1735000   0.55970181   -5.3051104     668.1585  0.032092147   0.03120428           46 
 1736000   0.55637291   -5.3153588     669.8734  0.032155981  0.031183383           23 
 1737000   0.56351292   -5.3287802    668.16265  0.032055395  0.031162434           45 
 1738000   0.56081502   -5.3058196    670.43104  0.032145715  0.031141453           19 
 1739000    0.5387261   -5.3153604    668.32862  0.032026482  0.031120481           18 
 1740000   0.56190882   -5.3330708    668.95064  0.032037866  0.031099452           27 
 1741000   0.55117229   -5.3327526    670.01078  0.032070208  0.031078504           41 
 1742000   0.55596757   -5.3450144    668.94125  0.032000634  0.031057579           25 
 1743000   0.56040745   -5.3454676     669.3397  0.032001324  0.031036666           33 
 1744000   0.56743288   -5.3485435    669.52035  0.031991607  0.031015795           27 
 1745000   0.55969028   -5.3347957    670.26064  0.032008627  0.030995003           19 
 1746000   0.55261642   -5.3463989    667.46018  0.031856633  0.030974059           53 
 1747000   0.56408957   -5.3408767    666.97206  0.031815115   0.03095305           42 
 1748000   0.55644215   -5.3323762    667.89085  0.031840716  0.030932157           15 
 1749000   0.53743567   -5.3585372    669.05276  0.031877871  0.030911249           22 
 1750000   0.55192863    -5.350541    670.67718  0.031937009   0.03089044           30 
 1751000   0.54577072   -5.3346818    668.30241  0.031805749  0.030869661           24 
 1752000   0.54744128   -5.3444869    669.52936  0.031845955  0.030848891           16 
 1753000    0.5551767   -5.3399077    669.58658  0.031830509  0.030828231           29 
 1754000   0.53994211   -5.3231351    668.57021  0.031764073  0.030807607           32 
 1755000   0.55880195   -5.3447478    670.04212  0.031815865  0.030786951           58 
 1756000   0.55151446    -5.347855    668.92427  0.031744698  0.030766271           65 
 1757000   0.54190445   -5.3603193    670.12099   0.03178339  0.030745579           47 
 1758000   0.55428689   -5.3659253    670.04295  0.031761611  0.030724932           47 
 1759000   0.53767257   -5.3556517    669.21089  0.031704135  0.030704316           82 
 1760000   0.54138774   -5.3585462    670.62359  0.031753011  0.030683776           58 
 1761000   0.55220878   -5.3407069    669.93182  0.031702244  0.030663217           51 
 1762000   0.55471644   -5.3305155    671.20048  0.031744253  0.030642706           29 
 1763000   0.54691799    -5.340791    669.70844  0.031655721  0.030622263           26 
 1764000   0.54565134   -5.3156946    671.90958   0.03174176  0.030601774           23 
 1765000   0.55020414    -5.347395    671.11611  0.031686313    0.0305814           14 
 1766000   0.54803976   -5.3393989    671.09504  0.031667377  0.030560976           20 
 1767000   0.54800674   -5.3465568    669.05189  0.031553098  0.030540551           17 
 1768000   0.54103712   -5.3484849    669.22987   0.03154364  0.030520086            5 
 1769000   0.55442512   -5.3493342    668.77897  0.031504568  0.030499649           17 
 1770000   0.54499461   -5.3517276    670.82935  0.031583303  0.030479226           10 
 1771000   0.54995213   -5.3491943    671.34355  0.031589665  0.030458868           10 
 1772000   0.54767366   -5.3500311    671.35495  0.031572374   0.03043852           20 
 1773000   0.54887579   -5.3494587    670.35048  0.031507355  0.030418179           13 
 1774000   0.54867957   -5.3730832    669.87048  0.031467046  0.030397829           15 
 1775000   0.53334795    -5.381588    669.89893  0.031450654  0.030377408           20 
 1776000   0.54520342   -5.3634545    669.92454  0.031434147  0.030357084           23 
 1777000   0.53868844   -5.3628443    670.12375    0.0314258  0.030336768           41 
 1778000   0.53731665   -5.3577564    669.86467  0.031395982  0.030316483           20 
 1779000   0.54897497   -5.3449459    670.38738  0.031402819  0.030296144           10 
 1780000   0.53639387   -5.3587697    671.53799  0.031439045  0.030275945           20 
 1781000   0.53525582   -5.3395579    671.78899  0.031433137  0.030255856           23 
 1782000   0.54250661   -5.3664279    671.20238  0.031388065  0.030235729           28 
 1783000   0.53839193   -5.3598925    670.98807  0.031360445  0.030215586           11 
 1784000   0.54294603   -5.3645685    670.09187  0.031301003  0.030195391           36 
 1785000   0.56063881   -5.3773864    670.47225  0.031301226  0.030175198           14 
 1786000   0.54626836   -5.3803972    670.95225  0.031306096  0.030155018           40 
 1787000   0.56528483   -5.3554272    670.92615   0.03128736  0.030134882           38 
 1788000   0.54169641   -5.3888051    671.13341  0.031279521  0.030114753           35 
 1789000   0.53682233   -5.3649346    670.49308   0.03123221  0.030094554           37 
 1790000   0.53910255   -5.3710812    669.97449  0.031190619  0.030074392           13 
 1791000   0.52882986    -5.359562    671.20518  0.031230466   0.03005427           11 
 1792000   0.54287266   -5.3781256    670.01745  0.031157806  0.030034103           37 
 1793000   0.54305599   -5.3723031     670.1724   0.03114763   0.03001399           12 
 1794000   0.53572244   -5.3838258    671.25131  0.031180384  0.029993884           12 
 1795000   0.54839303   -5.3610927    672.32759   0.03121298  0.029973797           30 
 1796000   0.53741199   -5.3600083    670.96017  0.031132154  0.029953749           22 
 1797000   0.54691664   -5.3704298    669.15962  0.031031331  0.029933703           36 
 1798000   0.53288183   -5.3814792    670.01465  0.031053701  0.029913664           51 
 1799000   0.54822364   -5.3811067    670.49771  0.031058816  0.029893577          106 
 1800000   0.52748601   -5.3975976    670.59752  0.031046181  0.029873476           41 
 1801000    0.5434345   -5.3793479    668.23701  0.030919721  0.029853334           25 
 1802000   0.53893479   -5.4009422    669.66653   0.03096867  0.029833194           29 
 1803000   0.53637587   -5.3794455    670.62904  0.030995981  0.029813066           22 
 1804000   0.54086308   -5.3787822    670.84977  0.030988995  0.029792999           14 
 1805000   0.53585522   -5.3910824    670.84818  0.030971754  0.029772913           21 
 1806000   0.54118115   -5.3809966    670.33404   0.03093088  0.029752918           11 
 1807000   0.52607355   -5.3841659    670.86576  0.030938284  0.029732943            7 
 1808000   0.53045753   -5.4084635    669.19445  0.030844139  0.029712934           14 
 1809000   0.53154433   -5.4075361    667.86268   0.03076574  0.029692941           28 
 1810000   0.53073083   -5.3854328    670.14505  0.030853824  0.029672929           19 
 1811000   0.52555557   -5.3985245    671.50552  0.030899389  0.029652973           34 
 1812000   0.53431327   -5.4059892    670.72699  0.030846532  0.029632978           24 
 1813000   0.52965795   -5.4061851     668.9953  0.030749922  0.029613012           23 
 1814000   0.53629085    -5.393606    667.51961  0.030665179  0.029593022           24 
 1815000   0.53081717   -5.3999698    669.58046  0.030742905  0.029573039           50 
 1816000    0.5138505   -5.4024105     669.4948  0.030722045  0.029553041           30 
 1817000    0.5280282   -5.3855435    670.63099  0.030757246  0.029533078            8 
 1818000   0.54159191   -5.3945046    669.75302  0.030700083  0.029513153           20 
 1819000   0.52736615   -5.3979801    669.65251  0.030678601   0.02949328           23 
 1820000   0.52244452   -5.3781861     668.6236  0.030614634  0.029473393           10 
 1821000   0.52367443   -5.3969214     670.5325  0.030685178  0.029453596           38 
 1822000   0.52176499   -5.3913702    670.61252  0.030671996  0.029433839           15 
 1823000   0.51787474   -5.4005501    671.70678  0.030705192    0.0294141           31 
 1824000   0.52124608   -5.4109734    669.71385  0.030597307  0.029394356           21 
 1825000   0.53084716   -5.3917948    669.98758   0.03059304  0.029374547           36 
 1826000   0.52275525   -5.4073395    669.95383  0.030574746   0.02935479           42 
 1827000    0.5273517   -5.4130591    669.37811  0.030531751  0.029335008           18 
 1828000   0.52336928   -5.3882398     671.3684   0.03060578  0.029315277           42 
 1829000   0.52692525   -5.4192618    670.81304  0.030563743  0.029295584           29 
 1830000   0.52845966    -5.394435    671.35035   0.03057151  0.029275869           42 
 1831000   0.52941908   -5.3959358    670.39629  0.030511391  0.029256193           54 
 1832000   0.52821457   -5.4239411     671.9703  0.030566335  0.029236486           25 
 1833000   0.51510492   -5.4119962    670.13177  0.030466074  0.029216737           59 
 1834000   0.52517066   -5.4057555    670.31971  0.030458002  0.029196977           76 
 1835000   0.52645926   -5.4317481     669.2635  0.030393438  0.029177255           45 
 1836000   0.52625915    -5.417693    669.30792    0.0303789  0.029157561           45 
 1837000    0.5175056   -5.4188444    671.23344  0.030449712  0.029137903           30 
 1838000   0.52709797   -5.4424884    668.78967  0.030322346   0.02911822           19 
 1839000   0.51165592   -5.4104636    669.81192   0.03035218  0.029098656           21 
 1840000   0.53464914   -5.4262164    671.11333  0.030394626  0.029079045           15 
 1841000   0.51196073   -5.4118641     668.4974  0.030259705  0.029059459           32 
 1842000   0.52205117   -5.4394679    671.11492  0.030361695  0.029039862           16 
 1843000   0.52031565   -5.4318875    671.29566  0.030353394  0.029020303           14 
 1844000   0.51406391   -5.4098654    669.65004  0.030262565   0.02900077           19 
 1845000   0.52320014   -5.4336065    670.68028  0.030292696   0.02898126           22 
 1846000    0.5245121   -5.4176581    670.69436  0.030276921  0.028961762           26 
 1847000   0.50958638   -5.4197499    671.27287   0.03028663   0.02894226           19 
 1848000    0.5311925   -5.4374651    670.24699  0.030223981  0.028922774           41 
 1849000   0.51537145   -5.4149875    670.24142  0.030207383   0.02890332           19 
 1850000   0.51968772   -5.4347604    670.55653  0.030205249   0.02888386           30 
 1851000   0.51240039   -5.4125222    669.36423  0.030135253  0.028864388           27 
 1852000   0.51478677   -5.4314638    670.81316  0.030184178  0.028844953           28 
 1853000   0.51235985   -5.4135445    669.61014  0.030113786  0.028825455           34 
 1854000   0.51048656   -5.4419379    671.02213  0.030161009  0.028805964           29 
 1855000   0.51815034   -5.4142024    670.55258  0.030123656  0.028786532           40 
 1856000   0.50764483   -5.4148256    670.60683  0.030109861  0.028767147           14 
 1857000   0.51396984   -5.4316691    669.79888   0.03005739  0.028747739           16 
 1858000   0.50988171   -5.4395476    670.43631  0.030069802  0.028728387           22 
 1859000   0.51564635   -5.4171308     670.2212  0.030043984  0.028709019           13 
 1860000   0.51195573   -5.4320067    670.55598  0.030042831  0.028689693           11 
 1861000   0.50625552   -5.4345189    669.21755  0.029966754  0.028670312           26 
 1862000   0.50754491   -5.4523109    669.08422  0.029944693  0.028650931           15 
 1863000   0.51196421   -5.4369667    669.37509  0.029941631  0.028631552           33 
 1864000   0.51633941   -5.4159282    669.78423  0.029943859  0.028612162           30 
 1865000   0.49924763   -5.4449895    670.03584  0.029939045  0.028592815           22 
 1866000   0.51183306   -5.4464214    669.80199  0.029912558  0.028573518           14 
 1867000   0.51521346   -5.4417194    669.71945  0.029892852  0.028554216           16 
 1868000   0.50071247   -5.4278494    668.64117  0.029828746   0.02853492           30 
 1869000   0.51396706   -5.4630563    669.13019   0.02983459  0.028515631           40 
 1870000    0.5052356   -5.4460413    668.43604  0.029787702  0.028496308           72 
 1871000   0.50835433    -5.463302    668.62776  0.029780321   0.02847699           28 
 1872000   0.50291248   -5.4442028    669.82506  0.029817711  0.028457721           36 
 1873000    0.5000698   -5.4296271    670.27513  0.029821816  0.028438463           20 
 1874000    0.5078355   -5.4613744    669.98899  0.029793178  0.028419249           32 
 1875000   0.50018509   -5.4394535    669.05872  0.029735943   0.02839997           30 
 1876000   0.50703576   -5.4633694    667.32486  0.029643073  0.028380674           38 
 1877000   0.50461708   -5.4627562    668.98226  0.029700864  0.028361342           37 
 1878000    0.5062471   -5.4572445    668.24206  0.029652204  0.028342095           32 
 1879000   0.50337139   -5.4670402    669.63035  0.029697993  0.028322839           26 
 1880000   0.50439638   -5.4600976    671.14008  0.029749117  0.028303644           14 
 1881000   0.52155333   -5.4259743    669.37591  0.029655144  0.028284451           77 
 1882000    0.5038941    -5.456572    669.54131  0.029646711  0.028265273           43 
 1883000    0.4935786   -5.4484553    669.12727  0.029612642  0.028246099           15 
 1884000   0.50428489   -5.4520751     669.2784  0.029603609  0.028226938           67 
 1885000   0.49926916     -5.44232     670.7778  0.029654191  0.028207794           37 
 1886000   0.48534126   -5.4563105    669.62503  0.029587532  0.028188645           54 
 1887000   0.49266733   -5.4597787    669.38839  0.029561402  0.028169532           55 
 1888000   0.49918974   -5.4552945     669.2621   0.02954017  0.028150406           30 
 1889000   0.48710314   -5.4789115    669.79885  0.029548211  0.028131278           31 
 1890000   0.50767806    -5.463101     669.5212  0.029520335  0.028112148           37 
 1891000   0.49723076   -5.4608967    668.66437  0.029466965  0.028093034           45 
 1892000   0.49416417   -5.4685747     670.1658  0.029517521  0.028073915           58 
 1893000   0.49369731   -5.4629234    668.23321  0.029416852  0.028054869           60 
 1894000   0.49410233   -5.4666573      669.843  0.029472149  0.028035864           36 
 1895000   0.51151633   -5.4749691    669.99847  0.029463433  0.028016803           51 
 1896000   0.49116255   -5.4697601    669.86184  0.029441888  0.027997746           34 
 1897000   0.50377942    -5.486993    668.07362  0.029347813  0.027978666           29 
 1898000   0.49064234   -5.4641139    667.78206   0.02931955  0.027959583           74 
 1899000   0.50512156    -5.469816    667.30853   0.02928333  0.027940514           57 
 1900000   0.49982443   -5.4850273    669.63753  0.029370067  0.027921425           43 
 1901000   0.49884547   -5.4741451    666.43976  0.029214438  0.027902377           85 
 1902000     0.501035   -5.4879462    668.27104  0.029279313  0.027883352           92 
 1903000   0.49147157   -5.4639639    669.92873  0.029336518  0.027864352          120 
 1904000   0.48911325   -5.4780421     669.6878  0.029310565  0.027845371          107 
 1905000   0.49039191    -5.494513    668.15575   0.02922816   0.02782642          114 
 1906000   0.48677703    -5.483266    669.36874   0.02926586  0.027807452          123 
 1907000   0.48770194   -5.4781416    667.87305  0.029185153  0.027788489           70 
 1908000   0.49627609   -5.4692195    669.36868   0.02923518  0.027769564          137 
 1909000   0.49765694   -5.4772153    668.19487  0.029168625  0.027750599          166 
 1910000   0.49684774   -5.4943131    668.45121  0.029164538  0.027731611          160 
 1911000   0.48851426   -5.4932047    667.99407  0.029129342  0.027712597          142 
 1912000   0.49651411   -5.4965713    668.10188  0.029118806  0.027693594          237 
 1913000   0.48949559   -5.4961953    668.00431  0.029099334  0.027674633          134 
 1914000   0.48719962   -5.4815985    669.30092  0.029140584  0.027655697          163 
 1915000   0.48623907   -5.4938804    667.27904  0.029037382  0.027636818          124 
 1916000   0.48099606   -5.4856384    669.05616   0.02909952  0.027617889          120 
 1917000   0.48551337   -5.4909433    667.76653  0.029028279  0.027598977          109 
 1918000   0.48075448   -5.4872289    667.20933  0.028988935  0.027580107           98 
 1919000   0.48267401   -5.4754927    669.38917  0.029068489  0.027561208           74 
 1920000   0.49317371   -5.4956365    668.32729  0.029007261  0.027542364           87 
 1921000   0.48693837   -5.5015165    668.00964  0.028978381  0.027523515           70 
 1922000   0.48831326   -5.4883173    666.98122  0.028918714  0.027504703          118 
 1923000   0.48355489   -5.4805586    668.36033  0.028963439  0.027485893          108 
 1924000   0.48319381   -5.4947433    669.16488  0.028983233    0.0274671          129 
 1925000   0.49396346   -5.5041626    668.37847  0.028934133  0.027448356           90 
 1926000   0.47408866   -5.4997882    667.49285  0.028880791  0.027429533           92 
 1927000   0.48081917   -5.4948484    668.42296  0.028906026  0.027410729          138 
 1928000   0.48466536    -5.504927    666.87643  0.028824189  0.027391887          222 
 1929000   0.47686005    -5.509598    667.50688  0.028836482  0.027373027          238 
 1930000   0.47882272   -5.5026167    666.92325  0.028796341  0.027354173          181 
 1931000   0.47276582   -5.5221382    667.02676  0.028785895  0.027335313          167 
 1932000   0.49046614   -5.5239109    667.00863  0.028770213  0.027316497          120 
 1933000   0.48463001    -5.532581    667.72707  0.028786302   0.02729763          173 
 1934000   0.48206064   -5.5120707    667.50595   0.02876189  0.027278774           89 
 1935000   0.47606737   -5.5147087    666.67875  0.028711402   0.02725993          131 
 1936000   0.48032066   -5.4948831    667.55901  0.028734461  0.027241128           71 
 1937000   0.47883967   -5.5048265     667.0946  0.028699647  0.027222341          122 
 1938000   0.48663399   -5.5120264    666.86041  0.028674768  0.027203581           89 
 1939000   0.48992027   -5.5222381    667.65025  0.028693925  0.027184833           86 
 1940000   0.48161964   -5.5146214    668.56329  0.028718355  0.027166107          113 
 1941000   0.47568286    -5.503854      666.623  0.028620256  0.027147441           96 
 1942000   0.48599158   -5.5079216    666.52695  0.028601397  0.027128785          146 
 1943000   0.47298022   -5.5218964    667.33519  0.028621341  0.027110155           89 
 1944000    0.4790573    -5.509751     667.9161   0.02863152  0.027091521          168 
 1945000   0.46857478   -5.5156376    667.17692  0.028585129  0.027072871           73 
 1946000   0.47012885   -5.4986883    666.62822  0.028546943  0.027054235           87 
 1947000   0.46176554   -5.5043934    667.32387  0.028562056  0.027035653           71 
 1948000   0.47787088   -5.4983254    667.07329  0.028536674  0.027016999           78 
 1949000   0.48146206   -5.5200915     667.2789  0.028530824  0.026998407           74 
 1950000   0.46908828    -5.515722    667.55561  0.028528017  0.026979864           75 
 1951000   0.48566058   -5.5293312    667.39913  0.028506712  0.026961343          144 
 1952000   0.47410778   -5.5245532    667.37877  0.028491238  0.026942808          119 
 1953000   0.47230756   -5.5306019    667.06231  0.028463147  0.026924259          160 
 1954000   0.48033289   -5.5240276    667.32287  0.028459692  0.026905745          149 
 1955000   0.47683489   -5.5310392    666.45028   0.02840794  0.026887227          112 
 1956000    0.4783786   -5.5306349    666.06678  0.028377078  0.026868731           90 
 1957000   0.48146399   -5.5487894    666.57732  0.028384318  0.026850225          119 
 1958000   0.46809858   -5.5448388    666.68102  0.028374235  0.026831709          144 
 1959000    0.4602071   -5.5459415    666.46907  0.028350735  0.026813157          242 
 1960000   0.46583543   -5.5412169    667.74378  0.028390467  0.026794652          169 
 1961000   0.46880713   -5.5279056    667.40611   0.02836164  0.026776157          172 
 1962000    0.4777855    -5.555061    665.28023  0.028256891  0.026757691          236 
 1963000   0.47379929   -5.5371766    667.91281  0.028354254  0.026739269          203 
 1964000   0.48434559   -5.5337615    667.22114  0.028310469  0.026720848          157 
 1965000    0.4664329   -5.5293403    667.11007  0.028291352  0.026702442          192 
 1966000   0.46703439   -5.5176639    666.03449   0.02823137  0.026684065          253 
 1967000    0.4657194   -5.5405653    666.12182  0.028220718  0.026665686          299 
 1968000   0.47236486   -5.5506618    666.10229  0.028205551  0.026647279          150 
 1969000   0.47224297   -5.5458671     666.9965  0.028229072  0.026628844          247 
 1970000   0.47528011   -5.5432032    667.02574  0.028215979  0.026610464          307 
 1971000   0.46295511   -5.5509922    666.20098  0.028166793  0.026592082           95 
 1972000   0.45841485   -5.5325894    666.85882  0.028180308  0.026573706           70 
 1973000     0.463886   -5.5427086    667.24238  0.028182226  0.026555377           87 
 1974000    0.4675893   -5.5605523    665.93703  0.028112843  0.026537057          153 
 1975000   0.46352399   -5.5540553    667.32711  0.028157262  0.026518745          209 
 1976000    0.4704361   -5.5479829    666.25043  0.028097606  0.026500444          222 
 1977000   0.46407762   -5.5548973    665.76497  0.028062931  0.026482196          143 
 1978000    0.4569309   -5.5497176    667.84007  0.028136167  0.026463947          272 
 1979000   0.46457442   -5.5473128    666.48957  0.028065082  0.026445677          308 
 1980000   0.46162055   -5.5591732    665.81103   0.02802235  0.026427455          181 
 1981000   0.46914043   -5.5468919    665.25442   0.02798479  0.026409239          278 
 1982000   0.45906778   -5.5375503    666.98277  0.028043339  0.026391072          313 
 1983000   0.46777358   -5.5509757     666.2882  0.028000008  0.026372848          317 
 1984000   0.46450084   -5.5454738    665.44627  0.027950532  0.026354678          317 
 1985000   0.45331594   -5.5405406    664.88066  0.027912706  0.026336506          373 
 1986000   0.45931176   -5.5311662    665.60465   0.02792903    0.0263183          332 
 1987000   0.45601324   -5.5443635    665.64329  0.027916595  0.026300114          317 
 1988000   0.45559034   -5.5528503     666.3329   0.02793146  0.026281939          115 
 1989000   0.46632481   -5.5488892    666.65396  0.027930868   0.02626378          352 
 1990000   0.46576009   -5.5512879     664.8326  0.027840561  0.026245631          349 
 1991000    0.4595699   -5.5542936    665.94938  0.027873321  0.026227479          146 
 1992000   0.46400327   -5.5584551    665.85419  0.027855346  0.026209324          274 
 1993000   0.45147436   -5.5633936    665.52023  0.027827406  0.026191184          310 
 1994000   0.45864927    -5.553517    666.22316  0.027842827  0.026173054          353 
 1995000   0.44314213   -5.5529841    666.14722  0.027825698  0.026154939          217 
 1996000   0.45150369   -5.5606974    665.65781  0.027791325  0.026136831          173 
 1997000   0.44638405   -5.5493121    664.48575  0.027728499  0.026118728          205 
 1998000   0.45293914   -5.5562399     664.6913  0.027723194  0.026100652          429 
 1999000   0.44432742   -5.5587526    665.32125  0.027735587  0.026082599          539 
 2000000   0.47037701   -5.5452864    665.12658  0.027713608  0.026064519          436 
 2001000   0.46315439   -5.5654404    665.20956  0.027703213  0.026046471          478 
 2002000   0.45760002   -5.5755309    665.64603  0.027707543  0.026028411          505 
 2003000   0.44803273   -5.5630736    665.99218  0.027708112  0.026010337          476 
 2004000   0.45366152   -5.5531297    666.16775  0.027701586  0.025992263          490 
 2005000   0.45291477   -5.5844083    664.85928  0.027633387  0.025974192          569 
 2006000   0.45310645   -5.5831615    664.19971  0.027592211  0.025956125          541 
 2007000   0.44959912    -5.563017    664.50822  0.027591273  0.025938084          528 
 2008000   0.44917094   -5.5686786    664.36541  0.027571606   0.02592006          531 
 2009000   0.45593852   -5.5712342    664.42487  0.027560348  0.025902054          539 
 2010000   0.44475876   -5.5670252    663.42516  0.027505189  0.025884039          601 
 2011000   0.44352186   -5.5735576    664.24114  0.027525325  0.025866034          587 
 2012000   0.43996052   -5.5780344    664.67071  0.027529436  0.025848037          503 
Loop time of 5060.67 on 48 procs for 2000000 steps with 4000 atoms

Performance: 68291.396 tau/day, 395.205 timesteps/s
99.4% CPU use with 48 MPI tasks x no OpenMP threads

MPI task timing breakdown:
Section |  min time  |  avg time  |  max time  |%varavg| %total
---------------------------------------------------------------
Pair    | 359.37     | 377.85     | 395.83     |  46.8 |  7.47
Neigh   | 34.258     | 35.489     | 36.942     |  11.3 |  0.70
Comm    | 327.23     | 347.65     | 368.36     |  58.0 |  6.87
Output  | 4.2486     | 4.2509     | 4.3006     |   0.4 |  0.08
Modify  | 4238.6     | 4247.9     | 4259.5     |   8.6 | 83.94
Other   |            | 47.54      |            |       |  0.94

Nlocal:        83.3333 ave          92 max          75 min
Histogram: 1 1 8 4 12 9 5 5 2 1
Nghost:        2317.52 ave        2339 max        2298 min
Histogram: 2 6 3 4 13 7 3 5 2 3
Neighs:        15792.2 ave       18342 max       13862 min
Histogram: 1 3 9 12 9 4 4 5 0 1
FullNghs:      31585.8 ave       34921 max       28249 min
Histogram: 1 1 6 6 12 7 8 2 4 1

Total # of neighbors = 1516117
Ave neighs/atom = 379.02925
Neighbor list builds = 107798
Dangerous builds = 1

#clear
#
#next RN
#
#jump SELF
Total wall time: 1:24:24
