
units lj                  # Use reduced LJ style units
atom_style atomic         # Uncharged point particles
atom_modify map hash      # Needed for indexing of clusters etc
                          # Used to be able to find where atoms are in relation to each other.

lattice fcc 1.0 spacing 1 1 1
Lattice spacing in x,y,z = 1.5874011 1.5874011 1.5874011
region box block 0 10 0 10 0 10 units lattice
create_box 2 box
Created orthogonal box = (0.0000000 0.0000000 0.0000000) to (15.874011 15.874011 15.874011)
  3 by 4 by 4 MPI processor grid
create_atoms 1 box
Created 4000 atoms
  using lattice units in orthogonal box = (0.0000000 0.0000000 0.0000000) to (15.874011 15.874011 15.874011)
  create_atoms CPU = 0.019 seconds
set type 1 type/fraction 2 0.13 78393
Setting atom values ...
  541 settings made for type/fraction
mass 1 1.0
mass 2 1.0
pair_style lj/cut  3.5
pair_modify tail  yes
pair_coeff 1  1  1.0  1.0   # Intearaction between 1 and 1 set with epsilon = 1 and sigma = 1
pair_coeff 1  2  1.5  0.8
pair_coeff 2  2  0.5  0.88

write_data data.0
System init for write_data ...
Neighbor list info ...
  update every 1 steps, delay 10 steps, check yes
  max neighbors/atom: 2000, page size: 100000
  master list distance cutoff = 3.8
  ghost atom cutoff = 3.8
  binsize = 1.9, bins = 9 9 9
  1 neighbor lists, perpetual/occasional/extra = 1 0 0
  (1) pair lj/cut, perpetual
      attributes: half, newton on
      pair build: half/bin/atomonly/newton
      stencil: half/bin/3d
      bin: standard
WARNING: Not all mixed pair coeffs generated from mixing. Use write_data with 'pair ij' option to store all pair coeffs. (../write_data.cpp:312)


#############################
#   M E L T   S Y S T E M   #
#############################

velocity all create 2.4 6583654 mom yes dist gaussian # Assign velocities
                                                    # Temperature 2.4, random number seed, zero linear momentum
                                                                                # Gaussian distribution

timestep 0.002   # simulation timestep
thermo 1000       # output thermodynamic data every 1000 steps bf 100

# Define a fix  in this case with index 1 applied to all
# particles in the simulation. This fix is for simulations
# in the anisotropic NPT ensemble. Note that we use the MTK
# correction.
fix 1 all npt temp 2.4 2.4 0.1 iso 5.68 5.68 0.5 mtk yes tchain 5 pchain 5 # Use NPT ensemble
                                                                         # Set temperature and pressure and damping
                                                                         # Numbers of thermostats in chain and in barostat
run 10000          # run for 10000 steps
Per MPI rank memory allocation (min/avg/max) = 3.642 | 3.644 | 3.648 Mbytes
Step Temp E_pair E_mol TotEng Press Volume 
       0          2.4     -7.50335            0     -3.90425   -3.2182506         4000 
    1000    2.4089788   -4.6524845            0   -1.0399197    5.7252199    4733.4485 
    2000    2.3528779   -4.6771226            0   -1.1486881    5.7165028      4724.89 
    3000    2.3428195   -4.7443057            0    -1.230955    5.3094285    4737.3452 
    4000    2.3806459   -4.6852037            0   -1.1151276     5.720287    4720.2142 
    5000    2.4349238   -4.6931715            0   -1.0416988    5.7429395    4727.7795 
    6000    2.3772753   -4.6758318            0   -1.1108103    5.8347997    4710.2723 
    7000    2.4416195   -4.7250551            0   -1.0635415    5.7125553    4702.7579 
    8000    2.4142502   -4.6207423            0   -1.0002723    5.5816366    4783.8081 
    9000    2.4679358   -4.6697949            0  -0.96881663    5.7589911    4730.5937 
   10000    2.3625571    -4.705677            0   -1.1627274    5.3472369    4755.4379 
Loop time of 2.33059 on 48 procs for 10000 steps with 4000 atoms

Performance: 741442.915 tau/day, 4290.758 timesteps/s
99.5% CPU use with 48 MPI tasks x no OpenMP threads

MPI task timing breakdown:
Section |  min time  |  avg time  |  max time  |%varavg| %total
---------------------------------------------------------------
Pair    | 0.9137     | 0.97765    | 1.0284     |   2.6 | 41.95
Neigh   | 0.19168    | 0.19928    | 0.21733    |   1.0 |  8.55
Comm    | 0.74258    | 0.80603    | 0.91261    |   4.5 | 34.58
Output  | 0.0002429  | 0.00024702 | 0.00031168 |   0.0 |  0.01
Modify  | 0.26076    | 0.33274    | 0.37414    |   5.1 | 14.28
Other   |            | 0.01465    |            |       |  0.63

Nlocal:        83.3333 ave          95 max          76 min
Histogram: 1 7 5 16 9 5 3 0 1 1
Nghost:        1466.31 ave        1493 max        1444 min
Histogram: 4 2 7 8 6 7 7 3 2 2
Neighs:        8014.29 ave        9297 max        7066 min
Histogram: 1 3 10 11 8 6 5 3 0 1

Total # of neighbors = 384686
Ave neighs/atom = 96.171500
Neighbor list builds = 903
Dangerous builds = 189

# Equilibrate just above the melting temperature to avoid step fn in T

fix 1 all npt temp 1.25 1.25 0.1 iso 5.68 5.68 0.5 mtk yes tchain 5 pchain 5
run 2000
Per MPI rank memory allocation (min/avg/max) = 3.642 | 3.644 | 3.648 Mbytes
Step Temp E_pair E_mol TotEng Press Volume 
   10000    2.3625571    -4.705677            0   -1.1627274    5.3472369    4755.4379 
   11000    1.2304618    -6.281595            0   -4.4363638    5.5185808    3898.7397 
   12000    1.2274338   -6.3492702            0   -4.5085799     5.439243    3884.6687 
Loop time of 0.491779 on 48 procs for 2000 steps with 4000 atoms

Performance: 702755.255 tau/day, 4066.871 timesteps/s
99.6% CPU use with 48 MPI tasks x no OpenMP threads

MPI task timing breakdown:
Section |  min time  |  avg time  |  max time  |%varavg| %total
---------------------------------------------------------------
Pair    | 0.21244    | 0.22974    | 0.2683     |   2.1 | 46.72
Neigh   | 0.031602   | 0.033429   | 0.03898    |   0.7 |  6.80
Comm    | 0.13993    | 0.17088    | 0.1985     |   3.4 | 34.75
Output  | 5.0601e-05 | 5.2198e-05 | 6.5668e-05 |   0.0 |  0.01
Modify  | 0.039185   | 0.053089   | 0.066278   |   3.8 | 10.80
Other   |            | 0.004597   |            |       |  0.93

Nlocal:        83.3333 ave          90 max          73 min
Histogram: 2 0 2 0 5 17 5 6 9 2
Nghost:        1665.58 ave        1685 max        1641 min
Histogram: 1 2 3 8 7 8 3 6 4 6
Neighs:        9815.69 ave       10652 max        8633 min
Histogram: 2 1 2 4 5 8 11 7 3 5

Total # of neighbors = 471153
Ave neighs/atom = 117.78825
Neighbor list builds = 142
Dangerous builds = 6

#############################
# L I N E A R  Q U E N C H  #
#############################

# Define solid atoms. This closely follows ten Wolde  Ruiz-Montero and Frenkel  Faraday Discuss  1996  104  93-110
# Compute components of the per-atom q6 vector
compute q6 all orientorder/atom degrees 1 6 components 6 nnn NULL cutoff 1.3 # compute the Q6 parameter.
                                                                             # Use all neighbours within 1.3 unit cell.

# get number of connections
compute coord_number all coord/atom orientorder q6 0.5

# An atom is solid if it has 8 or more connections (of a possible 14)
variable is_solid atom c_coord_number>=8
group solid dynamic all var is_solid    # Must be dynamic to update
dynamic group solid defined

# do clustering
compute cluster solid cluster/atom 1.3 # Create a cluster where all atoms within are solid and max 1.3 units from another member

# define chunks one chunk per cluster
compute clus_chunks solid chunk/atom c_cluster nchunk every compress yes  # Says which atoms are in which chunk

# count the size of each chunk
compute size_chunks solid property/chunk clus_chunks count


# Find the maximum entry in the vector of chunk sizes
variable max_n equal max(c_size_chunks)


# Thermo style which includes this variable
# thermo_style custom step temp pe vol v_max_n

thermo ${N}  # Print the thermo information every 100 steps
thermo 1000  

# Reset the npt fix at a lower temperature (below freezing)
fix 1  all npt temp  ${temp} ${temp}  0.1  iso  5.68  5.68  0.5  mtk yes tchain  5  pchain  5
fix 1  all npt temp  0.45 ${temp}  0.1  iso  5.68  5.68  0.5  mtk yes tchain  5  pchain  5
fix 1  all npt temp  0.45 0.45  0.1  iso  5.68  5.68  0.5  mtk yes tchain  5  pchain  5

dump dmp2 all dcd ${N} traj.dcd
dump dmp2 all dcd 1000 traj.dcd


compute msd all msd com yes
variable twopoint equal c_msd[4]/6/(step*dt+1.0e-6)
fix 9 all vector 10 c_msd[4]
variable fit equal slope(f_9)/6/(10*dt)
thermo_style custom step temp pe c_msd[4] v_twopoint v_fit v_max_n

fix 1 all npt temp 1.25 ${temp} 0.1 iso 5.68 5.68 0.5 mtk yes tchain 5 pchain 5
fix 1 all npt temp 1.25 0.45 0.1 iso 5.68 5.68 0.5 mtk yes tchain 5 pchain 5
run 5000000 # 5000000  # Run for this many steps
Neighbor list info ...
  update every 1 steps, delay 10 steps, check yes
  max neighbors/atom: 2000, page size: 100000
  master list distance cutoff = 3.8
  ghost atom cutoff = 3.8
  binsize = 1.9, bins = 9 9 9
  4 neighbor lists, perpetual/occasional/extra = 1 3 0
  (1) pair lj/cut, perpetual
      attributes: half, newton on
      pair build: half/bin/atomonly/newton
      stencil: half/bin/3d
      bin: standard
  (2) compute orientorder/atom, occasional
      attributes: full, newton on
      pair build: full/bin/atomonly
      stencil: full/bin/3d
      bin: standard
  (3) compute coord/atom, occasional
      attributes: full, newton on
      pair build: full/bin/atomonly
      stencil: full/bin/3d
      bin: standard
  (4) compute cluster/atom, occasional
      attributes: full, newton on
      pair build: full/bin/atomonly
      stencil: full/bin/3d
      bin: standard
Per MPI rank memory allocation (min/avg/max) = 9.755 | 9.759 | 9.764 Mbytes
Step Temp PotEng c_msd[4] v_twopoint v_fit v_max_n 
   12000    1.2274338   -6.3492702            0            0 8.3333333e+20            1 
   13000    1.2359024   -6.2887927   0.56838783 0.0036435116  0.046961526            1 
   14000    1.2632256    -6.277575    1.1051891 0.0065785061  0.044958309            2 
   15000    1.2676913   -6.3220224    1.6196291 0.0089979389  0.045344967            3 
   16000    1.2633737   -6.3082718    2.1832477  0.011371081  0.044792623            3 
   17000    1.2473674   -6.3405476    2.7219851  0.013343064  0.045177075            3 
   18000    1.2502221   -6.3162115    3.2773598  0.015172962  0.045226297            2 
   19000    1.2662675   -6.2946621    3.8389731  0.016837601   0.04524436            3 
   20000    1.2482901   -6.2830816    4.3650419  0.018187674  0.045238891            2 
   21000    1.2553504   -6.3135321    4.9506731  0.019645528  0.045376028            1 
   22000    1.2418301   -6.2863142     5.389301  0.020414018  0.045382554            2 
   23000    1.2441491   -6.2990355    5.9403879  0.021523144   0.04507132            2 
   24000    1.2584475   -6.3264887    6.4102036  0.022257651  0.044832311            2 
   25000    1.2387101   -6.2815091     6.928469  0.023094896  0.044571917            2 
   26000    1.2347375   -6.3430406    7.5278499  0.024127724  0.044461203            2 
   27000     1.246869   -6.3012991     8.086098  0.024957092  0.044485226            2 
   28000    1.2429552   -6.3160798    8.5900753    0.0255657  0.044429104            1 
   29000    1.2557793   -6.3108208    9.0905632  0.026122307  0.044362024            1 
   30000    1.2556818   -6.3150538    9.6519655  0.026811015  0.044364203            1 
   31000    1.2562992   -6.3045092    10.338463  0.027791567  0.044474968            3 
   32000    1.2598664   -6.2967628    10.887347  0.028352466  0.044699475            1 
   33000    1.2430969   -6.3526876    11.335292  0.028624475  0.044790445            2 
   34000    1.2449845    -6.327457    11.788709  0.028893894  0.044710736            2 
   35000      1.26489   -6.3199105    12.308773  0.029306602   0.04464908            2 
   36000    1.2433649   -6.3726638    12.846684  0.029737695  0.044589901            2 
   37000    1.2490844   -6.3222122    13.333723  0.030030908  0.044544107            1 
   38000    1.2561539   -6.3326355    13.887284   0.03045457  0.044498175            1 
   39000    1.2193366   -6.3453538    14.409356  0.030789223  0.044466929            2 
   40000    1.2312222   -6.3223982    14.935738   0.03111612  0.044438041            2 
   41000    1.2037349    -6.320632    15.436207  0.031374404  0.044396792            4 
   42000     1.236028   -6.3274768    16.076595  0.031898005  0.044389371            2 
   43000    1.2260601   -6.3508362    16.525491  0.032026144  0.044387772            2 
   44000    1.2580843   -6.2897943    16.976033  0.032151578  0.044339409            2 
   45000    1.2291397   -6.3330989    17.389226   0.03220227  0.044278841            1 
   46000    1.2306988   -6.3344755    18.034211  0.032670671  0.044202244            3 
   47000    1.2268296   -6.3390283    18.354009  0.032542569  0.044118862            3 
   48000    1.2016056   -6.3205032    18.993434  0.032974711  0.044034654            2 
   49000    1.2160018   -6.3082612    19.321149  0.032859096  0.043957479            1 
   50000    1.2775509   -6.2966179    19.914718  0.033191196  0.043855691            3 
   51000    1.2498018   -6.3212543    20.502626  0.033501022  0.043770324            1 
   52000    1.2288844   -6.3734185    20.861984  0.033432667  0.043697338            2 
   53000    1.2340746   -6.3638689    21.484271    0.0337803  0.043628197            2 
   54000    1.2325957   -6.2923934    22.110154  0.034120608   0.04358868            2 
   55000    1.2338158   -6.3175631    22.535638  0.034144906  0.043558389            2 
   56000    1.2409069   -6.3012553     23.13985  0.034434301  0.043545016            3 
   57000    1.2530404   -6.2822206    23.834228  0.034845362  0.043557986            4 
   58000    1.2458853   -6.2749693    24.336144  0.034965724  0.043578394            4 
   59000    1.2206512   -6.3318055     24.75345  0.034962499  0.043586359            2 
   60000    1.2382817   -6.3286432    25.173682  0.034963446  0.043576455            2 
   61000    1.2300083   -6.3034062    25.665188  0.035061732  0.043549678            4 
   62000    1.2437254   -6.3262657    26.117753  0.035104506  0.043529758            2 
   63000     1.254119   -6.3194687    26.633811  0.035229909  0.043505093            3 
   64000     1.248102   -6.3467643    27.241521   0.03547073   0.04348301            1 
   65000    1.2401635   -6.2960075    27.714694  0.035531659  0.043456939            1 
   66000    1.2581585   -6.3141812    28.218154  0.035628982   0.04343032            1 
   67000    1.2570892   -6.3148905    28.879273  0.035919493  0.043414236            2 
   68000    1.2556558   -6.3206206    29.258225  0.035855668   0.04338782            1 
   69000    1.2529246   -6.2831759    29.849708  0.036050371   0.04338491            3 
   70000    1.2299894   -6.2889569    30.394882  0.036184384   0.04337761            3 
   71000    1.2727531    -6.298953    30.990714  0.036374078  0.043368509            3 
   72000    1.2506684   -6.3053978    31.276016  0.036199092  0.043365517            2 
   73000    1.2605817   -6.2920759    32.027651  0.036561245  0.043366739            3 
   74000    1.2359212   -6.3165027     32.59595   0.03670715  0.043374461            2 
   75000    1.2125816   -6.3387951    33.207626  0.036897362   0.04339658            3 
   76000    1.2442768    -6.323759    33.912687  0.037184964  0.043425033            2 
   77000    1.2283428    -6.297302    34.463533  0.037298195  0.043463805            2 
   78000    1.2649364   -6.3380633    34.771635  0.037149182  0.043482063            4 
   79000    1.2320615    -6.304555    35.404879  0.037346919  0.043493445            2 
   80000    1.2392449   -6.3429494    36.091353  0.037595159  0.043521266            2 
   81000    1.2633329   -6.3412789    36.209567   0.03725264  0.043548818            2 
   82000     1.226407   -6.3191137    36.928085  0.037528542  0.043558173            1 
   83000    1.2558092   -6.3394568    37.564201  0.037715061   0.04357317            3 
   84000    1.2397645   -6.3875637     38.00899  0.037707331  0.043593121            3 
   85000    1.2614943   -6.3619208    38.701668  0.037942811  0.043616342            2 
   86000    1.2264257   -6.3164113    39.124376  0.037911217  0.043644388            2 
   87000     1.243306   -6.3118389    39.438613  0.037776449  0.043658717            3 
   88000    1.2556836   -6.2940305    40.086735  0.037960923  0.043672992            4 
   89000    1.2602333   -6.3069333    40.733232   0.03813973  0.043696351            1 
   90000    1.2526674   -6.3301725    41.250551  0.038194954  0.043719005            1 
   91000    1.2188752   -6.3481431    41.664802  0.038154581  0.043730754            2 
   92000    1.2155093   -6.2852581    42.331777  0.038344001  0.043743768            3 
   93000    1.2262779   -6.3422244    43.033199  0.038560214  0.043773413            3 
   94000    1.2297776   -6.3135974    43.579542  0.038634346  0.043811102            2 
   95000    1.2459989   -6.3480428    44.241369  0.038808218  0.043848454            4 
   96000    1.2268859   -6.3003818    44.692459  0.038795537  0.043876691            2 
   97000    1.2280842   -6.3260463    45.165322  0.038801823  0.043903162            6 
   98000    1.2509443   -6.3398275    45.766595  0.038917173  0.043927769            6 
   99000    1.2319547   -6.3195489    46.022375  0.038739373  0.043943521            1 
  100000    1.2178376   -6.3545004    46.686449  0.038905374  0.043958686            2 
  101000     1.216275   -6.3457376    47.561593  0.039242238  0.043981836            3 
  102000    1.2582989   -6.3659682    47.850732  0.039093735  0.044008804            3 
  103000    1.2246134   -6.3374583    48.583979  0.039307426  0.044032755            1 
  104000    1.2320736    -6.389743     49.02159   0.03928012  0.044057571            2 
  105000    1.2261744   -6.3387043    49.559099  0.039332618  0.044076624            1 
  106000     1.244289   -6.3342958    50.117031  0.039400181   0.04409409            2 
  107000    1.2462648   -6.3222496    50.753675  0.039527784  0.044115247            2 
  108000     1.243507   -6.2898921    51.270888   0.03956087  0.044134889            1 
  109000    1.2356314   -6.3208202    51.720206  0.039541441  0.044155426            3 
  110000    1.2475429   -6.3538011    52.260915  0.039591602  0.044174858            2 
  111000    1.2338207   -6.3515869    52.820508  0.039655036  0.044195183            3 
  112000     1.215804   -6.3667285    53.310759  0.039665743  0.044211883            2 
  113000    1.2304691   -6.3163219    53.950579  0.039786562  0.044227262            3 
  114000    1.2049012   -6.3515447    54.560745  0.039883586  0.044245175            1 
  115000    1.2408943    -6.322604    54.889606  0.039775077  0.044260977            2 
  116000    1.2281003   -6.3494957    55.336889  0.039753512   0.04427093            2 
  117000    1.2224535   -6.3564608    55.946746   0.03984811  0.044279488            1 
  118000    1.2433672   -6.3836627    56.233224  0.039712729  0.044283991            3 
  119000    1.2469937   -6.3468194    56.693826  0.039701558  0.044283764            2 
  120000    1.2533441   -6.3235106    57.582319  0.039987722  0.044284663            2 
  121000    1.2196779   -6.3291801    58.020162  0.039958789  0.044284169            2 
  122000    1.2451797   -6.3355476    58.101316  0.039686691  0.044275655            3 
  123000     1.239951   -6.3409748    59.033308  0.039995466  0.044267752            1 
  124000    1.2314777   -6.3661928     59.14731  0.039749536  0.044262797            3 
  125000    1.2673871   -6.3475127     59.55349  0.039702327    0.0442568            2 
  126000    1.2005322   -6.3488024    60.333062  0.039902818  0.044249186            3 
  127000     1.204748   -6.3655579    60.737606  0.039854072  0.044241088            1 
  128000    1.2250604   -6.3507984    61.381657  0.039962016  0.044233235            2 
  129000    1.2371736   -6.3674944    61.831002  0.039942508  0.044223952            2 
  130000      1.22255   -6.3226576    62.370616  0.039981164  0.044212498            1 
  131000    1.2153287   -6.3634213    62.614647    0.0398312  0.044199943            2 
  132000    1.2424449   -6.3273416    63.190327  0.039892883  0.044187528            2 
  133000    1.2212662   -6.3230028    63.953524   0.04007113  0.044176581            1 
  134000    1.2291866   -6.3360398    64.318437  0.039999028  0.044168755            2 
  135000     1.220895   -6.3685238    65.055361   0.04015763  0.044161567            2 
  136000    1.2510734   -6.3565471    65.183059    0.0399406   0.04415101            2 
  137000    1.2467326   -6.3450661    65.840259  0.040048819  0.044142329            2 
  138000    1.2061698   -6.3684882    65.913409  0.039802783  0.044123906            4 
  139000    1.2171512   -6.3139019    66.461219  0.039844855   0.04409936            3 
  140000    1.2249885   -6.3175386    66.887242  0.039813835  0.044071205            2 
  141000    1.2346831   -6.3413874    67.304171  0.039777878  0.044040807            3 
  142000    1.2299641   -6.3167856    67.580078   0.03965967  0.044006297            2 
  143000    1.2296605   -6.3381578    68.048352  0.039655217  0.043972413            3 
  144000    1.2296774   -6.3515616    68.618273  0.039709649  0.043936771            2 
  145000    1.2032788   -6.3487123    68.877167  0.039584579  0.043898432            2 
  146000    1.2173946   -6.3608725    69.376721  0.039598585  0.043858873            5 
  147000     1.255889   -6.4055348    69.691456  0.039507628  0.043821972            3 
  148000    1.2430275   -6.3696526    70.349266  0.039611073  0.043786667            7 
  149000     1.231241   -6.3102277    70.904099  0.039655536  0.043751071            2 
  150000    1.2268849   -6.3332943    71.445617  0.039692009  0.043716907            1 
  151000    1.2302178    -6.371121    71.706193  0.039572954  0.043680554            4 
  152000    1.2114635   -6.3994864    71.963189  0.039453503  0.043648088            2 
  153000    1.2191707   -6.3495308    72.633076  0.039560499  0.043614491            1 
  154000    1.2280181   -6.3478872    73.176227  0.039597525  0.043578209            3 
  155000    1.2216249    -6.338226    73.646511  0.039594898  0.043544218            1 
  156000    1.2334072   -6.3466135    73.869629  0.039460272  0.043507961            4 
  157000    1.2553426   -6.3237849    74.864127  0.039736798  0.043472303            3 
  158000    1.2256605   -6.3297841    75.002026  0.039558031  0.043436641            1 
  159000    1.2411304    -6.354696    75.501152  0.039570834  0.043403023            2 
  160000    1.2269816   -6.3465778    75.499225  0.039322513  0.043363625            4 
  161000    1.2214526   -6.3118839    76.223111  0.039452956  0.043325349            1 
  162000    1.2158695   -6.3429777    76.765252  0.039488298  0.043288999            1 
  163000    1.2009158   -6.3983368    77.314488  0.039526834  0.043255704            2 
  164000    1.2135198   -6.3321544     78.28548  0.039779207  0.043226918            2 
  165000    1.2087328   -6.3617326    78.619403  0.039706769  0.043200685            3 
  166000    1.2384609   -6.3397159    79.387377  0.039853101   0.04317765            2 
  167000    1.2512241   -6.3359415    79.869618  0.039855099  0.043157873            3 
  168000    1.2330513   -6.3578416    80.135685  0.039749844  0.043135124            2 
  169000    1.1979601   -6.4235275    80.620711  0.039753802  0.043115774            4 
  170000    1.2134499   -6.3376126    81.449985  0.039926463   0.04309858            5 
  171000     1.219959   -6.3466581    81.771687   0.03984975  0.043081204            3 
  172000    1.2193557   -6.3877647    82.553502  0.039996852  0.043065844            2 
  173000    1.1992124   -6.3681526    83.032822  0.039996542  0.043052924            3 
  174000    1.2257559   -6.3500111    83.853963  0.040159944  0.043041668            2 
  175000    1.2304606   -6.3617401    84.375102   0.04017862  0.043032705            2 
  176000    1.2265152   -6.3218944    84.749042  0.040127387  0.043020283            2 
  177000    1.2440807   -6.3366209    85.078388  0.040055738  0.043005037            2 
  178000    1.2048145    -6.361743    85.337199  0.039951872  0.042988472            2 
  179000    1.2134134   -6.3680427    86.099367  0.040083504  0.042974067            2 
  180000    1.2441857   -6.3614715    86.963118  0.040260703  0.042965818            3 
  181000    1.2416275   -6.3884324    87.242176  0.040166748  0.042961004            3 
  182000    1.2180125   -6.3736009    88.107382  0.040342208  0.042955919            2 
  183000    1.2343309   -6.3376245    88.720915  0.040401145  0.042953596            2 
  184000    1.2072611   -6.3644545    88.981743  0.040299702  0.042951396            3 
  185000     1.215115    -6.397868    89.853251  0.040474437  0.042950648            1 
  186000    1.2335179   -6.3198466     90.16447  0.040396268  0.042949468            5 
  187000    1.2086247    -6.378411    90.372931  0.040273142  0.042945811            4 
  188000    1.2300968    -6.349069     91.12787  0.040393559  0.042938899            2 
  189000    1.2115999   -6.3627989    91.490852  0.040339882  0.042930569            2 
  190000    1.2199225   -6.3469867    91.963015  0.040334656  0.042924003            1 
  191000    1.2158695   -6.3668115     92.17693  0.040216811  0.042916796            3 
  192000    1.2446005   -6.3678628    92.469225  0.040134212  0.042905173            2 
  193000    1.2491123   -6.4135129    92.673325  0.040014389  0.042889314            5 
  194000    1.2017339   -6.3759811    93.060142  0.039974288   0.04287024            1 
  195000     1.228084   -6.3312927    93.347877  0.039892255  0.042847833            6 
  196000    1.2161479   -6.3577461    93.525248  0.039764136  0.042824385            3 
  197000    1.2132531   -6.3341632    94.486375  0.039968855  0.042801081            2 
  198000    1.2232878   -6.3968851    94.274647  0.039677881  0.042777641            4 
  199000    1.2149946   -6.3507526    95.265285  0.039893335  0.042753049            1 
  200000    1.2419522    -6.382349    95.940111  0.039975046   0.04273272            2 
  201000    1.2341819   -6.4093092    96.204173  0.039885644  0.042712799            1 
  202000     1.224744   -6.3745296    96.658488  0.039875614  0.042692826            3 
  203000    1.1653849   -6.4130022    97.214322  0.039907357  0.042674993            3 
  204000    1.2304886   -6.3943223    97.973322  0.040021782  0.042660552            1 
  205000    1.2340769   -6.4076979    98.426446   0.04001075  0.042645768            2 
  206000    1.2025629    -6.363402    98.789016  0.039963194  0.042629658            1 
  207000    1.2160758    -6.377582    99.590256  0.040092695   0.04261528            1 
  208000    1.2191005   -6.3642031    99.865361  0.040010161  0.042600416            3 
  209000    1.2171787   -6.3807471    100.30477  0.039993928  0.042583016            2 
  210000    1.1972802   -6.3324063    100.82623  0.040010407   0.04256559            1 
  211000    1.2382755    -6.342895    101.12968  0.039940631  0.042545078            3 
  212000    1.2332274   -6.3807148    101.69906  0.039976045  0.042525006            3 
  213000    1.2406791   -6.3812664     101.8071  0.039830632  0.042504892            1 
  214000    1.2324121   -6.3581712    102.36989  0.039863663  0.042485835            1 
  215000    1.2085387   -6.4011759    103.23979  0.040015422  0.042471698            2 
  216000    1.2147572   -6.3495489    103.78396  0.040040107  0.042459237            4 
  217000    1.2384105   -6.3914875    104.50341  0.040131879  0.042447231            4 
  218000    1.2225895   -6.3685345    105.63991  0.040382229  0.042439849            4 
  219000    1.2222084   -6.3548444    105.75462  0.040241485  0.042431536            1 
  220000    1.2250072   -6.3923998    106.66484  0.040403349   0.04242577            4 
  221000    1.2363766   -6.4010529    106.78915  0.040267401  0.042420206            2 
  222000    1.2223864   -6.3697053    107.61931  0.040397639  0.042413405            6 
  223000    1.2078552   -6.3513425    107.69655  0.040245346  0.042404995            2 
  224000    1.2025406   -6.3488487    108.16544   0.04024012  0.042395743            1 
  225000    1.2101681   -6.3414546    108.14419  0.040053404  0.042385606            2 
  226000    1.2194925   -6.3773308    108.93584  0.040168083  0.042376922            2 
  227000    1.1904361   -6.3829418    109.47446  0.040188861  0.042368317            1 
  228000    1.2190718   -6.4017413    109.56977   0.04004743  0.042358932            2 
  229000    1.2377126   -6.3861977     110.2335  0.040114083  0.042348647            1 
  230000    1.2280793   -6.3517735    111.08171  0.040246995  0.042339174            4 
  231000    1.1909056    -6.320745    111.52289  0.040231924  0.042328225            1 
  232000    1.2242162   -6.3494121    111.87544  0.040185145  0.042317269            2 
  233000    1.2146158   -6.3683591     112.2423  0.040143885  0.042305423            2 
  234000    1.1990497   -6.3625209    112.88129  0.040199888  0.042296607            1 
  235000    1.2003956   -6.4007284    113.31671  0.040183229  0.042288233            2 
  236000    1.2254625   -6.3903843    114.26424  0.040347541    0.0422809            3 
  237000    1.2138764   -6.3763039    114.56409   0.04028273  0.042272291            2 
  238000      1.20608   -6.4412112    114.73532  0.040173432  0.042263564            2 
  239000    1.2146444    -6.374017    115.65575  0.040326274  0.042256495            4 
  240000    1.2092106   -6.3909787    116.18305  0.040341336  0.042250068            2 
  241000    1.2257746   -6.3531119    116.65513   0.04033718   0.04224232            2 
  242000    1.2145404   -6.3743471    116.95133  0.040272496  0.042234934            2 
  243000    1.1983911   -6.3826451    117.63536  0.040341345  0.042227006            2 
  244000    1.2239004   -6.4031084    118.63736  0.040518224  0.042221867            1 
  245000    1.2309264   -6.4060928    118.27317  0.040228969   0.04221549            3 
  246000    1.1983979   -6.4268818    118.85381   0.04026213   0.04220766            4 
  247000    1.2059132   -6.3628759    119.50183  0.040317755  0.042199647            2 
  248000    1.1986958   -6.3856161    119.73736  0.040234327  0.042191875            4 
  249000    1.2232245    -6.405454     120.2441  0.040242337  0.042185487            2 
  250000    1.1795775   -6.4274023    120.72855  0.040242851  0.042177807            2 
  251000    1.2189243   -6.3722067    121.54471   0.04035349  0.042170876            3 
  252000    1.2173626   -6.3826257    122.10739  0.040379427  0.042165044            2 
  253000    1.2175735   -6.3656558    122.90705  0.040483217  0.042159939            2 
  254000    1.2250151   -6.3963284    123.00713   0.04035667  0.042156164            3 
  255000    1.2194567   -6.3681947    124.11967  0.040561983  0.042153045            5 
  256000    1.2284712   -6.4225272    124.14308  0.040411159  0.042149323            2 
  257000    1.2011817   -6.3894779    124.98432  0.040526692  0.042146502            1 
  258000    1.2151789   -6.3577373     125.7217  0.040607784  0.042144941            2 
  259000    1.1942139   -6.3994506    125.80897  0.040479077  0.042141403            3 
  260000    1.2011258   -6.3573882     126.8003  0.040641121  0.042139385            1 
  261000     1.216558   -6.3876209    126.69709  0.040452456  0.042135156            2 
  262000    1.2105756   -6.3505432    127.51062  0.040556811  0.042130859            4 
  263000    1.1977559   -6.3964336    127.79194  0.040491744  0.042127387            3 
  264000    1.2229215   -6.4054624    128.92472  0.040695934  0.042124532            2 
  265000    1.1960504   -6.3762855    128.96583  0.040555291  0.042121863            2 
  266000    1.2220416   -6.3599494    129.78879  0.040660649   0.04211831            2 
  267000    1.2015217   -6.3839553    130.01418  0.040578708   0.04211583            3 
  268000    1.1980573   -6.3787113     130.8987  0.040702333  0.042113323            3 
  269000    1.2085507   -6.3244281    131.07344  0.040605154  0.042112529            3 
  270000    1.2150696   -6.3590922    131.17377  0.040485732  0.042110595            3 
  271000     1.217673   -6.3577531    132.33778  0.040694275  0.042110346            2 
  272000    1.2081685    -6.397146    132.84391  0.040699729  0.042110713            1 
  273000     1.207559   -6.4063255    133.98515  0.040899008  0.042111719            2 
  274000    1.1873796   -6.3997683    134.25534  0.040831917  0.042113721            5 
  275000    1.1951889     -6.41112    134.46426  0.040746745  0.042115977            1 
  276000    1.2240835   -6.3762251    135.05551  0.040777628  0.042118009            1 
  277000     1.216549   -6.4293058    135.63823  0.040805725  0.042119582            3 
  278000    1.2247305   -6.4004503    135.62151  0.040653929  0.042121009            2 
  279000    1.2064278   -6.3968252     136.6627  0.040819206  0.042122606            2 
  280000    1.2109689   -6.3796677    137.21154  0.040836766  0.042124862            3 
  281000      1.21799   -6.3725129    137.33815  0.040728988  0.042127488            2 
  282000    1.2117324   -6.3937129    138.26678  0.040858978  0.042130327            2 
  283000    1.2129678   -6.3751361    138.94073  0.040913055   0.04213335            2 
  284000    1.2225799   -6.3536213    139.48553  0.040928853  0.042137624            2 
  285000    1.2000243   -6.3556647    140.44428  0.041065578  0.042142867            2 
  286000    1.2006788   -6.4040824    140.99391  0.041082141  0.042148962            4 
  287000      1.19603   -6.3551394    141.40687  0.041058905  0.042155785            1 
  288000    1.2113867   -6.3654347    141.93072  0.041067916  0.042161228            2 
  289000    1.2198018   -6.4000572     142.2586  0.041020358  0.042166322            6 
  290000    1.1983803   -6.4145261    143.00425  0.041093174  0.042170343            3 
  291000    1.1988007    -6.411002    142.67051   0.04085639  0.042174394            4 
  292000    1.1876479   -6.3907764    143.82027  0.041044598  0.042177703            1 
  293000    1.2129574   -6.3996253    144.00337  0.040956591  0.042182699            2 
  294000     1.213228   -6.3593065    145.30176  0.041185305  0.042187943            2 
  295000    1.1940995   -6.4152002    145.39013  0.041070657  0.042193592            3 
  296000    1.2022658   -6.3952523    146.31716  0.041192895  0.042199578            2 
  297000    1.2276088   -6.4123836     146.3096  0.041052075  0.042206257            3 
  298000    1.2210638   -6.3576721    147.00631  0.041109147  0.042212754            4 
  299000    1.2081194   -6.3836348    147.49944  0.041109097  0.042219252            4 
  300000    1.1888786   -6.4174786    148.37496  0.041215268  0.042224749            2 
  301000    1.2290742   -6.3873025    148.24584  0.041042591  0.042231066            4 
  302000    1.2032124   -6.3889313     150.1089  0.041420779  0.042238086            4 
  303000    1.1900836   -6.4123796    150.14532  0.041294093  0.042246226            5 
  304000    1.2040447   -6.3999802     150.6906   0.04130773  0.042254362            4 
  305000     1.177872   -6.4381372    150.49698  0.041119394  0.042261647            6 
  306000    1.1731218   -6.3959752    151.65988  0.041301711  0.042268524            5 
  307000    1.1998456   -6.3993243    152.06126   0.04127613  0.042274385            2 
  308000    1.2128824   -6.3677533    152.58611   0.04128412  0.042281518            1 
  309000    1.1866287   -6.4085043    152.51004  0.041129999  0.042287481            2 
  310000    1.1947781   -6.4021007    153.84257   0.04135553  0.042293678            1 
  311000    1.2002496   -6.4164634    154.26921  0.041336872  0.042301253            2 
  312000    1.1955679   -6.4244814    154.58149  0.041287792  0.042308557            1 
  313000    1.2068007   -6.3571364    155.37552  0.041367284  0.042317123            4 
  314000    1.1816642   -6.4045635    155.84953  0.041361339  0.042324696            4 
  315000    1.2184025    -6.385512    156.81993  0.041486754  0.042332103            2 
  316000    1.1973727   -6.3869629    156.50995  0.041273722  0.042338204            1 
  317000    1.1919067   -6.4370939     156.5821  0.041162486  0.042342606            2 
  318000    1.1978822   -6.4041272    157.33048  0.041229162  0.042348253            2 
  319000    1.1918645    -6.413105    158.68212  0.041453009   0.04235436            2 
  320000    1.2162959   -6.3795179    159.76888  0.041606479  0.042363927            2 
  321000    1.1918834    -6.388015    159.97563  0.041530537  0.042372778            4 
  322000    1.1910838   -6.3554791    160.78387  0.041610733  0.042381084            2 
  323000    1.2105231   -6.4039792    160.52315  0.041414642  0.042388973            1 
  324000     1.208387    -6.441209    160.90603  0.041385295  0.042396184            3 
  325000    1.2059771    -6.345644    161.53456  0.041419117  0.042403347            6 
  326000    1.2201333   -6.3982279    162.61101  0.041567232  0.042410165            3 
  327000    1.2088447   -6.4319239    162.63551  0.041446358  0.042417037            4 
  328000    1.2040098   -6.4636204    162.88709  0.041383916  0.042423428            2 
  329000    1.2098602   -6.3933909    164.44663  0.041653149  0.042430876            7 
  330000    1.1661414   -6.4041536    164.44508  0.041526535   0.04243924            3 
  331000    1.2114392   -6.4071188    164.74493  0.041476569  0.042446882            1 
  332000    1.1817071   -6.3786024    165.18449  0.041461969  0.042452175            2 
  333000    1.2054771   -6.4116817    165.48353  0.041412294  0.042456677            2 
  334000    1.1896391   -6.4054322    166.73243  0.041599908  0.042462719            4 
  335000    1.1928632   -6.4202813    166.58607   0.04143932   0.04246916            2 
  336000     1.187142   -6.3623385    167.82527  0.041623332  0.042476234            5 
  337000    1.2154306   -6.4575584    167.74734  0.041480549  0.042483633            3 
  338000    1.1915685   -6.3869072    168.65176  0.041580809  0.042489725            2 
  339000    1.1770191   -6.3893905    169.16919  0.041585348  0.042495486            3 
  340000    1.1820378   -6.3889879    168.88327  0.041392959  0.042500395            2 
  341000    1.1914818    -6.408772    169.70836  0.041473206  0.042505213            2 
  342000    1.1882682   -6.3750085    170.61717  0.041573384  0.042509336            3 
  343000    1.1850022    -6.422271     170.9648  0.041536637  0.042514643            6 
  344000    1.1971769   -6.4023293    171.44771  0.041532874   0.04251955            3 
  345000    1.1815145    -6.423369    171.50312  0.041425874  0.042522767            2 
  346000    1.1619816   -6.3911445    171.55636   0.04131897  0.042525278            4 
  347000    1.2087174   -6.4096219    172.57605  0.041444778   0.04252727            3 
  348000    1.1977594   -6.3849309    173.15078   0.04146331  0.042530645            3 
  349000    1.1896649   -6.4020735    173.33946  0.041389556  0.042533108            2 
  350000    1.1944041   -6.4384134    174.04912  0.041440267  0.042536062            4 
  351000     1.178393   -6.4317633    174.74353  0.041487067  0.042539221            4 
  352000    1.1983977    -6.376884    175.04216  0.041439905  0.042542083            4 
  353000    1.2093967   -6.3873261    175.73197  0.041485356  0.042545197            2 
  354000    1.1648706   -6.4100094    175.72104  0.041365592  0.042547796            2 
  355000    1.1749472   -6.4219636    176.10074  0.041338203  0.042548494            3 
  356000    1.1868027   -6.3844714    176.54391  0.041325821  0.042549623            2 
  357000    1.2046925   -6.4136995    176.90013  0.041293215  0.042550186            3 
  358000    1.1832143   -6.4315785    177.08901  0.041221836  0.042549207            2 
  359000    1.1903199   -6.4193252     177.4722  0.041195961  0.042548241            2 
  360000    1.1665963   -6.3941601    178.84853  0.041400122  0.042547688            5 
  361000    1.2159139   -6.3851545    179.08788  0.041340692  0.042547393            4 
  362000    1.2196183   -6.3825538    179.51616  0.041325083  0.042547281            1 
  363000    1.2036515   -6.3713259    179.62576  0.041236401  0.042546473            1 
  364000    1.1904277   -6.3581241    180.78398  0.041388274  0.042544933            3 
  365000    1.1870689   -6.4456351     180.7362  0.041263972  0.042542375            5 
  366000    1.1953755   -6.4103178    180.65709  0.041133218  0.042540615            1 
  367000    1.1767431   -6.3700977    181.13864  0.041130481  0.042537573            2 
  368000    1.1818418   -6.4035793    181.27161  0.041048825  0.042533859            3 
  369000    1.2019601   -6.4386246    182.17914  0.041142534  0.042529962            2 
  370000    1.1945343   -6.4066155    182.97942  0.041211582   0.04252658            2 
  371000    1.1938592    -6.425871    183.23042  0.041156877  0.042522721            1 
  372000    1.1852483   -6.4482908     183.4088    0.0410862  0.042518138            3 
  373000    1.1733877   -6.4418886    183.86065  0.041076999  0.042514478            2 
  374000    1.1655379   -6.4538681    183.98657  0.040995226  0.042509079            2 
  375000    1.1753945   -6.3978752    185.14693  0.041143763   0.04250453            3 
  376000    1.2230431   -6.4227372    185.82785   0.04118525  0.042500885            2 
  377000    1.1731328   -6.4354689    186.28349  0.041176723  0.042497069            2 
  378000    1.1961323   -6.4237526    185.92194  0.040988081  0.042492577            1 
  379000    1.1965712    -6.391625    187.06099  0.041130384  0.042487146            4 
  380000     1.192211   -6.4433045    187.25993  0.041065773  0.042482204            6 
  381000    1.1944541   -6.4451057    187.04049  0.040909994  0.042476302            3 
  382000    1.1947013   -6.4025728    187.91752  0.040994224  0.042469814            2 
  383000    1.2014673   -6.4072894    187.59615  0.040817266   0.04246225            2 
  384000    1.2015832   -6.4254848    188.03841  0.040806947  0.042454486            5 
  385000    1.2016946   -6.4222516    188.98578  0.040906012  0.042446764            2 
  386000    1.1821142   -6.4100355     189.1326  0.040831736  0.042439416            3 
  387000    1.1827593    -6.441272    189.62633  0.040832544  0.042431186            4 
  388000    1.2160597   -6.4411014    190.06748  0.040822053  0.042422703            2 
  389000    1.1900411    -6.433488    191.46285  0.041016035  0.042414704            1 
  390000    1.1917737   -6.4298725    190.68979  0.040745682   0.04240676            1 
  391000    1.1922595   -6.4264761     191.4637  0.040806416  0.042399288            4 
  392000    1.1916941   -6.4292457     192.0152  0.040819559  0.042392065            3 
  393000    1.1902272   -6.4384402    193.08993  0.040943581   0.04238552            1 
  394000       1.1928   -6.4541619    192.86711  0.040792536   0.04237929            1 
  395000    1.1991363   -6.3749676    193.64881  0.040854179  0.042372129            1 
  396000    1.1806809   -6.4195031    193.89523  0.040802868  0.042364094            2 
  397000    1.2045055   -6.4232553    194.18083  0.040760039  0.042356246            3 
  398000    1.1803205   -6.4016984    194.79103  0.040785391  0.042347874            4 
  399000    1.1957121   -6.4366875    195.88093  0.040910803  0.042339901            3 
  400000    1.1922554   -6.4317914    196.57202  0.040952505  0.042332158            4 
  401000    1.1733223   -6.4251865     196.6705  0.040870844  0.042324677            2 
  402000    1.1707637   -6.4416879     196.3557  0.040703919  0.042317157            6 
  403000    1.1812562   -6.4074988    197.06795  0.040750196  0.042309045            4 
  404000    1.1780084   -6.4040027    197.64767   0.04076891  0.042299491            1 
  405000    1.1760834   -6.4209946    197.09683  0.040554903  0.042290904            2 
  406000     1.180396   -6.4135989    198.64152  0.040772068  0.042282024            4 
  407000    1.1686347   -6.4468935    197.68255  0.040475543   0.04227234            3 
  408000    1.1820514   -6.4242758    198.95515  0.040636264  0.042262016            2 
  409000    1.1652853   -6.4528003    199.18234  0.040583198  0.042251259            2 
  410000    1.1782721   -6.4399554    199.90784  0.040631675   0.04224153            3 
  411000    1.1990798   -6.4361307    200.72403  0.040698304  0.042232781            2 
  412000    1.1941404   -6.4052296    201.24412  0.040704717  0.042224008            4 
  413000    1.1944069   -6.4178285     201.1399   0.04058513   0.04221377            3 
  414000    1.1964801   -6.4314332    201.67119  0.040594039  0.042203744            6 
  415000    1.1856822   -6.4502127    201.89713  0.040541593  0.042194363            4 
  416000    1.1958178   -6.4308717     203.3717  0.040739523  0.042185257            2 
  417000    1.1635563   -6.3795595    203.04109  0.040575758  0.042175897            1 
  418000    1.1531846     -6.43343    203.24653  0.040519642  0.042165925            1 
  419000    1.2185523   -6.4460841    203.15154  0.040404045    0.0421542            2 
  420000    1.1686894   -6.3832383    204.26661  0.040529089  0.042143208            7 
  421000     1.156667   -6.4679743    204.44739  0.040468604  0.042132434            2 
  422000    1.1920947   -6.4175397    205.86103  0.040651862  0.042122538            3 
  423000    1.1844381   -6.3925214    206.63498   0.04070823  0.042113314            2 
  424000    1.1766704    -6.416614    206.43266  0.040572457   0.04210451            2 
  425000    1.1881475   -6.4560716    207.13761  0.040615219  0.042095923            2 
  426000     1.189725   -6.4369071    207.72743  0.040635256  0.042087103            1 
  427000    1.1809274   -6.4030134    208.41701  0.040674671   0.04207854            3 
  428000    1.1558714   -6.4383695    210.05224  0.040898021  0.042070593            3 
  429000    1.1659585   -6.4174727    210.12841  0.040817484  0.042063788            2 
  430000    1.1853541   -6.4288876    210.13318  0.040723485   0.04205716            2 
  431000    1.1908456   -6.3992512    211.27681  0.040850117  0.042051193            2 
  432000    1.1563288   -6.4512785    210.86695  0.040676495  0.042045311            1 
  433000    1.1806989   -6.4651024    211.55389  0.040714759  0.042038262            5 
  434000     1.192751   -6.3745759      212.549  0.040812019  0.042032513            4 
  435000    1.1558998   -6.4227874    212.80671  0.040767569  0.042026231            7 
  436000    1.1710166   -6.4607324    212.78686  0.040670271  0.042020352            3 
  437000    1.1833957   -6.4432746     213.5006   0.04071331  0.042014853            2 
  438000    1.2096284   -6.4092057     214.5436  0.040818798  0.042009327            4 
  439000    1.1843347   -6.4257754    215.61891  0.040929937  0.042003544            2 
  440000     1.139779   -6.4462062    215.17415  0.040752679  0.041997265            2 
  441000    1.1589035   -6.4084176    216.66225  0.040941468  0.041991601            2 
  442000    1.1661946   -6.4225477     216.4013  0.040799641  0.041987115            2 
  443000     1.160748   -6.4563789    217.01153  0.040822334  0.041981847            2 
  444000    1.1799448    -6.407213    217.67855  0.040855584  0.041977087            3 
  445000    1.2033919   -6.4266731    218.63138  0.040942206  0.041973319            3 
  446000    1.1749871   -6.4310528    218.84148  0.040889664  0.041968762            3 
  447000    1.1786455   -6.4537975     219.0951   0.04084547  0.041964512            1 
  448000      1.17638   -6.4474192    220.34518  0.040986827  0.041960955            1 
  449000    1.1904259   -6.4242053    220.44962  0.040914925  0.041957196            2 
  450000    1.1674287   -6.4086774    220.90623  0.040908561  0.041953923            2 
  451000    1.1658812    -6.452894    221.71689  0.040967644  0.041949866            2 
  452000    1.1818007   -6.4615594    222.04671  0.040937814  0.041946321            1 
  453000    1.1983755   -6.4316957    222.32133  0.040897963  0.041943535            3 
  454000    1.1749711   -6.4310495    222.07437  0.040762549  0.041940297            2 
  455000    1.1674048   -6.4221266    223.48887  0.040932027  0.041935654            2 
  456000    1.1842639   -6.4491724     223.8935   0.04091621  0.041931311            3 
  457000    1.1641811   -6.4324474    224.30907  0.040902457  0.041927604            1 
  458000    1.1729095   -6.4288732    224.46246  0.040841058  0.041923453            2 
  459000    1.1687039   -6.4346673    225.32582  0.040908828  0.041920398            5 
  460000    1.1771347   -6.4409951    224.82415  0.040729013  0.041916087            6 
  461000    1.1787954   -6.4444105     226.0845  0.040868493  0.041911377            2 
  462000    1.1687566   -6.4337494    226.15001  0.040791849  0.041906383            2 
  463000    1.1624898   -6.4537101    226.64559  0.040792943  0.041901569            8 
  464000    1.1660554   -6.4376849    227.34939  0.040831427  0.041897173            4 
  465000    1.1852133   -6.4561951    227.90685  0.040843522  0.041893234            2 
  466000    1.1649733   -6.4317866    227.98149  0.040769223  0.041888515            4 
  467000    1.1940058   -6.4638812    228.62415  0.040796601  0.041883199            1 
  468000    1.1706673   -6.4696301     228.8287   0.04074585  0.041877902            2 
  469000    1.1822442   -6.4341124    230.15976   0.04089548  0.041874144            3 
  470000    1.1829419   -6.4169351    230.64416  0.040894354   0.04187089            3 
  471000    1.1829977   -6.4470527    231.04636  0.040878691  0.041867269            2 
  472000     1.170899   -6.4592387    230.95726  0.040776352  0.041863215            2 
  473000    1.1620125   -6.4226405    232.48875  0.040959962  0.041858695            4 
  474000    1.1947989   -6.4735509    232.26998  0.040835089  0.041854392            1 
  475000    1.1935635   -6.4295305    233.78194  0.041014375  0.041851346            6 
  476000    1.1984029   -6.4769408    233.66644  0.040907989  0.041848378            3 
  477000    1.1967476   -6.4256289    234.16577  0.040909463  0.041845744            3 
  478000     1.167606    -6.368565    235.03725  0.040975811  0.041842727            3 
  479000    1.1665314   -6.3991462    235.80677  0.041024142  0.041840112            3 
  480000    1.1684426   -6.4422848    234.80462  0.040764691  0.041837265            3 
  481000    1.1920645    -6.444834    235.76432   0.04084621  0.041833029            6 
  482000    1.1445025   -6.4270202    235.50396  0.040716452  0.041828106            3 
  483000    1.1657117    -6.472244    235.84754  0.040691432  0.041822326            4 
  484000    1.1524569   -6.4741906    236.28081  0.040681958  0.041817494            5 
  485000    1.1737888   -6.4346531    237.39727   0.04078991  0.041813014            2 
  486000    1.1670537   -6.4290285    238.38751  0.040875774  0.041808809            2 
  487000     1.183331   -6.4606411    237.90969  0.040710076  0.041804573            2 
  488000    1.1719209   -6.4584828     239.3673  0.040875563  0.041800523            1 
  489000    1.1553052   -6.4914925    239.19711  0.040762971   0.04179656            1 
  490000    1.1870532   -6.4703741     240.0638  0.040827177   0.04179211            2 
  491000    1.1577814   -6.4406506      239.904  0.040716903  0.041787311            2 
  492000    1.1690821   -6.4555505    240.55936   0.04074515  0.041782323            2 
  493000    1.1795255   -6.4404655    240.20054   0.04060185  0.041776717            2 
  494000      1.19433   -6.4141647    241.11101  0.040673247  0.041771699            2 
  495000    1.1472412   -6.4175332    242.16282  0.040768151  0.041766134            3 
  496000    1.1572276   -6.4541967     241.7906   0.04062342  0.041760109            6 
  497000    1.1755054   -6.4451513    241.85221  0.040552014  0.041753572            1 
  498000    1.1767828   -6.4840252    241.91223  0.040480628  0.041745971            1 
  499000    1.1733955    -6.432616    243.75009  0.040706428  0.041739346            2 
  500000    1.1762034   -6.4402168    242.92945  0.040488242  0.041732327            3 
  501000    1.1628121   -6.4531939    242.67934  0.040365824  0.041724274            3 
  502000    1.1819682   -6.4518354    242.90608  0.040323055  0.041715825            2 
  503000    1.1598853   -6.4366387    243.52676   0.04034572  0.041706902            2 
  504000    1.1579043   -6.4336999    244.35471  0.040402564   0.04169887            3 
  505000    1.1748575   -6.4872682    244.59477  0.040362173  0.041690342            6 
  506000    1.1642013   -6.4785933    244.14407   0.04020818  0.041682004            2 
  507000    1.1557305    -6.453546    245.93422  0.040423112  0.041673949            1 
  508000    1.1604868   -6.4633925    246.29767  0.040403162  0.041665692            4 
  509000    1.1807764   -6.4232528    247.27581  0.040483924  0.041658767            2 
  510000    1.1843035   -6.4326504    247.31841  0.040411505  0.041650953            1 
  511000     1.217033   -6.4766512    248.10699  0.040461022  0.041643066            3 
  512000    1.1408684    -6.470841    248.73359  0.040483982  0.041636152            2 
  513000    1.1705163   -6.4737652    248.11457  0.040304511   0.04162834            2 
  514000      1.14561   -6.4309278    249.48906   0.04044894  0.041620892            4 
  515000    1.1807006   -6.4767874    249.74037  0.040411064   0.04161315            3 
  516000     1.200254   -6.4630631     248.8888   0.04019522  0.041604734            4 
  517000    1.1449098   -6.4343283    250.09894   0.04031253  0.041596429            2 
  518000    1.1606859    -6.434888    251.28792  0.040425984  0.041587689            4 
  519000    1.1418086   -6.4661543    250.85038  0.040277839  0.041578813            2 
  520000    1.1691697   -6.4733375    251.17464  0.040252346  0.041569876            3 
  521000    1.1690522   -6.4054388    252.25392  0.040347716  0.041560733            2 
  522000    1.1771052   -6.4607423    252.80185  0.040357894  0.041551754            2 
  523000    1.1218023   -6.4513641    252.55994  0.040242183  0.041541844            4 
  524000    1.1654017   -6.4523146    253.22009  0.040270371  0.041533059            2 
  525000    1.1423514   -6.4532483    253.06384  0.040168863  0.041524666            1 
  526000    1.1546964   -6.4325802    253.25178  0.040122273  0.041516001            3 
  527000     1.199654   -6.4585815     254.2278  0.040200474  0.041506887            2 
  528000    1.1842214   -6.4510107    254.61538  0.040185508  0.041497615            3 
  529000    1.1846508   -6.4700438    255.67354  0.040276234  0.041488186            2 
  530000    1.1657057    -6.441788    255.62061  0.040191919  0.041478857            3 
  531000    1.1583823   -6.4668462    257.16389  0.040358427  0.041469706            1 
  532000    1.1694229   -6.4444224     255.8829  0.040081909  0.041460647            3 
  533000    1.1643929   -6.4774353    256.75296   0.04014274  0.041452088            2 
  534000    1.1499269   -6.4562696    258.27689  0.040305382  0.041443451            4 
  535000    1.1460832   -6.4389254    259.55313  0.040428836  0.041434896            3 
  536000    1.1596098   -6.4427756    259.29096   0.04031265  0.041427052            2 
  537000    1.1403254   -6.4327929    260.04619  0.040354778  0.041418965            2 
  538000    1.1608952   -6.4834019    258.89171  0.040100946  0.041410995            2 
  539000    1.1969242   -6.4403193    259.80262  0.040167381  0.041402567            4 
  540000    1.1671335   -6.4716819    259.77529  0.040088779   0.04139367            3 
  541000    1.1629694   -6.4305106    260.77072   0.04016801  0.041384741            3 
  542000    1.1648297   -6.4706009    261.07445  0.040140598  0.041375487            3 
  543000    1.1631688   -6.4706721    261.29674  0.040100788  0.041366115            2 
  544000    1.1489029   -6.5083893    260.48715  0.039903057  0.041356233            2 
  545000    1.1682182   -6.4682027    262.02341  0.040064742   0.04134602            3 
  546000    1.1565925    -6.473269    262.51033  0.040065678  0.041336363            3 
  547000     1.175118   -6.4653413    263.14499  0.040089121  0.041327524            1 
  548000    1.1774035   -6.4956617    262.32569  0.039891376  0.041318204            1 
  549000    1.1704865   -6.4438445    264.41936  0.040136515  0.041308997            2 
  550000    1.1436614   -6.4392993    264.11665  0.040017674  0.041299433            2 
  551000    1.1791224   -6.4813927     263.6112  0.039868602  0.041290093            4 
  552000    1.1505803   -6.4537234    265.13716  0.040026745  0.041279834            3 
  553000    1.1433686   -6.4503809    265.29463  0.039978093  0.041269844            2 
  554000    1.1392251   -6.4935231    265.50964  0.039938274  0.041260059            3 
  555000    1.1541555   -6.4660417    265.68918   0.03989327  0.041251111            3 
  556000    1.1576272   -6.4514561    266.80726  0.039989098  0.041241226            2 
  557000    1.1475471   -6.4960634    267.44056  0.040012052  0.041231217            3 
  558000    1.1658812    -6.474128    267.74055  0.039985148  0.041221357            3 
  559000    1.1670219     -6.47371    267.36123  0.039857071  0.041211178            2 
  560000    1.1689707    -6.466175    267.51815  0.039809248  0.041201168            3 
  561000    1.1694829   -6.4864921    269.30964  0.040004403  0.041191065            2 
  562000    1.1726708   -6.4483433    268.95324  0.039880374    0.0411811            3 
  563000    1.1771493   -6.4689486    269.47451  0.039886695  0.041170861            4 
  564000    1.1700507   -6.4406207     269.7422  0.039855526  0.041161034            3 
  565000     1.174998   -6.5067191    270.89183  0.039954547  0.041151809            3 
  566000    1.1425109   -6.4314107    271.55559  0.039981683  0.041142302            4 
  567000    1.1656994   -6.4723028    270.58892  0.039769094   0.04113247            4 
  568000    1.1567434   -6.5066142    271.11079  0.039775645  0.041122077            2 
  569000    1.1806584   -6.4544661    271.75881  0.039800647   0.04111069            3 
  570000    1.1619126   -6.4676278     271.4696  0.039688538  0.041099566            4 
  571000    1.1582791   -6.4616065    271.51811   0.03962611  0.041087869            3 
  572000     1.153394   -6.4882824    271.79269  0.039596836  0.041075671            3 
  573000     1.179062   -6.4686917    272.41704  0.039618533  0.041063462            2 
  574000    1.1756569   -6.4699922    271.60307   0.03943134  0.041051275            4 
  575000    1.1773111   -6.4600273    273.36007  0.039617402   0.04103837            3 
  576000    1.1733726   -6.4876503     272.2925   0.03939417   0.04102541            2 
  577000    1.1791394   -6.5228473    273.71371  0.039531154  0.041012351            3 
  578000     1.160274   -6.5005771      273.438   0.03942301  0.040998665            2 
  579000    1.1548443   -6.4830156    273.88802  0.039419693  0.040985529            3 
  580000     1.149229   -6.4532321    274.91718  0.039499595  0.040972633            2 
  581000    1.1757483   -6.4612074    275.88122  0.039569882  0.040959812            5 
  582000    1.1636139   -6.5095237     276.3091  0.039563159  0.040947367            3 
  583000    1.1511189   -6.4756602     276.3352  0.039499028   0.04093515            2 
  584000    1.1690911   -6.5061733    276.08725  0.039396012  0.040923005            2 
  585000    1.1342372   -6.4729387    277.29178  0.039500253  0.040910503            4 
  586000    1.1355729   -6.4994971    277.55404  0.039470143  0.040898619            3 
  587000     1.142104   -6.4383223    279.59344  0.039692425  0.040887207            4 
  588000    1.1755892   -6.4530773    279.21582  0.039571402  0.040875899            3 
  589000    1.1592881   -6.4573189    278.77416  0.039441731  0.040865195            4 
  590000    1.1277654   -6.4796796    279.97872  0.039545017  0.040853867            2 
  591000    1.1367101   -6.4689951    280.99869  0.039621925  0.040842444            3 
  592000    1.1459456   -6.4659595    280.64547  0.039505274  0.040831563            2 
  593000    1.1843466    -6.483162     281.1108  0.039504048  0.040820415            4 
  594000    1.1554199   -6.4450682    281.79898  0.039534089  0.040808557            4 
  595000    1.1589838   -6.4651884    282.16731  0.039519231  0.040796963            4 
  596000    1.1686595   -6.4754234    281.69432   0.03938679  0.040784648            3 
  597000    1.1594261     -6.48498    282.07119  0.039373421  0.040772326            3 
  598000    1.1803473   -6.5110283    282.15742  0.039319596  0.040759963            2 
  599000     1.159404   -6.4865664    282.79078  0.039342067  0.040747166            2 
  600000      1.15217   -6.4947093    283.09116  0.039318217   0.04073488            2 
  601000    1.1521133   -6.5330775    283.92913  0.039368986   0.04072258            1 
  602000    1.1478911   -6.4937963    284.08947  0.039325785  0.040710469            2 
  603000    1.1443433   -6.4702702    284.67438  0.039341401  0.040698255            2 
  604000    1.1528298   -6.5011623    284.80081   0.03929371  0.040686347            3 
  605000    1.1784351    -6.500949    284.82039  0.039231459  0.040674093            2 
  606000    1.1412369   -6.5018044    286.14934  0.039349469  0.040661831            4 
  607000     1.175621   -6.4904976    285.23555  0.039159191  0.040649936            1 
  608000    1.1474526   -6.4647407    286.40548  0.039255137  0.040637901            2 
  609000    1.1467304   -6.5228164    286.09907  0.039148751  0.040625618            4 
  610000    1.1442447   -6.4898677    286.73742  0.039171779  0.040613099            3 
  611000    1.1417746   -6.4906538    287.49826  0.039211437  0.040600947            3 
  612000    1.1647892   -6.4749493    287.70813  0.039175943  0.040588561            3 
  613000    1.1833825   -6.4675289    289.29189  0.039327337  0.040576342            5 
  614000     1.157046   -6.5085244    288.66749  0.039178541  0.040564327            2 
  615000    1.1472856   -6.5036718    288.38799  0.039076963  0.040551702           10 
  616000    1.1652358   -6.4877055    289.53814   0.03916912  0.040539615            2 
  617000    1.1888964   -6.5089226    290.24773  0.039201477  0.040527559            4 
  618000    1.1366067   -6.4711973    290.92296  0.039229094    0.0405158            2 
  619000    1.1330387   -6.4621446    290.58778  0.039120595  0.040503429            3 
  620000    1.1571688   -6.4785275    291.24977  0.039146474  0.040490773            1 
  621000    1.1543615   -6.4863489    291.92535  0.039174094  0.040478338            4 
  622000    1.1414673     -6.46344    293.31608  0.039297438  0.040466248            2 
  623000    1.1378809   -6.5192149     292.5519  0.039132143  0.040454558            2 
  624000    1.1309008   -6.4368974    293.15716  0.039150261  0.040442592            2 
  625000     1.160195    -6.525049    292.63091  0.039017455  0.040430279            6 
  626000    1.1562037   -6.5087055    293.67822  0.039094545  0.040417679            3 
  627000    1.1295083    -6.478101    294.35564  0.039122228  0.040405885            2 
  628000    1.1614365   -6.5353708     295.7636  0.039246762  0.040394451            1 
  629000    1.1651222   -6.5125323     295.3747  0.039132843  0.040382733            2 
  630000    1.1812824   -6.4692661    295.82426  0.039130193  0.040371316            3 
  631000    1.1354811   -6.5137876    296.19611  0.039117288  0.040360189            5 
  632000    1.1397811   -6.4835287    297.12966  0.039178489  0.040349226            4 
  633000    1.1479043   -6.4604214    298.25577  0.039264846  0.040338119            3 
  634000    1.1332217   -6.5253545    298.14365  0.039188177  0.040326961            3 
  635000    1.1474945   -6.5036828    297.32169  0.039018594  0.040315746            6 
  636000    1.1547204   -6.4950809    297.72708  0.039010361  0.040304246            2 
  637000     1.145143   -6.5156386    298.71882  0.039078861  0.040293168            2 
  638000    1.1251954   -6.4533993    299.63468  0.039137235  0.040281881            3 
  639000    1.1546957   -6.5024393    299.95132  0.039117283  0.040270351            4 
  640000    1.1455489    -6.508169    299.51427  0.038999253  0.040259314            2 
  641000      1.15483   -6.4824129    300.29456  0.039039855  0.040248228            4 
  642000    1.1377283   -6.4659883    301.48004  0.039132923  0.040237301            2 
  643000    1.1409214   -6.5161504    301.54478  0.039080453  0.040226526            2 
  644000    1.1459033   -6.5042473    300.94793  0.038942538  0.040215431            2 
  645000    1.1471667   -6.4489646     302.4316   0.03907385  0.040204177            3 
  646000    1.1641054   -6.5315393    302.25255  0.038990266  0.040192454            2 
  647000     1.162356   -6.5056261    302.42221  0.038951856  0.040180828            2 
  648000    1.1517717   -6.4539601    303.65019  0.039049664  0.040169604            1 
  649000    1.1474257   -6.5564286    303.70759  0.038996865  0.040158491            2 
  650000    1.1437618   -6.4695193    304.77954    0.0390743  0.040148098            2 
  651000    1.1534612   -6.5162868     305.1927  0.039067166  0.040137809            3 
  652000    1.1346999   -6.4984866    305.34895  0.039027217  0.040127236            3 
  653000    1.1527312   -6.5254082    305.68252  0.039010021   0.04011667            2 
  654000    1.1391794   -6.5031269     305.7364  0.038957238  0.040106167            2 
  655000    1.1695635   -6.5084376    306.55282  0.039001632  0.040095988            2 
  656000    1.1464315   -6.5073914    307.23175  0.039028423  0.040085377            2 
  657000    1.1389177   -6.5134042    308.14478  0.039084827  0.040075156            6 
  658000    1.1773465   -6.5100386    307.57956  0.038953845  0.040064909            3 
  659000    1.1463935   -6.5084431       308.93  0.039065504  0.040054618            2 
  660000     1.158697   -6.5155193    309.19871  0.039040241  0.040044188            6 
  661000     1.153257   -6.5198155    309.75868  0.039051776  0.040034234            1 
  662000    1.1413735   -6.4849715    310.39332  0.039072674  0.040024249            3 
  663000    1.1446311   -6.5024513    309.20774  0.038864723  0.040014007            2 
  664000    1.1695186   -6.4976476    309.69793  0.038867712  0.040003225            8 
  665000    1.1726189   -6.4887848    310.00711  0.038848009  0.039992422            2 
  666000    1.1341208   -6.4949842    310.12816  0.038804825  0.039981501            3 
  667000     1.113686   -6.4662781    311.39161  0.038904499   0.03996999            2 
  668000    1.1278763   -6.5125614    310.45669  0.038729627  0.039958735            2 
  669000    1.1493726   -6.4858578    311.04119  0.038744542  0.039946806            5 
  670000    1.1516544   -6.4861724    312.26397  0.038838803  0.039935485            4 
  671000    1.1395688   -6.5149828    311.95067  0.038742011  0.039924631            1 
  672000    1.1526706   -6.4891982    313.45623   0.03887106  0.039914051            4 
  673000    1.1415299   -6.4792858     314.0131  0.038882256  0.039903779            8 
  674000    1.1400661   -6.5001658    313.73972  0.038790767   0.03989347            1 
  675000    1.1344489   -6.4997233    314.11114  0.038779153  0.039882597            3 
  676000    1.1429342   -6.5084725    315.58894  0.038903962  0.039872109            3 
  677000    1.1333806   -6.5003707    315.82574  0.038875645  0.039862288            5 
  678000    1.1531158   -6.5231808    316.30025  0.038876628  0.039852652            6 
  679000    1.1394613   -6.5026398    317.07826  0.038914857  0.039842443            5 
  680000     1.140321   -6.5219944    316.94601  0.038841423  0.039832457            5 
  681000    1.1368677   -6.5055398    318.42041  0.038964808  0.039823021            5 
  682000    1.1655276   -6.5393725    317.50424  0.038795729  0.039813292            2 
  683000    1.1596127   -6.5370659     317.1048   0.03869019  0.039803239            4 
  684000    1.1495717   -6.5276534    318.84345  0.038845449  0.039793191            5 
  685000     1.160425   -6.4748821    318.99026  0.038806601  0.039783338            2 
  686000    1.1370342   -6.5024286    318.66039   0.03870996  0.039772999            3 
  687000    1.1215723   -6.5011654     320.3303  0.038856174  0.039762587            3 
  688000    1.1524588   -6.5095958    319.07767  0.038647973  0.039752353            3 
  689000    1.1371251   -6.5379999    320.28048  0.038737359   0.03974231            2 
  690000    1.1454074   -6.4987987     321.4005  0.038816485  0.039732251            2 
  691000    1.1325041   -6.5323388    320.29079  0.038626482  0.039721895            4 
  692000    1.1383729   -6.5103082    320.51853  0.038598089  0.039711303            2 
  693000    1.1417981   -6.5453007    321.65246  0.038678747  0.039700157            2 
  694000    1.1344804   -6.4433284    322.53911   0.03872948  0.039689112            2 
  695000    1.1340946   -6.5529103    322.38557  0.038655344  0.039678711            3 
  696000    1.1597647    -6.532175     322.5743  0.038622402  0.039667918            2 
  697000    1.1236095    -6.505931    322.41308  0.038547715  0.039656841            4 
  698000    1.1513193    -6.491859     323.1096  0.038575645  0.039645811            2 
  699000    1.1230526    -6.484166    323.12608  0.038522422  0.039634277            2 
  700000    1.1491481   -6.5236935    323.14211  0.038469298  0.039622658            3 
  701000    1.1464187   -6.5085189    324.04045  0.038521214  0.039611399            4 
  702000    1.1392183    -6.503932    324.60079  0.038532857  0.039600007            3 
  703000    1.1572128   -6.4775236    324.58208  0.038475828  0.039588743            3 
  704000    1.1320819   -6.5296217    323.97122  0.038348865  0.039577107            3 
  705000    1.1480848   -6.4937482    325.82872  0.038514033  0.039565649            4 
  706000    1.1408116   -6.5377135    326.29657  0.038514704  0.039554253            3 
  707000    1.1503833   -6.5393073    325.18557  0.038329275  0.039542664            2 
  708000    1.1494884   -6.5294943     325.8652  0.038355131   0.03953123            1 
  709000    1.1170198   -6.4871367    327.13093  0.038449804  0.039519351            3 
  710000    1.1346471   -6.5161409    326.18272  0.038284356   0.03950786            2 
  711000    1.1383476    -6.504762    326.52762  0.038270936  0.039495891            2 
  712000    1.1522108   -6.5239728    327.34492  0.038312842   0.03948361            3 
  713000     1.154562   -6.4891476    328.83898  0.038433729  0.039472316            2 
  714000    1.1318516   -6.5190655    328.35165  0.038323022  0.039461355            3 
  715000    1.1625864   -6.4859491    328.39086  0.038273993  0.039449762            2 
  716000    1.1411996   -6.5405424    328.72414  0.038259327  0.039438113            4 
  717000    1.1356589   -6.5021297    330.73302   0.03843945  0.039426382            1 
  718000    1.1300573    -6.508831    329.75417  0.038272303  0.039414808            3 
  719000    1.1261882   -6.5395034     331.1311  0.038378663  0.039403367            2 
  720000     1.119657   -6.5209517    331.39449  0.038355843  0.039392404            3 
  721000    1.1500914   -6.5436856    331.49231  0.038313951  0.039381086            2 
  722000    1.1259698   -6.5079612    332.50315  0.038377557  0.039370189            2 
  723000    1.1331278   -6.5338357    333.09427  0.038392609  0.039359166            4 
  724000    1.1299744   -6.5412291    333.46165  0.038381866  0.039349061            3 
  725000    1.0968485   -6.5016664    333.68756  0.038354891  0.039338782            7 
  726000    1.1177828   -6.5048777    334.73606  0.038422413  0.039328932            2 
  727000    1.1465242   -6.4749167    336.27513   0.03854598  0.039319558            4 
  728000    1.1326316   -6.5456382    335.53853  0.038408714  0.039309334            6 
  729000    1.1553277   -6.5254209    335.23194  0.038320981  0.039298796            3 
  730000    1.1216496   -6.5230105    336.48367  0.038411378  0.039288465            3 
  731000    1.1337153   -6.5112393    336.55946  0.038367472  0.039278266            2 
  732000    1.1415554   -6.5242294    337.00985  0.038366331  0.039268378            8 
  733000    1.1277539   -6.5182958    336.74003  0.038283314  0.039258405            5 
  734000    1.1440559   -6.5194239    337.71217  0.038341527  0.039248188            4 
  735000    1.1145011   -6.5575512    337.02356  0.038211288  0.039237493            6 
  736000    1.1242011   -6.4732726     338.1161  0.038283073   0.03922682            2 
  737000    1.1315791   -6.5284417     339.7462  0.038415446  0.039216622            4 
  738000    1.1315309    -6.550415    339.06175  0.038286106  0.039206618            2 
  739000    1.1109875    -6.536247     339.7579  0.038312799  0.039196795            2 
  740000    1.1356062   -6.5123059    339.95087  0.038282756  0.039186615            5 
  741000    1.1514707   -6.5431361    340.17708  0.038256531   0.03917626            3 
  742000    1.1474172   -6.5292011    340.97968  0.038295112  0.039166065            7 
  743000    1.1423763   -6.5369405     340.8592  0.038230058  0.039155394            3 
  744000    1.1546175   -6.5359523    340.83604   0.03817608  0.039144651            1 
  745000    1.1385405   -6.4896566    342.06808  0.038262649   0.03913366            2 
  746000    1.1568447   -6.4901128    341.73374   0.03817401  0.039123104            2 
  747000    1.1546577   -6.5121093    341.95372  0.038147447  0.039112808            3 
  748000    1.1406025   -6.5159372    342.86724  0.038198222  0.039102257            1 
  749000    1.1429483   -6.5302933    344.32054  0.038308916  0.039091806            3 
  750000    1.1459564   -6.4936688    343.65122  0.038183469  0.039081559            3 
  751000    1.1002241   -6.5351404    343.22957  0.038085838  0.039070637            2 
  752000    1.1081478   -6.5113464    344.39138  0.038163939  0.039060035            3 
  753000    1.1185426   -6.5221653    344.57386  0.038133451  0.039049606            4 
  754000    1.1359314   -6.5380618    344.84404  0.038112737  0.039039424            1 
  755000    1.1246115   -6.5196534       345.17  0.038098234  0.039029221            2 
  756000    1.1470086   -6.4985485    346.92779  0.038241599  0.039019138            3 
  757000    1.1465127   -6.5378485    346.06018  0.038095572  0.039009276            2 
  758000    1.1407339   -6.5287122    346.46065  0.038089342  0.038999475            2 
  759000    1.1516601   -6.5076807    347.94814  0.038202475  0.038989841            1 
  760000    1.1280618   -6.4725865    348.64548  0.038228671  0.038980374            2 
  761000    1.1419908   -6.5209176    349.09687  0.038227866  0.038970978            3 
  762000     1.130367   -6.5218546    349.04922  0.038172487  0.038961065            2 
  763000    1.1249248   -6.4908516    350.52188  0.038283298  0.038951105            2 
  764000    1.1012748   -6.5289668    351.15861  0.038302641  0.038941654            2 
  765000     1.147177   -6.5282961    351.05597  0.038241391  0.038932578            2 
  766000    1.1184608   -6.5398493    351.01879  0.038187422  0.038923112            2 
  767000    1.1415745   -6.5028407    351.03224  0.038139096  0.038913652            3 
  768000    1.1395953   -6.4904068    351.47222  0.038137177  0.038903877            2 
  769000    1.1110747     -6.56475    351.71694  0.038114102   0.03889374            2 
  770000    1.1405343   -6.5277326    352.59829  0.038159988  0.038883865            3 
  771000    1.1137416   -6.5354564    352.87374  0.038140266   0.03887396            2 
  772000    1.1120023   -6.5224739    352.56055  0.038057054  0.038864026            2 
  773000    1.1730319   -6.5758599    353.07216  0.038062975  0.038854419           11 
  774000    1.1406532   -6.5425509    353.92758  0.038105898  0.038845292            2 
  775000    1.1318399   -6.5238173    355.65508  0.038242482  0.038836438            3 
  776000    1.1318238   -6.5275689    355.28476  0.038153432  0.038827583            6 
  777000    1.1059903   -6.5275956     355.5795   0.03813594  0.038818671            3 
  778000     1.118879    -6.551857    355.62512  0.038091808  0.038809543            1 
  779000    1.1274968    -6.533621    355.82433   0.03806422  0.038800378            2 
  780000    1.1126558    -6.534675    356.28269   0.03806439  0.038791149            2 
  781000    1.1307132   -6.5408955    355.81869  0.037966142  0.038781913            3 
  782000    1.1053783   -6.5518799    356.39989  0.037979528  0.038772503            2 
  783000    1.1125861   -6.5329871    358.36819  0.038140505  0.038763512            2 
  784000    1.1163364   -6.5026156    359.52249   0.03821455  0.038754856            2 
  785000    1.1365395   -6.5197259    359.30407  0.038142682  0.038746444            3 
  786000    1.1372888   -6.5044507     359.2201  0.038085252  0.038737737            2 
  787000    1.1133297   -6.5707357    359.00106  0.038013666  0.038728777            3 
  788000    1.1123504   -6.5301505    359.95495  0.038066302   0.03872006            3 
  789000    1.1435172   -6.5412857    360.58381  0.038084475  0.038711298            2 
  790000    1.1162593   -6.5138586    359.44354  0.037915986   0.03870212            2 
  791000    1.1413387   -6.5626459      359.778  0.037903287  0.038693335            2 
  792000    1.1288688   -6.5731353    361.52461  0.038039206  0.038684205            2 
  793000    1.1352016   -6.5127588    361.40678  0.037978854  0.038675299            4 
  794000     1.110264   -6.4826329    363.10556  0.038109316  0.038666629            3 
  795000    1.1178119   -6.5826358    360.89763  0.037829941  0.038657627            2 
  796000    1.1377691   -6.5287496    362.97277  0.037999661  0.038648639            3 
  797000    1.1117747    -6.545609    362.20403  0.037871605  0.038639937            2 
  798000     1.116347   -6.5387007     364.3517  0.038048423  0.038630961            2 
  799000    1.1326997   -6.5450171    364.49324  0.038015565  0.038622396            4 
  800000    1.1247011   -6.5517136    365.82307   0.03810657  0.038613789            2 
  801000     1.102344   -6.5569572    364.90506   0.03796349  0.038605324            2 
  802000    1.1338686   -6.5454647    364.50447  0.037874529   0.03859652            4 
  803000    1.1314591   -6.5571636    364.46683  0.037823457  0.038587405            6 
  804000    1.1379087   -6.5451671    365.63672   0.03789767  0.038578256            2 
  805000    1.1197423   -6.5691384    364.97169  0.037781748  0.038569181            4 
  806000    1.0950977   -6.5504873    364.92267  0.037729804  0.038560091            2 
  807000    1.0980506   -6.5188991    366.42846  0.037838544  0.038550976            3 
  808000    1.1208622   -6.4939654    368.19375  0.037973778  0.038542135            3 
  809000    1.1217389   -6.5232446    368.31633  0.037939466   0.03853353            3 
  810000    1.1479784   -6.5321315    368.75486  0.037937743   0.03852474            5 
  811000    1.1222798   -6.5443412    369.53572    0.0379712  0.038516669            2 
  812000    1.1033079   -6.5243259    370.72643  0.038046637  0.038508171            4 
  813000    1.1434962   -6.5694479     369.4492  0.037868921  0.038499852            5 
  814000    1.1131593   -6.5459609    370.58314  0.037938486  0.038491539            4 
  815000    1.1223218   -6.5197318    372.01898  0.038038751  0.038483342            3 
  816000     1.144496   -6.5557674    371.16238  0.037904655  0.038475211            3 
  817000    1.1261481   -6.5361446    370.97021  0.037838659  0.038467118            2 
  818000    1.1320081   -6.5358155    371.44355  0.037840622  0.038458873            2 
  819000    1.1175383   -6.5623458    372.52596  0.037904554  0.038450712            7 
  820000    1.1050332   -6.5359112     373.3884  0.037945975  0.038442618            2 
  821000    1.1073051   -6.5599735    373.13327   0.03787386  0.038434297            2 
  822000     1.107398   -6.5496531    373.07431  0.037821808  0.038425791            2 
  823000    1.1007686   -6.5559032    374.70352  0.037940818  0.038417525            1 
  824000     1.116176   -6.5300086    374.62351  0.037886682  0.038409657            2 
  825000    1.1628951   -6.5454626    375.57492  0.037936861   0.03840168            1 
  826000    1.1122147   -6.5566267    374.17757  0.037749957  0.038393423            3 
  827000    1.1721109   -6.5193713    376.27824  0.037915985  0.038385437            2 
  828000    1.1070543   -6.5483712    375.04454  0.037746029  0.038377511            4 
  829000    1.1311549   -6.5784111    375.51169  0.037747455  0.038369212            2 
  830000    1.1232361   -6.5364327    377.54348  0.037905972  0.038361178            4 
  831000    1.1604744   -6.5891289    376.78667  0.037784463  0.038353004            2 
  832000    1.1028158   -6.5709896    376.94456  0.037754864  0.038344365            3 
  833000     1.130248   -6.6007465    377.41017   0.03775612  0.038335969            4 
  834000    1.1107937   -6.5289548    377.59153   0.03772897  0.038327391            2 
  835000    1.1216333   -6.5499531    377.44143  0.037668805  0.038318769            3 
  836000    1.1048773   -6.5600795    377.40636  0.037620251  0.038310186            1 
  837000    1.1136824   -6.5757064    378.69694  0.037703797  0.038301885            3 
  838000    1.1411001   -6.5459611    380.22311  0.037810572  0.038293455           11 
  839000      1.10866   -6.5432551    380.65321  0.037808225  0.038285374            6 
  840000    1.1266836   -6.5329189    379.65383  0.037664071  0.038276855            3 
  841000    1.1251909   -6.5610557    379.64692  0.037618601  0.038268429            2 
  842000     1.121117   -6.5638282    380.63216  0.037671433  0.038259942            5 
  843000    1.1158068   -6.5672689    381.23956  0.037686789  0.038251394            2 
  844000    1.1476974   -6.5080027    381.19369  0.037637608  0.038243122            1 
  845000    1.1096762   -6.5407824    382.32874  0.037705004  0.038234959            2 
  846000    1.1189798    -6.534595    383.28865  0.037754989  0.038226494            3 
  847000    1.1208814   -6.5429323    382.79373  0.037661721  0.038217983            2 
  848000    1.0925438   -6.5751542    382.61944  0.037600181  0.038209077            4 
  849000    1.1281825   -6.5801438    382.78561  0.037572204  0.038200424            5 
  850000    1.1094419   -6.5801654    383.16536  0.037565232   0.03819179            5 
  851000    1.1113139   -6.5662936    384.26997  0.037629257  0.038183511            6 
  852000    1.1260117   -6.5386215    385.22164  0.037678173  0.038175616            2 
  853000    1.0932505   -6.5344429    385.60404   0.03767136  0.038168133            2 
  854000    1.1413906   -6.5683428    386.40353  0.037705262  0.038160424            3 
  855000     1.118389   -6.5236441    387.00546   0.03771983   0.03815246            2 
  856000    1.0825966   -6.5887907    386.40518  0.037617326  0.038144856            3 
  857000    1.1082681   -6.5527437    387.26016   0.03765657  0.038137199            5 
  858000    1.1281078   -6.5446025     388.4354  0.037726826  0.038129442            2 
  859000    1.1064403   -6.5647733    388.86928  0.037724998  0.038122071            2 
  860000    1.1337363   -6.5461297     389.1116  0.037704612  0.038114436            2 
  861000    1.1116862   -6.5562575    389.80913  0.037728332   0.03810669            2 
  862000    1.1230058   -6.5646288    389.88338  0.037691742  0.038099181            2 
  863000    1.1037945   -6.5579237    388.17387  0.037482993  0.038091394            3 
  864000    1.1097745   -6.5531641    390.09609  0.037625009  0.038083647            3 
  865000    1.1195103   -6.5879381    390.65573  0.037635427  0.038076174            2 
  866000    1.0989159   -6.5563965    391.69381  0.037691861  0.038068867            2 
  867000    1.0992106   -6.5321405    391.54627  0.037634205  0.038061787            4 
  868000    1.1239821   -6.5548108    392.74696  0.037706121  0.038054348            3 
  869000    1.1195606   -6.5491981    392.68548  0.037656835   0.03804688            3 
  870000    1.1081658   -6.5511492    393.35506  0.037677688  0.038039652            3 
  871000    1.1047234   -6.5671873    393.97774  0.037694005  0.038032691            2 
  872000    1.0981191   -6.5463738    394.37273  0.037688526  0.038025457            2 
  873000    1.1133275   -6.5415773    394.14299  0.037623424  0.038018326            4 
  874000    1.0933481    -6.566793    393.85096  0.037552532  0.038010744            4 
  875000    1.1004939   -6.5423952    395.00774  0.037619785  0.038003271            2 
  876000    1.1062862    -6.567737    393.73925  0.037456169  0.037995488            2 
  877000    1.1199404   -6.5592798    394.38914  0.037475213  0.037987356            2 
  878000    1.1058333   -6.5550243     394.9638  0.037487072  0.037979298            2 
  879000    1.1086741   -6.5638402    394.92596  0.037440838  0.037970923            4 
  880000    1.0837837   -6.5833808    394.12332  0.037322284  0.037962241            3 
  881000    1.1376061   -6.5751506    394.46139  0.037311899  0.037953652            3 
  882000    1.1244388   -6.5590966    394.80433  0.037301996  0.037945005            3 
  883000    1.0862397    -6.570638    395.79794  0.037353524  0.037936504            2 
  884000    1.1227113   -6.5760672    396.48994  0.037376503  0.037927936            2 
  885000    1.1108914   -6.5413033    397.53207  0.037432398  0.037919603            2 
  886000    1.1173579   -6.5621085     398.1313  0.037446511  0.037911126            2 
  887000    1.1124091    -6.564723    399.55376  0.037537933  0.037902716            4 
  888000    1.1060433   -6.5886509    398.04314  0.037353898  0.037894444            2 
  889000    1.0929902   -6.5457773    399.90747   0.03748664  0.037885839            3 
  890000    1.1204972   -6.5835995    398.21182  0.037285751  0.037877719            3 
  891000    1.1236216   -6.6055803    398.74327  0.037293609  0.037869661            3 
  892000    1.1182778   -6.5773318    398.95652  0.037271723   0.03786122            4 
  893000    1.1122235   -6.5869193    398.48173  0.037185678  0.037852648            2 
  894000    1.1308206   -6.5718399    400.24819  0.037308743  0.037844466            2 
  895000     1.096325   -6.5824508    398.71198  0.037124021  0.037835948            2 
  896000    1.1197329   -6.6119144    399.55352  0.037160856  0.037827163            5 
  897000    1.1008807   -6.5803778    401.40452   0.03729139  0.037818133            2 
  898000     1.102297   -6.5961927    401.21019  0.037231829  0.037809381            4 
  899000    1.1183484   -6.5571167    401.15865  0.037185637  0.037800465            5 
  900000    1.0923482   -6.5764072    401.67014   0.03719168  0.037791578            3 
  901000    1.1280791   -6.5539646    401.74122  0.037156976  0.037782739            3 
  902000    1.0946166   -6.6258941    402.44271   0.03718059  0.037773625            1 
  903000    1.0931356   -6.5740868    402.20493  0.037117473   0.03776477            5 
  904000    1.0932545   -6.5367797    403.56993  0.037202243  0.037756023            2 
  905000     1.107402   -6.5931453    402.81105  0.037091257  0.037747573            3 
  906000    1.0909423   -6.5341626    405.10614  0.037261418  0.037739056            1 
  907000    1.1243904   -6.5981725    404.22099   0.03713901  0.037730768            4 
  908000    1.1246354   -6.5789885    404.68123  0.037140348   0.03772222            1 
  909000    1.0775787   -6.5760782     405.7823  0.037200431  0.037713864            5 
  910000     1.085308   -6.5593491    406.71141  0.037244634  0.037705629            4 
  911000    1.0977718   -6.5625768     406.5858  0.037192261  0.037697353            5 
  912000    1.1137309   -6.5397222    407.19478  0.037207125  0.037689182            4 
  913000    1.0889548   -6.5772804     407.8012  0.037221724  0.037681059            4 
  914000    1.0975332   -6.6146497    407.82133  0.037182835   0.03767312            3 
  915000    1.1177874   -6.5588716    408.23772   0.03718012  0.037665158            3 
  916000    1.0659212   -6.6072085    408.75515  0.037186604   0.03765712            3 
  917000    1.1098739   -6.6004381    408.59669  0.037131651  0.037648774            5 
  918000    1.1311324   -6.5539293     408.1315  0.037048975  0.037640002            2 
  919000    1.0980665   -6.6140066    407.88202  0.036986037  0.037631664            2 
  920000    1.1203015   -6.5513322    409.56005  0.037097831  0.037622983            3 
  921000    1.0795715   -6.5612665      409.332  0.037036916  0.037614242            1 
  922000     1.105167    -6.577424    410.50642  0.037102894   0.03760544            1 
  923000    1.1242325     -6.57205    409.99619  0.037016629  0.037596753            2 
  924000     1.100632   -6.6297255    410.45903  0.037018311  0.037587939            4 
  925000    1.1041159   -6.5945457     409.5618  0.036897459  0.037579048            2 
  926000     1.071967   -6.5885843    410.86932  0.036975281  0.037570321            2 
  927000    1.0812083   -6.5478426    412.00833  0.037037786    0.0375619            3 
  928000     1.117164   -6.5933759     413.0782  0.037093948   0.03755363            3 
  929000    1.1065716   -6.6032376    412.45185  0.036997833  0.037545082            3 
  930000    1.0893178   -6.5734172    413.31449  0.037035348  0.037536685            4 
  931000    1.1024596   -6.5766365    411.89129  0.036868178  0.037528224            5 
  932000    1.0946377   -6.6075605    413.67296  0.036987926  0.037519474            2 
  933000    1.1121082   -6.5607475    414.27084  0.037001683   0.03751086            4 
  934000    1.0933213    -6.595107    413.64665  0.036906375  0.037501937            2 
  935000    1.1009206   -6.5913098    413.89701  0.036889216  0.037493164            5 
  936000    1.1166371   -6.5748808    413.63564  0.036826535  0.037484379            4 
  937000    1.1204995   -6.5600402    417.08951  0.037094406  0.037475907            5 
  938000    1.0805933   -6.5806568    416.40418  0.036993975  0.037467299            2 
  939000    1.1126761   -6.5709915    416.42508  0.036956432  0.037458615            3 
  940000     1.109087   -6.5685629    416.37378  0.036912569  0.037450085            4 
  941000    1.1001591   -6.5779121     417.2876  0.036954268  0.037441728            4 
  942000    1.1232741   -6.5516123    417.46188  0.036930457  0.037433515            3 
  943000    1.0714477   -6.5755593    418.28326  0.036963879   0.03742563            2 
  944000    1.1030912   -6.5760052     418.8753  0.036976986  0.037417594            2 
  945000    1.1200234   -6.5791393    418.48926  0.036903814  0.037409383            4 
  946000    1.1258135   -6.5458007    419.58545  0.036961368  0.037401535            2 
  947000     1.103718   -6.6015708    419.66732  0.036929542  0.037393441            3 
  948000    1.1089399   -6.6075297    420.00462  0.036920237  0.037385201            4 
  949000    1.0780514   -6.6068073    419.59582  0.036845435  0.037376809            3 
  950000    1.0899484   -6.6100967    420.10834  0.036851609  0.037368427            2 
  951000    1.0961357    -6.552093    421.62617  0.036945861  0.037360074            9 
  952000    1.0897832   -6.5587999    421.98664  0.036938606  0.037351929            2 
  953000    1.0969236   -6.5954814    422.13144  0.036912508  0.037343771            5 
  954000    1.0990764   -6.5917817    421.52776  0.036821083    0.0373355            3 
  955000    1.0887383   -6.5872024    422.69139  0.036884065    0.0373273            2 
  956000    1.1094397   -6.5915238    419.79253  0.036592794  0.037318816            3 
  957000    1.1102971   -6.5957094      422.426  0.036783873  0.037310026            3 
  958000    1.1107819   -6.5753955    423.88005   0.03687196  0.037301513            3 
  959000    1.1120377   -6.5811107    423.16879  0.036771705  0.037292941            3 
  960000    1.1109252   -6.5897328    423.62439   0.03677295  0.037284418            4 
  961000    1.0831587    -6.615589    422.59987  0.036645844  0.037275693            2 
  962000    1.0994539    -6.617016    425.03799  0.036818953  0.037266859            1 
  963000     1.106596   -6.6010278    425.05795  0.036782447   0.03725855            2 
  964000    1.0741683   -6.5845213    425.17397   0.03675432  0.037250158            2 
  965000    1.1054652   -6.5646346     424.9922  0.036700535  0.037241756            2 
  966000    1.0799725   -6.6178731    425.64469  0.036718831  0.037233245            3 
  967000    1.1193829   -6.6023947    425.83538  0.036697292  0.037224832            4 
  968000    1.0884488   -6.5859491    425.98951  0.036672651  0.037216384            2 
  969000    1.0972961   -6.6290137    425.50785  0.036593382   0.03720767            4 
  970000    1.1354116   -6.5637853    426.95906  0.036680332  0.037199134            4 
  971000    1.0864973   -6.5723725    426.15354  0.036573424  0.037190702            4 
  972000    1.0869139   -6.5915378    428.23664   0.03671439  0.037182391            3 
  973000    1.0915161   -6.5867834    429.78832  0.036809552  0.037174242            2 
  974000     1.108297   -6.5783134    429.08773  0.036711818  0.037166105            3 
  975000    1.1269605   -6.5796835    429.82866  0.036737492  0.037157814            4 
  976000    1.0927619   -6.5526892    431.08105  0.036806784  0.037149789            3 
  977000    1.0989103   -6.6132717    429.69648  0.036651014  0.037141586            2 
  978000    1.0776846   -6.5892422    430.43792  0.036676714  0.037133487            6 
  979000    1.0796065   -6.6062852    430.80765  0.036670722   0.03712538            3 
  980000    1.0929479   -6.6018365      431.062  0.036654932  0.037117282            4 
  981000    1.1052083   -6.6063039    431.50678   0.03665535  0.037109139            3 
  982000    1.0927742   -6.6300588    431.77852  0.036641083  0.037100852            2 
  983000    1.0991248   -6.5776198    431.97191  0.036620202  0.037092912            3 
  984000    1.1225119   -6.6176383    433.20962  0.036687807  0.037084702            3 
  985000    1.0756047   -6.6332597    432.01503  0.036549495    0.0370762            4 
  986000    1.0900038   -6.5951157    431.97787  0.036509286  0.037067573            1 
  987000    1.0945537   -6.5889056      434.569  0.036691067   0.03705921            3 
  988000    1.0890902   -6.5938637    434.05508  0.036610584  0.037050869            3 
  989000    1.0813024   -6.6056438    433.75574  0.036548344  0.037042373            2 
  990000    1.1144793   -6.6254725     433.2739  0.036470867  0.037033997            3 
  991000    1.0659077   -6.5924789    434.21673  0.036513347  0.037025368            2 
  992000    1.0795825   -6.5915917    435.77718  0.036607626  0.037016804            2 
  993000    1.1122037   -6.5873742    435.06492  0.036510987  0.037008335            3 
  994000    1.0898929   -6.5886414    435.10682  0.036477768  0.036999848            4 
  995000    1.1080881   -6.5870776    435.34363  0.036460941  0.036991188            4 
  996000     1.082005   -6.5987285    436.14497   0.03649138  0.036982646            3 
  997000    1.1218686   -6.6030961    437.49766  0.036567842  0.036974431            3 
  998000    1.0842783   -6.5768713    437.09516  0.036497592  0.036966044            3 
  999000    1.0888441   -6.5849982    438.39718  0.036569668  0.036957695            3 
 1000000    1.1059319   -6.6209694    437.18536  0.036432113  0.036949396            4 
 1001000    1.0970501   -6.5666797    438.38027  0.036495194  0.036940868            4 
 1002000    1.0854594   -6.5977507    438.39329  0.036459854  0.036932462            5 
 1003000    1.0854355    -6.642048    437.03908   0.03631099  0.036923766            4 
 1004000    1.1013373   -6.6184083    438.80093   0.03642106  0.036915126            3 
 1005000    1.0872782   -6.5759829    439.83488  0.036470554  0.036906612            2 
 1006000     1.094171   -6.6198253    440.17734  0.036462669  0.036898131            3 
 1007000    1.0869427   -6.6232568    439.85247  0.036399575   0.03688954            2 
 1008000    1.0995155   -6.6198486    439.11415  0.036302426  0.036880709            3 
 1009000    1.1019763   -6.6239561    440.90687  0.036414509  0.036872025            4 
 1010000    1.1168182    -6.605472    441.08561  0.036393202  0.036863591            3 
 1011000    1.0782857   -6.6068908    442.33039  0.036459808  0.036855078            3 
 1012000    1.0764941   -6.5979737    440.80032  0.036297786    0.0368465            4 
 1013000    1.0766899   -6.5957271    442.70549  0.036418682  0.036838156            2 
 1014000    1.1067408   -6.5854278    443.11372  0.036416315   0.03682987            5 
 1015000    1.0912646    -6.592561    442.88096  0.036361327  0.036821315            3 
 1016000     1.100009   -6.5859979    441.96653  0.036250535  0.036812852            4 
 1017000    1.1062685    -6.596002    444.78595  0.036445915  0.036804378            4 
 1018000    1.0740199    -6.596042    442.37314  0.036212602  0.036795912            3 
 1019000    1.0731602   -6.5846048    444.17298  0.036324254  0.036787378            3 
 1020000    1.0983438   -6.5911315    444.42716  0.036309408  0.036778861            4 
 1021000    1.0866731   -6.6008708    443.31276  0.036182889  0.036770328            2 
 1022000    1.0698759   -6.6111229    443.88454  0.036194108  0.036761607            3 
 1023000    1.0893143   -6.6245826    444.43202  0.036203325  0.036752859            2 
 1024000    1.1133768   -6.6131377    444.69714  0.036189546  0.036744204            3 
 1025000    1.1036783   -6.5953602    444.99119  0.036178146  0.036735577            2 
 1026000    1.0925401   -6.6037106    445.55766  0.036188894  0.036726774            2 
 1027000    1.0952801   -6.6192152    445.04512  0.036112068   0.03671785            6 
 1028000    1.0746422   -6.6039495    445.81512  0.036139358  0.036709082            3 
 1029000    1.0888689   -6.6180764    445.72307  0.036096782  0.036700185            3 
 1030000    1.0410787   -6.6393681    446.40358  0.036116795  0.036691054            6 
 1031000     1.083727    -6.595839    447.22194   0.03614791  0.036682176            2 
 1032000    1.0965673   -6.6211094    447.29619  0.036118878  0.036673532            2 
 1033000    1.0898397   -6.5778192    448.30356  0.036165179  0.036664686            3 
 1034000    1.0963445   -6.6142019    448.76671   0.03616753  0.036656198            4 
 1035000    1.0736292   -6.5981692    449.63789  0.036202729  0.036647541            4 
 1036000    1.0821829    -6.612147    450.00936  0.036197664  0.036638979            3 
 1037000    1.1001168   -6.6254048    449.76272  0.036142938  0.036630392            3 
 1038000    1.0743972   -6.5986951    451.53495  0.036250398  0.036621568            3 
 1039000    1.0833837   -6.6134748    449.24479  0.036031824  0.036612612            3 
 1040000    1.0745208   -6.6052979    451.33102  0.036164345    0.0366038            3 
 1041000    1.0999341   -6.5874131    451.24178  0.036122461  0.036595215            2 
 1042000    1.1119626   -6.6160481    450.68912  0.036043596  0.036586481            2 
 1043000    1.0881037    -6.598089    452.67181   0.03616745  0.036577881            2 
 1044000    1.0773257   -6.5987684    452.04698  0.036082933  0.036568946            3 
 1045000    1.0936894   -6.6299037    451.62973   0.03601513  0.036559801            2 
 1046000    1.0731988   -6.5908279    451.57447  0.035976296  0.036550698            2 
 1047000    1.0625822   -6.6053702    451.98051  0.035974253  0.036541746            4 
 1048000    1.0957513   -6.6169323    452.42559  0.035975318    0.0365329            2 
 1049000    1.0715318   -6.5700507     455.2609  0.036166262  0.036524128            5 
 1050000    1.0742413   -6.6210204    453.88694  0.036022773   0.03651533            3 
 1051000    1.0818202   -6.6057952    453.37682  0.035948051  0.036506309            2 
 1052000    1.0980099   -6.5769823    454.68613  0.036017595  0.036497526            3 
 1053000    1.0660369   -6.5657276    455.52026  0.036049403  0.036489008            4 
 1054000    1.0552366   -6.5860201    455.25064  0.035993883  0.036480422            2 
 1055000    1.0882239   -6.6037591    454.37208   0.03589037  0.036471775            3 
 1056000    1.0726231   -6.6484732    455.89654  0.035976684  0.036462836            2 
 1057000    1.0822664   -6.5891555    457.06319  0.036034625  0.036454064            6 
 1058000    1.0745707   -6.5997284    457.53129  0.036037436  0.036445296            5 
 1059000    1.0680373   -6.6399373    456.68093  0.035936491  0.036436358            3 
 1060000    1.0541965   -6.6215801    456.67663  0.035902251  0.036427799            2 
 1061000    1.0797781   -6.6178457    456.56617  0.035859737   0.03641907            3 
 1062000    1.0934953   -6.6254601    457.43042  0.035893787  0.036410305            6 
 1063000    1.0793888    -6.615801    457.71073  0.035881995  0.036401417            3 
 1064000    1.0687321   -6.6133012     457.5707  0.035837304  0.036392623            2 
 1065000    1.0728638   -6.6083463    458.56159  0.035881189  0.036384074            2 
 1066000      1.06394   -6.5890043    459.75088    0.0359405  0.036375592            5 
 1067000    1.0914405   -6.6615794    460.07003  0.035931743  0.036367102            6 
 1068000     1.067277   -6.6162029    460.36849  0.035921387  0.036358527            1 
 1069000    1.0731787   -6.6325783     459.9225  0.035853017  0.036349863            3 
 1070000      1.08289   -6.6126188    459.64556  0.035797941  0.036341011            4 
 1071000    1.0729936   -6.5971141    461.96546  0.035945025  0.036332319            3 
 1072000    1.0644107    -6.618727    460.32306   0.03578382  0.036323641            2 
 1073000    1.0608981   -6.6273415     459.8699  0.035715277  0.036314819            2 
 1074000    1.0906144   -6.6262599    461.30591  0.035793444  0.036306248            4 
 1075000    1.0746444   -6.6190062    463.01625  0.035892733  0.036297768            5 
 1076000    1.0758523   -6.6482308    462.74913  0.035838687  0.036289096            3 
 1077000    1.0822249   -6.6160857    463.52338  0.035865319  0.036280869            2 
 1078000    1.0653498   -6.6290567    463.77293   0.03585134  0.036272616            5 
 1079000    1.0538726   -6.6429598    464.12783  0.035845523  0.036264403            1 
 1080000    1.0939667    -6.647976    464.07051  0.035807909  0.036255964            4 
 1081000    1.1067313   -6.6376484    465.01209   0.03584737   0.03624764            4 
 1082000    1.0758357   -6.6246429    465.90889  0.035883309  0.036239489            3 
 1083000    1.0980515   -6.5963104    466.11973    0.0358664  0.036231315            4 
 1084000    1.0786711   -6.6024743    467.45406   0.03593589  0.036223376            8 
 1085000    1.0855247   -6.6347483    466.53216  0.035831963  0.036215204            4 
 1086000    1.1054523   -6.6293101    467.21906  0.035851677  0.036207026            2 
 1087000    1.0739042   -6.6471827    467.42797  0.035834711  0.036198803            2 
 1088000    1.0822211   -6.6182639    467.69279  0.035822058  0.036190355            3 
 1089000    1.0743783   -6.6230705    467.66189  0.035786799   0.03618194            3 
 1090000    1.0566994   -6.5942043    468.21615  0.035796342  0.036173713            3 
 1091000     1.091755    -6.622173    467.65296  0.035720514  0.036165355            5 
 1092000    1.0695731   -6.6695263    466.46121  0.035596857    0.0361567            7 
 1093000    1.1069624   -6.5935563    469.31822  0.035782115   0.03614805            1 
 1094000    1.0649453   -6.5742459    469.57746  0.035769154  0.036139688            1 
 1095000     1.069719   -6.6120777    468.14002  0.035627094    0.0361312            3 
 1096000    1.0558902   -6.6185587    468.54927  0.035625705  0.036122517            5 
 1097000    1.0784761   -6.6259244    469.06107  0.035632108  0.036113874            3 
 1098000    1.0727804   -6.6201689    471.08741  0.035753446  0.036105422            2 
 1099000    1.0870991   -6.6506787     469.8951  0.035630505   0.03609703            2 
 1100000    1.0861839   -6.6418614    470.49886  0.035643853  0.036088453            3 
 1101000    1.0877991   -6.6295129    469.23093  0.035515511   0.03607976            3 
 1102000    1.0881224   -6.6335046    471.18169  0.035630799  0.036071349            2 
 1103000    1.0950069   -6.6275878    472.28194  0.035681621  0.036063035            4 
 1104000     1.091976   -6.6586836    472.92164  0.035697588  0.036054572            3 
 1105000    1.0677148   -6.5928465     471.9627  0.035592964  0.036046077            5 
 1106000     1.064823   -6.6561996    472.80003  0.035623872  0.036037641            3 
 1107000    1.0618687   -6.6220195    473.24056  0.035624854  0.036029332            4 
 1108000    1.0632741    -6.623229    474.75755  0.035706795  0.036020939            4 
 1109000    1.0703524   -6.6199361    472.60357  0.035512742   0.03601221            4 
 1110000    1.0798753   -6.6452583    473.25728  0.035529826  0.036003305            7 
 1111000    1.0699364   -6.6371439    473.63257  0.035525995  0.035994503            2 
 1112000    1.0826694   -6.6463363    474.71726  0.035575334  0.035985904            3 
 1113000     1.062869   -6.6585197    473.42271  0.035446444   0.03597711            2 
 1114000     1.066641   -6.6028405    474.69875   0.03551008  0.035968291            2 
 1115000    1.0688571   -6.6473567    475.61834  0.035546961  0.035959684            4 
 1116000    1.0580996   -6.5858689    475.91695  0.035537407   0.03595088            4 
 1117000    1.0885819   -6.6421468     474.2622  0.035382139  0.035941964            3 
 1118000    1.0587696   -6.6513745    475.11379  0.035413968  0.035933051            1 
 1119000    1.0612561   -6.6737503    474.88266  0.035365107  0.035924239            2 
 1120000    1.1028472    -6.663357    475.84758  0.035405326  0.035915162            4 
 1121000    1.0877062   -6.6626982    476.29728  0.035407172  0.035906115            4 
 1122000    1.0676657   -6.6757459    476.07858  0.035359371  0.035897063            2 
 1123000    1.0627794   -6.6591248    476.61759  0.035367883  0.035888191            3 
 1124000     1.094099   -6.6805436    475.29721  0.035238524  0.035879357            3 
 1125000    1.0772972   -6.6360488    477.52897  0.035372516  0.035870284            2 
 1126000    1.0706079   -6.6302912    479.15018  0.035461085  0.035861546            4 
 1127000    1.0488095   -6.6835738    478.56924  0.035386664  0.035852802            2 
 1128000    1.0603769   -6.6373299    479.79669  0.035445973  0.035844025            3 
 1129000    1.1012169    -6.614263    480.32594  0.035453642   0.03583557            6 
 1130000    1.0731145   -6.6390311    480.27102  0.035418217  0.035827197            2 
 1131000    1.0546815   -6.6294746    481.24499  0.035458664  0.035818604            2 
 1132000    1.0672646    -6.642178    481.84569  0.035471561  0.035810084            4 
 1133000    1.0769981   -6.6424273    480.38566  0.035332867  0.035801703            4 
 1134000     1.075949   -6.6292862    483.31375  0.035516884  0.035793317            3 
 1135000      1.07217   -6.6451731    482.97681  0.035460852  0.035784937            4 
 1136000    1.0960393   -6.6893138    482.27066  0.035377836  0.035776608            7 
 1137000    1.0791952   -6.6514904    481.83275  0.035314626  0.035768385            2 
 1138000    1.0835358    -6.633314    484.59517   0.03548588   0.03576046            5 
 1139000     1.057889   -6.6440769    485.03815  0.035487134  0.035752478            3 
 1140000    1.0579215   -6.6398871    485.55728  0.035493953   0.03574442            3 
 1141000    1.0508832   -6.6458356    485.70869  0.035473903  0.035736534            1 
 1142000    1.0749271   -6.6564881    485.59158  0.035434295  0.035728727            3 
 1143000    1.0800991   -6.6448551    486.49088   0.03546886  0.035721166            2 
 1144000    1.0804088   -6.6011395    487.46338  0.035508696  0.035713831            4 
 1145000    1.0648352   -6.6454982    486.41793  0.035401596  0.035706224            4 
 1146000    1.0603057    -6.630306    486.90219  0.035405918  0.035698616            6 
 1147000    1.0760865   -6.6669281    488.13215  0.035464411  0.035691132            4 
 1148000    1.0526617   -6.6365841     488.2643  0.035443111  0.035683296            4 
 1149000    1.0852454   -6.6651628    487.71858  0.035372685  0.035675213            3 
 1150000    1.0649599   -6.6658916    488.09114  0.035368923   0.03566705            5 
 1151000    1.0545267   -6.6379204    489.63439  0.035449927  0.035659108            2 
 1152000     1.033901   -6.6264252    488.53007   0.03533927  0.035651194            2 
 1153000    1.0918614   -6.6687072    486.76486  0.035181039  0.035643283            4 
 1154000    1.0488946   -6.6786088    490.33882  0.035408638  0.035635274            3 
 1155000    1.0688106   -6.6537229    489.65047  0.035328317  0.035627552            2 
 1156000    1.0590257   -6.6734851    489.71229  0.035302213  0.035619571            4 
 1157000    1.0721281    -6.631287     489.7969  0.035277795  0.035611565            6 
 1158000    1.0624969   -6.6563072    490.70738  0.035312851  0.035603836            2 
 1159000     1.073687   -6.6273018    490.49863  0.035267373   0.03559586            3 
 1160000    1.0741171   -6.6254321    491.28351  0.035293356  0.035588031            4 
 1161000     1.058196   -6.6502644    491.71202  0.035293714  0.035580124            2 
 1162000    1.0749751   -6.6789385    491.63018  0.035257472  0.035572105            3 
 1163000    1.0891007   -6.6531903    492.65759  0.035300773  0.035564437            4 
 1164000    1.0653777   -6.6572035    492.32566  0.035246683   0.03555682            4 
 1165000    1.0576647   -6.6751757    493.37445  0.035291449  0.035548832            4 
 1166000    1.0735677   -6.6726332    493.55351  0.035273979  0.035540951            5 
 1167000    1.0735286   -6.6412725    494.11692  0.035283985  0.035533106            3 
 1168000    1.0576953   -6.6605687    493.96784  0.035243139  0.035525168            2 
 1169000    1.0894073   -6.6454917    494.09216  0.035221853  0.035517392            3 
 1170000    1.0871805   -6.6625062    494.21468  0.035200476  0.035509631            8 
 1171000    1.0573603   -6.6367591    494.67199  0.035202959  0.035501617            2 
 1172000    1.0635973   -6.6497695    495.14822  0.035206785  0.035493553            3 
 1173000    1.0760358   -6.6530532     494.7527  0.035148671  0.035485596            3 
 1174000    1.0447127   -6.6573657    494.22653  0.035081384  0.035477698            2 
 1175000    1.0640393   -6.6729973    495.40461  0.035135078  0.035469926            5 
 1176000    1.0661692    -6.656914    494.61766  0.035049437  0.035462087            3 
 1177000    1.0743338   -6.6353024    498.10354  0.035266464  0.035454185            3 
 1178000    1.0628067   -6.6345232    497.63815  0.035203604  0.035446219            5 
 1179000    1.0674861   -6.6430415    497.91317  0.035193185  0.035438306            4 
 1180000    1.0735139   -6.6770463    497.14821  0.035109337  0.035430404            1 
 1181000    1.0756287   -6.6522268    498.75735  0.035193152  0.035422485            3 
 1182000    1.0524707   -6.6670855    498.29578  0.035130836  0.035414678            3 
 1183000    1.0677616   -6.6667586    496.96302  0.035007257  0.035406572            6 
 1184000    1.0574962   -6.6388169    498.62184  0.035094443   0.03539834            2 
 1185000    1.0720437   -6.6656021    498.88675  0.035083457  0.035390085            6 
 1186000    1.0761533   -6.6514697    498.48325  0.035025523   0.03538174            4 
 1187000    1.0628005   -6.6545019    497.56738  0.034931717  0.035373294            3 
 1188000     1.079986   -6.6237354    498.95338  0.034999536  0.035365116            2 
 1189000    1.0893544   -6.6669519    500.46844  0.035076286  0.035356916            2 
 1190000    1.0880328   -6.6656757    501.12377  0.035092701  0.035348627            2 
 1191000    1.0668354   -6.6722589    498.34892  0.034869082  0.035340313            3 
 1192000    1.0384612   -6.6742113     500.3921  0.034982669  0.035331868            4 
 1193000    1.0678432   -6.6591661    500.09774  0.034932784   0.03532322            1 
 1194000    1.0316397   -6.6918953    499.40898  0.034855456  0.035314656            2 
 1195000    1.0490794    -6.700132    500.08156  0.034873191  0.035305969            5 
 1196000    1.0596397   -6.6839882    499.35117  0.034793142  0.035297043            2 
 1197000    1.0493922   -6.6542833    500.88641  0.034870956  0.035288244            6 
 1198000    1.0740053   -6.6283969    500.69516  0.034828545  0.035279372            7 
 1199000    1.0691256   -6.6581426    501.56404  0.034859886  0.035270449            5 
 1200000     1.047051   -6.6817018    499.88168  0.034714006  0.035261555            3 
 1201000    1.0363744   -6.6536795    501.98298  0.034830904  0.035252743            4 
 1202000    1.0731574   -6.6774625    500.71229   0.03471383  0.035244028            2 
 1203000    1.0880729   -6.6713215    501.80752  0.034760842  0.035235267            2 
 1204000    1.0936129   -6.6870793    501.69964  0.034724505  0.035226513            4 
 1205000    1.0768174   -6.6672909     502.0333  0.034718762  0.035217542            4 
 1206000    1.0804906   -6.6704227    502.84814  0.034746279  0.035208714            4 
 1207000    1.0682354   -6.6588468    502.93135  0.034723236   0.03519991            1 
 1208000    1.0707008   -6.6358014    506.72176  0.034955971  0.035190945            4 
 1209000    1.0506497   -6.6501716    503.49462   0.03470462   0.03518201            3 
 1210000    1.0753013   -6.6239617    503.23948  0.034658367  0.035173134            3 
 1211000    1.0578786   -6.6417168     505.4468  0.034781641  0.035164099            3 
 1212000    1.0624255   -6.6435689    503.78925  0.034638975  0.035155311            3 
 1213000     1.060471   -6.6926575    505.47721  0.034726381  0.035146524            2 
 1214000    1.0883269   -6.6935816    504.35212  0.034620546  0.035137561            3 
 1215000    1.0718792   -6.6839808     505.5281  0.034672709  0.035128661            2 
 1216000    1.0670231   -6.6614302    506.17462  0.034688502  0.035119871            2 
 1217000    1.0378967   -6.6844328    506.52596  0.034684057  0.035111111            2 
 1218000    1.0531654   -6.6525045    507.69476  0.034735547  0.035102485            3 
 1219000    1.0625426   -6.6785381    505.63375  0.034566158  0.035093688            1 
 1220000    1.0464748   -6.6496203    507.65829  0.034676112   0.03508501            3 
 1221000    1.0402395   -6.6065066    508.00422  0.034671323  0.035076333            5 
 1222000    1.0541025   -6.6365565    508.15876  0.034653489  0.035067569            2 
 1223000    1.0763434   -6.6542218    508.02145  0.034615798  0.035059028            4 
 1224000    1.0352635   -6.6910274    508.50624  0.034620523  0.035050277           12 
 1225000    1.0381872   -6.6635133    508.69845  0.034605336  0.035041533            3 
 1226000    1.0460411   -6.6803606    509.21508  0.034612227   0.03503277            2 
 1227000    1.0603298   -6.6618601    508.91089  0.034563358  0.035024111            5 
 1228000    1.0413569   -6.6774962    511.77541  0.034729602  0.035015705            4 
 1229000    1.0516847   -6.6687507    509.90025  0.034574197   0.03500724            5 
 1230000    1.0670974   -6.6401558    510.34676  0.034576339  0.034998451            3 
 1231000    1.0542643   -6.6761923    511.15199  0.034602761  0.034989988            3 
 1232000    1.0569172   -6.6704907    511.51456  0.034599199  0.034981405            3 
 1233000    1.0486871   -6.6719592    511.22411  0.034551508  0.034972789            5 
 1234000    1.0637659   -6.6770995    512.47168  0.034607758  0.034964201            7 
 1235000     1.077272   -6.6731859     512.9345  0.034610965  0.034955615            4 
 1236000    1.0518954   -6.6924595    511.39376  0.034479083  0.034947151            4 
 1237000    1.0550501   -6.6595616    513.27604  0.034578014  0.034938603            2 
 1238000    1.0640345   -6.6634185    512.20985  0.034478315  0.034930211            6 
 1239000    1.0766669   -6.6144435    514.36007  0.034595108   0.03492168            2 
 1240000     1.078084   -6.7068324    514.60312  0.034583543  0.034913488            2 
 1241000    1.0524751   -6.6117132     515.6011   0.03462269  0.034905164            4 
 1242000    1.0289353   -6.6636005    515.26872  0.034572512  0.034896867            5 
 1243000    1.0573621   -6.6930621    516.14785  0.034603637  0.034888394            2 
 1244000    1.0590534   -6.6772108    514.23603  0.034447751  0.034880014            3 
 1245000    1.0504755   -6.6622856    516.71469   0.03458599  0.034871689            4 
 1246000    1.0382258   -6.7089429    514.31722  0.034397888  0.034863332            6 
 1247000    1.0479208   -6.6974238    515.65216  0.034459513   0.03485495            7 
 1248000    1.0442647   -6.7140539    515.39634  0.034414819  0.034846577            3 
 1249000    1.0601259   -6.6780269    518.77422  0.034612638  0.034838368            5 
 1250000    1.0332527   -6.6924239    518.66448  0.034577632  0.034830295            2 
 1251000    1.0418173   -6.7172282     516.2586  0.034389728  0.034822082            6 
 1252000    1.0462521   -6.7111025    517.10153  0.034418366  0.034813825            6 
 1253000    1.0406011   -6.6749957    518.81704  0.034504991  0.034805436            3 
 1254000    1.0362581   -6.6822906    518.20018  0.034436482  0.034797148            6 
 1255000    1.0771597   -6.6912632    519.22374  0.034477008  0.034788842            4 
 1256000    1.0439024   -6.6585579    519.62545  0.034476211  0.034780534            2 
 1257000    1.0517198   -6.6898585    519.77521  0.034458712  0.034772304            6 
 1258000     1.073185   -6.7000198    518.54357  0.034349733  0.034764065            3 
 1259000    1.0314216   -6.6926888    519.30886  0.034373104  0.034755798            4 
 1260000    1.0509986   -6.6837933    517.55436  0.034229786   0.03474726            3 
 1261000    1.0402211   -6.6788661    520.78661  0.034416244  0.034738765            4 
 1262000    1.0531721   -6.6716653    520.11301  0.034344493  0.034730114            2 
 1263000    1.0369964   -6.7015682    519.43627  0.034272649  0.034721435            3 
 1264000    1.0435805   -6.6973711    519.64758  0.034259466    0.0347126            3 
 1265000    1.0400744   -6.6937902     520.2734   0.03427361  0.034703708            6 
 1266000    1.0669313   -6.7090626    520.49136  0.034260885  0.034694915            2 
 1267000    1.0747888   -6.6976999    520.64108  0.034243691  0.034685866            6 
 1268000    1.0448508   -6.6817437    520.68077  0.034219293  0.034676945            1 
 1269000    1.0583874    -6.700547    519.50682  0.034115236  0.034668073            9 
 1270000    1.0353937   -6.6868778    521.07891  0.034191529  0.034658793            4 
 1271000    1.0525627   -6.6702557    521.17952  0.034171225   0.03464963            4 
 1272000    1.0441054   -6.7083003    519.89017  0.034059891  0.034640521            8 
 1273000    1.0358553   -6.7150301    520.11788  0.034048041  0.034631193            5 
 1274000    1.0670044   -6.6712733     522.7017  0.034190326  0.034622046            3 
 1275000    1.0303677    -6.674384    522.56931  0.034154857   0.03461282            3 
 1276000    1.0485445   -6.6697545    521.49788  0.034058116  0.034603454            1 
 1277000    1.0264921   -6.6709545    522.54655   0.03409988  0.034594253            4 
 1278000    1.0538812   -6.7133426    522.30679  0.034057563  0.034584962            3 
 1279000      1.05485   -6.7184912    522.65508  0.034053628  0.034575684            5 
 1280000    1.0529113   -6.6752803    521.80408   0.03397162   0.03456654            3 
 1281000    1.0529985   -6.6759067    523.81454  0.034075887  0.034557331            3 
 1282000    1.0287337   -6.6457735     524.4172  0.034088482  0.034548085            2 
 1283000    1.0462931   -6.6962533    525.35161  0.034122604  0.034538902            2 
 1284000     1.033129   -6.6758448    526.20543  0.034151443  0.034529827            6 
 1285000    1.0235153   -6.6610175     524.7115  0.034027983  0.034520545            3 
 1286000    1.0402973   -6.7158673    523.63639  0.033931855  0.034511292            6 
 1287000    1.0429047   -6.6756944    525.59207  0.034032121  0.034502099            2 
 1288000    1.0434226   -6.6984309    525.15808  0.033977619  0.034492855            4 
 1289000    1.0512687   -6.6762777    525.94596  0.034002195  0.034483649            3 
 1290000    1.0333447   -6.6780898    526.62046  0.034019409  0.034474533            3 
 1291000    1.0373619    -6.699301    526.96623  0.034015378  0.034465391            3 
 1292000    1.0619604   -6.6477464    528.05782  0.034059457  0.034456446            2 
 1293000    1.0197516   -6.6707251    526.67224  0.033943815  0.034447387            2 
 1294000    1.0723776   -6.6927781    526.58974  0.033912271  0.034438309            2 
 1295000    1.0243058   -6.6764976     529.9662  0.034103359  0.034429317            2 
 1296000    1.0862998   -6.6909166    528.34835  0.033973016  0.034420341            1 
 1297000    1.0496957   -6.6570743    530.06757  0.034057284  0.034411421            3 
 1298000    1.0406087   -6.6439125    530.04253  0.034029438  0.034402656            4 
 1299000    1.0201644   -6.6783911    530.83205  0.034053891  0.034393893            2 
 1300000    1.0441226   -6.7320879    530.31275  0.033994407  0.034385032            3 
 1301000    1.0548211    -6.669416    531.07058  0.034016819  0.034376337            3 
 1302000    1.0525936    -6.689162    531.12561  0.033994215  0.034367548            5 
 1303000    1.0405769   -6.6852499    531.99804  0.034023922  0.034358966            4 
 1304000    1.0422342   -6.7051703     532.0226  0.033999399  0.034350357            4 
 1305000    1.0403081   -6.6974048    532.21815  0.033985834  0.034341796            3 
 1306000    1.0474309   -6.7193992    532.24402  0.033961461  0.034333444            3 
 1307000    1.0429704   -6.7172402    532.31418   0.03393995  0.034325052            5 
 1308000    1.0340788    -6.717759    534.52798  0.034055045  0.034316695            2 
 1309000    1.0340276   -6.6935107    533.14949  0.033941271  0.034308468            5 
 1310000    1.0458412   -6.7030447    534.26068  0.033986049  0.034300301            2 
 1311000    1.0596218   -6.7276915    534.42375   0.03397049  0.034291965            9 
 1312000     1.035722   -6.7097999     534.8186  0.033969677  0.034283735            3 
 1313000    1.0289917   -6.6808049    536.78145  0.034068384  0.034275557            2 
 1314000    1.0389483   -6.6895916    538.32053  0.034140064  0.034267483            2 
 1315000    1.0340644    -6.693448    537.07725  0.034035313  0.034259459            3 
 1316000    1.0445981   -6.7446501    536.99081  0.034003977  0.034251435            4 
 1317000    1.0381856   -6.7042225    536.70534  0.033960095  0.034243423            4 
 1318000     1.058403   -6.7411524    539.21677  0.034093119  0.034235589            7 
 1319000    1.0516345   -6.6818187    537.06856  0.033931549  0.034227693            3 
 1320000    1.0703322   -6.6589338    540.09534  0.034096928   0.03421998            6 
 1321000    1.0519911   -6.6670976    540.02529  0.034066698  0.034212531            5 
 1322000     1.026274   -6.6871607    539.65364  0.034017501  0.034204725            4 
 1323000      1.05246   -6.7344033    538.96334  0.033948308  0.034197049            3 
 1324000    1.0307332   -6.7047188    541.38014  0.034074782  0.034189472            6 
 1325000    1.0386914   -6.7158395    541.37243   0.03404858  0.034182125            2 
 1326000    1.0359974   -6.7070732    543.62653  0.034164563  0.034174626            2 
 1327000    1.0375772   -6.6947753    543.26364  0.034116029  0.034167201            2 
 1328000    1.0248907   -6.6823344    543.69886   0.03411765  0.034160064            3 
 1329000    1.0288433   -6.7101806    544.48729  0.034141415   0.03415294            3 
 1330000    1.0293742   -6.7242903    542.80329  0.034010231  0.034145757            4 
 1331000    1.0406628   -6.6823558    544.12725  0.034067571  0.034138541            2 
 1332000     1.044105    -6.716688    545.47829   0.03412652  0.034131625            4 
 1333000    1.0491374   -6.7280956    545.37717  0.034094597  0.034124848            6 
 1334000    1.0504959   -6.7168623    547.45256  0.034198686  0.034118131            5 
 1335000    1.0576692   -6.6983465    546.81144  0.034133049  0.034111435            3 
 1336000    1.0303192   -6.6856279    547.01344    0.0341201  0.034104638            3 
 1337000    1.0352895   -6.6920256    547.13439  0.034102118  0.034097766            2 
 1338000    1.0445044   -6.7162609    547.17093  0.034078907  0.034090746            2 
 1339000    1.0556981   -6.6976998    548.33555  0.034125937  0.034083883            2 
 1340000    1.0514551   -6.6846132    548.11377  0.034086678  0.034077068            2 
 1341000    1.0389523   -6.7175683     547.5327  0.034025149  0.034070056            1 
 1342000    1.0567131   -6.7016917    548.64342  0.034068767   0.03406304            8 
 1343000    1.0384379   -6.7244648    548.42633  0.034029928  0.034055986            3 
 1344000    1.0315646   -6.6736386      548.915  0.034034908  0.034048914            4 
 1345000    1.0448535   -6.7328509    548.17941  0.033964028  0.034041624            2 
 1346000    1.0374968   -6.6966985    549.01142  0.033990306  0.034034356            4 
 1347000    1.0392128   -6.6942283    549.03777  0.033966702  0.034027121            2 
 1348000    1.0446635   -6.7040167    550.18154  0.034012212  0.034019907            3 
 1349000    1.0746415   -6.6939277     548.8045  0.033901933  0.034012624            4 
 1350000    1.0329022   -6.6769764    550.01655  0.033951639  0.034005473            7 
 1351000    1.0219169   -6.7080723     550.1915  0.033937299  0.033998394            4 
 1352000    1.0150761   -6.7227202    549.46242   0.03386726  0.033991121           12 
 1353000    1.0668937   -6.6747198    549.06402   0.03381769  0.033983716            2 
 1354000    1.0383908   -6.7415714    550.99313  0.033911443  0.033976355            4 
 1355000    1.0447438   -6.6992283    552.12566  0.033956068  0.033968968            4 
 1356000    1.0438329   -6.6803183    552.41344  0.033948712  0.033961832            4 
 1357000    1.0195666   -6.6906304     552.1265  0.033906073  0.033954699            3 
 1358000    1.0058556   -6.6942559     551.6359     0.033851  0.033947466            2 
 1359000    1.0627414   -6.7401247    551.37399  0.033810031  0.033940153            4 
 1360000    1.0537951   -6.6975773    552.62958  0.033862107  0.033932882            4 
 1361000    1.0502366   -6.7382762    553.14159  0.033868577  0.033925448            9 
 1362000    1.0440402   -6.7262235    551.97875  0.033772562   0.03391803            7 
 1363000    1.0353544   -6.7424932    552.23795  0.033763631  0.033910724            7 
 1364000     1.029134   -6.7472953     553.8273  0.033835979  0.033903349            7 
 1365000    1.0469905   -6.6752191    553.42133  0.033786406  0.033895849            6 
 1366000    1.0210701   -6.6988361    554.75276  0.033842896  0.033888664            3 
 1367000    1.0481139   -6.7059005    554.58255  0.033807763  0.033881421            2 
 1368000    1.0381352   -6.7072792    554.20215  0.033759878   0.03387411            3 
 1369000    1.0407024   -6.7171215    555.98408  0.033843686  0.033866682            2 
 1370000    1.0126505   -6.6923118    555.08046  0.033764018  0.033859139            2 
 1371000    1.0151167   -6.7259571    553.04652  0.033615762  0.033851609            4 
 1372000    1.0358611   -6.6815839    556.44167  0.033797477  0.033844211            2 
 1373000    1.0200235   -6.7449323    553.77411  0.033610956  0.033836774            3 
 1374000     1.021621   -6.7327566    554.75937   0.03364625  0.033829286            2 
 1375000    1.0367507    -6.711213    554.97445  0.033634815  0.033821698            4 
 1376000    1.0552656   -6.7291055    555.68169  0.033653203  0.033814227            2 
 1377000    1.0602709   -6.7478108     556.0238  0.033649467  0.033806675            4 
 1378000    1.0378098   -6.7088701     556.8888  0.033677359  0.033799166            3 
 1379000    1.0459528   -6.7169089     556.8528  0.033650762  0.033791794            5 
 1380000    1.0065316   -6.6712308    558.23109  0.033709607  0.033784481            4 
 1381000    1.0237048   -6.7237685    558.65193  0.033710592  0.033777195            3 
 1382000    1.0117677    -6.728716    560.20917  0.033780099  0.033769895            3 
 1383000    1.0092095   -6.7382805    558.57949  0.033657477  0.033762603            5 
 1384000    1.0065438   -6.7088624    559.72348   0.03370204  0.033755281            4 
 1385000    1.0527809   -6.7141666    558.71511  0.033617034  0.033747977            3 
 1386000    1.0338424   -6.7609748    557.97559  0.033548316   0.03374067            4 
 1387000    1.0361446   -6.7382777    560.68161  0.033686711  0.033733228            6 
 1388000    1.0470739   -6.7111747     562.0721  0.033745924  0.033725887            2 
 1389000    1.0266905   -6.7235681    559.96884  0.033595443   0.03371855            4 
 1390000    1.0365733   -6.7430687    561.06732  0.033637129   0.03371119            6 
 1391000    1.0402748   -6.7326644    561.30092  0.033626942  0.033703747            4 
 1392000    1.0232516   -6.7296042    560.67673  0.033565417  0.033696521            3 
 1393000    1.0284517   -6.7340728    561.49052  0.033590005  0.033689133            3 
 1394000    1.0327855   -6.7347551    562.05797  0.033599831  0.033681991            4 
 1395000    1.0225763   -6.7077227    561.96166  0.033569992  0.033674749            3 
 1396000    1.0389863   -6.7106094    563.19546  0.033619595   0.03366758            6 
 1397000    1.0246013   -6.7395486    563.31681  0.033602768  0.033660412            4 
 1398000    1.0411319   -6.7468906     563.5651  0.033593532  0.033653141            2 
 1399000    1.0239386   -6.7526381    563.54153  0.033568116  0.033645821            3 
 1400000    1.0360779   -6.7251749    563.05762  0.033515335  0.033638499            4 
 1401000    1.0219546   -6.7688394    564.11734  0.033554446  0.033631303            4 
 1402000    1.0240594   -6.7199188    564.89875  0.033576959  0.033624196            3 
 1403000    1.0159712   -6.7149261     565.6448  0.033597339  0.033617266            2 
 1404000     1.022953   -6.6862481    568.74435   0.03375738  0.033610345            2 
 1405000    1.0469348   -6.7117141    566.30998  0.033588967   0.03360329            2 
 1406000    1.0326652    -6.754124    566.39231  0.033569957  0.033596214            3 
 1407000    1.0279832   -6.7216607    566.71937  0.033565468  0.033588947            5 
 1408000    1.0190253   -6.7366939    566.24438  0.033513517    0.0335817            3 
 1409000    1.0244725   -6.7292886    566.80018  0.033522603  0.033574481            5 
 1410000    1.0272805    -6.702632    566.21106  0.033464011  0.033567248            1 
 1411000     1.019167    -6.776142    566.80493  0.033475368  0.033560023            5 
 1412000    1.0385018   -6.7196216    566.20272  0.033416119  0.033552619            5 
 1413000    1.0054354   -6.7206111     567.2694  0.033455379  0.033545255            4 
 1414000    1.0227957   -6.7318674    567.45973  0.033442936  0.033537892            3 
 1415000    1.0254295    -6.709164    568.83242  0.033500142  0.033530577            3 
 1416000    1.0482692   -6.6844618     568.8407  0.033476972  0.033523288            2 
 1417000    1.0117222   -6.7176845    568.18185  0.033414599  0.033516011            3 
 1418000    1.0021683   -6.7142746    567.56805  0.033354963  0.033508716            2 
 1419000    1.0290675   -6.7707605    569.06336  0.033419272  0.033501493            2 
 1420000    1.0283927   -6.7465643    568.70881   0.03337493  0.033494268            3 
 1421000    1.0353032   -6.7501062    569.77697  0.033414084  0.033486943            5 
 1422000    1.0427121   -6.7182394    572.19165  0.033532094  0.033479768            4 
 1423000    1.0260314   -6.7247977    569.74812  0.033365432  0.033472558            6 
 1424000     1.017473   -6.7195895    572.58564  0.033508055  0.033465347            3 
 1425000    1.0289795   -6.7152513    571.96708  0.033448367  0.033458137            3 
 1426000    1.0282932   -6.7508487    570.36522  0.033331301  0.033450868            8 
 1427000    1.0196537   -6.7481705    573.62826  0.033498497  0.033443872            5 
 1428000    1.0178107   -6.7330339    573.79454  0.033484742  0.033436925            2 
 1429000     1.020412   -6.7305837    574.33013  0.033492543  0.033429958            4 
 1430000    1.0300854   -6.7423459    572.61466  0.033369153  0.033422857            2 
 1431000    1.0244563   -6.7611273    571.83773   0.03330059  0.033415736            3 
 1432000    1.0333387   -6.7084232    573.30108  0.033362493  0.033408615            3 
 1433000    1.0392448   -6.7385543    574.14814  0.033388471  0.033401664            6 
 1434000    1.0098849   -6.7452114    573.95212  0.033353796  0.033394503            2 
 1435000    1.0382787   -6.7419844    574.34794  0.033353539  0.033387216            5 
 1436000    1.0111637   -6.7295875    574.71649    0.0333517  0.033380072            4 
 1437000    1.0316167   -6.7367857    574.91281  0.033339875  0.033372951            3 
 1438000    1.0089373   -6.7582793    574.19596  0.033275148  0.033365726            3 
 1439000    1.0043291   -6.7437084     575.1577  0.033307719  0.033358585            2 
 1440000    1.0318144   -6.7131492    577.07498  0.033395543  0.033351492            3 
 1441000    1.0167375   -6.7262102    576.32867  0.033329208  0.033344452            8 
 1442000   0.98990229   -6.7323177    577.63947  0.033381846  0.033337343            3 
 1443000    1.0230417    -6.747022    576.88977  0.033315417  0.033330318           16 
 1444000    1.0052158   -6.7321836    578.54399  0.033387811  0.033323343            2 
 1445000    1.0062562   -6.7251107    579.09167   0.03339629  0.033316502            5 
 1446000    1.0046456   -6.7445019    579.65695  0.033405772  0.033309571            3 
 1447000    1.0284163   -6.7430052    576.71204  0.033213087  0.033302478            3 
 1448000    1.0048554   -6.7303921     577.8323  0.033254621  0.033295503            4 
 1449000    1.0259944   -6.7556341    579.28756  0.033315365  0.033288456            4 
 1450000    1.0101582   -6.7450392    578.11315  0.033224894  0.033281414            3 
 1451000     1.030859   -6.7578542     579.6159  0.033288301  0.033274387            2 
 1452000     1.046002    -6.736429    577.58707  0.033148937  0.033267385            4 
 1453000    1.0084801   -6.7639365    579.20802  0.033219088  0.033260548            3 
 1454000    1.0119606    -6.749001    580.60919  0.033276547  0.033253626            2 
 1455000    1.0137465   -6.7525128    580.65102  0.033256072  0.033246613            3 
 1456000    1.0058524   -6.7731689    578.25632  0.033096172  0.033239616            5 
 1457000    1.0397485    -6.761844    580.51303   0.03320253  0.033232679            2 
 1458000    1.0235505   -6.7501223    583.17984  0.033332181  0.033225757            4 
 1459000         1.04   -6.7504012    582.75208  0.033284903  0.033218738            3 
 1460000    1.0147313   -6.7266849    582.57256  0.033251859  0.033211724            4 
 1461000    1.0320195   -6.7542293    582.08941  0.033201541  0.033204737            4 
 1462000    1.0127463   -6.7347181    582.66835   0.03321183   0.03319786            7 
 1463000    1.0245544   -6.7419313    584.90546  0.033316556  0.033191066            3 
 1464000    1.0017202   -6.7509106    585.27307  0.033314724  0.033184153            4 
 1465000     1.004955   -6.7308169    584.37373  0.033240826  0.033177365            8 
 1466000    1.0026804   -6.7932986    582.74566  0.033125606  0.033170348            3 
 1467000    1.0043632    -6.748321    584.42044  0.033198162   0.03316321            7 
 1468000    1.0186606   -6.7662094     583.9655  0.033149722   0.03315617            6 
 1469000    1.0042093   -6.7430569    584.39385  0.033151455  0.033149255            3 
 1470000    1.0185896   -6.7124413    585.21164  0.033175263  0.033142348            3 
 1471000    1.0087472   -6.7421368    585.14902  0.033149163  0.033135481            2 
 1472000    1.0207554   -6.7561416    585.13855   0.03312605  0.033128471            5 
 1473000   0.99247708   -6.7821869    586.36328  0.033172849  0.033121507            3 
 1474000    1.0169745   -6.7540346    585.50246  0.033101677  0.033114415            7 
 1475000    1.0286642   -6.7659519    585.97945  0.033106183  0.033107325            3 
 1476000    1.0348175   -6.7598627    587.18834  0.033152006  0.033100382            8 
 1477000    1.0198355   -6.7684246    584.89263  0.033000036  0.033093291            3 
 1478000     1.026972   -6.7347964    585.81733  0.033029845  0.033086184            3 
 1479000     1.034894   -6.7570561     587.6411  0.033110272   0.03307928            3 
 1480000    1.0140694   -6.7311099    587.89201  0.033102027    0.0330722            4 
 1481000    1.0042724   -6.7594786    586.72234  0.033013861  0.033064976            4 
 1482000    1.0018715   -6.7493728    589.23835   0.03313306  0.033057753            2 
 1483000    1.0108107   -6.7791832    586.80983  0.032974254  0.033050722            3 
 1484000    1.0221945   -6.7935131    585.50317   0.03287866  0.033043612            5 
 1485000    1.0077583   -6.7643945    588.44709  0.033021722  0.033036545            4 
 1486000   0.99323604   -6.7361093    588.97447  0.033029075  0.033029424            4 
 1487000    1.0211545   -6.7251342    589.50814  0.033036771  0.033022327            4 
 1488000    1.0216992   -6.7465029    588.19486  0.032941021  0.033015125            4 
 1489000    1.0271285   -6.7403211    588.27296  0.032923268  0.033007867            2 
 1490000    1.0099391   -6.7500793    588.74109  0.032927354  0.033000701            4 
 1491000    1.0242394   -6.7581609    589.22944  0.032932564  0.032993315            3 
 1492000    1.0142423   -6.7729548    590.40972  0.032976414  0.032985995            2 
 1493000     1.000264    -6.746584    590.06923  0.032935322   0.03297884            2 
 1494000    1.0112539   -6.7601811    590.10008  0.032914997  0.032971754            2 
 1495000    1.0345736   -6.7761425    590.03766  0.032889502  0.032964552            9 
 1496000     1.020435   -6.7897194    590.22267  0.032877822  0.032957271            2 
 1497000   0.99773797    -6.751419    592.29688  0.032971325  0.032950138            2 
 1498000    1.0112121   -6.7700404     593.7167  0.033028299  0.032943032            6 
 1499000    1.0048086   -6.7562364    592.81925  0.032956374  0.032935929            7 
 1500000    1.0215188   -6.7980581    589.88176  0.032771209  0.032928799            2 
 1501000    1.0280093   -6.7528871     591.5883  0.032844121  0.032921611            3 
 1502000    1.0105201   -6.7651952    592.66738  0.032882123  0.032914288            5 
 1503000    1.0016239   -6.7187184    593.35026  0.032898107  0.032907036            3 
 1504000   0.99306858   -6.7742524    592.23002  0.032814163  0.032899739            4 
 1505000    1.0028915   -6.7858482    591.77705  0.032767278  0.032892348            4 
 1506000    1.0209036   -6.7513378    594.01866  0.032869558  0.032885082            6 
 1507000    1.0178485   -6.7709084    593.56894  0.032822879  0.032877855            3 
 1508000    1.0092822   -6.7939036    592.32885  0.032732584  0.032870636            6 
 1509000    1.0182483   -6.7889634    593.54726  0.032778179   0.03286346            2 
 1510000    1.0165396   -6.7561288     594.4511  0.032806352  0.032856203            3 
 1511000    1.0148255   -6.7265836    595.28396  0.032830574   0.03284902            4 
 1512000   0.99920927   -6.7894927    595.07887  0.032797557  0.032841858            2 
 1513000    1.0234084     -6.77484    597.06882  0.032885483  0.032834601            3 
 1514000    1.0270896    -6.801219    596.50914  0.032832956  0.032827503            2 
 1515000    1.0054274   -6.7509467    597.07495  0.032842407  0.032820381            3 
 1516000    1.0204077   -6.7514746     597.5816  0.032848593  0.032813392            4 
 1517000    1.0073227   -6.7881563    597.06526  0.032798575  0.032806455            2 
 1518000   0.98823261   -6.7544746    599.02675  0.032884648  0.032799548            5 
 1519000    1.0165833   -6.7473649    597.84118  0.032797958  0.032792682            2 
 1520000    1.0099579   -6.7916369    597.85831   0.03277732  0.032785632            3 
 1521000    1.0172635   -6.7546153    599.82091  0.032863298  0.032778675            2 
 1522000    1.0189615   -6.7637007    598.30476  0.032758692  0.032771606            3 
 1523000    1.0082473   -6.7547435    598.42537  0.032743783  0.032764606            3 
 1524000   0.98050351   -6.7638508    599.59763  0.032786397  0.032757657            5 
 1525000    1.0243664    -6.735789     599.4847  0.032758727  0.032750772            4 
 1526000   0.99652895   -6.7833459    598.91078  0.032705919  0.032743872            3 
 1527000   0.99926034   -6.7566323    599.78263   0.03273208  0.032736965            3 
 1528000    1.0251382   -6.7583844    600.78634  0.032765398  0.032729924            2 
 1529000    1.0083402   -6.7316106    600.68621  0.032738512  0.032722875            4 
 1530000    1.0081911   -6.7669972    601.05973  0.032737458  0.032715713            4 
 1531000    1.0140585   -6.7660465    602.52486  0.032795823  0.032708624            4 
 1532000    1.0042815   -6.7764848     601.1009  0.032696959  0.032701558            4 
 1533000    1.0106743   -6.7796193    602.07425  0.032728541  0.032694462            3 
 1534000    1.0170508   -6.7683002    601.24874  0.032662361  0.032687377            7 
 1535000    1.0121401   -6.7418994    602.67617  0.032718576  0.032680278            3 
 1536000   0.99730396   -6.7579938    601.60576  0.032639202  0.032673109            4 
 1537000    1.0207776    -6.766304    602.24439  0.032652591  0.032665889            4 
 1538000     1.007608   -6.7872873    600.04013  0.032511927  0.032658679            6 
 1539000    1.0249456   -6.7661048    603.54894  0.032680796  0.032651389            2 
 1540000    1.0058352   -6.7976595    600.75681  0.032508485  0.032644128            5 
 1541000     1.016578   -6.7805112    601.52873  0.032529133  0.032636711            3 
 1542000    1.0066157    -6.787586    602.25142  0.032547094  0.032629357            3 
 1543000   0.99378301   -6.7374908    603.28732  0.032581947  0.032621979           10 
 1544000   0.98406552   -6.7857891    600.69238  0.032420789  0.032614476            9 
 1545000   0.99994342   -6.7504578    602.85075  0.032516222  0.032606954            5 
 1546000    1.0030148   -6.7743258    602.55138  0.032479052   0.03259946            4 
 1547000    0.9839662   -6.7999951     603.4935  0.032508807  0.032591968            3 
 1548000   0.99523215   -6.7975351    602.79861  0.032450399  0.032584509            2 
 1549000   0.98978303   -6.7602444    604.33131  0.032511906  0.032577062            4 
 1550000    1.0083219   -6.7491036    605.12057  0.032533364  0.032569575            3 
 1551000   0.98006271    -6.803634     603.9704  0.032450591  0.032562113            4 
 1552000     1.005253    -6.806452    604.94332  0.032481923  0.032554596            7 
 1553000    1.0251129   -6.8166474    604.83449  0.032455167  0.032547075            3 
 1554000    1.0090287   -6.7717804    605.35202  0.032462034  0.032539795            4 
 1555000    0.9876705   -6.7658446      605.716  0.032460665  0.032532459            3 
 1556000    1.0063341   -6.7485145    606.54344  0.032484117  0.032525192            3 
 1557000    1.0143849   -6.7587731    605.87436  0.032427444  0.032518031            6 
 1558000   0.98581602   -6.7528965    608.09163  0.032525226  0.032510958            2 
 1559000    0.9978602   -6.7737521    605.26026  0.032353018  0.032503688            4 
 1560000   0.99756624   -6.7399646    606.74951  0.032411833  0.032496314            3 
 1561000     1.004673    -6.797655    606.50842  0.032378199  0.032488847            6 
 1562000    1.0134824   -6.7665217    606.06982   0.03233407  0.032481218            4 
 1563000    1.0179592   -6.7875629    605.06601  0.032259864  0.032473581            5 
 1564000   0.99384867   -6.7840067     606.4469  0.032312814  0.032465982            2 
 1565000     1.009306   -6.7649058    606.12078  0.032274802  0.032458262            6 
 1566000    1.0117936   -6.7819318    607.62316   0.03233414  0.032450591            4 
 1567000   0.99672055   -6.7563879    607.99897  0.032333491  0.032442987            4 
 1568000    1.0035498   -6.7568446    608.15401   0.03232111  0.032435468            4 
 1569000   0.97396213   -6.7468204     609.9304  0.032394859  0.032427878            1 
 1570000   0.99200827   -6.7428505     608.7177  0.032309857  0.032420292            3 
 1571000    1.0121214   -6.8199308    606.94316   0.03219516  0.032412639            2 
 1572000    1.0257788   -6.8218277    606.84826  0.032169649  0.032404919            3 
 1573000   0.99492047   -6.7591424    609.32405  0.032280359  0.032397209            3 
 1574000   0.99403724   -6.8134297    607.59473  0.032168293  0.032389458            5 
 1575000   0.99530232   -6.7811217    610.17682  0.032284488  0.032381796            4 
 1576000    0.9972212   -6.8000452    609.53145  0.032229878  0.032374305            2 
 1577000    1.0074975   -6.7908085    608.56256  0.032158242  0.032366733            2 
 1578000    1.0008447   -6.7689176    612.40877  0.032340979  0.032359179            2 
 1579000   0.95943638   -6.7760507    610.31567  0.032210031  0.032351709            6 
 1580000    1.0075009   -6.7808839    611.10666  0.032231364  0.032344285            6 
 1581000    1.0096958   -6.7864576    610.51127  0.032179595  0.032336836            4 
 1582000   0.99247126   -6.7992883    612.12407  0.032244209  0.032329402            5 
 1583000    0.9817414   -6.7875534    611.93875  0.032214084  0.032321922            2 
 1584000    1.0108026   -6.7833895    611.91585  0.032192542  0.032314317            4 
 1585000    1.0117642   -6.8093644    612.24333   0.03218945   0.03230667            2 
 1586000   0.98304035   -6.7825231    612.11655  0.032162492  0.032298992            5 
 1587000    1.0238738   -6.7635656    612.86895  0.032181734  0.032291351            6 
 1588000    0.9915712   -6.7893611    611.62263  0.032096066  0.032283765            6 
 1589000    1.0110607   -6.8047468    614.66448  0.032235393  0.032276185            2 
 1590000    1.0039418   -6.7854594    613.58659  0.032158626  0.032268625            5 
 1591000    1.0182007   -6.7591003    613.55491  0.032136754  0.032261123            2 
 1592000   0.99282489   -6.7644567    614.44174  0.032162989  0.032253446            5 
 1593000   0.99089723   -6.8068858    613.19563  0.032077612  0.032245769            5 
 1594000    1.0009051   -6.7813993    615.31577  0.032168328  0.032238282            8 
 1595000    1.0030587   -6.7833857    613.86312  0.032072264    0.0322307            3 
 1596000   0.99009646   -6.8009312    613.49821  0.032033114  0.032223063            3 
 1597000    1.0021376   -6.7769019     613.7909  0.032028329  0.032215499            2 
 1598000   0.98494553   -6.8004552    614.39145  0.032039604  0.032207877            4 
 1599000   0.99186791   -6.7518896    615.48357  0.032076484  0.032200173            5 
 1600000   0.98464708   -6.8051512    615.48349  0.032056432  0.032192413            4 
 1601000     1.000318   -6.7850391    613.40373  0.031928156  0.032184686            4 
 1602000    1.0077371   -6.7843086    614.15961  0.031947545  0.032176821            2 
 1603000   0.99814673   -6.8055012    613.88429  0.031913303  0.032168969            5 
 1604000   0.97661311    -6.786234    616.82549  0.032046212  0.032161178            6 
 1605000   0.95586499    -6.781259    612.74248  0.031814251   0.03215323            3 
 1606000   0.99465692   -6.7966688    615.67113  0.031946405  0.032145252            8 
 1607000    1.0085205   -6.8055949    615.99719  0.031943434  0.032137409            3 
 1608000   0.97427324   -6.7355951    616.36867  0.031942821  0.032129572            2 
 1609000    1.0082717   -6.7872939    618.21164   0.03201842  0.032121878            2 
 1610000    1.0074133   -6.8152718     616.1497  0.031891807  0.032114057            3 
 1611000    0.9993329   -6.8042164    617.48798  0.031941236  0.032106327            2 
 1612000   0.99512763   -6.8276062     618.6251  0.031980206  0.032098663            6 
 1613000    1.0179898   -6.7732264    618.67732  0.031963077  0.032090929            3 
 1614000    1.0012812   -6.7962059     617.7312  0.031894424  0.032083113            6 
 1615000   0.99635569   -6.7763834    619.49679  0.031965779  0.032075358            6 
 1616000   0.99832543   -6.7972116    618.21782  0.031880044  0.032067498            3 
 1617000    1.0103701   -6.7745152    617.68242  0.031832736  0.032059644            6 
 1618000   0.98413041   -6.8078462     620.4126  0.031953678  0.032051944            4 
 1619000     1.003036   -6.7777081    621.19466  0.031974195  0.032044381            5 
 1620000   0.99294366   -6.7837723    621.08928  0.031949037  0.032036717            8 
 1621000    0.9905579   -6.7944881    620.47816  0.031897911  0.032029086            3 
 1622000    1.0094391   -6.7942603    619.77173  0.031841951  0.032021421            4 
 1623000   0.97571559   -6.7751494    619.71546  0.031819442  0.032013783            3 
 1624000    1.0102067   -6.8077038     620.9777  0.031864619  0.032006142            3 
 1625000    1.0003521   -6.7801214    620.91347  0.031841717  0.031998445            1 
 1626000   0.97778283   -6.7955928    621.82127  0.031868659  0.031990786            3 
 1627000    1.0076948   -6.8004038    621.23569  0.031819078  0.031983164            6 
 1628000   0.99439773   -6.7942119    621.06061  0.031790572  0.031975597            6 
 1629000   0.98999738   -6.7890175    620.79393  0.031757414  0.031968015            4 
 1630000   0.97747869   -6.8050471    621.82104  0.031790441  0.031960503            4 
 1631000    1.0024394   -6.8021076     621.5588  0.031757551  0.031953027            4 
 1632000   0.99187296   -6.8159994    622.08596   0.03176501   0.03194544            5 
 1633000   0.99073741   -6.8003947    622.59811  0.031771693  0.031937815            6 
 1634000   0.98626845   -6.7545404    624.32641  0.031840392  0.031930196            3 
 1635000   0.96680303   -6.7714414    625.53601  0.031882569  0.031922699            3 
 1636000   0.98935174   -6.7998551    624.03662  0.031786706  0.031915229            4 
 1637000   0.97466186   -6.7889853    624.41347  0.031786473  0.031907687            2 
 1638000   0.97392489   -6.7792259    626.73492  0.031885171  0.031900301            4 
 1639000   0.95677028   -6.8051301    623.68698  0.031710748  0.031892823           10 
 1640000    1.0014052   -6.8041426    623.63884  0.031688965  0.031885218            9 
 1641000   0.97655859    -6.776006     623.4464  0.031659882  0.031877562            3 
 1642000    1.0066355   -6.8071851    626.49329  0.031795234  0.031870027            3 
 1643000    0.9794572   -6.7791459     627.1639  0.031809895  0.031862401            3 
 1644000     0.998338   -6.8350845    624.73912  0.031667636  0.031854735            9 
 1645000    1.0005564   -6.7866396    625.19749  0.031671606  0.031847072            5 
 1646000    1.0008257   -6.7834479    625.65125  0.031675337  0.031839405            4 
 1647000   0.99100742   -6.8076264    626.73091  0.031710732  0.031831754            4 
 1648000   0.98540211   -6.7986142    627.41852   0.03172626  0.031824172            3 
 1649000   0.99194372   -6.8059458    626.97912  0.031684815   0.03181641            2 
 1650000   0.98385454   -6.8117836    626.79353  0.031656239  0.031808669            6 
 1651000   0.99728928   -6.8295049    628.29849  0.031713027  0.031800871            2 
 1652000   0.96110252   -6.8153196    626.53292  0.031604768  0.031793143            5 
 1653000   0.98017975   -6.8274407    626.66414  0.031592263  0.031785393            7 
 1654000    1.0001162   -6.8153326    627.37158  0.031608806  0.031777605            3 
 1655000    1.0009281   -6.7893004    628.22729  0.031632794  0.031769844            3 
 1656000    1.0026718   -6.8263137    627.90367  0.031597407  0.031762098            4 
 1657000     1.014472   -6.7664075    629.36727  0.031651945  0.031754599            2 
 1658000   0.98701149   -6.8061381    628.02772  0.031565527   0.03174702            2 
 1659000    1.0006589   -6.8288132    629.50359  0.031620634  0.031739277            4 
 1660000   0.98251337   -6.8189606    631.21275  0.031687387  0.031731617            6 
 1661000   0.97370278   -6.8002289    629.75281  0.031595064  0.031724173            2 
 1662000   0.98624002   -6.8316277    631.09714  0.031643459  0.031716633            5 
 1663000   0.99624199   -6.8222687    630.20939  0.031579945  0.031709175            3 
 1664000    0.9751934   -6.7918595    632.14714   0.03165801   0.03170166            2 
 1665000   0.99517251   -6.8417247     629.5987  0.031511447  0.031694129            4 
 1666000   0.99644698      -6.8383    628.27887  0.031426514  0.031686403            6 
 1667000   0.97787865   -6.8471469    629.79522  0.031483464  0.031678668            3 
 1668000   0.96277258   -6.8459778    631.64635  0.031557072  0.031670864            2 
 1669000   0.97290891   -6.8264492    629.92686   0.03145231  0.031663163            5 
 1670000   0.96892708      -6.8478    630.92698  0.031483382  0.031655467            4 
 1671000   0.98271824   -6.8082356    632.89786   0.03156283  0.031647824            2 
 1672000   0.99307932   -6.8062507    631.11267  0.031454978  0.031640126            3 
 1673000   0.99827312   -6.8197531    632.09949   0.03148533  0.031632477            2 
 1674000   0.99011638   -6.8146779    630.99418  0.031411498  0.031624955            8 
 1675000   0.98727556   -6.7962683    633.52627   0.03151872  0.031617394            4 
 1676000   0.97898871   -6.8019883     631.7814  0.031413156   0.03160988            5 
 1677000    1.0094098   -6.8140867    633.86229  0.031497828  0.031602473            5 
 1678000   0.98827069   -6.8513243    633.23922  0.031448114  0.031594809            5 
 1679000   0.98456499   -6.8390202     632.3019  0.031382862  0.031587151            5 
 1680000   0.99829568    -6.809549    634.85617  0.031490882  0.031579512            4 
 1681000   0.97755208   -6.8222656    635.30674  0.031494484  0.031571941            4 
 1682000   0.98674993   -6.8483969    631.26867  0.031275697  0.031564294            3 
 1683000   0.98085691   -6.8654819    634.86986  0.031435426  0.031556648            5 
 1684000   0.96473195   -6.8009745    636.37851  0.031491415  0.031549121            3 
 1685000   0.97518348   -6.7765951    636.41142  0.031474353  0.031541652            4 
 1686000    1.0048446    -6.799996    635.90073  0.031430443   0.03153438            6 
 1687000   0.97780166   -6.8141027    635.54184  0.031394084  0.031526979            2 
 1688000   0.98357379   -6.8335277    640.11355  0.031601183  0.031519651            2 
 1689000   0.97613103   -6.8024024    639.13726  0.031534303  0.031512356            3 
 1690000    1.0104351   -6.8061728    638.20922  0.031469883  0.031505104            2 
 1691000   0.97912323   -6.8420159    637.83939  0.031433047  0.031497817            6 
 1692000   0.97519714   -6.8068798    639.02324  0.031472776   0.03149061            4 
 1693000   0.97908197   -6.8318462    639.28281  0.031466962  0.031483396            2 
 1694000   0.99758135    -6.835542     640.8822  0.031527066  0.031476231            2 
 1695000   0.99194575   -6.8388135    641.58051  0.031542798  0.031469056            3 
 1696000   0.97769124   -6.8464405    641.49873  0.031520181  0.031461806            7 
 1697000   0.97050407   -6.8285689    640.11992  0.031433899  0.031454669            4 
 1698000   0.99208075    -6.795973    640.88451  0.031452911  0.031447565            3 
 1699000   0.98898977   -6.8116611    641.78419  0.031478526  0.031440474            6 
 1700000   0.97391252   -6.8253772    641.38175  0.031440282  0.031433383            4 
 1701000   0.96931946   -6.8106228    641.57058  0.031431049  0.031426295            2 
 1702000      1.00353   -6.8275448    640.53452  0.031361855  0.031419253            5 
 1703000   0.99335024    -6.836848      642.454  0.031437365  0.031412169            8 
 1704000   0.99686851   -6.8130181     642.8408  0.031437832  0.031405099            4 
 1705000    0.9757053   -6.8368889     643.8944   0.03147089  0.031398039            4 
 1706000   0.97679993   -6.7737198    643.38134  0.031427381  0.031390907            5 
 1707000   0.97095643   -6.8545988    644.22084  0.031449953  0.031383847            2 
 1708000   0.98134464   -6.8507651    643.16686  0.031380116  0.031376832            2 
 1709000   0.96411048     -6.81497    642.08622  0.031309061  0.031369787            4 
 1710000    0.9711976   -6.8627301    644.37341  0.031402213  0.031362675            4 
 1711000   0.97305397   -6.8426098    643.53044  0.031342803  0.031355524           10 
 1712000   0.97019535   -6.8097427    644.04028  0.031349312  0.031348398            7 
 1713000   0.99017006   -6.8192041    645.77716  0.031415507  0.031341366            7 
 1714000   0.97826504   -6.8221793    645.12682  0.031365559  0.031334347            3 
 1715000   0.96796467   -6.8323755    647.02402  0.031439457  0.031327368            6 
 1716000    1.0132343   -6.7881082    647.51411  0.031444935  0.031320338            4 
 1717000   0.96929072   -6.8368865    645.49507  0.031328629  0.031313289            4 
 1718000   0.96942157   -6.8169962    646.00378  0.031335069  0.031306284            6 
 1719000   0.96699649   -6.8321845    646.86845  0.031358758  0.031299211            4 
 1720000    0.9709199    -6.826432    645.92735   0.03129493  0.031292146            5 
 1721000   0.99870097   -6.8352959    646.99362  0.031328376  0.031284916            4 
 1722000   0.96858288   -6.8246277     647.0544  0.031313124  0.031277768            3 
 1723000   0.97409206   -6.8582952    647.37352  0.031310385  0.031270559            7 
 1724000   0.97155232   -6.8014859    646.97166  0.031272799  0.031263386            4 
 1725000   0.96585571   -6.8483638     645.3908  0.031178299  0.031256194            4 
 1726000   0.96061351   -6.8294995    648.15447  0.031293669  0.031248996            3 
 1727000   0.96799478   -6.8192653    649.99489  0.031364355  0.031241767            2 
 1728000   0.98300101   -6.8391101    649.33068  0.031314173  0.031234643            3 
 1729000   0.97634712   -6.8358134    649.14753  0.031287234  0.031227632            8 
 1730000   0.99642809   -6.8532328    648.27625   0.03122718  0.031220583            3 
 1731000   0.96925918   -6.8208022     648.9854  0.031243279   0.03121363            7 
 1732000   0.97453432   -6.8346081    649.90194  0.031269339  0.031206641            3 
 1733000   0.98698466   -6.8656699    649.69914  0.031241543  0.031199702            2 
 1734000   0.97802244   -6.8356247    650.32367   0.03125354  0.031192816            4 
 1735000   0.95292346   -6.8016551     650.7503  0.031256018  0.031185851            4 
 1736000    0.9725991     -6.82705    652.65664  0.031329524  0.031179021           17 
 1737000   0.98544038   -6.8517084    651.35532  0.031249056  0.031172206            2 
 1738000   0.98231968   -6.8756015    650.65572  0.031197532  0.031165403            6 
 1739000   0.97500971   -6.8107526    651.36398  0.031213532  0.031158527            2 
 1740000   0.99873999   -6.8651472    651.07979  0.031181982  0.031151708            4 
 1741000   0.96895249   -6.8245806    654.84291  0.031344194  0.031144857            8 
 1742000   0.95569542   -6.8573622    652.21722  0.031200594  0.031137975            2 
 1743000   0.97657261   -6.8900664    652.10056  0.031177116  0.031131006            2 
 1744000   0.97443008    -6.814318    654.41499  0.031269829  0.031124116            2 
 1745000   0.96585101   -6.8636158    651.43712    0.0311097  0.031117241            3 
 1746000   0.97857115   -6.8335056    653.77293  0.031203366  0.031110245            5 
 1747000   0.96905636   -6.8277335    653.57834  0.031176223  0.031103377            4 
 1748000   0.96562514   -6.8470997    653.88952  0.031173223  0.031096512            3 
 1749000   0.97795343   -6.8468542    655.35764   0.03122535  0.031089623            5 
 1750000   0.95746519    -6.840663    654.77852   0.03117993  0.031082752            6 
 1751000   0.96660933   -6.8274902    654.18475  0.031133864  0.031075868            3 
 1752000   0.97480899   -6.8403853    654.49997  0.031131087  0.031068965            4 
 1753000   0.95725601   -6.8320493    656.63471  0.031214808    0.0310621            3 
 1754000   0.95776506   -6.8348026     656.1379  0.031173408  0.031055345            5 
 1755000   0.98213323   -6.7783311    658.48564  0.031267125   0.03104863            2 
 1756000   0.98530752   -6.8215519    656.66727  0.031163025  0.031041854            3 
 1757000   0.97558856   -6.8197054    657.53022  0.031186218  0.031035057            8 
 1758000    0.9585876   -6.8205717    656.22046  0.031106392  0.031028226            4 
 1759000   0.96624872   -6.8274147    657.02145  0.031126656  0.031021366            5 
 1760000   0.96902899   -6.8349871    655.40202  0.031032293  0.031014402            5 
 1761000   0.94486907   -6.8648023    655.37463  0.031013375  0.031007358            4 
 1762000   0.96447189   -6.8841518    655.23205   0.03098903  0.031000305            4 
 1763000   0.98877995   -6.8055701     658.0404  0.031104197  0.030993244            6 
 1764000   0.95755026    -6.879009    654.19566  0.030904935  0.030986186            4 
 1765000   0.97607287   -6.8615282    657.52263  0.031044506  0.030979038           10 
 1766000   0.96289058   -6.8488792    657.10748  0.031007337  0.030971905            6 
 1767000   0.96790522   -6.8688016    657.87243  0.031025865  0.030964785            4 
 1768000   0.97726891   -6.8446093    658.47451  0.031036694  0.030957767            4 
 1769000   0.97059849   -6.8163758    658.69804   0.03102968  0.030950723            4 
 1770000    0.9645272   -6.8665287    656.93908  0.030929335  0.030943636            4 
 1771000   0.96630898   -6.8391654     658.5727   0.03098874  0.030936525            7 
 1772000    0.9762961   -6.8480199    656.84903  0.030890191   0.03092941            7 
 1773000    0.9674706   -6.8585978    658.04663  0.030929057  0.030922483            5 
 1774000   0.95184834   -6.8727167    658.77664  0.030945915  0.030915509            4 
 1775000   0.96136873   -6.8528458    659.97859   0.03098491  0.030908517            3 
 1776000   0.96134117   -6.8399278    660.78641  0.031005368  0.030901504            4 
 1777000   0.97069382   -6.8440598    658.11991  0.030862873  0.030894443            3 
 1778000   0.97165322   -6.8443645    659.95045  0.030931311  0.030887342            3 
 1779000    0.9785463   -6.8585744     659.7164   0.03090296  0.030880205            4 
 1780000   0.94467936   -6.8300993    659.52237  0.030876515   0.03087312            2 
 1781000   0.95844438   -6.8515181    659.81368  0.030872809  0.030866035            3 
 1782000   0.94456656    -6.863811    660.22641  0.030874785  0.030858982            4 
 1783000   0.94097164   -6.8238568    661.75047    0.0309287  0.030851904            3 
 1784000   0.95923805   -6.8617934    661.46894  0.030898213  0.030844946            5 
 1785000   0.98057876    -6.861441    661.35908  0.030875774  0.030837866            5 
 1786000   0.96245843   -6.8437124    660.17256  0.030803124  0.030830777            5 
 1787000   0.96898294   -6.8649116    661.34567  0.030840593  0.030823712            7 
 1788000    0.9557037   -6.8414882    661.46335  0.030828829  0.030816672            4 
 1789000   0.96483873   -6.8640494    662.60539  0.030864794  0.030809607            8 
 1790000   0.97591455   -6.8828376    660.75767   0.03076153  0.030802477            4 
 1791000   0.97719975    -6.868871    662.25812  0.030814169  0.030795414            4 
 1792000   0.97215287   -6.8202314     663.8114  0.030869205  0.030788307            4 
 1793000   0.96690691    -6.911229    661.91481  0.030763841  0.030781179            3 
 1794000   0.94819263   -6.8493239    663.09116  0.030801336  0.030774003            7 
 1795000    0.9647356   -6.8615649    662.19522  0.030742582  0.030766911            4 
 1796000   0.94328669   -6.8868406    662.01332  0.030717025  0.030759871            3 
 1797000   0.95307909   -6.8796088    662.87582  0.030739928  0.030752857            3 
 1798000   0.95532086   -6.8389896    662.82015  0.030720252  0.030745809            3 
 1799000   0.96234025   -6.8349177    665.98232  0.030849653  0.030738759           11 
 1800000   0.94999955   -6.8663532    664.79393  0.030777497  0.030731808            3 
 1801000   0.96271024   -6.8386141    666.22917  0.030826817  0.030724846            6 
 1802000   0.96572262   -6.8493474    664.32597  0.030721697  0.030718005            2 
 1803000   0.96662709    -6.871479     667.3006  0.030842143  0.030710994            5 
 1804000   0.95817152   -6.8551012    667.26448  0.030823378  0.030704031            2 
 1805000   0.96355629    -6.829448    668.37776  0.030857699  0.030697141            4 
 1806000   0.93395243   -6.8362942     666.7174     0.030764  0.030690131            2 
 1807000   0.94882055   -6.8789424    665.64917  0.030697711  0.030683166            4 
 1808000   0.94093826   -6.8758359    667.51391  0.030766681  0.030676184            4 
 1809000   0.97661629   -6.8293732    667.40823  0.030744805  0.030669198            4 
 1810000   0.94509173   -6.8204515    667.31588  0.030723567   0.03066227            3 
 1811000   0.97088827   -6.8610945    665.41303  0.030619042  0.030655188           12 
 1812000   0.97600293   -6.8676901    668.90309  0.030762651  0.030648185            3 
 1813000   0.95446305   -6.8314177    669.23056  0.030760736  0.030641142            3 
 1814000   0.97512396   -6.8092074    668.48045  0.030709319   0.03063418            8 
 1815000   0.98611239   -6.8795425    666.67395  0.030609456  0.030627162            2 
 1816000   0.96239268   -6.8758803     670.1036  0.030749982   0.03062023            3 
 1817000   0.95988819   -6.8448925     669.4158  0.030701514   0.03061329            2 
 1818000   0.96270684    -6.881437    668.96015   0.03066374   0.03060642            4 
 1819000   0.98101663   -6.8697223    670.68029  0.030725687  0.030599491           10 
 1820000   0.96058774   -6.8504124    669.01134  0.030632387  0.030592637            2 
 1821000   0.94965642    -6.843443    672.09463  0.030756664  0.030585805            8 
 1822000   0.96566949   -6.8905778     669.6669  0.030628746  0.030578903            3 
 1823000   0.95371608   -6.8743613    669.93391   0.03062415   0.03057202            3 
 1824000    0.9591921    -6.849652     672.4697  0.030723213  0.030565108            3 
 1825000   0.96112295   -6.8937372    670.60652  0.030621302  0.030558205            4 
 1826000   0.99009333   -6.8333299    671.38229  0.030639936  0.030551304            9 
 1827000   0.95576714   -6.8269616    672.29517  0.030664804  0.030544497            4 
 1828000   0.94119318   -6.8577245    670.67961  0.030574381  0.030537702            2 
 1829000   0.98181847   -6.8608314    672.60272  0.030645285  0.030530895            4 
 1830000   0.94809754   -6.8645255    671.72114  0.030588394  0.030524025            2 
 1831000   0.97854088   -6.8493296    673.68854   0.03066123  0.030517193            5 
 1832000   0.94192156    -6.869193    673.03192  0.030614625  0.030510296            4 
 1833000   0.95149114   -6.8852192    673.69293  0.030627975  0.030503431            3 
 1834000   0.97034962   -6.8614738    673.56577  0.030605496   0.03049667            4 
 1835000   0.95660376   -6.8740727    675.14255  0.030660425  0.030489904            6 
 1836000    0.9531902   -6.8502527    676.27763  0.030695245  0.030483118            4 
 1837000   0.94428789   -6.8478034    676.36345  0.030682428  0.030476393            3 
 1838000   0.95538108   -6.8924049    674.37764    0.0305757  0.030469629           14 
 1839000    0.9634426   -6.8736979    675.93572  0.030629678  0.030462925            3 
 1840000   0.94564089   -6.8920179    675.55631  0.030595847  0.030456263            4 
 1841000   0.96388336   -6.8420254    674.36192  0.030525164  0.030449486            3 
 1842000   0.96058064   -6.9011989    674.95657  0.030535495  0.030442649            4 
 1843000   0.95345825   -6.8514506     675.3736  0.030537782  0.030435843            9 
 1844000   0.97422987   -6.8446118    674.37739  0.030476201  0.030428973            7 
 1845000   0.97795059   -6.8673796    676.70931  0.030565009  0.030422093            3 
 1846000   0.96001786   -6.8230844    677.11949  0.030566969   0.03041517            3 
 1847000   0.94444465   -6.8672159    676.03591   0.03050153  0.030408243            5 
 1848000   0.95652302   -6.8704228    675.08898  0.030442324  0.030401307           10 
 1849000   0.96704064   -6.8566782    675.33898  0.030437127   0.03039432           10 
 1850000    0.9758484   -6.8638605    677.04645  0.030497588  0.030387286           12 
 1851000   0.95273874   -6.8687765     675.1268  0.030394688  0.030380317            3 
 1852000   0.95179898   -6.8579795     677.7858  0.030497921  0.030373394            7 
 1853000   0.95846515   -6.8754527    675.55016  0.030380921  0.030366518            5 
 1854000   0.95272182   -6.8284303    677.22185  0.030439673  0.030359535            4 
 1855000   0.98194467   -6.8819738    674.77313  0.030313258   0.03035254            7 
 1856000   0.94804898   -6.8719669    677.47652  0.030418306  0.030345539            4 
 1857000    0.9310835   -6.8995988    676.39411  0.030353352  0.030338463            8 
 1858000   0.95098289   -6.9015005    677.22153  0.030374127  0.030331521            4 
 1859000   0.93923441   -6.8504387    679.86406  0.030476244  0.030324524            6 
 1860000    0.9430569   -6.8908993    677.91071  0.030372344  0.030317761            4 
 1861000   0.96159675   -6.8655165    678.98738  0.030404235  0.030310819            3 
 1862000   0.98280917   -6.8818089    678.07036  0.030346865  0.030303915            3 
 1863000    0.9683247   -6.9107421    679.33581  0.030387181  0.030296994            2 
 1864000   0.96140719   -6.9281321    677.76964   0.03030086  0.030289996            3 
 1865000   0.93807862   -6.9143138    679.07916  0.030343126  0.030282961            3 
 1866000   0.95883817   -6.8744686    678.94056  0.030320675  0.030275915            8 
 1867000   0.96881105   -6.8594052    679.61002  0.030334316   0.03026893            3 
 1868000   0.93955204    -6.879178    678.88892  0.030285908  0.030262051            4 
 1869000   0.94458732   -6.8553774    681.09967  0.030368275  0.030255086            2 
 1870000   0.95486457   -6.8692758    679.62989  0.030286537  0.030248224            5 
 1871000   0.95913406   -6.9017838    681.42305  0.030350216  0.030241312            2 
 1872000   0.95709718    -6.878898    679.87403  0.030265048  0.030234359            4 
 1873000   0.95112066   -6.8767051    680.36515   0.03027074  0.030227441            4 
 1874000   0.95727682   -6.8856029    680.63149  0.030266431  0.030220442            6 
 1875000   0.94748125   -6.8747362    682.00253  0.030311223  0.030213581            2 
 1876000   0.96209798    -6.864429    681.65292  0.030279536    0.0302067            5 
 1877000   0.94569965   -6.8899691    680.43434  0.030209303  0.030199828            7 
 1878000    0.9622959   -6.8766794    682.38676  0.030279853  0.030192868           13 
 1879000   0.94357238   -6.9058859    683.06359  0.030293755   0.03018583            3 
 1880000   0.96650402   -6.8573646    683.44077   0.03029436  0.030178873            5 
 1881000   0.95983436   -6.8951126    682.55356  0.030238949  0.030171898            7 
 1882000   0.94293606   -6.8229465    683.09459  0.030246838  0.030164955            5 
 1883000   0.96879715   -6.8902796    681.09073  0.030142093  0.030158041            5 
 1884000   0.95239434   -6.8800715    681.85927  0.030160088  0.030151114            5 
 1885000    0.9407745   -6.8704604     681.5785  0.030131676  0.030144219            5 
 1886000   0.96353075    -6.868568    683.91775  0.030219059  0.030137345            4 
 1887000   0.93241075   -6.8917535    683.33688  0.030177393  0.030130358            3 
 1888000   0.96127721   -6.8907117    683.46661  0.030167135  0.030123396            9 
 1889000   0.92984462   -6.8827646     683.4641  0.030151054  0.030116538            3 
 1890000    0.9662502   -6.9092374    685.87191  0.030241266  0.030109766            3 
 1891000   0.95292113   -6.8605566    688.27554  0.030331198  0.030103011            8 
 1892000    0.9451211   -6.8989769     684.6189  0.030154109  0.030096266            3 
 1893000   0.95677754    -6.902134    685.53375  0.030178454  0.030089334            8 
 1894000   0.95171684   -6.9061414    686.09015     0.030187  0.030082492            4 
 1895000   0.92448826   -6.8564608    688.46213   0.03027538  0.030075777            5 
 1896000   0.93995666   -6.8818929    687.85327  0.030232651   0.03006912            3 
 1897000   0.94404676   -6.8753186    689.60799  0.030293797  0.030062491            5 
 1898000   0.94399841   -6.8939177    687.67182  0.030192827  0.030055938            4 
 1899000   0.94472641   -6.9062833    687.77005  0.030181238  0.030049315            7 
 1900000   0.95738702   -6.8954191     689.1807  0.030227224  0.030042597            4 
 1901000    0.9553583   -6.8875209    688.86018  0.030197272  0.030035925            4 
 1902000   0.95830289   -6.8920818     688.4868  0.030165037   0.03002915            4 
 1903000    0.9423622   -6.8876683    688.98998   0.03017122  0.030022372            4 
 1904000   0.95802555   -6.8528343    690.64854  0.030227965  0.030015693            2 
 1905000   0.96904729   -6.8920555    687.19723  0.030061121  0.030009006            3 
 1906000   0.92723071   -6.8744864    690.89978  0.030207231  0.030002322            6 
 1907000   0.94593503   -6.8976697    688.75216  0.030097542  0.029995674            4 
 1908000    0.9475312    -6.897245    688.19519  0.030057442  0.029988974            6 
 1909000   0.94308623   -6.9055409    689.56211  0.030101367  0.029982208            6 
 1910000   0.94384854   -6.8862313    688.96717   0.03005965  0.029975516            3 
 1911000   0.93368144   -6.8896621    688.39759  0.030019082   0.02996884            2 
 1912000   0.94963515    -6.851701    691.07355  0.030120012  0.029962278            6 
 1913000   0.93531472   -6.8900388    691.98572  0.030144003  0.029955655            5 
 1914000   0.93204272   -6.8655177    691.00166  0.030085408  0.029948978            6 
 1915000   0.97639929   -6.9214794    687.78386  0.029929672   0.02994215            6 
 1916000   0.95710446   -6.8834507    691.42475  0.030072406  0.029935435            6 
 1917000   0.95667984   -6.8907659    692.34013   0.03009651  0.029928703            6 
 1918000   0.94743562   -6.8904957    692.46042  0.030086045  0.029921928            5 
 1919000   0.94295834   -6.8635248    691.38583  0.030023703  0.029915216            2 
 1920000    0.9373697   -6.9020502    692.92774  0.030074989   0.02990845            6 
 1921000   0.93425384   -6.9198685    689.98241  0.029931564  0.029901718            7 
 1922000   0.95733742   -6.9094976     692.3422  0.030018305  0.029894968            5 
 1923000   0.92295348   -6.9079724    693.61063  0.030057663  0.029888245           12 
 1924000   0.94595816   -6.9184311    693.60834  0.030041941  0.029881582            1 
 1925000   0.94996246   -6.9043785    694.28085  0.030055448   0.02987493            4 
 1926000   0.93602356   -6.8930432    694.65973  0.030056236  0.029868409            4 
 1927000   0.96044893   -6.8823368    695.00854  0.030055723  0.029861814            4 
 1928000   0.95031109    -6.919273    695.73126  0.030071372  0.029855188            6 
 1929000   0.93241838   -6.8992193    696.21451  0.030076659  0.029848573            5 
 1930000   0.95022742   -6.9146823    694.64533  0.029993321  0.029841961            2 
 1931000   0.92872917   -6.8819559     693.6074  0.029932997  0.029835331            3 
 1932000   0.92829408   -6.8904664    696.88235  0.030058762  0.029828551            4 
 1933000   0.93523535   -6.8524648    694.75129   0.02995134  0.029821826            4 
 1934000   0.94062301   -6.8976336    695.08866   0.02995039  0.029815097            3 
 1935000   0.92211439   -6.8783494    696.47981  0.029994824  0.029808378            3 
 1936000   0.95079435   -6.9074925    696.77706  0.029992126  0.029801788            4 
 1937000   0.94156343   -6.8903693      696.197  0.029951687  0.029795138            4 
 1938000   0.94676947   -6.9235511    695.33027  0.029898962  0.029788402            3 
 1939000   0.94184456   -6.9030037    694.66295  0.029854863  0.029781708            4 
 1940000   0.93343301   -6.8940819    695.35332  0.029869129  0.029775027            6 
 1941000    0.9446957   -6.9104319    697.62465  0.029951256  0.029768396            2 
 1942000   0.94150179   -6.9104447    696.55141  0.029889779  0.029761742            3 
 1943000   0.93580627   -6.9060757    697.20063   0.02990224  0.029755167            4 
 1944000   0.93332273   -6.9057582    698.25814   0.02993219  0.029748654            4 
 1945000   0.92985455   -6.9056447    698.89215  0.029943965  0.029742159            2 
 1946000   0.94580288   -6.8661695    698.28401  0.029902535  0.029735633            4 
 1947000   0.95582373   -6.9102695    699.24204  0.029928182  0.029729102            8 
 1948000    0.9404108   -6.8848795    699.74167  0.029934192  0.029722543            5 
 1949000   0.93598149   -6.8755341    699.07718  0.029890421  0.029715965            6 
 1950000   0.93809986   -6.9185993    698.35769  0.029844346  0.029709375            6 
 1951000   0.95895016   -6.9032268    699.38635  0.029872986  0.029702765           11 
 1952000   0.93140719   -6.8723688    701.63459  0.029953663  0.029696264            3 
 1953000   0.95181964   -6.9058817    699.69841   0.02985571  0.029689784            5 
 1954000   0.94550284    -6.894714    700.93347  0.029893103  0.029683317            6 
 1955000   0.92947885   -6.9404993    699.06465  0.029798152  0.029676733            7 
 1956000   0.92804861   -6.9233577    699.23784  0.029790296  0.029670118            6 
 1957000   0.94292157   -6.8787235    702.11212  0.029897467  0.029663596            3 
 1958000   0.91131002   -6.9083733    700.34526  0.029806999  0.029657124            6 
 1959000   0.93590488   -6.8960614    700.16144  0.029783964  0.029650589            4 
 1960000   0.92443525   -6.8698679    702.28837  0.029859199  0.029644085            4 
 1961000   0.95025589    -6.925115    701.59068  0.029814324  0.029637585            7 
 1962000   0.94199589   -6.8869361    701.05375  0.029776323  0.029631106            6 
 1963000   0.94573984    -6.881158    703.69522   0.02987329  0.029624607            3 
 1964000   0.95848787   -6.9134773    703.98872  0.029870533  0.029618185           14 
 1965000   0.93643454   -6.9335231    702.01529  0.029771641  0.029611691            5 
 1966000   0.92995779   -6.9121234    704.31536  0.029853991  0.029605244            7 
 1967000   0.96010276   -6.8929908    704.46488  0.029845148  0.029598763            3 
 1968000   0.94383265   -6.8915515    703.73936  0.029799261  0.029592305            5 
 1969000   0.93792759   -6.9294668    703.00242  0.029752938  0.029585763            6 
 1970000   0.93757305   -6.9072125    704.86139  0.029816471  0.029579306            5 
 1971000   0.92857612   -6.8949544    705.76889  0.029839713  0.029572882            2 
 1972000   0.93779904   -6.9000042    705.12559  0.029797397  0.029566477            8 
 1973000   0.93360432   -6.9060263    705.30012  0.029789665  0.029560194            2 
 1974000   0.91892898   -6.9045103    705.55084  0.029785159  0.029553799            3 
 1975000   0.94406719   -6.9175198    706.73118  0.029819881   0.02954743            3 
 1976000   0.94995977    -6.905878    706.45944   0.02979333  0.029541176            4 
 1977000   0.96990565   -6.9235448    707.63058  0.029827625  0.029534902            4 
 1978000   0.93282287   -6.9187287    707.95165  0.029826072   0.02952859            9 
 1979000   0.97207394   -6.9174775      705.538  0.029709365  0.029522259            6 
 1980000   0.94632092   -6.9067461     708.7602  0.029829975  0.029516015            3 
 1981000   0.93440257   -6.8902142    707.71805  0.029771077  0.029509692            4 
 1982000   0.92529852   -6.9224831    707.15064    0.0297322  0.029503399            5 
 1983000   0.90283017   -6.8915357    709.49425  0.029815694  0.029497049            4 
 1984000    0.9256652   -6.9057279    710.30239   0.02983461   0.02949074            6 
 1985000   0.92967921   -6.8939543    709.09188  0.029768761  0.029484503            5 
 1986000   0.93585148   -6.8750247    708.60616   0.02973339  0.029478273            5 
 1987000   0.95207324   -6.8727091    710.23597  0.029786779  0.029472131            5 
 1988000   0.92264097   -6.9105011    710.40272  0.029778786  0.029465917            4 
 1989000   0.91498131   -6.9006997    710.75128  0.029778418  0.029459642            3 
 1990000   0.94644684   -6.8767825    711.84645  0.029809315  0.029453344            6 
 1991000   0.93794175   -6.9361207     708.5018  0.029654353  0.029447081            5 
 1992000   0.93026799   -6.9278312    711.00303  0.029744103  0.029440749            4 
 1993000   0.95049443   -6.9182401     708.1919  0.029611637  0.029434422            7 
 1994000   0.93828867   -6.9100398    711.28022  0.029725854  0.029428006            7 
 1995000   0.92711021   -6.9298412    709.12845  0.029621071  0.029421594            2 
 1996000   0.95952815   -6.9224882    708.83878  0.029594138  0.029415146            8 
 1997000   0.91541827   -6.9168007    711.76981  0.029701628  0.029408708            4 
 1998000   0.91824379   -6.9277746    710.75817  0.029644568  0.029402304            6 
 1999000    0.9367619   -6.8690869    710.29693  0.029610511  0.029395968            2 
 2000000   0.93114867   -6.8889478    712.90848   0.02970452  0.029389566            5 
 2001000   0.96297292   -6.9289997    711.48945  0.029630579  0.029383201            4 
 2002000   0.92805639   -6.9112901    710.78966  0.029586649  0.029376732            7 
 2003000   0.92781058   -6.8891539    709.15059  0.029503686  0.029370202            8 
 2004000   0.91254364    -6.928595    709.50681  0.029503776   0.02936368            5 
 2005000   0.92961561    -6.909042    711.01535   0.02955176  0.029357242            4 
 2006000   0.93183808   -6.9240013    710.36924  0.029510188   0.02935066            3 
 2007000   0.94032655   -6.9358968     709.6286  0.029464732  0.029344092            4 
 2008000   0.92733831   -6.9088651    711.61437  0.029532469  0.029337501            6 
 2009000   0.93363865   -6.9262703    708.88139  0.029404405  0.029330889           10 
 2010000   0.90480202    -6.885079    710.38137  0.029451964  0.029324362            3 
 2011000   0.92216608   -6.9196548    712.11659  0.029509224   0.02931786           11 
 2012000   0.93212462   -6.9252372    710.79051  0.029439634  0.029311296            3 
 2013000   0.93171391   -6.9240495    712.58143  0.029499148  0.029304652            8 
 2014000   0.93213001   -6.9186046    711.12586  0.029424274  0.029298012           12 
 2015000   0.94502321   -6.9364555    712.11943  0.029450762  0.029291349            4 
 2016000    0.9236023   -6.9092053    712.85828  0.029466695  0.029284724            4 
 2017000   0.94424851   -6.9197505    711.57813  0.029399196  0.029278144            3 
 2018000   0.92981883    -6.919313    711.21569   0.02936966  0.029271562            3 
 2019000   0.94849247   -6.9139074     714.5853  0.029494193  0.029264951            8 
 2020000    0.9177062   -6.9279293    713.80302  0.029447319  0.029258399            3 
 2021000   0.93992612   -6.9450439    714.91933  0.029478778  0.029251827            3 
 2022000   0.92387188   -6.9344632    715.87454  0.029503567  0.029245238            3 
 2023000   0.92930191   -6.9087337    716.59952  0.029518846  0.029238715            5 
 2024000   0.95312022   -6.9261334    715.33681  0.029452273  0.029232287            5 
 2025000    0.9340267   -6.8994969    716.49029  0.029485197  0.029225837           10 
 2026000   0.94786499   -6.9032601    717.48974  0.029511753  0.029219408            5 
 2027000   0.94236326   -6.9146433    716.15029  0.029442127  0.029212975            4 
 2028000   0.91829362    -6.913975    717.23664  0.029472248  0.029206514            2 
 2029000   0.92954779   -6.9380264    714.23669  0.029334512  0.029199999            5 
 2030000   0.92076571   -6.9150137    715.92963  0.029389558  0.029193497            2 
 2031000   0.94976168   -6.9250352    715.79953  0.029369749  0.029187045           14 
 2032000   0.92002392   -6.9165154    716.41748  0.029380638  0.029180563            4 
 2033000   0.93097017   -6.9074484    716.81824  0.029382614  0.029174045            4 
 2034000   0.94134147   -6.9282244    716.15448  0.029340974  0.029167464            6 
 2035000    0.9153282   -6.8836186    718.80439  0.029435069  0.029160935            5 
 2036000   0.92023468   -6.9208321    715.72123  0.029294418  0.029154471            5 
 2037000   0.93250956   -6.9332505    718.08995  0.029376941  0.029147935            3 
 2038000   0.94125384   -6.9068797    717.31793  0.029330959  0.029141463            2 
 2039000   0.93004944   -6.8944017    718.57435  0.029367924  0.029134943            5 
 2040000   0.91843998   -6.9143104     717.1533  0.029295478  0.029128478            5 
 2041000   0.94054785    -6.972813    718.49401  0.029335865  0.029121927            2 
 2042000   0.92714991   -6.9517533    719.25352  0.029352494  0.029115398            3 
 2043000   0.92926252   -6.9402724      718.494  0.029307146  0.029108828            3 
 2044000   0.91918355   -6.8882288    719.55312  0.029335988  0.029102459            9 
 2045000   0.91677906   -6.9308946    721.13293   0.02938602  0.029096153           12 
 2046000   0.91782757   -6.9158176    719.65763  0.029311569  0.029089719            5 
 2047000   0.93424993   -6.9375438    720.14801  0.029317213  0.029083291            3 
 2048000   0.92193767   -6.9312669    718.42865  0.029232937  0.029076816            4 
 2049000   0.92086208   -6.8958914    720.05242  0.029284709  0.029070355            3 
 2050000   0.92252119   -6.9348131    719.88783  0.029263733  0.029063929            8 
 2051000    0.9198841   -6.8994067    721.73941  0.029324696  0.029057507            3 
 2052000    0.9258594   -6.9392262    718.72654   0.02918805  0.029050989            4 
 2053000   0.93196978   -6.9259552     720.1949  0.029233435  0.029044398            4 
 2054000   0.92655753   -6.9675106    718.19842  0.029138203   0.02903778            3 
 2055000   0.93051209   -6.9412245    722.17208  0.029285161  0.029031245            4 
 2056000   0.94276509   -6.9509707    720.04333  0.029184635  0.029024753            3 
 2057000   0.91908064   -6.9475111    722.86958  0.029284945  0.029018215           12 
 2058000   0.92566867    -6.932063    721.71987   0.02922416  0.029011725            7 
 2059000   0.93326447   -6.9452846    722.23501  0.029230816  0.029005193            4 
 2060000   0.94473674   -6.9334466    724.18867  0.029295658  0.028998755            4 
 2061000   0.91820851   -6.9087033    723.63819  0.029259186  0.028992348            3 
 2062000    0.9187919    -6.946491    724.51987  0.029280629  0.028985859            4 
 2063000   0.94151104   -6.9286666    720.69494   0.02911193  0.028979397            8 
 2064000   0.92903587   -6.9456029    721.03265   0.02911146  0.028972865            7 
 2065000   0.93495677   -6.9497929    723.38933  0.029192467  0.028966365            4 
 2066000    0.9078273   -6.9458328    722.35557  0.029136639  0.028959824            4 
 2067000   0.91117032   -6.9420885    723.57729  0.029171799  0.028953315            4 
 2068000   0.93049227    -6.937933    724.88416  0.029210355  0.028946877            4 
 2069000   0.90285139   -6.9566652     725.0249  0.029201905  0.028940501            8 
 2070000   0.90604976   -6.9225879    724.24563  0.029156426  0.028934076            2 
 2071000    0.9199246   -6.9332658    723.98441  0.029131837  0.028927654            2 
 2072000   0.91239708   -6.9335276    724.31091  0.029130909  0.028921207            5 
 2073000   0.92323685   -6.9556164    724.06923  0.029107141  0.028914739            6 
 2074000   0.90569822   -6.9604806    722.28627  0.029021467  0.028908296            7 
 2075000   0.91915916   -6.9472948    722.65561  0.029022314  0.028901708            3 
 2076000   0.92345446   -6.9523839    725.38001  0.029117695  0.028895202            7 
 2077000   0.92549701   -6.9160129    727.19155  0.029176358  0.028888792           16 
 2078000   0.92416342   -6.9219527    727.22469  0.029163646  0.028882446            3 
 2079000   0.91569387   -6.9276506    725.29375   0.02907222  0.028876089            4 
 2080000   0.92097973   -6.9427138    725.61946  0.029071293  0.028869662            6 
 2081000   0.91616356   -6.9524046    727.04686  0.029114483  0.028863206            4 
 2082000   0.91306039   -6.9373157    727.83311  0.029131969  0.028856856            7 
 2083000   0.92463571   -6.9411207    726.57922   0.02906782  0.028850458            9 
 2084000   0.90086693   -6.9299453    726.95082  0.029068731  0.028844046            3 
 2085000   0.91738011   -6.9422474     726.3378  0.029030288  0.028837761            2 
 2086000   0.91646543   -6.9275828    727.07314  0.029045747  0.028831371            6 
 2087000    0.9239181    -6.937729     726.9054  0.029025132  0.028825005            5 
 2088000   0.90365315   -6.9757423    727.43823  0.029032496  0.028818594           12 
 2089000   0.92109884   -6.9394594     727.2839  0.029012442   0.02881212            2 
 2090000   0.91039284   -6.9131135    727.26895  0.028997965  0.028805729            5 
 2091000   0.91796825   -6.9896132    728.13869  0.029018758  0.028799325            6 
 2092000   0.91226494   -6.9205879    728.92579  0.029036241  0.028792864            5 
 2093000   0.92754257   -6.9831436    726.56071  0.028928201  0.028786399            4 
 2094000    0.9207015   -6.9674155    728.48863  0.028991111  0.028779892            3 
 2095000   0.92229545   -6.9261957    729.10347  0.029001729  0.028773463            9 
 2096000   0.92083465   -6.9614768     726.9926  0.028903968  0.028766997            3 
 2097000   0.90859465   -6.9532306     729.4389  0.028987399  0.028760534            5 
 2098000   0.91936225    -6.960774    730.03284  0.028997174  0.028754051            3 
 2099000   0.92474588   -6.9542461    728.31428  0.028915129  0.028747545            3 
 2100000   0.90885776   -6.9449887    727.59924  0.028872986   0.02874097            4 
 2101000   0.92875998   -6.9501133    730.26281   0.02896489  0.028734463            3 
 2102000   0.90939631   -6.9412352     730.3448  0.028954361  0.028727948            7 
 2103000   0.92159541   -6.9519589    729.64445  0.028912841  0.028721521            7 
 2104000   0.90374882   -6.9392065    730.68906  0.028940473  0.028715013            6 
 2105000    0.9234365   -6.9561133    727.44994  0.028798493  0.028708495            5 
 2106000   0.92141465   -6.9529087    728.72169  0.028835141  0.028701923            3 
 2107000    0.9403603   -6.9334409    729.87731  0.028867161  0.028695386            3 
 2108000    0.9328193   -6.9525584    731.56678  0.028920255  0.028688822            5 
 2109000   0.94408966   -6.9508971    730.21138  0.028852986  0.028682258            9 
 2110000   0.92557242   -6.9329907    731.71208  0.028898581  0.028675687            2 
 2111000   0.92007986   -6.9721499    730.55638   0.02883927  0.028669106            6 
 2112000   0.92627046   -6.9584722    731.27815  0.028854094  0.028662498            5 
 2113000   0.90282995   -6.9665129    729.17149  0.028757355  0.028655869            3 
 2114000   0.91347848   -6.9732755    729.92979  0.028773644  0.028649199            3 
 2115000   0.91242742    -6.970876    730.18003  0.028769899  0.028642561            4 
 2116000   0.91340631   -6.9661211    730.42516  0.028765956  0.028635906            7 
 2117000   0.91233654   -6.9467652    730.30705  0.028747719  0.028629346            2 
 2118000   0.91748162   -6.9563703    734.06345  0.028881942  0.028622817            3 
 2119000   0.93259688   -6.9693675    729.92476  0.028705551  0.028616296            2 
 2120000   0.92100987    -6.946099    732.01384  0.028774129  0.028609688            5 
 2121000   0.92593163   -6.9644525    731.47444   0.02873937   0.02860305            2 
 2122000   0.90563947    -6.952905    732.41408  0.028762727  0.028596586            2 
 2123000   0.91415545   -6.9598191    733.82598    0.0288046  0.028590119            7 
 2124000   0.91187754   -6.9955306    732.36927  0.028733885  0.028583557            3 
 2125000   0.90797575   -6.9273559    734.99011  0.028823142  0.028576975            3 
 2126000   0.91346466   -6.9594424    734.66989  0.028797033  0.028570366            5 
 2127000   0.92761556   -6.9782176    730.79964  0.028631862  0.028563749            3 
 2128000   0.92703005   -6.9499139    734.15763  0.028749907  0.028557232            7 
 2129000   0.89423016   -6.9549456    733.30154  0.028702894  0.028550698            3 
 2130000   0.89737432   -6.9566231    733.19121  0.028685102  0.028544115            2 
 2131000   0.89379926   -6.9230238    734.25145  0.028713102   0.02853754            6 
 2132000   0.92843609   -6.9396162    733.87965  0.028685102  0.028531035            4 
 2133000   0.89330667   -6.9801462    732.16604  0.028604705  0.028524338            3 
 2134000   0.89238937   -6.9452938    733.88358  0.028658372  0.028517722            3 
 2135000   0.89221403   -6.9665133    734.76844  0.028679486  0.028511077           10 
 2136000    0.9000966   -6.9324376    734.55591  0.028657768  0.028504368           10 
 2137000   0.94706152   -6.9852111    733.60552  0.028607297  0.028497718            4 
 2138000   0.92715572   -6.9565972     733.9314  0.028606618  0.028491032            7 
 2139000   0.90869301   -6.9686218    735.92812  0.028671035  0.028484337            3 
 2140000   0.89216655   -6.9705641    735.15236  0.028627429  0.028477595            4 
 2141000   0.89454977   -6.9653481    733.55752  0.028551982  0.028470926            7 
 2142000   0.88631378   -6.9562185    734.36289  0.028569985  0.028464329            7 
 2143000   0.91739503   -6.9855533    732.99959   0.02850364  0.028457707            8 
 2144000   0.89522396   -6.9775335    736.53849  0.028627895  0.028451089            6 
 2145000   0.88897419   -6.9570231    736.15636  0.028599703  0.028444399            4 
 2146000   0.90246414   -6.9595961    735.48326  0.028560238  0.028437756            5 
 2147000   0.91433753   -6.9475602    737.99033  0.028644245  0.028431161            3 
 2148000   0.91256957   -6.9544088    737.71269  0.028620138  0.028424561            4 
 2149000   0.90793748   -6.9588338    735.43219  0.028518388  0.028417929            6 
 2150000   0.90028589   -6.9802572    736.41264  0.028543126  0.028411281            5 
 2151000   0.91472942   -6.9784721    734.54598  0.028457538  0.028404659            5 
 2152000   0.90125181   -6.9758309    735.27207  0.028472431  0.028398049           12 
 2153000   0.91567306   -6.9710135    737.07163   0.02852886  0.028391431            5 
 2154000   0.93013034   -6.9642989    736.75147  0.028503229  0.028384807            5 
 2155000   0.90037979   -6.9515087    737.85926  0.028532841   0.02837813            7 
 2156000   0.89758066   -6.9635525    738.53996  0.028545917  0.028371549           10 
 2157000   0.89833935   -6.9849912    738.64152  0.028536606  0.028364929            4 
 2158000    0.8897605    -6.967778    738.75751  0.028527862   0.02835833            4 
 2159000    0.9137577   -6.9680066    738.80003   0.02851629  0.028351627            5 
 2160000   0.93065399   -6.9456914     737.8523  0.028466524   0.02834493            8 
 2161000   0.90704443   -6.9655085    735.64289  0.028368151  0.028338212            7 
 2162000   0.93768872   -6.9817812    737.67138  0.028433217  0.028331455           10 
 2163000    0.9216565   -6.9300158    737.97399   0.02843173  0.028324785            3 
 2164000   0.89831799   -7.0033522    736.43059  0.028359157  0.028318105            5 
 2165000    0.8957049   -6.9875916    737.33513  0.028380875  0.028311356            8 
 2166000   0.88266482   -6.9495629    738.81938  0.028424876  0.028304605            6 
 2167000   0.90594637    -6.971628     737.1869  0.028348981  0.028297886            4 
 2168000   0.89312993   -6.9726164    738.73545  0.028395428   0.02829112            2 
 2169000   0.89647672   -6.9685336    737.61033  0.028339109  0.028284301            2 
 2170000   0.90020079   -6.9975017    738.70529  0.028368099  0.028277472            7 
 2171000   0.91473722   -6.9954173     736.9212   0.02828655  0.028270587            4 
 2172000   0.91773176   -6.9747693    739.28502   0.02836422  0.028263808            6 
 2173000   0.89131246   -6.9946098    739.12754  0.028345127  0.028256968            2 
 2174000   0.90302257   -6.9871047    740.22133  0.028374016  0.028250118            6 
 2175000   0.91898556   -6.9575065    741.08505  0.028394063   0.02824332            3 
 2176000   0.90540028    -6.965491     739.4047  0.028316663  0.028236522            5 
 2177000   0.91864167   -6.9470643    741.25474  0.028374473  0.028229725            3 
 2178000   0.88524029   -6.9910646    737.43945  0.028215467   0.02822289           10 
 2179000   0.89991742   -6.9456295    738.54119  0.028244653  0.028215955            5 
 2180000   0.91006536   -6.9785572    740.30134  0.028298981  0.028209033            3 
 2181000   0.91451031   -6.9652257    738.71883   0.02822554  0.028202103            6 
 2182000   0.90649669    -6.989052    739.66781  0.028248847  0.028195149            6 
 2183000   0.91305078   -6.9722095    738.29197  0.028183386  0.028188202            2 
 2184000   0.89811065   -7.0343745    739.43782  0.028214203  0.028181199            7 
 2185000   0.91634481   -6.9764506    737.35814  0.028121973  0.028174142            2 
 2186000   0.91394482   -6.9947233    738.44014  0.028150356  0.028167088            3 
 2187000   0.91442914   -6.9860301    738.14576  0.028126267  0.028160035            3 
 2188000   0.92644431   -6.9609253    739.66538   0.02817129  0.028152989            4 
 2189000   0.89731743    -6.957131    739.12292  0.028137769   0.02814604            5 
 2190000   0.90373868   -6.9287157    742.49496  0.028253233  0.028139052            2 
 2191000   0.89550061   -7.0167328    738.12437  0.028074105   0.02813209            5 
 2192000   0.89775034   -6.9727803    740.16325   0.02813881  0.028125051            3 
 2193000    0.8958753   -6.9817176     740.7025   0.02814647  0.028118117            5 
 2194000   0.90825156   -6.9658767    740.44597  0.028123897  0.028111089            6 
 2195000   0.90127733   -6.9701213    739.46809  0.028073959  0.028104052            4 
 2196000   0.88776909   -7.0003391     738.5891  0.028027819  0.028096935            7 
 2197000   0.90131224   -6.9836026    740.04464  0.028070272   0.02808992            8 
 2198000    0.8980508   -6.9623973    742.92619   0.02816675  0.028082905            4 
 2199000   0.91295771   -6.9891042    742.68189  0.028144683  0.028075926            7 
 2200000   0.90291271   -6.9903061    741.19284  0.028075486  0.028068928            5 
 2201000   0.89136933    -6.964326    742.40096  0.028108472  0.028061884            5 
 2202000   0.90712305   -6.9914654    740.65376  0.028029585  0.028054916            3 
 2203000   0.90321633   -6.9543917    742.42372  0.028083814   0.02804792            2 
 2204000   0.89653204   -7.0293184    740.95397  0.028015501  0.028040938            3 
 2205000   0.91745376   -6.9857049    743.54513  0.028100723  0.028034033            6 
 2206000   0.90233696   -6.9686195    743.31893   0.02807944  0.028027174            7 
 2207000   0.89566087   -6.9602906    744.13135  0.028097393  0.028020283            4 
 2208000   0.87844157   -6.9761498    744.18806  0.028086808  0.028013384            6 
 2209000   0.90569832   -6.9543714    745.78526  0.028134347  0.028006552            9 
 2210000   0.88834016   -6.9871847    744.88005  0.028087483  0.027999749            6 
 2211000   0.88625812   -6.9671954    746.22851  0.028125604   0.02799285            4 
 2212000   0.92182856   -6.9880417    744.50066  0.028047795   0.02798604            3 
 2213000   0.91366133   -6.9901292    745.53765   0.02807417  0.027979203            5 
 2214000   0.89868545   -6.9952251    744.16875  0.028009965  0.027972269            7 
 2215000   0.88007149   -6.9783025    744.06526  0.027993426  0.027965342            4 
 2216000   0.89534551   -7.0201357    743.67938  0.027966282  0.027958402            3 
 2217000   0.89593284   -6.9898179    744.73837  0.027993474  0.027951471            6 
 2218000   0.89020061   -7.0222386    745.53682  0.028010851  0.027944478            4 
 2219000   0.88564858   -6.9839225    743.64636  0.027927233  0.027937469            2 
 2220000   0.90928886   -6.9945987    745.25299  0.027974962  0.027930512           10 
 2221000   0.89650407   -7.0200772     745.0323  0.027954086  0.027923529            5 
 2222000   0.88703246   -7.0240518    744.92638  0.027937533  0.027916524            5 
 2223000   0.91154926   -7.0062238     745.0313  0.027928899  0.027909564           13 
 2224000   0.89808922   -7.0171688    744.90567  0.027911633  0.027902551            3 
 2225000   0.89489789   -7.0067997    745.37641  0.027916719  0.027895555            2 
 2226000    0.8881494   -6.9978755    747.59321  0.027987167  0.027888646           10 
 2227000   0.87270702   -7.0027847    746.64839  0.027939245  0.027881795            4 
 2228000   0.89140498   -6.9987116    747.69997  0.027966037  0.027874931            3 
 2229000   0.91608926   -6.9644412    747.66091   0.02795203  0.027868115            9 
 2230000    0.8969547   -6.9557068    748.56325  0.027973216  0.027861363            4 
 2231000   0.88989641   -6.9685186    750.93058  0.028049103  0.027854618            4 
 2232000   0.89198908   -6.9573889    749.04625  0.027966183  0.027847891            4 
 2233000   0.90083748   -6.9708482    748.99672  0.027951811  0.027841078            6 
 2234000    0.8959644   -6.9744156    749.42385  0.027955232  0.027834271            5 
 2235000   0.89981349   -7.0319101    748.22139  0.027897889  0.027827425            4 
 2236000   0.90016248   -6.9906406    749.18637  0.027921376  0.027820583            4 
 2237000   0.87714749   -7.0037757     747.1708   0.02783381   0.02781375            8 
 2238000   0.90822024   -6.9947797     749.2809  0.027899944  0.027806956            5 
 2239000   0.88947898   -6.9948238    749.29274  0.027887924  0.027800179            2 
 2240000   0.90212792   -6.9754406    748.89974  0.027860854  0.027793343           11 
 2241000   0.89961499   -7.0012573    749.60609  0.027874687  0.027786461            5 
 2242000    0.9059685   -6.9714563    749.94483  0.027874845  0.027779691           12 
 2243000   0.90278305    -6.945643    751.64726  0.027925667  0.027772929            5 
 2244000   0.88781798   -6.9780158    749.05586  0.027816988  0.027766219            5 
 2245000   0.89004851   -7.0008141    750.98401   0.02787617  0.027759416            4 
 2246000   0.87651453   -6.9525854    752.13882  0.027906605  0.027752648            6 
 2247000   0.89138026   -7.0122677    750.77327  0.027843542  0.027745842            4 
 2248000   0.89826395   -6.9933945    751.52368  0.027858974  0.027738991            4 
 2249000   0.89355936   -6.9904014    751.98686  0.027863749  0.027732156            4 
 2250000   0.89494995   -6.9913294    749.37707  0.027754706  0.027725287            6 
 2251000   0.89502885    -7.019017    748.90482  0.027724893  0.027718423            4 
 2252000   0.89594995   -7.0031177    751.05143  0.027792016  0.027711565            3 
 2253000   0.89934332   -7.0243208    749.38511  0.027718046   0.02770475            8 
 2254000   0.90504234   -6.9905459    750.84858  0.027759856  0.027697881            4 
 2255000   0.89598889   -7.0176881    750.99601  0.027752994  0.027691108            2 
 2256000   0.89858918   -7.0005778    750.15943   0.02770979  0.027684263            5 
 2257000   0.89925253   -6.9917777    750.88474  0.027724293   0.02767747            4 
 2258000   0.88635018   -7.0080379    752.71158  0.027779435  0.027670644            6 
 2259000   0.88664674   -7.0054746    752.38582  0.027755121   0.02766385            4 
 2260000   0.87854938    -6.977878    753.57343  0.027786631  0.027657077            9 
 2261000   0.89799531   -6.9799256    753.80222  0.027782774  0.027650286            5 
 2262000   0.90640393   -7.0042429    751.38553  0.027681459   0.02764353            4 
 2263000    0.8776548   -6.9786669    753.73941  0.027755907  0.027636755            6 
 2264000   0.89113114   -7.0139842    753.21731   0.02772443  0.027629984            4 
 2265000   0.87443895   -6.9809144    753.23018  0.027712663  0.027623263            3 
 2266000    0.9009825   -6.9823818     751.7121  0.027644605  0.027616511            9 
 2267000   0.88378135   -6.9995148    754.48692  0.027734411  0.027609772            5 
 2268000   0.87966311   -6.9687653    755.00997  0.027741401  0.027603047           12 
 2269000   0.87407999   -6.9839072    754.10907  0.027696087  0.027596311            6 
 2270000   0.87298226   -6.9894536    753.77572  0.027671649  0.027589644            3 
 2271000   0.87513589   -6.9955836    756.31267  0.027752556  0.027582929            7 
 2272000   0.90950802   -7.0089858    754.95151  0.027690416  0.027576199            3 
 2273000   0.89428097    -7.032075    754.39507  0.027657834  0.027569457            3 
 2274000   0.88011044   -6.9828142    754.55282  0.027651452  0.027562697            5 
 2275000   0.88744392   -6.9916863    753.58939  0.027604007  0.027556001            6 
 2276000   0.88959431    -7.036367     754.9431  0.027641443  0.027549259            8 
 2277000   0.87521028   -7.0022141    755.60209  0.027653422  0.027542474            6 
 2278000   0.89293055   -6.9982805    757.00872  0.027692739  0.027535763            2 
 2279000   0.87521238   -6.9906706    755.96897  0.027642569  0.027529023            5 
 2280000    0.8802596   -6.9871706     758.7546  0.027732259  0.027522301            5 
 2281000    0.9033587    -7.012291    757.06971  0.027658546  0.027515599            6 
 2282000   0.87499536   -7.0263861     755.1811  0.027577458  0.027508868            7 
 2283000   0.87553408   -7.0200464    756.22885  0.027603623  0.027502111            4 
 2284000   0.90576203   -7.0266161    758.49695   0.02767429  0.027495431            5 
 2285000   0.88742395   -6.9847741    755.56052  0.027555088  0.027488744           10 
 2286000   0.89839414   -7.0018613    756.92961  0.027592943  0.027482042            6 
 2287000   0.88771953    -7.042482    756.19183  0.027553995  0.027475321            4 
 2288000    0.8723155    -7.020965    756.86447  0.027566451  0.027468583            5 
 2289000   0.90244996   -7.0000592    757.22196  0.027567423  0.027461887            6 
 2290000   0.88594539   -7.0136523    758.42759  0.027599257  0.027455178           11 
 2291000   0.87456928   -6.9821827    758.38158  0.027585537   0.02744843            5 
 2292000    0.8822446   -6.9766237      758.418  0.027574826  0.027441634            6 
 2293000   0.89976337   -7.0191157    756.01978  0.027475642  0.027434908            3 
 2294000   0.88723825   -7.0362605    757.90652  0.027532204  0.027428105            7 
 2295000   0.87557511   -7.0066333    758.26777  0.027533325   0.02742129            6 
 2296000   0.88560376   -7.0110784    757.74029  0.027502188  0.027414559            3 
 2297000   0.89156025   -6.9908029    759.24203  0.027544697  0.027407809            4 
 2298000   0.88670759   -7.0130205    758.29131  0.027498234  0.027401009            9 
 2299000   0.87969196   -7.0167221    755.55864   0.02738722  0.027394224            5 
 2300000   0.86981897   -7.0174291    758.51635  0.027482477  0.027387449            4 
 2301000    0.8888148   -7.0022046    757.41787   0.02743075  0.027380607            3 
 2302000   0.88245911   -7.0497692    755.54138  0.027350904  0.027373738            2 
 2303000   0.89614839   -7.0112906    759.00873  0.027464493  0.027366956            4 
 2304000    0.9115784   -7.0168127    759.23559  0.027460778  0.027360184            7 
 2305000   0.89121901   -6.9891093    757.55284  0.027388028  0.027353386            8 
 2306000   0.91661608   -7.0479176    757.88096  0.027388008  0.027346533            6 
 2307000   0.89861353   -7.0144438    758.84644  0.027411011  0.027339664            4 
 2308000   0.88303368   -7.0610399    759.23882  0.027413302  0.027332806            3 
 2309000   0.88610255   -7.0317498    758.52189  0.027375556  0.027325932            6 
 2310000   0.87636971    -7.030037    759.45422  0.027397338  0.027319023            4 
 2311000   0.88325197   -7.0220384    759.46163   0.02738575  0.027312204            4 
 2312000   0.89686051   -7.0119967     761.1197  0.027433668  0.027305395            6 
 2313000   0.88169857   -7.0276295    761.16892  0.027423581  0.027298601            7 
 2314000   0.89736741   -7.0408347     759.2788  0.027343662  0.027291767            8 
 2315000   0.90449641   -7.0416354    760.32951  0.027369673  0.027284945            3 
 2316000    0.8759784   -6.9982522    758.72416  0.027300092  0.027278099            3 
 2317000   0.90494376   -7.0316994    760.94265    0.0273681  0.027271267            7 
 2318000   0.89398191   -7.0342816    759.20174  0.027293707  0.027264413            9 
 2319000   0.88775872   -7.0019801    760.39942  0.027324975  0.027257619            4 
 2320000   0.88101582   -7.0604428    760.80815  0.027327879  0.027250774            6 
 2321000   0.87919275    -7.050073    759.51535  0.027269688  0.027243868            5 
 2322000   0.89736417   -7.0440406    761.07835  0.027314038  0.027236987            4 
 2323000   0.87724889   -7.0195364    761.95344  0.027333672  0.027230125            7 
 2324000   0.87192605   -6.9877626    761.90831  0.027320292  0.027223338           12 
 2325000    0.8596696   -7.0811056    760.50023  0.027258073  0.027216507            4 
 2326000   0.87938458   -7.0372049    761.49259  0.027281907  0.027209672            3 
 2327000   0.86929755   -7.0322078    761.78438  0.027280632  0.027202867            4 
 2328000   0.87592708   -7.0166249    763.58701  0.027333441  0.027196034            4 
 2329000   0.85955308   -7.0360786    761.06724  0.027231546  0.027189202            5 
 2330000   0.88064083    -7.043186    762.21528  0.027260918  0.027182401            4 
 2331000    0.8700441   -7.0326561    763.54492  0.027296758   0.02717562            7 
 2332000   0.86176376   -7.0313469    763.25948  0.027274853  0.027168876           14 
 2333000   0.87472671   -7.0201863    763.54994  0.027273537   0.02716211            7 
 2334000   0.85571217   -7.0435264    762.86083  0.027237248  0.027155322            4 
 2335000     0.877651   -7.0368093    762.88884  0.027226583   0.02714854            5 
 2336000   0.90378994   -6.9804465     764.8503  0.027284899  0.027141807            8 
 2337000   0.87220295   -7.0116683     763.1615  0.027213004  0.027135139            7 
 2338000   0.87965187   -7.0087759    765.90221  0.027299052  0.027128515            5 
 2339000    0.8782133    -7.027854    764.76382  0.027246823  0.027121836            7 
 2340000   0.87324372   -7.0117964    764.27472  0.027217761  0.027115146            4 
 2341000   0.90788293   -7.0182254    765.00552  0.027232149   0.02710843            5 
 2342000   0.87162955   -7.0309578    764.31246   0.02719586  0.027101719            6 
 2343000   0.90719179   -7.0489529     765.2316  0.027216944  0.027094966            3 
 2344000   0.86177816   -7.0254654    765.89537  0.027228931  0.027088184            6 
 2345000   0.88963893    -7.039003    764.85123  0.027180214  0.027081459            8 
 2346000   0.86771215   -7.0273512    762.64515  0.027090265  0.027074749            4 
 2347000   0.87900489   -7.0431102    765.84948  0.027192497  0.027067941            3 
 2348000   0.87691587   -7.0315347    765.98725  0.027185805  0.027061155            9 
 2349000   0.86764972   -7.0397094    765.39449  0.027153203  0.027054371            5 
 2350000   0.86829385    -7.034168    765.42326  0.027142669  0.027047577            5 
 2351000   0.86193707   -7.0197643    766.65755  0.027174874  0.027040871            7 
 2352000   0.86698361   -7.0495137    765.11719  0.027108744  0.027034109            9 
 2353000   0.92033806   -7.0291108    765.64985  0.027116088  0.027027363           13 
 2354000   0.89583108   -7.0188777    767.28102  0.027162313   0.02702067            4 
 2355000   0.88652267   -7.0185626    769.23868  0.027220052  0.027013997            6 
 2356000    0.8661198   -7.0149992    769.28001  0.027209961  0.027007317           10 
 2357000   0.87966847   -7.0158133    768.41395  0.027167796  0.027000666            7 
 2358000   0.87689256    -7.067924    766.26977  0.027080498  0.026993976            4 
 2359000   0.88862757   -7.0263121    770.02242  0.027201583  0.026987266            8 
 2360000    0.8841439   -7.0594119     766.8079   0.02707655   0.02698056            7 
 2361000   0.86597454   -7.0562829    767.66357  0.027095283  0.026973851            3 
 2362000    0.8691985   -7.0251464    768.01842  0.027096332  0.026967138            6 
 2363000   0.87889976   -7.0053892     767.2155  0.027056549  0.026960449            5 
 2364000   0.85879982   -7.0717714     766.4674  0.027018732   0.02695373            6 
 2365000   0.88378298   -7.0268189    768.14063  0.027066266   0.02694699            8 
 2366000   0.87410767   -7.0361138    769.88082  0.027116118  0.026940244            3 
 2367000   0.86843375    -7.052653    768.26257  0.027047689  0.026933536            7 
 2368000    0.8733917   -7.0331956    767.73681  0.027017765  0.026926794            4 
 2369000   0.84617143   -7.0351957    769.13811  0.027055653  0.026920088            8 
 2370000   0.86826576   -7.0381756    769.66488  0.027062759  0.026913339            5 
 2371000   0.87207364    -7.033518    769.03039  0.027029045  0.026906671            6 
 2372000   0.88652211   -7.0272946    769.65955  0.027039754  0.026899969            5 
 2373000   0.87517878   -7.0236404     769.0383  0.027006542  0.026893303            6 
 2374000   0.87978092   -7.0291179    769.09518  0.026997163  0.026886695            5 
 2375000   0.85159416   -7.0346943    770.21263  0.027025005  0.026880061            5 
 2376000   0.89460005   -7.0385754    770.04296   0.02700768  0.026873438            5 
 2377000   0.88663725   -7.0366667    770.94187  0.027027832  0.026866782            6 
 2378000   0.88739114   -7.0554632    769.85854  0.026978502  0.026860144            4 
 2379000   0.86706989   -7.0304598    770.64092  0.026994568  0.026853429            5 
 2380000   0.85242928    -7.056509     771.2834  0.027005721   0.02684677            4 
 2381000   0.87681416   -7.0577045      772.736  0.027045219  0.026840111            4 
 2382000   0.87509238   -7.0659725    770.85032  0.026967895  0.026833445            7 
 2383000   0.88062552    -7.021615    770.65503  0.026949749  0.026826814            5 
 2384000   0.87519834    -7.046706    771.07897  0.026953264  0.026820177            5 
 2385000   0.87029403   -7.0307305     771.6543  0.026962065  0.026813515            3 
 2386000    0.8653277   -7.0442895    769.99914  0.026892957  0.026806877           12 
 2387000   0.86572321   -7.0139333    773.35917  0.026998994  0.026800224           11 
 2388000   0.87088532   -7.0435703    772.75644  0.026966654  0.026793685            4 
 2389000   0.87240187   -7.0398911    773.37309  0.026976876  0.026787165            5 
 2390000   0.88073458   -7.0171208     773.3949  0.026966349  0.026780595            6 
 2391000   0.86774478   -7.0720156    771.37936  0.026884824  0.026774001            6 
 2392000   0.85558355   -7.0587104    773.07051  0.026932501  0.026767338            4 
 2393000   0.87403209   -7.0381109    773.42209   0.02693349  0.026760736            6 
 2394000   0.87101289    -7.027064    772.03896  0.026874094  0.026754109            4 
 2395000   0.87173892   -7.0381962     774.1913  0.026937763  0.026747506            4 
 2396000   0.87049869   -7.0360999    774.80217  0.026947766  0.026740918            7 
 2397000   0.87384953   -7.0311162     773.9577  0.026907165  0.026734316            5 
 2398000   0.87705426   -7.0239808    774.12832  0.026901874   0.02672778           13 
 2399000   0.86036004   -7.0714247    774.48937  0.026903202  0.026721178            7 
 2400000   0.86493456   -7.0342507    774.04446  0.026876544  0.026714592            5 
 2401000   0.85760303   -7.0476545    773.73895  0.026854746  0.026708093            8 
 2402000    0.8653545   -7.0117274    775.30001  0.026897724  0.026701547            6 
 2403000   0.86507316    -7.035429    774.55942  0.026860848   0.02669501            6 
 2404000   0.85892614   -7.0764183    774.04976  0.026832008  0.026688384            9 
 2405000   0.87183707   -7.0527294     774.7951  0.026846677   0.02668179            5 
 2406000   0.85759286   -7.0664141    776.21912  0.026884841  0.026675157            4 
 2407000   0.87585236   -7.1058603    773.82142   0.02679066  0.026668452            5 
 2408000   0.87721427   -7.0647469    774.01184  0.026786124  0.026661743            5 
 2409000   0.88273714    -7.078801    773.71341  0.026764681  0.026655106            5 
 2410000   0.88111491   -7.0401287    775.37293  0.026810959  0.026648539            5 
 2411000   0.85587693   -7.0877666    776.44543  0.026836908  0.026641887            6 
 2412000    0.8827082    -7.055453    776.66597  0.026833401  0.026635286            3 
 2413000   0.88193211   -7.0795332    774.91789  0.026761911  0.026628704           11 
 2414000   0.85049625   -7.0613843    775.55711  0.026772891  0.026622089            5 
 2415000   0.85804128   -7.0521576    777.92038  0.026843353   0.02661556            2 
 2416000   0.86855568   -7.0687703    775.34183  0.026743303   0.02660902            4 
 2417000   0.87834648   -7.0723568     775.8753  0.026750631  0.026602424            5 
 2418000   0.86392895   -7.0759753    776.66082   0.02676664  0.026595883           10 
 2419000   0.85625371   -7.0340644    778.76886  0.026828195  0.026589367            3 
 2420000   0.86588005   -7.0302186    777.04202  0.026757645   0.02658284            5 
 2421000   0.85203614   -7.0450688    775.64573  0.026698531  0.026576339            3 
 2422000   0.86731288   -7.0714877     778.7184  0.026793229  0.026569786            8 
 2423000   0.87481448   -7.0540147    776.41657  0.026703005  0.026563245            6 
 2424000   0.88076067   -7.0656915    776.90541  0.026708794  0.026556645            4 
 2425000   0.85493344    -7.076449    777.72097  0.026725807  0.026550051            8 
 2426000   0.87744621   -7.0553319     777.4909  0.026706887  0.026543489            9 
 2427000   0.85872945    -7.055355    778.09583  0.026716654  0.026536931            6 
 2428000   0.86363574   -7.0676831    776.59428  0.026654114  0.026530293            7 
 2429000   0.84490992   -7.0918355    777.14566  0.026662058  0.026523668            7 
 2430000   0.86495936   -7.0899586    777.28268  0.026655785  0.026517006            7 
 2431000   0.85846247   -7.0519168    777.79371  0.026662338  0.026510375            6 
 2432000   0.87042344   -7.0493893    779.44804   0.02670806  0.026503729            5 
 2433000    0.8621718   -7.0661329    779.45234  0.026697231  0.026497082            7 
 2434000   0.85583675   -7.0476255    777.42159  0.026616735  0.026490383            4 
 2435000   0.86273884   -7.0787011    778.04623  0.026627181  0.026483705            7 
 2436000   0.86207977   -7.0359499     778.0544   0.02661653  0.026476991            7 
 2437000   0.86963207   -7.0317883    779.59355  0.026658239  0.026470346            3 
 2438000   0.84776028   -7.0439844    776.57593  0.026544159  0.026463707            8 
 2439000   0.86269315    -7.063452    777.57652  0.026567464  0.026457068            5 
 2440000   0.86630542   -7.0391761    780.35049  0.026651315  0.026450454            5 
 2441000   0.86197669   -7.0601344    778.53086  0.026578276  0.026443828            5 
 2442000   0.86806519   -7.0691764     778.1298  0.026553706  0.026437172            7 
 2443000   0.86415094   -7.0699436    777.01665  0.026504866  0.026430528            4 
 2444000   0.86591122   -7.0708827    778.15034  0.026532676  0.026423892            6 
 2445000   0.87543034   -7.0449435    779.77615  0.026577237  0.026417248            6 
 2446000   0.85630656   -7.0845859    777.06358  0.026473957  0.026410612            3 
 2447000   0.85190636   -7.0670977    780.58546  0.026583077  0.026403969            4 
 2448000   0.85830155   -7.0884401    779.24507  0.026526589  0.026397342            6 
 2449000   0.87439861   -7.0336672    781.04644  0.026577053  0.026390711            8 
 2450000   0.86264552   -7.0637205    779.92362  0.026528014  0.026384105            6 
 2451000   0.86732876   -7.0345018    779.16541  0.026491412  0.026377508            7 
 2452000   0.85030714   -7.0683129    780.50731  0.026526214  0.026370929            4 
 2453000   0.85639834   -7.0598125    781.72592  0.026556799  0.026364279            5 
 2454000   0.86224025   -7.1010297    779.63137   0.02647485   0.02635761            6 
 2455000   0.87148376   -7.0912716    779.47395  0.026458722  0.026350953            3 
 2456000   0.85898396   -7.0783381    780.02788  0.026466744  0.026344331            5 
 2457000   0.86071951   -7.1019107    783.38147  0.026569715  0.026337739            5 
 2458000   0.86150636   -7.0771584    781.92288  0.026509455  0.026331159            8 
 2459000   0.85842696   -7.0733452    783.27132  0.026544372  0.026324626            2 
 2460000    0.8583129   -7.0523769    782.45151   0.02650581  0.026318074            3 
 2461000   0.85682299    -7.072767    780.94063  0.026443879   0.02631151            6 
 2462000   0.84511579   -7.0556438    784.24019  0.026544821  0.026304947            6 
 2463000   0.87216798   -7.0344716    783.87344  0.026521635  0.026298408            4 
 2464000   0.85583054   -7.0591221    782.03335  0.026448639  0.026291909            3 
 2465000   0.85380896   -7.0738013    781.68484  0.026426127  0.026285375            5 
 2466000   0.85396236   -7.0486371    783.48531  0.026476254   0.02627885            4 
 2467000   0.85099574   -7.0719266     784.0632  0.026485043  0.026272292            5 
 2468000   0.87141053   -7.0681902    781.56775  0.026390051   0.02626578            2 
 2469000   0.86718724    -7.054228    784.79194  0.026488185  0.026259251            4 
 2470000   0.87151744   -7.0567094    782.83639  0.026411484  0.026252747            4 
 2471000   0.86313039    -7.095487    784.00019  0.026440044  0.026246183            4 
 2472000   0.88616424   -7.0976595    782.87992  0.026391583  0.026239569            5 
 2473000   0.85952102   -7.0854057    781.60108  0.026337818   0.02623296            5 
 2474000   0.87502177   -7.0846926    782.75349  0.026365989  0.026226389            3 
 2475000   0.87715547   -7.0810407    782.62435  0.026350988  0.026219779           14 
 2476000   0.84236609   -7.0391435    784.55597  0.026405357  0.026213237            3 
 2477000   0.87036534   -7.0648025     784.9117  0.026406665   0.02620673            6 
 2478000   0.85286533   -7.0882232    786.93766   0.02646414  0.026200179            3 
 2479000   0.85812664   -7.0439148      787.506   0.02647257  0.026193662            3 
 2480000   0.84886347   -7.0822406    785.33399  0.026388911  0.026187112            5 
 2481000    0.8527164   -7.0439576    784.16157  0.026338894  0.026180558            5 
 2482000   0.85389384   -7.0916644    785.02376  0.026357231  0.026174014            3 
 2483000   0.85601672   -7.0673569    784.40136  0.026325727  0.026167407            3 
 2484000   0.86259046   -7.0996326     784.0808  0.026304375  0.026160792            4 
 2485000   0.86077318   -7.0906311    783.62111  0.026278374  0.026154169            4 
 2486000   0.87399529   -7.0676482    783.79526  0.026273641  0.026147548            4 
 2487000   0.85673941   -7.0656318    785.49815  0.026320137  0.026140915            3 
 2488000   0.85216769   -7.0748929    783.31886  0.026236564  0.026134242            8 
 2489000   0.86225954   -7.1041448    782.28268  0.026191331  0.026127585            7 
 2490000   0.84327516   -7.0682318    784.84127  0.026266441  0.026120909            3 
 2491000   0.85016722   -7.0591554    784.83382  0.026255648  0.026114298            4 
 2492000   0.85414079   -7.0964356    782.95624  0.026182325  0.026107678            4 
 2493000   0.85470404   -7.0720557    783.94827  0.026204983  0.026101034            5 
 2494000   0.84768666   -7.0956881    783.58328   0.02618228  0.026094339            4 
 2495000   0.84796895   -7.1076693    785.75085  0.026244183  0.026087603            5 
 2496000   0.85063966   -7.1149246    784.76829  0.026200865   0.02608087            5 
 2497000   0.86639099   -7.0953123    784.75166  0.026189816  0.026074135            9 
 2498000   0.84615032    -7.114741    784.91243  0.026184696  0.026067442           10 
 2499000   0.88353507   -7.0513882     784.3754  0.026156309  0.026060734            6 
 2500000   0.85004692   -7.1047097    785.29503  0.026176501  0.026054023            9 
 2501000   0.82496317   -7.0835912    785.35769  0.026168122   0.02604731            9 
 2502000   0.84824634   -7.0660534    787.12501  0.026216527  0.026040621            5 
 2503000   0.85811915   -7.0910091    785.95434  0.026167078  0.026033984            6 
 2504000   0.85049846   -7.0772696    786.36658  0.026170347  0.026027304            5 
 2505000   0.84663024   -7.0930384    784.73507  0.026105624  0.026020607            5 
 2506000   0.87377166   -7.0906859     785.3636  0.026116108  0.026013926            4 
 2507000   0.85403222   -7.1016677    787.92676  0.026190891  0.026007264            3 
 2508000    0.8652241   -7.0689117     785.6461  0.026104668  0.026000627            4 
 2509000   0.85133161   -7.0818885    786.71476  0.026129758  0.025993989            4 
 2510000   0.84778609   -7.0917221    785.89031  0.026091976  0.025987322           13 
 2511000   0.84561659   -7.0694604    788.95987  0.026183455  0.025980699            4 
 2512000   0.85592737   -7.1073199    786.11675  0.026078714  0.025974068            4 
 2513000   0.86261009   -7.0777146    788.71484  0.026154491  0.025967448            7 
 2514000   0.86928479   -7.0924436    788.31013  0.026130673  0.025960792            4 
 2515000   0.84634423   -7.1051819    788.57895   0.02612919  0.025954159            9 
 2516000   0.87145067   -7.0765524    789.30707  0.026142921  0.025947495            5 
 2517000   0.84519059   -7.0992602    786.78879  0.026049159   0.02594089            6 
 2518000   0.84931451   -7.1051653    788.86299  0.026107459  0.025934236            8 
 2519000   0.83286559   -7.1046624    789.54831  0.026119767  0.025927636            5 
 2520000   0.83956412   -7.1007596    788.22934  0.026065785  0.025920972            7 
 2521000   0.84348728   -7.0940157    787.30192  0.026024789  0.025914276            4 
 2522000   0.83983431   -7.1370031    787.89442  0.026034048   0.02590757            8 
 2523000   0.84381182   -7.1080414    787.14691  0.025999039    0.0259009            3 
 2524000   0.85881214   -7.0749386    788.62515  0.026037544  0.025894244            7 
 2525000   0.84885369   -7.1100886    789.04652  0.026041139   0.02588764            5 
 2526000   0.84764018   -7.0832547    790.41653  0.026076027   0.02588103            4 
 2527000   0.85156714   -7.1216523      789.266  0.026027767  0.025874473            3 
 2528000   0.86398119   -7.1034889    788.74591  0.026000327  0.025867877            4 
 2529000   0.84734471   -7.0680937    791.48414  0.026080274  0.025861231            7 
 2530000   0.84469953   -7.0858642    790.46952  0.026036546   0.02585465           10 
 2531000   0.84752559   -7.0667611    790.86493  0.026039277    0.0258481            6 
 2532000    0.8213992    -7.084146    791.05676  0.026035307   0.02584157            7 
 2533000   0.83248219   -7.0922701    792.00672  0.026056281   0.02583504            5 
 2534000    0.8604961   -7.0642378    791.22672  0.026020347  0.025828499            5 
 2535000   0.86040709   -7.0998225    791.86039  0.026030913  0.025821991            5 
 2536000   0.82194329   -7.1017142    791.36428  0.026004347  0.025815451            5 
 2537000   0.86679945   -7.0884786    791.83434  0.026009537  0.025808905            9 
 2538000   0.83483662   -7.0857855    790.95102  0.025970286  0.025802352            5 
 2539000   0.85427133   -7.1113149     790.3644  0.025940804  0.025795771            7 
 2540000   0.84045068   -7.0844715    789.51952  0.025902871  0.025789132           10 
 2541000     0.846043   -7.0935604    791.82413  0.025968258  0.025782554            5 
 2542000   0.86377145   -7.1059989    790.99031  0.025930708  0.025775945            4 
 2543000   0.83330044   -7.0755505    792.27334  0.025962555  0.025769341            7 
 2544000   0.84471383   -7.1260598    790.32865  0.025888648  0.025762707            5 
 2545000   0.85704532   -7.0735569    789.66812  0.025856847  0.025756025            5 
 2546000   0.85488711   -7.0818509    790.69809  0.025880403  0.025749401            4 
 2547000   0.84589341    -7.110286    789.77336  0.025839987  0.025742758            4 
 2548000   0.84988807    -7.129612    791.77704  0.025895377  0.025736103            5 
 2549000   0.82433785   -7.0749913    791.36517  0.025871752  0.025729401           11 
 2550000   0.85171092   -7.0812821    792.49901  0.025898661  0.025722743            7 
 2551000   0.84098509   -7.0956201    791.66422  0.025861238  0.025716116            6 
 2552000   0.85398424   -7.1154695    789.95729  0.025795366  0.025709443            6 
 2553000   0.84945123   -7.0817055    789.96847  0.025785627   0.02570279            6 
 2554000     0.845337    -7.092148    793.29114  0.025883945  0.025696143           12 
 2555000   0.83655724   -7.0961708    790.70507  0.025789467  0.025689505            9 
 2556000    0.8430463   -7.0584722    794.62028  0.025907025   0.02568289            6 
 2557000   0.83282025   -7.0979896    791.99125  0.025811213  0.025676246            5 
 2558000   0.83290658   -7.1147582    792.26434  0.025810019  0.025669557            5 
 2559000   0.88254288   -7.0947043    793.13535  0.025828297  0.025662891           10 
 2560000   0.84882711   -7.1004549     792.6418  0.025802142  0.025656255            5 
 2561000   0.86498394   -7.1061233    793.10165   0.02580703  0.025649589            9 
 2562000   0.84448759   -7.0832916    792.45134  0.025775805  0.025642936            7 
 2563000   0.84425972   -7.1149649     794.3404  0.025827169  0.025636272            5 
 2564000   0.83684646    -7.097707    790.81951  0.025702662  0.025629559            3 
 2565000   0.84201346   -7.1120098    792.57657  0.025749726  0.025622882            6 
 2566000   0.82861924   -7.1239422    793.44574  0.025767918  0.025616216            6 
 2567000    0.8259557   -7.1229345     792.8506   0.02573856  0.025609517            6 
 2568000    0.8422195   -7.0899166     792.4847  0.025716663   0.02560288           14 
 2569000    0.8190201   -7.1162813    792.48833  0.025706771  0.025596241            8 
 2570000   0.83899447   -7.0887322    794.47378  0.025761147  0.025589661            7 
 2571000   0.82907733   -7.1123867    794.42565  0.025749567  0.025583114            4 
 2572000   0.83837244   -7.1247295    792.90726   0.02569036  0.025576578            3 
 2573000   0.83648114   -7.0949718    793.02886  0.025684313  0.025569951            6 
 2574000   0.83651584   -7.0872196    795.28983  0.025747534  0.025563352            3 
 2575000   0.81949188   -7.1206333    794.52893   0.02571291  0.025556745            9 
 2576000   0.84811882    -7.132623    792.75668  0.025645597  0.025550107            5 
 2577000   0.83704811   -7.1310272    793.92876  0.025673547   0.02554346           11 
 2578000   0.83966087   -7.1168065    793.96128  0.025664639  0.025536789           17 
 2579000   0.83753483   -7.1471117    795.89123  0.025717049  0.025530184            8 
 2580000   0.83725999   -7.1348454    794.88545  0.025674595  0.025523587            7 
 2581000   0.86396562     -7.10465    795.03533  0.025669486  0.025516939           11 
 2582000     0.833233   -7.0970039    795.74854  0.025682563  0.025510285            7 
 2583000   0.83707563   -7.1208869    794.42748      0.02563  0.025503628            5 
 2584000   0.84853143   -7.1183475    793.70306  0.025596719  0.025496943            4 
 2585000   0.82440635   -7.1221332    795.01835  0.025629218  0.025490268            7 
 2586000   0.83587981   -7.1481868    794.68192  0.025608466   0.02548356           16 
 2587000   0.84864585   -7.0877004    795.73315   0.02563243   0.02547691            7 
 2588000   0.83119023   -7.1150055    795.90341  0.025628008   0.02547024            6 
 2589000     0.855209   -7.1201489    794.47756  0.025572215  0.025463545            6 
 2590000   0.82814193   -7.1056015    795.67481  0.025600863  0.025456835            8 
 2591000   0.83162398   -7.0799604    797.63858  0.025654142  0.025450214            5 
 2592000   0.84552314   -7.1169643    794.86653  0.025555122  0.025443574            8 
 2593000    0.8327487   -7.1116732    793.20105  0.025491742  0.025436904            4 
 2594000   0.82878909   -7.0851499    796.28164   0.02558088  0.025430182            7 
 2595000   0.81649515   -7.1574856    793.74394  0.025489529  0.025423441            4 
 2596000   0.82246612   -7.1322481    796.01591  0.025552642  0.025416646            8 
 2597000   0.83406549   -7.1166996    797.34605  0.025585485  0.025409863            5 
 2598000   0.83454137   -7.0980232     797.0085  0.025564809  0.025403111            6 
 2599000    0.8329803   -7.0963003    794.87199  0.025486469  0.025396385            3 
 2600000   0.83755946    -7.133487    795.31168  0.025490759  0.025389631            4 
 2601000   0.83195391   -7.1059214    796.11493  0.025506694  0.025382896            3 
 2602000   0.82523163   -7.1188747    795.43566  0.025475136  0.025376182            7 
 2603000   0.84314981   -7.1723445    793.20955  0.025394082  0.025369452           16 
 2604000   0.87001002   -7.1210801    795.50774  0.025457877  0.025362706            7 
 2605000   0.83320062   -7.1102163    796.15666  0.025468863  0.025355992            6 
 2606000   0.82252258    -7.113522    796.42727  0.025467743  0.025349299           13 
 2607000   0.83401766   -7.1252232    796.57733  0.025462771  0.025342548           11 
 2608000   0.82711809   -7.1271338    795.35608  0.025413985  0.025335824            4 
 2609000   0.81933757    -7.099805    795.74947  0.025416809  0.025329132            6 
 2610000    0.8340432   -7.1240118    795.98999  0.025414751  0.025322434            3 
 2611000   0.82786363    -7.122647    796.02602  0.025406167  0.025315736            9 
 2612000    0.8410291   -7.1331432    796.46564  0.025410466     0.025309            7 
 2613000   0.82251074   -7.1248427    796.61701  0.025405569   0.02530224            8 
 2614000   0.83227745   -7.1162341    798.59978   0.02545906  0.025295527            6 
 2615000   0.83722752   -7.1207865    797.03153  0.025399348  0.025288831           10 
 2616000   0.83994895   -7.1002313    797.78597  0.025413671  0.025282129            5 
 2617000   0.80988086   -7.1049093    797.04353  0.025380319  0.025275387            3 
 2618000    0.8301409    -7.139003    797.30573   0.02537897  0.025268611            5 
 2619000   0.81300744    -7.152477     796.7766  0.025352444  0.025261825           13 
 2620000   0.84587955   -7.1111431    796.74695  0.025341824  0.025255031            5 
 2621000   0.82431005   -7.1166073    796.22831  0.025315665  0.025248274           12 
 2622000    0.8445391   -7.1359714    795.54654  0.025284342  0.025241498            6 
 2623000   0.85801978   -7.1108021    795.38598  0.025269602  0.025234667            9 
 2624000   0.82592882   -7.1501297    794.92549  0.025245347  0.025227877           15 
 2625000   0.83964499   -7.1283874    796.73956  0.025293319   0.02522108            6 
 2626000   0.83238726   -7.1432001    796.91673   0.02528931  0.025214251            5 
 2627000   0.84706051   -7.1548071    796.20488  0.025257102  0.025207423            4 
 2628000    0.8518677   -7.1484846    797.87552  0.025300467  0.025200579            6 
 2629000   0.81428646   -7.1200928     796.0947  0.025234395  0.025193766            5 
 2630000   0.82223427   -7.1373264      796.335  0.025232414  0.025187024            5 
 2631000   0.84064036   -7.1103991    796.26047  0.025220463  0.025180198            4 
 2632000   0.83993108   -7.1128407    798.46163  0.025280573  0.025173419            8 
 2633000   0.85189722   -7.1333213    797.68956  0.025246536  0.025166612            9 
 2634000   0.82765376   -7.1237017    799.77662  0.025302981   0.02515981            6 
 2635000   0.84868863   -7.1412907    796.80088  0.025199269  0.025153023            7 
 2636000    0.8418349   -7.1214874    799.46559   0.02527395  0.025146272            6 
 2637000   0.83929162   -7.1004572    796.98877  0.025186094  0.025139536            5 
 2638000   0.83346673   -7.1085749    799.56874  0.025258047  0.025132751            2 
 2639000   0.83055397   -7.1335014     796.9741  0.025166544  0.025125948            5 
 2640000    0.8553644   -7.1348853    798.05176  0.025191028  0.025119137            8 
 2641000   0.83113942    -7.148598    797.99849  0.025179808  0.025112303            3 
 2642000   0.81796538   -7.1620349    797.43275  0.025152434  0.025105466           12 
 2643000   0.81763146   -7.1537922    796.86725  0.025125087  0.025098644            4 
 2644000   0.83402038   -7.1638641    796.34177  0.025099022   0.02509184            8 
 2645000   0.84063483   -7.1273972    798.55068  0.025159127  0.025085045            5 
 2646000   0.82689882   -7.1449133    800.17948  0.025200916  0.025078316            6 
 2647000   0.83353311    -7.133604    799.88678   0.02518218  0.025071616            9 
 2648000   0.84238503   -7.1529655    798.07135  0.025115539  0.025064847           16 
 2649000   0.81384989   -7.1443127    799.76351   0.02515929  0.025058176            8 
 2650000   0.83376602   -7.1297077    798.58874  0.025112854  0.025051416            6 
 2651000   0.82984302   -7.1378658     799.8212  0.025142122   0.02504463            3 
 2652000    0.8230581    -7.155992    799.97909  0.025137603  0.025037867            4 
 2653000   0.83026885   -7.1597177    800.83982  0.025155165  0.025031151            4 
 2654000   0.82163604   -7.1784969    799.86142  0.025114965  0.025024413            7 
 2655000   0.81226909   -7.1305968     799.9338  0.025107778  0.025017669            8 
 2656000   0.82256677   -7.1590532    798.58549  0.025056021  0.025010888            9 
 2657000   0.82553555   -7.1728306    798.95832  0.025058284  0.025004123            5 
 2658000   0.82523931    -7.148485    800.34708  0.025092396  0.024997355            6 
 2659000   0.81387726   -7.1221345    801.66516  0.025124269  0.024990652            7 
 2660000   0.83768884   -7.1366827    801.94471  0.025123581  0.024983945           12 
 2661000   0.83143735   -7.1488377    801.63339   0.02510439  0.024977221            8 
 2662000   0.84900105    -7.183908    800.59307  0.025062392  0.024970394            8 
 2663000   0.82033239   -7.1444503    801.21832  0.025072547  0.024963585           10 
 2664000   0.81941382   -7.1697746    799.91893  0.025022489  0.024956784           13 
 2665000   0.83555397   -7.1470463    802.24762  0.025085917  0.024950015            4 
 2666000   0.81947339   -7.1776284    800.64212  0.025026323  0.024943238            5 
 2667000   0.82198381   -7.1455282    801.42532  0.025041411  0.024936442            7 
 2668000   0.80939395   -7.1506548    798.00999  0.024925349  0.024929638            3 
 2669000   0.83745172   -7.1563015    801.35327  0.025020397  0.024922829           10 
 2670000   0.82283435   -7.1410548    800.24748  0.024976513   0.02491602            4 
 2671000   0.83349049   -7.1518858     800.3634  0.024970779  0.024909245            5 
 2672000   0.83304494   -7.1589013    799.93574  0.024948096   0.02490246            6 
 2673000   0.80951041   -7.1257995    800.91494   0.02496929  0.024895676            7 
 2674000   0.81300971   -7.1323808     801.1465  0.024967168  0.024888932           15 
 2675000   0.82618742   -7.1618033    800.95856   0.02495198  0.024882156            6 
 2676000   0.80660925   -7.1605857     799.8205  0.024907215  0.024875372            5 
 2677000   0.81200253   -7.1415645    801.53055  0.024951144  0.024868564            7 
 2678000   0.82705006   -7.1605842    802.83952  0.024982559  0.024861781            4 
 2679000   0.82704295   -7.1540466    800.81116  0.024910139   0.02485502            6 
 2680000    0.8433789   -7.1434465    802.33834  0.024948332   0.02484824            4 
 2681000   0.80645837   -7.1201234    802.62087  0.024947808  0.024841481            6 
 2682000   0.81650298   -7.1586372    799.68418  0.024847259  0.024834674            7 
 2683000   0.82716667   -7.1187387    804.05918  0.024973884  0.024827869            4 
 2684000   0.83156735   -7.1176238    801.86626  0.024896493  0.024821062            7 
 2685000   0.81886635    -7.161667    802.50653  0.024907093  0.024814269            9 
 2686000    0.8243711   -7.1444105    802.75047  0.024905388  0.024807499            8 
 2687000   0.82246281    -7.146775    803.25973  0.024911913  0.024800753            6 
 2688000    0.8323913   -7.1527847    801.79256   0.02485716  0.024793954           13 
 2689000   0.80486653   -7.1219447    803.01602  0.024885832   0.02478722            4 
 2690000   0.81021659   -7.1328476    803.29591  0.024885251  0.024780489            4 
 2691000   0.84285061   -7.1473944    802.79496  0.024860491  0.024773734            6 
 2692000   0.81478044   -7.1503698    801.96414  0.024825537   0.02476694           10 
 2693000   0.84022274   -7.1897785     803.1778  0.024853874  0.024760149            8 
 2694000   0.82618469   -7.1593246    800.75185  0.024769607  0.024753373            9 
 2695000   0.80079893    -7.165325    802.45439  0.024813061  0.024746612            7 
 2696000   0.81993038   -7.1556235    804.74936  0.024874795  0.024739809            3 
 2697000   0.80637722   -7.1455435     804.4579  0.024856566  0.024733038            6 
 2698000   0.82654526   -7.1320984    803.71049  0.024824268  0.024726283            6 
 2699000   0.82327695   -7.1662301    802.28493  0.024771055  0.024719551            5 
 2700000   0.82333558    -7.159016    803.58275  0.024801937   0.02471282            4 
 2701000   0.82158245   -7.1556293    804.05552   0.02480734  0.024706043            5 
 2702000   0.83211725   -7.1484219    803.77453  0.024789493  0.024699305            4 
 2703000   0.82895432   -7.1313415    804.59931   0.02480575  0.024692589            3 
 2704000   0.81565046   -7.1423933    804.59108  0.024796323  0.024685899            3 
 2705000   0.80029442   -7.1501865    804.19819  0.024775052  0.024679155            2 
 2706000   0.80738821    -7.133104    805.70461  0.024812288   0.02467239            5 
 2707000   0.83768633   -7.1287405    804.83146  0.024776242  0.024665633            5 
 2708000   0.80679359   -7.1123539    803.67427  0.024731483  0.024658925            5 
 2709000   0.79825015   -7.1559938    803.67659  0.024722425  0.024652181            8 
 2710000   0.83396305   -7.1369948    804.43595  0.024736653  0.024645432            6 
 2711000   0.83674861   -7.1460201    805.53489  0.024761308   0.02463874            4 
 2712000   0.80479926   -7.1896843     806.1508  0.024771104  0.024632038            5 
 2713000   0.83155477   -7.1583989    805.58955  0.024744734  0.024625308            5 
 2714000   0.79809871   -7.1409612    806.95789  0.024777631  0.024618602            6 
 2715000   0.80514734   -7.1449704    805.23711  0.024715688  0.024611914            7 
 2716000   0.82111379   -7.1343479    804.66154  0.024688928  0.024605229            5 
 2717000   0.80723395   -7.1200754    807.30697  0.024760979  0.024598538            5 
 2718000   0.80708433   -7.1470437     806.5432  0.024728452  0.024591844            3 
 2719000    0.8101094   -7.1615475    804.18934  0.024647215  0.024585125            4 
 2720000   0.80028715   -7.1719999     807.7576  0.024747475  0.024578446            5 
 2721000   0.79070308   -7.1695887    806.56924  0.024701986    0.0245718            6 
 2722000   0.80493485   -7.1585043    805.96597  0.024674442   0.02456513            9 
 2723000   0.83769564     -7.14984    806.89204  0.024693721  0.024558463            4 
 2724000   0.84049308    -7.164923     804.6983  0.024617545  0.024551787            3 
 2725000   0.82274952   -7.1347323    807.05805  0.024680674  0.024545079            5 
 2726000   0.81247091    -7.165667    806.37926   0.02465087  0.024538357            4 
 2727000   0.81285953   -7.1338577    807.37831   0.02467236  0.024531653            3 
 2728000   0.80936113   -7.1417498    807.28537  0.024660477  0.024524996            6 
 2729000   0.83649913   -7.1696238     806.0841  0.024614758  0.024518307            6 
 2730000   0.81786653    -7.170585    804.98749  0.024572268  0.024511599            4 
 2731000   0.80432585   -7.1867324    805.17036   0.02456885  0.024504904            5 
 2732000   0.81650493   -7.1655023    806.45986  0.024599191  0.024498192            7 
 2733000   0.81469454    -7.183495     805.7735  0.024569262  0.024491483            5 
 2734000   0.81000281   -7.1777955    808.45475     0.024642  0.024484799            9 
 2735000   0.82375935   -7.1575832    807.85381   0.02461468  0.024478136            4 
 2736000   0.83141301   -7.1690362    805.93913  0.024547366  0.024471478           12 
 2737000   0.82055073    -7.213093    806.05646   0.02454197  0.024464794            4 
 2738000   0.80771391   -7.1493949     806.9255  0.024559456  0.024458114            6 
 2739000   0.82251078   -7.1672462    808.81372  0.024607938  0.024451478           12 
 2740000    0.7999407   -7.1240873    809.49813  0.024619773   0.02444486            5 
 2741000   0.81238944   -7.1597634    809.39256  0.024607581  0.024438223           10 
 2742000    0.8228374   -7.1598778    809.20575  0.024592929  0.024431575            6 
 2743000   0.79709057   -7.1649695    807.74998  0.024539737  0.024424908            3 
 2744000   0.81371389   -7.1866273    808.50279  0.024553656  0.024418239            5 
 2745000   0.81716319    -7.187054    806.66783  0.024489005  0.024411579            6 
 2746000   0.79591165   -7.1858369     807.9857  0.024520081  0.024404944            7 
 2747000   0.82059372   -7.1799972    809.12559  0.024545734    0.0243983           11 
 2748000   0.80420388   -7.1606919      809.608  0.024551431  0.024391667            7 
 2749000   0.80496785   -7.1719848    808.51922  0.024509495  0.024385058            8 
 2750000   0.81917007   -7.1868374    810.61336  0.024564041  0.024378483            5 
 2751000   0.80018342   -7.1954806    812.01355  0.024597527  0.024371951            5 
 2752000   0.82323917   -7.1719522    811.86678  0.024584144  0.024365382            5 
 2753000   0.80283753   -7.1634755    809.89231  0.024515447  0.024358862            4 
 2754000   0.83908741    -7.183266      809.668  0.024499758  0.024352308            7 
 2755000   0.79413168   -7.1642654    810.91015  0.024528438  0.024345725            8 
 2756000   0.81845144   -7.1639801    810.35336  0.024502702  0.024339188            7 
 2757000   0.80495042    -7.176654    810.07622  0.024485438  0.024332647           15 
 2758000   0.80811647   -7.1684815    813.41479  0.024577435  0.024326143            4 
 2759000   0.80491665   -7.1717434    812.86819  0.024552017  0.024319599           19 
 2760000   0.80517305   -7.1796901    811.32728  0.024496596  0.024313045            8 
 2761000   0.80881638   -7.1854823    809.10165   0.02442055   0.02430643            6 
 2762000   0.80573485   -7.1867503    809.75312  0.024431364  0.024299827           17 
 2763000   0.81143243   -7.1695544    810.59362  0.024447871  0.024293227            8 
 2764000   0.81570432   -7.1808557    812.03558  0.024482501  0.024286608            5 
 2765000   0.79818077   -7.1535853    812.45453  0.024486273  0.024280032            4 
 2766000   0.79898841   -7.1633096    810.47602  0.024417812  0.024273449            6 
 2767000   0.82472288   -7.1712244    811.04664  0.024426173  0.024266865            3 
 2768000   0.82076331   -7.1679818    811.03023  0.024416854  0.024260292           10 
 2769000   0.81322058   -7.1754249    811.90652  0.024434408  0.024253693            5 
 2770000   0.79996256   -7.1662712    810.63327  0.024387282  0.024247109            8 
 2771000   0.81145681   -7.1673128    811.64471  0.024408899  0.024240551            6 
 2772000   0.81953964   -7.1764546    809.51169   0.02433597  0.024233927            6 
 2773000   0.80899049   -7.1771605    811.27017  0.024380039  0.024227278            4 
 2774000   0.82009409   -7.1964508    810.77439  0.024356356  0.024220617            7 
 2775000   0.80399702   -7.1927413    811.06215  0.024356221  0.024213961            6 
 2776000   0.81833671   -7.1613404     812.8966  0.024402515  0.024207376            4 
 2777000   0.79464629   -7.1697822    810.95076  0.024335337  0.024200795            8 
 2778000   0.80580076    -7.146245     812.5702  0.024375156  0.024194192            4 
 2779000   0.82034144   -7.1619215    812.07795  0.024351624  0.024187607            5 
 2780000   0.81294338   -7.1766747    812.90343  0.024367609   0.02418107            5 
 2781000    0.8193508   -7.1821994    811.84375  0.024327093  0.024174494           10 
 2782000   0.80783345   -7.1838637    811.37739  0.024304379  0.024167957           15 
 2783000   0.83113464   -7.1458815    813.79137  0.024367929  0.024161406            5 
 2784000   0.81130066    -7.197507    813.97342  0.024364626  0.024154867            7 
 2785000   0.80554339   -7.2074628    812.48679  0.024311394  0.024148256            9 
 2786000   0.80804537   -7.1822477    813.31842  0.024327543  0.024141691            6 
 2787000   0.78525002   -7.1918155    812.32187  0.024289017  0.024135109            7 
 2788000   0.81609728   -7.1761718    812.35548  0.024281309    0.0241285            9 
 2789000    0.7944308   -7.1866512    813.89486  0.024318599  0.024121961           18 
 2790000   0.79446338   -7.1900806    812.72581  0.024274964   0.02411541            6 
 2791000   0.80602366   -7.1782111    812.00565  0.024244765  0.024108836            8 
 2792000   0.81343443   -7.1896369    813.98299  0.024295099  0.024102261           15 
 2793000   0.82198399   -7.1873307    812.51291  0.024242538  0.024095684            8 
 2794000   0.80863075   -7.1791471    812.39932  0.024230474  0.024089075           11 
 2795000   0.82347698   -7.1734036    812.12869  0.024213735  0.024082451            6 
 2796000   0.79724637   -7.1956576    810.44231  0.024154814  0.024075811           13 
 2797000   0.80130463   -7.1738313    812.05386  0.024194192  0.024069157           12 
 2798000   0.81746149   -7.1952199    811.70923  0.024175281  0.024062516            6 
 2799000   0.80874548   -7.1696181    812.80802  0.024199358  0.024055871           11 
 2800000   0.81534792   -7.2086039    812.10121  0.024169679  0.024049224            6 
 2801000   0.79361694   -7.1964491    813.66195  0.024207484  0.024042551            5 
 2802000   0.80398305   -7.1697934     811.4699  0.024133652  0.024035886            7 
 2803000   0.79049994   -7.1699616    813.81048  0.024194627  0.024029195            5 
 2804000   0.80722467   -7.1620418    812.53261  0.024148021  0.024022515            4 
 2805000   0.80926667   -7.1647771    813.50606  0.024168332  0.024015824            5 
 2806000   0.82089796   -7.1898143    813.09593  0.024147539  0.024009097           15 
 2807000   0.82020767   -7.2034887    811.51312  0.024091946  0.024002363           12 
 2808000   0.81468237   -7.1797757    811.35369  0.024078635  0.023995644            5 
 2809000   0.80464926   -7.1900883    814.17668  0.024153812  0.023988987            5 
 2810000   0.80466747   -7.1518793    813.88527  0.024136574  0.023982319            3 
 2811000   0.81515051    -7.182435    813.15097  0.024106219  0.023975645           10 
 2812000   0.82768536   -7.1972832    812.81759  0.024087766  0.023968968            8 
 2813000   0.80709831   -7.1696142    812.13605  0.024059013  0.023962264           14 
 2814000   0.81674834   -7.1963417    812.59248   0.02406398  0.023955542            6 
 2815000   0.79627541   -7.1839182    813.30786  0.024076609  0.023948803            4 
 2816000   0.79597969   -7.2060037    813.95168  0.024087112  0.023942114            8 
 2817000    0.8056238   -7.1882122    813.66075  0.024069955  0.023935459           10 
 2818000   0.80810418   -7.1931203    811.65059  0.024001969  0.023928732            6 
 2819000   0.81207137   -7.1868947    813.97039  0.024062031  0.023922025            3 
 2820000   0.80270463    -7.194093     810.5351  0.023951983  0.023915334            6 
 2821000     0.789029   -7.2006213    814.09938  0.024048782   0.02390863            6 
 2822000   0.79986505   -7.1993341     812.8249  0.024002625  0.023901952            5 
 2823000   0.81072295   -7.2408115    812.17328  0.023974887  0.023895255            6 
 2824000   0.78947192   -7.1924538    814.01054  0.024020613  0.023888542            6 
 2825000    0.7996727   -7.2110701    813.41188  0.023994451  0.023881816            5 
 2826000    0.7931856   -7.2006348    813.43035  0.023986505  0.023875095            8 
 2827000   0.79563361   -7.2084927    812.99311  0.023965131  0.023868399            5 
 2828000   0.79775025   -7.1947299    812.23757  0.023934393  0.023861678            7 
 2829000   0.78528802   -7.2186762    812.07979  0.023921285  0.023854947           10 
 2830000   0.79716688   -7.1842809    813.68072  0.023959974  0.023848205            5 
 2831000   0.78568571    -7.205365    815.88733  0.024016464  0.023841542            4 
 2832000   0.80467242   -7.1897347    815.43007  0.023994529  0.023834905            7 
 2833000   0.80886834     -7.16235     816.1497  0.024007227  0.023828291            7 
 2834000   0.79165997   -7.1888126    816.58468  0.024011547  0.023821655            9 
 2835000   0.79727163   -7.1499008       814.65  0.023946208  0.023815085            8 
 2836000    0.8054992   -7.1714965    815.20984  0.023954215  0.023808491            6 
 2837000   0.80092346    -7.179691    816.09182  0.023971679  0.023801854            5 
 2838000   0.81541785   -7.2026371    815.42461   0.02394364  0.023795186            7 
 2839000   0.80389084   -7.2102308    815.11213  0.023926034  0.023788533            4 
 2840000   0.81166101   -7.2025191    814.88125  0.023910835  0.023781885            7 
 2841000   0.80782195   -7.1882586    814.70984  0.023897391  0.023775235            3 
 2842000   0.81068097   -7.1675798    815.44072  0.023910413  0.023768643            8 
 2843000   0.79968379   -7.1668547    816.39201  0.023929887  0.023762042            6 
 2844000   0.78753902   -7.1916522    815.64643  0.023899626  0.023755394            5 
 2845000   0.80891541   -7.2114468    814.76095  0.023865288  0.023748751           12 
 2846000   0.80703593   -7.1993845    813.98054  0.023834052   0.02374212            6 
 2847000   0.78718017   -7.2192613    813.88468  0.023822874  0.023735471            5 
 2848000   0.79133317   -7.2343108    814.70601  0.023838542   0.02372879            3 
 2849000   0.80692926   -7.2048862     816.8928  0.023894138  0.023722151            7 
 2850000   0.80843264   -7.2019813    814.98662  0.023830018  0.023715529           10 
 2851000   0.79249794   -7.2020952    815.45923  0.023835474  0.023708887           11 
 2852000   0.78945568   -7.2265032    815.50728   0.02382852  0.023702178            7 
 2853000   0.80463592   -7.1769115    814.29977  0.023784898   0.02369553            5 
 2854000   0.78924838    -7.223482    814.15678  0.023772389  0.023688848            6 
 2855000   0.79510892   -7.2125306    815.51608  0.023803739  0.023682165            6 
 2856000   0.79259773   -7.1784887    816.44197   0.02382242  0.023675465            4 
 2857000   0.79563069   -7.2098472    815.38141  0.023783147  0.023668792            9 
 2858000   0.79519336   -7.2051982    816.63901  0.023811494  0.023662123            7 
 2859000   0.78807926   -7.2093789    814.52133   0.02374144  0.023655446            5 
 2860000   0.78408419   -7.2240352    814.81777  0.023741777  0.023648768            7 
 2861000   0.80695601   -7.2106987    816.15991  0.023772571  0.023642077           17 
 2862000   0.79459568   -7.1791194     816.0903  0.023762238  0.023635398            5 
 2863000   0.79940264   -7.2179244     815.3238  0.023731628  0.023628728            9 
 2864000   0.79377873   -7.2371915    814.25434  0.023692223   0.02362205            9 
 2865000   0.78566992   -7.1861174    816.12914  0.023738486  0.023615386            5 
 2866000   0.78061498   -7.2123397    815.73211  0.023718659  0.023608701            4 
 2867000    0.7891747   -7.2161811    815.94001  0.023716429  0.023602019            9 
 2868000   0.79509959   -7.2130007    816.53775  0.023725527   0.02359533            7 
 2869000   0.78751437     -7.20212     817.9964  0.023759626  0.023588652            4 
 2870000   0.78845609   -7.1942088    818.37149  0.023762238   0.02358197            8 
 2871000   0.78599243   -7.1975285    817.07023  0.023716192  0.023575301            4 
 2872000   0.80951959   -7.1778803    817.88772  0.023731654   0.02356866            5 
 2873000   0.79459945   -7.2160818    817.40982  0.023709532  0.023562024            6 
 2874000   0.79620781   -7.2078289    814.94371  0.023629776  0.023555365            4 
 2875000   0.79963423   -7.2016631      815.292  0.023631652  0.023548672            5 
 2876000   0.80274049   -7.1933845    817.50374  0.023687521  0.023541995           15 
 2877000   0.80603033   -7.2020528    814.90387  0.023603982  0.023535336            8 
 2878000   0.79012483   -7.1909352    816.12328  0.023631089  0.023528669            3 
 2879000   0.79150776   -7.2371243    815.27645  0.023598369  0.023522036            7 
 2880000   0.79375019   -7.2062346    817.54146  0.023655713  0.023515366            4 
 2881000    0.7764436   -7.1996201    817.99369  0.023660584  0.023508705            5 
 2882000   0.78399074   -7.1808654    816.88286  0.023620254  0.023502036            5 
 2883000   0.78722823   -7.2181078    815.79407  0.023580589   0.02349533            5 
 2884000   0.79140751   -7.2312458    817.63992  0.023625749  0.023488628            8 
 2885000    0.7925769   -7.2064217    817.13931    0.0236031  0.023481933            5 
 2886000   0.79640973   -7.2221431    816.02296  0.023562686  0.023475257            4 
 2887000   0.80692181   -7.2059131     817.8518  0.023607314  0.023468556            6 
 2888000   0.78812944   -7.2202798    817.72335  0.023595434  0.023461856           10 
 2889000   0.78056765   -7.2055941    815.44213  0.023521464  0.023455161           11 
 2890000   0.79004124    -7.219249    814.46244  0.023485076  0.023448447           10 
 2891000   0.78934806   -7.2105246    815.94347  0.023519643   0.02344171            3 
 2892000   0.80426895   -7.1857808    816.98724  0.023541587   0.02343498            7 
 2893000   0.81866559   -7.2167225    816.43711  0.023517603  0.023428263            5 
 2894000    0.8045209   -7.2056118     818.7656  0.023576526  0.023421514            4 
 2895000   0.78280937   -7.2199213     816.2014  0.023494571  0.023414793            3 
 2896000   0.78655159   -7.2101269    816.23236  0.023487349  0.023408046            4 
 2897000   0.79036262   -7.2398193    816.38691  0.023483687  0.023401266            4 
 2898000   0.80167449   -7.2019036    817.01631  0.023493683  0.023394532            6 
 2899000    0.7907413   -7.1887668    819.50368  0.023557079  0.023387835           10 
 2900000   0.78042578   -7.1947568    819.02489  0.023535198  0.023381171           10 
 2901000   0.79251819   -7.1758524    817.73714  0.023490094  0.023374481            5 
 2902000   0.79499888   -7.2243387    817.10426  0.023463826  0.023367833            5 
 2903000   0.77928461   -7.2234151    817.32752  0.023462152  0.023361155           11 
 2904000   0.78469894   -7.2132399    818.15053   0.02347769  0.023354484           22 
 2905000   0.78414921   -7.2239042    816.84088  0.023432039  0.023347801            7 
 2906000   0.77401676   -7.2013269    818.98286    0.0234854  0.023341113            4 
 2907000   0.77361837   -7.1740958    818.39639  0.023460509  0.023334447            9 
 2908000   0.78710616   -7.2008141    818.14279  0.023445174  0.023327836            4 
 2909000   0.79568636   -7.2160492    818.88717  0.023458438   0.02332119            3 
 2910000   0.77872156   -7.2177204    818.60651   0.02344234  0.023314566           10 
 2911000   0.78515451   -7.2193428    818.24779  0.023424018  0.023307934            6 
 2912000   0.78105421   -7.2579365    816.91309  0.023377778  0.023301245            5 
 2913000   0.79313226    -7.246697    820.42842  0.023470318  0.023294553            5 
 2914000   0.77098904   -7.2420456    817.07524   0.02336637  0.023287883            6 
 2915000   0.80565446   -7.2371171     816.4893  0.023341604  0.023281227            7 
 2916000   0.79797252   -7.2309459    819.15633  0.023409817   0.02327455            8 
 2917000   0.79959689   -7.2630659    816.62091   0.02332936  0.023267885            7 
 2918000   0.77332426   -7.2635241    817.68802   0.02335184  0.023261193           16 
 2919000   0.78778114   -7.2230243    817.61544  0.023341768  0.023254519            8 
 2920000   0.78213052   -7.2449219    818.75565  0.023366314  0.023247851            6 
 2921000   0.79186647   -7.2459701    820.04843  0.023395196  0.023241185            4 
 2922000   0.78094644   -7.2198256    820.01299  0.023386179   0.02323452           10 
 2923000    0.7993452   -7.2259276    820.62026  0.023395492   0.02322785            6 
 2924000   0.77375395    -7.199087    817.92507  0.023310678  0.023221198            5 
 2925000   0.79147619   -7.2258557    819.67474  0.023352557  0.023214586            6 
 2926000   0.78310731   -7.2137326    820.04832  0.023355215  0.023207959            5 
 2927000   0.78366236   -7.2111931    821.05433  0.023375878  0.023201349            7 
 2928000   0.76295597   -7.2257878    820.29817  0.023346373  0.023194706            8 
 2929000   0.78230005   -7.2183045    822.07278  0.023388892  0.023188064            6 
 2930000   0.77478866   -7.2302919    819.64705  0.023311918  0.023181449            5 
 2931000   0.81051332   -7.2292939    822.39391  0.023382063    0.0231748            8 
 2932000   0.78050002   -7.2386442    820.21371  0.023312122  0.023168196            5 
 2933000   0.77067949   -7.2323042    820.62737  0.023315927   0.02316151           12 
 2934000    0.7808676   -7.2470112    820.71811  0.023310557  0.023154872            7 
 2935000   0.78172882   -7.2387195    822.50992   0.02335349  0.023148225            7 
 2936000   0.80113877   -7.2116148    819.35524  0.023255996  0.023141616            6 
 2937000   0.77308485   -7.2331835    819.40908  0.023249605  0.023135018            9 
 2938000   0.77035837   -7.2585143     821.1874  0.023292132  0.023128393            8 
 2939000    0.7881545   -7.2239362    820.15509  0.023254936  0.023121743            7 
 2940000   0.79776889    -7.205264    819.86394  0.023238774  0.023115147            7 
 2941000   0.79301364   -7.2196822    821.84944  0.023287131  0.023108536            7 
 2942000   0.78122199   -7.2522029     820.8683  0.023251425  0.023101913            7 
 2943000   0.77734682   -7.2442901    820.10091  0.023221795  0.023095258           10 
 2944000   0.78421287    -7.250161    821.01442  0.023239765  0.023088627            8 
 2945000   0.77492522     -7.24696    820.30329  0.023211751  0.023082007            6 
 2946000   0.78305639   -7.2411215    819.35899  0.023177161   0.02307535            9 
 2947000   0.77641178   -7.2596687    821.29167  0.023223947  0.023068664            3 
 2948000   0.76737586    -7.236526    821.44281  0.023220342  0.023062004            6 
 2949000   0.77309815   -7.2303848    820.99055  0.023199688  0.023055363           10 
 2950000   0.77665385    -7.270608    821.44196  0.023204575  0.023048727            5 
 2951000   0.77790686   -7.2548551    821.38306  0.023195049  0.023042067            6 
 2952000   0.78674132   -7.2335031    821.21669  0.023182495  0.023035447            6 
 2953000   0.77475501   -7.2534377    820.93763  0.023166769  0.023028844           13 
 2954000   0.76937061    -7.214431    825.94561  0.023300203  0.023022289           25 
 2955000   0.78650977   -7.2505633    820.28679  0.023132735  0.023015718            5 
 2956000   0.77392209   -7.1979226    821.81005  0.023167852  0.023009147            8 
 2957000   0.76543746   -7.2509327    821.32768  0.023146423  0.023002588            8 
 2958000   0.76428979   -7.2519916    823.32225  0.023194789  0.022995997            9 
 2959000   0.76658343   -7.2379456    823.92476  0.023203919  0.022989413            8 
 2960000   0.77944325   -7.2349817    821.50324  0.023127907  0.022982853            5 
 2961000   0.77736277   -7.2346358    820.95091  0.023104551  0.022976248           10 
 2962000   0.78456399   -7.2545056    822.74858  0.023147327  0.022969657            6 
 2963000   0.77695836   -7.2240591    822.12463  0.023121966  0.022963065            6 
 2964000      0.77017    -7.229342    823.00272  0.023138853  0.022956476            8 
 2965000    0.7807229   -7.2430695    822.92545  0.023128877  0.022949907            6 
 2966000   0.75492815   -7.2304024    822.84295  0.023118761  0.022943345            3 
 2967000    0.7934719   -7.2205692    822.92385  0.023113241  0.022936765           14 
 2968000   0.77673237   -7.2395536    821.65636  0.023069866   0.02293017            3 
 2969000   0.76702392   -7.2343658    823.52653  0.023114588  0.022923569            5 
 2970000   0.76243915   -7.2687964    819.84977  0.023003641  0.022916972           10 
 2971000   0.77258759     -7.22511    822.56099  0.023071945  0.022910365            5 
 2972000   0.76994821   -7.2419787    821.43996  0.023032749  0.022903779           10 
 2973000   0.77624771   -7.2550594    820.88678  0.023009496  0.022897155            8 
 2974000   0.77993706   -7.2298807    822.90492  0.023058309  0.022890551           11 
 2975000   0.77064435   -7.2166911    822.15318  0.023029501  0.022883958            4 
 2976000   0.77644053   -7.2086026     823.7028  0.023065155  0.022877374            4 
 2977000   0.79672429      -7.2395     823.6481  0.023055876  0.022870768            9 
 2978000   0.77650618   -7.2136602    823.95736  0.023056788  0.022864159            9 
 2979000   0.77097827   -7.2276206    822.50422  0.023008398  0.022857556           11 
 2980000   0.76493599   -7.2697358    823.27583  0.023022255  0.022850907            5 
 2981000   0.77795565   -7.2431041    822.48453  0.022992411  0.022844289            5 
 2982000   0.77488191   -7.2252294    822.04315  0.022972366  0.022837661            7 
 2983000   0.78394797   -7.2253796    824.42559  0.023031221  0.022831063            5 
 2984000   0.77062435   -7.2288807    823.20786  0.022989496  0.022824472            7 
 2985000   0.79115198   -7.2191662    822.28207  0.022955948   0.02281786            5 
 2986000    0.7822113   -7.2353915    823.75658  0.022989411  0.022811266           11 
 2987000   0.78683318   -7.2348499    823.79665  0.022982832  0.022804655           13 
 2988000   0.77161176   -7.2413855    822.67571  0.022943879  0.022798038            7 
 2989000   0.77542294   -7.2163827    822.86498  0.022941479  0.022791402            5 
 2990000   0.77929573   -7.2447293    823.09981  0.022940351  0.022784784            8 
 2991000   0.77542294   -7.2469641    824.25724  0.022964929  0.022778175            4 
 2992000   0.78186755   -7.2509863    823.62524  0.022939651  0.022771595            8 
 2993000   0.77697299    -7.226709    822.98128  0.022914057  0.022765017            6 
 2994000   0.77557719   -7.2554097    823.45073   0.02291947  0.022758431            6 
 2995000   0.78005848   -7.2106362    824.70121  0.022946611  0.022751859            7 
 2996000   0.77884603    -7.240775    822.92616  0.022889579  0.022745266            5 
 2997000   0.77728023   -7.2159545    825.33978  0.022949054  0.022738711            5 
 2998000   0.76522275    -7.232636    823.03521  0.022877341  0.022732165            4 
 2999000   0.76830414   -7.2445525    824.28081  0.022904324  0.022725615            8 
 3000000   0.77112309   -7.2526211    823.17242  0.022865901  0.022719063            6 
 3001000   0.78083527   -7.2363294    823.76922  0.022874853  0.022712466            9 
 3002000   0.76206855   -7.2571327    825.21059  0.022907245  0.022705909           16 
 3003000   0.78117566   -7.2304486    822.92142  0.022836092  0.022699352            6 
 3004000   0.76508558   -7.2561734    822.78078  0.022824589  0.022692798           13 
 3005000   0.77457452   -7.2363736     825.5335   0.02289333  0.022686257            5 
 3006000   0.78188933   -7.2471469     823.3931  0.022826378  0.022679757           12 
 3007000   0.76896891   -7.2455911    825.86178  0.022887202   0.02267324            3 
 3008000   0.77299839   -7.2289566    825.22561  0.022861968  0.022666701            7 
 3009000   0.78183688   -7.2645386    825.52746   0.02286273   0.02266015            8 
 3010000   0.75418274   -7.2708332    825.21083  0.022846368   0.02265362            4 
 3011000   0.76836868   -7.2813009    825.53164   0.02284766  0.022647064            4 
 3012000    0.7692962   -7.2548323    825.37925  0.022835858  0.022640513            4 
 3013000   0.77354503   -7.2376997    824.81555  0.022812688   0.02263398            4 
 3014000   0.77189244   -7.2681174     824.8376  0.022805729  0.022627432            6 
 3015000   0.76399839   -7.2420722    825.51677  0.022816937  0.022620894            7 
 3016000   0.77150875   -7.2759473    825.13284  0.022798763  0.022614363            4 
 3017000   0.76887998   -7.2691668     825.8398  0.022810734  0.022607825            7 
 3018000   0.75143428   -7.2555986      825.731  0.022800171  0.022601262           12 
 3019000   0.76240299   -7.2528939    825.38955  0.022783194  0.022594736            8 
 3020000   0.77758379   -7.2597395     826.4044  0.022803653  0.022588217            5 
 3021000   0.76783528   -7.2369903     826.4008  0.022796006  0.022581722            6 
 3022000    0.7699214   -7.2595416     825.6309  0.022767232  0.022575216            7 
 3023000   0.78086793   -7.2716318    825.75235  0.022763048  0.022568701            7 
 3024000   0.76749031   -7.2674797     827.8983  0.022814658  0.022562198           11 
 3025000    0.7661958   -7.2257734    827.30561  0.022790788  0.022555699            4 
 3026000   0.77251023    -7.260865    827.49346   0.02278843  0.022549269            9 
 3027000   0.76575148   -7.2590001    827.76428  0.022788357  0.022542809            9 
 3028000   0.76646184    -7.271654    826.85988  0.022755941  0.022536351            6 
 3029000   0.76808842   -7.2496916    827.04056  0.022753399  0.022529901           16 
 3030000   0.75823525   -7.2571874    827.75377  0.022765505  0.022523463            3 
 3031000   0.76604912   -7.2857335    828.50664  0.022778694  0.022517046            6 
 3032000   0.76859338   -7.2611696    827.32768  0.022738778  0.022510616            6 
 3033000   0.77079572   -7.2620843     826.6942  0.022713875  0.022504189           13 
 3034000    0.7591928   -7.2871271    827.36859  0.022724912  0.022497748            5 
 3035000   0.77068511   -7.2606624     826.7346  0.022700016  0.022491295            7 
 3036000   0.76028849   -7.2450285    826.36255  0.022682327  0.022484882           14 
 3037000   0.75565581   -7.2331448    827.27325  0.022699848  0.022478445            6 
 3038000   0.77395462   -7.2722694    827.94422  0.022710781  0.022472012            3 
 3039000   0.76589533   -7.2551461    828.35096  0.022714461  0.022465571            6 
 3040000    0.7680656    -7.257536    827.14662  0.022673975  0.022459101           15 
 3041000   0.76934037   -7.2924994    825.29458  0.022615767    0.0224526            8 
 3042000    0.7683108   -7.2931794    827.20016  0.022660535  0.022446137            9 
 3043000   0.76683674   -7.2899017    826.66036  0.022638306  0.022439678            6 
 3044000   0.76592045   -7.2674897    827.24366  0.022646837  0.022433249           12 
 3045000    0.7612796   -7.2533614    828.47254  0.022673031  0.022426837           21 
 3046000   0.76488072   -7.2648037    829.38365  0.022690514  0.022420407           10 
 3047000   0.76837418   -7.2791026    828.28739  0.022653085  0.022413952            8 
 3048000    0.7695927   -7.2745427    829.17497  0.022669919  0.022407484            9 
 3049000     0.781364   -7.2937322    828.33009  0.022639392  0.022401025            8 
 3050000   0.76531197   -7.2702522    829.67079  0.022668601   0.02239456            7 
 3051000   0.76020549   -7.2836749    827.45873  0.022600752  0.022388078            9 
 3052000   0.78344876   -7.2709649    827.91267  0.022605741   0.02238162            8 
 3053000   0.77313807   -7.2747988    830.78892  0.022676846  0.022375142            9 
 3054000   0.76786945   -7.2757174    825.83342  0.022534202   0.02236871            7 
 3055000   0.74929997   -7.2648803    826.24846  0.022538147  0.022362212            6 
 3056000   0.74324367   -7.2535477    829.48217  0.022618951  0.022355731            3 
 3057000   0.76328759    -7.265616    827.28404  0.022551631  0.022349279            6 
 3058000   0.77018193   -7.2613098    828.77709  0.022584944  0.022342818            4 
 3059000   0.77282227   -7.2795667    825.82845  0.022497234  0.022336344            9 
 3060000   0.74862915   -7.2471732    827.83343  0.022544483  0.022329872            9 
 3061000   0.76094749   -7.2503607    827.05904  0.022516036  0.022323402            7 
 3062000   0.75499312   -7.2325406    829.11968  0.022564764  0.022316969            4 
 3063000   0.75498785    -7.255708    829.45675  0.022566567  0.022310522            6 
 3064000   0.76034978   -7.2699602    829.06283  0.022548489   0.02230406            5 
 3065000   0.76181304   -7.2657866    829.62573  0.022556437  0.022297612           11 
 3066000   0.76360441   -7.2584597    829.46203   0.02254463  0.022291161           14 
 3067000   0.76766944   -7.2776315    828.24796  0.022504292  0.022284716            5 
 3068000   0.74622215   -7.2739186    828.63073  0.022507354  0.022278248            5 
 3069000   0.77743196   -7.2914097    827.18491  0.022460761  0.022271784            5 
 3070000   0.76053728   -7.2592837    828.92952  0.022500801  0.022265325            8 
 3071000   0.75935214   -7.2548091    829.07812  0.022497507  0.022258895            6 
 3072000   0.77568709   -7.2637348    829.43365  0.022499828  0.022252453            9 
 3073000   0.76615816   -7.2835406    829.95316  0.022506594  0.022246005            4 
 3074000   0.76420016   -7.2806576    826.51314  0.022406016  0.022239561            6 
 3075000   0.77106729   -7.2887784    828.85216  0.022462118  0.022233124            9 
 3076000   0.75111563   -7.2887996     827.6092  0.022421142  0.022226664           15 
 3077000   0.76537308   -7.3227364    828.93786  0.022449839  0.022220216            7 
 3078000    0.7485696   -7.2841974    828.72326  0.022436736  0.022213782           23 
 3079000   0.77536844   -7.2804785    830.61166  0.022480558  0.022207369            9 
 3080000   0.76802265   -7.2451095     828.2413  0.022409126  0.022200941            8 
 3081000   0.75012821    -7.282064    829.87515  0.022446044  0.022194515            8 
 3082000   0.76070218   -7.2837328    829.78746   0.02243639  0.022188078            7 
 3083000    0.7515703   -7.3058666    829.86422  0.022431188  0.022181639            7 
 3084000   0.75514772   -7.2836916    828.79375  0.022394989  0.022175186            6 
 3085000    0.7569683   -7.3046027    828.20151  0.022371732  0.022168718            6 
 3086000   0.76729421   -7.2974845    828.71494  0.022378347  0.022162202            4 
 3087000   0.74248224   -7.3210239    827.87578  0.022348445  0.022155713            5 
 3088000   0.76073126   -7.2883646    830.46634  0.022411117  0.022149239            7 
 3089000   0.76935123   -7.3179283    830.17577  0.022396023  0.022142783            8 
 3090000   0.76151277   -7.3003141    830.52487   0.02239819  0.022136338           10 
 3091000   0.74717592   -7.3152367    827.89217  0.022319966   0.02212987            6 
 3092000   0.75182112   -7.2830568    828.82777  0.022337963  0.022123379            7 
 3093000   0.76771448   -7.2684449    828.79903  0.022329966  0.022116933            7 
 3094000   0.76372176   -7.2760189     829.8005  0.022349723  0.022110466            7 
 3095000    0.7572944   -7.3065282    829.52842  0.022335176  0.022104004            7 
 3096000   0.74002022   -7.2859687    829.38957  0.022324224  0.022097542            6 
 3097000   0.76292199   -7.2771196    829.39031  0.022317035  0.022091066            3 
 3098000    0.7588729   -7.3005994    830.57616   0.02234173  0.022084615            6 
 3099000   0.75961643   -7.3115467    828.64855  0.022282687  0.022078124           12 
 3100000   0.74346944   -7.2832599    829.80191  0.022306503  0.022071618            7 
 3101000   0.76544544   -7.3254569    828.99114  0.022277522  0.022065164            7 
 3102000   0.75332854   -7.2999278    829.22654  0.022276664  0.022058684           13 
 3103000   0.73569751   -7.3105467    826.40211  0.022193633   0.02205221            5 
 3104000   0.74544029   -7.2998217     828.2125  0.022235086  0.022045745            6 
 3105000   0.75390635   -7.2810547    829.26831  0.022256262  0.022039298            6 
 3106000   0.75274605   -7.2594364    829.53827  0.022256339  0.022032881            3 
 3107000   0.74620808   -7.2793174    829.11653  0.022237864  0.022026442            8 
 3108000   0.76444481   -7.3076918    826.57963  0.022162689  0.022019996           12 
 3109000   0.75007561   -7.3099325    830.28051  0.022254758  0.022013555            8 
 3110000   0.75066532   -7.2768905    831.61124  0.022283259  0.022007099            7 
 3111000   0.73543182   -7.2817337    829.13464  0.022209757  0.022000651           14 
 3112000   0.74722491   -7.2965559     830.5967  0.022241771  0.021994207            5 
 3113000   0.73065761    -7.272892    830.31944  0.022227204  0.021987725            8 
 3114000   0.75610095   -7.2711468     830.0493  0.022212837  0.021981268           10 
 3115000   0.75112926   -7.2498995    829.76826  0.022198188  0.021974812            5 
 3116000   0.76902809   -7.3065592    829.37541  0.022180558  0.021968329            5 
 3117000   0.76137525   -7.3038755    828.95272  0.022162141  0.021961845            5 
 3118000    0.7395404   -7.2999783    830.53761  0.022197392  0.021955361            5 
 3119000   0.76011433   -7.2976687    827.77533  0.022116473   0.02194888            6 
 3120000   0.76864872   -7.2875539    829.33207  0.022150963  0.021942399            4 
 3121000    0.7559984   -7.2964795    827.67999  0.022099754  0.021935897            7 
 3122000   0.74519344   -7.3009188    830.57311  0.022169899  0.021929414            9 
 3123000   0.74353835   -7.3168743    829.02547  0.022121504  0.021922925            9 
 3124000   0.74663477   -7.2962207    830.06748  0.022142218  0.021916438           10 
 3125000    0.7470858   -7.2930188    829.06051   0.02210828  0.021909932            5 
 3126000   0.74480767   -7.2837462    830.74127  0.022146014  0.021903465           11 
 3127000   0.73369214     -7.28795    829.59256  0.022108319     0.021897            7 
 3128000   0.76206521   -7.3037563     829.5922  0.022101241  0.021890537            6 
 3129000   0.75129699   -7.3130644    827.26935  0.022032315  0.021884066           10 
 3130000   0.74129149   -7.3051399     828.7696  0.022065218  0.021877587            5 
 3131000    0.7507406    -7.269718     829.8159  0.022086019  0.021871127            7 
 3132000   0.75695396   -7.3057097    830.32163  0.022092423   0.02186469            9 
 3133000    0.7537392   -7.2999975    830.64421  0.022093952  0.021858245            7 
 3134000   0.73606872   -7.3417144    829.69439  0.022061646  0.021851774            6 
 3135000   0.74824363   -7.3091767     829.5511    0.0220508  0.021845293            8 
 3136000   0.74012818   -7.2956443     829.3185  0.022037588  0.021838821            6 
 3137000   0.75921259   -7.2811636    830.96386  0.022074271   0.02183238            7 
 3138000   0.73762094   -7.2757128    832.40543  0.022105519  0.021825966            5 
 3139000   0.75212144   -7.2554538    832.49781  0.022100929  0.021819559           12 
 3140000   0.75221419   -7.3008767    829.01777  0.022001533  0.021813126            6 
 3141000   0.73398045   -7.3016372    829.52104  0.022007881   0.02180666           12 
 3142000   0.74775529   -7.3146502     832.2901  0.022074319  0.021800217           12 
 3143000   0.77226914   -7.3260323    830.16313  0.022010901   0.02179377            6 
 3144000   0.75071949   -7.2933369    830.00145  0.021999614  0.021787324            9 
 3145000   0.74303571   -7.3447178    829.20637  0.021971552    0.0217809            7 
 3146000   0.77126743   -7.2745441     832.2621   0.02204551  0.021774478            7 
 3147000    0.7393285   -7.2976701     831.8912  0.022028683    0.0217681            6 
 3148000   0.74617512   -7.3204849    829.42655  0.021956442  0.021761716            9 
 3149000   0.76795758   -7.3034268    831.59253  0.022006789  0.021755299           12 
 3150000   0.76484768   -7.2932647    832.14471   0.02201441  0.021748883            5 
 3151000   0.74352689   -7.3307871    831.01845  0.021977638   0.02174247           27 
 3152000   0.74874626   -7.3262844    830.32633  0.021952367  0.021736052            7 
 3153000   0.75045627   -7.3202158    830.05561   0.02193825  0.021729594            8 
 3154000   0.76373264   -7.3015879    832.08216  0.021984838  0.021723138           11 
 3155000   0.74047937   -7.3022494    832.81582  0.021997248  0.021716722           20 
 3156000   0.76779063   -7.2961718    829.68454  0.021907598  0.021710287            7 
 3157000   0.75664685    -7.308898    832.37368  0.021971642  0.021703862            8 
 3158000   0.75659698   -7.3201626    830.82526  0.021923825  0.021697454           13 
 3159000   0.75499604   -7.3107502    830.78914  0.021915932  0.021691031            5 
 3160000   0.75677111   -7.3122817    830.27849   0.02189553  0.021684618            3 
 3161000   0.73887922   -7.3105468    831.04793  0.021908888  0.021678206            3 
 3162000    0.7466067   -7.3282103    831.96645  0.021926166  0.021671823            5 
 3163000   0.73549157   -7.3278766    830.80082  0.021888524    0.0216654            8 
 3164000   0.75703916   -7.3274232    830.51401  0.021874052  0.021658983           30 
 3165000   0.74660469   -7.3214846    830.32682  0.021862212  0.021652561            8 
 3166000   0.74197093   -7.3383216    831.58358  0.021888386  0.021646134           19 
 3167000   0.72669421   -7.3103465    831.19531  0.021871259  0.021639734           14 
 3168000   0.74165751   -7.2768703     832.7108  0.021904219  0.021633358            8 
 3169000   0.74402785   -7.2775842    833.58881  0.021920396     0.021627           10 
 3170000    0.7373742   -7.2861356    832.14602  0.021875552  0.021620623            8 
 3171000   0.74964619   -7.3235263    830.58299  0.021827578  0.021614236            6 
 3172000   0.74214687   -7.3108475    833.25476  0.021890888  0.021607807            6 
 3173000   0.73770275   -7.2833399    832.06507  0.021852744  0.021601405            3 
 3174000   0.74732797   -7.3212236    832.09596   0.02184667  0.021594988           10 
 3175000   0.75973718   -7.3227906    831.07979  0.021813118  0.021588573           19 
 3176000   0.73512138   -7.3468991    830.53448  0.021791942  0.021582166           13 
 3177000   0.74211444   -7.3032437    833.24395  0.021856152  0.021575746           12 
 3178000   0.73747012   -7.3063128    832.87713  0.021839656  0.021569363            7 
 3179000   0.73329816   -7.3438156    831.71333  0.021802279  0.021562972            9 
 3180000   0.73211101   -7.3026074    833.38511  0.021839233  0.021556579            9 
 3181000   0.75137136   -7.3102433    833.92522  0.021846516  0.021550225           10 
 3182000   0.74412494   -7.3311071    834.00307  0.021841689   0.02154386            8 
 3183000   0.73477343    -7.350861    833.56969  0.021823481  0.021537478            7 
 3184000   0.74569411   -7.3198692    833.92278  0.021825869  0.021531126            8 
 3185000    0.7380242   -7.3207729    832.71839  0.021787504  0.021524791            4 
 3186000   0.73846745   -7.3138412    833.92125  0.021812127  0.021518424           10 
 3187000   0.74662791   -7.3357485    831.11165  0.021731818  0.021512053            6 
 3188000   0.74624012   -7.2960088    834.58494  0.021815792  0.021505704            8 
 3189000   0.73156542   -7.2999984    834.29476  0.021801368   0.02149937            9 
 3190000   0.75243331   -7.3265686    833.49227   0.02177357  0.021493031           11 
 3191000   0.74573974    -7.331436     835.3775   0.02181598   0.02148668           10 
 3192000   0.74273675   -7.3230837    832.15158  0.021724926   0.02148031            7 
 3193000   0.72889934   -7.3093168    833.50784  0.021753519  0.021473938            7 
 3194000   0.74893486   -7.2774883    834.00553  0.021759694  0.021467608            6 
 3195000   0.74315784   -7.3235444    833.25194  0.021733227  0.021461293            4 
 3196000   0.74391039   -7.2953706    834.86159  0.021768398  0.021454966            4 
 3197000   0.74943699   -7.3320301    834.77002  0.021759202  0.021448636            9 
 3198000   0.73414563   -7.3297131    833.56399  0.021720971  0.021442324            8 
 3199000   0.73352393   -7.3289105    832.64831  0.021690328  0.021436011            7 
 3200000   0.75215217   -7.3203468    834.55213  0.021733128  0.021429688            7 
 3201000   0.73986034   -7.3250848    835.69054  0.021755976  0.021423397           11 
 3202000   0.72706671   -7.3313886    833.88987  0.021702318  0.021417108            9 
 3203000   0.74244512   -7.3034147    834.85697  0.021720704  0.021410818            4 
 3204000   0.74508553   -7.3205748    834.97742  0.021717057  0.021404529            4 
 3205000   0.74116836   -7.3098141     833.7728   0.02167896  0.021398243            9 
 3206000   0.75651954   -7.3199762    835.70355  0.021722384  0.021391968            9 
 3207000   0.72693664   -7.3074945    835.37005  0.021706944  0.021385675            9 
 3208000   0.74121305   -7.3074852    834.97966  0.021690037  0.021379398            7 
 3209000   0.73043446   -7.2974655    834.71527  0.021676412  0.021373129           10 
 3210000   0.74179812     -7.31046    835.07793  0.021679074  0.021366867           14 
 3211000   0.73531527   -7.3422713    834.66896  0.021661709  0.021360593            5 
 3212000   0.74760195   -7.3031225    835.05378  0.021664949  0.021354326            9 
 3213000   0.76275267   -7.2949881    836.17157  0.021687197  0.021348066           12 
 3214000   0.71285078   -7.3088433    836.56388  0.021690621  0.021341808           12 
 3215000   0.74005488   -7.3125698     835.7081  0.021661693  0.021335544            9 
 3216000   0.72833399   -7.3247981    835.80175  0.021657384  0.021329265            9 
 3217000   0.73729174   -7.3381453    834.74179  0.021623194  0.021322986           12 
 3218000   0.73083778   -7.3067514    835.98741  0.021648731  0.021316721            9 
 3219000   0.74397601   -7.3329032    836.13739  0.021645889  0.021310438            4 
 3220000   0.73620069   -7.3169066    835.61409  0.021625624  0.021304158            5 
 3221000    0.7402685   -7.3312796    835.70987  0.021621388  0.021297876            8 
 3222000   0.74040334   -7.3469094    836.26067  0.021628923  0.021291608            9 
 3223000   0.73445077   -7.3175193    836.66714  0.021632722  0.021285334            6 
 3224000   0.72591619   -7.3435062    835.58837  0.021598128  0.021279056           10 
 3225000   0.72578433   -7.3189521     834.8132  0.021571401  0.021272758            6 
 3226000   0.71876068   -7.3409259    834.56324  0.021558257  0.021266469           12 
 3227000   0.73641687   -7.3488347    834.54531  0.021551113  0.021260172           12 
 3228000   0.72496457   -7.3324857    834.36461  0.021539772  0.021253885           10 
 3229000   0.73345928   -7.3231579    836.28969  0.021582783   0.02124759            8 
 3230000    0.7275763   -7.3402901    835.31726  0.021551013  0.021241322           18 
 3231000   0.74913231   -7.3145909    835.46092  0.021548048  0.021235056           10 
 3232000   0.74435773   -7.3384996    834.64626  0.021520376  0.021228794            8 
 3233000    0.7199728   -7.3553566    834.48852  0.021509654  0.021222496           12 
 3234000   0.73106313    -7.338498    833.83829  0.021486247    0.0212162            7 
 3235000   0.74559712    -7.337357    835.55382  0.021523798   0.02120989           18 
 3236000   0.74556643   -7.3398968    836.29768  0.021536302  0.021203614           10 
 3237000   0.73753714   -7.3374138    834.57952  0.021485417  0.021197333            9 
 3238000   0.72878389   -7.3261026    835.43755  0.021500863  0.021191062            6 
 3239000   0.72431602    -7.316601    835.40831  0.021493473  0.021184786            7 
 3240000   0.73512165   -7.2944666    835.94081  0.021500535  0.021178512            8 
 3241000   0.73339258   -7.3411731    835.37181  0.021479271  0.021172256            7 
 3242000   0.74049271   -7.3338784    836.06718   0.02149052  0.021166005            8 
 3243000   0.74866611   -7.3742844    834.56638  0.021445328   0.02115973            6 
 3244000   0.73677348    -7.329022    836.24163  0.021481752   0.02115346           12 
 3245000   0.73611383   -7.3368711    837.45582  0.021506313  0.021147191            8 
 3246000   0.72373104   -7.3318824    835.08366  0.021438788  0.021140903           13 
 3247000   0.74663337   -7.3540804     835.4382  0.021441284  0.021134599           10 
 3248000   0.72995859   -7.3243374    835.54439  0.021437407  0.021128287            4 
 3249000   0.71555298   -7.3504973    835.27579   0.02142392  0.021122007            5 
 3250000    0.7415589   -7.3262921    837.28188  0.021468766  0.021115749            9 
 3251000   0.75142255   -7.3435528    835.10286  0.021406307  0.021109495            4 
 3252000   0.73282589   -7.3383205    836.09363  0.021425113  0.021103265            7 
 3253000   0.74051137    -7.355743    836.15127  0.021420004   0.02109704            7 
 3254000   0.72893184   -7.3263073    837.67762   0.02145251  0.021090791           10 
 3255000   0.73777974   -7.3515315    835.96003  0.021401947  0.021084525            7 
 3256000    0.7357496   -7.3575871    836.72315  0.021414904  0.021078267            4 
 3257000   0.72199758   -7.3416833    836.53169  0.021403431  0.021072012            6 
 3258000   0.72768066   -7.3486607     835.5455  0.021371636  0.021065744            4 
 3259000   0.71318551   -7.3501118    836.64978  0.021393316  0.021059512            8 
 3260000   0.72019392   -7.3779294    834.87646  0.021341423  0.021053254            6 
 3261000   0.72962212    -7.325818    834.79223  0.021332726  0.021046979            8 
 3262000   0.72961103   -7.3287136    837.98632  0.021407784   0.02104074           15 
 3263000   0.72814704   -7.3182976    836.57794  0.021365255   0.02103452            7 
 3264000   0.73077748      -7.3545     835.0198  0.021318929  0.021028301            6 
 3265000   0.73650125    -7.352514    836.56104  0.021351737  0.021022065            7 
 3266000   0.72439489   -7.3074578    836.72069  0.021349273  0.021015843            6 
 3267000    0.7314556   -7.3631871    839.20829   0.02140619  0.021009674            6 
 3268000   0.73036564   -7.3314037    838.76133  0.021388243  0.021003483           10 
 3269000   0.73049014   -7.3394872     837.4801  0.021349039    0.0209973           11 
 3270000   0.72772821   -7.3425477     838.0623  0.021357347  0.020991129           10 
 3271000   0.74063887   -7.3170489    838.10356  0.021351869  0.020984941           10 
 3272000    0.7459383   -7.3328536    838.79345  0.021362914   0.02097876            6 
 3273000   0.72764277   -7.3168862    837.57018  0.021325241   0.02097257           18 
 3274000   0.73110877   -7.3415654    837.88744  0.021326803  0.020966406            9 
 3275000   0.73926897   -7.3242546    838.46932  0.021335097   0.02096022           12 
 3276000   0.72330502   -7.3825715    836.75248  0.021284913   0.02095401            6 
 3277000   0.71306793   -7.3277004    836.75177  0.021278399  0.020947795           14 
 3278000   0.73354965    -7.349626    837.00685  0.021278392  0.020941589           12 
 3279000   0.72252108   -7.3473519    837.37505  0.021281261  0.020935397            4 
 3280000   0.70593142   -7.3438164    837.16957  0.021269552  0.020929189           12 
 3281000   0.71089892   -7.3350503    837.96622  0.021283303  0.020922984            6 
 3282000   0.72808672   -7.3376909     836.6856  0.021244302  0.020916754            8 
 3283000   0.74414072   -7.3428945    834.80942  0.021190208  0.020910529           22 
 3284000   0.72462342   -7.3364691    837.77406  0.021258985  0.020904302           20 
 3285000   0.69944351   -7.3411202    837.66763  0.021249813  0.020898082            9 
 3286000   0.74577572   -7.3534874    838.26919  0.021258602  0.020891874            6 
 3287000   0.73233398   -7.3442921    835.82218  0.021190097  0.020885688           12 
 3288000   0.72995122    -7.361881     837.0713  0.021215311  0.020879493           16 
 3289000   0.73372122   -7.3488784    838.01149  0.021232682  0.020873292           11 
 3290000   0.73024633   -7.3303876    837.87936  0.021222881  0.020867085           11 
 3291000   0.73944352   -7.3385158    838.27556  0.021226465  0.020860904           14 
 3292000   0.71127496   -7.3437368    836.82785   0.02118337  0.020854727            3 
 3293000   0.72686962    -7.366184    837.10445  0.021183937  0.020848552           15 
 3294000   0.71561249   -7.3498871    838.95678  0.021224367  0.020842369            7 
 3295000   0.72160558   -7.3599596    838.42969  0.021204595  0.020836216           10 
 3296000   0.72341352   -7.3398697    838.77047  0.021206778  0.020830048            3 
 3297000   0.72018714   -7.3501049    838.96355  0.021205226  0.020823894            7 
 3298000   0.73177585   -7.3574151    837.24277  0.021155316  0.020817726           19 
 3299000   0.71730094    -7.378469    835.37902  0.021101824  0.020811568           21 
 3300000   0.72633108   -7.3661761    836.12399  0.021114242  0.020805404           20 
 3301000   0.72785396   -7.3623714    837.93815  0.021153644  0.020799216            9 
 3302000   0.73725184   -7.3562412    839.42655  0.021184801  0.020793033           11 
 3303000   0.73289681   -7.3157527    839.05766   0.02116908  0.020786884            9 
 3304000    0.7190737   -7.3716482    836.79508  0.021105606  0.020780759            6 
 3305000    0.7224537   -7.3689493    837.64053  0.021120538  0.020774627           16 
 3306000   0.71888601   -7.3562943    838.74757  0.021142054  0.020768489            7 
 3307000   0.72391235   -7.3662512    840.59348  0.021182176  0.020762371           13 
 3308000   0.71523047   -7.3817811     838.7073  0.021128257  0.020756255            5 
 3309000   0.72355872   -7.3749068      838.128  0.021107283  0.020750115            8 
 3310000   0.72131169   -7.3832642    838.63865  0.021113763  0.020743985            7 
 3311000   0.73156369    -7.359341    838.29473   0.02109873  0.020737858           18 
 3312000   0.72941624   -7.3674521    838.38084  0.021094526  0.020731758           12 
 3313000   0.73090736   -7.3184877    839.44164  0.021114842  0.020725658            9 
 3314000   0.70707087   -7.3677671    838.17761  0.021076685  0.020719546            5 
 3315000   0.71331329   -7.3821009    837.43504   0.02105166  0.020713412           13 
 3316000   0.71726523   -7.3667206    838.85714   0.02108105  0.020707274            9 
 3317000   0.71664753   -7.3785987    839.55675  0.021092271  0.020701139           19 
 3318000   0.71148827   -7.3858704    838.81885  0.021067381  0.020695023            9 
 3319000   0.72336597   -7.3589566    841.02135  0.021116334   0.02068891            5 
 3320000   0.70820083   -7.3516561    841.04696  0.021110616  0.020682833            6 
 3321000   0.73152549   -7.3903335    838.15137  0.021031601  0.020676738            9 
 3322000   0.72460115     -7.37803    840.65944  0.021088186  0.020670628           13 
 3323000   0.71535158   -7.3809822     839.3919  0.021050053  0.020664513            8 
 3324000   0.70487905   -7.3510882    839.83631  0.021054861  0.020658417            9 
 3325000   0.71732983   -7.3697341    839.25013  0.021033838  0.020652314           12 
 3326000   0.73312771   -7.3625973    840.53113  0.021059609  0.020646199           13 
 3327000   0.71922233   -7.3754279    839.66013  0.021031463  0.020640096           10 
 3328000   0.71165085   -7.3627919     838.4837  0.020995686  0.020633984            8 
 3329000   0.74007493   -7.3641961    838.65565  0.020993683   0.02062787           19 
 3330000   0.71626821   -7.3818208    840.28113  0.021028056  0.020621756           14 
 3331000   0.72861946   -7.3958344    837.44498   0.02095079   0.02061562            8 
 3332000   0.72867809   -7.3756164    839.40472  0.020993515  0.020609501            9 
 3333000   0.70975905   -7.3724429    841.08342  0.021029188  0.020603402            9 
 3334000   0.71582026   -7.3584288    840.28327  0.021002881   0.02059732            8 
 3335000    0.7185966   -7.3708831    840.63181  0.021005293  0.020591222           10 
 3336000   0.73329579   -7.3929231    839.30403  0.020965828  0.020585129           14 
 3337000   0.71849541   -7.3727717     841.5913  0.021016664  0.020579043            6 
 3338000   0.73988385   -7.3876357    840.55834   0.02098458  0.020572937           22 
 3339000   0.70700198   -7.4012635     841.2205  0.020994821  0.020566835            4 
 3340000   0.72196086   -7.3781364    842.46786  0.021019657  0.020560756            7 
 3341000   0.72681361   -7.3733556    840.09515  0.020954184  0.020554703            8 
 3342000   0.71741697   -7.3689116     839.3373  0.020929017  0.020548627           11 
 3343000   0.71991743   -7.3984145    840.39513  0.020949126  0.020542541           13 
 3344000   0.71817933   -7.3913319    839.36247  0.020917127  0.020536447            6 
 3345000   0.70676557   -7.4071338    840.33722  0.020935157   0.02053036           20 
 3346000   0.72021799   -7.3813134    838.25816  0.020877121  0.020524256            9 
 3347000   0.72246779   -7.3879148    841.14626  0.020942791  0.020518162           12 
 3348000   0.72568901   -7.4052817    839.04995  0.020884358  0.020512095            7 
 3349000   0.70898788   -7.3914077    839.89855  0.020899237  0.020506021            9 
 3350000    0.7364052   -7.3953373    839.40523  0.020880727  0.020499934           11 
 3351000   0.73527641   -7.3628052    841.56403  0.020928181  0.020493885           14 
 3352000   0.71474519   -7.3885495    842.41088  0.020942991  0.020487847           16 
 3353000   0.70816078     -7.38258     839.9079  0.020874538  0.020481795           21 
 3354000   0.70700617   -7.3810899    840.37677  0.020879963   0.02047573            8 
 3355000   0.70939846   -7.3678132    839.87561  0.020861292  0.020469666           24 
 3356000   0.70449692   -7.3817348    841.96693  0.020907006  0.020463619           10 
 3357000   0.72050673   -7.3853643    841.80711   0.02089681  0.020457563           14 
 3358000   0.73457125   -7.4060035     842.8143  0.020915582  0.020451487           12 
 3359000   0.69852769   -7.4256372    840.34267  0.020848037  0.020445407           17 
 3360000   0.71652363   -7.3900439    839.49461  0.020820799  0.020439345           15 
 3361000   0.71069782   -7.4090038    840.76438  0.020846087   0.02043327           10 
 3362000   0.71094086    -7.399047    841.11348  0.020848539  0.020427178           14 
 3363000   0.71949548   -7.3668517    840.17063  0.020818977  0.020421093           14 
 3364000   0.72741091   -7.4008162    839.71602  0.020801527  0.020415027           16 
 3365000   0.72793346   -7.4059895    840.66641  0.020818881  0.020408939           14 
 3366000   0.69604806   -7.3735374    842.16146  0.020849709  0.020402878           14 
 3367000   0.70777144    -7.385988     841.5666  0.020828794  0.020396816           26 
 3368000   0.71037552   -7.3761366     843.2216  0.020863559   0.02039078           18 
 3369000   0.71634936    -7.404163    841.90145  0.020824712  0.020384727           24 
 3370000   0.70921409   -7.3768336     839.6069  0.020761793  0.020378677            9 
 3371000      0.69838     -7.35632    840.39851  0.020775203  0.020372606           11 
 3372000   0.72073009   -7.3852086    841.52038  0.020796767  0.020366561           14 
 3373000   0.72069068   -7.3584303    841.69666  0.020794957  0.020360508           11 
 3374000   0.69621027   -7.4167736    841.00626  0.020771741  0.020354458           22 
 3375000   0.69290632    -7.383745    840.27445  0.020747517  0.020348396           15 
 3376000   0.70550304   -7.3789716    842.19083  0.020788676  0.020342315            6 
 3377000    0.6980645   -7.4035579    839.71739  0.020721483  0.020336239           15 
 3378000   0.70965634   -7.3796313    842.05491  0.020773014  0.020330172            9 
 3379000   0.71334798   -7.3860929     841.1689  0.020745016  0.020324097           12 
 3380000   0.68730286   -7.4153899    842.18299   0.02076388  0.020318033           16 
 3381000   0.71782713   -7.3972413    840.17307  0.020708199   0.02031197            6 
 3382000   0.70978406   -7.4079989    840.55509   0.02071149  0.020305922            5 
 3383000   0.70738275   -7.3894031    842.62445  0.020756342  0.020299881            8 
 3384000   0.72752146   -7.3831321    841.53089  0.020723278  0.020293838            9 
 3385000   0.73098401   -7.3726333    840.84625  0.020700302  0.020287806            9 
 3386000   0.70220533   -7.3897563    840.10466  0.020675937  0.020281761           18 
 3387000   0.70414435   -7.4038856     842.0151  0.020716837  0.020275704           12 
 3388000   0.70287734   -7.4055392    839.76863  0.020655466  0.020269638           14 
 3389000   0.70693353     -7.42036     839.5424  0.020643808  0.020263568           13 
 3390000   0.71413831   -7.3820465    843.14443  0.020726264  0.020257509            7 
 3391000   0.71237764   -7.3909784    841.04969  0.020668674  0.020251467           12 
 3392000     0.703692   -7.3832865    840.57596  0.020650942  0.020245424            8 
 3393000   0.70968726    -7.376279    840.34193  0.020639108  0.020239389           12 
 3394000   0.71263657   -7.4068354    838.95706  0.020599024  0.020233332           11 
 3395000   0.70403889   -7.4060659    840.72022  0.020636235  0.020227263            7 
 3396000   0.71769885   -7.3919037    840.98853  0.020636743  0.020221213            6 
 3397000   0.70043996   -7.4109447    842.49086  0.020667522   0.02021515           10 
 3398000   0.70520038   -7.4234311    840.19289  0.020605084  0.020209104            9 
 3399000   0.70840363   -7.3900057    842.20968  0.020648467   0.02020305           13 
 3400000   0.70320724   -7.4110275      840.045  0.020589338  0.020197034            9 
 3401000   0.70918854   -7.4018999    843.25089  0.020661837  0.020191018           14 
 3402000   0.69409996   -7.3996829    841.89022  0.020622433  0.020185015           41 
 3403000   0.70685872   -7.3900685    842.80065  0.020638668     0.020179           20 
 3404000   0.71063971   -7.3939609    842.69664  0.020630059  0.020173008           29 
 3405000   0.70860744   -7.3686255    843.27636  0.020638188  0.020167017           11 
 3406000   0.69976818   -7.3716257    842.47835  0.020612604   0.02016103            7 
 3407000   0.69755644   -7.3859154    842.51598  0.020607474  0.020155048            8 
 3408000   0.71311291   -7.3935291     843.6481   0.02062911  0.020149066            7 
 3409000   0.70583652   -7.3859803    842.21677   0.02058807  0.020143092           11 
 3410000   0.69040331   -7.3965587    842.26909  0.020583311  0.020137097           12 
 3411000   0.68685816   -7.3852415    841.25145  0.020552415  0.020131084           15 
 3412000   0.69620228   -7.3832969    841.37906  0.020549508   0.02012507           12 
 3413000   0.72040161    -7.385874      842.211    0.0205638  0.020119041           19 
 3414000   0.69736247   -7.4100215    840.96691  0.020527409  0.020113045           14 
 3415000   0.70941213   -7.3800936    845.33662  0.020628029  0.020107055           12 
 3416000   0.71410714   -7.3822364    841.70216  0.020533328  0.020101068            7 
 3417000   0.70017626   -7.4208815    841.33108  0.020518269  0.020095066           11 
 3418000   0.72191643   -7.3903537    843.23706  0.020558735  0.020089064           16 
 3419000   0.71521678   -7.4001225    842.28132  0.020529427  0.020083081           15 
 3420000   0.68628174    -7.396576     843.0825  0.020542946  0.020077098            6 
 3421000   0.70024868   -7.4169501    843.59327  0.020549383  0.020071113            6 
 3422000   0.69456922   -7.4099828    842.62634  0.020519831  0.020065123            9 
 3423000   0.72077825   -7.3985802    842.58609  0.020512856   0.02005916            7 
 3424000   0.71206865   -7.4392569    843.00758  0.020517124  0.020053178            4 
 3425000   0.70794141    -7.402416    841.16249  0.020466241  0.020047202            8 
 3426000   0.70077481   -7.4289747    841.99069  0.020480412  0.020041226            8 
 3427000   0.69340046   -7.4010288    840.98219  0.020449912  0.020035236            6 
 3428000   0.71358363   -7.4285851    843.92116  0.020515392  0.020029261           11 
 3429000   0.70079908   -7.3945298    842.85574  0.020483517  0.020023272            7 
 3430000   0.71493918   -7.3953503    843.28652  0.020488011  0.020017307            9 
 3431000   0.72507232   -7.4222704    840.50276  0.020414426  0.020011336            5 
 3432000   0.71553442   -7.4214848    842.13071  0.020448007  0.020005347           11 
 3433000   0.71740398    -7.411699    842.04669  0.020440011  0.019999365           16 
 3434000   0.70751294   -7.4128734    843.10182  0.020459664  0.019993391            9 
 3435000   0.69327686   -7.4179078    840.44151  0.020389168  0.019987416            8 
 3436000   0.69009023   -7.4232771    840.70738  0.020389682  0.019981464           10 
 3437000   0.69918959   -7.4097569    843.56931   0.02045314  0.019975505           10 
 3438000   0.70818527   -7.3986444    844.77995  0.020476536  0.019969557           17 
 3439000   0.70673956   -7.4191558    843.63762  0.020442901  0.019963609            6 
 3440000   0.70655504   -7.3836667    843.77574  0.020440304  0.019957671            5 
 3441000   0.69099906   -7.4023597    843.55635   0.02042905  0.019951746            9 
 3442000   0.69888982   -7.3756439    844.68877  0.020450532  0.019945831           11 
 3443000   0.70143573   -7.3975659    845.12824  0.020455229  0.019939935           10 
 3444000   0.71208545   -7.4066514    844.80432  0.020441452  0.019934035            7 
 3445000   0.69423038   -7.3986479    843.69856   0.02040877  0.019928125            7 
 3446000   0.69862396   -7.4173211     841.9364  0.020360234  0.019922209            9 
 3447000   0.70215724   -7.4007555    840.22771  0.020313019  0.019916256            7 
 3448000    0.6995467   -7.4225339     842.9047  0.020371827  0.019910302           10 
 3449000    0.6942086   -7.4119774    844.97024  0.020415827  0.019904365           16 
 3450000   0.69462547   -7.4051746    845.29369  0.020417722  0.019898429            4 
 3451000   0.70322645   -7.4082659    844.58811  0.020394767  0.019892509            7 
 3452000   0.71508053   -7.4099249    843.76796  0.020369061  0.019886571            8 
 3453000   0.69680783   -7.3959217    844.53724  0.020381727  0.019880632            8 
 3454000   0.69147197   -7.3963478    843.22413  0.020344145    0.0198747            3 
 3455000   0.70275995   -7.4145995    844.14639  0.020360501  0.019868751           12 
 3456000   0.70678632   -7.4183685      841.246  0.020284674    0.0198628           11 
 3457000   0.71221248   -7.4044137     844.6229  0.020360209  0.019856846            9 
 3458000   0.70918067   -7.3941497    844.01417  0.020339651  0.019850914           11 
 3459000   0.70371105   -7.4058593    844.07066  0.020335132  0.019844984            4 
 3460000   0.70202926   -7.4369013    844.92676  0.020349874  0.019839023           11 
 3461000   0.71600153   -7.4058407    844.09036  0.020323855  0.019833095           11 
 3462000   0.69553482   -7.4024509    844.55594  0.020329192  0.019827154            8 
 3463000   0.69981978   -7.4377824    841.63825   0.02025311  0.019821204            7 
 3464000   0.71444256   -7.4005068    844.40678  0.020313866  0.019815264           26 
 3465000   0.67810721   -7.4165453    843.70487  0.020291122  0.019809337           16 
 3466000   0.69239877   -7.4161714    844.40194  0.020302028  0.019803411           11 
 3467000   0.68936561   -7.4166045    844.28705  0.020293411   0.01979747            4 
 3468000   0.69524704   -7.4340142    843.25189  0.020262685  0.019791531           11 
 3469000     0.681048   -7.3984583    844.12589  0.020277839  0.019785616            9 
 3470000   0.69232521   -7.4057603    843.33968  0.020253114    0.0197797           10 
 3471000   0.70346075    -7.428076    844.29354   0.02027018  0.019773791           12 
 3472000   0.68201832   -7.4326563     844.6515  0.020272933  0.019767895           12 
 3473000   0.70393938   -7.4144551    845.00461  0.020275569  0.019761979           10 
 3474000   0.67538772   -7.4376609    845.51143   0.02028189  0.019756078           12 
 3475000   0.71285188   -7.3977099    845.07127  0.020265498  0.019750179            7 
 3476000   0.69940854   -7.4259451    844.05469  0.020235297  0.019744298            7 
 3477000   0.69229213   -7.3978391    843.99676  0.020228088  0.019738412           12 
 3478000   0.69099225   -7.4024352    846.79135  0.020289231  0.019732521            5 
 3479000   0.70660155   -7.4441841    844.33569  0.020224578  0.019726649            7 
 3480000   0.68673371   -7.4228624    846.39597  0.020268103  0.019720786            7 
 3481000   0.69546348   -7.4188803    843.55445  0.020194256  0.019714914           13 
 3482000   0.69726636   -7.4037155    845.10015  0.020225449  0.019709032           19 
 3483000   0.68249938   -7.4308415    845.27988  0.020223942  0.019703162           15 
 3484000   0.69326479   -7.4032583     844.9522    0.0202103    0.0196973           21 
 3485000   0.67767931   -7.4078134    844.41661  0.020191693  0.019691458           17 
 3486000   0.70206186   -7.3850224    845.77023   0.02021826  0.019685637            9 
 3487000   0.70169674   -7.3893122     846.2935  0.020224966  0.019679839            9 
 3488000    0.6966141   -7.4024362    845.74455  0.020206053  0.019674037            7 
 3489000   0.68286882   -7.4150703    846.93843  0.020228777  0.019668225            9 
 3490000   0.70961296    -7.420521    846.01427  0.020200914  0.019662408           11 
 3491000   0.68419495   -7.4267772    844.57453  0.020160759  0.019656595           10 
 3492000   0.67706143   -7.4002579    845.00626  0.020165289  0.019650757           13 
 3493000   0.67746256   -7.4138146    846.38429  0.020192392  0.019644937            9 
 3494000   0.67962825   -7.4027529    846.24213  0.020183222  0.019639143           14 
 3495000   0.67972623    -7.434162    845.61269  0.020162439  0.019633336           11 
 3496000   0.67986341   -7.4295623    844.41173  0.020128045  0.019627522           31 
 3497000   0.70014072   -7.4247652    844.09521  0.020114746  0.019621704           13 
 3498000   0.67593544   -7.4122211    846.66048  0.020170109  0.019615882           14 
 3499000   0.69461985   -7.4325137    846.81843  0.020168106  0.019610056           15 
 3500000   0.69185056   -7.4192914    844.39431  0.020104626  0.019604222           14 
 3501000   0.69863566     -7.44437    845.52439  0.020125783  0.019598389            9 
 3502000   0.67996698   -7.4435014    846.89574  0.020152669  0.019592549            9 
 3503000   0.68029358   -7.4506618    846.02949  0.020126308  0.019586721           19 
 3504000   0.69989567   -7.4278221    846.73064  0.020137239  0.019580909           18 
 3505000   0.68434054   -7.4354958    846.14311  0.020117525  0.019575106            6 
 3506000   0.67232577   -7.4080866    847.87206  0.020152882  0.019569319            7 
 3507000   0.68935797   -7.4081916    848.18357  0.020154538  0.019563547            5 
 3508000   0.69538395   -7.4378263    846.17421   0.02010106  0.019557768           13 
 3509000   0.67648512   -7.4458494    848.93535  0.020160904  0.019551984            4 
 3510000   0.68294275   -7.4595532     846.5791  0.020099219  0.019546187           13 
 3511000   0.67674796   -7.4240183     847.2619  0.020109701  0.019540396           11 
 3512000    0.6933536   -7.4468208    845.91802  0.020072087  0.019534584           16 
 3513000   0.67431811   -7.4255972     843.6624  0.020012867  0.019528786           33 
 3514000   0.70664088   -7.4354771    847.22891   0.02009175  0.019522981            7 
 3515000   0.67721169   -7.4459934    844.65708  0.020025061  0.019517183           19 
 3516000   0.67755526   -7.4647639     846.7808    0.0200697  0.019511377           15 
 3517000   0.68559036   -7.4699243    846.04226  0.020046495  0.019505566           18 
 3518000   0.67276682   -7.4536841    845.08514  0.020018124  0.019499763           21 
 3519000   0.69108589   -7.4506596    846.50882   0.02004615   0.01949397           23 
 3520000   0.69876156   -7.4345781    847.61293  0.020066594  0.019488197           15 
 3521000   0.67656729   -7.4142607     847.6128  0.020060892   0.01948243           14 
 3522000   0.69012331   -7.4034844    847.81645  0.020060014  0.019476674           28 
 3523000    0.6802284   -7.4205655     848.8956  0.020079847  0.019470927           14 
 3524000   0.70994888   -7.4041888    847.76027  0.020047301  0.019465198           14 
 3525000   0.67696883   -7.4496175    846.32862  0.020007769  0.019459465           10 
 3526000   0.69160577   -7.4384777    845.65642  0.019986208  0.019453723           14 
 3527000   0.69174971   -7.4321938    847.99345  0.020035759  0.019447967           16 
 3528000   0.69215781   -7.4367974    846.25832  0.019989095  0.019442226           23 
 3529000    0.6996539   -7.4382723    848.63577  0.020039571  0.019436478            7 
 3530000    0.6765531   -7.4469802    848.45711  0.020029677   0.01943073           15 
 3531000   0.68942072   -7.4260566    847.90143   0.02001089  0.019424974            7 
 3532000   0.69779901   -7.4313787    847.79436  0.020002698  0.019419218           15 
 3533000   0.67384805   -7.4384157    849.00276  0.020025539  0.019413468           18 
 3534000     0.695698   -7.4342419    846.44334   0.01995952  0.019407729            7 
 3535000   0.68145559   -7.4242878    846.98694  0.019966689  0.019402005           14 
 3536000   0.68308326   -7.4470802    845.90366  0.019935512   0.01939627            9 
 3537000    0.7069348   -7.4368017    846.81969  0.019951458  0.019390532            7 
 3538000   0.68727143   -7.4140769    847.05999  0.019951479  0.019384798           14 
 3539000    0.6831981   -7.4252646    848.04181   0.01996896  0.019379077           17 
 3540000    0.6758537   -7.4415325    848.45703  0.019973094  0.019373349            8 
 3541000   0.69854308   -7.4218569    847.79782   0.01995194  0.019367628            5 
 3542000    0.6827728   -7.4175695    848.92984   0.01997294  0.019361914            6 
 3543000   0.67574401   -7.4369105    849.40347  0.019978443  0.019356196           10 
 3544000   0.67971414   -7.4390988    849.69724  0.019979713  0.019350473           23 
 3545000   0.68200861   -7.4456908    848.14957  0.019937695  0.019344751           11 
 3546000   0.68271009   -7.4311494    846.80939  0.019900578  0.019339023            5 
 3547000   0.68402542   -7.4334694    849.93243   0.01996834   0.01933331            7 
 3548000   0.69245098   -7.4506842    848.40641   0.01992687  0.019327586           20 
 3549000   0.67647708   -7.4569924    848.59114  0.019925593  0.019321868           34 
 3550000   0.66807507   -7.4378572    848.36353  0.019914637  0.019316142           32 
 3551000    0.6784927   -7.4160137    848.42984  0.019910585  0.019310421           19 
 3552000   0.67567228   -7.4306539    847.63654  0.019886368  0.019304706           26 
 3553000   0.68203461    -7.450945     847.5973   0.01987985  0.019298989           13 
 3554000   0.67782593   -7.4630063    850.08628  0.019932618  0.019293264           38 
 3555000    0.6817728   -7.4330967    848.34269  0.019886139  0.019287546           21 
 3556000   0.68150402   -7.4347261    847.05806  0.019850442  0.019281816           11 
 3557000   0.68611157    -7.451446    848.58798  0.019880704  0.019276094           22 
 3558000   0.67956643   -7.4664478    847.24018  0.019843549  0.019270372           22 
 3559000   0.67282565   -7.4662846    847.99304  0.019855602  0.019264641           34 
 3560000   0.67710388   -7.4593915    846.97825   0.01982627  0.019258911           13 
 3561000   0.68686722    -7.444723     848.4934  0.019856159  0.019253179           40 
 3562000    0.6918661   -7.4657519     847.4798  0.019826872  0.019247449           49 
 3563000   0.69651721   -7.4534515    847.52138  0.019822279  0.019241713           35 
 3564000   0.68005007   -7.4589948    846.55979  0.019794234  0.019235999           58 
 3565000   0.68584494    -7.475401    848.30254  0.019829419  0.019230271           19 
 3566000   0.68780542   -7.4604612    847.85997  0.019813516  0.019224561            8 
 3567000   0.67760783   -7.4713161    848.50197   0.01982296  0.019218845           18 
 3568000   0.67727029   -7.4523509    847.04535  0.019783384  0.019213128           12 
 3569000   0.71646327   -7.4731544    846.63747  0.019768317  0.019207382           24 
 3570000    0.6740601   -7.4480108    847.50296  0.019782982  0.019201653           16 
 3571000   0.68360658     -7.47078    846.35891  0.019750745  0.019195933           18 
 3572000   0.68844708   -7.4591589    847.75625  0.019777815  0.019190214           15 
 3573000   0.68686374   -7.4362926    846.71664  0.019748032  0.019184488           11 
 3574000   0.68346296   -7.4569134      847.006  0.019749254  0.019178769           27 
 3575000   0.68226424   -7.4560513    847.72015  0.019760376  0.019173066           19 
 3576000   0.66215103    -7.455509    847.78167  0.019756284  0.019167347           31 
 3577000   0.68973238   -7.4942297    847.91272  0.019753814  0.019161625           19 
 3578000    0.6800285   -7.4531949    848.96638  0.019772833  0.019155911           27 
 3579000   0.68471421   -7.4626269    847.49592  0.019733071  0.019150205           16 
 3580000   0.68713252   -7.4675526    846.50996  0.019704608  0.019144493           21 
 3581000   0.68162298   -7.4914156     849.9216  0.019778498  0.019138787           12 
 3582000   0.68056814   -7.4723973    848.06899  0.019729876  0.019133096           22 
 3583000   0.68061026   -7.4609358    848.04019    0.0197237  0.019127406           17 
 3584000   0.66423856   -7.4764937    847.40961  0.019703534   0.01912173           10 
 3585000   0.67788498   -7.4308679    849.37764  0.019743785  0.019116052           10 
 3586000   0.66474014   -7.4401539    848.61701  0.019720603  0.019110378            6 
 3587000   0.67979442   -7.4730728    848.06544  0.019702292  0.019104706           10 
 3588000   0.68034375   -7.4566098    849.02561  0.019719101   0.01909902            8 
 3589000   0.67334579   -7.4769645    847.50977   0.01967841  0.019093328           15 
 3590000    0.6586821   -7.4873396    847.79786  0.019679616  0.019087642            8 
 3591000   0.68231909    -7.458861    850.24412  0.019730904  0.019081963           11 
 3592000   0.67268257   -7.4614375    847.14368  0.019653482  0.019076274           13 
 3593000   0.67499948    -7.475709    849.57198  0.019704332  0.019070606            8 
 3594000   0.68346927   -7.4437379    847.47585  0.019650247  0.019064954            7 
 3595000   0.68363872   -7.4396041    849.01075   0.01968036  0.019059292            5 
 3596000    0.6789035    -7.465689    848.38092  0.019660292  0.019053642            8 
 3597000   0.68220319   -7.4528036    849.65774  0.019684407  0.019047983            9 
 3598000    0.6693373   -7.4673967    848.18863   0.01964491   0.01904234            8 
 3599000   0.67318695   -7.4655311    851.67938  0.019720278   0.01903669            9 
 3600000   0.67600405   -7.4803734    848.58432  0.019643155  0.019031057           11 
 3601000   0.68046634   -7.4355918    848.82156  0.019643191  0.019025416            5 
 3602000    0.6886911    -7.470077     849.3955  0.019651016    0.0190198            7 
 3603000   0.67794986   -7.4577206     851.5479  0.019695344  0.019014201            9 
 3604000   0.66034837    -7.444378    849.71165  0.019647421  0.019008582            6 
 3605000   0.68533205   -7.4427071    848.93718  0.019624068  0.019002976           13 
 3606000     0.673717   -7.4685157    849.17788  0.019624188  0.018997351            9 
 3607000   0.66839583   -7.4479664    848.61174  0.019605668  0.018991732           10 
 3608000   0.67102455   -7.4778615    849.25387  0.019615065   0.01898612           13 
 3609000   0.67189326   -7.4495515    850.18526  0.019631136   0.01898051            5 
 3610000    0.6763463   -7.4662781    850.55191  0.019634162  0.018974902           12 
 3611000   0.66414937   -7.4566208    849.23428  0.019598317  0.018969281            5 
 3612000   0.66487966   -7.4887104    850.08697  0.019612564  0.018963645           18 
 3613000   0.68857136   -7.4761478    849.60371  0.019595989  0.018958017           12 
 3614000   0.67526339   -7.4960095     850.7098  0.019616072  0.018952389           18 
 3615000   0.67820393   -7.4670212    849.95364  0.019593214  0.018946784           13 
 3616000    0.6708936   -7.4691752    850.07173  0.019590517  0.018941168           14 
 3617000    0.6690854   -7.4857577    850.48111  0.019594533  0.018935545           18 
 3618000   0.67196402   -7.4663597    849.79724  0.019573366  0.018929924           12 
 3619000   0.66454198   -7.4567257    849.58808  0.019563141   0.01892431           18 
 3620000   0.66716463   -7.4536976    850.17866  0.019571332  0.018918708           21 
 3621000   0.66812371   -7.4768284    850.01293  0.019562113  0.018913111           18 
 3622000   0.67671546   -7.4649474    849.03666   0.01953425  0.018907525           16 
 3623000   0.68340127   -7.4566721     849.7304  0.019544815   0.01890194           30 
 3624000   0.66170533    -7.471876    849.57858  0.019535931  0.018896349           14 
 3625000   0.67661864    -7.473653    851.08229   0.01956511  0.018890761           15 
 3626000   0.66585751   -7.4697219    851.06123   0.01955923  0.018885164           20 
 3627000   0.67175893   -7.4646741    852.02027  0.019575872  0.018879567           13 
 3628000   0.66912925   -7.4505751    851.38736  0.019555939  0.018874003            9 
 3629000   0.66524288   -7.4490543    850.47964  0.019529706  0.018868434           10 
 3630000   0.66847191   -7.4901513    850.57589  0.019526536  0.018862858            9 
 3631000   0.66569591   -7.4733192    850.53862  0.019520302  0.018857287            9 
 3632000   0.66890147   -7.4891947     850.5939  0.019516196   0.01885171           20 
 3633000   0.66061691   -7.4990694    850.61119  0.019511221  0.018846133           13 
 3634000   0.66277322   -7.4720635    851.39627  0.019523855  0.018840568           11 
 3635000   0.67348609   -7.4700395    851.53496  0.019521663     0.018835            9 
 3636000    0.6681421   -7.4734911    851.08267  0.019505929  0.018829418           14 
 3637000   0.66735718    -7.461647    850.32201  0.019483136  0.018823821           20 
 3638000   0.67847435   -7.4818713    848.72322  0.019441159  0.018818218           22 
 3639000   0.65599445   -7.4848432    849.94537  0.019463804  0.018812615           11 
 3640000   0.67912356   -7.4699831    848.88835  0.019434257  0.018806997           22 
 3641000   0.66855198   -7.4761016    847.62042    0.0193999  0.018801392           13 
 3642000   0.67204018   -7.4962608    850.26281  0.019455034  0.018795773           15 
 3643000   0.66155931   -7.4882435    850.05175  0.019444866  0.018790153           18 
 3644000   0.66680015   -7.5044071    848.13796  0.019395764  0.018784535            9 
 3645000   0.68741397   -7.4683385    847.82702  0.019383334  0.018778917           14 
 3646000   0.66800722   -7.4559917    848.31937  0.019389271  0.018773296           19 
 3647000   0.67215612   -7.4751506    848.86951  0.019396525  0.018767675           15 
 3648000   0.66691205   -7.4873145    849.30344   0.01940112  0.018762067           31 
 3649000   0.68069501   -7.4945454    849.15247  0.019392356  0.018756445           13 
 3650000   0.67567812   -7.4780387    848.71167  0.019376979  0.018750833           12 
 3651000   0.66915011   -7.4785091    848.54031   0.01936776  0.018745227            9 
 3652000   0.67214746   -7.4929276     850.4955  0.019407071   0.01873963           11 
 3653000   0.65096295   -7.4487287    849.35087  0.019375647  0.018734032           10 
 3654000   0.67239501    -7.467813    849.34614  0.019370237  0.018728434           10 
 3655000   0.66556785   -7.4884422    848.43735  0.019344217  0.018722847           11 
 3656000   0.67203199    -7.489332    848.41616  0.019338443  0.018717254           12 
 3657000   0.68415351   -7.5100691    848.88524  0.019343844  0.018711657            5 
 3658000   0.66990337    -7.491739    850.57495  0.019377049   0.01870607           14 
 3659000   0.66074273   -7.4652667    852.35022  0.019412185  0.018700502           16 
 3660000   0.67725387   -7.4844561    851.24197  0.019381648   0.01869493            7 
 3661000   0.65756443   -7.4571968    849.42912  0.019335089  0.018689357            6 
 3662000   0.66010885   -7.4952579    848.54601  0.019309713  0.018683767            5 
 3663000   0.65430654   -7.4553465    849.81057   0.01933321  0.018678179            7 
 3664000   0.65743062    -7.464574    851.19086  0.019359326  0.018672605            5 
 3665000   0.65217904   -7.4662754    851.37225  0.019358168  0.018667034           11 
 3666000   0.66670021   -7.4810743    850.02004   0.01932215  0.018661462            7 
 3667000   0.66693226   -7.4700331    850.59737  0.019330001  0.018655909           10 
 3668000   0.68089259   -7.4727757    849.97577  0.019310609  0.018650352            9 
 3669000   0.67098793   -7.4843503    849.73158    0.0192998  0.018644789           15 
 3670000   0.66136251   -7.4842572    849.86167  0.019297495  0.018639224            7 
 3671000   0.65386867   -7.5053939    849.06461  0.019274144  0.018633653           16 
 3672000   0.66092279   -7.5007839    851.34265  0.019320594  0.018628082           11 
 3673000   0.66071236   -7.4732779    850.78878  0.019302768   0.01862251           12 
 3674000   0.66242266   -7.4872162    850.45761  0.019290002  0.018616948           11 
 3675000    0.6507415    -7.504347    850.11942  0.019277084  0.018611399           12 
 3676000   0.65940993   -7.4970202    849.48381  0.019257431  0.018605831           10 
 3677000   0.65874092   -7.4976198    849.11379  0.019243808   0.01860026            7 
 3678000   0.65497788   -7.4912129    849.92635  0.019256986    0.0185947            7 
 3679000   0.66631896   -7.4687977    849.05686  0.019232057  0.018589135            6 
 3680000   0.66337993   -7.4894257    850.69701  0.019263972  0.018583582            8 
 3681000    0.6577507   -7.5156223    850.47798   0.01925378  0.018578004            2 
 3682000   0.65598798   -7.4846565    847.77994  0.019187487  0.018572429            6 
 3683000   0.65665694   -7.5012478    848.45494   0.01919755  0.018566845            7 
 3684000   0.65176173   -7.4813292    850.16908  0.019231114  0.018561263            6 
 3685000   0.66671894   -7.4844765    847.21133  0.019159008   0.01855569           28 
 3686000   0.67070379   -7.5092053    847.81072  0.019167361  0.018550106           18 
 3687000   0.66254894   -7.4791674    850.63423  0.019225979   0.01854453           14 
 3688000   0.66623979   -7.5016603    849.88633  0.019203867   0.01853895           14 
 3689000   0.66014348   -7.5023812    849.90668  0.019199121  0.018533364            8 
 3690000    0.6625425   -7.5022226    849.16653  0.019177203  0.018527781           17 
 3691000   0.66868719    -7.512355      850.121  0.019193557  0.018522194           17 
 3692000   0.65709763   -7.4982783     850.6486  0.019200266  0.018516607            8 
 3693000   0.65583619   -7.4970333    850.57325  0.019193367  0.018511018            3 
 3694000   0.67001438   -7.5097412    850.93903  0.019196423  0.018505446            6 
 3695000   0.66665818   -7.5050531    847.65102  0.019117073  0.018499865            5 
 3696000    0.6633842   -7.4991351     847.2522  0.019102909  0.018494289           10 
 3697000   0.66888617   -7.5020178    851.01849  0.019182637  0.018488717           16 
 3698000   0.65856644   -7.5254022     850.2983   0.01916122  0.018483151           17 
 3699000   0.65898245   -7.5028695    849.66156  0.019141695  0.018477573            8 
 3700000   0.64822733   -7.5053652    850.43372  0.019153913  0.018472004            8 
 3701000   0.65019685   -7.5085513    848.93009  0.019114881  0.018466437            6 
 3702000   0.65287226   -7.5176247    849.56565  0.019124024  0.018460876           13 
 3703000   0.66153474   -7.5091257    849.80338   0.01912421  0.018455314           17 
 3704000   0.67016572   -7.4814076    849.11151  0.019103481  0.018449767            5 
 3705000   0.65992057   -7.4966793    850.62166  0.019132291  0.018444244            9 
 3706000   0.65641525   -7.4708905     847.7248   0.01906199  0.018438698            9 
 3707000   0.66007935    -7.496574    849.15396  0.019088975  0.018433137            9 
 3708000   0.66158797    -7.498806    849.10802  0.019082794  0.018427591           17 
 3709000   0.64911244   -7.5062458    849.32363  0.019082494  0.018422047           19 
 3710000   0.65464874   -7.4956599    848.87254  0.019067218  0.018416505            8 
 3711000   0.67062885   -7.5152486    850.43464  0.019097158  0.018410956           12 
 3712000   0.65732181   -7.5122977    850.86149  0.019101596  0.018405414           10 
 3713000   0.66402171   -7.5113753    850.48745  0.019088057  0.018399866           17 
 3714000   0.64684485   -7.5048113    849.15538  0.019053029  0.018394312           17 
 3715000   0.65201213   -7.5021028    850.20311  0.019071402  0.018388759           26 
 3716000   0.65747929   -7.5117587    850.23931  0.019067082  0.018383211            7 
 3717000   0.66452417   -7.5059492    849.14541  0.019037427  0.018377675           22 
 3718000   0.67437752   -7.5051363    848.91502  0.019027143  0.018372131           35 
 3719000   0.65730071   -7.5291016    849.90264  0.019044157  0.018366589           17 
 3720000   0.66373449   -7.5280122    848.05648  0.018997681  0.018361032           67 
 3721000   0.66039235   -7.5514773    849.51189   0.01902517  0.018355484           26 
 3722000   0.66083248   -7.5292664    850.02659  0.019031582  0.018349922           32 
 3723000   0.66387506    -7.506923    849.52053  0.019015143  0.018344366           29 
 3724000   0.64344829   -7.5074153    851.26657  0.019049109   0.01833883           25 
 3725000   0.65562362   -7.5271296    849.28825  0.018999737  0.018333301           29 
 3726000   0.64416747   -7.5289123    848.97069  0.018987536  0.018327776           23 
 3727000   0.64235882   -7.5039658    849.57306   0.01899591  0.018322252           23 
 3728000   0.64611943   -7.5123348    849.67031  0.018992988   0.01831674           11 
 3729000   0.64928133   -7.5204028    849.69413  0.018988427  0.018311228            8 
 3730000   0.65261267   -7.4942121    850.56124  0.019002709  0.018305707            9 
 3731000   0.64941127   -7.5153108    848.60791  0.018953987  0.018300189           10 
 3732000   0.65559163   -7.5236256    851.03308  0.019003061  0.018294677            9 
 3733000   0.65229533   -7.5201262    850.49749  0.018986014  0.018289166           19 
 3734000   0.65694404   -7.5134482      849.441  0.018957351  0.018283665           11 
 3735000    0.6489384   -7.5234374    847.98105  0.018919702  0.018278159            7 
 3736000   0.66407099   -7.5165639    849.11509  0.018939933  0.018272663           13 
 3737000   0.67656052   -7.5089272    850.13014    0.0189575  0.018267183           13 
 3738000   0.65996414   -7.5159529    852.82357  0.019012475  0.018261705           12 
 3739000   0.65235249   -7.5085407    850.41224  0.018953647   0.01825623           18 
 3740000   0.65131892   -7.5280678    848.76598  0.018911898  0.018250741           14 
 3741000   0.64429621   -7.5439582    849.95266  0.018933277  0.018245252            9 
 3742000   0.65640891   -7.5147453    850.65578  0.018943875  0.018239767           22 
 3743000   0.66056739   -7.5109565    850.66852  0.018939098  0.018234271           23 
 3744000   0.67032015   -7.4870607    850.53546  0.018931078  0.018228799           11 
 3745000    0.6593163    -7.511573    850.53998  0.018926123  0.018223317           25 
 3746000   0.66086652   -7.4944015     848.9997  0.018886806  0.018217842           18 
 3747000   0.65914081   -7.5175274    850.55165  0.018916281  0.018212365           22 
 3748000   0.66751478   -7.5240228    850.83205  0.018917468   0.01820689           21 
 3749000   0.65217666   -7.5176407    849.23135  0.018876842  0.018201407           25 
 3750000   0.62915304   -7.5197568    850.82543  0.018907232  0.018195926           14 
 3751000   0.64866466   -7.5400074    849.99031  0.018883638  0.018190445           12 
 3752000   0.64655528   -7.5198024    849.81426  0.018874695   0.01818496           25 
 3753000   0.65949941   -7.5231618    847.99451  0.018829259  0.018179464           22 
 3754000   0.63725611   -7.5350431    849.76906  0.018863636  0.018173964           18 
 3755000   0.64627132   -7.5371419    850.12184  0.018866441  0.018168466           35 
 3756000   0.65975857   -7.5443462    849.07907  0.018838283  0.018162976           18 
 3757000    0.6416056   -7.5112896    850.20182  0.018858172  0.018157489           25 
 3758000    0.6630247   -7.5256073     849.8464  0.018845272  0.018151998           32 
 3759000   0.65436867   -7.5232269    849.03312  0.018822229  0.018146511           26 
 3760000   0.63476515   -7.5492391    849.20626  0.018821061  0.018141033           20 
 3761000   0.65582016   -7.5108439    849.87024  0.018830768  0.018135547           11 
 3762000   0.64780744   -7.5396908    849.19947  0.018810904  0.018130073           20 
 3763000   0.66825848   -7.5409657    849.68457  0.018816648  0.018124609           16 
 3764000   0.65185204   -7.5302161    850.58608  0.018831608  0.018119132           11 
 3765000   0.64485768   -7.5331195    850.20187  0.018818102  0.018113663           14 
 3766000   0.64249137    -7.510001    850.97892    0.0188303  0.018108216           16 
 3767000   0.64776278   -7.5308622    850.74329  0.018820089  0.018102765           28 
 3768000   0.64587906   -7.5114507    850.60258  0.018811982  0.018097303           11 
 3769000   0.65431788   -7.5258661    850.60457  0.018807035  0.018091852           16 
 3770000   0.64656445   -7.5349825    852.18226   0.01883692  0.018086401           26 
 3771000   0.65021967   -7.5092906    851.69245  0.018821101  0.018080958           18 
 3772000   0.65552354   -7.5346993    850.89356  0.018798462    0.0180755           30 
 3773000   0.64541746   -7.5384205    851.09238   0.01879787  0.018070066           21 
 3774000   0.65433917   -7.5240354    851.71702  0.018806682  0.018064614           21 
 3775000    0.6460341   -7.5120205    849.93905  0.018762451  0.018059164           18 
 3776000   0.63756713   -7.5179678     852.2584  0.018808669  0.018053731           22 
 3777000   0.64443211   -7.5277212    852.64202  0.018812153  0.018048311           26 
 3778000   0.65410524   -7.5234974     850.5357  0.018760713  0.018042873           12 
 3779000   0.65178037   -7.5329749    848.40739  0.018708816  0.018037425           23 
 3780000   0.65516872   -7.5285467    849.90418  0.018736865  0.018031978           18 
 3781000   0.63048356   -7.5233878    852.91213  0.018798204   0.01802655           21 
 3782000   0.66452647   -7.5174109    851.90646  0.018771075   0.01802113           19 
 3783000   0.66353852   -7.5245508    849.13564  0.018705076  0.018015707           19 
 3784000   0.65083727   -7.5369564    852.41196  0.018772286  0.018010306           19 
 3785000   0.64276376   -7.5084592    852.14698  0.018761492  0.018004906           38 
 3786000    0.6335943   -7.5283446    851.06523  0.018732726  0.017999494            9 
 3787000   0.65843146   -7.5062094    850.72286  0.018720246  0.017994073           14 
 3788000   0.63889885   -7.5163636    850.56548  0.018711842  0.017988656           12 
 3789000   0.64598116   -7.4970213    852.80526  0.018756164  0.017983244           15 
 3790000   0.65340852   -7.5422599    851.63648  0.018725516  0.017977832           13 
 3791000   0.63990374    -7.534475    850.60038  0.018697801  0.017972417           13 
 3792000   0.64661255   -7.5317499    850.23571  0.018684856  0.017967015           17 
 3793000   0.64723475   -7.5446159    852.52802  0.018730293  0.017961604           23 
 3794000   0.63487387   -7.5327583    851.45516  0.018701792  0.017956199           22 
 3795000   0.65289094   -7.5255882    852.64342  0.018722956  0.017950802           17 
 3796000   0.64548005   -7.5376637    853.07667  0.018727535  0.017945409           11 
 3797000   0.64896034   -7.5168743    852.74651  0.018715357  0.017940011           10 
 3798000   0.65456271   -7.5204441    851.57139  0.018684645  0.017934623           15 
 3799000   0.64484917   -7.5480531    850.60095   0.01865844  0.017929221           27 
 3800000   0.63466743   -7.5292136    850.10362  0.018642623  0.017923824           15 
 3801000   0.64051497   -7.5458786     850.9031  0.018655246  0.017918424            7 
 3802000   0.63372198   -7.5357322    850.94788  0.018651321  0.017913038           15 
 3803000   0.64689537    -7.537573     850.2092  0.018630231  0.017907657           18 
 3804000    0.6389157   -7.5389662    851.85594  0.018661408  0.017902269           10 
 3805000   0.64099809   -7.5460817    851.70105  0.018653111  0.017896889            9 
 3806000   0.63766217   -7.5331187     852.7141  0.018670391  0.017891502           14 
 3807000   0.63736632    -7.531496    849.82886   0.01860233  0.017886122           12 
 3808000   0.63498811   -7.5084051     851.6939  0.018638259  0.017880744           11 
 3809000   0.64745593   -7.5167419    850.95887  0.018617285  0.017875372           13 
 3810000   0.64617278   -7.5332632     851.6427  0.018627356  0.017869996           14 
 3811000   0.63908666   -7.5256813    850.19551  0.018590823  0.017864624           17 
 3812000   0.63916621   -7.5200932    850.54708  0.018593632   0.01785924           23 
 3813000   0.65168846   -7.5244707    850.02237  0.018577288  0.017853859           10 
 3814000   0.62796366    -7.516221    852.97508  0.018636932  0.017848484            7 
 3815000   0.64760857   -7.5304897    851.68344  0.018603832  0.017843109           10 
 3816000   0.63647572   -7.5443163     851.3003   0.01859059  0.017837737            9 
 3817000    0.6402091    -7.519835    851.37843  0.018587425  0.017832378           17 
 3818000   0.63793692   -7.5149639    850.71053  0.018567979  0.017827022           13 
 3819000   0.63452588   -7.5468971    851.45627   0.01857939  0.017821663           12 
 3820000    0.6379118   -7.5370527    851.76943  0.018581358  0.017816293           14 
 3821000   0.64259491   -7.5575925    851.33017  0.018566915   0.01781092           10 
 3822000   0.63147363   -7.5471466     851.4244  0.018564111  0.017805542           11 
 3823000    0.6323591   -7.5349973    850.82542  0.018546199  0.017800152            6 
 3824000   0.64906431   -7.5393366     850.0774  0.018525048  0.017794759           10 
 3825000   0.63824991   -7.5360319    851.63028  0.018554037   0.01778938            7 
 3826000   0.63167779   -7.5359707    849.53766  0.018503608  0.017784011            7 
 3827000   0.63986652   -7.5433337    852.36284  0.018560292  0.017778643           11 
 3828000   0.62533232   -7.5658745    852.39822  0.018556213   0.01777327            8 
 3829000   0.65514959   -7.5672986    850.66961  0.018513746  0.017767895           15 
 3830000   0.64718337   -7.5602417    851.55346  0.018528143  0.017762527           10 
 3831000   0.66398837   -7.5369494    851.10975  0.018513655  0.017757161            9 
 3832000     0.638856   -7.5372596    851.73924  0.018522513  0.017751797           14 
 3833000   0.64434823   -7.5560985    849.80231   0.01847557   0.01774644           13 
 3834000   0.64077939    -7.537816    850.84641  0.018493445  0.017741079           13 
 3835000    0.6304598   -7.5425601    851.51197  0.018503085  0.017735723           22 
 3836000   0.64191724   -7.5268188    851.52338  0.018498509   0.01773038           10 
 3837000   0.64375135   -7.5509418    852.28375  0.018510202  0.017725031           12 
 3838000     0.652262   -7.5457324    850.81915  0.018473579   0.01771968           12 
 3839000   0.63943603   -7.5689082    851.24461  0.018478002  0.017714327            6 
 3840000   0.62147678   -7.5393476    852.47576  0.018499908  0.017708977            6 
 3841000   0.63642826   -7.5601042    853.04344  0.018507408  0.017703637            7 
 3842000   0.61199653   -7.5589245    850.62935  0.018450229  0.017698298           10 
 3843000   0.63238517   -7.5629692    853.00922  0.018497034   0.01769296            9 
 3844000   0.63435957   -7.5355331    852.03001  0.018470994  0.017687618            8 
 3845000   0.64088422   -7.5477177     849.9321  0.018420722  0.017682274           20 
 3846000   0.63009675   -7.5377553    851.58705  0.018451791  0.017676938           19 
 3847000   0.62701648   -7.5472422    851.07966  0.018436003  0.017671604           16 
 3848000   0.62281418     -7.54864    850.67098  0.018422362   0.01766626            9 
 3849000   0.65230807   -7.5560037    851.88116  0.018443777  0.017660919           26 
 3850000   0.63544832   -7.5368435     850.4055  0.018407045  0.017655578           33 
 3851000   0.62285615   -7.5747305    851.71758  0.018430658  0.017650235           19 
 3852000   0.63656454   -7.5606273    851.47757  0.018420681  0.017644898           21 
 3853000   0.62665361   -7.5356505    851.16643  0.018409171  0.017639565           20 
 3854000   0.63904748    -7.569066     850.7167   0.01839467  0.017634231           15 
 3855000   0.63008439   -7.5522089    851.66168  0.018410326  0.017628903           29 
 3856000    0.6226173   -7.5435787     853.5916   0.01844726  0.017623579           15 
 3857000   0.64135616   -7.5687085    850.20968  0.018369408   0.01761825           24 
 3858000   0.63494058   -7.5328978    851.23293  0.018386749  0.017612924           18 
 3859000   0.62600282   -7.5486091    851.65873  0.018391179  0.017607621           22 
 3860000   0.62679491   -7.5459735     852.5982  0.018406697  0.017602308           21 
 3861000   0.64013231   -7.5511726    851.37272   0.01837548  0.017596991           37 
 3862000   0.64143398   -7.5356235    852.31807   0.01839112  0.017591674           30 
 3863000   0.61816255   -7.5652712    852.86491  0.018398156  0.017586366           30 
 3864000   0.62804569   -7.5434944    851.28687  0.018359361  0.017581059           32 
 3865000   0.64472118   -7.5578471    853.06497  0.018392949  0.017575767           26 
 3866000   0.64400797   -7.5466772    851.33581  0.018350918  0.017570466           23 
 3867000   0.62468275   -7.5556816    852.16828  0.018364113  0.017565173           23 
 3868000   0.63330465   -7.5491722    851.09178  0.018336172   0.01755987           22 
 3869000   0.62854687   -7.5491009    852.41361  0.018359904  0.017554565           11 
 3870000   0.62891988   -7.5412483    852.30453  0.018352811  0.017549271           12 
 3871000   0.62872505   -7.5753443    852.99602  0.018362956  0.017543968           18 
 3872000   0.64121659   -7.5629859    852.00958  0.018336983  0.017538668           14 
 3873000   0.62976013   -7.5800248    853.29987  0.018360011  0.017533361           26 
 3874000   0.63415691   -7.5741758    852.16819  0.018330928  0.017528056           15 
 3875000   0.63909073   -7.5543077    851.43298  0.018310387  0.017522768           18 
 3876000       0.6289   -7.5854119    851.79569  0.018313461  0.017517473           23 
 3877000   0.63940937   -7.5548421     851.3249  0.018298618  0.017512174           21 
 3878000   0.63872477   -7.5711311    851.50878  0.018297851  0.017506885           13 
 3879000   0.61671235   -7.5625286    852.42155  0.018312743  0.017501597           14 
 3880000   0.61651805   -7.5803956     851.3321  0.018284624  0.017496299           14 
 3881000   0.63132542   -7.5454464    851.62022  0.018286099  0.017491005           22 
 3882000   0.62217587   -7.5717788     852.8477  0.018307739  0.017485708           25 
 3883000   0.61757292   -7.5565819    852.41848  0.018293812  0.017480419           10 
 3884000   0.62931076   -7.5521049    851.94515  0.018278947  0.017475126           30 
 3885000   0.62692198   -7.5715706    851.62151    0.0182673  0.017469826           10 
 3886000   0.62843411   -7.5735646    852.87465  0.018289472  0.017464531           13 
 3887000    0.6354033   -7.5709618    851.76445  0.018260965  0.017459252            6 
 3888000     0.624033   -7.5774483    851.86079  0.018258333  0.017453975           22 
 3889000   0.62121241    -7.558502    852.67951  0.018271182  0.017448698           11 
 3890000   0.62454785   -7.5596207    854.01735  0.018295145   0.01744341           13 
 3891000   0.62980295   -7.5812341    851.93773  0.018245904  0.017438131           18 
 3892000    0.6361708    -7.581615    851.66384  0.018235351  0.017432848           14 
 3893000   0.62465575    -7.575677    851.14983  0.018219664  0.017427566           14 
 3894000   0.62974475   -7.5797757    851.36539  0.018219598  0.017422276           23 
 3895000   0.64383068   -7.5936261    849.89927  0.018183553  0.017416987           12 
 3896000     0.618653   -7.5891278    852.87716  0.018242581    0.0174117           22 
 3897000   0.62975977   -7.5673172    851.23412  0.018202765  0.017406421           19 
 3898000   0.62517648   -7.5654678    850.93405   0.01819168  0.017401141           34 
 3899000   0.63196148   -7.5802353    851.69811  0.018203345  0.017395858           15 
 3900000    0.6246366   -7.5685446    852.26687  0.018210831   0.01739058           26 
 3901000   0.62372163   -7.5471031     851.0184  0.018179492  0.017385303           20 
 3902000   0.62519266   -7.5712368     852.2723  0.018201612  0.017380014           24 
 3903000   0.62024722   -7.5932463    852.03006  0.018191777  0.017374741           42 
 3904000   0.63020055   -7.5677774    850.48986   0.01815424  0.017369466           16 
 3905000   0.62052506   -7.5755073    850.57407  0.018151389  0.017364194           29 
 3906000   0.62207352   -7.5572776    851.43613  0.018165133  0.017358922           18 
 3907000   0.63526033   -7.5811815    851.16321  0.018154663  0.017353651           22 
 3908000   0.62433949   -7.5832549    853.68425  0.018203775  0.017348378           27 
 3909000   0.63144361   -7.5657391    851.85425  0.018160106  0.017343104           35 
 3910000   0.62647682   -7.5772288    851.41091  0.018146013  0.017337837           27 
 3911000   0.63369082   -7.6160396    852.34919  0.018161365  0.017332564           30 
 3912000   0.62342454   -7.5961335    851.18951  0.018132019  0.017327282           20 
 3913000   0.62096918   -7.5800872     850.2363  0.018107085  0.017322011           24 
 3914000   0.61186524     -7.58443    852.99203  0.018161132   0.01731674           25 
 3915000   0.62736065   -7.5853711     852.2526  0.018140754  0.017311468           16 
 3916000    0.6285438   -7.5884818    851.96725  0.018130049  0.017306202           21 
 3917000   0.64135367   -7.5997837    853.03706   0.01814818  0.017300946           19 
 3918000   0.62033401    -7.578637    851.95052  0.018120438  0.017295694           18 
 3919000   0.61919537   -7.5949393     851.7723  0.018112025  0.017290449            9 
 3920000   0.60930813   -7.5787183    851.20818  0.018095412  0.017285197           12 
 3921000   0.60959694   -7.5997582     851.6372  0.018099915  0.017279936           37 
 3922000   0.62771411   -7.6106491     852.8203  0.018120438  0.017274681           26 
 3923000   0.63538091   -7.6127743    852.91492  0.018117829  0.017269431           23 
 3924000   0.63717138   -7.5805109    851.30623  0.018079048  0.017264183           19 
 3925000   0.61822999   -7.6008305    852.09349  0.018091157  0.017258934           15 
 3926000   0.61719807   -7.5993641    850.76821  0.018058418  0.017253678           18 
 3927000    0.6294138   -7.5893314    851.03987  0.018059585  0.017248428           15 
 3928000   0.62631656   -7.5890175    851.68766   0.01806873  0.017243186           10 
 3929000   0.62192553   -7.5960228    850.59566   0.01804097   0.01723794           36 
 3930000   0.61560982   -7.6003132    851.70814  0.018059969   0.01723271           14 
 3931000   0.61923168   -7.5832578    852.14338  0.018064601  0.017227465           18 
 3932000   0.61299961   -7.5726456    852.37039  0.018064818  0.017222245           18 
 3933000   0.60842177   -7.5911784    850.85412  0.018028098  0.017217028           23 
 3934000   0.62554593   -7.5874514     852.0736  0.018049348   0.01721181           14 
 3935000   0.62024382   -7.5841746    850.15238  0.018004074  0.017206593           22 
 3936000   0.62395782   -7.5899919    854.46347  0.018090775  0.017201382           25 
 3937000   0.61225996   -7.6015734    853.39938  0.018063656  0.017196171           19 
 3938000   0.62207224   -7.6005585    850.68488  0.018001627   0.01719095           25 
 3939000   0.62166556   -7.5728784    851.52824  0.018014899  0.017185732           25 
 3940000   0.63502488   -7.5976304     852.3404  0.018027504  0.017180516           10 
 3941000    0.6232514   -7.5618132      851.529  0.018005773  0.017175298           14 
 3942000   0.62215922   -7.5960548    850.92505  0.017988438  0.017170074           21 
 3943000   0.62054196   -7.5942021    851.97865  0.018006143   0.01716485           16 
 3944000   0.61984728   -7.5952866    851.85168  0.017998895  0.017159639           14 
 3945000   0.62202612   -7.5960776    850.76452  0.017971367  0.017154422           15 
 3946000   0.62094382   -7.6078224    851.09506  0.017973793  0.017149198           28 
 3947000    0.6350509   -7.5683149    852.42541  0.017997327  0.017143992           14 
 3948000   0.61599948   -7.5970579    851.87176  0.017981082  0.017138784           17 
 3949000    0.6149514   -7.5936524     852.8152  0.017996438  0.017133558           22 
 3950000    0.6106348    -7.597209     851.9629  0.017973901  0.017128346           13 
 3951000   0.61863063    -7.589639    852.17319  0.017973787  0.017123132           18 
 3952000   0.62849529   -7.6163452    851.77566  0.017960857  0.017117918           21 
 3953000   0.61566543   -7.5943723    850.63071  0.017932176  0.017112702           22 
 3954000   0.61003299   -7.5912452    851.33943  0.017942578  0.017107496           23 
 3955000    0.6189618   -7.6070946    852.04159  0.017952836  0.017102291           14 
 3956000   0.62362207   -7.5906274     852.5837  0.017959717  0.017097083           17 
 3957000   0.63548332   -7.5795212    852.99167   0.01796377  0.017091899           16 
 3958000   0.62397394    -7.599095    849.87219  0.017893553  0.017086706           33 
 3959000   0.62888089   -7.5920749    851.64008  0.017926246  0.017081519           33 
 3960000   0.62252112   -7.5735422    851.69481  0.017922871  0.017076333           18 
 3961000   0.62090814   -7.5897449    851.46374  0.017913484  0.017071146           13 
 3962000   0.63360193   -7.5953427    851.95892  0.017919378  0.017065965           12 
 3963000   0.62352623   -7.5821176    852.22387  0.017920428  0.017060799           18 
 3964000   0.61931154   -7.5747915    850.69555  0.017883778  0.017055623           32 
 3965000   0.62435652   -7.6089767     852.1243  0.017909296   0.01705045           29 
 3966000   0.61566221   -7.6054638    852.42525  0.017911104  0.017045283           15 
 3967000   0.61999364   -7.5941748     852.5071  0.017908308  0.017040101           11 
 3968000    0.6146553   -7.5985897     852.4237  0.017902043  0.017034926           21 
 3969000   0.60243653   -7.5966567    850.45837  0.017856269  0.017029748           32 
 3970000   0.60949252   -7.6078879    852.06741  0.017885546  0.017024556           38 
 3971000   0.62133081   -7.5925295    849.53734  0.017827947  0.017019367           25 
 3972000   0.60221969   -7.6267503    851.54948  0.017865674  0.017014194           25 
 3973000   0.62606023   -7.6052002    850.61799  0.017841639  0.017009005           36 
 3974000    0.6130071   -7.6275672    850.67808   0.01783841   0.01700381           25 
 3975000   0.61393322   -7.6287585    852.50273  0.017872175  0.016998618           21 
 3976000   0.60473444   -7.6231249    851.27242  0.017841894   0.01699343           25 
 3977000   0.61802131   -7.6286175    851.15427  0.017834931  0.016988237           17 
 3978000    0.6284169   -7.5849647     850.7526  0.017822034  0.016983039           20 
 3979000   0.61061813   -7.6071872    850.96795  0.017822065   0.01697786           74 
 3980000   0.60417682   -7.6193238    850.70392  0.017812059  0.016972667           38 
 3981000   0.62301903   -7.6118526    851.42458   0.01782267  0.016967477           23 
 3982000   0.60667417   -7.6083016    851.84981  0.017827093    0.0169623           28 
 3983000   0.60642626   -7.6251271    850.55931  0.017795617  0.016957127           22 
 3984000   0.60804928   -7.5990675    852.11012  0.017823588  0.016951949           29 
 3985000   0.59871108   -7.6395695    851.43437  0.017804985  0.016946768           15 
 3986000   0.62216052   -7.6239976    850.27895  0.017776362  0.016941596           51 
 3987000   0.60882316   -7.5993153    851.45869  0.017796562  0.016936423           28 
 3988000   0.60250065   -7.6201082    850.37287   0.01776941  0.016931251           22 
 3989000   0.62652734   -7.6033706    849.99479  0.017757057  0.016926078           23 
 3990000   0.62708934   -7.6081448     851.3349  0.017780595  0.016920913           44 
 3991000    0.6278414   -7.6313699    850.15561  0.017751516  0.016915752           24 
 3992000   0.62901816   -7.6168773    850.26771  0.017749409  0.016910592           28 
 3993000   0.61167768   -7.6320353    850.64857  0.017752913   0.01690543           47 
 3994000   0.62548119    -7.633723    851.46226  0.017765445  0.016900265           67 
 3995000   0.61334472   -7.6084605    851.12316  0.017753925  0.016895096           57 
 3996000   0.62451778   -7.6205686    851.58069  0.017759023  0.016889938           42 
 3997000   0.60829006   -7.6190716    851.83954  0.017759977  0.016884789           70 
 3998000   0.61533301   -7.6272448    850.22381  0.017721857  0.016879633           39 
 3999000   0.61101414   -7.6136084    852.42515  0.017763298   0.01687448           56 
 4000000   0.61497473   -7.6076032    850.67292  0.017722352  0.016869326           23 
 4001000   0.61556875    -7.612043    851.88321  0.017743131  0.016864179           29 
 4002000   0.62609985   -7.6169884    850.90842    0.0177184  0.016859033           25 
 4003000   0.59785749   -7.6418973    849.42272  0.017683044  0.016853883           15 
 4004000   0.59941031   -7.6232175    851.86275  0.017729411  0.016848737           38 
 4005000   0.60357932   -7.6449622    851.80969   0.01772388  0.016843591           32 
 4006000   0.59174562   -7.6229569    850.99991  0.017702611  0.016838445           25 
 4007000   0.60994004   -7.6281876    851.47602  0.017708095  0.016833293           29 
 4008000    0.6117425   -7.6163081    851.86086  0.017711678   0.01682815           29 
 4009000   0.60429114   -7.6313024    850.97886  0.017688926  0.016823001           25 
 4010000   0.60482641   -7.6266042    852.55519  0.017717273  0.016817869           46 
 4011000   0.60194925   -7.6334686    852.03519  0.017702053  0.016812724           41 
 4012000   0.61589338    -7.615629    851.15324  0.017679321  0.016807584           38 
 4013000   0.62213452   -7.6313673    851.28495  0.017677651  0.016802447           38 
 4014000   0.60979868   -7.6287869    852.03158  0.017688747  0.016797308           59 
 4015000   0.60157849   -7.6467462    851.21536    0.0176674  0.016792166           50 
 4016000   0.60873798   -7.6324454    850.08143  0.017639472  0.016787035           50 
 4017000   0.61392683   -7.6279134    851.51168  0.017664751    0.0167819           48 
 4018000   0.62306685   -7.6311036    850.11473  0.017631382  0.016776772           45 
 4019000   0.59724154   -7.6187831    849.84025  0.017621304  0.016771656           38 
 4020000   0.61673363   -7.6525445    849.53582   0.01761061  0.016766522           23 
 4021000   0.61234862     -7.65185    852.34754  0.017664502  0.016761391           27 
 4022000   0.61559137   -7.6439994    850.60987  0.017624106  0.016756256           52 
 4023000   0.60261277   -7.6222859    850.57779  0.017619061  0.016751135           27 
 4024000   0.60272527   -7.6428587    850.88454  0.017621035  0.016746006           64 
 4025000   0.60506956   -7.6435362     849.4555   0.01758707  0.016740889           44 
 4026000   0.60666191   -7.6185928     850.1537  0.017597154  0.016735764           48 
 4027000    0.6038973   -7.6468313    850.71377  0.017604374  0.016730639           27 
 4028000   0.61025698   -7.6385383    850.86211  0.017603073  0.016725511           26 
 4029000   0.61181422   -7.6375297    850.56676  0.017592595  0.016720386           23 
 4030000   0.60906637   -7.6340383     850.6262  0.017589458  0.016715268           21 
 4031000   0.60751933   -7.6458434    850.65802  0.017585752  0.016710155           27 
 4032000   0.61910565   -7.6532741    851.25791   0.01759379  0.016705052           22 
 4033000   0.61303069   -7.6349474    851.12138  0.017586606  0.016699942           39 
 4034000   0.60723748    -7.636671    852.34825  0.017607591  0.016694845           26 
 4035000    0.6148757   -7.6384365     853.1546   0.01761988  0.016689746           64 
 4036000    0.6121911   -7.6410189    850.01546  0.017550699  0.016684647           32 
 4037000   0.60192089    -7.619248    851.77658  0.017582705  0.016679557           29 
 4038000   0.60265209    -7.624192    850.84171  0.017559058  0.016674465           44 
 4039000   0.61390294    -7.634997    850.29484  0.017543428  0.016669385           57 
 4040000   0.61253731   -7.6287348    850.34198  0.017540057  0.016664296           32 
 4041000   0.61213641   -7.6180539    850.37183  0.017536332    0.0166592           45 
 4042000   0.60079682   -7.6179742    850.76345  0.017540068  0.016654103           36 
 4043000   0.60230863   -7.6587481      852.301  0.017567421  0.016649028           31 
 4044000   0.60224951   -7.6199712     851.5841  0.017548304  0.016643945           22 
 4045000   0.61825586   -7.6316092     851.1393  0.017534802  0.016638872           29 
 4046000   0.62815629   -7.6431037    852.44856  0.017557435  0.016633802           37 
 4047000   0.60457111   -7.6455213    851.13132  0.017525972  0.016628731           25 
 4048000    0.5904456   -7.6169338    851.41912  0.017527568  0.016623662           22 
 4049000   0.60907708   -7.6251047    852.38129  0.017543041  0.016618596           27 
 4050000   0.60215267   -7.6152006    850.75256  0.017505197  0.016613535           22 
 4051000    0.5952188   -7.6254693    853.08608  0.017548879  0.016608472           44 
 4052000    0.6083038   -7.6400352    850.02101  0.017481511  0.016603407           68 
 4053000   0.59687566   -7.6377273    851.50713  0.017507754  0.016598341           35 
 4054000   0.61046829   -7.6286835    852.58859  0.017525666  0.016593277           36 
 4055000   0.61254138   -7.6352761    852.42451  0.017517972  0.016588209           25 
 4056000   0.59935403   -7.6256414    851.07131   0.01748585  0.016583151           33 
 4057000   0.60943019   -7.6311751    851.50767  0.017490503  0.016578098           37 
 4058000   0.60717658   -7.6288388    851.36998  0.017483366  0.016573041           45 
 4059000   0.61093513   -7.6256795    850.69147  0.017465128  0.016567977           43 
 4060000   0.59348969   -7.6245598    852.85398  0.017505213  0.016562931           55 
 4061000   0.59120704   -7.6116664    851.91203  0.017481573  0.016557882           51 
 4062000   0.60266468    -7.613054    851.64551  0.017471802  0.016552834           39 
 4063000   0.61675483   -7.6141983    850.80215  0.017450204  0.016547781           63 
 4064000   0.60684881   -7.6221306    853.70309  0.017505395  0.016542738           45 
 4065000   0.58565171   -7.6182748     852.4419  0.017475234   0.01653771           39 
 4066000   0.60292456   -7.6294697    852.31216  0.017468277  0.016532671           49 
 4067000   0.59461371   -7.6129557    850.62047  0.017429319  0.016527639           48 
 4068000   0.60436542   -7.5947037    849.90111  0.017410298  0.016522605           35 
 4069000   0.60192236   -7.6401644    851.69554  0.017442769  0.016517562           41 
 4070000   0.59897159    -7.620503    852.06642  0.017446077   0.01651252           50 
 4071000   0.60871598   -7.6229746    850.32618  0.017406169  0.016507486           58 
 4072000   0.60827581   -7.6384596    851.02683  0.017416233  0.016502438           52 
 4073000    0.6055896   -7.6300646    851.79251  0.017427623   0.01649741           37 
 4074000   0.59398484   -7.6154436    849.81595  0.017382915  0.016492363           50 
 4075000   0.59401936   -7.6337856    852.29592  0.017429364  0.016487326           84 
 4076000   0.61164828   -7.6368101    852.17976  0.017422713   0.01648229           54 
 4077000   0.60133765   -7.6078458    851.15188   0.01739743  0.016477269           60 
 4078000   0.58933991   -7.6233159    852.20286  0.017414641  0.016472246           65 
 4079000   0.61531849   -7.6212093    852.61226  0.017418735  0.016467215           42 
 4080000   0.60198783   -7.6274518    851.06955  0.017382956  0.016462179           58 
 4081000   0.59318253   -7.6240823    851.56139   0.01738874   0.01645716           57 
 4082000   0.59271608   -7.6341398    851.67343  0.017386768  0.016452141           56 
 4083000   0.59308831   -7.6309132    852.58406  0.017401095  0.016447126           63 
 4084000   0.58957947   -7.6171282    851.39321  0.017372535  0.016442113           74 
 4085000   0.60803199   -7.6341094    851.30003  0.017366382  0.016437096           68 
 4086000   0.59535732   -7.6016342    851.68343  0.017369951  0.016432088           53 
 4087000   0.59529425    -7.628185    851.52843   0.01736254  0.016427078           67 
 4088000   0.59606285   -7.6515024    850.90403  0.017345565  0.016422066           45 
 4089000    0.5963049   -7.6622393    851.06761  0.017344657  0.016417055           58 
 4090000   0.59961116   -7.6318293    852.74105  0.017374512  0.016412049           59 
 4091000   0.58057263   -7.6241262    851.74238  0.017349922  0.016407049           48 
 4092000   0.59427513   -7.6392775    852.52836  0.017361689  0.016402048           54 
 4093000   0.59484542   -7.6468676    851.63396  0.017339237  0.016397042           33 
 4094000   0.59030352   -7.6462046    852.23538  0.017347243  0.016392029           54 
 4095000   0.59321027   -7.6297567    851.70601  0.017332235  0.016387021           50 
 4096000   0.59351706   -7.6294035    852.63707  0.017346946  0.016382012           37 
 4097000   0.60220367   -7.6369542    849.48638  0.017278626  0.016377006           49 
 4098000    0.5958064   -7.6568017    851.28848  0.017311056  0.016371993          100 
 4099000   0.59360282   -7.6575794    850.58854  0.017292603  0.016366973           56 
 4100000    0.5958536   -7.6429877    850.65434  0.017289722  0.016361963           42 
 4101000   0.58569692    -7.648506    852.57256  0.017324485   0.01635695           44 
 4102000   0.58109068   -7.6651834    852.17173  0.017312119  0.016351944           76 
 4103000   0.60362613   -7.6462271    851.79953   0.01730034  0.016346936           55 
 4104000    0.5995531    -7.664651    850.11655  0.017261951  0.016341928           40 
 4105000   0.60168148   -7.6565416    850.20252  0.017259491   0.01633691           48 
 4106000   0.58569798   -7.6629526    851.97238  0.017291208    0.0163319           46 
 4107000    0.5854504   -7.6595227    850.51649  0.017257457  0.016326894           51 
 4108000   0.60626846   -7.6521598     849.3427  0.017229445  0.016321889           50 
 4109000   0.58340949   -7.6409926    850.42774  0.017247257  0.016316892           44 
 4110000   0.59319226   -7.6362629    851.31981  0.017261148  0.016311901           44 
 4111000   0.61195203   -7.6668881    850.09806  0.017232183  0.016306911           24 
 4112000   0.58273509   -7.6763764    849.34258  0.017212682  0.016301912           51 
 4113000   0.59037919   -7.6588548    850.04182  0.017222664  0.016296913           56 
 4114000   0.60303661   -7.6527439    851.58633  0.017249764  0.016291921           60 
 4115000   0.59314043   -7.6677974    849.73656  0.017208112  0.016286921           58 
 4116000    0.5791277   -7.6629117    851.30974  0.017235782  0.016281921           44 
 4117000   0.59161768   -7.6606797    851.67413  0.017238971  0.016276927           32 
 4118000   0.58879082   -7.6683704    850.62274  0.017213509  0.016271931           52 
 4119000   0.59040444   -7.6590083    851.39217  0.017224896  0.016266939           41 
 4120000   0.58841223   -7.6624017    851.82323  0.017229434  0.016261947           43 
 4121000   0.60090408   -7.6784743    851.02981  0.017209209  0.016256952           53 
 4122000   0.61561117    -7.665598     849.3891  0.017171864  0.016251953           51 
 4123000   0.57491528   -7.6470356    849.39298  0.017167778  0.016246964           56 
 4124000   0.59508309   -7.6481711     850.0058  0.017175998   0.01624198           56 
 4125000   0.58782847   -7.6598206    851.43814  0.017200771  0.016236996           37 
 4126000   0.58600882   -7.6531955     850.1369   0.01717032  0.016232014           45 
 4127000   0.58933209   -7.6617778    850.30633  0.017169581  0.016227034           36 
 4128000    0.5843355   -7.6630691    848.88126  0.017136653   0.01622205           50 
 4129000   0.59550865   -7.6758686    850.04617  0.017156014  0.016217063           39 
 4130000   0.57665587   -7.6710405    850.60146  0.017163064   0.01621207           61 
 4131000   0.57979392   -7.6885715    851.73023   0.01718168  0.016207087           51 
 4132000   0.58785472   -7.6776232    850.36769  0.017150042  0.016202105           50 
 4133000   0.59328693   -7.6788993     850.5686  0.017149944  0.016197128           53 
 4134000   0.58740764   -7.6500428    850.72104  0.017148868  0.016192161           40 
 4135000   0.58226877   -7.6469615    850.20256  0.017134272  0.016187192           72 
 4136000   0.57718228   -7.6546421    851.36223  0.017153494  0.016182224           44 
 4137000   0.59539846   -7.6465812    851.48913  0.017151904  0.016177256           43 
 4138000   0.58492388   -7.6589627    850.30322  0.017123877  0.016172292           57 
 4139000   0.59249929   -7.6458902    851.02395   0.01713425  0.016167335           47 
 4140000   0.58446741   -7.6513723     850.2513  0.017114559  0.016162385           35 
 4141000   0.58282275   -7.6401406    852.51381  0.017155957  0.016157434           36 
 4142000    0.6001651   -7.6700693    851.01994   0.01712176  0.016152481           36 
 4143000   0.58580195    -7.637341    851.84629  0.017134248  0.016147528           43 
 4144000   0.59181217   -7.6525401    850.55354  0.017104117  0.016142578           59 
 4145000   0.59187278   -7.6558343    850.53219  0.017099561  0.016137623           38 
 4146000   0.59524936   -7.6375373    851.42565  0.017113395  0.016132674           40 
 4147000   0.58258971   -7.6630991    851.52328  0.017111231  0.016127729           42 
 4148000   0.58687135   -7.6442129    852.40533  0.017124826  0.016122785           48 
 4149000   0.57941673   -7.6586873     852.7847  0.017128318  0.016117842           34 
 4150000   0.59172111   -7.6756509     848.9588  0.017047365  0.016112896           19 
 4151000   0.58917163   -7.6626241    851.35992  0.017091462  0.016107945           20 
 4152000   0.58864508   -7.6692578    852.35587  0.017107335  0.016102999           12 
 4153000   0.59047532   -7.6695049    851.08163  0.017077647  0.016098056           35 
 4154000   0.59013746   -7.6651707    849.09882  0.017033759   0.01609311           29 
 4155000   0.59260645    -7.649499    849.63562  0.017040426   0.01608817           15 
 4156000   0.58289175   -7.6775398      849.693  0.017037476  0.016083227           36 
 4157000    0.5862708   -7.6819871    851.82196  0.017076056  0.016078282           34 
 4158000   0.60230823   -7.6804317    851.78406  0.017071189  0.016073338           46 
 4159000   0.58862846   -7.6762769    850.69949  0.017045353  0.016068379           32 
 4160000   0.59032474   -7.6955761     849.7458  0.017022151  0.016063434           36 
 4161000    0.5885347   -7.6817438    850.32875  0.017029735  0.016058496           25 
 4162000   0.58700444   -7.6733218    850.10163  0.017021096  0.016053562           34 
 4163000   0.58399664   -7.6925135    850.05054  0.017015985  0.016048626           25 
 4164000   0.58699883   -7.6534673    849.50728  0.017001026  0.016043695           32 
 4165000   0.59370598   -7.6702051    851.13257  0.017029463  0.016038764           45 
 4166000   0.57867746   -7.6673807    850.42662  0.017011254  0.016033828           45 
 4167000   0.58437106   -7.6545431    850.57072  0.017010054  0.016028908           41 
 4168000   0.58412961   -7.6712955    850.64234  0.017007404  0.016023986           52 
 4169000   0.58453974   -7.6689539    851.87199  0.017027904  0.016019066           41 
 4170000   0.58812402   -7.6561677    849.97385  0.016985888   0.01601415           37 
 4171000    0.5835339   -7.6657672    850.55781  0.016993483  0.016009233           37 
 4172000   0.57788438   -7.6914198    850.05731  0.016979413  0.016004305           47 
 4173000   0.57687896   -7.6839282    850.06808  0.016975559  0.015999379           40 
 4174000   0.56934082   -7.6698485    849.82639  0.016966666  0.015994457           46 
 4175000    0.6050682    -7.658548    849.14276  0.016948957   0.01598953           50 
 4176000   0.57224269   -7.6669635    850.53721  0.016972725  0.015984606           69 
 4177000   0.58482671   -7.6776123    850.20115  0.016961957  0.015979689           40 
 4178000   0.58544473   -7.6688731    852.19276  0.016997622  0.015974775           52 
 4179000   0.56795218   -7.6847885    849.63577  0.016942565  0.015969859           40 
 4180000   0.58232294   -7.6718708    850.31989  0.016952151  0.015964945           43 
 4181000   0.59334846   -7.6611733    851.06344  0.016962916  0.015960035           40 
 4182000   0.58272475    -7.695524    850.33679   0.01694438  0.015955126           48 
 4183000   0.58239785    -7.679103    851.44219  0.016962351  0.015950227           70 
 4184000   0.59079279   -7.6782902    851.63057  0.016962049   0.01594533           48 
 4185000   0.59368443   -7.6943569    851.19653  0.016949353  0.015940431           47 
 4186000   0.57362817   -7.6839381    851.44117  0.016950175   0.01593553           34 
 4187000   0.57411933   -7.6900995    851.98071  0.016956865  0.015930629           36 
 4188000   0.57454116   -7.6895254    849.54073  0.016904265  0.015925736           50 
 4189000    0.5763546   -7.6554973    850.00077  0.016909381  0.015920837           54 
 4190000   0.58872647   -7.6713297    848.65631  0.016878606  0.015915939           24 
 4191000   0.58929109   -7.6702491    850.59734  0.016913174  0.015911051           36 
 4192000   0.58475964   -7.6755429    850.46362  0.016906481  0.015906158           53 
 4193000    0.5836691   -7.6903868    850.26228  0.016898447  0.015901266           57 
 4194000   0.57859926    -7.656946    849.42737  0.016877829  0.015896385           31 
 4195000   0.58153382   -7.6787569    851.51322  0.016915241  0.015891508           39 
 4196000   0.59136899   -7.6873945    851.31247  0.016907223   0.01588663           35 
 4197000   0.57879051   -7.6830323    849.63985  0.016869984  0.015881758           40 
 4198000   0.58564386   -7.6899381    851.53247  0.016903535  0.015876872           40 
 4199000   0.57208564   -7.6846298    850.86286   0.01688622  0.015871991           37 
 4200000   0.58219308   -7.6703292    849.39267  0.016853029  0.015867106           43 
 4201000   0.57515997    -7.667334    849.66786  0.016854476  0.015862223           47 
 4202000   0.57857188   -7.6853248    850.69092  0.016870754  0.015857345           38 
 4203000   0.58186808   -7.6985375    849.65395   0.01684618  0.015852471           49 
 4204000   0.55728258   -7.6730975    849.86083  0.016846274  0.015847595           28 
 4205000   0.58332291    -7.689085    850.50313  0.016854997  0.015842715           31 
 4206000   0.56692397   -7.7015694    850.64855  0.016853871  0.015837843           40 
 4207000   0.57161736   -7.6940794    850.09476  0.016838895  0.015832972           31 
 4208000   0.58509663   -7.6804651    848.95591   0.01681234  0.015828106           32 
 4209000   0.59043135   -7.6721501    850.95732  0.016847971   0.01582324           30 
 4210000   0.57410965   -7.6815447    851.65625  0.016857804  0.015818383           31 
 4211000   0.58156297   -7.6790871    850.34298  0.016827812  0.015813519           37 
 4212000   0.58852852   -7.6860098    851.50606  0.016846828  0.015808669           29 
 4213000   0.57394876   -7.6747206    850.49121  0.016822755   0.01580381           25 
 4214000   0.58768441   -7.6703054    849.97862  0.016808626  0.015798953           31 
 4215000   0.56472788   -7.7014484    850.28965  0.016810788   0.01579409           26 
 4216000    0.5807344   -7.6945271     851.0149  0.016821136  0.015789229           29 
 4217000   0.57636153   -7.6640459     849.5788  0.016788768  0.015784365           36 
 4218000   0.58307395   -7.6975582    849.26272  0.016778543  0.015779503           38 
 4219000   0.58357686   -7.6700136    850.57463  0.016800479  0.015774639           27 
 4220000   0.57106163   -7.6813763    849.49877  0.016775252  0.015769783           38 
 4221000    0.5774109   -7.6709393    850.40161  0.016789102   0.01576493           29 
 4222000   0.56496058   -7.6813925     849.6997  0.016771272  0.015760074           35 
 4223000   0.57068931    -7.674285    849.02718  0.016754029   0.01575523           34 
 4224000   0.58068829   -7.6813231    849.66389  0.016762624  0.015750374           38 
 4225000   0.57238839   -7.6945278    848.77602  0.016741144  0.015745523           30 
 4226000   0.56298941   -7.6808887    851.49207  0.016790741  0.015740678           45 
 4227000   0.56643549    -7.686461     850.0164  0.016757677  0.015735837           23 
 4228000   0.57025237   -7.6918641    850.00742  0.016753536  0.015730993           27 
 4229000   0.56968419   -7.6855141    850.99533  0.016769042  0.015726151           30 
 4230000   0.56649265   -7.6834697    849.45083   0.01673465  0.015721305           22 
 4231000    0.5782943   -7.6889541    850.75001  0.016756283  0.015716465           18 
 4232000   0.58509818   -7.6870939    849.54747  0.016728644  0.015711632           20 
 4233000   0.57828609   -7.6685877    851.01422  0.016753568  0.015706797           29 
 4234000   0.56091541   -7.6826007    850.36329  0.016736799  0.015701962           37 
 4235000   0.56302192   -7.6921789    849.85811  0.016722907  0.015697125           26 
 4236000   0.58867893   -7.6841553    850.26201  0.016726904  0.015692292           32 
 4237000   0.57541114   -7.6806031    850.25608   0.01672284  0.015687468           18 
 4238000   0.57587629   -7.6967939    848.62924  0.016686905  0.015682637           29 
 4239000   0.58263205   -7.6759793    850.24129  0.016714659  0.015677818           37 
 4240000   0.57039437   -7.6543332    851.00041  0.016725637  0.015673001           36 
 4241000   0.57001918   -7.6684071    850.78371  0.016717435  0.015668191           22 
 4242000     0.581749   -7.6853311    849.56953  0.016689642  0.015663374           24 
 4243000     0.571066   -7.6668354    850.89968  0.016711833  0.015658563           37 
 4244000   0.57263199   -7.6803809    850.11807  0.016692548  0.015653749           30 
 4245000   0.58159639   -7.6709331    850.95167   0.01670498  0.015648941           31 
 4246000   0.57499414   -7.6704955    850.82458  0.016698551  0.015644129           25 
 4247000   0.56016479   -7.6722108    850.48507  0.016687958  0.015639327           31 
 4248000   0.57641221   -7.6836423    850.80604  0.016690326   0.01563452           28 
 4249000   0.56369621   -7.6873229    851.75694  0.016705047  0.015629711           20 
 4250000   0.58110692   -7.6751542     850.5421  0.016677296  0.015624909           44 
 4251000   0.58176649   -7.6812816     849.7788   0.01665841    0.0156201           23 
 4252000   0.58168636   -7.6796828    849.67245  0.016652408  0.015615293           20 
 4253000   0.56228748   -7.6643617    851.61225  0.016686501  0.015610491           14 
 4254000   0.58040742   -7.6967935    849.97421   0.01665049  0.015605691           25 
 4255000   0.56529257   -7.7046044    849.77318   0.01664264  0.015600889           17 
 4256000   0.55951995     -7.68847    850.83461  0.016659512  0.015596091           18 
 4257000   0.57827582   -7.6757472     849.4061  0.016627635  0.015591296           18 
 4258000   0.57746103   -7.6989983    850.35104  0.016642223  0.015586499           17 
 4259000   0.55030659   -7.7030777    850.27425  0.016636813  0.015581703           16 
 4260000   0.57994905    -7.670158    851.47482  0.016656393  0.015576918           27 
 4261000   0.55177072   -7.6944352    849.46193  0.016613118  0.015572129           41 
 4262000   0.55808213   -7.7045991    850.13968  0.016622471  0.015567342           26 
 4263000   0.56570533   -7.6850724     850.0042  0.016615924  0.015562553           17 
 4264000   0.56708925   -7.7101117    851.99052  0.016650847  0.015557768           23 
 4265000   0.56900035   -7.7069806    849.92526   0.01660659  0.015552985           19 
 4266000   0.57164455   -7.6980888    849.31308  0.016590738  0.015548196           30 
 4267000   0.55830197   -7.7112979    849.90284  0.016598368  0.015543401           52 
 4268000   0.56603224   -7.6794506    850.03988  0.016597155  0.015538608           37 
 4269000   0.57055446   -7.6963367    850.35057  0.016599332  0.015533814           74 
 4270000    0.5594873   -7.7032656    850.24652  0.016593414  0.015529024           29 
 4271000   0.56817008      -7.6995    849.71649  0.016579187  0.015524234           36 
 4272000   0.56693031     -7.69812    850.84615  0.016597342  0.015519452           28 
 4273000   0.56730849   -7.6770862    850.29714  0.016582751  0.015514666           36 
 4274000   0.56254547   -7.6795323    849.66599  0.016566565  0.015509886           24 
 4275000   0.55686255   -7.6836498    850.61296  0.016581149  0.015505107           36 
 4276000   0.57066023   -7.7046221    850.61729  0.016577356   0.01550033           26 
 4277000   0.56469612    -7.692668    849.58048  0.016553279  0.015495552           24 
 4278000   0.56854711   -7.7076496     849.9775  0.016557143  0.015490779           35 
 4279000    0.5616162   -7.7005029     850.2752  0.016559071  0.015486008           32 
 4280000   0.56939249   -7.6868599    849.24665  0.016535176  0.015481232           28 
 4281000    0.5526506   -7.7081289     849.2045  0.016530493  0.015476455           22 
 4282000   0.56529058    -7.690672    849.99669   0.01654205  0.015471677           23 
 4283000   0.56611416   -7.6892742     849.3554   0.01652571  0.015466903           28 
 4284000   0.55408902   -7.6969008    850.07729  0.016535895  0.015462134           36 
 4285000   0.56593017     -7.70618    848.41441  0.016499697   0.01545736           29 
 4286000   0.56929218   -7.7081389    849.28758  0.016512824  0.015452587           32 
 4287000   0.57182989   -7.7022811    848.92867  0.016501996  0.015447825           27 
 4288000   0.56762911   -7.6984169     848.6264  0.016492273  0.015443054           32 
 4289000   0.56878161   -7.7199701    849.73597  0.016509986  0.015438284           51 
 4290000   0.57341333   -7.7036275    847.39643  0.016460692  0.015433517           33 
 4291000   0.57337146   -7.6941015    848.76455  0.016483426  0.015428759           28 
 4292000   0.56781243   -7.7092588    849.43349  0.016492573  0.015423998           26 
 4293000   0.56473885   -7.7136954     850.3407  0.016506342  0.015419234           23 
 4294000   0.56562877   -7.7067639    848.73076  0.016471254  0.015414474           26 
 4295000   0.56243904    -7.721595    849.06587  0.016473921  0.015409705           20 
 4296000   0.56488657   -7.7110446    849.55661  0.016479605   0.01540495           21 
 4297000   0.56515103   -7.7172242    849.94424  0.016483288  0.015400192           36 
 4298000   0.56163329   -7.7214154    849.30669  0.016467091  0.015395432           34 
 4299000   0.56440928    -7.697693    850.54481  0.016487261   0.01539068           31 
 4300000   0.55936222   -7.7046034    849.15055  0.016456406  0.015385929           41 
 4301000   0.56164543   -7.7191553    849.56906  0.016460689  0.015381178           48 
 4302000   0.57523836   -7.7173232    848.38199  0.016433868  0.015376426           51 
 4303000   0.56818291    -7.718612    849.55588  0.016452783  0.015371677           32 
 4304000    0.5676067   -7.6900347    849.33022  0.016444591  0.015366939           30 
 4305000   0.57541126    -7.695745    849.41909  0.016442491  0.015362201           26 
 4306000   0.57181593   -7.7026438    849.95095  0.016448966  0.015357461           49 
 4307000   0.56110465    -7.709061    849.90546  0.016444266  0.015352721           32 
 4308000   0.55847133   -7.7072738     848.9202   0.01642139   0.01534798           35 
 4309000   0.56006026   -7.7060392    849.39574  0.016426776  0.015343246           29 
 4310000   0.56357112   -7.6893398    849.01257  0.016415556   0.01533852           24 
 4311000   0.56305381   -7.7124717    849.62046  0.016423499  0.015333791           59 
 4312000   0.56601314   -7.6897847     849.2602  0.016412728  0.015329067           40 
 4313000     0.554644   -7.6968928    848.47413  0.016393735  0.015324342           31 
 4314000    0.5486294   -7.7151674    849.65484  0.016412742  0.015319614           25 
 4315000   0.56284468   -7.7206899    848.75327  0.016391527   0.01531489           37 
 4316000   0.57292182   -7.7171709    848.23209  0.016377666  0.015310162           38 
 4317000   0.56368531   -7.7181871    849.81535  0.016404435  0.015305437           36 
 4318000     0.556375   -7.7064572    849.33183  0.016391304  0.015300712           50 
 4319000   0.56163652    -7.695453    849.68476  0.016394319  0.015295996           38 
 4320000   0.56578215   -7.7210423    850.09221  0.016398384  0.015291278           27 
 4321000   0.57282229   -7.7183357     848.1184  0.016356522  0.015286552           33 
 4322000   0.56815612   -7.7225333    849.24633  0.016374486  0.015281827           49 
 4323000   0.56173669   -7.7142488    849.87693  0.016382854  0.015277107           36 
 4324000   0.56547667   -7.7188272    848.23817  0.016347483  0.015272387           69 
 4325000   0.57015016   -7.7262849    848.45452  0.016347871  0.015267668           47 
 4326000   0.55923587   -7.7208104    849.16284  0.016357737  0.015262946           33 
 4327000   0.55190967   -7.6950325    849.25825  0.016355794  0.015258229           50 
 4328000   0.57500142   -7.7190227    848.07884  0.016329306  0.015253519           39 
 4329000   0.56293016   -7.7002609    846.54007  0.016295913  0.015248809           48 
 4330000   0.55758315   -7.7249049    849.91268  0.016357057  0.015244095           45 
 4331000   0.55399289   -7.7184372    848.53188  0.016326712  0.015239376          115 
 4332000   0.55194466   -7.7175508    847.57394  0.016304516  0.015234657           52 
 4333000   0.54472825   -7.7114299    847.36642  0.016296762  0.015229942          108 
 4334000   0.57463669   -7.7072174    848.84484  0.016321428  0.015225226           55 
 4335000    0.5528129   -7.7161083     846.4977  0.016272543  0.015220514           46 
 4336000   0.56199708   -7.7246995    849.10417  0.016318884  0.015215801           46 
 4337000   0.56187719   -7.7060309    848.29175  0.016299511   0.01521109           80 
 4338000   0.56587029   -7.7343559    849.05296  0.016310377  0.015206378           34 
 4339000   0.54766917   -7.7210008    848.84222   0.01630257  0.015201665           72 
 4340000   0.55346837   -7.6968507    848.55687  0.016293335  0.015196959           39 
 4341000   0.55684721   -7.7156395    848.65108   0.01629139  0.015192262           44 
 4342000   0.56284573    -7.713926    848.34957  0.016281851  0.015187557           57 
 4343000   0.53708159    -7.731903    848.98738   0.01629034  0.015182855           43 
 4344000   0.55864279   -7.7218072    848.21558  0.016271784  0.015178156           42 
 4345000   0.57125012   -7.7268136    847.23313  0.016249197  0.015173459           62 
 4346000   0.54790841   -7.6941641    849.66553  0.016292099  0.015168764           51 
 4347000   0.55264911   -7.7211685    848.53217  0.016266624  0.015164068           57 
 4348000    0.5561268   -7.7016561    848.11848  0.016254954  0.015159376           70 
 4349000    0.5434809   -7.7155962    848.60842  0.016260604  0.015154684           29 
 4350000   0.55268863   -7.7089478    848.41892  0.016253236  0.015149996           51 
 4351000    0.5683042   -7.7230169    847.20076   0.01622617   0.01514531           76 
 4352000   0.55895564   -7.7218634     848.2107   0.01624178  0.015140619           43 
 4353000   0.55799598   -7.7175825    849.79247   0.01626833  0.015135933           78 
 4354000    0.5337503    -7.728204    848.78833  0.016245375   0.01513125           28 
 4355000   0.57042437   -7.7224613    847.04734   0.01620833  0.015126575           36 
 4356000   0.55252875   -7.7159345    848.77376  0.016237637  0.015121896           40 
 4357000   0.56853297   -7.7274432    849.82223  0.016253964  0.015117217           58 
 4358000   0.56243018   -7.7306532    850.01515  0.016253923  0.015112539           54 
 4359000   0.55836866   -7.7409977    848.30178  0.016217439   0.01510786           43 
 4360000    0.5457378   -7.7143318    849.42748  0.016235235  0.015103187           46 
 4361000   0.55837337   -7.7276628    848.59449  0.016215594  0.015098521           37 
 4362000    0.5545758   -7.7424936     849.5073  0.016229316  0.015093857           68 
 4363000   0.55270763   -7.7229141    849.37312  0.016223033  0.015089201           59 
 4364000   0.55626247    -7.707154    848.98124  0.016211832  0.015084539           83 
 4365000   0.55483732   -7.7347439    847.25597  0.016175181   0.01507988           91 
 4366000   0.54475029   -7.7145258    848.93088  0.016203445  0.015075215           69 
 4367000   0.56154632   -7.7208761    849.04643  0.016201939  0.015070555           51 
 4368000   0.54770605   -7.7411026    849.54447  0.016207732  0.015065903           85 
 4369000   0.56055556   -7.7192376    848.83125  0.016190418  0.015061254          105 
 4370000   0.56148093    -7.726406    850.57495  0.016219965  0.015056603           79 
 4371000   0.56024104   -7.7289337    848.73493  0.016181174  0.015051954          110 
 4372000   0.55930841   -7.7343145      849.691  0.016195696  0.015047306           29 
 4373000   0.55567056   -7.7395141    848.36953   0.01616681   0.01504266           55 
 4374000   0.54356393   -7.7344228     849.4084  0.016182907  0.015038012           54 
 4375000   0.56013901   -7.7343956    847.83829  0.016149301  0.015033367           72 
 4376000   0.54812699   -7.7168814    848.01444  0.016148965  0.015028721           59 
 4377000   0.55588216    -7.719019    847.44134  0.016134364  0.015024076           34 
 4378000   0.54062651   -7.7274308    850.36649  0.016186358  0.015019438           67 
 4379000   0.55523958   -7.7188222     849.0899  0.016158368  0.015014802           58 
 4380000    0.5460655   -7.7250832    849.81378  0.016168451  0.015010158           79 
 4381000   0.53737038   -7.7221404     848.8223  0.016145901  0.015005521           70 
 4382000   0.56224385    -7.744031    848.27017  0.016131716  0.015000883           52 
 4383000   0.56078247   -7.7165832    847.79736  0.016119046  0.014996246           66 
 4384000    0.5579851   -7.7295667    849.25871  0.016143148  0.014991611           55 
 4385000   0.53903624   -7.7198671    849.99936  0.016153542  0.014986976           48 
 4386000   0.54789251    -7.734238    847.10243  0.016094817  0.014982342           44 
 4387000   0.54690496   -7.7303917    850.41343  0.016154043  0.014977714           42 
 4388000   0.54648314   -7.7542069    847.36326  0.016092435  0.014973089           43 
 4389000   0.55531488    -7.730659    848.56499  0.016111586  0.014968468           51 
 4390000   0.55365059   -7.7276104    849.58918  0.016127357  0.014963849           34 
 4391000   0.55130727   -7.7271865    848.34565  0.016100084  0.014959232           53 
 4392000   0.55586831   -7.7515821    848.05301  0.016090866  0.014954612           30 
 4393000   0.55262542   -7.7375289    848.18234  0.016089657  0.014949997           45 
 4394000   0.55502819   -7.7197899    849.64836  0.016113798   0.01494538           45 
 4395000   0.53752206   -7.7405283    847.80233   0.01607513  0.014940766           38 
 4396000   0.55222363   -7.7212519    847.47259  0.016065222  0.014936142           35 
 4397000   0.53975228   -7.7306288    848.01324  0.016071815  0.014931523           44 
 4398000   0.55073107   -7.7366968    847.43025  0.016057114    0.0149269           44 
 4399000   0.55254513   -7.7431558    848.59296   0.01607549   0.01492228           51 
 4400000   0.56269267   -7.7294024    847.94362  0.016059538  0.014917667           56 
 4401000   0.55494016   -7.7352137    848.48708   0.01606618  0.014913057           26 
 4402000   0.54927981   -7.7349492    848.77034  0.016067892  0.014908445           31 
 4403000   0.54279775   -7.7252699    846.52826  0.016021808  0.014903841           31 
 4404000   0.55492978   -7.7401122    848.99383  0.016064824  0.014899237           38 
 4405000   0.53754464   -7.7227473    847.38842  0.016030806   0.01489463           36 
 4406000   0.54058779   -7.7374491    847.67877  0.016032659  0.014890025           38 
 4407000   0.53566036   -7.7476744    848.68937  0.016048131  0.014885424           48 
 4408000   0.55992575   -7.7187621    848.07427  0.016032862  0.014880825           54 
 4409000   0.55568887   -7.7386777    847.79369  0.016023922  0.014876226           45 
 4410000   0.55663204   -7.7140041    848.39307  0.016031615  0.014871632           42 
 4411000   0.52711243   -7.7426477    847.85078  0.016017736  0.014867032           34 
 4412000   0.53778653   -7.7391337    848.24915  0.016021629  0.014862434           33 
 4413000   0.54778416   -7.7295528    849.56726   0.01604289  0.014857838           39 
 4414000   0.55513984   -7.7252023    847.81079  0.016006094  0.014853244           49 
 4415000   0.54213624   -7.7426151    847.97104  0.016005493  0.014848644           26 
 4416000    0.5443156   -7.7338513    848.74346  0.016016445  0.014844052           19 
 4417000   0.53521149   -7.7459808    848.03529  0.015999458  0.014839465           32 
 4418000   0.53788637   -7.7374862    848.31108  0.016001039  0.014834872           29 
 4419000    0.5312174   -7.7474438    848.63013  0.016003435  0.014830285           48 
 4420000    0.5431928    -7.750982    848.12495  0.015990289  0.014825699           55 
 4421000   0.54927973   -7.7615926    848.87312  0.016000775  0.014821114           34 
 4422000   0.54291602   -7.7602863    848.26063  0.015985614  0.014816533           64 
 4423000   0.52815614   -7.7269133    847.54746  0.015968563  0.014811944           64 
 4424000   0.54671268   -7.7189172    848.41517  0.015981298  0.014807361           76 
 4425000   0.54488423   -7.7714747    847.60755  0.015962477  0.014802778           66 
 4426000     0.530144   -7.7529941    847.51659  0.015957158  0.014798191           66 
 4427000   0.54324135   -7.7438573    846.85559  0.015941111  0.014793603           30 
 4428000   0.55920197   -7.7374734    847.75272  0.015954395  0.014789027           30 
 4429000   0.55020413   -7.7455044    847.73507   0.01595046  0.014784449           31 
 4430000   0.53719793   -7.7365488     848.2963  0.015957417  0.014779872           41 
 4431000   0.54004207   -7.7386296    847.38929  0.015936758    0.0147753           35 
 4432000   0.54632887   -7.7287022    848.69806   0.01595777   0.01477073           92 
 4433000    0.5330066   -7.7335843    846.80153  0.015918519  0.014766162           30 
 4434000   0.53990097   -7.7299933    847.25524  0.015923456  0.014761597           49 
 4435000   0.52678537   -7.7330724    849.51407  0.015962309  0.014757036           34 
 4436000   0.53592683   -7.7475602    848.46023  0.015938913  0.014752472           32 
 4437000   0.55172065   -7.7446686    847.79094  0.015922751  0.014747912           65 
 4438000   0.54608469   -7.7401854    847.69295  0.015917323  0.014743351           31 
 4439000   0.53939668   -7.7476323     846.5508  0.015892296  0.014738786           32 
 4440000   0.53224101   -7.7565881    847.77175  0.015911632   0.01473422           29 
 4441000   0.54072999   -7.7436303    847.27116  0.015898656  0.014729663           34 
 4442000   0.53426638   -7.7449875    847.71385  0.015903382  0.014725102           34 
 4443000   0.53386986   -7.7534378    847.33588  0.015892713  0.014720539           24 
 4444000   0.53480369    -7.740448     848.0318  0.015902186  0.014715984           40 
 4445000   0.52955504   -7.7189327    848.00797  0.015898162  0.014711431           30 
 4446000   0.54346706   -7.7370977    847.20112  0.015879463  0.014706873           41 
 4447000   0.54112796   -7.7426705    846.76613  0.015867741  0.014702314           22 
 4448000   0.53821815   -7.7521955    848.72063  0.015900791  0.014697757           28 
 4449000   0.53645644   -7.7835089    848.77585  0.015898252  0.014693206           31 
 4450000   0.54160239    -7.744193    846.74669   0.01585668  0.014688659           33 
 4451000   0.52908202   -7.7600877    847.56984  0.015868528  0.014684113           16 
 4452000    0.5287244   -7.7585764    847.68391  0.015867099  0.014679568           25 
 4453000   0.52957322   -7.7482171    848.01551  0.015869742  0.014675026           25 
 4454000    0.5345143    -7.768584    847.98829  0.015865669   0.01467049           50 
 4455000   0.54160037   -7.7523793    848.59926  0.015873537  0.014665953           30 
 4456000   0.53415921    -7.739175    847.55592  0.015850462  0.014661408           35 
 4457000   0.54674097   -7.7576478    847.94492  0.015854179  0.014656864           28 
 4458000   0.53577495   -7.7661719    848.28654  0.015857009  0.014652329           33 
 4459000   0.52479112   -7.7533925    847.92986  0.015846787  0.014647796           35 
 4460000   0.54566243   -7.7695719     847.9924  0.015844402  0.014643266           23 
 4461000   0.53428013   -7.7417438    845.36504   0.01579177  0.014638729           39 
 4462000   0.53597558   -7.7690229    848.26004  0.015842299  0.014634198           24 
 4463000   0.54804944   -7.7507685    846.79771  0.015811444  0.014629668           41 
 4464000   0.53135156    -7.749023    846.14246   0.01579567  0.014625138           40 
 4465000   0.52880634   -7.7475429    847.82147  0.015823469  0.014620612           49 
 4466000   0.53126821   -7.7513579    847.06505  0.015805811  0.014616085           59 
 4467000    0.5433486   -7.7685123    848.00784  0.015819861  0.014611557           43 
 4468000   0.53347772    -7.755021    846.76315  0.015793106  0.014607034           24 
 4469000    0.5386803   -7.7553064    845.16153  0.015759706  0.014602505           26 
 4470000   0.53464448   -7.7354544    847.48737  0.015799541   0.01459798           38 
 4471000   0.54054268   -7.7573477    847.48982  0.015796053  0.014593458           26 
 4472000   0.53992247   -7.7478448    847.50725  0.015792845  0.014588942           23 
 4473000   0.54124699   -7.7566246    847.85708  0.015795832   0.01458442           41 
 4474000   0.52481106   -7.7484171    847.85787  0.015792316  0.014579905           33 
 4475000    0.5379265   -7.7562154     847.9672  0.015790823  0.014575393           24 
 4476000   0.52771942   -7.7371899    847.85933  0.015785287  0.014570888           40 
 4477000    0.5440142   -7.7462102    849.03345  0.015803616  0.014566389           20 
 4478000   0.53521184   -7.7523343    847.56188  0.015772701  0.014561889           29 
 4479000   0.53247765   -7.7553686    846.22517   0.01574431  0.014557386           30 
 4480000   0.53924451   -7.7576899    848.09011  0.015775486  0.014552884           37 
 4481000   0.54028901   -7.7531863    847.07111  0.015753015  0.014548381           24 
 4482000   0.53763338   -7.7674217    846.46656   0.01573826  0.014543879           24 
 4483000   0.54044915   -7.7791609    848.40269  0.015770739  0.014539379           38 
 4484000   0.52821001   -7.7529321    846.21285  0.015726525  0.014534868           33 
 4485000   0.54287952   -7.7641005    847.83051  0.015753075  0.014530369           36 
 4486000   0.53380912   -7.7704555    847.77066  0.015748452  0.014525871           43 
 4487000   0.52657401   -7.7580875    846.40652  0.015719607  0.014521378           27 
 4488000   0.52055699    -7.756782    845.90153  0.015706728  0.014516883           56 
 4489000   0.50926675   -7.7633826    846.92483  0.015722225   0.01451239           64 
 4490000   0.53718308   -7.7504894     848.1642  0.015741726  0.014507904           37 
 4491000   0.54482925   -7.7398907     846.0858  0.015699655  0.014503416           66 
 4492000    0.5265269   -7.7563333    846.86169  0.015710554  0.014498931           40 
 4493000   0.54719112   -7.7687859    846.88855  0.015707555  0.014494448           33 
 4494000   0.53721106   -7.7487686      847.538  0.015716103  0.014489965           28 
 4495000   0.52704151   -7.7449662    848.69146  0.015733991  0.014485488           24 
 4496000   0.54377185   -7.7635997    847.34107  0.015705462  0.014481014           35 
 4497000   0.53595787   -7.7479815    847.95924  0.015713424  0.014476537           30 
 4498000   0.52203495   -7.7529117    846.31775   0.01567952  0.014472065           30 
 4499000   0.53500445   -7.7505809    846.99032  0.015688492  0.014467591           45 
 4500000   0.53309469   -7.7548919    847.21478  0.015689163  0.014463112           34 
 4501000   0.54414339   -7.7547354    847.46472  0.015690304  0.014458641           42 
 4502000   0.53001987   -7.7443828    846.67165  0.015672139  0.014454168           75 
 4503000   0.52259727   -7.7714264    847.75055  0.015688625  0.014449694           30 
 4504000   0.52552999   -7.7735992    847.34108  0.015677566  0.014445222           55 
 4505000    0.5288083   -7.7672774    847.66431  0.015680065  0.014440749           24 
 4506000   0.53048262   -7.7780488    846.90537  0.015662549   0.01443628           51 
 4507000    0.5269949   -7.7877343    848.28569  0.015684596  0.014431809           29 
 4508000    0.5418986   -7.7688461    846.75823  0.015652881  0.014427344           47 
 4509000   0.53127902   -7.7578164    847.32654  0.015659912  0.014422885           29 
 4510000   0.52187065   -7.7804804    847.07773  0.015651843  0.014418423           41 
 4511000   0.53252473   -7.7648251     846.1396  0.015631043  0.014413966           70 
 4512000   0.52591696   -7.7748476    846.89058  0.015641448  0.014409506           47 
 4513000   0.53390417   -7.7759937    846.41482  0.015629198  0.014405049           47 
 4514000   0.52281783   -7.7783334    847.42349  0.015644356  0.014400588           29 
 4515000   0.52845915   -7.7715934    847.04843  0.015633969  0.014396132           21 
 4516000   0.52789528   -7.7757006    846.14699  0.015613873  0.014391677           67 
 4517000   0.53796124   -7.7673354    847.05482  0.015627164  0.014387222           67 
 4518000   0.52110516   -7.7749091    846.30647  0.015609902  0.014382768           85 
 4519000   0.53192971   -7.7508308    846.37701  0.015607749  0.014378319           87 
 4520000   0.53114085     -7.78763    847.51069  0.015625197  0.014373871           59 
 4521000   0.53007259   -7.7760769    846.57459  0.015604486  0.014369425           52 
 4522000   0.53027623   -7.7672348    846.92537    0.0156075  0.014364981           29 
 4523000   0.53702012   -7.7777951    847.51761  0.015614961  0.014360533           77 
 4524000   0.53362507   -7.7705731    846.27738  0.015588664  0.014356092           46 
 4525000   0.53536078   -7.7827743    848.00705  0.015617073  0.014351652           81 
 4526000    0.5294491   -7.7707481    848.25692  0.015618223   0.01434721           50 
 4527000   0.52426696   -7.7814569    847.62636  0.015603165  0.014342774           72 
 4528000   0.51743232   -7.7687157    847.27116  0.015593182  0.014338333           31 
 4529000   0.53440488   -7.7576497    846.57071  0.015576851  0.014333896           56 
 4530000   0.52544205   -7.7775161    845.08736  0.015546125  0.014329453           32 
 4531000   0.52690575   -7.7829743    846.31524  0.015565277  0.014325015           50 
 4532000   0.52903104   -7.8054321    846.46906  0.015564671   0.01432057           27 
 4533000   0.52191944   -7.7898877    847.70414  0.015583943  0.014316132           37 
 4534000   0.52222977   -7.7702193    846.88757  0.015565497  0.014311692           18 
 4535000   0.52490085   -7.7837103    846.66532  0.015557981  0.014307262           23 
 4536000   0.52340458   -7.7710398    846.93615  0.015559527  0.014302828           62 
 4537000   0.52683664   -7.7774734    846.03697  0.015539581  0.014298401           24 
 4538000   0.51526112   -7.7694634    846.27278  0.015540487  0.014293972           66 
 4539000   0.51182438   -7.7754246    846.81096  0.015546944  0.014289543           25 
 4540000   0.51834969   -7.7649046    844.63451   0.01550357  0.014285117           43 
 4541000   0.53197491   -7.7859993    845.34694   0.01551323  0.014280694           61 
 4542000   0.52572122   -7.7611243    844.65999  0.015497211  0.014276271           76 
 4543000   0.52897653   -7.7651746    846.12508  0.015520674  0.014271851           28 
 4544000   0.52799866   -7.7777805    846.17585   0.01551819  0.014267429           28 
 4545000   0.53473482   -7.7795358    846.53339  0.015521331  0.014263012           35 
 4546000    0.5310261   -7.7526821     845.6857  0.015502377    0.0142586           48 
 4547000   0.52109873   -7.7957828    846.49301  0.015513764  0.014254187           68 
 4548000   0.51304146   -7.7843784    846.49101  0.015510316  0.014249773           45 
 4549000   0.52788053   -7.7889488    846.46441  0.015506419   0.01424536           39 
 4550000   0.52340092   -7.7974954    846.70047  0.015507335   0.01424094           46 
 4551000   0.51900661   -7.7881499    846.91561  0.015507867  0.014236531           48 
 4552000   0.52488714   -7.7662508    847.35989  0.015512593  0.014232121           29 
 4553000   0.52131003   -7.7924478    846.79595  0.015498864  0.014227713           49 
 4554000   0.52323103   -7.7781324    846.46514  0.015489408  0.014223304           65 
 4555000   0.51452238    -7.780087    846.84515  0.015492959  0.014218902           41 
 4556000   0.51480333   -7.7899915    846.85036  0.015489654    0.0142145           62 
 4557000   0.53429328     -7.78773     846.6321  0.015482264  0.014210099           33 
 4558000    0.5319959   -7.7765858    847.42963  0.015493448  0.014205702           37 
 4559000   0.50280716   -7.7950453    847.27208   0.01548717  0.014201305           36 
 4560000   0.52388145   -7.8061709    844.61753  0.015435262  0.014196911           35 
 4561000   0.52506252    -7.785025    845.97896  0.015456752  0.014192516           35 
 4562000   0.53017862   -7.7692856    848.75398  0.015504055  0.014188126           47 
 4563000   0.52347524   -7.7955566    846.80356  0.015465037  0.014183733           36 
 4564000   0.52624356    -7.802757    846.18022  0.015450267  0.014179341           46 
 4565000   0.52895599   -7.7742726    847.04311  0.015462634  0.014174955           34 
 4566000   0.51178448   -7.7811177    846.43793  0.015448203  0.014170571           43 
 4567000   0.51797384   -7.7778054     844.9867   0.01541834  0.014166188           36 
 4568000    0.5313709   -7.7888339    846.29112  0.015438761  0.014161806           56 
 4569000   0.51887279   -7.7825451    846.26666  0.015434936  0.014157425           37 
 4570000   0.51746301   -7.7718089    845.88077  0.015424522   0.01415305           27 
 4571000   0.52417502   -7.7809319    847.15194  0.015444322  0.014148675           35 
 4572000   0.51907652   -7.7819036    845.60988  0.015412837    0.0141443           67 
 4573000    0.5086213   -7.7836861    846.46563  0.015425061  0.014139921           46 
 4574000   0.51783435   -7.7983207    845.96477  0.015412563  0.014135541           35 
 4575000   0.51073191   -7.7867787    846.49861  0.015418918  0.014131166           32 
 4576000   0.51832459   -7.7754611    845.85287  0.015403789  0.014126792           49 
 4577000   0.52166009   -7.7942036    847.60369  0.015432301  0.014122418           50 
 4578000    0.5332569   -7.7822813      845.303   0.01538705  0.014118043           32 
 4579000   0.52343819   -7.8132486     847.2021  0.015418252  0.014113674           24 
 4580000    0.5206658   -7.7760949    845.27851  0.015379885  0.014109309           43 
 4581000   0.51800592   -7.7901153    845.22566  0.015375567  0.014104944           47 
 4582000   0.50958931   -7.7935676    846.75056  0.015399945  0.014100578           64 
 4583000   0.52127286   -7.7900324    845.30487  0.015370297  0.014096212           40 
 4584000     0.510518   -7.7875599    844.14842  0.015345921  0.014091851           33 
 4585000   0.51432164   -7.7890713    846.72613  0.015389424  0.014087491           48 
 4586000   0.52387383   -7.8089332    845.91512  0.015371331  0.014083129           37 
 4587000   0.51958596   -7.7950412    846.25712  0.015374194  0.014078772           45 
 4588000   0.52735066   -7.7954213    846.51854  0.015375591  0.014074419           36 
 4589000   0.52713239   -7.7885575    846.47325  0.015371418  0.014070061           43 
 4590000   0.53211116   -7.7832156    846.30659  0.015365043  0.014065708           41 
 4591000   0.52849936    -7.778293    846.31862  0.015361915  0.014061357           51 
 4592000   0.50630067    -7.796937    845.13645  0.015337116  0.014057007           43 
 4593000   0.51981369   -7.8143235     846.6166  0.015360632  0.014052661           28 
 4594000   0.50923808   -7.8042053    845.55271   0.01533799  0.014048312           54 
 4595000   0.51255197   -7.7882646    845.02819  0.015325139  0.014043967           53 
 4596000   0.51604272   -7.8054147    846.33217  0.015345448   0.01403962           43 
 4597000   0.51566955   -7.7797023    845.35469  0.015324391  0.014035269           72 
 4598000   0.52000607   -7.8011109    847.10349  0.015352753  0.014030925           63 
 4599000   0.51961971   -7.8077966    845.68736  0.015323754   0.01402658           43 
 4600000   0.50917456   -7.7988756    845.22797  0.015312101  0.014022235           31 
 4601000   0.51785043   -7.7978438    844.43026  0.015294325  0.014017892           51 
 4602000   0.52297543   -7.7819247     844.8518  0.015298635  0.014013551           45 
 4603000   0.52696852   -7.8122945    845.87298  0.015313799  0.014009212           55 
 4604000   0.50733246   -7.8106542    845.03032   0.01529522  0.014004876           43 
 4605000    0.5088614   -7.8074309     845.3319  0.015297356  0.014000537           39 
 4606000   0.51207273   -7.7994831    846.56643   0.01531637  0.013996199           29 
 4607000   0.50601795   -7.8125784    845.44209  0.015292708  0.013991866           23 
 4608000   0.51613484   -7.7953379    845.70993  0.015294233  0.013987536           52 
 4609000   0.52130077     -7.81924    845.34268  0.015284275   0.01398321           36 
 4610000   0.51624574   -7.8021857    846.29065  0.015298096  0.013978881           32 
 4611000   0.50511014   -7.8032787    846.26119  0.015294245  0.013974558           60 
 4612000    0.5093349   -7.7903811    844.96392  0.015267489  0.013970234           38 
 4613000   0.52238707   -7.8192354    845.65724  0.015276704  0.013965912           42 
 4614000    0.5133515   -7.8029407    846.37499  0.015286357  0.013961587           53 
 4615000   0.51794167   -7.7971632    845.15761  0.015261062   0.01395727           60 
 4616000   0.51311045   -7.8068677    844.95013   0.01525401  0.013952954           43 
 4617000   0.50855983   -7.7984699    845.38983  0.015258643  0.013948639           15 
 4618000   0.51906799    -7.809776    845.62835  0.015259642  0.013944325           32 
 4619000   0.51617079   -7.7864146    845.99821  0.015263012   0.01394001           58 
 4620000   0.52152789   -7.7831446    846.16775  0.015262766    0.0139357           33 
 4621000   0.50160289   -7.8042803     845.5641  0.015248577  0.013931393           32 
 4622000   0.50778757   -7.7963496     846.6279  0.015264458  0.013927087           54 
 4623000   0.51663738   -7.8051292    845.75162  0.015245361  0.013922782           39 
 4624000   0.52008722   -7.8152768    845.77567  0.015242497  0.013918474           34 
 4625000   0.52663049   -7.8126007    844.64722  0.015218869  0.013914166           39 
 4626000   0.51221748   -7.8169043    845.32998  0.015227878  0.013909863           46 
 4627000   0.52081386   -7.8069857    845.81113  0.015233253  0.013905562           29 
 4628000   0.51369572   -7.8119156    845.76001  0.015229041  0.013901261           33 
 4629000   0.50611592   -7.8056287    844.84809  0.015209334  0.013896961           41 
 4630000   0.51128909   -7.7993482    846.41546   0.01523426  0.013892663           28 
 4631000   0.50806884   -7.8097323    846.34989   0.01522979  0.013888364           29 
 4632000   0.50941116   -7.8091758    844.32017  0.015189986  0.013884065           44 
 4633000   0.51955805   -7.8354689    845.82858  0.015213839  0.013879764           37 
 4634000   0.49932662   -7.8055563    844.94253  0.015194622  0.013875469           48 
 4635000   0.51960432   -7.8143719    845.17584  0.015195538  0.013871177           66 
 4636000   0.51704943    -7.802321    845.51916  0.015198432  0.013866883           31 
 4637000   0.51329348   -7.7941075    846.30274  0.015209236  0.013862593           46 
 4638000   0.51185166   -7.8232578    845.35319  0.015188896  0.013858305           35 
 4639000   0.50912147   -7.8155438    845.10707  0.015181201  0.013854018           48 
 4640000   0.51372341    -7.819934    843.95825  0.015157296  0.013849726           44 
 4641000   0.51361685   -7.8182455     846.2429  0.015195053  0.013845442           59 
 4642000   0.50947533   -7.8193664    846.07516  0.015188768  0.013841159           35 
 4643000   0.50278241   -7.8219626    845.47293  0.015174688  0.013836871           37 
 4644000   0.50551803   -7.8205562    845.27398  0.015167851  0.013832586           82 
 4645000   0.51683222   -7.8020226    845.14156  0.015162209  0.013828306           39 
 4646000   0.50372831   -7.8062291    843.84598  0.015135708  0.013824023           49 
 4647000   0.49796698   -7.7929183    845.62844  0.015164415   0.01381974           30 
 4648000   0.49533622   -7.8200176    845.32379   0.01515569  0.013815459           25 
 4649000   0.51021643   -7.8168399    846.35736  0.015170957  0.013811182           34 
 4650000   0.51925386   -7.8346458    844.76511   0.01513916  0.013806905           27 
 4651000   0.51117226   -7.8014436    845.34866   0.01514636  0.013802628           70 
 4652000   0.51137461   -7.8230001    846.10879  0.015156721  0.013798355           58 
 4653000   0.50059037    -7.805921    843.61814  0.015108857   0.01379408           33 
 4654000   0.51121769     -7.81859    844.04983   0.01511334  0.013789809           39 
 4655000   0.51917136   -7.8285303    844.48515  0.015117887  0.013785538           47 
 4656000   0.50778712   -7.8304243    844.06064  0.015107042  0.013781266           41 
 4657000   0.50125999   -7.8114817    844.40768  0.015110008  0.013776994           22 
 4658000   0.50307873   -7.8189434    846.00333  0.015135311  0.013772724           52 
 4659000   0.50634204   -7.8262798    842.89945  0.015076545  0.013768456           37 
 4660000   0.51080808   -7.8171793     843.7526  0.015088566   0.01376419           62 
 4661000   0.51365373   -7.8389846    845.11366  0.015109663  0.013759929           38 
 4662000    0.5042193   -7.8020376    844.40582  0.015093769  0.013755669           43 
 4663000   0.50126535   -7.8138848    843.55431  0.015075315  0.013751408           81 
 4664000   0.49892038   -7.8220775    844.66319  0.015091895  0.013747147           27 
 4665000    0.5055615   -7.8120568    844.48769  0.015085525  0.013742891           74 
 4666000   0.49842872   -7.8321354    845.58418  0.015101875  0.013738634           46 
 4667000   0.51156199   -7.8083487    844.34503  0.015076513  0.013734375           50 
 4668000   0.51574414   -7.8141987    845.09609  0.015086691  0.013730122           53 
 4669000   0.51333782   -7.8151109    844.69536  0.015076308  0.013725865           30 
 4670000   0.50458808   -7.8020074    845.04004   0.01507923  0.013721613           48 
 4671000   0.51109364   -7.8153158    844.32805  0.015063299  0.013717362           45 
 4672000   0.49998666   -7.8186094     844.4501  0.015062252  0.013713112           41 
 4673000   0.49594182   -7.8298403    843.70321  0.015045709  0.013708866           37 
 4674000   0.49613781   -7.8202964    844.60199  0.015058515  0.013704622           28 
 4675000   0.50164229   -7.8263056    842.72293  0.015021799  0.013700381           37 
 4676000   0.50401422   -7.8356206    845.12284  0.015061357  0.013696136           35 
 4677000    0.5140652   -7.8423505    844.97493  0.015055501  0.013691891           39 
 4678000   0.50304477   -7.8221673     845.4979  0.015061599   0.01368765           35 
 4679000   0.50491546   -7.8179969    844.19436  0.015035163  0.013683411           49 
 4680000    0.4996634   -7.8059259    844.12693   0.01503075  0.013679177           34 
 4681000   0.50718073   -7.8138974    843.56742  0.015017579  0.013674941           30 
 4682000   0.49974467    -7.824032    843.13745  0.015006718  0.013670707           38 
 4683000    0.5010788   -7.8283723    845.02176  0.015037045  0.013666472           38 
 4684000   0.50090348    -7.836806    845.53065  0.015042888   0.01366224           22 
 4685000   0.51141656   -7.8329343    844.73886  0.015025593  0.013658012           24 
 4686000   0.49851328   -7.8242515    845.14481  0.015029606  0.013653785           24 
 4687000   0.51809969   -7.8263938    843.57179  0.014998432  0.013649559           37 
 4688000   0.50137536   -7.8143963    844.43639  0.015010601  0.013645333           37 
 4689000   0.50354951   -7.8438267    845.89705  0.015033359  0.013641109           44 
 4690000   0.50907264   -7.8251666    844.16089  0.014999305  0.013636887           38 
 4691000   0.50742406    -7.834339    845.67354  0.015022979  0.013632667           47 
 4692000   0.50481558   -7.8276187    844.98169   0.01500749  0.013628452           41 
 4693000   0.49554752   -7.8200756    844.77903  0.015000693  0.013624232           35 
 4694000   0.50432249   -7.8271891    844.42907  0.014991284  0.013620013           40 
 4695000   0.51209848    -7.832667    843.45078  0.014970727  0.013615795           25 
 4696000   0.50480269   -7.8238277    844.85968  0.014992541  0.013611581           20 
 4697000   0.49854785   -7.8166805    843.37056  0.014962929  0.013607364           31 
 4698000   0.50789116   -7.8291341    844.68042  0.014982979  0.013603154           30 
 4699000   0.50167106   -7.8315366    844.07289  0.014969016  0.013598943           36 
 4700000   0.49378335   -7.8296201     845.3047  0.014987672  0.013594739           29 
 4701000    0.5036143   -7.8325208    844.07256  0.014962642  0.013590534           44 
 4702000   0.50150522   -7.8164817    845.83473  0.014990691  0.013586334           54 
 4703000   0.50729782   -7.8202151    844.37182  0.014961582  0.013582135           18 
 4704000   0.48650252   -7.8417536    845.18334  0.014972777  0.013577933           24 
 4705000   0.51022037     -7.83528    845.64472  0.014977767  0.013573734           20 
 4706000   0.50138916   -7.8169966    845.25966  0.014967766  0.013569543           29 
 4707000    0.4945885   -7.8555811    844.50047  0.014951145   0.01356535           39 
 4708000   0.49209734   -7.8114851     845.5849  0.014967164  0.013561155           54 
 4709000   0.50264556   -7.8255688    844.83938  0.014950792  0.013556964           23 
 4710000    0.4945908   -7.8346099    844.75797  0.014946178  0.013552771          110 
 4711000   0.49619947   -7.8397969    844.83736  0.014944409  0.013548579           18 
 4712000   0.48825302   -7.8492136     844.1164  0.014928488  0.013544389           33 
 4713000   0.48885663   -7.8349792    843.86578  0.014920889  0.013540195           35 
 4714000   0.49432793   -7.8274056    845.12718  0.014940022   0.01353601           53 
 4715000   0.50060967   -7.8245271    843.47701  0.014907688   0.01353182           35 
 4716000    0.5008058   -7.8285832    844.65337  0.014925314   0.01352764           57 
 4717000   0.49591086   -7.8247107    842.36688  0.014881755  0.013523457           29 
 4718000   0.48349139    -7.840176    844.73315  0.014920396  0.013519279           33 
 4719000   0.48911428   -7.8436528    844.35023  0.014910472  0.013515098           55 
 4720000   0.50275745   -7.8399301    844.69657  0.014913428  0.013510925           60 
 4721000   0.49809089    -7.840749    844.19021  0.014901331  0.013506748           71 
 4722000   0.49750096   -7.8383377    844.83339  0.014909526  0.013502571           30 
 4723000   0.49513775   -7.8443408     844.8351  0.014906399  0.013498398           47 
 4724000   0.48336159   -7.8372602    845.60198  0.014916772  0.013494225           24 
 4725000   0.49547553   -7.8498179    845.17771  0.014906132  0.013490052           24 
 4726000   0.49990888   -7.8480424    844.75109  0.014895456  0.013485881           13 
 4727000   0.49224736   -7.8308406    843.76503  0.014874921  0.013481713           18 
 4728000   0.49134472   -7.8322985    844.11445  0.014877934  0.013477545           32 
 4729000    0.5003446   -7.8297599    844.04153  0.014873503  0.013473379           32 
 4730000   0.50020995   -7.8360519    843.45629  0.014860047  0.013469216           21 
 4731000   0.49282324   -7.8419815    844.06058  0.014867551  0.013465052           39 
 4732000   0.49392221    -7.848683    845.11862  0.014883041   0.01346089           41 
 4733000   0.48922515   -7.8432869    844.05056  0.014861092  0.013456732           42 
 4734000    0.4917976   -7.8405041    845.31039  0.014880129  0.013452575           35 
 4735000   0.49343539   -7.8332082    843.83012  0.014850935  0.013448416           50 
 4736000   0.49007595   -7.8355207    843.35547  0.014839447  0.013444259           57 
 4737000    0.4819144   -7.8300154    844.13117  0.014849961  0.013440108           57 
 4738000   0.49256209   -7.8397613    843.32934  0.014832724  0.013435959           45 
 4739000   0.49098185   -7.8296762     844.9363  0.014857852   0.01343181           42 
 4740000    0.4845492   -7.8110464    844.75746  0.014851573  0.013427664           30 
 4741000   0.49384275   -7.8296287    843.97984  0.014834772  0.013423515           30 
 4742000   0.49707831   -7.8188404    843.30381  0.014819763   0.01341937           35 
 4743000   0.49872622   -7.8154134    844.30278   0.01483419  0.013415228           51 
 4744000   0.49309518   -7.8436206     841.7562   0.01478633  0.013411083           45 
 4745000   0.48688402   -7.8297149    842.72868  0.014800293  0.013406941           49 
 4746000   0.49728542   -7.8300076    844.40169   0.01482655  0.013402799           43 
 4747000   0.49234022   -7.8399709    844.41581  0.014823675  0.013398661           25 
 4748000    0.4989316   -7.8431558    843.92696  0.014811973  0.013394521           30 
 4749000   0.48511997   -7.8234177    845.64807  0.014839055  0.013390391           21 
 4750000   0.49409967   -7.8191688    843.54044  0.014798955  0.013386258           26 
 4751000   0.49393341   -7.8407659    843.68551  0.014798385  0.013382127           21 
 4752000     0.481309   -7.8355027    844.36024  0.014807103  0.013377995           35 
 4753000   0.48345895   -7.8252556    844.24129  0.014801902  0.013373866           35 
 4754000   0.48885677   -7.8447422    844.43062  0.014802107   0.01336974           43 
 4755000   0.49373924   -7.8348974    843.33246  0.014779749   0.01336561           51 
 4756000   0.49300292   -7.8412455    844.40448  0.014795425  0.013361484           24 
 4757000   0.49369708    -7.835311    845.14182  0.014805231  0.013357357           24 
 4758000   0.48432584    -7.849847    843.38339  0.014771322  0.013353235           32 
 4759000   0.48917605   -7.8502349    842.98348  0.014761215  0.013349114           32 
 4760000   0.47743901   -7.8436601    842.55396  0.014750595  0.013344991           50 
 4761000   0.48568267   -7.8439744    844.65957  0.014784352  0.013340871           38 
 4762000   0.48496377   -7.8327444    843.70457  0.014764535  0.013336754           34 
 4763000   0.48657925   -7.8580404    843.85141  0.014764004  0.013332637           40 
 4764000   0.49489285    -7.847983    844.45508  0.014771465   0.01332852           27 
 4765000   0.49275295   -7.8494377    844.54964  0.014770018  0.013324403           30 
 4766000   0.48651065    -7.843322    843.12422  0.014741996  0.013320291           34 
 4767000   0.49211123   -7.8304081    842.70375  0.014731553  0.013316182           26 
 4768000   0.49625198   -7.8397575    844.01434  0.014751369  0.013312074           39 
 4769000   0.48232509   -7.8480149     843.6814  0.014742458  0.013307966           39 
 4770000   0.48401293   -7.8531849    844.20892  0.014748584  0.013303857           36 
 4771000    0.4863165   -7.8592134    843.32828   0.01473011  0.013299751           32 
 4772000   0.48634452   -7.8315367    842.98554  0.014721038  0.013295646           39 
 4773000   0.48553555   -7.8399563    843.86972  0.014733391  0.013291546           30 
 4774000   0.49265394   -7.8473379    842.53475  0.014707002  0.013287445           20 
 4775000   0.49340966   -7.8460545    843.73021  0.014724786  0.013283343           34 
 4776000   0.49292413   -7.8398132    844.07768  0.014727765  0.013279243           21 
 4777000   0.47877317   -7.8445142    843.64999  0.014717221  0.013275146           23 
 4778000    0.4826182   -7.8496018    844.12771  0.014722473  0.013271051           27 
 4779000   0.49821506   -7.8328264    843.14206  0.014702205  0.013266955           51 
 4780000   0.48698527   -7.8424832    843.92063  0.014712703  0.013262863           39 
 4781000   0.48905653   -7.8469042    843.41963  0.014700893  0.013258769           65 
 4782000    0.4993693   -7.8370265    843.44695  0.014698295  0.013254676           86 
 4783000    0.4811877   -7.8559162    845.11037  0.014724203  0.013250586           53 
 4784000   0.49300576    -7.834144    843.18158  0.014687528  0.013246495           41 
 4785000   0.48573078    -7.861132    843.70293  0.014693538  0.013242407           35 
 4786000   0.48076602   -7.8506537    842.73473  0.014673609  0.013238319           28 
 4787000   0.50227365    -7.845209    843.15235  0.014677814  0.013234232           54 
 4788000   0.48705999   -7.8615748    843.46449  0.014680181  0.013230147           53 
 4789000   0.47670866   -7.8527521    843.19444  0.014672417  0.013226065           43 
 4790000   0.50593806   -7.8541984    843.54455  0.014675444  0.013221981           27 
 4791000   0.49678878     -7.84437    842.31571  0.014651007  0.013217902           20 
 4792000    0.4941138   -7.8540588    843.36842  0.014666257  0.013213826           29 
 4793000   0.47750661    -7.842163    843.07247  0.014658051  0.013209749           48 
 4794000   0.48367564   -7.8536502    842.86733  0.014651428  0.013205673           27 
 4795000   0.47576778   -7.8463758    843.89188  0.014666178  0.013201597           30 
 4796000   0.48374629   -7.8378913    843.39678  0.014654517  0.013197528           22 
 4797000   0.48356021   -7.8365043    843.65156  0.014655888  0.013193453           25 
 4798000   0.48996969   -7.8426149    843.50265  0.014650248  0.013189379           59 
 4799000   0.48649777   -7.8463123    843.14286  0.014640947  0.013185307           37 
 4800000   0.49173991   -7.8530613     843.2226  0.014639281  0.013181236           30 
 4801000   0.49243113   -7.8648693    843.63776  0.014643438  0.013177167           36 
 4802000   0.49018325   -7.8712671    842.35353  0.014618102    0.0131731           48 
 4803000   0.48760487   -7.8257858    842.97272  0.014625802  0.013169036           22 
 4804000   0.47928926   -7.8425209    843.77562  0.014636685  0.013164975           19 
 4805000   0.48490701   -7.8339369     842.0548  0.014603795  0.013160909           33 
 4806000   0.49041987   -7.8475556    843.35834  0.014623359  0.013156847           83 
 4807000   0.48203468   -7.8485434    842.59946  0.014607161  0.013152787           38 
 4808000   0.48682182   -7.8521691    842.46813  0.014601846  0.013148731           33 
 4809000   0.48707602   -7.8482545    842.89282  0.014606169  0.013144674           61 
 4810000    0.4746864   -7.8532532    843.05935  0.014606018  0.013140617           20 
 4811000   0.48258305   -7.8365497    845.08342  0.014638042  0.013136567           30 
 4812000   0.48045221   -7.8527621    842.50512  0.014590349  0.013132514           42 
 4813000   0.48424824   -7.8534206    842.90061  0.014594165  0.013128465           37 
 4814000   0.47789021   -7.8660607    843.18186  0.014596002  0.013124418           28 
 4815000   0.48321339   -7.8443892    843.31788  0.014595325  0.013120368           49 
 4816000   0.47848482   -7.8654804    844.06116  0.014605156  0.013116318           41 
 4817000    0.4872324   -7.8564794    843.96543  0.014600468  0.013112277           36 
 4818000   0.48016663   -7.8466615    842.67075  0.014575044  0.013108234           43 
 4819000   0.48584919   -7.8524407    843.07418  0.014578996  0.013104195           28 
 4820000   0.48314644   -7.8651061    843.07967  0.014576066  0.013100156           22 
 4821000   0.47831017   -7.8496317     842.8416  0.014568928  0.013096117           52 
 4822000   0.47975738   -7.8643484    842.74937  0.014564312  0.013092079           44 
 4823000   0.48473468    -7.855908    843.29761  0.014570765  0.013088041           32 
 4824000   0.48416934   -7.8515293    842.73893  0.014558094  0.013084008           35 
 4825000   0.47368145   -7.8466605    842.45929  0.014550247  0.013079969           34 
 4826000   0.47792902   -7.8673326    841.80641  0.014535958   0.01307594           40 
 4827000   0.48271818   -7.8688352    843.40089  0.014560474  0.013071908           39 
 4828000   0.46969921   -7.8427048    843.08631  0.014552028  0.013067876           42 
 4829000   0.48768395   -7.8468345    843.00883  0.014547678  0.013063848           33 
 4830000   0.47196648   -7.8635516    842.72439  0.014539758  0.013059823           30 
 4831000   0.46680784   -7.8508854    843.10201  0.014543263  0.013055803           19 
 4832000   0.48897563   -7.8496556    843.09141   0.01454007  0.013051782           33 
 4833000   0.47835671   -7.8695492    842.22709  0.014522158  0.013047764           29 
 4834000   0.48727765   -7.8540765    842.04625  0.014516037  0.013043744           51 
 4835000    0.4823428   -7.8674312    842.58141  0.014522258  0.013039726           33 
 4836000   0.47256267   -7.8659398    843.62541  0.014537245   0.01303571           40 
 4837000   0.48210812   -7.8667428    843.39677  0.014530301  0.013031697           41 
 4838000   0.48939118   -7.8620898    844.44332  0.014545324  0.013027682           36 
 4839000   0.48191997   -7.8524409    843.55338  0.014526992  0.013023668           27 
 4840000   0.48100844   -7.8600706    843.35103  0.014520507  0.013019658           25 
 4841000   0.48806232   -7.8638567    842.83435  0.014508613  0.013015649           29 
 4842000   0.48658822   -7.8598114      841.955  0.014490483  0.013011638           37 
 4843000   0.47947936   -7.8623719    842.39579  0.014495075   0.01300763           40 
 4844000   0.47231325   -7.8513749    843.10077  0.014504211  0.013003619           22 
 4845000   0.47393528   -7.8565586    841.62726  0.014475873  0.012999608           25 
 4846000   0.47312833   -7.8669419    842.84928    0.0144939  0.012995602           21 
 4847000   0.47061179   -7.8699892    843.34352  0.014499407  0.012991596           29 
 4848000   0.46803642   -7.8706327    842.94241  0.014489522  0.012987593           26 
 4849000    0.4796836   -7.8539338    843.93461  0.014503585  0.012983595           38 
 4850000   0.46931749   -7.8580814    843.04324  0.014485279  0.012979598           26 
 4851000   0.46992396   -7.8618715    842.05822  0.014465372  0.012975604           27 
 4852000   0.47617779   -7.8713625    842.87674  0.014476449  0.012971609           26 
 4853000   0.46381701   -7.8696475    843.58666  0.014485656  0.012967616           43 
 4854000   0.47428889   -7.8740154    842.16386  0.014458245  0.012963624           59 
 4855000   0.46816643   -7.8845785    842.19208  0.014455751  0.012959633           30 
 4856000   0.47329311   -7.8669296    842.67765  0.014461107  0.012955646           42 
 4857000   0.47547323   -7.8548175    842.23269  0.014450496  0.012951653           33 
 4858000   0.48256084   -7.8762253    842.98747  0.014460468  0.012947667           68 
 4859000   0.49019588   -7.8453502    842.11946  0.014442606  0.012943681           46 
 4860000   0.47972234   -7.8741144    842.79362  0.014451194  0.012939696           29 
 4861000   0.46789983   -7.8679166    843.29864  0.014456879  0.012935712           52 
 4862000   0.47551835   -7.8667189    842.95041  0.014447936  0.012931729           39 
 4863000   0.46967886   -7.8818251    842.93026   0.01444462  0.012927749           28 
 4864000   0.46839897   -7.8678676     841.6872  0.014420354  0.012923767           48 
 4865000   0.47507667   -7.8670481    841.55049  0.014415048  0.012919789           48 
 4866000   0.47059052   -7.8663111    842.26188  0.014424268  0.012915811           27 
 4867000   0.47069294   -7.8621339    841.75833  0.014412683  0.012911835           27 
 4868000    0.4702727   -7.8601103     841.1364  0.014399076  0.012907862           37 
 4869000   0.47450205   -7.8583408    842.69257  0.014422752  0.012903892           29 
 4870000    0.4651759    -7.872503    841.99481  0.014407851  0.012899919           51 
 4871000   0.47109832   -7.8662718    842.79384  0.014418563  0.012895952           28 
 4872000   0.47401743   -7.8782148    842.15338  0.014404649  0.012891981           27 
 4873000   0.47543591   -7.8441596    840.81239   0.01437876  0.012888014           50 
 4874000   0.47632495   -7.8805307       840.86  0.014376624   0.01288405           60 
 4875000   0.46346733   -7.8642591    841.73746  0.014388675  0.012880082           40 
 4876000   0.47786138   -7.8828774    841.82545  0.014387227  0.012876112           30 
 4877000   0.47703717   -7.8486693    841.58456  0.014380161  0.012872149           42 
 4878000   0.46229839   -7.8764227    842.24259  0.014388455  0.012868188           40 
 4879000    0.4753153   -7.8613982    841.08537   0.01436574  0.012864224           28 
 4880000   0.47331922   -7.8637204    841.86089   0.01437604  0.012860266           28 
 4881000   0.46809175   -7.8607673    840.90205  0.014356724  0.012856308           34 
 4882000   0.45787656   -7.8853342    842.27748  0.014377261  0.012852349           22 
 4883000   0.46786209   -7.8624447     841.8613  0.014367215  0.012848395           30 
 4884000   0.46517751   -7.8664832    842.34697   0.01437256   0.01284444           49 
 4885000   0.47832281   -7.8722915    843.40881  0.014387731  0.012840487           25 
 4886000   0.46967764   -7.8828559    841.94928  0.014359893   0.01283653           25 
 4887000   0.46623357   -7.8698576    842.51404  0.014366585  0.012832576           25 
 4888000   0.47615869   -7.8706876    842.15948  0.014357602  0.012828627           31 
 4889000   0.45916032   -7.8750024    842.00834  0.014352089  0.012824679           27 
 4890000   0.47480038   -7.8720852    842.26116  0.014353462  0.012820734           29 
 4891000   0.46782444    -7.850572    842.00945  0.014346239  0.012816786           35 
 4892000   0.46807637   -7.8789032    841.14973  0.014328661  0.012812843           33 
 4893000   0.46502826   -7.8948676    842.00045  0.014340222  0.012808902           40 
 4894000   0.47347841   -7.8820494    840.33432  0.014308921   0.01280496           24 
 4895000   0.45683251   -7.8712882    841.39912  0.014324125  0.012801022           51 
 4896000   0.47568602   -7.8816936    843.31709  0.014353845  0.012797082           30 
 4897000   0.45901255   -7.8792966     841.8549  0.014326031  0.012793149           44 
 4898000   0.46304222   -7.8688782     842.7134  0.014337713  0.012789217           36 
 4899000   0.47137292   -7.8906581    842.34652  0.014328545  0.012785283           22 
 4900000   0.46332454   -7.8768735    842.58009  0.014329593  0.012781347           26 
 4901000   0.47912712   -7.8558801    843.31158  0.014339107  0.012777415           31 
 4902000   0.46243266   -7.8749722    841.98967   0.01431371  0.012773489           33 
 4903000   0.47173896   -7.8482554    842.08354  0.014312386  0.012769562           39 
 4904000   0.46559034   -7.8749673    842.16532  0.014310857  0.012765636           29 
 4905000   0.47629466   -7.8723116    841.62029   0.01429868  0.012761712           63 
 4906000   0.46081375   -7.8897743    842.48013  0.014310371  0.012757787           45 
 4907000    0.4671718   -7.8620563    841.88371  0.014297325  0.012753869           62 
 4908000   0.46308647   -7.8738291     841.6795  0.014290945  0.012749949           31 
 4909000   0.46307187   -7.8758633    841.26076  0.014280925  0.012746027           37 
 4910000   0.47124095   -7.8801483    841.63654  0.014284395  0.012742107           27 
 4911000   0.46678334   -7.8639176    841.79524  0.014284179  0.012738187           34 
 4912000   0.46625401   -7.8763773    841.53531  0.014276861  0.012734272           31 
 4913000    0.4713021    -7.878528    841.54678   0.01427415  0.012730358           34 
 4914000   0.47689969   -7.8754208    842.65059  0.014289964  0.012726448           45 
 4915000   0.46041301   -7.8723979    842.05958  0.014277036  0.012722538           27 
 4916000   0.45583035   -7.8737905    842.89768  0.014288339  0.012718625           37 
 4917000   0.46674437   -7.8857129    841.30337  0.014258413  0.012714718           44 
 4918000   0.46761863   -7.8734699    842.09594  0.014268943  0.012710812           44 
 4919000   0.45942968   -7.8773949    842.12785  0.014266583  0.012706907           38 
 4920000   0.46069784   -7.8763589    842.40959  0.014268455  0.012703003           34 
 4921000   0.45810271   -7.8900312     841.7739  0.014254791  0.012699099           18 
 4922000   0.46452429   -7.8728347    840.91839   0.01423741  0.012695199           30 
 4923000   0.46304261   -7.8872384    841.67905  0.014247394    0.0126913           18 
 4924000   0.45184997   -7.8789335    842.15427  0.014252543  0.012687403           49 
 4925000   0.46042998   -7.8605078    842.34804  0.014252928  0.012683508           33 
 4926000   0.46722299   -7.8717321    841.66375  0.014238458  0.012679616           39 
 4927000   0.47444266   -7.8813075    842.65741  0.014252375  0.012675728           34 
 4928000   0.46934323   -7.8731714     842.7228  0.014250588  0.012671841           45 
 4929000   0.45584889   -7.8815261    840.47089  0.014209625  0.012667953           32 
 4930000   0.46532798   -7.8742446    842.73374  0.014244992  0.012664067           31 
 4931000   0.46850486   -7.8683191    841.37261    0.0142191  0.012660182           37 
 4932000    0.4590158   -7.8822197    842.00508  0.014226904  0.012656297           37 
 4933000   0.46088556   -7.8951667    842.20383  0.014227377  0.012652413           25 
 4934000   0.45936913   -7.8753801    842.05272  0.014221942  0.012648532           31 
 4935000   0.46465179   -7.8715617    841.03976  0.014201955  0.012644651           21 
 4936000   0.46138902   -7.8752567    842.55234  0.014224614  0.012640776           26 
 4937000   0.46586419   -7.8757334    842.35145  0.014218342  0.012636895           24 
 4938000   0.45852646    -7.872572    841.66083  0.014203808  0.012633018           46 
 4939000   0.46733225   -7.8892204    840.66262   0.01418409  0.012629141           36 
 4940000   0.45511383   -7.8710657    841.82973  0.014200906  0.012625268           33 
 4941000   0.46212174   -7.8716657    841.26587  0.014188522  0.012621394           22 
 4942000   0.46553884   -7.8807468    840.28392  0.014169093  0.012617522           27 
 4943000   0.45956208   -7.8831151    841.93825  0.014194117  0.012613652           41 
 4944000   0.46323588   -7.8762396    841.13626  0.014177728  0.012609785           25 
 4945000   0.46846133   -7.8823089    842.26671  0.014193912  0.012605919           27 
 4946000   0.46106141     -7.87152    841.29461  0.014174663  0.012602053           29 
 4947000   0.45665835   -7.8889846    841.57264  0.014176481  0.012598189           37 
 4948000    0.4538313   -7.8932457    842.44502  0.014188309  0.012594327           28 
 4949000   0.46526648   -7.8928696    841.79852  0.014174556  0.012590466           45 
 4950000   0.45207091   -7.8845136    842.50175  0.014183531  0.012586609           39 
 4951000   0.45958699    -7.901479    841.33631   0.01416105  0.012582747           50 
 4952000   0.45182558   -7.8920229    840.62657  0.014146247  0.012578892           44 
 4953000   0.45809465    -7.890318     841.4319   0.01415694  0.012575037           31 
 4954000   0.44938737   -7.8879445    841.97765  0.014163263  0.012571181           43 
 4955000   0.45426486   -7.8789802    841.04452  0.014144711  0.012567329           33 
 4956000   0.45730333   -7.8859631    840.37019  0.014130518  0.012563477           50 
 4957000   0.46197241   -7.8843042    840.77918  0.014134543  0.012559627           56 
 4958000   0.46146787   -7.8971227    840.57069  0.014128188  0.012555778           39 
 4959000   0.44294992   -7.8815268    841.46778  0.014140414   0.01255193           35 
 4960000   0.45297153   -7.8829793      842.214  0.014150101  0.012548084           79 
 4961000   0.44550441   -7.8947753    840.73794  0.014122454   0.01254424           54 
 4962000   0.45798741   -7.8878143    842.05972  0.014141806  0.012540396           26 
 4963000   0.46409791   -7.8872624    842.47953  0.014146006  0.012536555           34 
 4964000   0.45319357   -7.8874484    841.37885  0.014124679  0.012532715           40 
 4965000   0.45413532   -7.9004797    841.63875  0.014126196  0.012528876           35 
 4966000   0.46270304    -7.897666    840.43614   0.01410317  0.012525038           31 
 4967000    0.4576851   -7.8869701    840.43605   0.01410033  0.012521202           35 
 4968000   0.46219719   -7.8930277    841.27571  0.014111576  0.012517364           28 
 4969000   0.45593108   -7.8820527    840.03667  0.014087957  0.012513529           33 
 4970000   0.46133661    -7.901117    843.01817  0.014135113  0.012509694           39 
 4971000   0.45458566   -7.8878876     840.6886  0.014093217  0.012505862           41 
 4972000   0.45462615   -7.8945765     841.0015  0.014095627  0.012502028           30 
 4973000   0.44452163   -7.8771969    841.44123  0.014100161    0.0124982           28 
 4974000   0.46019823   -7.8817389    841.67598   0.01410126  0.012494373           17 
 4975000   0.44974361   -7.8908355    841.06508  0.014088192  0.012490547           44 
 4976000   0.45439005   -7.8918321    840.22663  0.014071319  0.012486724           44 
 4977000   0.46208259   -7.8917046    842.50099  0.014106573  0.012482904           42 
 4978000   0.46292925   -7.8707095    840.14874  0.014064362  0.012479084           29 
 4979000   0.45231686    -7.889602    842.34165   0.01409824  0.012475262           47 
 4980000   0.45983603   -7.8872228     841.3042  0.014078049  0.012471444           43 
 4981000   0.45815332   -7.8909169    840.68129  0.014064801  0.012467628           53 
 4982000   0.44926497    -7.873315    841.01057  0.014067486  0.012463814           31 
 4983000    0.4552219   -7.8885319     841.1894  0.014067653  0.012460001           43 
 4984000   0.45461498   -7.8924019    840.75052  0.014057493  0.012456189           80 
 4985000   0.45154972   -7.8915671    840.84682  0.014056283  0.012452378           24 
 4986000   0.45131876   -7.8804163    842.01843  0.014073045   0.01244857           29 
 4987000   0.45976094   -7.8927377    840.90008  0.014051535  0.012444762           31 
 4988000   0.45045812   -7.8801058    841.57983  0.014060075  0.012440954           33 
 4989000   0.44605386    -7.888849    841.61598   0.01405786   0.01243715           33 
 4990000   0.45917539   -7.8848951    840.87978  0.014042748  0.012433348           38 
 4991000   0.44998211   -7.9067378    840.88478  0.014040018  0.012429549           44 
 4992000   0.45229237    -7.898721    841.15205  0.014041668  0.012425748           38 
 4993000   0.44427653   -7.8938175    841.60635  0.014046438  0.012421949           31 
 4994000   0.44797296   -7.8945075    840.96721   0.01403296  0.012418152           37 
 4995000   0.46169341   -7.8842659    841.52815  0.014039509  0.012414357           68 
 4996000    0.4657395   -7.8715363    841.41155  0.014034754  0.012410563           27 
 4997000    0.4525817   -7.8913054    840.10288  0.014010121  0.012406771           30 
 4998000    0.4533333   -7.8895699    841.97915  0.014038601  0.012402982           37 
 4999000   0.44907422   -7.8882674     841.5499  0.014028637  0.012399194           45 
 5000000   0.45380133   -7.8962704    842.19958   0.01403666  0.012395406           34 
 5001000   0.44980449   -7.8983415    842.52324  0.014039246  0.012391616           36 
 5002000   0.45629226   -7.8906358    840.66264  0.014005442  0.012387833           42 
 5003000   0.45398201   -7.9163425    841.29433  0.014013164  0.012384051           37 
 5004000   0.45103541   -7.8896604    841.01953  0.014005787   0.01238027           41 
 5005000   0.44953756    -7.903729    842.01329  0.014019535  0.012376485           32 
 5006000   0.45158242    -7.906894    840.79282  0.013996418  0.012372706           48 
 5007000   0.45478297   -7.8980644    841.27779  0.014001694  0.012368924           29 
 5008000   0.45083985   -7.9081242    841.83941  0.014008244  0.012365144           41 
 5009000   0.45544195    -7.890111    841.19949  0.013994801  0.012361368           44 
 5010000    0.4450277   -7.8875466    839.78472  0.013968475  0.012357591           40 
 5011000   0.45512769   -7.8950468    841.58095  0.013995559  0.012353814           30 
 5012000    0.4540019   -7.8911251    840.58108  0.013976142   0.01235004           31 
Loop time of 11061.5 on 48 procs for 5000000 steps with 4000 atoms

Performance: 78109.001 tau/day, 452.020 timesteps/s
99.4% CPU use with 48 MPI tasks x no OpenMP threads

MPI task timing breakdown:
Section |  min time  |  avg time  |  max time  |%varavg| %total
---------------------------------------------------------------
Pair    | 754.35     | 778.67     | 808.29     |  39.4 |  7.04
Neigh   | 70.461     | 71.628     | 73.233     |   7.7 |  0.65
Comm    | 650.2      | 675.69     | 711.09     |  52.1 |  6.11
Output  | 15.222     | 15.226     | 15.319     |   0.3 |  0.14
Modify  | 9370.8     | 9404.5     | 9439.3     |  17.5 | 85.02
Other   |            | 115.7      |            |       |  1.05

Nlocal:        83.3333 ave          89 max          74 min
Histogram: 2 0 4 1 7 7 5 4 11 7
Nghost:        1849.06 ave        1877 max        1821 min
Histogram: 1 1 6 7 8 11 7 2 4 1
Neighs:        11441.7 ave       13102 max       10084 min
Histogram: 5 3 6 8 5 6 10 2 1 2
FullNghs:      22884.4 ave       24827 max       20133 min
Histogram: 2 2 3 5 5 7 3 10 7 4

Total # of neighbors = 1098453
Ave neighs/atom = 274.61325
Neighbor list builds = 269162
Dangerous builds = 0

#clear
#
#next RN
#
#jump SELF
Total wall time: 3:04:24
