
units lj                  # Use reduced LJ style units
atom_style atomic         # Uncharged point particles
atom_modify map hash      # Needed for indexing of clusters etc
                          # Used to be able to find where atoms are in relation to each other.

lattice fcc 1.0 spacing 1 1 1
Lattice spacing in x,y,z = 1.5874011 1.5874011 1.5874011
region box block 0 10 0 10 0 10 units lattice
create_box 2 box
Created orthogonal box = (0.0000000 0.0000000 0.0000000) to (15.874011 15.874011 15.874011)
  3 by 4 by 4 MPI processor grid
create_atoms 1 box
Created 4000 atoms
  using lattice units in orthogonal box = (0.0000000 0.0000000 0.0000000) to (15.874011 15.874011 15.874011)
  create_atoms CPU = 0.003 seconds
set type 1 type/fraction 2 0.68 78393
Setting atom values ...
  2740 settings made for type/fraction
mass 1 1.0
mass 2 1.0
pair_style lj/cut  3.5
pair_modify tail  yes
pair_coeff 1  1  1.0  1.0   # Intearaction between 1 and 1 set with epsilon = 1 and sigma = 1
pair_coeff 1  2  1.5  0.8
pair_coeff 2  2  0.5  0.88

write_data data.0
System init for write_data ...
Neighbor list info ...
  update every 1 steps, delay 10 steps, check yes
  max neighbors/atom: 2000, page size: 100000
  master list distance cutoff = 3.8
  ghost atom cutoff = 3.8
  binsize = 1.9, bins = 9 9 9
  1 neighbor lists, perpetual/occasional/extra = 1 0 0
  (1) pair lj/cut, perpetual
      attributes: half, newton on
      pair build: half/bin/atomonly/newton
      stencil: half/bin/3d
      bin: standard
WARNING: Not all mixed pair coeffs generated from mixing. Use write_data with 'pair ij' option to store all pair coeffs. (../write_data.cpp:312)


#############################
#   M E L T   S Y S T E M   #
#############################

velocity all create 2.4 5300450 mom yes dist gaussian # Assign velocities
                                                    # Temperature 2.4, random number seed, zero linear momentum
                                                                                # Gaussian distribution

timestep 0.002   # simulation timestep
thermo 1000       # output thermodynamic data every 1000 steps bf 100

# Define a fix  in this case with index 1 applied to all
# particles in the simulation. This fix is for simulations
# in the anisotropic NPT ensemble. Note that we use the MTK
# correction.
fix 1 all npt temp 2.4 2.4 0.1 iso 5.68 5.68 0.5 mtk yes tchain 5 pchain 5 # Use NPT ensemble
                                                                         # Set temperature and pressure and damping
                                                                         # Numbers of thermostats in chain and in barostat
run 10000          # run for 10000 steps
Per MPI rank memory allocation (min/avg/max) = 3.642 | 3.644 | 3.648 Mbytes
Step Temp E_pair E_mol TotEng Press Volume 
       0          2.4   -4.2819815            0  -0.68288149   -3.8317514         4000 
    1000    2.3251961   -3.8570779            0   -0.3701557    5.9147235    3658.3537 
    2000    2.4186187    -3.997149            0  -0.37012791    5.4796485     3630.388 
    3000    2.3842688   -3.9863138            0  -0.41080474    5.9575799    3587.7774 
    4000    2.4147739   -3.9683507            0  -0.34709528    5.4272279    3657.4756 
    5000    2.3836922   -3.9373464            0  -0.36270203    5.5537522      3649.69 
    6000     2.400678   -3.9197635            0  -0.31964671    5.9701321    3633.6649 
    7000    2.4331671   -3.9267088            0  -0.27787065    5.7576431    3643.2534 
    8000    2.3900243   -3.9638824            0  -0.37974217    5.5883228     3630.558 
    9000    2.4282598   -3.9610295            0  -0.31955041    5.5907699    3646.9466 
   10000    2.3871649   -3.9343767            0  -0.35452445     5.489646     3660.445 
Loop time of 2.65267 on 48 procs for 10000 steps with 4000 atoms

Performance: 651417.944 tau/day, 3769.780 timesteps/s
99.7% CPU use with 48 MPI tasks x no OpenMP threads

MPI task timing breakdown:
Section |  min time  |  avg time  |  max time  |%varavg| %total
---------------------------------------------------------------
Pair    | 1.1841     | 1.2646     | 1.3501     |   3.0 | 47.67
Neigh   | 0.21684    | 0.22305    | 0.24416    |   0.9 |  8.41
Comm    | 0.82708    | 0.89964    | 0.98567    |   3.9 | 33.91
Output  | 0.00025548 | 0.00026277 | 0.00041173 |   0.0 |  0.01
Modify  | 0.21359    | 0.24915    | 0.28312    |   3.8 |  9.39
Other   |            | 0.01601    |            |       |  0.60

Nlocal:        83.3333 ave          91 max          77 min
Histogram: 4 2 6 6 6 12 5 4 1 2
Nghost:        1742.67 ave        1773 max        1717 min
Histogram: 2 5 5 8 5 9 9 3 1 1
Neighs:        10433.2 ave       11647 max        9336 min
Histogram: 1 5 5 5 12 7 8 2 1 2

Total # of neighbors = 500793
Ave neighs/atom = 125.19825
Neighbor list builds = 899
Dangerous builds = 169

# Equilibrate just above the melting temperature to avoid step fn in T

fix 1 all npt temp 1.25 1.25 0.1 iso 5.68 5.68 0.5 mtk yes tchain 5 pchain 5
run 2000
Per MPI rank memory allocation (min/avg/max) = 3.644 | 3.646 | 3.650 Mbytes
Step Temp E_pair E_mol TotEng Press Volume 
   10000    2.3871649   -3.9343767            0  -0.35452445     5.489646     3660.445 
   11000    1.2515112   -5.8148863            0   -3.9380889    5.7396259    2775.5615 
   12000    1.2444448   -5.8865279            0   -4.0203274    5.4849869    2762.6806 
Loop time of 0.678914 on 48 procs for 2000 steps with 4000 atoms

Performance: 509048.632 tau/day, 2945.883 timesteps/s
99.7% CPU use with 48 MPI tasks x no OpenMP threads

MPI task timing breakdown:
Section |  min time  |  avg time  |  max time  |%varavg| %total
---------------------------------------------------------------
Pair    | 0.30191    | 0.32603    | 0.39063    |   2.6 | 48.02
Neigh   | 0.042237   | 0.044356   | 0.052347   |   0.8 |  6.53
Comm    | 0.18859    | 0.25826    | 0.28947    |   3.4 | 38.04
Output  | 5.2968e-05 | 5.4238e-05 | 7.0252e-05 |   0.0 |  0.01
Modify  | 0.039381   | 0.045311   | 0.050866   |   1.7 |  6.67
Other   |            | 0.0049     |            |       |  0.72

Nlocal:        83.3333 ave          90 max          76 min
Histogram: 3 0 7 1 8 13 5 7 0 4
Nghost:        2109.98 ave        2140 max        2087 min
Histogram: 2 4 6 7 11 8 7 1 1 1
Neighs:        13805.3 ave       15832 max       12244 min
Histogram: 2 3 8 7 9 9 6 3 0 1

Total # of neighbors = 662653
Ave neighs/atom = 165.66325
Neighbor list builds = 144
Dangerous builds = 14

#############################
# L I N E A R  Q U E N C H  #
#############################

# Define solid atoms. This closely follows ten Wolde  Ruiz-Montero and Frenkel  Faraday Discuss  1996  104  93-110
# Compute components of the per-atom q6 vector
compute q6 all orientorder/atom degrees 1 6 components 6 nnn NULL cutoff 1.3 # compute the Q6 parameter.
                                                                             # Use all neighbours within 1.3 unit cell.

# get number of connections
compute coord_number all coord/atom orientorder q6 0.5

# An atom is solid if it has 8 or more connections (of a possible 14)
variable is_solid atom c_coord_number>=8
group solid dynamic all var is_solid    # Must be dynamic to update
dynamic group solid defined

# do clustering
compute cluster solid cluster/atom 1.3 # Create a cluster where all atoms within are solid and max 1.3 units from another member

# define chunks one chunk per cluster
compute clus_chunks solid chunk/atom c_cluster nchunk every compress yes  # Says which atoms are in which chunk

# count the size of each chunk
compute size_chunks solid property/chunk clus_chunks count


# Find the maximum entry in the vector of chunk sizes
variable max_n equal max(c_size_chunks)


# Thermo style which includes this variable
# thermo_style custom step temp pe vol v_max_n

thermo ${N}  # Print the thermo information every 100 steps
thermo 1000  

# Reset the npt fix at a lower temperature (below freezing)
fix 1  all npt temp  ${temp} ${temp}  0.1  iso  5.68  5.68  0.5  mtk yes tchain  5  pchain  5
fix 1  all npt temp  0.45 ${temp}  0.1  iso  5.68  5.68  0.5  mtk yes tchain  5  pchain  5
fix 1  all npt temp  0.45 0.45  0.1  iso  5.68  5.68  0.5  mtk yes tchain  5  pchain  5

dump dmp2 all dcd ${N} traj.dcd
dump dmp2 all dcd 1000 traj.dcd


compute msd all msd com yes
variable twopoint equal c_msd[4]/6/(step*dt+1.0e-6)
fix 9 all vector 10 c_msd[4]
variable fit equal slope(f_9)/6/(10*dt)
thermo_style custom step temp pe c_msd[4] v_twopoint v_fit v_max_n

fix 1 all npt temp 1.25 ${temp} 0.1 iso 5.68 5.68 0.5 mtk yes tchain 5 pchain 5
fix 1 all npt temp 1.25 0.45 0.1 iso 5.68 5.68 0.5 mtk yes tchain 5 pchain 5
run 5000000 # 5000000  # Run for this many steps
Neighbor list info ...
  update every 1 steps, delay 10 steps, check yes
  max neighbors/atom: 2000, page size: 100000
  master list distance cutoff = 3.8
  ghost atom cutoff = 3.8
  binsize = 1.9, bins = 8 8 8
  4 neighbor lists, perpetual/occasional/extra = 1 3 0
  (1) pair lj/cut, perpetual
      attributes: half, newton on
      pair build: half/bin/atomonly/newton
      stencil: half/bin/3d
      bin: standard
  (2) compute orientorder/atom, occasional
      attributes: full, newton on
      pair build: full/bin/atomonly
      stencil: full/bin/3d
      bin: standard
  (3) compute coord/atom, occasional
      attributes: full, newton on
      pair build: full/bin/atomonly
      stencil: full/bin/3d
      bin: standard
  (4) compute cluster/atom, occasional
      attributes: full, newton on
      pair build: full/bin/atomonly
      stencil: full/bin/3d
      bin: standard
Per MPI rank memory allocation (min/avg/max) = 9.846 | 9.852 | 9.857 Mbytes
Step Temp PotEng c_msd[4] v_twopoint v_fit v_max_n 
   12000    1.2444448   -5.8865279 7.6184242e-31 5.2905721e-33 8.3333333e+20            1 
   13000    1.2231722   -5.8703706   0.60028755 0.0038479969  0.050552314            3 
   14000    1.2229157   -5.8855819    1.1674733 0.0069492458  0.047687223            1 
   15000    1.2383777   -5.9001009    1.7603716 0.0097798418  0.048490962            2 
   16000    1.2633286   -5.8384284    2.3236549  0.012102369  0.048309831            2 
   17000    1.2604308   -5.8964737    2.8962051  0.014197083  0.048177461            3 
   18000    1.2668233   -5.8280876     3.439024  0.015921407   0.04763286            2 
   19000    1.2620237   -5.8542119    4.0145769  0.017607793  0.047477259            2 
   20000    1.2592951   -5.8291855    4.6872928  0.019530386  0.047623093            4 
   21000     1.242976   -5.8503571    5.3619561  0.021277603  0.048399485            4 
   22000    1.2409026   -5.8865577    5.9420874  0.022507906   0.04889768            1 
   23000    1.2540931   -5.9034514    6.4599782  0.023405718  0.049157502            2 
   24000    1.2625879   -5.9003789    7.1288751  0.024753038  0.049290042            1 
   25000    1.2401877   -5.8786276    7.6992419  0.025664139   0.04942611            3 
   26000    1.2543936   -5.9110615     8.341676  0.026736141  0.049674257            2 
   27000    1.2371622   -5.8511776    8.8570373  0.027336535  0.049649612            4 
   28000    1.2485697   -5.8821202    9.1965493  0.027370682  0.049317361            2 
   29000    1.2711689   -5.8772088    9.7483181  0.028012408  0.048837035            4 
   30000    1.2483503   -5.8670046    10.277294  0.028548039  0.048445101            2 
   31000     1.255369   -5.9024374    10.841257  0.029143164  0.048172431            4 
   32000    1.2322811   -5.8478357    11.393686  0.029671056  0.047922279            2 
   33000    1.2633334   -5.8988871    11.966898  0.030219438  0.047732939            3 
   34000    1.2202527   -5.8602316    12.593458  0.030866319  0.047612972            3 
   35000    1.2597874   -5.8595281    13.132647  0.031268206  0.047500739            2 
   36000    1.2240172   -5.9045781     13.61802  0.031523195  0.047376002            3 
   37000    1.2448518   -5.9025273    14.091673  0.031738001  0.047243053            3 
   38000    1.2438276   -5.8630673    14.706468  0.032251026  0.047121727            2 
   39000    1.2546836   -5.8534955     15.30884  0.032711195  0.047034407            2 
   40000    1.2412097   -5.9295983    15.667371  0.032640355  0.046939356            4 
   41000    1.2573984   -5.8685888    16.350006  0.033231719  0.046854092            1 
   42000    1.2242172   -5.8970109    16.929292  0.033589864  0.046785045            2 
   43000    1.2414531   -5.8225592    17.494073  0.033903242  0.046727009            4 
   44000    1.2262952   -5.8696629    18.057465  0.034199744  0.046682091            2 
   45000    1.2414964   -5.8651342    18.560017  0.034370402  0.046648208            2 
   46000     1.242567    -5.841139    19.090846  0.034584865  0.046604444            3 
   47000    1.2284161   -5.9200364    19.615877  0.034779924  0.046556867            3 
   48000    1.2411395   -5.8531305    20.256594  0.035167698   0.04650494            2 
   49000    1.2580373   -5.8378472    20.773216  0.035328598  0.046482705            2 
   50000    1.2221206   -5.8668932    21.317053  0.035528421   0.04643413            4 
   51000    1.2738477   -5.9225206    21.901678  0.035787055  0.046413799            2 
   52000    1.2509946   -5.8845924    22.554464  0.036144973  0.046419284            3 
   53000      1.22386   -5.8282472    23.345469  0.036706712  0.046447593            1 
   54000    1.2285823   -5.8621094     23.68768  0.036555061  0.046480822            4 
   55000    1.2183505   -5.8877782    24.121262  0.036547367  0.046489817            2 
   56000    1.2158236   -5.8782755    24.735641  0.036808989  0.046480841            3 
   57000     1.269596   -5.8775629    25.260211  0.036930132  0.046473362            5 
   58000    1.2427377   -5.8753491    25.959884  0.037298684  0.046471162            3 
   59000    1.2393474    -5.848711    26.463983  0.037378507   0.04647723            3 
   60000     1.263124   -5.8716833    27.068855  0.037595631  0.046481225            2 
   61000    1.2428531   -5.8904455    27.378383  0.037402162  0.046474975            1 
   62000    1.2122144   -5.8513195    27.940866  0.037554927  0.046460473            2 
   63000    1.2384467   -5.9081492    28.314952   0.03745364  0.046435909            3 
   64000    1.2426306   -5.8821553    29.172227   0.03798467   0.04642335            3 
   65000    1.2321453   -5.9196618     29.70016  0.038077128   0.04641271            1 
   66000    1.2511186    -5.843371    30.135291  0.038049609  0.046401624            2 
   67000     1.230365   -5.8967965    30.601314  0.038061335  0.046374443            4 
   68000    1.2179622   -5.8607769    31.380751  0.038456803  0.046351418            3 
   69000    1.2243243   -5.9390594    31.750827  0.038346409  0.046333183            2 
   70000    1.2305772   -5.9071203    32.534854  0.038731969  0.046328548            1 
   71000    1.2434186   -5.8916551    33.202488  0.038970056  0.046333502            2 
   72000    1.2316854   -5.9143937    33.767393   0.03908263  0.046350685            2 
   73000    1.2342063   -5.8697067    34.379621  0.039246142  0.046363651            3 
   74000    1.2124374   -5.8803405    34.859056  0.039255693  0.046378979            2 
   75000    1.2288916   -5.8981791    35.485912  0.039428791  0.046406067            4 
   76000    1.2549351   -5.8700795    36.065603  0.039545617  0.046424575            1 
   77000    1.2281425   -5.8585467    36.608097  0.039619152  0.046440011            3 
   78000    1.2187326   -5.8987611    37.042244  0.039575047  0.046458363            2 
   79000    1.2273192    -5.915245    37.714931  0.039783682  0.046472546            4 
   80000    1.2505617   -5.8740822    38.576626  0.040183986  0.046491262            1 
   81000     1.225582   -5.8951636    38.898245   0.04001877    0.0465208            2 
   82000    1.2311637   -5.8944166    39.396365  0.040036956  0.046536855            2 
   83000    1.2259942   -5.8742337    39.679668  0.039839024  0.046535661            1 
   84000    1.2361398   -5.9028487    40.162983  0.039844229  0.046517738            2 
   85000    1.2360192   -5.8745412    40.872549  0.040071126  0.046512019            1 
   86000    1.2330563   -5.8330731    41.792804  0.040496903  0.046526488            5 
   87000    1.2580597    -5.832826    41.981973  0.040212618  0.046533818            2 
   88000    1.2462153   -5.8995494    42.481731  0.040228912  0.046525385            4 
   89000    1.2466838   -5.8867081    42.930288  0.040196899  0.046515266            2 
   90000    1.2482301   -5.8755158    43.711015  0.040473162  0.046508602            4 
   91000    1.2266915   -5.8892232       44.113   0.04039652  0.046493486            3 
   92000    1.2249216   -5.9152032    44.588685  0.040388302  0.046479569            5 
   93000    1.2346433   -5.8960988    44.911606  0.040243374  0.046458425            2 
   94000    1.2489128   -5.9023876    45.294348  0.040154563  0.046418533            3 
   95000    1.2396893   -5.8836181    45.851055  0.040220224  0.046373232            2 
   96000    1.1994748   -5.8930446     46.41962  0.040294809  0.046334735            4 
   97000    1.2362457   -5.8718331    47.210756  0.040559068  0.046304443            2 
   98000     1.216251   -5.8763809    47.986795  0.040805097  0.046288011            2 
   99000    1.2143592   -5.8763775    48.409038  0.040748348  0.046279716            2 
  100000    1.2439513   -5.9189539    49.005689  0.040838074  0.046265628            2 
  101000     1.261099   -5.8926631    49.458989  0.040807747  0.046259807            3 
  102000    1.2175604   -5.8631545     50.06119  0.040899665  0.046247288            2 
  103000    1.2506218   -5.9181534    50.410576  0.040785256  0.046226553            2 
  104000    1.2021098   -5.9073857    50.858707  0.040752169  0.046199794            3 
  105000    1.2492408   -5.8932607    51.487256  0.040862902  0.046172172            3 
  106000    1.2374495   -5.8989941    51.831718  0.040748206  0.046135763            3 
  107000    1.2436141    -5.902755    52.268547  0.040707591  0.046097679            3 
  108000    1.2164529   -5.8676132    52.839055  0.040770876  0.046066999            3 
  109000    1.2270075   -5.8989154    53.562419  0.040949862  0.046033989            3 
  110000    1.2492529   -5.8806086    54.217736  0.041074042  0.046011159            5 
  111000    1.2638248   -5.9062924    54.457036   0.04088366  0.045988751            2 
  112000     1.222755   -5.9199382    54.837464  0.040801684  0.045958917            2 
  113000    1.2063883   -5.9231521      55.2897  0.040774115  0.045920802            4 
  114000    1.2283589   -5.8853157    56.340406  0.041184507  0.045892072            2 
  115000    1.2612111   -5.9000946    56.850729   0.04119618  0.045881025            3 
  116000    1.2361362   -5.8944359      57.3312  0.041186206   0.04586355            2 
  117000    1.2215135    -5.905745    57.986662  0.041301041  0.045849019            2 
  118000      1.24717   -5.8696339    58.502516  0.041315336  0.045837885            5 
  119000    1.2330805   -5.8669165    58.627861  0.041055925  0.045821117            2 
  120000    1.2540027   -5.9161132    59.390782  0.041243598  0.045806529            1 
  121000    1.2447564   -5.9519943    59.745948  0.041147347  0.045793887            2 
  122000    1.2305099    -5.883839    60.552407  0.041360934  0.045779472            2 
  123000    1.2445452   -5.8911302     61.24448   0.04149355  0.045769665            3 
  124000    1.2363802   -5.9304364    61.719334  0.041478047   0.04575587            1 
  125000    1.2310067    -5.902318     61.94425  0.041296166  0.045739871            1 
  126000    1.2555582      -5.9795    62.460164  0.041309632  0.045724093            3 
  127000     1.243159   -5.9490087    63.196701  0.041467651  0.045706245            2 
  128000    1.2161724    -5.944929    63.772982  0.041518868  0.045690897            2 
  129000    1.2084044   -5.8550328    64.794179  0.041856704  0.045687565            3 
  130000    1.2473567   -5.8639952    65.270985  0.041840375  0.045689043            1 
  131000    1.2581649    -5.901256    65.684026  0.041783732    0.0456889            5 
  132000    1.2126542   -5.9294429    65.910902  0.041610418  0.045682617            1 
  133000    1.2300637   -5.8764347    66.763582  0.041831818  0.045672802            2 
  134000    1.2255485   -5.8806074    67.342652  0.041879759  0.045667304            2 
  135000    1.2172049   -5.8817505    68.000318  0.041975505  0.045667033            2 
  136000    1.2404698   -5.9126937    68.386687  0.041903607  0.045668252            1 
  137000    1.2449906   -5.9468528    68.935044  0.041931292  0.045665903            1 
  138000    1.2184811   -5.8930615    69.348517  0.041877124  0.045662812            5 
  139000    1.2309547   -5.9070705    70.366496  0.042186149  0.045660817            3 
  140000    1.1986987   -5.9157603    70.930225  0.042220372  0.045660673            4 
  141000    1.2422417   -5.8576089    71.188905  0.042073821  0.045657768            1 
  142000    1.2252406   -5.9245007    71.692918  0.042073309  0.045658345            3 
  143000     1.228335    -5.915836    72.331335  0.042151127  0.045659029            3 
  144000    1.2121081   -5.9231208    72.907692  0.042191951  0.045657055            2 
  145000    1.2343633   -5.9430173    72.989768  0.041948142  0.045656793            2 
  146000    1.2349075   -5.8548934    73.851561  0.042152718  0.045650951            1 
  147000    1.2422724   -5.9086766     73.91778  0.041903503  0.045641661            2 
  148000    1.2266975   -5.8940064    74.806206  0.042120611  0.045633259            3 
  149000    1.2218422   -5.8951011    74.943799  0.041914877  0.045619127            3 
  150000    1.2409687   -5.9411314    75.417053  0.041898362  0.045604243            2 
  151000     1.225684   -5.9837626    75.666505  0.041758557  0.045587477            2 
  152000    1.2688754   -5.8855351    76.487003  0.041933664  0.045570119            1 
  153000    1.2300236     -5.92808    76.990154  0.041933635  0.045551416            5 
  154000    1.2454446   -5.9364405    77.424821  0.041896548  0.045533258            3 
  155000    1.2240329   -5.9190121    78.242133  0.042065663   0.04551904            2 
  156000    1.2465192    -5.885635     78.77041   0.04207821  0.045503254            2 
  157000    1.2180902   -5.9432413    78.638426  0.041740141  0.045484054            2 
  158000    1.2263629   -5.8917354    79.684696  0.042027793  0.045466194            2 
  159000    1.2056521   -5.9077143    79.937936  0.041896193  0.045450823            2 
  160000    1.2267485   -5.9257532    80.729856    0.0420468  0.045440215            3 
  161000    1.2113219   -5.9095076     81.13632  0.041996025  0.045430881            1 
  162000    1.2374731   -5.8988254    82.015374  0.042188978  0.045418737            2 
  163000    1.2215909   -5.9000175    82.398558  0.042126052  0.045407216            3 
  164000     1.229023   -5.9053016     82.72169  0.042033379  0.045390024            3 
  165000    1.2252045   -5.9083693    83.482739  0.042162999  0.045376856            4 
  166000    1.2377323   -5.9008875    83.923237  0.042130139  0.045366329            5 
  167000    1.2248018   -5.9269417    84.572115  0.042201654  0.045356545            3 
  168000    1.2171959   -5.9140903    85.260847  0.042292086  0.045345853            2 
  169000    1.2126304   -5.9277516    85.536193   0.04217761  0.045340321            3 
  170000    1.2143173   -5.9205098    86.076291   0.04219426  0.045327624            2 
  171000    1.1931177   -5.9104845    87.002377  0.042398819  0.045313539            2 
  172000    1.2055114   -5.8998775    87.227103  0.042261193  0.045304342            7 
  173000    1.2184895   -5.9193819    87.251457   0.04202864  0.045292773            3 
  174000    1.2222717   -5.9299856    87.914521  0.042104655  0.045282495            2 
  175000    1.1967653   -5.9051014    88.533878  0.042158989  0.045266508            1 
  176000    1.2298891   -5.8782988    89.288537  0.042276769  0.045253089            1 
  177000    1.2377129   -5.9067359    89.962818  0.042355376  0.045240578            4 
  178000     1.234455   -5.9113661    90.439196  0.042340447  0.045231615            2 
  179000    1.2353263   -5.9441744    90.990556  0.042360594  0.045227271            4 
  180000    1.2255507   -5.9182316    91.374956   0.04230322  0.045219691            2 
  181000    1.2246573   -5.9341825    92.028356   0.04237033  0.045210155            3 
  182000    1.2221574   -5.9490312    91.950908  0.042102064  0.045197838            2 
  183000    1.2130753   -5.9032649    92.936097  0.042320627  0.045186727            5 
  184000    1.2170407   -5.9247395    93.403871  0.042302478  0.045177625            6 
  185000    1.1939893   -5.9207544    94.293186  0.042474408  0.045172174            2 
  186000     1.223068   -5.9593595     94.72958  0.042441568  0.045163315            2 
  187000    1.2161354   -5.9319714    95.143348  0.042398996  0.045153704            3 
  188000    1.2217583   -5.9188863    95.677863    0.0424104  0.045143886            1 
  189000    1.2167375   -5.9446908    96.337444  0.042476827  0.045133649            7 
  190000    1.2226944   -5.9569798    96.800283  0.042456264  0.045128927            3 
  191000    1.2209834   -5.8981296    97.596635  0.042581429  0.045125519            2 
  192000    1.2070446   -5.9154639    98.154142  0.042601624  0.045118894            1 
  193000    1.2027485    -5.935629    98.484269  0.042523432    0.0451136            2 
  194000    1.2277688   -5.8876907    98.900315  0.042482953  0.045104855            2 
  195000    1.2246483   -5.9377318    99.653177  0.042586828  0.045099399            1 
  196000    1.2230742   -5.9227465    100.56948  0.042759132  0.045097556            1 
  197000    1.2278503   -5.9422325    100.75536  0.042620709  0.045092137            3 
  198000    1.2090407   -5.9126013    100.97619  0.042498394  0.045086718            2 
  199000     1.250874   -5.9218866    101.83072   0.04264268  0.045080879            2 
  200000    1.2092184   -5.9388936    101.96089  0.042483703  0.045073413            3 
  201000    1.2008623   -5.9541223    102.32783  0.042424472  0.045060467            4 
  202000    1.2211094   -5.9003967    102.63681  0.042341918  0.045050539            3 
  203000    1.1859364   -5.9086875    103.47161  0.042476029  0.045038981            2 
  204000    1.2135239   -5.9108627     103.6253  0.042330594  0.045026811            2 
  205000    1.2092341   -5.9503159    104.14256  0.042334374  0.045012876            3 
  206000    1.2192481    -5.927534    104.07875  0.042103053  0.044997461            4 
  207000    1.2366881   -5.9583048    104.71358  0.042155226  0.044978127           11 
  208000    1.2261039   -5.9425844    104.92712  0.042038109  0.044956505            2 
  209000    1.2244894   -5.9555623    105.73768   0.04216016   0.04493854            2 
  210000    1.2402504   -5.9363238    106.15007  0.042123043  0.044920915            2 
  211000    1.2082935   -5.9554233     107.0731  0.042287955  0.044904189            3 
  212000    1.1978105    -5.930552    107.32587  0.042187841  0.044885245            1 
  213000    1.1874565     -5.93282    107.81583  0.042181467  0.044868189            5 
  214000    1.1948372    -5.911593     109.0945   0.04248228  0.044852964            3 
  215000    1.2330083   -5.9215454    109.75661  0.042541322   0.04483968            2 
  216000    1.1952478   -5.9237072    110.32232  0.042562622  0.044828854            2 
  217000    1.1839746   -5.8945666    110.09304  0.042278434  0.044816791            2 
  218000    1.2224679   -5.9469408    110.64784  0.042296575  0.044797876            3 
  219000    1.2152062   -5.9447934    110.93168  0.042211446  0.044780589            1 
  220000    1.1943793   -5.9289945    111.71475  0.042316193  0.044762483            3 
  221000    1.2398519   -5.9534891    111.84401  0.042173459   0.04474689            2 
  222000    1.2288954   -5.9522461    112.60046  0.042267441  0.044728743            2 
  223000    1.1876495   -5.9542474    112.79362  0.042150082  0.044709881            3 
  224000     1.236686   -5.8956671    113.60303  0.042263032  0.044693841            4 
  225000    1.2052532   -5.9208096      114.282  0.042326667  0.044680832            1 
  226000    1.1890328    -5.938162    115.03973  0.042418779   0.04466617            2 
  227000    1.2337901   -5.9404465    115.24136  0.042305934  0.044654021            5 
  228000    1.2109682   -5.9182172    116.23447  0.042483357  0.044641482            3 
  229000    1.2079596    -5.920059     116.5266  0.042404148  0.044630125            2 
  230000    1.2056445   -5.9238303    116.93674  0.042368383  0.044617185            2 
  231000    1.2182577   -5.9690048    116.43498  0.042003962  0.044603985            3 
  232000    1.1835342   -5.9739291    117.50806  0.042208356  0.044585995            1 
  233000    1.2196222   -5.9256911    117.59765  0.042059246  0.044568254            5 
  234000    1.2146974   -5.9526332    118.06623  0.042046378  0.044549028            3 
  235000    1.2043052   -5.9517601    118.85601   0.04214752  0.044532281            1 
  236000    1.2319933   -5.9383935     119.4942  0.042194279  0.044515027            2 
  237000    1.1990839   -5.9281635     120.0975  0.042228374  0.044498487            2 
  238000    1.2213522   -5.9470714    120.37938  0.042149642  0.044481681            2 
  239000    1.2129189    -5.929907    120.97538  0.042181096  0.044464995            2 
  240000    1.2425066   -5.8755796    122.12465  0.042404392  0.044449222            3 
  241000    1.2064796   -5.9283189    122.73583  0.042439776  0.044435541            1 
  242000    1.1916546   -5.8988173    122.62816  0.042227329  0.044422889            4 
  243000    1.2116668   -5.9384344    123.28422   0.04227854  0.044413089            2 
  244000    1.2051985   -5.9337819    123.29006   0.04210726   0.04440202            1 
  245000    1.1865788   -5.9823688    123.82876  0.042118625  0.044385537            1 
  246000    1.2417113   -5.9578849    124.26975    0.0420968   0.04436909            1 
  247000    1.2281375    -5.899148     125.0177   0.04217871  0.044351678            2 
  248000     1.224643   -5.9232936    124.91469  0.041974022   0.04433385            3 
  249000    1.1992959   -5.8881633    126.06055  0.042188939   0.04431731            3 
  250000    1.2083973   -5.9721091     125.9916  0.041997201  0.044303017            2 
  251000    1.1952648   -5.9675631     126.4368  0.041977689  0.044285457            1 
  252000    1.1853234   -5.9435688    126.75737   0.04191712  0.044268697            4 
  253000    1.2099981   -5.9844005    127.09639  0.041863107  0.044250813            3 
  254000    1.2221681   -5.9665652    127.92844  0.041971271  0.044229994            3 
  255000    1.2060003   -5.9444004    127.90306  0.041798386  0.044210875            3 
  256000    1.2176383   -6.0023014    128.71399  0.041899085  0.044192026            5 
  257000    1.2130291   -5.9484703    129.07556  0.041853293  0.044171335            2 
  258000    1.2213703   -5.9298283    130.34775  0.042101987  0.044150209            3 
  259000    1.1962656   -5.9310464    129.98321  0.041822139  0.044128383            2 
  260000    1.2061335   -5.9559584    130.32984  0.041772383  0.044106249            4 
  261000    1.2074903   -5.8925204    131.48875  0.041982359  0.044087631            4 
  262000    1.1763781   -5.9334614    132.00786  0.041987234   0.04406908            4 
  263000    1.2296033   -5.9711418    131.68046  0.041723848  0.044048466            2 
  264000    1.1852462   -5.9531819    132.42313  0.041800231  0.044028038            2 
  265000    1.1975438    -5.986733    132.31993  0.041610039  0.044006068            8 
  266000     1.231499   -5.9584186    133.25963  0.041748004  0.043983683            2 
  267000    1.1906889   -5.9562759    133.62194  0.041704725  0.043961659            2 
  268000     1.216271   -5.9217665    134.50329  0.041823162  0.043941571            3 
  269000    1.2037495   -5.9241977     134.7881  0.041755918  0.043923707            2 
  270000    1.2330275   -5.9555145    135.43638   0.04180135  0.043905978            4 
  271000    1.2166316   -5.9627852    135.86657  0.041779389  0.043888223            2 
  272000    1.2035445    -5.959182    136.28437  0.041753791  0.043871133            3 
  273000    1.2062611   -5.9633809    137.16741  0.041870393  0.043857026            2 
  274000    1.2177729   -5.8964864    138.39968  0.042092361  0.043844294            1 
  275000    1.2537469     -5.90316    138.79824  0.042060073   0.04383224            2 
  276000    1.1947759   -5.9320429    139.53586  0.042130392  0.043821359            3 
  277000    1.2134836   -5.9593234    139.20089  0.041877524  0.043809763            2 
  278000    1.1965606   -5.9745215    139.91267   0.04194025  0.043796623            5 
  279000    1.2058392   -6.0158864    140.37936  0.041929318  0.043783826            2 
  280000    1.1831688    -5.943899    141.20543  0.042025425  0.043771315            1 
  281000    1.1955955   -5.9980227     141.9212  0.042088136   0.04376122            4 
  282000    1.2126304   -5.9768321    142.82212  0.042205119  0.043750689            2 
  283000    1.2186561   -5.9508312    143.53248   0.04226516  0.043740546            3 
  284000    1.2059631   -5.9409772    143.51842  0.042112211  0.043731754            2 
  285000    1.2238751   -5.9337563     144.3669  0.042212543  0.043724059            2 
  286000    1.2111247   -5.9366456    145.22393  0.042314665  0.043717781            3 
  287000    1.2168142    -5.965163    145.09499  0.042129787  0.043710907            4 
  288000    1.1888155   -5.9680859    145.51196  0.042104154  0.043706063            2 
  289000    1.2031866   -5.9327998    146.34142  0.042197642  0.043699007            4 
  290000    1.2004984   -5.9432308    147.13039  0.042278848  0.043692462            3 
  291000    1.1812129   -5.9976259    147.09169  0.042122478  0.043685582            2 
  292000    1.2036498   -5.9834752    147.25409  0.042024569  0.043677643            2 
  293000    1.1751144   -5.9787765    148.11883  0.042127086  0.043670693            3 
  294000    1.1834625   -5.9320455    148.46638  0.042082306  0.043662477            3 
  295000    1.1950576   -5.9716534    148.85398  0.042049146  0.043653971            3 
  296000    1.1780135   -5.9346775    149.65882  0.042133676  0.043645777            3 
  297000     1.196496   -5.9441874    150.66898  0.042275246  0.043640226            2 
  298000    1.1707901   -5.9548834    151.24484  0.042294418   0.04363678            2 
  299000    1.2077197   -5.9491574     152.3121  0.042450418  0.043631707            4 
  300000    1.1778505   -5.9491017    153.60231  0.042667308   0.04363117            2 
  301000    1.2010536   -5.9527272    153.80445  0.042581519  0.043630559            2 
  302000    1.2283307   -5.9844172    154.07715  0.042515771  0.043630038            3 
  303000    1.1874452   -5.9761151    153.79446  0.042297707  0.043628858            2 
  304000    1.1916565   -5.9409589    155.12606  0.042523592  0.043626528            3 
  305000    1.2230842   -5.9677892    155.38485  0.042454877  0.043625668            1 
  306000    1.1771573   -5.9516409    156.55379  0.042634475  0.043623902            2 
  307000    1.2219431   -5.9868491     156.8903  0.042586944  0.043623746            3 
  308000    1.2020949   -5.9530117       157.54  0.042624459  0.043623571            3 
  309000    1.2304814   -5.9092602    157.93525  0.042593109  0.043622694            2 
  310000    1.1951122    -6.033208    157.76198  0.042409135  0.043622261            2 
  311000    1.1916542   -5.9911804    158.47763  0.042464531  0.043619638            2 
  312000    1.1789236    -5.972728    158.90435  0.042442402  0.043617344            5 
  313000     1.201697   -5.9499296    159.31325  0.042415668  0.043615417            1 
  314000    1.2202882   -5.9791812    159.94064  0.042447091  0.043611274            3 
  315000    1.2012899   -6.0083108    158.83571  0.042020029   0.04360659            3 
  316000    1.2135546   -5.9507815    160.62499  0.042358912  0.043602047            2 
  317000    1.2144149   -6.0107889    161.09623  0.042349167  0.043595512            2 
  318000    1.2022288   -5.9757998     161.6388  0.042358175  0.043588262            3 
  319000    1.2185122   -5.9590692    161.28713  0.042133524  0.043583791            1 
  320000    1.1903832   -5.9741633    162.43514  0.042300819  0.043578394            2 
  321000     1.190396   -5.9853209    162.63245  0.042220262  0.043574299            4 
  322000    1.2149457   -5.9890329    163.50143  0.042314034  0.043568069            3 
  323000    1.1922746   -6.0205121     162.8289  0.042009519  0.043559792            3 
  324000    1.1843736   -5.9849334    164.76227  0.042377127  0.043552458            3 
  325000    1.1838162   -5.9615795    165.16554  0.042350138  0.043546645            2 
  326000    1.2086555   -5.9547866    165.40043  0.042280273  0.043539132            4 
  327000    1.1748139   -5.9736755    165.02567  0.042055471  0.043530316            5 
  328000    1.2107569   -6.0211099    165.50126  0.042048085  0.043521228            2 
  329000     1.189949   -5.9571235    166.42183  0.042153451  0.043513536            2 
  330000    1.1936809   -5.9939947    166.43442  0.042028893   0.04350425            3 
  331000    1.1969139   -5.9684461    167.43813  0.042154616  0.043493987            3 
  332000    1.1927393   -6.0059212    166.81828  0.041872059  0.043483837            2 
  333000    1.2080399   -5.9863397    167.56449  0.041933056  0.043472536            4 
  334000    1.1941734   -5.9487702    167.90638   0.04189281  0.043461767            3 
  335000    1.1925868   -5.9753164    168.13898  0.041825618   0.04344932            2 
  336000    1.1874179   -6.0154228    168.30432  0.041742142  0.043435772            2 
  337000    1.1894843   -5.9665255     169.2501  0.041852151  0.043423262            2 
  338000    1.2152215   -6.0136088    169.02715  0.041673361  0.043410232            2 
  339000    1.2273086   -5.9665582    170.14207  0.041824502   0.04339785            2 
  340000    1.2148582   -6.0103559    170.13791  0.041700468  0.043385773            4 
  341000    1.2003552   -6.0167677    170.43288  0.041650265  0.043370984            3 
  342000    1.2156789   -5.9575243    172.60018  0.042056575   0.04335745            5 
  343000    1.2219663   -5.9770046    171.72085  0.041720322  0.043345568            2 
  344000    1.1859983   -5.9720865    172.57829  0.041806755   0.04333275            2 
  345000    1.1913291   -6.0108871     172.7799  0.041734276  0.043320041            2 
  346000      1.19707   -5.9620184    174.07305  0.041925108  0.043308269            4 
  347000    1.1860528   -5.9952699    174.34945  0.041870665  0.043297389            2 
  348000    1.1759899   -5.9740499     175.4412  0.042011781  0.043288196            2 
  349000    1.2248857   -5.9669353      175.391  0.041879416  0.043279463            2 
  350000    1.1837534   -6.0033947    175.94972   0.04189279  0.043271582            5 
  351000    1.1819782   -5.9419602    177.27718    0.0420886  0.043264338            4 
  352000    1.1890561   -5.9664354    176.79951  0.041855943  0.043256884            2 
  353000    1.1996528   -6.0027797    178.24215   0.04207794  0.043250457            2 
  354000    1.1833289   -5.9925237    178.19473  0.041947911  0.043243446            3 
  355000    1.1752885   -5.9842371    179.10208  0.042042742  0.043237183            2 
  356000    1.1984376   -5.9642324     179.0947  0.041922916  0.043231186            3 
  357000    1.1822776   -5.9648613    180.61485  0.042160329  0.043224707            1 
  358000    1.1899907   -6.0127514    180.97145  0.042125571  0.043217558            4 
  359000     1.181822   -5.9816503    180.77154  0.041961826  0.043210172            2 
  360000    1.1931288    -5.968172    181.87539  0.042100784   0.04320301            5 
  361000    1.1945611   -5.9783174    182.16371  0.042050719  0.043195313            4 
  362000    1.2121915   -6.0113071    182.96168   0.04211825  0.043190426            2 
  363000    1.1786237   -5.9492739    183.37842  0.042097894  0.043183984            4 
  364000    1.1987142   -5.9591584    184.20148  0.042170669  0.043178671            3 
  365000    1.2140102   -5.9719452    184.29766  0.042077091  0.043173675            5 
  366000    1.1819106   -6.0219667    184.23028  0.041946786  0.043168261            6 
  367000    1.1933791    -6.014709     185.2095  0.042054836  0.043160221            3 
  368000    1.2318192    -5.980084    185.56539  0.042021148  0.043152707            1 
  369000    1.1977431   -6.0337981    185.33828  0.041855979  0.043146659            2 
  370000    1.1753993   -6.0397164    185.82803   0.04185316  0.043139011            4 
  371000     1.192303   -5.9648097     186.9072  0.041982749  0.043131982            1 
  372000    1.1820281   -6.0249059    187.77765  0.042064885  0.043125777            3 
  373000    1.1944213   -6.0177221     187.6908  0.041932707  0.043120859            3 
  374000    1.1922739   -5.9244947    189.67013  0.042261614  0.043115454            1 
  375000     1.208416   -5.9807447    188.95297  0.041989549   0.04310915            9 
  376000    1.1693324   -6.0159255    189.31429  0.041957954  0.043101593            1 
  377000    1.1957501   -5.9557676    189.98017  0.041993847  0.043093864            3 
  378000    1.1690907   -5.9634548    190.30605  0.041954596  0.043087528            3 
  379000    1.2018213   -5.9998468    190.07851  0.041793867  0.043080481            3 
  380000    1.1794141   -5.9465162    191.04592  0.041896035  0.043072273            4 
  381000    1.2103833   -5.9724865    191.84584  0.041961033  0.043065116            2 
  382000    1.1696816   -6.0049122    192.91601  0.042084644  0.043059704            4 
  383000    1.2199322   -5.9464808    193.52331  0.042106899  0.043053673            2 
  384000    1.2046612   -5.9946707    193.73252  0.042042648  0.043046964            2 
  385000    1.1719938    -6.012936    193.33443   0.04184728  0.043039016            2 
  386000    1.1724034   -5.9878435    194.30779  0.041949006  0.043030395            4 
  387000    1.2023638   -5.9844206    195.74235  0.042149516  0.043024495            3 
  388000    1.1817616   -5.9938257    195.10207  0.041903365  0.043017406            2 
  389000    1.1971786   -6.0078198    196.02776   0.04199395  0.043010877            1 
  390000    1.1967258   -5.9839949    196.55985  0.041999969  0.043005316            3 
  391000    1.1798956   -6.0100943    196.50858  0.041881624  0.042998735            3 
  392000    1.1907031   -5.9790235    196.56468  0.041786708  0.042991613            2 
  393000    1.1824898   -5.9543612    197.66597  0.041913903  0.042983354            2 
  394000    1.1826069   -5.9657563    197.87391  0.041851503  0.042976513            3 
  395000    1.1690962    -5.982276    199.06588  0.041997021  0.042969266            5 
  396000    1.1905504   -6.0012457    199.00845  0.041878882  0.042962671            4 
  397000    1.1799183   -6.0130597    199.44936  0.041865944  0.042955813            3 
  398000    1.1804019   -5.9917066     200.2496  0.041928308  0.042949274            3 
  399000    1.1862015   -6.0146933    200.62522  0.041901675  0.042943541            4 
  400000    1.1474298   -6.0275724    201.12344  0.041900716  0.042936131            2 
  401000    1.2113667   -5.9926626    201.37231  0.041847945  0.042929309            4 
  402000    1.1889432   -5.9979639    202.11588  0.041897986  0.042922736            4 
  403000    1.1790019   -6.0232094    202.60521  0.041895205  0.042916955            2 
  404000     1.181136   -6.0500063     203.0629  0.041885912  0.042911124            4 
  405000    1.1636765    -6.037821    203.73958  0.041921723  0.042905441            3 
  406000    1.1531256   -5.9864229    205.14002  0.042105916  0.042900888            2 
  407000    1.1823769   -6.0090896     204.8866  0.041950574   0.04289778            1 
  408000     1.176255   -6.0154824    206.09165  0.042093882   0.04289458            2 
  409000    1.1556796   -6.0477246    206.22702  0.042018546  0.042890818            2 
  410000    1.1973283   -5.9662989    207.17417  0.042108571  0.042887125            2 
  411000    1.1924852   -5.9716915    207.58162  0.042088732  0.042883942            2 
  412000    1.1974503   -6.0268451    207.90205  0.042051386  0.042880133            3 
  413000    1.1812576   -5.9956311     208.9524  0.042161502  0.042878288            1 
  414000    1.1838143   -5.9963024     209.6269  0.042195431  0.042878148            4 
  415000     1.178751   -6.0054589    209.93065  0.042154749    0.0428759            6 
  416000     1.166798   -5.9885878    209.75977  0.042019184   0.04287431            2 
  417000    1.1621414   -6.0036399    211.44896  0.042255987  0.042872495            3 
  418000    1.2038304   -6.0154589     211.7821  0.042221313  0.042871887            1 
  419000    1.1810275   -6.0355636    212.43505  0.042250408  0.042870344            2 
  420000    1.1959807   -5.9915827    213.17146  0.042295925  0.042869874            8 
  421000    1.1917063    -5.974436    213.87731  0.042335177  0.042870521            3 
  422000    1.1634243   -6.0083914    214.13945  0.042286622  0.042870221            1 
  423000    1.1895465   -6.0580134    213.64408  0.042089062  0.042868035            5 
  424000      1.20041   -6.0042993    214.69373  0.042196096  0.042866348            9 
  425000    1.1868183   -5.9961081    214.62166  0.042082679    0.0428641            3 
  426000    1.1918925   -5.9936488    214.75075  0.042009144  0.042861247            2 
  427000    1.1776411    -5.956776    217.16809   0.04238253  0.042858628            3 
  428000    1.1920801     -6.04264    215.86911   0.04203059  0.042856191            2 
  429000    1.2119648   -6.0319799    216.86165  0.042125418  0.042853878            3 
  430000    1.1875771   -5.9772929    217.83763  0.042216595  0.042850235            3 
  431000    1.1695155   -6.0052231    217.26012  0.042006983  0.042846586            3 
  432000    1.1849273   -6.0182076      217.313  0.041919945  0.042842611            2 
  433000    1.1409795   -6.0664692    217.65441   0.04188884  0.042838595            2 
  434000    1.1866703   -5.9955498    218.91278  0.042033944  0.042835079            3 
  435000    1.2004816   -6.0364711    219.56484   0.04206223  0.042830761            2 
  436000    1.1744817   -6.0018947    220.13576  0.042074878  0.042826603            3 
  437000    1.1579091   -6.0061179    220.95455  0.042134736  0.042824014            3 
  438000    1.1788761   -6.0361962    222.24543  0.042284138  0.042821506            4 
  439000    1.1796255   -6.0560503    221.79141  0.042101635   0.04282007            2 
  440000    1.1994097   -5.9672493    223.39096  0.042308893  0.042819783            2 
  441000    1.1843962   -6.0337632    224.14104  0.042354695  0.042819786            3 
  442000    1.1868538   -6.0373906     223.1103  0.042064536  0.042818043            2 
  443000     1.157538   -6.0134973    224.62235  0.042254016  0.042815995            4 
  444000    1.1775151   -6.0386498    224.41359  0.042119668  0.042813575            7 
  445000    1.1835289   -6.0227631    225.55267  0.042238329  0.042812974            2 
  446000     1.176557   -6.0066315    226.36867  0.042296089  0.042811809            4 
  447000    1.2033478   -6.0037667    227.61691  0.042434175  0.042811315            3 
  448000    1.2129596    -6.042409     226.4248  0.042117708  0.042810736            4 
  449000     1.183341     -5.98819    227.97863  0.042312291  0.042808546            2 
  450000    1.1944212   -6.0315264    227.37888    0.0421072  0.042807514            2 
  451000    1.2015425   -6.0009299    228.10388  0.042147797  0.042805644            2 
  452000    1.1844121   -5.9917477      228.857    0.0421934   0.04280369            2 
  453000    1.1549973    -5.994138    229.42177  0.042204152  0.042801696            3 
  454000    1.1713954   -6.0481911    228.61392  0.041962907  0.042798362            3 
  455000    1.1859804   -6.0411457    229.27746  0.041992209  0.042794508            1 
  456000    1.1812119   -6.0127407       229.55  0.041949927  0.042791247            4 
  457000    1.1625574    -6.045217    229.87417  0.041917245  0.042786156            2 
  458000    1.1657398   -6.0524621    229.81217  0.041814442  0.042780235            3 
  459000     1.181227   -6.0325803    230.71219  0.041886745  0.042774408            1 
  460000    1.1601636   -6.0203459     231.5365  0.041945018  0.042769236            3 
  461000    1.1612812   -6.0270865    231.07378  0.041770387   0.04276382            3 
  462000    1.1658362   -5.9581897    234.10476  0.042226689  0.042759453            1 
  463000    1.1729566   -5.9646229    233.44358  0.042016484  0.042755259            2 
  464000    1.1811444   -6.0127262    233.04426  0.041854212  0.042749831            3 
  465000    1.1986452   -6.0025416    234.08501  0.041950718  0.042744526            1 
  466000    1.1835418   -6.0644669    233.40858  0.041739732  0.042739351            2 
  467000    1.1758105   -6.0199003    234.60356  0.041863591  0.042734852            2 
  468000    1.1767053   -6.0247425    235.90985   0.04200674  0.042730519            2 
  469000     1.178274   -6.0394879    236.04179  0.041940616  0.042726174            5 
  470000    1.1316287   -6.0239164    236.77094  0.041980663  0.042721425            2 
  471000    1.1658435   -6.0678309    235.25881  0.041623993  0.042715906            5 
  472000    1.1913323   -5.9847606    238.31403  0.042075218  0.042711723            2 
  473000    1.1526359   -6.0149087    237.70497  0.041878958  0.042706837            2 
  474000    1.1638259   -6.0393737     238.6268  0.041952672  0.042702767            3 
  475000    1.1832778   -6.0457779    238.84089   0.04190191    0.0426992            2 
  476000    1.2074705   -6.0541257    239.21848  0.041879986  0.042695801            2 
  477000     1.182755   -6.0186047    239.36437  0.041817674  0.042691435            3 
  478000    1.1756605   -6.0474681    240.00916  0.041842601  0.042687593            3 
  479000    1.2015261   -6.0211768     241.2884  0.041977801  0.042684215            5 
  480000    1.1785808   -6.0800234    240.27824  0.041714972  0.042679106            3 
  481000    1.1727935   -6.0499571    240.44756  0.041657581  0.042673338            1 
  482000     1.201498   -6.0193802    241.53416  0.041759017  0.042667827            2 
  483000    1.1957547    -6.052491    242.02932  0.041757992  0.042661795            2 
  484000    1.2106816     -6.04873    242.35813  0.041728328  0.042655058            2 
  485000    1.1607786   -6.0128592    243.40258   0.04182175  0.042650096            2 
  486000    1.1860612   -6.0193801    244.12337  0.041859288  0.042644622            2 
  487000    1.2037095   -6.0519419      244.451  0.041829398  0.042638771            3 
  488000    1.1701516   -6.0022374    245.59957  0.041939818  0.042632514            4 
  489000    1.1528126   -6.0957132     243.6542  0.041522529  0.042626058            1 
  490000    1.1548307   -6.0269378    245.69207  0.041784365  0.042619565            1 
  491000    1.1445631   -6.0308656    245.51943  0.041669965  0.042613554            6 
  492000    1.1836825   -6.0675735    246.48152  0.041748225  0.042607912            2 
  493000    1.1605852   -6.0536968    246.63846  0.041690071  0.042601259            3 
  494000    1.1546239   -6.0128581    248.39812  0.041902516   0.04259387            5 
  495000    1.1696435   -6.0356782    247.21455  0.041618611  0.042587791            1 
  496000    1.1694761   -6.0843468    247.48831  0.041580697  0.042581282            4 
  497000    1.1683377    -6.041896    248.42795  0.041654586    0.0425745            2 
  498000    1.1879297   -6.0429905    249.61344  0.041769317  0.042567154            2 
  499000    1.2022125   -6.0440079    249.65386  0.041692361  0.042560817            1 
  500000    1.1895425   -6.0460663    250.27613  0.041712688  0.042554191            5 
  501000     1.185287   -6.0105005    251.21851  0.041786179  0.042547547            4 
  502000    1.1518344   -6.0284987    250.89522  0.041649273  0.042541609            4 
  503000      1.16209   -6.0493708    251.37589  0.041646105  0.042535209            2 
  504000    1.1589707   -6.0362384    253.05989  0.041841912  0.042529721            1 
  505000    1.1685561   -5.9831517    254.55582  0.042005911    0.0425256            2 
  506000    1.1734758   -6.0468911    253.24578  0.041707144  0.042520887            3 
  507000    1.1587504   -6.0147486    255.37039  0.041974094  0.042517257            2 
  508000    1.1671474    -6.025509    255.30331  0.041880465  0.042513254            3 
  509000    1.1540306   -6.0111597    255.66101  0.041856746  0.042508879            3 
  510000    1.1579723     -6.06841    255.86539   0.04180807  0.042504334            2 
  511000    1.1444262   -6.0838406    255.22422  0.041621692  0.042498589            9 
  512000    1.1839551   -6.0486548    255.68616  0.041615586   0.04249287            3 
  513000    1.1570046   -6.0532465    257.24852  0.041788259  0.042487095            5 
  514000    1.1607043   -6.0427448    257.05068  0.041674883  0.042482102            3 
  515000    1.1483159   -6.0483542    257.40867  0.041651888  0.042476841            3 
  516000    1.1880875   -6.0517396    257.40078  0.041569894  0.042470504            4 
  517000    1.1944299   -6.1097463     258.2084  0.041619665   0.04246429            2 
  518000    1.1772139   -6.0377485    258.36806  0.041565002  0.042457298            2 
  519000    1.1886758   -6.0825872    258.48027  0.041502934  0.042450324            2 
  520000    1.1763252   -6.0334202    258.84782  0.041482023  0.042443403            1 
  521000    1.1787626   -6.0900085    258.66808  0.041373652  0.042436277            5 
  522000    1.1831036   -6.0197724    261.19786  0.041698253  0.042429871            2 
  523000     1.191963    -6.021809    261.40295  0.041651203   0.04242402            2 
  524000    1.1404285   -6.0160583    262.83916  0.041800121  0.042418631            1 
  525000    1.1914176   -6.0794571    261.37691  0.041488398  0.042412231            2 
  526000    1.1534134   -6.0885291    261.23707  0.041387369  0.042405166            4 
  527000    1.1582619   -6.0719057    261.88116  0.041410683  0.042397571            2 
  528000     1.186438   -6.0501124    262.88726  0.041491045  0.042389908            1 
  529000    1.1919511   -5.9987488    263.88298  0.041569468  0.042382547            3 
  530000    1.1705446   -6.0268226    262.74843  0.041312646  0.042374873            3 
  531000    1.1599083   -6.0231248    263.48796  0.041350904  0.042366588            4 
  532000     1.143611   -6.0550406    263.55913  0.041284325  0.042358635            2 
  533000    1.1623541   -6.1007512    264.24915  0.041314752   0.04235009            4 
  534000    1.1746331   -6.0452513    265.99405  0.041509683  0.042342832            2 
  535000    1.1682406   -6.0433379    265.86223  0.041411562  0.042335746            4 
  536000     1.164983   -6.0696289    266.70478  0.041465296  0.042329077            4 
  537000    1.1493919   -6.0464074     266.4492  0.041348417  0.042321903            6 
  538000    1.1902665   -6.0917451     266.8725  0.041337128  0.042314906            3 
  539000    1.1669845   -6.0390933    268.25103  0.041473567  0.042307897            4 
  540000    1.1507292   -6.0277925     268.2772  0.041400802  0.042301317            3 
  541000    1.1567669   -6.0583065    269.49033  0.041511142  0.042294591            4 
  542000    1.1566731   -6.0514644    269.28674  0.041403251  0.042287165            2 
  543000    1.1978682   -6.0388355     269.5631  0.041369414  0.042279478            4 
  544000    1.1454784   -6.0511738    269.97935   0.04135713   0.04227176            4 
  545000    1.1472753   -6.0505191    269.35335  0.041185527  0.042263492            2 
  546000    1.1609947   -6.0667582    270.47841  0.041281809  0.042255228            3 
  547000    1.1701039   -6.0956419    269.56145  0.041066644  0.042246579            2 
  548000    1.1651959   -6.0691742    270.85231  0.041188003  0.042236751            4 
  549000    1.1536759   -6.0522087    271.98625  0.041285101  0.042226937            8 
  550000    1.2042229   -6.0864143     272.0666  0.041222213  0.042218481            1 
  551000    1.1619569   -6.0717615    272.37504  0.041194048  0.042209294            4 
  552000    1.1447652   -6.0838754     272.2972  0.041107669  0.042200366            4 
  553000    1.1901618   -6.0744675    274.20098   0.04132022  0.042191587            2 
  554000    1.1590199   -6.0663783    273.55399  0.041148314  0.042182835            2 
  555000    1.1830675   -6.0607598    273.72242  0.041099462  0.042174707            3 
  556000    1.1768433   -6.0550747    275.04005  0.041223029  0.042166343            2 
  557000    1.1663471   -6.0360728    277.04815  0.041449454  0.042158577            2 
  558000    1.1501451   -6.0535172    277.05097  0.041375593  0.042151361            2 
  559000    1.1745628   -6.0489274    277.06332  0.041303417  0.042143685            2 
  560000    1.1761825   -6.0301105    277.46403   0.04128929   0.04213568            3 
  561000    1.1708593   -6.0430806    278.97638  0.041440341  0.042128823            5 
  562000    1.1627973   -6.0729024    279.36732  0.041424573   0.04212186            3 
  563000    1.1426827   -6.1337163    279.31404  0.041343108  0.042115667            2 
  564000      1.16341   -6.1080315    279.17707  0.041249567  0.042109242            3 
  565000     1.153111   -6.1216062    279.73467  0.041258801  0.042102906            2 
  566000    1.1481351    -6.080593    280.74742  0.041335015  0.042096544            3 
  567000    1.1655549    -6.079009    281.55905    0.0413814  0.042090723            3 
  568000    1.1586255   -6.0814697    280.94253  0.041218094  0.042083772            3 
  569000    1.1765232   -6.0943237    281.43307  0.041217497  0.042076454            5 
  570000    1.1528174   -6.0814918    281.66002  0.041178366  0.042069432            4 
  571000    1.1787249   -6.0932497    281.34918  0.041060885   0.04206129            2 
  572000    1.1793692   -6.0530071    283.87424   0.04135697  0.042054444            4 
  573000    1.1550307   -6.0312087    282.85335  0.041136323  0.042046331            4 
  574000    1.1472865   -6.0674017    284.46702  0.041298929  0.042039336            2 
  575000     1.171975   -6.0162132     285.2557  0.041341405  0.042032721            2 
  576000    1.1534389   -6.0301471    286.87723  0.041504229  0.042027066            6 
  577000     1.181775   -6.0151554    287.70309  0.041551573  0.042020702            5 
  578000    1.1658378   -6.0722611    286.38448  0.041289573  0.042014647            3 
  579000    1.1649627   -6.0673501    286.93158  0.041297004  0.042007513            2 
  580000     1.152148   -6.0017813    287.50595  0.041308326  0.042001206            2 
  581000    1.1413372   -6.0849248    288.22433  0.041340266  0.041994063            4 
  582000    1.1851212   -6.0583613    289.20986  0.041410346  0.041988318            1 
  583000    1.1842715   -6.0633777    288.57694  0.041248848  0.041982492            3 
  584000     1.133467   -6.0229956    290.74055  0.041486951  0.041976781            8 
  585000    1.1466788   -6.0493212    290.10775   0.04132589  0.041970809            3 
  586000    1.1475129   -6.0947221    289.61333  0.041185058   0.04196428            4 
  587000    1.1422658   -6.0425355    290.94018  0.041303262  0.041957988            2 
  588000    1.1484925   -6.0972723    290.08445  0.041111742  0.041951647            3 
  589000    1.1568258   -6.0605954    292.05128  0.041320215  0.041945392            3 
  590000     1.153333   -6.1026212    291.86153   0.04122338  0.041939457            3 
  591000    1.1531474    -6.035074    294.29072  0.041496153  0.041933832            3 
  592000    1.1781717   -6.1043928     292.2666  0.041141131  0.041928049            7 
  593000    1.1795985   -6.0869316    293.28055  0.041214243  0.041921382            4 
  594000    1.1452388   -6.0438692    294.36962  0.041297646  0.041915598            3 
  595000    1.1536379   -6.0423546    294.68049  0.041271778  0.041909823            2 
  596000    1.1608083   -6.0836194     293.1647   0.04099059  0.041903269            3 
  597000    1.1795608   -6.0986235    294.76328   0.04114507  0.041896856            6 
  598000    1.1468415   -6.0805881    295.30167  0.041151291   0.04188993            4 
  599000    1.1327218   -6.0817703    296.57513  0.041259757  0.041883684            3 
  600000    1.1429806   -6.0774017    296.09917  0.041124885  0.041876807            5 
  601000    1.1453382   -6.1103218    295.48278   0.04097099  0.041870259            2 
  602000    1.1647516    -6.029884     297.3209  0.041157378  0.041863084            3 
  603000    1.1764935   -6.0607216    297.34909   0.04109302  0.041856756            2 
  604000    1.1347037   -6.0709165    297.72217  0.041076458  0.041849392            2 
  605000     1.151984   -6.0462191    298.02159  0.041049806  0.041841628            1 
  606000    1.1581482   -6.1046433    297.96844  0.040974757  0.041833988            3 
  607000    1.1741063   -6.0741963    299.41523   0.04110588  0.041826488            3 
  608000    1.1602643   -6.0479482    299.74124  0.041082955  0.041819328            3 
  609000    1.1424421   -6.0951887    298.53992  0.040851111  0.041811391            3 
  610000    1.1319835   -6.1246754    298.48595  0.040776769  0.041803163            3 
  611000    1.1714016   -6.0809775     300.2204  0.040946591  0.041794304            2 
  612000    1.1361053   -6.0916777    300.16531  0.040872183  0.041786231            3 
  613000    1.1496654   -6.0762116    300.72099  0.040881048  0.041777193            4 
  614000    1.1378381   -6.0916683    300.90861   0.04083993  0.041768467            2 
  615000    1.1606127    -6.115596    301.24917   0.04081967  0.041759626            2 
  616000    1.1253151   -6.0603877    302.31699  0.040897862  0.041751295            4 
  617000    1.1545342   -6.1035911    302.55133  0.040863227  0.041743258            3 
  618000    1.1666321   -6.1404575    302.26434  0.040758406  0.041734309            4 
  619000    1.1547305   -6.0672779    303.82039  0.040902045  0.041725954            2 
  620000    1.1538727   -6.0806992    303.37379  0.040776047   0.04171718            4 
  621000    1.1690819   -6.1190626    303.33251  0.040704845  0.041708354            3 
  622000    1.1736358   -6.0758823    303.45848   0.04065628  0.041698846            2 
  623000    1.1578204   -6.0848137    303.97155  0.040659651  0.041689624            1 
  624000    1.1439921   -6.0874871    304.36007  0.040646376  0.041680428            7 
  625000    1.1741001   -6.0505631    305.65927   0.04075457  0.041671576            2 
  626000     1.139893   -6.1086342    306.29837  0.040774544  0.041662129            5 
  627000    1.1661582   -6.0643895    307.56481  0.040877833  0.041653001            4 
  628000    1.1630489   -6.0199412    309.16128  0.041024587  0.041645214            6 
  629000    1.1537437   -6.0800952    308.51389  0.040873595  0.041636889            4 
  630000    1.1604607   -6.1018047    307.80335  0.040714728  0.041627819            2 
  631000    1.1626458   -6.0658889    308.67201  0.040764924  0.041618549            2 
  632000    1.1888459   -6.0901341    308.30483  0.040652008  0.041609231            3 
  633000    1.1454022   -6.0869444    309.14531  0.040698435  0.041600186            1 
  634000    1.1557897   -6.0580412    310.09835   0.04075951  0.041591764            2 
  635000    1.1624755   -6.0891714     310.1796  0.040705984  0.041582655            1 
  636000    1.1502697   -6.0583003    311.58275  0.040825832  0.041574336            3 
  637000    1.1646918   -6.0849816    311.95001  0.040809787  0.041566156            3 
  638000    1.1508807   -6.0579691     311.6774  0.040710215  0.041557543            4 
  639000    1.1672837   -6.0467742    312.52571  0.040757135  0.041549152            2 
  640000    1.1850883   -6.0977483    311.92194  0.040614835  0.041540655            2 
  641000    1.1492444   -6.0549068     312.7617  0.040660648  0.041532681            3 
  642000    1.1793683   -6.0529712    313.67008  0.040715223  0.041523619            3 
  643000    1.1644265   -6.0995336    311.82229  0.040412428  0.041514071            2 
  644000    1.1524621   -6.1146308    312.78972   0.04047486  0.041504429            4 
  645000    1.1356049   -6.0666472     314.9557  0.040691951    0.0414951            2 
  646000    1.1347535   -6.0596893    314.67195  0.040592357   0.04148565            2 
  647000     1.137929   -6.0787847    315.80254  0.040675237  0.041476484            4 
  648000     1.166723   -6.0750819    314.68454  0.040468691  0.041467406            4 
  649000    1.1727021   -6.0564615    315.79105  0.040548414  0.041458252            2 
  650000    1.1341154   -6.0897363    315.66621  0.040470027  0.041448635            1 
  651000    1.1267243   -6.1265132    315.76648  0.040420696  0.041438961            3 
  652000     1.137712   -6.0849683    316.54328  0.040457986  0.041429067            5 
  653000    1.1508082   -6.0707896    316.66551  0.040411627  0.041418871            2 
  654000    1.1544912   -6.0412014    316.94817  0.040385853  0.041408507            3 
  655000    1.1095827   -6.1106985    317.14698  0.040349489  0.041398373            4 
  656000    1.1512407   -6.1000323    317.07168  0.040278414  0.041387539            3 
  657000    1.1541065   -6.1019415    318.28354  0.040370819  0.041377577            3 
  658000    1.1647407   -6.1152768    318.47809  0.040334104  0.041367392            4 
  659000    1.1511971   -6.1028228    319.25524  0.040371173   0.04135642            4 
  660000    1.1419923   -6.0841955    320.70824  0.040493465  0.041345746            2 
  661000    1.1637133   -6.0697906    319.63676   0.04029712  0.041335054            5 
  662000    1.1533761    -6.066936    320.55453  0.040351779  0.041324601            1 
  663000    1.1493504   -6.1008087    320.61091  0.040298003  0.041314093            2 
  664000    1.1529942   -6.1017645    322.06686  0.040420038   0.04130393            2 
  665000    1.1402369   -6.0945925    321.66546  0.040308954  0.041293888            4 
  666000    1.1502946    -6.109475    322.38976  0.040339059  0.041283914            3 
  667000    1.1555732   -6.1149075    321.95598  0.040224385  0.041273741            3 
  668000    1.1646015   -6.0743963    324.05634  0.040426191   0.04126413            3 
  669000    1.1512526   -6.1251893    322.52534  0.040175055  0.041254147            2 
  670000    1.1615706   -6.1616544    322.60632  0.040125165  0.041243586            3 
  671000    1.1443799   -6.0796369    325.43818  0.040417062  0.041234112            2 
  672000    1.1428026   -6.0902199    325.25733   0.04033449  0.041224066            2 
  673000    1.1540546   -6.1183065    324.87209  0.040226856  0.041214363            2 
  674000    1.1294126   -6.1257255    325.75742  0.040276634  0.041204432            2 
  675000    1.1334412    -6.144168    325.81988  0.040224676  0.041194466            3 
  676000    1.1575227   -6.0900938    326.67095  0.040270088  0.041183996            4 
  677000    1.1540601   -6.0760833    327.71598  0.040339239  0.041174088            4 
  678000    1.1721776   -6.1230374    327.19797  0.040216073  0.041164536            4 
  679000    1.1315433   -6.1315354    327.66246  0.040213851  0.041154011            3 
  680000    1.1198989   -6.1045104    328.11846  0.040210595  0.041143597            5 
  681000      1.14207   -6.1179689    327.85878  0.040119773  0.041133373            4 
  682000    1.1324757   -6.1408112    327.57144  0.040025836  0.041123423            5 
  683000    1.1284525   -6.1000893    330.05876  0.040270712   0.04111356            2 
  684000    1.1136546   -6.0933499    329.54279  0.040148976  0.041103541            3 
  685000    1.1284931   -6.0976669    329.85385  0.040128206  0.041093369            5 
  686000    1.1281026   -6.0877571    330.49519  0.040147617  0.041083002            3 
  687000    1.1464161   -6.0800684    329.60904  0.039981688  0.041072494            3 
  688000    1.1136373   -6.1176944    329.46834  0.039906534  0.041061509            1 
  689000    1.1448487   -6.0749314    331.55984  0.040101577  0.041050307            2 
  690000    1.1273349   -6.0754104    330.61333  0.039929146  0.041039144            3 
  691000    1.1249617   -6.0805576      330.962  0.039913411  0.041028179            3 
  692000    1.1432623   -6.1302636    330.92791  0.039851627  0.041016835            6 
  693000    1.1438825   -6.1189312    332.20329  0.039947485  0.041005724            2 
  694000    1.1432249    -6.109483    332.10921  0.039878627  0.040994476            2 
  695000    1.1461257   -6.1185771    332.21735  0.039834214  0.040982681            4 
  696000    1.1549211   -6.1215708    334.21734  0.040016444  0.040971521            3 
  697000    1.1381308   -6.1023789    333.90565  0.039921765  0.040960061            2 
  698000    1.1339396    -6.132128    333.20064  0.039780401   0.04094827            4 
  699000    1.1381823   -6.0904228    335.18922  0.039960566  0.040937036            6 
  700000    1.1274586   -6.1000292    335.10681  0.039893668  0.040925872            2 
  701000    1.1358785   -6.1288607    335.61637  0.039897334  0.040914981            3 
  702000    1.1587109   -6.1240569    335.16834  0.039787314  0.040903918            3 
  703000    1.1118102   -6.0995984    335.83749  0.039810039  0.040892977            2 
  704000    1.1326978   -6.1409358    336.32215   0.03981086  0.040881763            2 
  705000    1.1241025   -6.1159811    337.07985  0.039843954  0.040870931            2 
  706000    1.1284177   -6.1009417    337.11383  0.039791528  0.040858611            2 
  707000    1.1354514    -6.123547    336.42099  0.039653582  0.040846054            2 
  708000    1.1272553    -6.086262    336.45914  0.039602064  0.040833146            3 
  709000    1.1180316   -6.1515719     336.0396  0.039496897  0.040820365            2 
  710000    1.1369049   -6.1060536    337.54729  0.039618226  0.040807559            3 
  711000    1.1336706   -6.1089942    337.90788  0.039604768  0.040794471            3 
  712000    1.1049509   -6.1561981    337.81058  0.039537755    0.0407808            2 
  713000    1.1482859   -6.1762888    337.66553   0.03946535  0.040767472            2 
  714000    1.1248764   -6.1450717     338.8067  0.039543265  0.040754437            4 
  715000    1.1325751   -6.1590496    337.68822  0.039357601  0.040741008            1 
  716000    1.1403945   -6.1419233    339.71029  0.039537976  0.040728264            2 
  717000    1.1349513   -6.1500512    338.98159  0.039398139  0.040715276            4 
  718000    1.1285538   -6.1102496    341.12598  0.039592152  0.040702645            5 
  719000    1.1473267   -6.1726599    339.88897  0.039393715    0.0406895            4 
  720000    1.1361844   -6.0930431      341.435   0.03951794  0.040676204            5 
  721000     1.119368   -6.1364021    341.66078  0.039489225  0.040663513            6 
  722000    1.1507045   -6.1076631    342.64788  0.039548462  0.040651318            2 
  723000    1.1389989   -6.0990329    344.24843  0.039678242  0.040638772            1 
  724000    1.1428639   -6.1274812    342.73878  0.039449675  0.040626004            4 
  725000    1.1267999   -6.1357394    343.71266  0.039507203  0.040613854            3 
  726000    1.1479912   -6.1421588     344.1421  0.039502077  0.040601352            3 
  727000    1.1567075   -6.1006536    343.18262   0.03933776  0.040588903            2 
  728000    1.1387584    -6.187755    343.72263  0.039345539  0.040575657            6 
  729000    1.1295327   -6.1470364    343.73793  0.039293316  0.040562263            3 
  730000    1.1820251   -6.1226257    344.46075  0.039322004  0.040548943            3 
  731000    1.1467029   -6.0623667    346.13523    0.0394591  0.040536152            3 
  732000    1.1182031   -6.1489247    344.88916  0.039263338  0.040523643            4 
  733000    1.1352308   -6.0969568      345.851  0.039319122   0.04051097            2 
  734000    1.1198278   -6.1217678    347.17301  0.039415646  0.040498071            4 
  735000    1.1392062    -6.187522    346.14929  0.039245951  0.040484784            2 
  736000    1.1434761   -6.1227787    346.59404  0.039242984  0.040471795            3 
  737000    1.1530033   -6.0802301    349.03576  0.039465826  0.040459097            2 
  738000    1.1219411   -6.1247115    348.38542  0.039338913  0.040447028            3 
  739000    1.1474743   -6.1062645    348.48872   0.03929733  0.040433909            6 
  740000    1.1382137   -6.1372327    348.13813  0.039204744  0.040420626            3 
  741000    1.1651141   -6.1717399    348.20916  0.039159825   0.04040744            3 
  742000    1.1449233   -6.1263947    349.25051  0.039224001  0.040393615            3 
  743000    1.1385356   -6.1262828    348.61912  0.039100395  0.040380181            1 
  744000    1.1233493    -6.167457    349.11318  0.039103179  0.040366529            3 
  745000    1.1337889   -6.1089137    348.63287  0.038996966  0.040352437            3 
  746000    1.1413562   -6.1073282    350.32375  0.039133574  0.040338004            3 
  747000    1.1303941    -6.132235    350.71711  0.039125068  0.040324562            5 
  748000    1.1433326   -6.1265893    349.77067  0.038967321  0.040310834            3 
  749000    1.1186519   -6.1077378    350.53985  0.039000874  0.040297083            3 
  750000    1.1322126   -6.1361295    351.95427   0.03910603  0.040283439            2 
  751000    1.1529703   -6.1286663    351.35085  0.038987001  0.040268895            5 
  752000    1.1833126   -6.1283851     351.2956  0.038929034  0.040254667            4 
  753000    1.1331784   -6.1326812     351.6434  0.038915826  0.040240718            3 
  754000    1.1262378   -6.1196861    353.10648  0.039025915  0.040226882            2 
  755000    1.1395835   -6.0982863    354.83463   0.03916497  0.040213557            2 
  756000    1.1225999   -6.1569914    354.85758  0.039115695  0.040200193            2 
  757000    1.1300675   -6.1263621    354.97457  0.039076901  0.040186307            1 
  758000    1.1475411   -6.1499433     353.7248   0.03888795  0.040172579            6 
  759000    1.1440641   -6.1751073    355.16983   0.03899537  0.040159087            1 
  760000    1.1271541   -6.1403661    355.01093  0.038926637  0.040145238            4 
  761000    1.1482318   -6.1149315    356.54089  0.039043023  0.040132364            2 
  762000    1.1100685   -6.1286804    356.61472   0.03899986  0.040119309            5 
  763000    1.1269107    -6.124486    358.02683  0.039102974   0.04010671            7 
  764000    1.1421678   -6.1235293    357.68089  0.039014058  0.040094026            6 
  765000    1.1153218    -6.179605    357.68383   0.03896338  0.040081427            4 
  766000    1.1215445   -6.1099688     359.6462  0.039126001  0.040069208            2 
  767000    1.1392646   -6.1303901    359.58818  0.039068686  0.040056956            2 
  768000    1.1660613   -6.1567972    360.12368   0.03907592  0.040044821            2 
  769000    1.1479444      -6.1678    358.63843  0.038864156  0.040032128            2 
  770000     1.129223   -6.1668644    358.82382  0.038833746  0.040019344            6 
  771000    1.1374624   -6.1729984    359.21605  0.038825772  0.040006356            3 
  772000    1.1085164   -6.1524515    360.61949  0.038926974  0.039993139            4 
  773000    1.1404393    -6.143992     358.8115  0.038681705  0.039979932            3 
  774000     1.135898   -6.1159566    361.74677  0.038947757  0.039966524            3 
  775000    1.1234569   -6.1357842    361.21349   0.03884016  0.039953503            2 
  776000    1.1461793   -6.1380426    361.50725  0.038821655  0.039940459            3 
  777000    1.1254499   -6.1368567    361.85261  0.038808732  0.039927673            2 
  778000    1.1191249   -6.1400032    363.19616  0.038902759  0.039914925            2 
  779000    1.1185376   -6.1814614    362.86574  0.038817473  0.039901981            4 
  780000    1.1319272   -6.1477603    362.79893   0.03876057   0.03988915            3 
  781000     1.124154   -6.1457231     364.1874  0.038859091  0.039876183            3 
  782000    1.1406247   -6.0981508     364.5396  0.038846931  0.039863494            2 
  783000    1.1470166   -6.1820049    363.15963   0.03865045  0.039850326            7 
  784000    1.1242692   -6.1184079    364.18502  0.038710142  0.039837405            3 
  785000     1.099702    -6.112555    366.06493  0.038860396  0.039824769            2 
  786000    1.1418757   -6.1344616    365.58655  0.038760236  0.039811768            4 
  787000    1.1053614   -6.1778128    364.38227  0.038583468  0.039798714            5 
  788000    1.1304229   -6.1674587    365.66957  0.038670639  0.039785607            6 
  789000     1.144496   -6.1462054    367.03585  0.038765933  0.039772581            2 
  790000    1.1373683   -6.1584293    367.58996  0.038775312  0.039759981            7 
  791000      1.13344   -6.1237242    367.89942  0.038758894  0.039747156            6 
  792000    1.1507338   -6.1667408     367.3806  0.038655366  0.039734788            2 
  793000    1.1360031   -6.1354567     368.5038  0.038724653  0.039722063            4 
  794000    1.1332701    -6.176326    368.99651  0.038727593  0.039709625            6 
  795000    1.1384961   -6.1588475    369.01354  0.038680665  0.039696978            2 
  796000    1.1204234   -6.1605001    369.49397  0.038682368  0.039684565            5 
  797000    1.1422924   -6.1230645    370.49613  0.038738617  0.039672266            3 
  798000    1.1269124   -6.1474028    370.01997  0.038640348  0.039660045            4 
  799000    1.1303489   -6.1183454    371.28091  0.038723499  0.039647518            3 
  800000     1.122801    -6.172656    369.90902   0.03853219  0.039634709            4 
  801000    1.1205063   -6.1391825    371.52368  0.038652068  0.039621925            3 
  802000    1.1395903    -6.185867    369.48725  0.038392275  0.039608802            2 
  803000    1.1379787   -6.1732896    370.56191  0.038455989  0.039595809            2 
  804000    1.1342126   -6.1152937    371.52191   0.03850766  0.039583218            4 
  805000    1.1181654   -6.1745325    371.84006   0.03849276  0.039570253            1 
  806000    1.1321534    -6.175419    373.03489  0.038568537  0.039557126            5 
  807000    1.1285982   -6.1689459    372.28456  0.038443264  0.039543927            5 
  808000    1.1118958   -6.1318727    373.95519  0.038567986  0.039530553            3 
  809000    1.1092324   -6.1416301    373.15863   0.03843826  0.039517753            1 
  810000    1.1440033   -6.1620286    373.45635  0.038421435  0.039504606            4 
  811000    1.1155593    -6.131372    372.58311  0.038284331  0.039490994            3 
  812000    1.1539341   -6.1439997    374.41074  0.038424747  0.039477596            3 
  813000    1.1170456   -6.1554872    375.55436  0.038494707  0.039464496            3 
  814000    1.1137627   -6.1737442     372.9443  0.038180211  0.039451398            2 
  815000    1.1249393   -6.1341588    375.51877  0.038396602  0.039438462            3 
  816000    1.1236297   -6.1574653    374.88779   0.03828511  0.039425013            5 
  817000    1.1034172    -6.130311    377.92301  0.038547838  0.039412078            2 
  818000    1.1232866   -6.1689041    375.88286  0.038292875  0.039399436            3 
  819000    1.1249128   -6.1317944    377.80524  0.038441721  0.039386956            2 
  820000    1.1240784   -6.1870832    377.30485  0.038343989  0.039374465            5 
  821000    1.1254333   -6.1975742    377.10871  0.038277376  0.039361337            6 
  822000    1.1163398   -6.1471888    378.46299  0.038368105  0.039348468            5 
  823000    1.1542759   -6.1482533    380.89287  0.038567524  0.039335873            3 
  824000     1.101908   -6.1531613     379.2593  0.038355511  0.039323289            5 
  825000    1.1304684   -6.1259696    381.22918  0.038507998   0.03931109            3 
  826000    1.1255717   -6.1586499    380.78687  0.038416754  0.039298937            2 
  827000    1.1216571    -6.152655    380.97467  0.038389225  0.039286245            3 
  828000    1.1376214   -6.1274366    381.80712  0.038426642  0.039273614            1 
  829000    1.1269219   -6.1195445    381.15522  0.038314758  0.039260978            3 
  830000    1.1253174   -6.0702891     382.7515  0.038428865   0.03924865            4 
  831000    1.1097969   -6.1663674    381.77367  0.038284564  0.039236127            4 
  832000    1.1172194   -6.1237272     380.8484  0.038145874  0.039223183            3 
  833000    1.1098489   -6.1602758    380.99431  0.038114677  0.039210221            2 
  834000    1.1297846   -6.1596938    381.56746  0.038126245  0.039197025            5 
  835000    1.1227061   -6.1773179    381.90419   0.03811419  0.039183818            2 
  836000    1.1156297   -6.1613958    382.51246  0.038129232  0.039170352            5 
  837000    1.1221369   -6.1536332     382.4906  0.038081501  0.039156997            4 
  838000    1.1386848    -6.169142    383.14258  0.038100893  0.039144214            3 
  839000    1.1293043   -6.1744939     383.1218  0.038053416  0.039131069            5 
  840000    1.1149648   -6.1633066    383.41624  0.038037325  0.039117683            3 
  841000    1.1134738   -6.2129537    383.26217   0.03797683  0.039104215            4 
  842000    1.1105914   -6.1794749     384.5602  0.038060194  0.039090972            3 
  843000     1.104205   -6.2178462     384.6575  0.038024663  0.039077869            2 
  844000    1.1191933   -6.1917554    384.10491   0.03792505  0.039064881            2 
  845000     1.105226   -6.1312495    385.86946  0.038054187  0.039051782            5 
  846000    1.1102119   -6.1954519    384.27937  0.037852577  0.039038539            1 
  847000    1.1361056   -6.1935176    386.27287  0.038004021  0.039025452            9 
  848000    1.1182643   -6.1138455    387.09195  0.038039697  0.039012295            9 
  849000    1.1153808   -6.1629311    387.77764  0.038062194   0.03899942            3 
  850000    1.1172326   -6.1807978    388.14609  0.038053538   0.03898621            3 
  851000    1.1126011   -6.1693374    389.34156  0.038125888  0.038973289            4 
  852000    1.0957554   -6.1662142    387.96828  0.037946819  0.038960529            8 
  853000    1.1006113   -6.1473678    389.47546  0.038049576  0.038947261            2 
  854000    1.1259131   -6.1866902    386.51448  0.037716089   0.03893408            3 
  855000    1.1125397   -6.1346617    390.41889  0.038052524  0.038920814            3 
  856000    1.1219837   -6.1877747    389.08856  0.037878559  0.038907727            3 
  857000    1.1164302   -6.2101355    387.73154  0.037702405  0.038894556            3 
  858000     1.127234   -6.1417101    390.11178  0.037889645  0.038881206            3 
  859000     1.123126   -6.1650784    391.55106  0.037985163  0.038867992            4 
  860000    1.0904561   -6.1808866    389.70523  0.037762135  0.038854751            5 
  861000    1.1189401   -6.2021028    390.08288  0.037754828  0.038841247            2 
  862000    1.1059529   -6.1681281    390.20129  0.037722476  0.038828259            2 
  863000    1.0931412   -6.1842593     391.7134  0.037824778   0.03881526            9 
  864000    1.1047835   -6.1792667    391.82014  0.037791294  0.038802054            2 
  865000    1.1121105     -6.17638    392.77613  0.037839704  0.038789225            2 
  866000    1.0796028   -6.2012897    392.76856  0.037795281  0.038776074            3 
  867000    1.1196503   -6.1799698    394.19437  0.037888732  0.038762939            2 
  868000    1.0939634   -6.1575476    392.51684  0.037684028  0.038749835            2 
  869000      1.12275   -6.2079567    393.15491  0.037701852  0.038736945            5 
  870000    1.1119256   -6.1612571    394.14575  0.037753424  0.038724337            5 
  871000    1.0807159   -6.1562581    395.66467  0.037855402  0.038711545            3 
  872000    1.0974817   -6.1665959    395.12085   0.03776002   0.03869884            2 
  873000     1.102339   -6.1726569    393.75531  0.037586418  0.038685701            1 
  874000    1.1257802   -6.2225511    395.17887  0.037679144  0.038672759            2 
  875000    1.1000914   -6.1734284    395.81438  0.037696608  0.038659734            3 
  876000    1.1243006   -6.1834149    396.77428   0.03774489  0.038647084            3 
  877000    1.0991361   -6.1749569    398.16113  0.037833631  0.038634027            7 
  878000     1.119695   -6.1928212    396.79647  0.037661016   0.03862128            3 
  879000    1.1164343   -6.1994212    396.21802  0.037563332   0.03860808            7 
  880000    1.0945938   -6.1680042    397.77039  0.037667651  0.038594565            2 
  881000    1.0909018   -6.1836094    397.21592  0.037572448  0.038581171            3 
  882000    1.1221533   -6.1950114    397.73236  0.037578643  0.038567417            3 
  883000    1.1057237   -6.1444632    398.79433  0.037636309  0.038553908            3 
  884000    1.1234157   -6.1840841    398.92073   0.03760565  0.038540421            2 
  885000    1.1208579   -6.2157096    397.14498  0.037395949  0.038527157            3 
  886000    1.1053587   -6.2014969    397.81573  0.037416829  0.038513626            8 
  887000    1.1203178    -6.214623    398.85165   0.03747197  0.038500087            3 
  888000    1.1062377   -6.1782918    399.65369  0.037505039  0.038486843            5 
  889000    1.1308079   -6.1871777    400.69511  0.037560471  0.038473624            5 
  890000    1.1276885   -6.1738221    399.35946  0.037393208  0.038460103            2 
  891000    1.1093091   -6.2112239    400.46008  0.037454179  0.038446748            2 
  892000    1.1040479   -6.1884455    402.40783  0.037594154  0.038433571            2 
  893000    1.1114317   -6.1734187    402.94387  0.037602078  0.038420933            2 
  894000    1.1128537   -6.1600331    403.42297  0.037604677  0.038407861            5 
  895000    1.0852766   -6.1786515     401.3637  0.037370922   0.03839468            4 
  896000    1.1254821   -6.1740696    402.45981  0.037431158  0.038381093            3 
  897000    1.1015846   -6.2469084     400.7401  0.037229664   0.03836735            6 
  898000    1.1044421   -6.1757767    402.70543  0.037370586  0.038353232            2 
  899000    1.1216665   -6.1800038    402.92953   0.03734979  0.038339547            2 
  900000    1.1055344   -6.1764139    403.08233  0.037322438  0.038325982            2 
  901000    1.1327152   -6.2239207    402.60939  0.037237272  0.038312289            8 
  902000    1.1116905   -6.1591595    405.04681  0.037421176  0.038298996            1 
  903000    1.1205187   -6.1971255    403.97257  0.037280599  0.038285443            7 
  904000    1.1116935   -6.1810627    406.36905  0.037460273  0.038272048            2 
  905000    1.1189165     -6.22033    403.63467  0.037167097  0.038258669            6 
  906000    1.1242488   -6.2052564    406.15158  0.037357577  0.038245636            2 
  907000     1.122385   -6.1953181    405.95113  0.037297972  0.038232687            5 
  908000    1.1080899    -6.159833    407.83657  0.037429935  0.038219783            8 
  909000    1.1177414   -6.2461023    405.74717   0.03719721   0.03820705            5 
  910000    1.1126105   -6.2399711    407.34189  0.037302371  0.038193862            2 
  911000    1.0951021   -6.1785954    408.55877  0.037372738  0.038181047            2 
  912000    1.1154444   -6.1745687    407.63397  0.037247256  0.038168412            3 
  913000    1.1248412   -6.1595641    410.00882  0.037423222  0.038155818            2 
  914000    1.0982365   -6.1855046    408.48237  0.037243104   0.03814336            4 
  915000    1.1091968   -6.2431244    408.38962  0.037193955   0.03813073            4 
  916000    1.0984535   -6.1923367     410.0338  0.037302929  0.038117768            2 
  917000     1.109984   -6.2042452    409.02717  0.037170772  0.038104759            3 
  918000       1.1056   -6.1885726    411.44174  0.037349468  0.038092071            5 
  919000    1.1305291   -6.1925657    410.92703  0.037262153  0.038079282            4 
  920000    1.1112705   -6.1959975    410.32985  0.037167559  0.038066507            1 
  921000    1.1076775   -6.2207217    409.80286  0.037079521  0.038053476            5 
  922000    1.0914548   -6.1749851    412.37216  0.037271526  0.038040427            4 
  923000    1.1092584   -6.2150133    412.26861  0.037221796  0.038027554            2 
  924000    1.1069613   -6.1811473    412.65473  0.037216336  0.038014823            6 
  925000    1.0928755   -6.2329707    411.34218  0.037057854  0.038001823            8 
  926000    1.0995021   -6.2133369    411.24916  0.037009464  0.037988723            4 
  927000    1.0963055   -6.2379527    411.93452  0.037031151  0.037975707            3 
  928000    1.1088378   -6.1793981    413.93525  0.037170909  0.037962851            2 
  929000     1.086551   -6.2333309    410.62213  0.036833704  0.037949794            4 
  930000     1.089053   -6.1859725    413.92651  0.037090189  0.037936643            4 
  931000    1.1089939   -6.2022109    414.81872  0.037130211  0.037923954            2 
  932000    1.1208093   -6.2115556    412.86443  0.036915632  0.037911144            4 
  933000    1.1085104   -6.2127605    413.81339  0.036960825  0.037898321            5 
  934000    1.0980804   -6.1995246     414.5432  0.036986367  0.037885769            2 
  935000     1.103956   -6.2076794     416.4517  0.037116907  0.037873413            9 
  936000    1.0958663   -6.2432734    415.50922  0.036993342  0.037861076            3 
  937000    1.1042386   -6.1803869    416.32661  0.037026557  0.037848018            3 
  938000     1.085209   -6.2232538    416.42618   0.03699593  0.037835282            5 
  939000     1.115052   -6.2108993    415.74113  0.036895734  0.037822247            2 
  940000    1.0928865   -6.2244793    415.55166  0.036839686  0.037809309            2 
  941000    1.1011132   -6.2119296    415.48569  0.036794695  0.037796137            6 
  942000    1.0772212    -6.175436    417.95833  0.036974375   0.03778266            4 
  943000       1.0763   -6.2632503     416.5037  0.036806619  0.037769302            2 
  944000    1.1023818   -6.2135142     417.7522  0.036877843  0.037755453           10 
  945000    1.1012834    -6.237446    417.29189  0.036798226  0.037741824            4 
  946000    1.0799512   -6.1962491    416.58194  0.036696788  0.037728026            2 
  947000    1.0724321   -6.1973126    417.27593  0.036719107    0.0377144            2 
  948000    1.1159863   -6.2492973    417.91919  0.036736919  0.037700287            5 
  949000    1.0838074   -6.2600815    416.71598  0.036592552  0.037686073            4 
  950000    1.1035966   -6.2604809    417.37305  0.036611671  0.037672169            8 
  951000    1.1036427   -6.2052711    418.56515  0.036677633  0.037658714            4 
  952000    1.1094049   -6.2275897    418.60241  0.036642367  0.037645247            4 
  953000    1.1123488   -6.2302416    419.16945  0.036653502  0.037631433            2 
  954000    1.0744894    -6.234544    418.11991  0.036523402  0.037617729            3 
  955000    1.0864154   -6.2231075    419.49399   0.03660506  0.037604068            2 
  956000    1.0971924   -6.2563925    420.21402  0.036629534  0.037590478            1 
  957000    1.0865255   -6.1943087    422.08906  0.036754533  0.037577132            2 
  958000    1.1026437   -6.1908056    422.29424  0.036734015   0.03756433            3 
  959000    1.1300151   -6.1669423    423.98986  0.036843053  0.037551393            4 
  960000     1.110933   -6.2161837    423.55001  0.036766494   0.03753842            3 
  961000    1.1131653   -6.2199176    423.46456  0.036720826  0.037525539            3 
  962000    1.0674183   -6.1985271    423.21969  0.036661442  0.037512559            5 
  963000    1.0880583   -6.1950658    423.32453  0.036632444  0.037499768            2 
  964000    1.0980288   -6.2348294    423.47616  0.036607552  0.037487281            5 
  965000    1.0939735   -6.2486765    422.59841  0.036493818  0.037474499            6 
  966000    1.0915305   -6.2479315    424.78331  0.036644523  0.037461813            7 
  967000    1.1017312   -6.1936912    425.61183  0.036678028   0.03744911            3 
  968000     1.119165   -6.2096477    426.41952   0.03670967  0.037436585            3 
  969000    1.0944869   -6.2173017    426.71107  0.036696859  0.037423984            4 
  970000    1.1003115   -6.2181345    426.66798  0.036655325  0.037411479            4 
  971000    1.0806365   -6.2129279    427.15615   0.03665947  0.037399146            2 
  972000    1.1171513   -6.2229479    426.83103  0.036593881   0.03738696            4 
  973000    1.1110059   -6.2236782    429.09622  0.036750275  0.037374739            4 
  974000    1.0940664     -6.23008    427.75682  0.036597948  0.037362614            4 
  975000    1.1204143   -6.2225437    428.02025  0.036582928  0.037350297            2 
  976000    1.0825505   -6.2160737     428.9206  0.036622319  0.037338158            4 
  977000    1.1008108   -6.1961377    429.85443  0.036664485  0.037326051            3 
  978000    1.0700505   -6.2010112    429.91764  0.036632382  0.037313951            2 
  979000    1.0881554   -6.2079146    429.27708   0.03654044  0.037301733            4 
  980000    1.0957788   -6.1834264    430.15596  0.036577888  0.037289708            1 
  981000    1.0693515   -6.2060061    430.32755  0.036555177  0.037277804            2 
  982000    1.1058866   -6.2340919    430.18175   0.03650558  0.037265382            5 
  983000    1.1050018   -6.2137078    429.22778   0.03638757  0.037252507            5 
  984000    1.1162406   -6.2218415    431.79159  0.036567716  0.037239896            2 
  985000    1.0869169   -6.2656612     430.0977  0.036387285  0.037227198            4 
  986000    1.1166776   -6.2256786    430.99037  0.036425825  0.037214488            1 
  987000    1.0797109   -6.2383634    431.77603  0.036455254  0.037201973            3 
  988000    1.1195602    -6.235521     432.3403  0.036465949  0.037189711            2 
  989000    1.0907684   -6.2236536    432.43208  0.036436812  0.037177335            4 
  990000    1.0957279   -6.2738497    432.01091  0.036364554  0.037165147            4 
  991000    1.0818943    -6.215727    433.56151   0.03645825   0.03715283            2 
  992000    1.0849622   -6.2255154    434.52322  0.036502286  0.037140821            6 
  993000    1.0724447    -6.188781    435.37238  0.036536789  0.037128715            2 
  994000    1.0717871    -6.205804    434.33522   0.03641308  0.037116693            4 
  995000    1.1027896   -6.2352503    434.67282  0.036404759  0.037104726            5 
  996000    1.0853786   -6.1884613    434.70706  0.036371073  0.037092564            4 
  997000    1.0956908   -6.2226491    435.81547  0.036427237  0.037080021            3 
  998000    1.0839694   -6.2068246     435.4002  0.036356062  0.037067948            2 
  999000    1.0901647   -6.2227758      435.156  0.036299299  0.037055802            3 
 1000000    1.0853174   -6.2496703    434.60449  0.036217041   0.03704373            4 
 1001000    1.0861303   -6.2180398    437.29117  0.036404526  0.037031492            4 
 1002000    1.1193639   -6.2298971    436.61341  0.036311827  0.037019322            3 
 1003000    1.0871191   -6.1901713    439.21209  0.036491533   0.03700753            3 
 1004000     1.073778   -6.1749165    438.70388  0.036413005   0.03699577            2 
 1005000    1.0967581   -6.2278541    437.35031  0.036264537  0.036983914            2 
 1006000    1.0833336   -6.2087462    437.96178   0.03627914  0.036972097            3 
 1007000    1.1208398    -6.222682    438.71129  0.036305138  0.036960364            4 
 1008000    1.0864171   -6.2521961     437.5655  0.036174397   0.03694849            2 
 1009000    1.1068038   -6.2365143     438.9474  0.036252676  0.036936504            3 
 1010000    1.0925609    -6.205929    439.68168  0.036277366  0.036924254            4 
 1011000    1.0957252   -6.2706521    438.66041  0.036157304  0.036912185            3 
 1012000    1.1254527   -6.2222193     441.5516  0.036359651  0.036899892            3 
 1013000    1.0859497   -6.1883948    441.84818  0.036348155  0.036887865            4 
 1014000    1.0988664   -6.1922609     441.4815  0.036282174  0.036876064            2 
 1015000    1.1061591   -6.2628478    439.93722   0.03611964  0.036864035            3 
 1016000     1.079034   -6.2428034    440.96609  0.036168479  0.036851684            3 
 1017000    1.0925915   -6.2441833    443.65469   0.03635322   0.03683967            5 
 1018000    1.0999717   -6.2393686    443.04336  0.036267465  0.036827877            4 
 1019000    1.1069791    -6.219056    443.96945   0.03630761  0.036816376            5 
 1020000    1.0846788   -6.1954106    443.59673  0.036241563  0.036804902            5 
 1021000    1.0553822    -6.227962    444.55954  0.036284651  0.036793898            1 
 1022000    1.0923412   -6.2562688     444.0094  0.036204289  0.036782724            4 
 1023000    1.0826123   -6.1736272    444.63964  0.036220238  0.036771517            4 
 1024000    1.0623903   -6.2302385    444.88582  0.036204901  0.036760343            1 
 1025000    1.1134065   -6.2542158    445.26297  0.036200242  0.036749199            4 
 1026000    1.1098036   -6.2531557    446.56799  0.036270954  0.036738219            3 
 1027000    1.0838406   -6.2591554    447.78685  0.036334538  0.036727671            4 
 1028000    1.0713211   -6.1784195    448.94057  0.036392718  0.036717488            5 
 1029000    1.1031296   -6.2636869    449.07336  0.036368105  0.036707276            2 
 1030000    1.0821854   -6.2086191    449.84094  0.036394898  0.036696939            2 
 1031000    1.0765099   -6.2153991    449.76428  0.036353401  0.036686648            2 
 1032000    1.0695346   -6.2351511    450.23377  0.036356086  0.036676147            2 
 1033000     1.081751   -6.2577879    449.84824  0.036289791  0.036665611            3 
 1034000    1.0769162   -6.2458243    449.64862  0.036238606  0.036654969            3 
 1035000    1.0943182   -6.2749904    448.43041  0.036105508  0.036644191            2 
 1036000    1.0579115   -6.2368807    449.14648  0.036128256  0.036633148            5 
 1037000    1.0863862   -6.2306969    451.17076  0.036256088  0.036622672            4 
 1038000    1.0920401    -6.226113     450.1331  0.036137853  0.036612164            3 
 1039000    1.1003442   -6.2550738    451.06094   0.03617749  0.036601733            2 
 1040000    1.0785907   -6.2055588    452.77517  0.036280062  0.036591256            1 
 1041000    1.1036249   -6.2269657    451.10442  0.036111465  0.036581057            2 
 1042000    1.0569314   -6.2424994    452.54581  0.036192083  0.036570591            3 
 1043000    1.0726053   -6.2388533    453.33176  0.036220179  0.036560048            5 
 1044000    1.0691411   -6.2266334    452.94115  0.036154306  0.036549728            3 
 1045000    1.0922358   -6.2288339    453.89965  0.036196144  0.036539043            2 
 1046000    1.0609505   -6.2461593      453.068  0.036095283  0.036528355            4 
 1047000    1.0979712   -6.2804597    452.35234  0.036003847  0.036517764            3 
 1048000    1.0760602   -6.2237326    456.25308  0.036279666  0.036507325            3 
 1049000    1.0893594   -6.2044957    455.97856  0.036223273  0.036497083            3 
 1050000    1.0749532   -6.2384159    456.57103  0.036235796  0.036487145            3 
 1051000    1.0970774    -6.265557    455.88221  0.036146702  0.036477117            8 
 1052000    1.0784908   -6.2598589    456.12648  0.036131692  0.036466955            3 
 1053000    1.0729179   -6.2567969    456.03847  0.036090414  0.036456973            4 
 1054000    1.0805617   -6.2456999     456.1562   0.03606548  0.036446865            5 
 1055000    1.0533811   -6.2677038    457.85053  0.036165129  0.036436626            1 
 1056000    1.0869063   -6.2473524     457.1914  0.036078866  0.036426413            3 
 1057000    1.0606031   -6.1978002    458.76834  0.036169059  0.036416642            3 
 1058000    1.0857233    -6.239714    458.37682  0.036104035  0.036406743            1 
 1059000    1.0935909   -6.2708142    458.03106  0.036042734  0.036396739            1 
 1060000    1.0610192   -6.2525021     458.8092  0.036069906  0.036386215            4 
 1061000      1.06675   -6.2479312    459.18879  0.036065724  0.036375971            2 
 1062000    1.0808337   -6.2357759    460.69728  0.036150132  0.036365932            3 
 1063000    1.0851401   -6.2604333    459.31469  0.036007737  0.036356032            3 
 1064000    1.0815252   -6.2086044    460.74205  0.036085687   0.03634607            5 
 1065000    1.1035957   -6.2421193    460.22426  0.036011288  0.036336159            2 
 1066000    1.0730162   -6.2714154    459.84506  0.035947863  0.036326151            3 
 1067000    1.1141614   -6.2417076    459.81537  0.035911853  0.036315869            1 
 1068000    1.0827737    -6.239801    461.23685  0.035989142  0.036305913            3 
 1069000    1.0501943   -6.2282114    462.50239  0.036054131  0.036295995            8 
 1070000    1.0978782   -6.2623205    462.00863  0.035981981  0.036286113            2 
 1071000    1.0819394    -6.278833    463.39909  0.036056574  0.036276133            3 
 1072000    1.0721372    -6.241824    462.71879  0.035970055  0.036266035            1 
 1073000    1.0653132   -6.2901267    462.39874  0.035911676  0.036255926            3 
 1074000    1.0733841   -6.2677566    462.90625  0.035917617  0.036245532            7 
 1075000    1.1047989   -6.2595793    463.71053  0.035946552  0.036235424            3 
 1076000    1.0943277   -6.2534746    463.94691  0.035931452  0.036225446            2 
 1077000    1.0772027   -6.2787994    463.49167  0.035862865  0.036215522            2 
 1078000    1.0859099   -6.2308621    465.63168  0.035995028  0.036205922            1 
 1079000    1.0862942   -6.2445109    466.57053  0.036034178  0.036196283           12 
 1080000     1.102108   -6.2714687    466.36623  0.035985049    0.0361866            4 
 1081000    1.0865895   -6.2963047    464.62411  0.035817461  0.036176606            3 
 1082000    1.0678774   -6.2483067    466.16285  0.035902869  0.036166896            2 
 1083000     1.080147   -6.2546931    465.98953  0.035856381  0.036157359            2 
 1084000    1.0590209   -6.2724659    466.32014  0.035848719  0.036147562            3 
 1085000    1.0758369   -6.2844024    466.78371  0.035851283  0.036137859            4 
 1086000    1.0831816   -6.2355886    469.65195  0.036038363  0.036128455            2 
 1087000    1.0796867   -6.2473266    470.05574  0.036036165  0.036119156            6 
 1088000    1.0656289   -6.2449465    469.38015  0.035951298  0.036109987            2 
 1089000    1.0888244   -6.2554249    469.96767  0.035963244  0.036100863            2 
 1090000    1.1080361   -6.2862668    470.76841  0.035991468  0.036091563            7 
 1091000    1.0687552   -6.3046699    470.01817  0.035901174  0.036082243            3 
 1092000    1.0783427    -6.317404    470.21994  0.035883695  0.036073013            4 
 1093000    1.0753224   -6.2966154    470.95449  0.035906869  0.036064135            3 
 1094000    1.0528463    -6.294113    471.79976  0.035938434  0.036055204            2 
 1095000    1.0868179   -6.2579663     471.7667  0.035903098  0.036046201            4 
 1096000    1.0855525   -6.2853944    471.58676  0.035856657  0.036036623            2 
 1097000      1.09913   -6.2766506    472.90057  0.035923774  0.036027357            3 
 1098000    1.0897914   -6.2573773    471.28861  0.035768717  0.036018094            2 
 1099000    1.0642976    -6.249475    473.07753  0.035871817   0.03600862            3 
 1100000    1.0717816   -6.2950498    470.54257  0.035647164  0.035998863            3 
 1101000    1.0754984   -6.2756012    472.18022  0.035738739  0.035989362            4 
 1102000    1.0815492   -6.2673495    475.57298  0.035962869  0.035979979            3 
 1103000    1.1046419   -6.2949329    472.96296  0.035733073   0.03597075            2 
 1104000    1.0722452   -6.2962838    474.28848  0.035800761  0.035961196            2 
 1105000    1.0838501   -6.2723746    474.92768  0.035816567  0.035952011            4 
 1106000    1.0797799    -6.272188    475.55968  0.035831802  0.035942817            6 
 1107000    1.0627743   -6.2736034    475.31062  0.035780685  0.035933621            3 
 1108000    1.0557543   -6.2460451    477.21925  0.035891941  0.035924472            5 
 1109000    1.0443266    -6.277045    475.54575  0.035733826  0.035915388            5 
 1110000    1.0919154   -6.2585477    478.74425   0.03594176  0.035906434            2 
 1111000    1.0618634   -6.3236589    475.90794  0.035696665  0.035897494            3 
 1112000    1.0731534   -6.3171525    476.44919  0.035705125  0.035888185            4 
 1113000    1.0541414   -6.2656883    478.13764  0.035799464  0.035879179            4 
 1114000    1.0491354   -6.2619065    477.73519  0.035737223   0.03587009            4 
 1115000    1.0854753   -6.2584117    478.68179  0.035775918  0.035861448            7 
 1116000    1.0706379   -6.2181842    480.61087  0.035887909  0.035852871            3 
 1117000    1.0836854   -6.2769348    478.58361  0.035704537  0.035844077            6 
 1118000    1.0709387   -6.2626926     482.2411  0.035945222  0.035835413            4 
 1119000    1.0782837   -6.2611791    482.52597  0.035934314  0.035826737            4 
 1120000    1.0960399   -6.2326428    481.52873  0.035828031  0.035818604            1 
 1121000    1.0961897   -6.2730886    479.90462  0.035675336  0.035810244            2 
 1122000    1.0964424   -6.2825537    481.08163  0.035730959  0.035801547            2 
 1123000    1.0862053   -6.2697757    482.55007  0.035808109  0.035792782            4 
 1124000    1.0827942   -6.2828043    481.75679  0.035717437  0.035783927            5 
 1125000     1.055554   -6.2770002    482.12009  0.035712599  0.035775158            3 
 1126000    1.0737582   -6.2883532    481.84224   0.03566032  0.035766136            3 
 1127000    1.0724538   -6.2850774    483.92114  0.035782397  0.035757274            7 
 1128000    1.0421389   -6.2809907    481.14429   0.03554553  0.035748229            6 
 1129000    1.0647419   -6.2303276    484.51169  0.035762599  0.035739635            2 
 1130000    1.0841556   -6.2492539    484.43666  0.035725417  0.035731163            1 
 1131000    1.0750236   -6.2814008    482.74591  0.035569253  0.035722133            3 
 1132000    1.0787797   -6.2680018    484.03521  0.035632745  0.035713257            7 
 1133000    1.0791013   -6.2416308    486.16044  0.035757608  0.035704203            3 
 1134000    1.0621209   -6.2803549    484.97732  0.035639133  0.035695582            4 
 1135000    1.0874173   -6.2441903    486.27459   0.03570298  0.035687069            4 
 1136000    1.0965929   -6.2580626    487.56505  0.035766216  0.035678794            2 
 1137000    1.0685022   -6.2663183    486.63108  0.035666306  0.035670437            2 
 1138000    1.0686086   -6.2879926    486.00028  0.035588773  0.035662003            3 
 1139000    1.0808056   -6.3123983    487.44511  0.035663236  0.035653357            4 
 1140000    1.0496539   -6.2739877    487.66995  0.035648388  0.035644955            7 
 1141000    1.0569497   -6.3428112    486.59497  0.035538633  0.035636299            4 
 1142000     1.062679   -6.2775939    487.71336  0.035589124  0.035627677            3 
 1143000    1.0390458   -6.2774002    487.77434  0.035562434  0.035619054            5 
 1144000    1.0762797   -6.2690087    488.16533  0.035559829  0.035610544            3 
 1145000    1.0522004   -6.2714814    487.91121  0.035510277  0.035602277            2 
 1146000    1.0463687   -6.3025982    489.11351  0.035566718  0.035593853            3 
 1147000    1.0559898   -6.2645713    490.21464   0.03561571  0.035585386            4 
 1148000     1.069624   -6.2950274     489.6205  0.035541558  0.035576741            4 
 1149000     1.094431   -6.2778223    490.06968  0.035543203  0.035568472            4 
 1150000     1.076325   -6.2859801    489.82619  0.035494651  0.035560091            4 
 1151000    1.0596317   -6.2933666    489.77121  0.035459833  0.035551365            5 
 1152000     1.080259   -6.3296404    490.21288  0.035461001  0.035542833            3 
 1153000    1.1050823   -6.2629606    493.70176  0.035682405  0.035534172            3 
 1154000     1.077723   -6.2656996    491.77757  0.035512534  0.035525706            2 
 1155000    1.0647091   -6.3082139     490.7928  0.035410736  0.035516824            4 
 1156000    1.0760517   -6.2887169    490.07053  0.035328037  0.035507938            2 
 1157000    1.0621082   -6.2670499     493.1591  0.035519958  0.035499012            5 
 1158000    1.0679787   -6.2865566    493.05585  0.035481855  0.035490418            3 
 1159000    1.0678402   -6.3085213    494.26624  0.035538269  0.035481901            7 
 1160000     1.045501   -6.3188881    494.14515  0.035498933  0.035473577            3 
 1161000    1.0782964   -6.3416622    493.22606  0.035402388  0.035465181            3 
 1162000     1.080145   -6.3090093    494.48708  0.035462355  0.035456814            4 
 1163000    1.0837419   -6.2838555     495.9283  0.035535132  0.035448447            3 
 1164000    1.0635742   -6.3203681    495.39638  0.035466522  0.035440122            4 
 1165000    1.0605874    -6.309756     495.0554  0.035411688  0.035431912            3 
 1166000    1.0634794   -6.2767332    495.13478  0.035386991  0.035423746            3 
 1167000    1.0630012   -6.2934025    496.78325  0.035474383  0.035415367            5 
 1168000    1.0559497   -6.2933406    497.25275  0.035477508  0.035407052            5 
 1169000     1.073794   -6.2844261    495.69867  0.035336375  0.035398785            2 
 1170000    1.0791069   -6.2587583    498.39257  0.035498047  0.035390503            3 
 1171000    1.0707646   -6.3553929    494.91018   0.03521991  0.035382201            5 
 1172000    1.0727509   -6.3402098     496.3501  0.035292242   0.03537355            2 
 1173000    1.0894587   -6.3186676     496.5232  0.035274453  0.035364951            2 
 1174000    1.0476946   -6.2804433    498.28944  0.035369779  0.035356502            4 
 1175000    1.0295185   -6.2994561    500.09691  0.035467866  0.035348026            6 
 1176000    1.0580908   -6.2873229     500.4629  0.035463641  0.035339613            3 
 1177000    1.0605762   -6.3268663    497.89947  0.035252016  0.035331198            5 
 1178000    1.0738859   -6.2909108     499.7453  0.035352667  0.035322413            5 
 1179000    1.0615229   -6.3462162    499.73778   0.03532215  0.035313869            3 
 1180000    1.0700995   -6.3385911     498.7341  0.035221335  0.035305399            4 
 1181000    1.0623677   -6.3228767    498.49244  0.035174459  0.035297004            5 
 1182000    1.0539771   -6.2490841    501.30119  0.035342724  0.035288407            3 
 1183000    1.0942536   -6.3015575     501.3214  0.035314271  0.035280258            4 
 1184000    1.0657992   -6.2945332    502.13734  0.035341873  0.035272072            2 
 1185000    1.0770039   -6.3412618    502.05101  0.035305978   0.03526364            8 
 1186000    1.0684392   -6.3152325    500.87315  0.035193448  0.035255287            5 
 1187000    1.0877296     -6.32407    501.58173  0.035213545  0.035246987            4 
 1188000     1.046103   -6.3448761    502.68109  0.035261019  0.035238578            1 
 1189000     1.070548   -6.3064875    501.49302  0.035148095  0.035229809            4 
 1190000    1.0547189   -6.2969888    501.54534  0.035122223  0.035221175            2 
 1191000    1.0325036   -6.3055957      502.716  0.035174643  0.035212678            4 
 1192000    1.0672229   -6.2746454    505.37232  0.035330839  0.035204244            3 
 1193000    1.0696771   -6.3130747    503.66384  0.035181884  0.035195886            3 
 1194000    1.0565492   -6.3068594    503.75655  0.035158888  0.035187247            4 
 1195000    1.0711294   -6.3366752    503.72949  0.035127579  0.035178683            4 
 1196000    1.0444344   -6.3295056    505.12561  0.035195486   0.03516997            3 
 1197000    1.0617373   -6.3200034     504.3983  0.035115449  0.035161526            3 
 1198000    1.0754245   -6.2720628      505.954  0.035194352  0.035153052            4 
 1199000    1.0495139    -6.283496    506.52063  0.035204381  0.035144652            4 
 1200000    1.0736563   -6.2845889    505.43745  0.035099823  0.035136036            3 
 1201000    1.0744902   -6.2820423    507.25492  0.035196705  0.035127604            2 
 1202000    1.0514834    -6.265884    508.85536  0.035278381  0.035119158            5 
 1203000    1.0693749   -6.3241657    505.89877  0.035044249  0.035110531            2 
 1204000    1.0631758   -6.2809413    506.90343  0.035084678    0.0351018            3 
 1205000    1.0760116   -6.3321275    509.00095  0.035200619   0.03509313            3 
 1206000    1.0563517   -6.3124975    508.04146  0.035105131  0.035084621            3 
 1207000    1.0664207     -6.32112    508.26193  0.035091268  0.035076264            4 
 1208000    1.0853796   -6.2918396    508.99557  0.035112829  0.035067875            5 
 1209000    1.0781832   -6.3262954    506.99099  0.034945615  0.035059565            2 
 1210000    1.0512992   -6.3067141    509.33122  0.035077908  0.035051425            4 
 1211000    1.0669864   -6.3338072    508.57925  0.034997196  0.035043195            3 
 1212000    1.0526476   -6.3133955    510.18461    0.0350787   0.03503474            4 
 1213000     1.053352   -6.3481905    508.95782    0.0349655  0.035026044            2 
 1214000    1.0485693    -6.332345    508.65814  0.034916127  0.035017208            2 
 1215000    1.0554182   -6.2986245    510.10257  0.034986459  0.035008578            3 
 1216000    1.0903514   -6.3119358    511.36796  0.035044405  0.035000118            3 
 1217000    1.0477349   -6.3413606    510.16694   0.03493337  0.034991653            2 
 1218000    1.0683908   -6.2804339    512.97883  0.035097074  0.034983284            4 
 1219000    1.0563881   -6.2981515    513.88796  0.035130432  0.034975301            3 
 1220000    1.0688285   -6.3061801    513.62162  0.035083444  0.034967483            5 
 1221000    1.0621912   -6.3214199    512.70644  0.034992249  0.034959238            3 
 1222000    1.0843018   -6.3250085    513.35821  0.035008061  0.034951092            4 
 1223000    1.0499597   -6.3213174    514.06215  0.035027402  0.034942987            4 
 1224000    1.0478641   -6.2957984    514.95947  0.035059876  0.034934969            6 
 1225000    1.0513161   -6.2843256    516.20016  0.035115657   0.03492712            2 
 1226000    1.0541744   -6.3018503    515.04877  0.035008752  0.034919191            5 
 1227000    1.0677588   -6.2876237    516.76086  0.035096499  0.034911401            3 
 1228000    1.0459047   -6.2985638    517.36886  0.035109179  0.034903484            4 
 1229000    1.0599436   -6.3326193    516.73673   0.03503775    0.0348954            4 
 1230000    1.0620898   -6.3409425    515.35457  0.034915621  0.034887333            3 
 1231000    1.0706141   -6.2865721    518.00432  0.035066634  0.034879296            5 
 1232000    1.0651795   -6.3397946    516.86161  0.034960877  0.034871238            6 
 1233000    1.0624776   -6.3346991    516.71687  0.034922741  0.034863037            3 
 1234000    1.0457318   -6.3287655    518.32031  0.035002722  0.034855252            9 
 1235000    1.0525314   -6.3548323    518.96197  0.035017677  0.034847316            4 
 1236000    1.0638843   -6.3244339    518.84073  0.034981171  0.034839296            2 
 1237000    1.0807822   -6.3411308    516.87426  0.034820416  0.034831196            5 
 1238000    1.0720254   -6.3228056    518.75918   0.03491917  0.034823076            3 
 1239000    1.0422992   -6.3288492    517.99112  0.034839327  0.034814874            4 
 1240000    1.0567345   -6.2774883    520.20473  0.034959996   0.03480676            3 
 1241000    1.0674431   -6.3283517    519.26936  0.034869014  0.034798941            4 
 1242000    1.0530245    -6.311061    519.62715  0.034864946  0.034790985            6 
 1243000    1.0603493   -6.3384812    520.25449  0.034878955   0.03478302            6 
 1244000    1.0781294   -6.3319856     521.9938   0.03496743  0.034774912            4 
 1245000    1.0566229   -6.3053994    523.56778  0.035044697  0.034767149            2 
 1246000    1.0457383   -6.3352024    522.65526  0.034955542  0.034759343            2 
 1247000    1.0682395   -6.3052307     521.2942  0.034836555  0.034751656            6 
 1248000    1.0721914   -6.2995222    523.69527  0.034968968  0.034743931            5 
 1249000     1.053129   -6.3172937    522.64865   0.03487114  0.034736065            6 
 1250000    1.0444939   -6.3379249    520.70672  0.034713782  0.034727969            3 
 1251000    1.0279872   -6.2932951    524.08067  0.034910783  0.034720134            2 
 1252000    1.0427809   -6.3077821    524.32332  0.034899049  0.034712096            2 
 1253000    1.0664925   -6.3356379    524.04358  0.034852592   0.03470402            5 
 1254000    1.0474886   -6.3395563    523.96119  0.034819324  0.034696127            3 
 1255000    1.0620189   -6.2864332    525.33747  0.034882966  0.034688215            6 
 1256000    1.0292625   -6.3534052    523.81944  0.034754475  0.034680154           10 
 1257000    1.0615742    -6.327758    524.58162  0.034777354   0.03467197            4 
 1258000    1.0421691   -6.3096419    525.90819  0.034837585  0.034664051            3 
 1259000    1.0512126   -6.3349522     524.4975  0.034716541  0.034655802            1 
 1260000    1.0464836   -6.2804783    527.52421  0.034889167  0.034647731            2 
 1261000    1.0496001    -6.335336    525.95154   0.03475757   0.03463975            3 
 1262000    1.0341589   -6.3725632    524.49384  0.034633772  0.034631579            8 
 1263000    1.0583769   -6.3198589    524.94913   0.03463639  0.034623447            6 
 1264000    1.0541878   -6.3240739    526.13003  0.034686842  0.034615172            5 
 1265000    1.0643304   -6.3168135    526.35775  0.034674423  0.034606925            5 
 1266000    1.0472187   -6.3092428    526.22011  0.034637975  0.034598802            2 
 1267000    1.0480329   -6.3344429    524.79591  0.034516963  0.034590324            3 
 1268000    1.0578524   -6.2989843    527.62113  0.034675416   0.03458201            7 
 1269000    1.0471801    -6.310431    526.57189  0.034579189  0.034573572            3 
 1270000    1.0619594   -6.3260045    526.41683  0.034541786  0.034565132            3 
 1271000    1.0525041   -6.3457403    527.82343  0.034606834  0.034556857            3 
 1272000    1.0367635   -6.3149588    527.92476  0.034586265  0.034548597            3 
 1273000    1.0453011   -6.3408372    527.95273  0.034560928  0.034540395            5 
 1274000    1.0431576   -6.2960523    529.75311  0.034651564  0.034532177            6 
 1275000    1.0403191   -6.3428594    528.24949  0.034526111  0.034523901            6 
 1276000    1.0359801   -6.3243515    528.49547  0.034515117  0.034515531            6 
 1277000     1.045928   -6.3659643    529.35454  0.034544149  0.034507344            3 
 1278000    1.0343604    -6.347354    530.24249  0.034575019  0.034498937            8 
 1279000      1.04037   -6.3431025    529.89548  0.034525377  0.034490571            3 
 1280000    1.0421106   -6.3241175    530.17723  0.034516747  0.034482247            3 
 1281000    1.0651682   -6.3388181      530.395  0.034503968  0.034473851            4 
 1282000    1.0580292   -6.3185805    530.71377  0.034497775  0.034465489            3 
 1283000      1.03197   -6.3554363    530.91192  0.034483757  0.034457088            6 
 1284000    1.0671784   -6.3335599    531.28677  0.034481229  0.034448695            2 
 1285000    1.0497883   -6.3079472    532.58042  0.034538289  0.034440859            3 
 1286000    1.0612152   -6.3374992    530.77112  0.034394189    0.0344326            2 
 1287000    1.0292684   -6.3762156     532.2653  0.034464212  0.034424195            4 
 1288000    1.0573542   -6.3335023    533.49003  0.034516694  0.034416108            2 
 1289000    1.0249543   -6.3659664    532.89466  0.034451426  0.034407904            4 
 1290000    1.0468052   -6.3395168     534.0031  0.034496324  0.034399788            2 
 1291000    1.0288989   -6.3292265    534.31611  0.034489809  0.034391641            3 
 1292000    1.0551006   -6.3437025     536.3991  0.034597465  0.034383558            3 
 1293000    1.0502445   -6.3358905    536.19789   0.03455774  0.034375333            4 
 1294000    1.0541866   -6.3587649    535.96107  0.034515783  0.034367298            4 
 1295000    1.0448872   -6.3159198    538.67038  0.034663474  0.034359687            2 
 1296000     1.033805   -6.3488733    537.32965  0.034550517  0.034351922            4 
 1297000    1.0639564   -6.3052736      536.672  0.034481624  0.034344022            2 
 1298000    1.0580409   -6.3568724    535.34549  0.034369895  0.034336024            3 
 1299000      1.02339   -6.3494428    536.43091  0.034413069  0.034327989            2 
 1300000    1.0688812   -6.3312844    537.34463  0.034445169  0.034320196            2 
 1301000    1.0290745   -6.3341039     538.9031  0.034518518  0.034312128            3 
 1302000    1.0491816    -6.333564    538.24814  0.034450086   0.03430417            3 
 1303000    1.0569317   -6.3187067    538.67319  0.034450831  0.034296304            6 
 1304000    1.0515732   -6.3550447    538.29829  0.034400453  0.034288315            3 
 1305000    1.0565778   -6.3627279    536.76686    0.0342763  0.034280067            4 
 1306000      1.06845   -6.3433184    536.70733  0.034246256  0.034271702           12 
 1307000    1.0422228   -6.3589415    537.32274  0.034259292  0.034263486            7 
 1308000    1.0437977   -6.3735776    537.66548  0.034254936  0.034255233            3 
 1309000     1.037631   -6.3592478     538.9001  0.034307366  0.034246977            3 
 1310000    1.0479372   -6.3613892    537.98709  0.034223097  0.034238908            4 
 1311000    1.0315474   -6.3680774    538.55126  0.034232854  0.034230413            4 
 1312000    1.0391577   -6.3966743     538.4449  0.034200006  0.034222039            3 
 1313000    1.0753992   -6.4033297    537.56044  0.034117825  0.034213635            9 
 1314000    1.0455387   -6.3563639    539.83447  0.034236078  0.034205072            5 
 1315000     1.039662   -6.3363725    540.39061  0.034245286  0.034197089            2 
 1316000    1.0248561   -6.3357767    540.40548  0.034220205  0.034189023            2 
 1317000    1.0396943   -6.3735639    540.45697   0.03419748  0.034180734            3 
 1318000    1.0437147   -6.3706023     542.0892  0.034274735  0.034172535            4 
 1319000    1.0530938   -6.3770477    540.07971  0.034121791  0.034164603            3 
 1320000    1.0657877   -6.3722515    543.34564  0.034302124  0.034156583            8 
 1321000    1.0370142   -6.3456936    543.98256  0.034316336  0.034148818            3 
 1322000    1.0537701   -6.3759729    542.99381  0.034228052  0.034141047            2 
 1323000    1.0646712   -6.3506443    545.33825  0.034349852  0.034133347            4 
 1324000    1.0420178   -6.3696791    544.09881  0.034245897  0.034125651            5 
 1325000    1.0504619   -6.3456108    545.00728  0.034277187  0.034117929            2 
 1326000    1.0425229   -6.3698057    545.57223  0.034286842   0.03411017            6 
 1327000    1.0406281   -6.3260659      545.144  0.034234112  0.034102508            1 
 1328000    1.0505901   -6.3377562    548.37122  0.034410844  0.034094728            2 
 1329000    1.0322685   -6.3419722    546.54731  0.034270586  0.034086837            6 
 1330000    1.0448169   -6.3485589     548.0889   0.03434141  0.034079209            4 
 1331000    1.0322834   -6.3608733    545.28575  0.034140105  0.034071707            1 
 1332000    1.0504925   -6.3465201    549.02059  0.034348135  0.034064138            2 
 1333000    1.0415936   -6.2980725    550.72603  0.034428984  0.034056436            2 
 1334000    1.0445008   -6.3460685    548.15028  0.034242272  0.034048916            3 
 1335000    1.0256001   -6.3707465    549.42685  0.034296308  0.034041422           17 
 1336000    1.0335985   -6.3882152    546.92998  0.034114894  0.034033706            5 
 1337000    1.0317588   -6.3426053    550.00387  0.034280969  0.034026039            4 
 1338000    1.0300183   -6.3399497    549.51309  0.034224782  0.034018604            5 
 1339000    1.0344398   -6.3534876    550.96513   0.03428959  0.034011211            4 
 1340000    1.0201048   -6.3572442    550.78195  0.034252609  0.034003635            3 
 1341000     1.027849   -6.3361387    551.63666   0.03428018  0.033996109            3 
 1342000    1.0361922   -6.3759986    551.40519  0.034240263  0.033988567            3 
 1343000    1.0508875   -6.3657801     551.6828  0.034231993  0.033980923            3 
 1344000    1.0388569   -6.3914913    551.12237  0.034171774  0.033973364            2 
 1345000    1.0182942   -6.3941136    551.74715  0.034185078    0.0339658            4 
 1346000    1.0184692   -6.3652582    551.35567  0.034135443  0.033958195            5 
 1347000    1.0376936   -6.3607902    551.25164  0.034103665  0.033950354            3 
 1348000    1.0368065    -6.337566    553.70735  0.034230177  0.033942644            5 
 1349000    1.0514125   -6.3638732    552.73607  0.034144803  0.033935335            3 
 1350000    1.0574353   -6.3451074    552.47003  0.034103088  0.033927591            3 
 1351000    1.0498345   -6.3624361    552.44559  0.034076338  0.033919716            5 
 1352000    1.0464256   -6.3598779    554.63446  0.034186049  0.033912059            5 
 1353000    1.0404243   -6.3877551     553.4118  0.034085477  0.033904399            5 
 1354000     1.033921    -6.382913    554.92737   0.03415358  0.033896755            3 
 1355000     1.056768   -6.3591836    555.27948  0.034150029  0.033889372            7 
 1356000    1.0394011   -6.3817949     553.0414  0.033987303  0.033881923            4 
 1357000    1.0348081   -6.3871624    554.82516  0.034071798  0.033874434            3 
 1358000    1.0476782   -6.3910278    555.51435     0.034089  0.033866897            3 
 1359000    1.0225257   -6.3899329    556.44599  0.034121044  0.033859529            2 
 1360000    1.0403025   -6.3719172    557.40445  0.034154685  0.033852052            3 
 1361000    1.0196492   -6.3727768    558.08398  0.034171197  0.033844709            4 
 1362000    1.0348649   -6.3855023    555.83538  0.034008528  0.033837257            5 
 1363000    1.0323298   -6.3788612    557.80266  0.034103855  0.033829893            3 
 1364000    1.0475414   -6.3962768    557.42559  0.034055816  0.033822405            4 
 1365000    1.0178508   -6.3208361    560.16542  0.034198133  0.033814899            2 
 1366000    1.0328303   -6.3752921    558.69183  0.034083201   0.03380762            4 
 1367000    1.0498501   -6.3291432    559.84295  0.034128441  0.033800182            6 
 1368000    1.0198584   -6.3628481    559.18859  0.034063633  0.033792672            2 
 1369000      1.05192   -6.3764885    559.07183  0.034031643  0.033785317            3 
 1370000    1.0310207   -6.3735999    560.33144  0.034083421  0.033777992            4 
 1371000    1.0318155   -6.3410493    560.26854  0.034054738  0.033770747            5 
 1372000    1.0428842   -6.3894232    560.86986  0.034066439  0.033763503            5 
 1373000    1.0289501   -6.3612584    560.77446  0.034035837  0.033756203            9 
 1374000    1.0379404   -6.3616035    561.52424  0.034056541   0.03374901            7 
 1375000    1.0253777   -6.4168075    557.58596  0.033793088  0.033741378            3 
 1376000    1.0278015   -6.3733574    561.65418  0.034014909  0.033733876            2 
 1377000    1.0452586   -6.3970673    561.14048  0.033959119  0.033726427            2 
 1378000     1.035513   -6.3798866    561.39675  0.033949973  0.033718953            2 
 1379000    1.0577666    -6.404633    561.51304  0.033932381  0.033711579            3 
 1380000    1.0123267      -6.3531    562.71572  0.033980418  0.033704286            6 
 1381000    1.0236704   -6.3888907    562.10932   0.03391922  0.033696897            4 
 1382000    1.0360197   -6.3401521    564.55147  0.034041936  0.033689712            2 
 1383000     1.036463   -6.3805449    563.53751  0.033956225   0.03368249            3 
 1384000    1.0203103   -6.3835966     562.8103  0.033887903  0.033675341            3 
 1385000    1.0349466   -6.3909429    564.44198  0.033961611  0.033668223            8 
 1386000    1.0531838   -6.3978359     564.8003  0.033958652  0.033661005            4 
 1387000    1.0278891   -6.3811708    563.67304   0.03386644  0.033653563            3 
 1388000    1.0338951   -6.3714939    564.20536  0.033874001  0.033646091            3 
 1389000    1.0279674   -6.4000753    563.33681  0.033797505  0.033638602            3 
 1390000    1.0170173   -6.4229778    563.02705  0.033754619  0.033631124            4 
 1391000     1.014833   -6.3444819    562.98464  0.033727812  0.033623598            4 
 1392000    1.0310646   -6.3730529    563.59358  0.033740037  0.033616022            2 
 1393000    1.0422614   -6.3896709    564.98218  0.033798886  0.033608529            8 
 1394000    1.0435809   -6.3924275    563.84418  0.033706611  0.033600868            3 
 1395000    1.0311466   -6.3743079    564.04278  0.033694312  0.033593163            4 
 1396000    1.0279286   -6.3937974    565.55237   0.03376029  0.033585535            3 
 1397000    1.0610894   -6.3619352    565.00927  0.033703726  0.033577966            6 
 1398000    1.0338722   -6.3885203    564.57823  0.033653924   0.03357039            3 
 1399000     1.027494   -6.4104589    564.79377  0.033642707   0.03356255            4 
 1400000    1.0141448   -6.4014319    564.22805  0.033585003  0.033554795            4 
 1401000    1.0256953    -6.367382    566.72725  0.033709686  0.033546955            1 
 1402000     1.042345   -6.3774204    567.92268  0.033756697  0.033539287            3 
 1403000    1.0187219   -6.4196558    566.91084  0.033672538  0.033531659            3 
 1404000    1.0365391    -6.386621    566.39336  0.033617839   0.03352389            8 
 1405000    1.0309103   -6.4017296    565.89201  0.033564176  0.033516021            4 
 1406000    1.0401761   -6.3879472    568.78082  0.033711523  0.033508101            2 
 1407000    1.0314793   -6.3776408     568.4299  0.033666779  0.033500177            4 
 1408000    1.0602111   -6.3910506    568.40535  0.033641415   0.03349219            2 
 1409000    1.0235096   -6.3985039    566.47647  0.033503458  0.033484181           11 
 1410000    1.0347503   -6.4266303    566.96112   0.03350834  0.033475929            4 
 1411000    1.0228535   -6.3948033    569.13021  0.033612698  0.033467897            4 
 1412000    1.0343291   -6.3725696    568.26221  0.033537666  0.033459716            2 
 1413000    1.0126532   -6.3887472    568.56325  0.033531685  0.033451581            2 
 1414000    1.0243933   -6.3796359    568.21089  0.033487204  0.033443263            4 
 1415000    1.0438698   -6.3707659    569.67685  0.033549873  0.033435072            5 
 1416000    1.0523717   -6.3982743      566.585  0.033344221  0.033427048            2 
 1417000    1.0395287   -6.4097819    568.09783  0.033409658  0.033418966            4 
 1418000    1.0319785   -6.4082275    568.97261  0.033437507  0.033410752            9 
 1419000    1.0350256    -6.398284    570.45861   0.03350121  0.033402716            2 
 1420000    1.0327287    -6.384935    570.18725  0.033461693  0.033394456            4 
 1421000    1.0040536   -6.3943277    572.72438  0.033586933  0.033386468            5 
 1422000    1.0581003   -6.3839977    571.63379  0.033499401  0.033378485            6 
 1423000    1.0252135   -6.3851757    569.58698  0.033355996   0.03337041           15 
 1424000    1.0093064   -6.3880304    571.84463   0.03346469  0.033362481            2 
 1425000    1.0256506    -6.427318     570.3347  0.033352906  0.033354388            6 
 1426000    1.0071277   -6.4111907    571.88236  0.033419961  0.033346211            2 
 1427000    1.0218338   -6.4258284    569.05904  0.033231665  0.033338012            5 
 1428000      1.01949   -6.3921166    572.22739  0.033393288    0.0333299            3 
 1429000    1.0112672   -6.3906037    573.37614   0.03343691  0.033321842            4 
 1430000    1.0339402   -6.4012693    573.67181  0.033430758  0.033313902            4 
 1431000   0.98610644   -6.4126269    571.68166  0.033291501  0.033305763            3 
 1432000    1.0068538   -6.3462318    575.49266  0.033490029  0.033297918            3 
 1433000    1.0046647   -6.4232747    573.06407  0.033325429  0.033289851            8 
 1434000    1.0308042   -6.3995135    574.58935  0.033390827  0.033281686            9 
 1435000    1.0185381      -6.4089    573.87309  0.033325964  0.033273633            4 
 1436000    1.0455933   -6.4101366    573.14338   0.03326041  0.033265342            5 
 1437000      1.04445    -6.394125    575.67797  0.033384248  0.033257306            3 
 1438000    1.0106115   -6.3890092    575.54483  0.033353316  0.033249237            6 
 1439000    1.0160526   -6.4145228    575.40775    0.0333222  0.033241216            3 
 1440000    1.0131068   -6.4055793    575.28851  0.033292159   0.03323322            3 
 1441000    1.0334597   -6.4064806    578.29421  0.033442876  0.033225226            4 
 1442000    1.0304458   -6.4273861    576.16117  0.033296415  0.033217263            3 
 1443000    1.0166212   -6.4102502     575.6795  0.033245524  0.033209403            3 
 1444000    1.0306863   -6.4065324    576.53407  0.033271818  0.033201297            3 
 1445000    1.0248356   -6.3946756    577.30731  0.033293386  0.033193258            4 
 1446000    1.0106705   -6.3859446    576.62216  0.033230876  0.033185237            6 
 1447000    1.0064638   -6.4366712    576.88998  0.033223335  0.033177058            3 
 1448000    1.0236286    -6.388837    578.77409  0.033308822  0.033168917            3 
 1449000    1.0193439   -6.3735214    578.20076  0.033252862  0.033160879            2 
 1450000    1.0239068    -6.417643    577.67087  0.033199475   0.03315284            3 
 1451000    1.0114625    -6.421354    578.22691  0.033208529  0.033144581            5 
 1452000    1.0274856   -6.3737537    580.87403  0.033337582   0.03313673            6 
 1453000    1.0379402   -6.3752906    581.26038  0.033336796  0.033128744            4 
 1454000    1.0194037   -6.4331903    578.28885  0.033143561  0.033120751            4 
 1455000    1.0202059   -6.3703165    578.53767  0.033135033   0.03311268            2 
 1456000    1.0079191   -6.3790277    580.07063  0.033200013  0.033104684            5 
 1457000    1.0074609   -6.4093639    577.90418  0.033053316  0.033096589            2 
 1458000    1.0020682   -6.4173513    579.07851  0.033097766  0.033088399            9 
 1459000    1.0235709   -6.4099551     579.4236  0.033094791  0.033080384            6 
 1460000    1.0266968   -6.3818362    581.88227  0.033212458  0.033072389            5 
 1461000    1.0187957   -6.4086418    580.47733   0.03310959  0.033064482            3 
 1462000    1.0111735   -6.4379182     579.5742  0.033035465  0.033056222            2 
 1463000    1.0126574   -6.3890231    580.24941  0.033051345  0.033047986            6 
 1464000    1.0068177   -6.4096604     583.3157  0.033203307  0.033039903            5 
 1465000    1.0136424   -6.4316816    580.58414  0.033025264  0.033031815            3 
 1466000   0.99177815   -6.4002054    581.68117  0.033065096  0.033023863            4 
 1467000    1.0232778   -6.3841256    582.24547  0.033074612  0.033015773            3 
 1468000    1.0278182   -6.3991852    582.62377  0.033073556   0.03300783            5 
 1469000    1.0397761   -6.3883499    581.99365  0.033015297  0.032999863            4 
 1470000    1.0083599   -6.3862952    583.79167  0.033094766  0.032991801            5 
 1471000    1.0185603   -6.3916475    583.89452  0.033078094  0.032983522            1 
 1472000    1.0464922    -6.450114    582.12337  0.032955354  0.032975235            4 
 1473000    1.0054363   -6.4067269    583.73981  0.033024429  0.032966801            6 
 1474000    1.0250063   -6.4070175    581.84199   0.03289473  0.032958458            6 
 1475000    1.0042553   -6.4258046    582.63987  0.032917506  0.032949968            2 
 1476000      1.00488   -6.4213783    581.24904   0.03281668  0.032941327            3 
 1477000     1.032013    -6.372878    584.99047  0.033005556  0.032932836            4 
 1478000    1.0164253   -6.4256018    585.56018  0.033015346  0.032924557            4 
 1479000    1.0109445   -6.4370418    583.45653  0.032874495  0.032916259            4 
 1480000   0.99990384   -6.4387958    582.29525  0.032786895  0.032907936            5 
 1481000    1.0448186   -6.4451624    585.33098  0.032935572  0.032899514            4 
 1482000    1.0144897    -6.400785    585.78697  0.032938988  0.032891098            4 
 1483000    1.0196437   -6.4009154    585.49179  0.032900191  0.032882663            5 
 1484000   0.98789789   -6.4393284    585.26137  0.032865081   0.03287425            2 
 1485000    1.0085525   -6.4566492    585.11501  0.032834737  0.032865719            6 
 1486000    1.0274306    -6.412074    584.67118  0.032787751  0.032857234            3 
 1487000    1.0185896   -6.4328658    585.26356    0.0327989  0.032848645            2 
 1488000    1.0050803   -6.4370577    587.81831  0.032919932   0.03284004            6 
 1489000    1.0341932   -6.4188142    585.66076  0.032777074  0.032831355            3 
 1490000    1.0145822   -6.4443734    585.27812  0.032733676  0.032822655            3 
 1491000    1.0152052   -6.4064653    588.34014  0.032882861  0.032814058            5 
 1492000    1.0268732   -6.4186375    587.72034  0.032826203  0.032805577            7 
 1493000    1.0027539   -6.4012585    587.02733  0.032765535  0.032797041            7 
 1494000    1.0192986    -6.431222    586.47118  0.032712583  0.032788565            9 
 1495000    1.0379792   -6.3752851    586.99213   0.03271974  0.032780026            6 
 1496000     1.000113   -6.4524384    586.33243   0.03266112  0.032771476            3 
 1497000    1.0259733   -6.4124005     587.5176  0.032705277   0.03276287            5 
 1498000    1.0093093   -6.4244348    588.72641  0.032750691   0.03275417            3 
 1499000    1.0313038   -6.4034014     587.0076  0.032633289  0.032745529            3 
 1500000    1.0258262   -6.4206925    588.26571  0.032681428  0.032737025            5 
 1501000    1.0142387   -6.4464624    588.63202  0.032679992  0.032728385            3 
 1502000    1.0179117   -6.4062845    589.17072  0.032688122  0.032719966           12 
 1503000   0.98954109    -6.380762    591.75869  0.032809863  0.032711515            3 
 1504000    1.0104116   -6.4317094    589.85593   0.03268262  0.032703066            3 
 1505000    1.0172032   -6.4280662    591.18059  0.032734252   0.03269473            7 
 1506000    1.0299529   -6.3844485    591.01178  0.032703175  0.032686532            5 
 1507000    1.0001449   -6.3810539     593.1052  0.032797235  0.032678344            2 
 1508000   0.98812737   -6.3728199    592.02716  0.032715913  0.032670155            4 
 1509000   0.99755082   -6.4433028    590.49117  0.032609408  0.032661716            4 
 1510000    1.0104263   -6.4523907    592.01324  0.032671812  0.032653237            4 
 1511000    1.0066647   -6.4100016    591.99344  0.032649098  0.032644946            4 
 1512000    1.0056085   -6.3963139    593.70032  0.032721578  0.032636641            4 
 1513000    1.0010258   -6.4413734    591.12445  0.032558077  0.032628163            8 
 1514000   0.99977615   -6.4181946    595.05944  0.032753162  0.032619871            4 
 1515000    1.0129906   -6.4201094    594.12619  0.032680208  0.032611538            2 
 1516000    1.0296134   -6.4249602    594.51248  0.032679885   0.03260336            3 
 1517000    1.0097668   -6.4120045    593.91911  0.032625748  0.032595088            4 
 1518000    1.0166078   -6.4230281    595.47726  0.032689793  0.032587009            3 
 1519000   0.96536636   -6.4322473     595.4856  0.032668729  0.032578961            5 
 1520000    1.0093814   -6.4081584    595.81876  0.032665502   0.03257099            4 
 1521000     1.023966   -6.4248631    593.79957  0.032533397  0.032563034            5 
 1522000     1.017229   -6.3881071     596.5289   0.03266146  0.032554888            4 
 1523000    1.0194938   -6.4551101    595.49367   0.03258337   0.03254655           14 
 1524000    1.0087716   -6.4259532    596.29746  0.032605941   0.03253832            3 
 1525000    1.0151068   -6.4613577    596.76798  0.032610272  0.032530035            2 
 1526000    1.0122089   -6.4364867    596.33173  0.032565079  0.032521881            6 
 1527000    1.0036004   -6.4754015    594.76925  0.032458484  0.032513592            3 
 1528000    1.0001419    -6.433125    597.81339  0.032603261   0.03250539            4 
 1529000    1.0085981   -6.4564529    598.13346  0.032599382  0.032497301            2 
 1530000     1.008406   -6.4379555     596.8102  0.032506002   0.03248921            3 
 1531000   0.98130642   -6.4624261    597.55852  0.032525502  0.032481025            5 
 1532000    1.0022811   -6.4352997    597.43119  0.032497345  0.032472809            5 
 1533000    1.0127871   -6.4246505    597.51897  0.032480918  0.032464755            5 
 1534000    1.0121419   -6.4323311    600.33983  0.032612985  0.032456719            5 
 1535000    1.0107017   -6.4312603    598.09493  0.032469866  0.032448643            4 
 1536000    1.0083343   -6.4469974     598.0471  0.032446132  0.032440527            3 
 1537000    1.0122607   -6.4455323    600.57582  0.032562124  0.032432334            4 
 1538000    1.0164041   -6.4969422    597.38949  0.032368308   0.03242429            6 
 1539000    1.0004704    -6.430897     600.6795  0.032525422  0.032416077            4 
 1540000   0.99031676   -6.4252632    601.34416  0.032540269  0.032408021            5 
 1541000   0.99894179   -6.4462175    599.40198  0.032414124  0.032399979            6 
 1542000   0.99889288    -6.429271    602.31332  0.032550439  0.032391902            6 
 1543000    1.0113703   -6.3963665    604.41064  0.032642614  0.032384034            2 
 1544000    1.0144637   -6.4439421    601.36679  0.032457188   0.03237608            5 
 1545000     1.017655   -6.4431799    600.99894   0.03241634  0.032367937            3 
 1546000    1.0143225   -6.4051953    603.58385  0.032534705  0.032359802            4 
 1547000   0.99873436   -6.4243596    603.67156  0.032518399  0.032351795            4 
 1548000   0.99476356   -6.3867352    603.30687   0.03247776   0.03234389            3 
 1549000    0.9902661   -6.4550916    602.34639  0.032405121  0.032335849            4 
 1550000   0.98502593    -6.434463    601.05377  0.032314719  0.032327846            4 
 1551000    1.0185888   -6.4244473    603.68155  0.032435072  0.032319764            3 
 1552000    0.9929632   -6.4849076    602.38286  0.032344441   0.03231174            8 
 1553000   0.99988278   -6.4476301    604.42363  0.032433121  0.032303685            5 
 1554000   0.98951971   -6.4141585    605.51584  0.032470819    0.0322957            1 
 1555000    1.0066343   -6.4641282    604.80842  0.032412027  0.032287868            3 
 1556000    1.0107151   -6.4506471    603.39354  0.032315421  0.032280077            5 
 1557000    1.0010834   -6.4553095    605.70997  0.032418645  0.032272322            4 
 1558000   0.99170291   -6.4204239    607.05212  0.032469625   0.03226464            6 
 1559000     1.010917   -6.4594149    606.06803  0.032396196  0.032256835            2 
 1560000    0.9812021   -6.4175304    606.12701  0.032378579  0.032249047            4 
 1561000   0.99270377   -6.4039245    608.75745  0.032498262  0.032241228            2 
 1562000    1.0079118   -6.4387879    608.46787  0.032462007  0.032233461            3 
 1563000    1.0186256   -6.4411631    608.50619  0.032443282  0.032225826            4 
 1564000    1.0126079   -6.4394108    607.90147  0.032390317  0.032218101            4 
 1565000    1.0230615    -6.455118    608.55294   0.03240431  0.032210281            4 
 1566000    1.0099057   -6.4585311     607.4301  0.032323867  0.032202401            5 
 1567000    1.0058402   -6.4471873    607.56206  0.032310256  0.032194344            8 
 1568000   0.98784691   -6.4541495    608.82765  0.032356912  0.032186479            5 
 1569000     1.014568   -6.4301866    609.74921  0.032385235   0.03217864            4 
 1570000   0.98313744   -6.4709299    608.88085  0.032318516  0.032170764            4 
 1571000   0.99456865   -6.4625597    605.90949  0.032140329  0.032162728            6 
 1572000   0.97335743   -6.4282349    609.87264  0.032329975  0.032154854            4 
 1573000    1.0017449   -6.4522011    610.49488  0.032342386  0.032146928            3 
 1574000   0.98865142    -6.470747    610.64329  0.032329695   0.03213925            3 
 1575000    0.9696015   -6.4636931    608.85128  0.032214354  0.032131394            3 
 1576000   0.99579592   -6.4998108     609.1487   0.03220964  0.032123445            3 
 1577000    1.0019131   -6.4496976    611.26578  0.032301088  0.032115733            2 
 1578000    1.0162417   -6.4753311    612.22641  0.032331348  0.032108076            4 
 1579000    0.9709791   -6.4472077    610.84394  0.032237911  0.032100219            3 
 1580000   0.97571427   -6.4550455    611.38015  0.032245789  0.032092455            3 
 1581000   0.98688968   -6.5026807    610.60476  0.032184523  0.032084574            8 
 1582000   0.99307351   -6.4776758    612.36885  0.032257103  0.032076798            4 
 1583000   0.99760584    -6.464107    613.05504  0.032272849  0.032069061            3 
 1584000   0.98800736   -6.4916169    611.84222  0.032188669  0.032061329            3 
 1585000   0.99533999   -6.4862096    610.98979  0.032123543  0.032053492            6 
 1586000    1.0175127    -6.440805    613.28117  0.032223685  0.032045726            4 
 1587000    1.0151853   -6.4410248    611.75357  0.032123166  0.032038033            4 
 1588000    1.0171149   -6.4599584    613.41678  0.032190217  0.032030289            3 
 1589000   0.99914572   -6.4273807     612.8428  0.032139857  0.032022266            3 
 1590000    1.0034393   -6.4368862    613.20544   0.03213865  0.032014241            4 
 1591000   0.99407769   -6.4501697    614.16219  0.032168562  0.032006186            4 
 1592000   0.99241745   -6.4731725    612.30682  0.032051237  0.031998257           10 
 1593000    0.9896163    -6.468865    613.74681  0.032106445  0.031990366            4 
 1594000    1.0136915   -6.4824187    612.86604  0.032040257   0.03198232            5 
 1595000   0.98675086   -6.4413507    613.08501   0.03203161  0.031974254            2 
 1596000    1.0040636   -6.4719252    614.62749  0.032092078  0.031966279            1 
 1597000    1.0008063   -6.4322846     617.0696  0.032199416   0.03195826            5 
 1598000   0.99145397   -6.4292153    616.00544  0.032123771  0.031950398            3 
 1599000   0.98241315   -6.4498659    617.47554  0.032180297  0.031942386            4 
 1600000    0.9922262   -6.4721778    616.56922   0.03211298  0.031934461            2 
 1601000   0.98680539     -6.48379    615.66214  0.032045708  0.031926535            3 
 1602000    1.0023236   -6.4759474    617.18347  0.032104842  0.031918587            3 
 1603000    1.0028421   -6.4674848    616.94388  0.032072358  0.031910682            9 
 1604000   0.99258136   -6.4276275    618.62223  0.032139559  0.031902924            5 
 1605000    1.0050654   -6.4897152    616.61757   0.03201545  0.031895072            6 
 1606000   0.98599078   -6.5056011    617.26618  0.032029171  0.031887218            5 
 1607000    1.0053678   -6.4709093    617.03269  0.031997132  0.031879473            6 
 1608000   0.97909531   -6.4451626    619.73327  0.032117188  0.031871654            4 
 1609000   0.99730185   -6.5210128    616.04242  0.031906071  0.031863753            4 
 1610000   0.97968051   -6.4678799    618.80716  0.032029356  0.031855949            3 
 1611000     1.027497   -6.4880398    618.68913  0.032003369  0.031848069            4 
 1612000     1.007098   -6.4508782    618.01457  0.031948644   0.03184013            4 
 1613000   0.98917992   -6.4754316     617.7249  0.031913872   0.03183214            7 
 1614000    1.0109469   -6.4969485    618.15757  0.031916438  0.031824029            2 
 1615000    1.0048124   -6.4146982    620.31045  0.032007763  0.031815946            3 
 1616000   0.99557181   -6.4807518    619.45211  0.031943694  0.031807914            7 
 1617000   0.98061111   -6.5253858    619.05158  0.031903297  0.031799704            7 
 1618000   0.99442965   -6.4359305     620.9723  0.031982504  0.031791752            5 
 1619000    0.9871774   -6.4492735    619.35943  0.031879732  0.031783755            3 
 1620000    1.0078228   -6.4665904    619.62729  0.031873832  0.031775542            3 
 1621000    0.9759292   -6.5082784    619.66986  0.031856357  0.031767367            7 
 1622000    1.0134148   -6.4704643    620.09409  0.031858512  0.031759337            4 
 1623000   0.97796008   -6.4798726    619.26105   0.03179611   0.03175125            6 
 1624000    1.0031278   -6.4979311    618.85074  0.031755477  0.031743102            3 
 1625000    1.0020036   -6.4711135    620.04381  0.031797118  0.031734902            4 
 1626000   0.99567987   -6.4874113    619.96621  0.031773586  0.031726633            4 
 1627000   0.99032053   -6.5197508    619.58032  0.031734292  0.031718326            5 
 1628000    1.0110165   -6.5228254    619.25855  0.031698329  0.031710086            7 
 1629000   0.99938638   -6.4735069    619.52496  0.031692499  0.031701921            5 
 1630000   0.99841534   -6.5079862    618.19625  0.031605125  0.031693567           12 
 1631000   0.98626543   -6.4339411    623.39953  0.031851601   0.03168537            6 
 1632000   0.99813399   -6.4929264    620.66111  0.031692254  0.031677186            3 
 1633000    1.0058981   -6.4681194    621.68317  0.031725004  0.031668956            4 
 1634000   0.98252956   -6.4520252    622.92608  0.031768976  0.031660986            4 
 1635000   0.97509853   -6.4761543     621.3061  0.031666977  0.031652981            5 
 1636000   0.99049583   -6.4669066    623.22372  0.031745299  0.031644987            2 
 1637000   0.98865227   -6.4827417    622.60616  0.031694469  0.031637045            4 
 1638000   0.97808077    -6.519478    620.40958  0.031563369  0.031628985            4 
 1639000   0.98930493   -6.5189282     622.4698  0.031648861   0.03162089            4 
 1640000   0.99216949   -6.5025535    623.07149  0.031660137  0.031612769            4 
 1641000   0.99875844   -6.4892083    622.34146  0.031603771  0.031604585            4 
 1642000   0.98573364   -6.5110446    624.72522  0.031705503  0.031596544            4 
 1643000   0.99772093   -6.4570285    626.48338   0.03177538  0.031588412            2 
 1644000   0.98329097   -6.4798081     623.9082  0.031625517  0.031580375            3 
 1645000   0.99452162   -6.4828773    623.30332   0.03157565   0.03157229            5 
 1646000   0.98146523   -6.4783858    626.03342  0.031694685  0.031564488            5 
 1647000   0.98512911   -6.4724481    627.82716  0.031766199  0.031556588            2 
 1648000   0.97840609   -6.4951113    627.53095  0.031731945  0.031548735            5 
 1649000   0.98736517   -6.4956508    624.55734  0.031562429  0.031540771            4 
 1650000   0.98967994    -6.458246    627.81253  0.031707704  0.031532733            5 
 1651000    1.0037686   -6.4673364    626.52332  0.031623426  0.031524757            5 
 1652000   0.97781611   -6.4736109    627.48593  0.031652841  0.031516761            4 
 1653000   0.97338488   -6.4786955    626.72448  0.031595306  0.031508761            3 
 1654000   0.98928521   -6.4806363    625.65084   0.03152211  0.031500612            5 
 1655000   0.97784698   -6.4697611    628.24156  0.031633512   0.03149257            7 
 1656000   0.98728153    -6.482229    626.09684  0.031506484  0.031484448           10 
 1657000   0.97152544   -6.5479141    624.15943  0.031390034   0.03147621            5 
 1658000   0.98550994   -6.4805663    626.84453  0.031506058  0.031468064            3 
 1659000   0.96580273   -6.5346069    624.67311  0.031377994  0.031459804            6 
 1660000   0.97571035   -6.5293157    626.26391  0.031438951  0.031451509            6 
 1661000   0.97743709    -6.491003    626.94507  0.031454198  0.031443198            6 
 1662000   0.97697831   -6.4914362    626.12254   0.03139403  0.031434933            3 
 1663000    1.0020412   -6.4956477    626.81563  0.031409883  0.031426725            9 
 1664000   0.99201937    -6.479912      628.314  0.031466046   0.03141841            2 
 1665000    1.0021511   -6.4845081    628.25836  0.031444362  0.031410069            4 
 1666000    1.0055503   -6.5168268    628.40426  0.031432786  0.031401685            6 
 1667000   0.98414674    -6.509082    626.11521  0.031299501   0.03139326            5 
 1668000   0.96409125   -6.4650053    628.37375  0.031393573  0.031384863            5 
 1669000   0.98675912   -6.5110109    628.02957  0.031357578  0.031376702            5 
 1670000   0.97446433   -6.4909501    629.32421  0.031403404  0.031368323            3 
 1671000    0.9877164   -6.5207483    628.57636  0.031347315  0.031360056            4 
 1672000   0.95253512       -6.462    631.31878   0.03146525  0.031351801            4 
 1673000   0.97578735    -6.478229    630.38849  0.031400104  0.031343594            3 
 1674000    1.0129091   -6.4878043    629.71685  0.031347912  0.031335341            6 
 1675000   0.96610558   -6.5062065    630.17388  0.031351934  0.031327223            3 
 1676000   0.98943645   -6.4875751    630.19861  0.031334458  0.031318948            4 
 1677000   0.98590217   -6.5045509    630.53624   0.03133255  0.031310757            3 
 1678000   0.95869792   -6.5265762    631.60424  0.031366917  0.031302515            4 
 1679000   0.98328955   -6.5054032    631.22695  0.031329509   0.03129433            4 
 1680000    0.9859154    -6.520085    630.79271  0.031289321  0.031286137            2 
 1681000    1.0067817   -6.4821074     631.4743  0.031304497  0.031277942            7 
 1682000   0.99104114    -6.504153     632.3832  0.031330915  0.031269874            3 
 1683000    0.9920874   -6.5514147    632.97181  0.031341444  0.031261855            8 
 1684000   0.99113416   -6.5040148    633.91565  0.031369539  0.031253704            4 
 1685000   0.97453441   -6.5292306    632.35469  0.031273724  0.031245509            7 
 1686000   0.96354196   -6.4650297    634.24176  0.031348446  0.031237339            2 
 1687000   0.99190928   -6.5296931    632.66497  0.031251975  0.031229189            6 
 1688000   0.99074099   -6.4973702    635.37848  0.031367421  0.031221004            5 
 1689000   0.96227527   -6.5169034    633.82816  0.031272358  0.031212964            7 
 1690000   0.98580074   -6.4927551     633.6637  0.031245745  0.031204839            5 
 1691000   0.96200116   -6.5472065    631.88305  0.031139515  0.031196784            2 
 1692000   0.95894677   -6.4886455     635.9082  0.031319356  0.031188701            7 
 1693000   0.97666027   -6.5354204     635.4656  0.031279071  0.031180716            5 
 1694000   0.98334366   -6.5422729    633.70355  0.031173925  0.031172475            4 
 1695000    1.0019627   -6.4844339    634.61331  0.031200261  0.031164372            3 
 1696000   0.97278611   -6.5320946    634.97852  0.031199809   0.03115624            5 
 1697000   0.98045766   -6.4984332    635.57976  0.031210949  0.031148128            2 
 1698000   0.98864303   -6.4847229    636.08092  0.031217163  0.031140058            5 
 1699000   0.99362707   -6.4969938    636.01007  0.031195314  0.031131857            5 
 1700000    0.9681076   -6.5127783    634.83406  0.031119317  0.031123807            6 
 1701000     0.980955   -6.4972139     638.1743  0.031264663  0.031115585            5 
 1702000   0.96732358   -6.5370677      635.264  0.031103799  0.031107383            3 
 1703000   0.98194812   -6.4986644    635.74143  0.031108898  0.031099197            3 
 1704000   0.99595236   -6.4928717    637.67135  0.031185023  0.031091178            3 
 1705000   0.95914654   -6.5404093     635.3101  0.031051325  0.031083025           11 
 1706000   0.98324231   -6.5257217    636.70302  0.031101163  0.031074951            6 
 1707000   0.96756464   -6.5488904    637.08751  0.031101714  0.031066674            7 
 1708000   0.96034929   -6.5344224    638.48261  0.031151572  0.031058487            2 
 1709000    1.0008029   -6.4717405    637.14829   0.03106828  0.031050414            3 
 1710000   0.96684068   -6.5053192    637.10004   0.03104776  0.031042127            3 
 1711000   0.99540697   -6.5215507    637.95079  0.031071049  0.031033952            9 
 1712000   0.98608644   -6.5116714    640.02237  0.031153737  0.031025917            4 
 1713000   0.99088132   -6.5497099    636.83252  0.030980372  0.031017754            3 
 1714000   0.94900273   -6.5218346    640.93923  0.031161962  0.031009459            4 
 1715000    0.9879828   -6.5229937    639.60415  0.031078919  0.031001158            3 
 1716000   0.96160519   -6.5202935    639.42301  0.031052011  0.030993058            4 
 1717000   0.98072702    -6.526752    637.33931  0.030932795  0.030984981            7 
 1718000   0.98767584   -6.5560835    639.79335  0.031033825  0.030976912           10 
 1719000   0.98044629   -6.4632935    640.28167  0.031039445  0.030968822            3 
 1720000   0.98619484   -6.4968676     640.1124  0.031013198  0.030960801            3 
 1721000   0.97590592   -6.5175238    641.30764  0.031053053    0.0309528            4 
 1722000   0.97967143   -6.4676782    643.13888  0.031123639   0.03094484            5 
 1723000   0.97047456   -6.4887193    642.61832  0.031080398  0.030936738            9 
 1724000    0.9988507   -6.4828187    641.67569  0.031016806  0.030928584            2 
 1725000   0.97144565   -6.4620933    643.10462  0.031067856  0.030920507            6 
 1726000   0.93962905   -6.5423444     641.1372  0.030954867  0.030912406            5 
 1727000   0.95652652   -6.5406361    638.89029  0.030828522  0.030904134            5 
 1728000   0.98715134   -6.5235802    641.56996  0.030939909  0.030895883            4 
 1729000    0.9657595   -6.4806391    643.15459   0.03099839  0.030887633            4 
 1730000   0.95441061   -6.5696476    640.89251  0.030871508  0.030879352            5 
 1731000   0.98684688   -6.5087906    642.16332  0.030914853   0.03087105            4 
 1732000    0.9630145   -6.5534107    641.97782  0.030888078  0.030862758            6 
 1733000   0.96635287   -6.5022557    642.76938  0.030908318  0.030854338            5 
 1734000   0.96102632    -6.548764    642.57482  0.030881143  0.030846015            6 
 1735000   0.98565031   -6.5164952    641.98374  0.030834954  0.030837629            5 
 1736000   0.95906231   -6.4891914    642.22469  0.030828758  0.030829329            3 
 1737000   0.97356872   -6.5499385    640.74297  0.030739924  0.030820917            4 
 1738000   0.96585101   -6.5044455    642.59354  0.030810968  0.030812374            3 
 1739000   0.97418564   -6.5309558    643.12805  0.030818864  0.030803926            7 
 1740000   0.98046649   -6.5197929    643.90435  0.030838331  0.030795555            5 
 1741000   0.97640536   -6.5231806    640.96833  0.030680085  0.030787094            4 
 1742000   0.98850771     -6.51908    644.20789  0.030817446  0.030778624            3 
 1743000   0.94898638   -6.5255001    642.39018   0.03071286   0.03077027            4 
 1744000   0.98136421   -6.5166646    641.22216  0.030639438   0.03076176            4 
 1745000   0.95744094   -6.5297184    639.44456  0.030536989   0.03075315            6 
 1746000   0.96371713    -6.512082    645.26776   0.03079743  0.030744672            8 
 1747000   0.97957186   -6.5753832    642.16291  0.030631698  0.030736158            3 
 1748000   0.97728647   -6.5087263    644.84455  0.030742017   0.03072763            5 
 1749000   0.95428036   -6.5179548     643.0281  0.030637893  0.030719101            3 
 1750000   0.98576149   -6.5340706    644.75083  0.030702421  0.030710629            3 
 1751000   0.98024188   -6.5097149    644.90144  0.030692054  0.030702093            1 
 1752000   0.97755632   -6.4900124    645.50605  0.030703294  0.030693744            3 
 1753000   0.96745921   -6.5292261    644.18198  0.030622836  0.030685251            5 
 1754000   0.98162055    -6.562916    643.30071  0.030563508  0.030676745            2 
 1755000   0.96798795   -6.5401229    644.95988  0.030624876  0.030668011            4 
 1756000   0.96514005   -6.5624539    642.61277   0.03049605  0.030659261            3 
 1757000   0.95704528    -6.540738    642.69047  0.030482379  0.030650492            3 
 1758000   0.97216637    -6.552709    645.63692  0.030604708  0.030641761            3 
 1759000   0.96367385   -6.5339402     647.0662  0.030655022  0.030633004            3 
 1760000   0.96802373     -6.48743    646.74275  0.030622289    0.0306246            6 
 1761000   0.97888727    -6.503362    645.97157  0.030568407  0.030616153            8 
 1762000   0.94501297   -6.5104237     645.4555   0.03052665  0.030607629            3 
 1763000   0.96887619   -6.5346254    645.26699  0.030500425  0.030599087            3 
 1764000    0.9776735   -6.5390808    645.89139  0.030512632  0.030590543            5 
 1765000   0.98375773    -6.540695    645.80196  0.030491122  0.030581976            4 
 1766000   0.95805212   -6.5251919    647.01976  0.030531321  0.030573414            3 
 1767000   0.97032696   -6.5247298    648.21614  0.030570465    0.0305649            2 
 1768000   0.98770278   -6.5111895    647.64738  0.030526366  0.030556366            4 
 1769000    0.9721981   -6.5542007    647.28318  0.030491953  0.030547905            4 
 1770000   0.98411133   -6.5198801    648.60269   0.03053685  0.030539508            7 
 1771000   0.96437177   -6.4990729    649.40625  0.030557418  0.030531015            5 
 1772000   0.97241807   -6.5310725    648.76836  0.030510175  0.030522455            3 
 1773000   0.96997167    -6.544894     645.4179  0.030335491  0.030513866            5 
 1774000   0.95340536   -6.5341298    647.34058  0.030408708  0.030505196            3 
 1775000   0.94259626    -6.521303    649.01295  0.030470091   0.03049679            3 
 1776000   0.94795802   -6.5621198    646.64477  0.030341816  0.030488306            4 
 1777000   0.94997504   -6.5514036    646.23754  0.030305643  0.030479621            5 
 1778000   0.97018655   -6.5273021    648.24992  0.030382917  0.030471062           11 
 1779000   0.95467369   -6.5448621    649.19236  0.030409985  0.030462466            7 
 1780000    0.9739122   -6.5701637    647.92255  0.030333453  0.030453837            4 
 1781000   0.95844793   -6.5636126    646.28458   0.03023978  0.030445144            4 
 1782000   0.97320589   -6.5444713    648.55888  0.030329166  0.030436459            2 
 1783000   0.98187612   -6.5665139    649.32869  0.030348134  0.030427834            5 
 1784000   0.95496379   -6.5108041    651.59022  0.030436763  0.030419216            7 
 1785000   0.97195088   -6.5375362    649.92465  0.030341954  0.030410592           10 
 1786000   0.98073563   -6.5581082    647.99349  0.030234859  0.030401903            3 
 1787000   0.96060305   -6.5474048    650.10344  0.030316333  0.030393186            4 
 1788000   0.95968944   -6.5471166    651.07786  0.030344792  0.030384408            5 
 1789000   0.97101112   -6.5349635    648.18891   0.03019326  0.030375672            2 
 1790000   0.95994869   -6.5484837    649.64304  0.030244089  0.030367025            7 
 1791000   0.96329722   -6.5307534    651.56604  0.030316678  0.030358262            4 
 1792000   0.96412588   -6.5594982    650.10243  0.030231698   0.03034944            4 
 1793000   0.95967092   -6.5723881    648.27128   0.03012973  0.030340436            7 
 1794000    0.9508293    -6.561131    650.38115  0.030210941  0.030331478            3 
 1795000   0.98831175   -6.5492901    651.25332  0.030234602   0.03032249            5 
 1796000   0.96001319   -6.5256723    650.24852  0.030171145  0.030313551            6 
 1797000   0.96164604   -6.5547947    649.01355  0.030097085  0.030304664            4 
 1798000   0.98407925   -6.5609598     648.9978  0.030079616  0.030295702            6 
 1799000   0.97401942   -6.5127199     651.4676  0.030177302  0.030286664            8 
 1800000    0.9706152   -6.5214687     653.7128  0.030264481  0.030277766            3 
 1801000   0.94553698   -6.5439519    651.03935  0.030123975  0.030268883            2 
 1802000   0.97210237   -6.5171363    651.21006  0.030115153  0.030259962            6 
 1803000   0.96124884    -6.535973    651.44856  0.030109473   0.03025084            3 
 1804000   0.96142068   -6.5483271    652.14802  0.030125094  0.030241945            5 
 1805000   0.97362638   -6.5510865     650.6945  0.030041297  0.030232998            4 
 1806000   0.96881057   -6.5290871    650.63219  0.030021788  0.030223833            2 
 1807000   0.95201473   -6.5498021    652.28766  0.030081519  0.030214802            3 
 1808000   0.96148076   -6.5480563    649.59009  0.029940546  0.030205723            7 
 1809000    0.9506294   -6.4825168    652.69185  0.030066881  0.030196781            5 
 1810000   0.95648229   -6.5414236     651.0052  0.029972615  0.030187849            8 
 1811000   0.96478157   -6.5441628    650.12828  0.029915713  0.030178747            4 
 1812000   0.95194384   -6.5395594    649.86481  0.029887087  0.030169626            5 
 1813000   0.94324861   -6.5403116    652.05628  0.029971331  0.030160497            5 
 1814000   0.97059338    -6.520737    652.48783  0.029974634  0.030151464            4 
 1815000   0.95928316   -6.5619378    653.27484  0.029994253  0.030142468            9 
 1816000   0.95775021   -6.5397902    653.30324   0.02997904  0.030133551            6 
 1817000   0.96746738   -6.5226275    654.79807  0.030031098  0.030124821            2 
 1818000   0.95287511   -6.5817789    652.68277  0.029917618  0.030115989            7 
 1819000   0.94987225   -6.5273692    655.19282  0.030016164  0.030107112            6 
 1820000   0.97666455   -6.4998353    656.79464  0.030073015  0.030098394            5 
 1821000   0.98058379   -6.5548903    653.67872  0.029913908  0.030089672            5 
 1822000   0.96780295   -6.5290704     657.2214  0.030059523  0.030080839            7 
 1823000   0.97529029   -6.5308478    656.30909   0.03000133  0.030072063            2 
 1824000   0.97067959   -6.5571556    654.83065  0.029917336  0.030063192            5 
 1825000   0.97410005     -6.54932    655.49588  0.029931319  0.030054315            2 
 1826000   0.94881867   -6.5474317    653.88915    0.0298416  0.030045369            4 
 1827000   0.94697086   -6.5902427    654.34613  0.029846111  0.030036415            3 
 1828000    0.9719842   -6.5741436    653.77773  0.029803872  0.030027328            6 
 1829000   0.95565391    -6.540471    657.48092  0.029956302  0.030018355            8 
 1830000   0.96828933   -6.5777755    655.62908  0.029855605  0.030009488            4 
 1831000    0.9478631   -6.6008511    655.67834  0.029841541   0.03000067            3 
 1832000   0.96275423   -6.5593286     657.0269  0.029886595  0.029991827            4 
 1833000   0.94636141   -6.5613999    656.00317  0.029823748  0.029982962           10 
 1834000   0.96642837   -6.5672804    655.51384  0.029785252  0.029974054           10 
 1835000   0.94659162   -6.5575387    658.25684  0.029893589  0.029965306            7 
 1836000    0.9680347   -6.5054714    658.96014  0.029909229  0.029956567            5 
 1837000   0.97657978   -6.5961191    655.84165  0.029751481  0.029947619            7 
 1838000   0.96844896   -6.5507416    657.15535  0.029794856  0.029938723            7 
 1839000   0.96556813   -6.5247361    658.58882  0.029843611  0.029929787            5 
 1840000   0.97177671   -6.5953758    656.23599  0.029720833  0.029920915           17 
 1841000   0.95339961   -6.6224651    656.08587  0.029697894  0.029911901            8 
 1842000   0.98025745   -6.5663291    658.97302  0.029812388  0.029902976            4 
 1843000   0.94350025   -6.5701003    658.94104  0.029794766  0.029894146            7 
 1844000   0.94978257   -6.5509759    661.60565  0.029899026  0.029885401            5 
 1845000    0.9565181   -6.5725917    658.92526  0.029761755   0.02987672            3 
 1846000   0.94820872   -6.5927967    658.59204   0.02973059  0.029868058            3 
 1847000    0.9655924   -6.6126095    658.87964   0.02972747  0.029859285            3 
 1848000   0.98203508    -6.543027    661.51414  0.029830183  0.029850503           14 
 1849000   0.97449447   -6.5503375    663.51008  0.029904006  0.029841947           11 
 1850000   0.94748257   -6.5911933    658.30481   0.02965337  0.029833201            4 
 1851000   0.96768669   -6.5656534    661.38676  0.029776101  0.029824488            4 
 1852000   0.95270852   -6.5986682    661.53889  0.029766869  0.029815752            6 
 1853000   0.94599092   -6.5898495    658.75129   0.02962544  0.029806946            5 
 1854000   0.98410139   -6.5765028    660.21883  0.029675424  0.029798208            8 
 1855000   0.93511685   -6.5725061     660.0358  0.029651204  0.029789332            5 
 1856000   0.97617576   -6.5718383    660.35789   0.02964969  0.029780507            7 
 1857000   0.93461033   -6.5407717    663.94408  0.029794654  0.029771821            3 
 1858000   0.96326385   -6.5959225    657.80725  0.029503375     0.029763            3 
 1859000   0.96433717   -6.5911771    661.58657   0.02965692  0.029754203            3 
 1860000   0.96246365   -6.5292375     664.4699  0.029770157  0.029745525            5 
 1861000   0.97025963   -6.5803007    664.12273  0.029738614  0.029736867            6 
 1862000   0.94346322   -6.5282739    662.27052  0.029639748  0.029728346            5 
 1863000    0.9541343   -6.5915097    660.63664  0.029550753  0.029719746            7 
 1864000   0.94984031   -6.5749979    664.10546  0.029689979  0.029711023            4 
 1865000   0.92302441   -6.5816682    664.81681  0.029705845  0.029702414            8 
 1866000    0.9559634   -6.5520311    663.63868  0.029637311  0.029693837            3 
 1867000   0.95539349   -6.5568594    663.39765  0.029610679    0.0296853            4 
 1868000   0.94432619    -6.558044    663.10039  0.029581566  0.029676629            3 
 1869000   0.96814242   -6.5852272    661.49614   0.02949421   0.02966801            7 
 1870000   0.95418413   -6.6038844    663.67541  0.029575553  0.029659382            8 
 1871000   0.94958559   -6.5667455    666.23337  0.029673676  0.029650774           10 
 1872000   0.95826757   -6.5422285    665.44276   0.02962263  0.029642302            3 
 1873000   0.94722572   -6.6054074    664.73215  0.029575198  0.029633735            9 
 1874000   0.95861965   -6.5776408    664.37896   0.02954371  0.029625052            6 
 1875000   0.97680196   -6.6204588    663.38644  0.029483842   0.02961644            4 
 1876000   0.95870493   -6.5902761    664.39176  0.029512782  0.029607761            6 
 1877000   0.95384597   -6.5768187    665.63061   0.02955206  0.029599112            3 
 1878000   0.93862843   -6.5505158    666.70097   0.02958382  0.029590578            2 
 1879000   0.95396389   -6.5515416    666.46671  0.029557686  0.029582115            8 
 1880000   0.95996134   -6.5766411    666.56066  0.029546129  0.029573568            3 
 1881000   0.96530923   -6.5463929    666.69044   0.02953617  0.029564908            6 
 1882000   0.96407307    -6.584289     665.8524  0.029483369  0.029556276            2 
 1883000   0.97207352   -6.5623102    665.51682   0.02945286   0.02954763            2 
 1884000   0.95028928   -6.5955434    666.47721  0.029479707   0.02953903            8 
 1885000   0.95805291   -6.5912278    666.28241  0.029455456  0.029530465            6 
 1886000   0.94698883   -6.5479485    666.84056    0.0294645  0.029521892            5 
 1887000   0.92808923   -6.5733895    666.83852  0.029448795  0.029513419            5 
 1888000   0.95261324   -6.6023651    664.37944  0.029324658  0.029504752            5 
 1889000   0.95320469   -6.6032079    667.20948  0.029433981  0.029496163            3 
 1890000    0.9493659   -6.6039953    666.90506  0.029404985  0.029487624            5 
 1891000    0.9455355   -6.5715758    667.89573  0.029433092  0.029479172            5 
 1892000   0.95007992   -6.6276449    666.18321  0.029342107  0.029470619            9 
 1893000   0.96376598   -6.6055982    668.65954   0.02943562  0.029462082            8 
 1894000    0.9331033   -6.5570418    671.65323  0.029551797  0.029453677            9 
 1895000   0.93945146   -6.6122897    667.87594  0.029370094  0.029445299            4 
 1896000   0.95109075   -6.5927265    669.73991  0.029436529   0.02943697           10 
 1897000   0.96483654   -6.5867693    670.63543  0.029460351  0.029428594            5 
 1898000   0.94105843    -6.605385    671.62478  0.029488267  0.029420232            4 
 1899000   0.95281885   -6.5853097    670.96573  0.029443818  0.029411851            4 
 1900000   0.97160478   -6.5670986    671.68745  0.029459976  0.029403652            5 
 1901000   0.94480845   -6.5938606    671.86528  0.029452274  0.029395383            3 
 1902000   0.95425772   -6.6288971    670.21494  0.029364482  0.029386978            4 
 1903000   0.94480882   -6.5876016    671.28332  0.029395837  0.029378604            7 
 1904000   0.95819543   -6.6059579    672.72406  0.029443455  0.029370356            4 
 1905000   0.93906116   -6.5722488    673.44786  0.029459661  0.029362112            8 
 1906000   0.96264943   -6.6425549    671.49896  0.029358996  0.029353765            6 
 1907000   0.94815817   -6.6071659      674.736  0.029485055  0.029345414            5 
 1908000    0.9571208   -6.5991979    672.56413  0.029374744   0.02933702            4 
 1909000   0.96816449   -6.5902005    674.08173  0.029425604  0.029328824            7 
 1910000   0.95612775   -6.5770811    672.74195  0.029351743  0.029320521            5 
 1911000   0.95337825   -6.5851428     673.6622  0.029376513  0.029312161            4 
 1912000   0.95543409   -6.6076209    673.55399  0.029356433  0.029303754            7 
 1913000   0.96919661   -6.6194602    673.56051  0.029341371  0.029295407            4 
 1914000   0.94476452   -6.5796268    673.10839  0.029306356  0.029287097            5 
 1915000   0.93935271   -6.5919136    673.53021  0.029309409  0.029278719            4 
 1916000   0.96536649   -6.5874081    674.54361  0.029338188  0.029270322            5 
 1917000   0.95629218    -6.629521    672.25344  0.029223328  0.029261862            3 
 1918000   0.94766081   -6.5725268    673.07008  0.029243573  0.029253392            4 
 1919000   0.94527141   -6.5920962    674.28111  0.029280924  0.029245003            3 
 1920000   0.95080305   -6.5906692    675.69229  0.029326922  0.029236594           10 
 1921000   0.96028904   -6.5700183    675.59151  0.029307284  0.029228194            6 
 1922000   0.93689321   -6.6116012    673.74899  0.029212148   0.02921988           11 
 1923000   0.94168935   -6.6067837    674.94479  0.029248778  0.029211462            4 
 1924000   0.94813866   -6.6241496    672.87764  0.029144042  0.029202976            9 
 1925000   0.96302464   -6.6128929    676.14157  0.029270198  0.029194648            3 
 1926000   0.93587692   -6.5925274    674.16406  0.029169438  0.029186381            4 
 1927000   0.94386858   -6.6068905    675.43957  0.029209461  0.029177989            5 
 1928000   0.92580993   -6.5965155     675.9845  0.029217864  0.029169622            3 
 1929000   0.93684284   -6.6332383    675.99192  0.029203038  0.029161321            3 
 1930000   0.93747034   -6.6269545    676.53986  0.029211566  0.029152927            4 
 1931000   0.93805813   -6.5918454    678.38271  0.029275967  0.029144672            5 
 1932000   0.92965835   -6.6059081    675.71978  0.029145953  0.029136317            4 
 1933000   0.92612421   -6.5882511    678.91718  0.029268718  0.029128015            4 
 1934000   0.95710432   -6.6333143    675.21042  0.029093865  0.029119687            6 
 1935000   0.94606756   -6.5885067    677.84751  0.029192399  0.029111295            4 
 1936000   0.94898227    -6.565713    679.54002  0.029250173  0.029102956            6 
 1937000   0.94158462   -6.5783053     680.2378  0.029265092  0.029094748            2 
 1938000   0.93282785    -6.611497    676.52661  0.029090411  0.029086508           12 
 1939000   0.93620551   -6.5852992    679.25045  0.029192472  0.029078189            4 
 1940000   0.95202064   -6.6134981    678.56327  0.029147907  0.029070007            7 
 1941000   0.93303069   -6.6472007    676.19038  0.029031014  0.029061751            2 
 1942000   0.92444295   -6.5758563    679.56649  0.029160938  0.029053388            4 
 1943000   0.95638191   -6.5754372    680.39325  0.029181388  0.029045183            4 
 1944000   0.93314385   -6.6033888    677.95356  0.029061795  0.029036933            4 
 1945000   0.93385358   -6.6274655    677.28176   0.02901807  0.029028491            4 
 1946000   0.95501623   -6.5880516    680.83452  0.029155298  0.029020168            3 
 1947000    0.9466111   -6.5999799    679.83819   0.02909768  0.029011933            2 
 1948000   0.95236423   -6.5950605    679.07303   0.02905001  0.029003624            4 
 1949000   0.92279977   -6.6034511    680.94015  0.029114937  0.028995393            6 
 1950000   0.92506871   -6.6115811    681.22972  0.029112381  0.028987176            3 
 1951000   0.95050429   -6.6427524    680.78918  0.029078643   0.02897885            5 
 1952000   0.94832484   -6.6220029    680.97769  0.029071793  0.028970532            3 
 1953000   0.93476897   -6.6231338    679.07644  0.028975783  0.028962279            4 
 1954000   0.94864191   -6.5985274    681.85779  0.029079571  0.028954068            3 
 1955000   0.94752589   -6.6392047    680.00661  0.028985789  0.028945983            4 
 1956000   0.94221118   -6.5992346    680.85716  0.029007207  0.028937843           11 
 1957000   0.94729111   -6.6294665    681.39869  0.029015444  0.028929806            7 
 1958000   0.92423507    -6.657284    679.78639  0.028932005  0.028921498            4 
 1959000    0.9593096   -6.6713632     678.7671  0.028873877  0.028913201            6 
 1960000   0.93985756   -6.6295879    680.79289  0.028945276  0.028904982            5 
 1961000   0.93937334   -6.6554241    681.41398  0.028956909  0.028896854            9 
 1962000   0.93583737   -6.5839994    684.35501  0.029067066  0.028888765            6 
 1963000   0.93102409   -6.6214386    683.40488  0.029011924  0.028880783            8 
 1964000   0.93726094   -6.6386116    682.36034  0.028952832  0.028872704            7 
 1965000   0.92585762   -6.6209073     685.7896  0.029083528  0.028864694            5 
 1966000   0.95494833    -6.607452    684.09163  0.028996763  0.028856663            4 
 1967000   0.92440999   -6.6067304    683.55425  0.028959255  0.028848618            7 
 1968000   0.94147168   -6.6128235    683.70639  0.028950982  0.028840614            4 
 1969000   0.94604855    -6.582583     686.5616  0.029057119  0.028832661           10 
 1970000   0.93277599   -6.6100432    685.92024  0.029015239  0.028824757            3 
 1971000   0.92574319   -6.6514367    683.31748  0.028890474  0.028816723            7 
 1972000    0.9508775   -6.6302737    686.27616  0.029000852  0.028808724            8 
 1973000   0.94034184   -6.5875633    687.22315  0.029026151  0.028800793            4 
 1974000   0.94816479   -6.6585805    684.18986  0.028883395  0.028792784            6 
 1975000    0.9437945   -6.6304877    687.08645   0.02899099   0.02878471            2 
 1976000   0.93205278   -6.6356978    686.15968  0.028937233  0.028776786            4 
 1977000   0.95007359   -6.6145603    688.92263  0.029039059  0.028768876            4 
 1978000   0.92635032   -6.6752522    686.84485  0.028936841  0.028761103            3 
 1979000   0.93013232   -6.5682149    688.66555  0.028998886  0.028753349            6 
 1980000   0.92501779   -6.6376109    687.16609  0.028921132  0.028745585            6 
 1981000   0.95180934   -6.6464066    687.89301  0.028937111  0.028737743            6 
 1982000   0.91110374   -6.6124769    690.52156  0.029033029  0.028729885            6 
 1983000   0.94120304   -6.6550713     689.0555  0.028956778   0.02872215            6 
 1984000   0.93448041   -6.6556024    687.84468  0.028891326   0.02871438            5 
 1985000    0.9371396   -6.6555209     689.1987  0.028933615  0.028706539            5 
 1986000   0.92798125   -6.6232456    690.35371  0.028967511  0.028698717            7 
 1987000   0.91586348    -6.631451     689.2794  0.028907876  0.028690927            6 
 1988000   0.93246116    -6.634363    689.99478  0.028923322  0.028683235            6 
 1989000   0.92919838   -6.6205865    689.94772  0.028906809  0.028675496            5 
 1990000   0.93984629   -6.6112447    690.76753  0.028926614  0.028667869            7 
 1991000   0.95316853   -6.5973003    692.43827  0.028982014  0.028660201            4 
 1992000   0.93452847   -6.6314218    689.78131  0.028856313  0.028652548            6 
 1993000   0.93021844   -6.6299822    691.45447  0.028911794  0.028644969            4 
 1994000   0.93130157   -6.6131175    691.63011  0.028904635  0.028637407            7 
 1995000    0.9232354   -6.6102567    693.94928  0.028987021  0.028629771            7 
 1996000   0.92597377   -6.6478981    690.66699  0.028835462  0.028622054            5 
 1997000   0.92278485    -6.622365    690.54768  0.028816044  0.028614352            6 
 1998000   0.93963664   -6.6371915    692.23457  0.028871979  0.028606732           10 
 1999000   0.92651837   -6.6289667    692.12627  0.028853021  0.028599057            9 
 2000000   0.91316264   -6.6579809    692.69936  0.028862473  0.028591427            3 
 2001000   0.94181436   -6.5977657       693.44  0.028878894  0.028583789           10 
 2002000   0.94292352   -6.6396176    691.47294   0.02878259  0.028576204            3 
 2003000    0.9149567   -6.6192267    694.33493  0.028887291  0.028568569            5 
 2004000   0.93864259   -6.6270343    693.13216  0.028822861  0.028561006            6 
 2005000     0.946741   -6.6184465    692.12625  0.028766677  0.028553304            5 
 2006000   0.92021911   -6.6539604    693.62732  0.028814694  0.028545559            4 
 2007000   0.92297792   -6.6272448    695.57144   0.02888106  0.028537869            8 
 2008000   0.92145566   -6.6490094    692.89553  0.028755625  0.028530164            8 
 2009000   0.93164209   -6.6256174    693.05132  0.028747773  0.028522463            3 
 2010000   0.93765958   -6.6472452    692.36357  0.028704957   0.02851478            6 
 2011000   0.93267013   -6.6338977    693.26856  0.028728185  0.028507091            5 
 2012000    0.9229063   -6.6842271    692.52127  0.028682955  0.028499465            8 
 2013000   0.93552559   -6.6314964    695.97875  0.028811837  0.028491695            7 
 2014000    0.9296952   -6.6159363     693.8208  0.028708242  0.028484002            4 
 2015000   0.94404678   -6.6704355    691.98689  0.028618151  0.028476235            3 
 2016000   0.92750965   -6.6572143    694.76676  0.028718864  0.028468521            3 
 2017000   0.95151817   -6.7030452     693.3482  0.028646017  0.028460701            6 
 2018000   0.91618229   -6.6497471       696.34  0.028755368  0.028453005            6 
 2019000   0.92434823   -6.6330697    695.27444  0.028697145  0.028445432            4 
 2020000   0.90464032   -6.6178912    697.95574  0.028793554  0.028437815            8 
 2021000   0.92036199   -6.6457158    695.05338  0.028659631  0.028430252            6 
 2022000   0.92337248    -6.655238     695.2407  0.028653177  0.028422675            6 
 2023000   0.92217826    -6.636991    697.15615  0.028717917   0.02841516            5 
 2024000   0.94202483   -6.6402024    696.05817  0.028658521  0.028407633            6 
 2025000   0.91319181   -6.6536508    696.28397  0.028653661  0.028400069            2 
 2026000   0.93244243   -6.6529992    695.97692  0.028626889  0.028392506            5 
 2027000   0.94125032   -6.6514313    696.25398  0.028624156  0.028384836            5 
 2028000   0.93056311   -6.6585109    696.88549  0.028635992  0.028377188            7 
 2029000   0.91954633   -6.6271209    698.66429  0.028694935  0.028369466            7 
 2030000   0.91817474   -6.6400928    699.27094  0.028705703  0.028361863            5 
 2031000   0.93045072   -6.6394772    697.58374  0.028622343  0.028354294            4 
 2032000   0.94515855   -6.6402607    698.05053    0.0286274  0.028346716            7 
 2033000   0.91487381   -6.6849909     696.6865  0.028557407  0.028339084            9 
 2034000   0.92242914   -6.6615493    696.65791  0.028542196  0.028331411           11 
 2035000     0.913928   -6.6643155    698.44889   0.02860151  0.028323873            9 
 2036000   0.92330498   -6.6496178    698.94352  0.028607708  0.028316334            7 
 2037000   0.92715165   -6.6475325    698.70914  0.028584075  0.028308818            4 
 2038000   0.92532586   -6.6357521    698.84352  0.028575544  0.028301338           13 
 2039000   0.93067569    -6.656784    699.55807  0.028590734  0.028293873           10 
 2040000   0.89974195   -6.6552815    699.12116  0.028558871  0.028286316            5 
 2041000   0.92831709    -6.670244    699.08918  0.028543572  0.028278639            3 
 2042000   0.90988796   -6.6650331    698.29098   0.02849702  0.028271099            6 
 2043000   0.94179292   -6.6351746     701.3324   0.02860713  0.028263492            7 
 2044000   0.92453313   -6.6194276    699.69386  0.028526331  0.028255957            3 
 2045000   0.89806679   -6.6406442    700.97935  0.028564766   0.02824842            5 
 2046000   0.95112518   -6.6630348    699.70479  0.028498892  0.028240897            6 
 2047000   0.91826666   -6.6494641    700.28401   0.02850855  0.028233331            4 
 2048000   0.92870458   -6.6802935     700.2951  0.028495081  0.028225778            2 
 2049000   0.91228785   -6.6993689    700.04493  0.028470999  0.028218198            6 
 2050000   0.91323801    -6.680517    700.02092  0.028456135  0.028210604           12 
 2051000   0.91667718   -6.6640877    701.60554  0.028506645  0.028203065            9 
 2052000    0.9322046    -6.661948    702.89885  0.028545275  0.028195574            6 
 2053000    0.9394917   -6.6697747    701.53156  0.028475871  0.028188084            4 
 2054000    0.9322048   -6.6358352    704.80464    0.0285948  0.028180706            5 
 2055000   0.91451425    -6.682207     703.0324  0.028509019  0.028173289            6 
 2056000   0.92433133   -6.6608719    702.44414  0.028471309   0.02816583            4 
 2057000   0.91445861   -6.6692243    700.80483  0.028391056   0.02815839            9 
 2058000   0.91976776   -6.6927243    701.38162  0.028400616   0.02815083           10 
 2059000   0.91876174   -6.6988773     702.2476  0.028421871  0.028143239            5 
 2060000   0.92741008   -6.6644065    702.94085  0.028436118  0.028135704            5 
 2061000   0.93085392   -6.6625281    704.37969  0.028480499  0.028128187            5 
 2062000   0.92834627   -6.6669167    702.04021  0.028372139  0.028120662           10 
 2063000   0.91370468   -6.6540998    703.32316   0.02841021   0.02811325            8 
 2064000   0.92414764   -6.6468867    704.55085  0.028446013  0.028105783           10 
 2065000   0.92232335   -6.6978205    702.06484  0.028331914   0.02809818            8 
 2066000   0.92795561   -6.6992046    701.85346  0.028309675  0.028090624           10 
 2067000   0.90989757   -6.7325391    701.58749  0.028285256  0.028082943           10 
 2068000   0.90462297   -6.6997627    702.93392  0.028325835  0.028075275            5 
 2069000   0.92494222   -6.6607335    703.42547  0.028331943  0.028067692            9 
 2070000   0.92573698   -6.6434853    704.03524  0.028342803  0.028060212            7 
 2071000   0.93298764   -6.6902699    703.30948  0.028299915   0.02805268            9 
 2072000   0.90924149   -6.7038806    702.92151  0.028270653  0.028045091            3 
 2073000   0.92200158    -6.673568    704.07993  0.028303583   0.02803752            3 
 2074000   0.88836123   -6.6790263    705.42008  0.028343783  0.028030021            4 
 2075000   0.92877107   -6.6490609    705.86858  0.028348136  0.028022531            3 
 2076000   0.92954992    -6.647697    706.32998  0.028353002   0.02801509            7 
 2077000   0.91257946   -6.6633316    705.67909  0.028313236  0.028007578            5 
 2078000   0.91902413   -6.6685096    703.87858  0.028227405  0.028000004            5 
 2079000   0.91654536    -6.673291    704.56651  0.028241403   0.02799243            7 
 2080000   0.91517333   -6.6953383    704.15613  0.028211384  0.027984793            4 
 2081000   0.90184272   -6.6825406    704.74155   0.02822127  0.027977195           11 
 2082000   0.92229256   -6.6802143    706.72294  0.028287021   0.02796959            8 
 2083000   0.91750167   -6.6834286    705.83298  0.028237837   0.02796201           17 
 2084000   0.92358877   -6.6577614    707.45889  0.028289303  0.027954413            4 
 2085000   0.91938244   -6.6750977    708.55672  0.028319613  0.027946879            5 
 2086000   0.91492183   -6.6845656    706.91808  0.028240575  0.027939369            5 
 2087000   0.90409714   -6.6903772    705.62232  0.028175304  0.027931761           14 
 2088000   0.92146871   -6.6523463    707.43469  0.028234143  0.027924272            5 
 2089000   0.92916517   -6.6693596    708.82136  0.028275944  0.027916815            2 
 2090000   0.92286941   -6.7003858    705.64792  0.028135882  0.027909317           11 
 2091000    0.9177825   -6.6431458    707.63232  0.028201511  0.027901769            5 
 2092000   0.90561368   -6.6312872    707.15451  0.028168997  0.027894354            3 
 2093000   0.90966438   -6.6724818    707.98599  0.028188644  0.027886955           13 
 2094000   0.91651989   -6.6781657     708.2509  0.028185725  0.027879449           13 
 2095000   0.92887834   -6.6950187    705.60765   0.02806713  0.027871875            3 
 2096000   0.91656598   -6.6874554    707.17223  0.028115944  0.027864384            7 
 2097000   0.91559208   -6.6803656     708.3648  0.028149928  0.027856897            4 
 2098000   0.91514768   -6.6574387    708.76298  0.028152327   0.02784939            2 
 2099000   0.90005013   -6.6775062    708.56369  0.028131003  0.027841971            5 
 2100000   0.91220899    -6.665832    709.41671  0.028151457  0.027834492            6 
 2101000   0.92799248   -6.6995506    708.03338   0.02808319  0.027827005            4 
 2102000   0.89448092   -6.6739953    709.47246  0.028126882  0.027819547            4 
 2103000   0.91037797   -6.6922204    709.35206  0.028108736  0.027812024            7 
 2104000   0.91166962   -6.6848227    710.13085  0.028126222   0.02780447            9 
 2105000   0.95913373   -6.7107517     708.1151   0.02803306  0.027797087           11 
 2106000   0.93171748   -6.6603702    710.53097  0.028115344  0.027789665            7 
 2107000   0.92006866   -6.6539161    711.76483    0.0281508  0.027782268            5 
 2108000    0.8922074   -6.6802116    711.77711  0.028137931   0.02777491            6 
 2109000   0.92447587   -6.6730714    711.39274  0.028109402  0.027767583            7 
 2110000   0.89891706   -6.6935071    710.62562  0.028065783  0.027760136            6 
 2111000   0.91273904   -6.6685716    710.32916  0.028040785    0.0277527            9 
 2112000   0.90269769    -6.683982    711.49296  0.028073428  0.027745207            8 
 2113000   0.91980126   -6.7152135    710.16283  0.028007684  0.027737701           12 
 2114000   0.90094686   -6.6594964     711.7525    0.0280571  0.027730257           14 
 2115000   0.92647889   -6.6976968     713.0447  0.028094748  0.027722751           12 
 2116000   0.94997216   -6.6842132    711.82319  0.028033364   0.02771527            7 
 2117000    0.9174747   -6.6787646    711.22039  0.027996394  0.027707855           10 
 2118000   0.90996584   -6.6686799    711.74179   0.02800369  0.027700509            6 
 2119000   0.91942796    -6.717633    710.89846  0.027957309  0.027693159            5 
 2120000   0.92519141   -6.6622677    714.63832  0.028091129   0.02768586            4 
 2121000   0.89480081   -6.6469677    714.85106  0.028086243  0.027678552            7 
 2122000   0.92617991   -6.7193654    710.30443  0.027894456  0.027671253            7 
 2123000   0.90013064   -6.6852909    714.79739  0.028057677  0.027663853            5 
 2124000   0.90998284   -6.6656381    713.36345  0.027988208  0.027656496            5 
 2125000   0.92452669   -6.6851013    715.01778  0.028039913  0.027649161            7 
 2126000   0.90674255   -6.6820346    712.34612  0.027922002  0.027641826            3 
 2127000   0.89760388   -6.6681127     713.5167  0.027954737  0.027634502            7 
 2128000   0.89170762    -6.688085    714.35913   0.02797459  0.027627241            3 
 2129000   0.90260193   -6.6951514    716.05704   0.02802791  0.027620014            4 
 2130000   0.91631538   -6.7140703    716.12709  0.028017492  0.027612752            3 
 2131000   0.91542849   -6.6843121     716.0477   0.02800124  0.027605505           11 
 2132000   0.92358514   -6.7135123    715.83782  0.027979902  0.027598292            5 
 2133000   0.91091185    -6.695161    714.65073  0.027920407  0.027590995            7 
 2134000   0.89328692    -6.706077     716.1445  0.027965655  0.027583663            9 
 2135000   0.89785457   -6.6752261    716.42134  0.027963362  0.027576315            7 
 2136000   0.91113072   -6.7043104    716.63494  0.027958604   0.02756907            6 
 2137000   0.91985879   -6.6452612    718.65245  0.028024195  0.027561803            8 
 2138000   0.91373745   -6.7335836    715.82231  0.027900776  0.027554543            5 
 2139000   0.92615896   -6.7002655    715.28608  0.027866841  0.027547227            5 
 2140000   0.91135223   -6.7320512     717.5197  0.027940798  0.027539957            2 
 2141000     0.909305   -6.7227145    716.10862  0.027872825  0.027532661            6 
 2142000   0.92013692   -6.6773002    719.65349  0.027997724  0.027525382            5 
 2143000   0.91824251   -6.6833539    718.74456  0.027949314  0.027518208           12 
 2144000   0.91217339   -6.7139685    714.94743  0.027788691  0.027510937            5 
 2145000   0.91446429   -6.6556462    718.14268  0.027899871  0.027503636            4 
 2146000   0.91268474   -6.7325783    717.93381   0.02787876   0.02749639            8 
 2147000   0.88906699   -6.6877505    716.21473   0.02779905  0.027489075            5 
 2148000    0.8968406   -6.6664914    718.18593  0.027862583  0.027481832            5 
 2149000    0.8822177   -6.6894435    717.58061  0.027826144  0.027474541            5 
 2150000   0.90251155   -6.6967669    718.19911  0.027837175  0.027467243            5 
 2151000   0.90873474   -6.6984067    719.43551  0.027872133  0.027459995            8 
 2152000   0.87864103   -6.7291238    717.63189  0.027789339   0.02745266            8 
 2153000   0.89379061    -6.696538    718.25186  0.027800428  0.027445242           10 
 2154000   0.92417368   -6.6890968    718.00369   0.02777792  0.027437962            4 
 2155000   0.91539004   -6.6838466    716.83606  0.027719879  0.027430514            5 
 2156000   0.90436863   -6.6841582     717.8945  0.027747932  0.027423102            7 
 2157000   0.91521209   -6.6914468    718.32884  0.027751848  0.027415662            5 
 2158000   0.89735314   -6.7303246     717.0964  0.027691396  0.027408307            4 
 2159000   0.89354553   -6.7090284    718.65238  0.027738628  0.027400887            5 
 2160000   0.90310311   -6.6692943    719.34398  0.027752468  0.027393514            3 
 2161000    0.9142758   -6.7188386    716.89142  0.027645049  0.027386094            4 
 2162000   0.88288398   -6.6999389    718.20324  0.027682826   0.02737868            5 
 2163000   0.90384694   -6.6687441    720.58971  0.027761971  0.027371329            5 
 2164000   0.91308014    -6.719513    716.97215  0.027609833  0.027364016            6 
 2165000   0.90562546   -6.7102989    718.67231  0.027662521  0.027356538            3 
 2166000   0.88904698   -6.7406115    717.70709  0.027612615  0.027349052            3 
 2167000   0.91686167   -6.7212493    718.51461  0.027630927  0.027341623            3 
 2168000   0.90302719   -6.7078188    716.91073  0.027556532  0.027334156            5 
 2169000   0.91755021   -6.7335392    718.21932  0.027594103  0.027326664            5 
 2170000   0.90154219   -6.7443706    718.27084  0.027583366   0.02731913            5 
 2171000   0.89285726   -6.6758495    720.37452  0.027651409  0.027311696            7 
 2172000   0.89592043   -6.7533135     717.5489  0.027530268  0.027304304            7 
 2173000    0.8971362    -6.672139    721.31939  0.027662195  0.027296869            9 
 2174000   0.90553215   -6.6792758    722.22121  0.027684039  0.027289561            7 
 2175000   0.89576396   -6.7177685    722.89537  0.027697141  0.027282133            3 
 2176000   0.90901425   -6.7061731    720.72638  0.027601347  0.027274694            5 
 2177000   0.90396489   -6.7330415    720.42215  0.027577023  0.027267223            7 
 2178000   0.93403395   -6.7326159    719.17079  0.027516483  0.027259648            5 
 2179000   0.88238009   -6.7063442    720.44037  0.027552408  0.027252214            3 
 2180000   0.89481122   -6.7293936    719.47264  0.027502777  0.027244764            9 
 2181000   0.89653948   -6.7050487     721.7787  0.027578278  0.027237324            4 
 2182000   0.91163173     -6.68914     719.7265  0.027487263  0.027229923            7 
 2183000   0.92850315   -6.6893643    720.69393  0.027511602  0.027222441            5 
 2184000   0.89347201   -6.7140318    722.04443  0.027550535  0.027215014            6 
 2185000   0.88579101   -6.7183253    719.56913  0.027443521  0.027207569            4 
 2186000   0.89698391   -6.7245759     719.2949  0.027420513  0.027200199           14 
 2187000   0.89893721   -6.6827159    723.85212  0.027581623  0.027192658            3 
 2188000      0.91092   -6.6869425    720.88275  0.027455924  0.027185183            7 
 2189000   0.90859325   -6.7180441    722.42856  0.027502229  0.027177761            7 
 2190000   0.88393785   -6.7397674    720.83193  0.027428917  0.027170267            7 
 2191000   0.91396063   -6.7264758    720.64403  0.027409251  0.027162756            9 
 2192000   0.89863726   -6.7140251     720.4701  0.027390135  0.027155289           11 
 2193000   0.89012923   -6.7246293    719.74306  0.027350018  0.027147832            4 
 2194000   0.88592022   -6.7244705    721.48758  0.027403813  0.027140441            6 
 2195000   0.90097362   -6.6871475    725.23115  0.027533453   0.02713302            3 
 2196000   0.91098388   -6.7175616    723.28549  0.027447081  0.027125584            8 
 2197000   0.88439662   -6.7144999    722.22803  0.027394479  0.027118106            7 
 2198000   0.90049754   -6.6984804    722.25604  0.027383077  0.027110561            4 
 2199000   0.90364831   -6.7466109    721.28901  0.027333978  0.027103032            4 
 2200000   0.88665082   -6.7338256    720.90725  0.027307093  0.027095539            4 
 2201000   0.91185483   -6.7129936    723.67417  0.027399446  0.027088079           11 
 2202000   0.89125124   -6.7297612    722.58354  0.027345729  0.027080604           10 
 2203000   0.90910082   -6.7474027    723.57411  0.027370787  0.027073103            6 
 2204000    0.9139788    -6.732713    722.93229  0.027334101  0.027065597            5 
 2205000   0.89665845   -6.7536623    721.19692  0.027256119  0.027058105            4 
 2206000   0.91248053   -6.7408402    723.57492  0.027333595  0.027050644           12 
 2207000   0.90525258   -6.7077963     724.5076  0.027356426  0.027043135            7 
 2208000   0.89292554   -6.6968307    723.75105  0.027315484  0.027035656            4 
 2209000   0.90224493   -6.7038454    723.39918  0.027289844  0.027028163            5 
 2210000   0.90234938   -6.7142169    724.11598  0.027304524  0.027020682            3 
 2211000   0.90268059   -6.7075922    725.27345    0.0273358  0.027013134            5 
 2212000   0.89337377   -6.7104705    724.43189  0.027291738   0.02700568            3 
 2213000   0.89983702   -6.7284433     725.8346  0.027332226  0.026998201            4 
 2214000   0.88652308   -6.7311654    724.33084   0.02726328  0.026990687            4 
 2215000   0.88984142   -6.7476915    725.62517  0.027299668  0.026983201            9 
 2216000   0.89715478   -6.7265215    725.51802  0.027283319  0.026975667           10 
 2217000   0.88606738   -6.7275242    724.84499  0.027245714  0.026968189           16 
 2218000   0.90053374     -6.70679    726.25871  0.027286546   0.02696068            9 
 2219000   0.90193614    -6.742262    723.87701  0.027184806  0.026953052            7 
 2220000   0.91006172   -6.7599166     723.2435   0.02714878  0.026945461            7 
 2221000   0.88801085   -6.7118458    724.80213  0.027195037   0.02693794            5 
 2222000   0.89895538   -6.7385693    724.51045  0.027171859  0.026930382           28 
 2223000   0.90768922   -6.7055025    726.33477  0.027228024   0.02692284            3 
 2224000   0.87401972   -6.7479837    725.80241  0.027195834  0.026915381            3 
 2225000   0.87654446   -6.7295482    726.75355  0.027219234  0.026907874            6 
 2226000   0.90072324   -6.7244961    726.58271  0.027200611  0.026900376            8 
 2227000   0.89290957   -6.7554024    726.41467  0.027182109  0.026892891            7 
 2228000   0.89530552   -6.7599441    725.48212  0.027135029  0.026885413           11 
 2229000   0.89736505   -6.7355426    726.61838  0.027165335  0.026878016            6 
 2230000   0.90452217   -6.7492656    727.00921  0.027167758  0.026870515            5 
 2231000    0.8881756     -6.75263    726.42091  0.027133606  0.026862887            5 
 2232000   0.89788062   -6.7130998    726.68933  0.027131471  0.026855333            7 
 2233000   0.90565386   -6.7148774    726.80843  0.027123766  0.026847809            4 
 2234000   0.87793932   -6.7462687    728.49878  0.027174678  0.026840321            5 
 2235000   0.89792988   -6.6899601    729.85182  0.027212969  0.026832885            4 
 2236000   0.89935058   -6.6748349    730.44573  0.027222933   0.02682552            7 
 2237000   0.90356391   -6.7298878     727.1265  0.027087115   0.02681807           10 
 2238000   0.88566169   -6.7822646    725.12809  0.027000599  0.026810593            5 
 2239000    0.9034093   -6.7768986    725.48475  0.027001814  0.026803005           15 
 2240000   0.86580667   -6.7695429    726.85909  0.027040889  0.026795412            6 
 2241000   0.89376166   -6.7818121    727.58211  0.027055708  0.026787866            9 
 2242000   0.89592564   -6.7524744    727.65325  0.027046285  0.026780355            8 
 2243000   0.91925548   -6.7823085    725.73495  0.026962957  0.026772794            9 
 2244000   0.90175453   -6.7389441    728.38815  0.027049471  0.026765359            9 
 2245000    0.9082979   -6.6962638    731.62603  0.027157611  0.026757967            3 
 2246000   0.87004867   -6.7377662    727.36197   0.02698731  0.026750581            7 
 2247000   0.88472373    -6.725045    731.28512  0.027120795  0.026743223            5 
 2248000   0.88049989   -6.7665098    728.98593    0.0270235  0.026735783            4 
 2249000   0.88773962    -6.746062    729.20944  0.027019766  0.026728447            3 
 2250000   0.89627818   -6.6956974    732.07259    0.0271138  0.026721173            3 
 2251000    0.8775193   -6.7277847     730.3099  0.027036499  0.026713885            4 
 2252000   0.87620256   -6.7480256    728.38112   0.02695312  0.026706496            4 
 2253000   0.89580555   -6.7165042      730.816  0.027031218  0.026699078           17 
 2254000   0.89085885    -6.703325    731.33186  0.027038297  0.026691707            6 
 2255000   0.87649572   -6.7173237    731.86647  0.027046063  0.026684413            5 
 2256000    0.8985159   -6.7493078    731.82848  0.027032671  0.026677118            7 
 2257000   0.89791057   -6.7470506    730.66155  0.026977609  0.026669775            5 
 2258000   0.86317294   -6.7731386    730.24966   0.02695046  0.026662441            5 
 2259000    0.8862183   -6.7270001    732.84325  0.027034206  0.026655153            7 
 2260000   0.87979922   -6.7296977    732.17033  0.026997431  0.026647818            5 
 2261000   0.87850772   -6.7393066    730.87162  0.026937624  0.026640569           11 
 2262000   0.89204529   -6.7259189    732.23715  0.026976022  0.026633311            4 
 2263000   0.88585229   -6.7502584    731.84031  0.026949488  0.026626068            4 
 2264000   0.87969925   -6.7749627    733.49662   0.02699855  0.026618752            7 
 2265000   0.89179208   -6.7885748    729.84677  0.026852346  0.026611414            9 
 2266000   0.89645792   -6.7470129    734.16631  0.026999349  0.026604042            9 
 2267000   0.90117491    -6.753677    734.74573  0.027008739  0.026596668            7 
 2268000   0.89242987   -6.7636309    734.05887  0.026971593   0.02658925           11 
 2269000   0.90135462   -6.7716066    733.36454  0.026934205  0.026581835            2 
 2270000   0.89271943   -6.7943581    731.14971  0.026841032  0.026574384            6 
 2271000   0.88712517   -6.7367765    733.91166  0.026930561  0.026567054           12 
 2272000   0.88305579   -6.7666455    733.91469  0.026918819  0.026559743           15 
 2273000   0.87904295   -6.7791673    733.61164  0.026895866  0.026552283            6 
 2274000   0.88330194   -6.7239012    733.63771  0.026884994  0.026545051            6 
 2275000   0.88949284   -6.7169939    735.11481  0.026927283  0.026537866            8 
 2276000   0.89654206   -6.7606721    735.59726  0.026933116  0.026530674            6 
 2277000   0.88181069   -6.6970548     735.8606  0.026930925  0.026523449            4 
 2278000   0.88539132    -6.735235    736.45544  0.026940863  0.026516159            6 
 2279000   0.89589314   -6.7442412    735.10099  0.026879516  0.026508925            4 
 2280000   0.89161825   -6.7657925    736.57944  0.026921763  0.026501636            5 
 2281000   0.87499837   -6.7669846    734.03976  0.026817177  0.026494277            9 
 2282000   0.87704108    -6.759461    735.23746  0.026849162  0.026486945           11 
 2283000   0.88552081   -6.7669754    733.51622  0.026774574  0.026479665           12 
 2284000   0.89155005   -6.8264549     731.9965  0.026707403  0.026472298            9 
 2285000   0.88562299   -6.7564888    734.88301  0.026800985  0.026464905            3 
 2286000   0.87927452   -6.7835514    735.68533  0.026818509  0.026457551            7 
 2287000   0.89034005   -6.7843835     735.3417  0.026794261  0.026450266            8 
 2288000   0.89405265   -6.7812797    736.39719  0.026820993  0.026442982            8 
 2289000   0.88039476   -6.7844839    735.08845   0.02676163  0.026435695            6 
 2290000   0.89511059   -6.7469266      735.692  0.026771907  0.026428509           10 
 2291000   0.89784399   -6.7397465    736.58361  0.026792653  0.026421339            3 
 2292000   0.88484988   -6.7680908    735.21872  0.026731338  0.026414072           10 
 2293000   0.88700806   -6.7625858    736.63142  0.026771021  0.026406824            9 
 2294000   0.89235196   -6.7810882    736.29631  0.026747178  0.026399543            3 
 2295000   0.89086571   -6.7833451    736.42429   0.02674017  0.026392229            5 
 2296000   0.86714599   -6.7693184    739.42348  0.026837379  0.026384996           12 
 2297000   0.90093842    -6.788115    735.94765  0.026699596  0.026377735            6 
 2298000   0.88234998   -6.7535245    738.08592  0.026765518  0.026370508            6 
 2299000   0.89411255   -6.7131662    739.98987  0.026822889  0.026363399           11 
 2300000   0.90373395   -6.7506115    737.53265  0.026722197  0.026356195            6 
 2301000    0.8871002   -6.7283268    738.57797  0.026748442  0.026349118            4 
 2302000   0.86317535   -6.7833996    738.99931  0.026752075  0.026341912            5 
 2303000   0.88824889   -6.7762535     738.1701  0.026710454  0.026334738           13 
 2304000   0.87439825   -6.7461827    738.22869   0.02670098  0.026327557            4 
 2305000   0.87387741   -6.7596055    737.93061  0.026678619  0.026320321            8 
 2306000   0.87949957   -6.7740928     737.9851  0.026669019  0.026312999            4 
 2307000   0.87859624   -6.7758154    738.03863  0.026659393  0.026305698            4 
 2308000   0.89136707   -6.7770783    737.46719  0.026627209  0.026298394           11 
 2309000    0.8990509   -6.7447366    740.90942   0.02673991  0.026291136           11 
 2310000   0.89361754    -6.817539    738.06941   0.02662588  0.026283914            4 
 2311000   0.88123213   -6.7797867     738.3754  0.026625393  0.026276635           13 
 2312000   0.86031348   -6.7730782    740.51921  0.026691148  0.026269409            6 
 2313000   0.87123861    -6.776933    738.48849  0.026606445  0.026262172           17 
 2314000   0.88594408    -6.764699    738.73819  0.026603939   0.02625496            5 
 2315000   0.88200579   -6.7465731    738.84222  0.026596192  0.026247826            3 
 2316000     0.896201    -6.778391     739.3077  0.026601457  0.026240634            6 
 2317000   0.88869047   -6.7891074    739.19873  0.026586057   0.02623334            8 
 2318000    0.8705959   -6.7559559    740.09275  0.026606728  0.026226047           10 
 2319000   0.85671085   -6.7688742    738.33687  0.026532157   0.02621882           17 
 2320000   0.86462865   -6.7791218    740.90059  0.026612809  0.026211529            6 
 2321000   0.87896452    -6.767033     741.1363  0.026609805  0.026204309            7 
 2322000   0.87389705   -6.7580516    739.15974   0.02652741  0.026197017            6 
 2323000   0.89862357   -6.7596101    740.79142  0.026574524  0.026189744            4 
 2324000   0.87564286   -6.7878528    741.35924   0.02658345  0.026182581           15 
 2325000    0.8863934   -6.7506611    741.34555  0.026571525  0.026175311            6 
 2326000   0.88405955   -6.7781358    739.91633  0.026508897  0.026168074            4 
 2327000   0.87554342     -6.79679    739.74039  0.026491204  0.026160752           20 
 2328000   0.87859048   -6.8166795    739.13975  0.026458324  0.026153404            3 
 2329000   0.89551677   -6.7793185    741.29355  0.026524029  0.026146059           10 
 2330000    0.8715948   -6.8035041    740.43561   0.02648196  0.026138725            5 
 2331000   0.86781328   -6.7875901    741.05642  0.026492793  0.026131363            7 
 2332000   0.89261956   -6.7557895    741.43559  0.026494982  0.026124054           10 
 2333000   0.88057671   -6.7609844    741.56577  0.026488276  0.026116779            7 
 2334000   0.88040109   -6.7920261     740.3645  0.026434037  0.026109552            3 
 2335000   0.87154458   -6.8004613    738.08014   0.02634119  0.026102216            3 
 2336000   0.86892044    -6.751964    742.14039  0.026474757  0.026094923           11 
 2337000    0.8688995   -6.7945559    739.55068  0.026371084  0.026087608            5 
 2338000   0.87905801   -6.8157026    741.81426  0.026440486  0.026080283            5 
 2339000   0.88732051   -6.7814144    741.19203  0.026407013  0.026073022           14 
 2340000   0.87627184   -6.7977485    741.12087  0.026393194  0.026065627           11 
 2341000   0.88021195   -6.7851331    743.02864  0.026449831  0.026058336            7 
 2342000   0.88153861   -6.7934544    741.30733  0.026377289  0.026051003            9 
 2343000    0.8751131   -6.7344806    744.36635  0.026474831  0.026043693            3 
 2344000    0.8686891   -6.7680788    742.41588  0.026394194  0.026036455            4 
 2345000   0.89953935   -6.7914549    739.28222  0.026271579  0.026029123            6 
 2346000   0.85500828   -6.8181095    741.30589  0.026332264  0.026021754            9 
 2347000    0.8653399   -6.8106522    742.03499  0.026346932  0.026014401           22 
 2348000   0.88269541   -6.8168349     741.5484  0.026318441  0.026006992           13 
 2349000   0.87789627   -6.7845993    740.00418  0.026252454    0.0259996            9 
 2350000   0.87107994   -6.8252378    740.28283  0.026251164  0.025992234            7 
 2351000   0.87687482    -6.774031    742.55299  0.026320466  0.025984886            4 
 2352000   0.86513684   -6.8089168    742.83137  0.026319139  0.025977571            6 
 2353000   0.86985335   -6.8000582    741.74646   0.02626953  0.025970235            4 
 2354000   0.87403305     -6.76341    742.76685  0.026294493  0.025962861            7 
 2355000   0.88522192   -6.7884077    740.60706  0.026206902  0.025955511            5 
 2356000   0.89355295   -6.7461381    744.76402  0.026342814  0.025948165            6 
 2357000    0.8728783   -6.8057843    741.84437  0.026228411  0.025940826            8 
 2358000   0.87444727   -6.7611136    743.92186  0.026290707  0.025933455           13 
 2359000   0.87990871    -6.785869    743.53639  0.026265945  0.025926138           13 
 2360000   0.88057708   -6.7661416    743.20384  0.026243073  0.025918764           12 
 2361000   0.87124576   -6.7827802    741.96058  0.026188077  0.025911378            6 
 2362000   0.86979636   -6.7930653    741.80391  0.026171462  0.025903964            5 
 2363000   0.86129517   -6.7900362    743.64146  0.026225189  0.025896599            4 
 2364000   0.87645194   -6.7728688    742.85146  0.026186247  0.025889241            5 
 2365000    0.8783385   -6.8120332    742.76878  0.026172262  0.025881877            8 
 2366000   0.89199569   -6.8233047    741.75659  0.026125549  0.025874503            9 
 2367000   0.86557214     -6.80835     743.9315  0.026191082  0.025867137            3 
 2368000   0.88559319     -6.78782    744.18977  0.026189111  0.025859771            5 
 2369000   0.88839633   -6.8154102    744.60906  0.026192805  0.025852419            4 
 2370000   0.88475644    -6.797284    744.52098  0.026178656  0.025845035            6 
 2371000   0.86315552   -6.7727435    746.85155  0.026249527  0.025837704            5 
 2372000   0.89040165   -6.7893353     744.1945  0.026145113  0.025830326            4 
 2373000   0.88387599   -6.8207452    740.37842  0.026000085  0.025822914           10 
 2374000   0.86097959   -6.7956085    742.86434  0.026076395   0.02581555           12 
 2375000   0.86483521   -6.8211278    744.22251  0.026113071  0.025808189            7 
 2376000   0.85653031   -6.8112605    745.18392    0.0261358  0.025800786           10 
 2377000   0.85819177   -6.8137666    745.21162  0.026125776  0.025793416            6 
 2378000    0.8716803   -6.7841503     745.1692  0.026113303  0.025786037           12 
 2379000   0.88280864   -6.8274058    744.38422  0.026074829  0.025778794            9 
 2380000   0.87183969   -6.7969021    746.59723   0.02614136  0.025771532           11 
 2381000   0.88410504   -6.7837576    746.81607   0.02613804  0.025764244            5 
 2382000   0.87564205   -6.7959944    746.27406  0.026108104  0.025757043            5 
 2383000   0.87879022   -6.7816925     745.1701  0.026058543  0.025749793            6 
 2384000   0.88026534    -6.782906    748.08132  0.026149375  0.025742592            4 
 2385000   0.87082672   -6.8209702    747.06155   0.02610278  0.025735312            9 
 2386000   0.85565712   -6.7970009     746.5153  0.026072761  0.025728038            6 
 2387000   0.86244979   -6.7952263    746.42824  0.026058799   0.02572069            5 
 2388000   0.87006499   -6.8245996    746.54374  0.026051917  0.025713349           10 
 2389000   0.86454652   -6.8381605    743.96307  0.025950993  0.025705996            7 
 2390000   0.88279612   -6.7987561    746.08049  0.026013964  0.025698644            8 
 2391000   0.88737512   -6.7940455    747.08456  0.026038079   0.02569134            8 
 2392000   0.88832362   -6.8651491    745.39112  0.025968197  0.025684018            4 
 2393000     0.850088   -6.8068839    745.12952  0.025948235  0.025676663            2 
 2394000   0.88121923   -6.7990982    747.59519  0.026023225   0.02566936            9 
 2395000   0.87463751   -6.8026739    745.28171  0.025931862   0.02566202            5 
 2396000   0.87432259   -6.7969825    745.85714  0.025941053  0.025654682            5 
 2397000   0.88277687   -6.8315917     745.2488  0.025909081  0.025647296            5 
 2398000   0.85518888   -6.8051347    747.90586  0.025990612  0.025639857            5 
 2399000   0.87982147   -6.8242175    745.37793  0.025891966  0.025632471            4 
 2400000   0.85435293    -6.792915    745.08074  0.025870859  0.025625087            8 
 2401000   0.87123267   -6.8176566    746.90954  0.025923557   0.02561768           10 
 2402000   0.84747317   -6.7922574    748.46785  0.025966828  0.025610211            7 
 2403000   0.84983766   -6.7872993    747.41246  0.025919422   0.02560283            3 
 2404000   0.87252568   -6.8098223    747.27702  0.025903946  0.025595415           12 
 2405000    0.8559687   -6.8158952    745.62793  0.025836034  0.025588037            6 
 2406000   0.85070112   -6.7893813     747.9365  0.025905254   0.02558064            7 
 2407000   0.87593267    -6.791397    749.09676  0.025934661  0.025573305           10 
 2408000   0.84527528   -6.8220479     749.6067  0.025941539  0.025565996            6 
 2409000   0.85384006   -6.7826165    749.90188  0.025940981  0.025558667            6 
 2410000   0.86172549   -6.8094295    749.46789   0.02591521  0.025551391            5 
 2411000   0.87342836   -6.8013591    749.11533  0.025892276  0.025544077            9 
 2412000   0.86983447   -6.8070475    747.45543  0.025824193  0.025536734            3 
 2413000   0.85785681   -6.7795185    749.04231  0.025868294  0.025529424            3 
 2414000   0.85549621   -6.8038344    747.54146  0.025805767  0.025522125            7 
 2415000   0.85501463    -6.793445    748.89565   0.02584181  0.025514756            5 
 2416000   0.85974043   -6.7886065    750.51898  0.025887106  0.025507411            4 
 2417000   0.84779683   -6.8055873    749.02384  0.025824846  0.025500038            5 
 2418000   0.88422733    -6.852693    748.08743  0.025781894  0.025492573            5 
 2419000   0.85552394   -6.8211766    746.30611   0.02570987  0.025485124            5 
 2420000    0.8789135    -6.829733     748.0452  0.025759132  0.025477609            8 
 2421000    0.8635003   -6.8347813    748.02672  0.025747856  0.025470073            7 
 2422000   0.88246609   -6.7886626     749.5379   0.02578922  0.025462603            7 
 2423000   0.86060774   -6.8090356    747.45466  0.025706929  0.025455191            5 
 2424000   0.88716979   -6.8241008    748.03412  0.025716245   0.02544777           15 
 2425000    0.8526031   -6.8058921    751.29426  0.025817672  0.025440383            8 
 2426000   0.84734518    -6.798636    747.36556  0.025672079  0.025433025            9 
 2427000   0.87597675   -6.7833031    749.44919  0.025733044  0.025425655           12 
 2428000   0.87726173   -6.8341031    749.19277  0.025713645  0.025418248            5 
 2429000   0.86190221   -6.8195535    748.57243  0.025681777  0.025410822            3 
 2430000   0.87376746   -6.8076868    748.55768  0.025670702  0.025403351            7 
 2431000   0.87488357   -6.8520951    749.80093   0.02570276  0.025395884            8 
 2432000   0.87480772     -6.81832    748.40466  0.025644348   0.02538844            8 
 2433000   0.86682358   -6.8451721    747.83574  0.025614322  0.025380936            6 
 2434000   0.85289782   -6.8234221    749.36147  0.025656035  0.025373425            9 
 2435000   0.85661253   -6.8275622    748.39684  0.025612486  0.025365962           18 
 2436000    0.8542367   -6.8312777    749.27051  0.025631859  0.025358473            4 
 2437000   0.86789931   -6.8763964    746.66099  0.025532109   0.02535098            5 
 2438000   0.85501249   -6.8378353    748.28294  0.025577076  0.025343523            5 
 2439000    0.8676064   -6.8295146    750.90035  0.025656018  0.025336086            5 
 2440000   0.87194166    -6.864629    751.18804  0.025655329  0.025328618            7 
 2441000   0.85895535   -6.8373055    749.26012  0.025579002  0.025321194           13 
 2442000   0.84468554   -6.8472086    748.99652  0.025559532  0.025313719            6 
 2443000     0.840992    -6.839823    750.68443  0.025606646  0.025306265            4 
 2444000   0.86708476   -6.8608703    750.23462  0.025580831  0.025298853            5 
 2445000   0.85426075   -6.8319855    749.60048  0.025548755  0.025291499            5 
 2446000   0.85127376   -6.7971491    754.33061  0.025699462  0.025284134            4 
 2447000   0.86835172   -6.8380839    753.72543   0.02566835   0.02527683            6 
 2448000   0.86886894   -6.8616846    749.91335  0.025528096  0.025269509           10 
 2449000   0.86481914   -6.8274815    751.20874  0.025561751  0.025262088            9 
 2450000   0.85353189   -6.8289473    750.20577  0.025517203  0.025254826            7 
 2451000   0.85045427    -6.798899    751.27869  0.025543271  0.025247464            6 
 2452000   0.85507691    -6.842843    751.65052  0.025545491  0.025240088            8 
 2453000   0.86558564   -6.8375083    752.06716  0.025549231  0.025232681            6 
 2454000   0.85877385   -6.8389923    751.63025  0.025523983  0.025225292           11 
 2455000   0.86109873   -6.8625909    751.87446  0.025521876  0.025217859            7 
 2456000   0.85914915   -6.8443421    752.09008    0.0255188  0.025210488            9 
 2457000   0.84943175    -6.842129    753.30408  0.025549589  0.025203126            7 
 2458000   0.86728005   -6.8375918    750.96674  0.025459952  0.025195825            6 
 2459000   0.84571735   -6.8192486    752.29141   0.02549449  0.025188524            6 
 2460000   0.86756548   -6.8589215    753.27168  0.025517333  0.025181119            6 
 2461000   0.85268561   -6.8596574    751.95522  0.025462387  0.025173731            7 
 2462000   0.86830655   -6.8371023     752.3745  0.025466237  0.025166326           12 
 2463000   0.86312048   -6.8191346     755.1161  0.025548657    0.0251589            9 
 2464000    0.8448388   -6.8463985    751.04069  0.025400456  0.025151528            7 
 2465000   0.86462734   -6.8323296    752.98873  0.025456008  0.025144157           10 
 2466000   0.83619916   -6.8188652    753.99625  0.025479733  0.025136812            6 
 2467000   0.84012954   -6.8263134    752.68652  0.025425163   0.02512948            6 
 2468000   0.86196799   -6.8559206    752.04099  0.025393064  0.025122128           11 
 2469000     0.874622   -6.8389146      752.616  0.025402187  0.025114728           11 
 2470000   0.84265341   -6.8272117    756.16839  0.025511754  0.025107419            6 
 2471000   0.84861371   -6.8493189    754.07808  0.025430935  0.025100031           10 
 2472000    0.8466742   -6.8723019    753.82879  0.025412243   0.02509267            9 
 2473000   0.86744331   -6.8381411    755.42339  0.025455701   0.02508534            5 
 2474000   0.85283529   -6.8393522    754.08008  0.025400164  0.025078017            8 
 2475000   0.86480777   -6.8498956    754.93382  0.025418647  0.025070748            5 
 2476000   0.85885498     -6.85348    753.84139  0.025371614  0.025063432            9 
 2477000   0.85937575   -6.8306537    754.14928  0.025371729  0.025056088           10 
 2478000   0.84727197    -6.833275    754.04045  0.025357831  0.025048722            6 
 2479000   0.83692545    -6.862672    753.41246  0.025326491  0.025041318           11 
 2480000    0.8691035   -6.8504273    752.63965  0.025290311  0.025033855            6 
 2481000   0.86084741   -6.8569676    752.01435  0.025259114  0.025026453            9 
 2482000   0.84880823   -6.8894496    753.01123  0.025282408  0.025019095            4 
 2483000   0.84301888   -6.8638612    755.16236  0.025344421  0.025011743            7 
 2484000   0.84951119   -6.8455397    754.96001  0.025327429  0.025004419           17 
 2485000   0.86119233   -6.8932482    753.91675  0.025282252  0.024997019           17 
 2486000   0.86270901   -6.8780107    754.23528  0.025282759  0.024989605            5 
 2487000    0.8223977   -6.8651853    753.59672  0.025251197  0.024982199            4 
 2488000     0.850422   -6.8563026    756.12433  0.025325708  0.024974834           10 
 2489000   0.85084051   -6.8924686    752.09626   0.02518067  0.024967476           11 
 2490000   0.84916244   -6.8492277    756.46751  0.025316851  0.024960074            6 
 2491000   0.84285324   -6.8612737    756.65927  0.025313103  0.024952706            5 
 2492000   0.85265316    -6.855565    756.57914  0.025300265  0.024945349            5 
 2493000   0.84519258   -6.8539233    756.36076  0.025282817  0.024937948            3 
 2494000   0.84570589   -6.8547477    755.18569  0.025233417  0.024930587            6 
 2495000   0.84886727   -6.8707796    755.63411   0.02523828  0.024923214            5 
 2496000   0.85346963   -6.8432559     755.6888  0.025229995  0.024915811            4 
 2497000   0.86449392   -6.8213872    756.89411  0.025260116  0.024908475           14 
 2498000   0.83550419   -6.8450656    756.12046  0.025224195  0.024901147           16 
 2499000   0.84928805   -6.8467759    755.62006  0.025197414  0.024893761            8 
 2500000   0.83821883   -6.8628701    756.48695  0.025216232  0.024886342            8 
 2501000   0.83977724   -6.8862745    754.19936  0.025129927  0.024878958            5 
 2502000   0.84018238   -6.8731169    756.22943  0.025187498  0.024871537           12 
 2503000   0.86032569   -6.8678619    759.22403  0.025277135  0.024864171            5 
 2504000    0.8508508   -6.8609651    756.64891   0.02518134  0.024856842            7 
 2505000   0.85109293    -6.865748    755.56353  0.025135181  0.024849544           23 
 2506000   0.85495655   -6.8327763    757.63397     0.025194  0.024842245            6 
 2507000   0.84772382   -6.8402482    755.97967  0.025128961  0.024834933           12 
 2508000   0.85983376   -6.8702827    756.19104  0.025125965  0.024827565            7 
 2509000   0.85298656   -6.8818628    755.53637  0.025094207  0.024820222            3 
 2510000   0.85391092   -6.8876728    756.02081  0.025100293  0.024812837            6 
 2511000   0.86418349   -6.8606203    756.76764  0.025115082  0.024805464            6 
 2512000   0.87330035    -6.873456    756.30502  0.025089737  0.024798146            4 
 2513000   0.82415082   -6.8857787    757.22548  0.025110276  0.024790797           11 
 2514000   0.85583075   -6.8628665    757.03383  0.025093935  0.024783503           10 
 2515000   0.84583204   -6.8378612    758.01883  0.025116595   0.02477618            5 
 2516000   0.84474617   -6.8605638    758.31352  0.025116373  0.024768853            5 
 2517000   0.84526383   -6.8553392    757.54284  0.025080878  0.024761496            5 
 2518000   0.84301877   -6.8363151    758.60465  0.025106058  0.024754177            8 
 2519000   0.86138339   -6.8641551    755.52815  0.024994315  0.024746854           15 
 2520000   0.84111175   -6.8778295    758.82232  0.025093331  0.024739499           15 
 2521000    0.8388165    -6.868973    758.03118  0.025057225  0.024732233            4 
 2522000     0.871883    -6.913414    753.89638  0.024910665  0.024724894           10 
 2523000   0.86269466   -6.8805553     758.6459  0.025057666  0.024717562           11 
 2524000   0.85177194    -6.872543    759.99349  0.025092231   0.02471021            5 
 2525000   0.83113622   -6.8823579    757.01787  0.024984088  0.024702858            7 
 2526000   0.84118695   -6.8827892    755.63419  0.024928549  0.024695462            4 
 2527000   0.85282309   -6.8728892    755.35416   0.02490945  0.024688034           11 
 2528000   0.83395123   -6.9100282    757.15397  0.024958926  0.024680623            7 
 2529000   0.83813564   -6.8813902    758.84302  0.025004713  0.024673205           13 
 2530000   0.84617835    -6.876772      755.967  0.024900099  0.024665767            5 
 2531000   0.83625386   -6.8703485    759.52174  0.025007301  0.024658328           17 
 2532000   0.86053505   -6.9017038    758.55942  0.024965753  0.024650866            8 
 2533000   0.84988397    -6.882124    756.33261  0.024882636   0.02464342            5 
 2534000   0.84184336   -6.8589577     758.7124  0.024951079  0.024635982           19 
 2535000   0.84942053   -6.8843065    757.78534  0.024910761  0.024628562            6 
 2536000   0.83437588   -6.8843135    758.90619  0.024937769  0.024621154            9 
 2537000   0.83769309   -6.8761992    759.27667  0.024940109  0.024613732            5 
 2538000   0.83138566   -6.8811732    759.06258  0.024923252  0.024606316            4 
 2539000    0.8416276   -6.8457941    757.93811   0.02487653   0.02459888            7 
 2540000   0.83893545   -6.8560591    760.06448  0.024936499  0.024591442            5 
 2541000   0.84722192   -6.8526935    758.59038  0.024878341  0.024584057           15 
 2542000   0.86261385   -6.8833069    759.71591  0.024905452  0.024576689            5 
 2543000   0.82747335   -6.9100443    757.90415  0.024836287  0.024569253            7 
 2544000   0.85402692   -6.8945972    758.70472  0.024852749  0.024561839            7 
 2545000   0.85284011   -6.8843945    760.82301  0.024912345  0.024554528            7 
 2546000   0.85849838   -6.8386561    760.20671  0.024882388  0.024547222           16 
 2547000   0.82912185   -6.8665043    761.79535  0.024924596  0.024539954            4 
 2548000   0.87896723   -6.8683065     760.3651  0.024868037  0.024532688            5 
 2549000   0.84568398   -6.8655072    761.23719  0.024886792  0.024525374            7 
 2550000   0.84073665   -6.8742082     760.9949  0.024869114   0.02451802            9 
 2551000   0.83650303   -6.8925838    759.81822  0.024820927  0.024510612           12 
 2552000   0.84404498   -6.9158048    757.38925  0.024731885  0.024503163            9 
 2553000   0.84887797   -6.8938563     756.7303  0.024700689   0.02449571           10 
 2554000   0.87626792   -6.9087464    757.71277  0.024723074  0.024488272            7 
 2555000   0.85450516   -6.8766265    758.81552  0.024749365  0.024480807            8 
 2556000   0.84167503   -6.8692802    760.47126  0.024793664  0.024473411            4 
 2557000   0.85985193   -6.8636911    759.67695  0.024758081  0.024466017            6 
 2558000    0.8401876   -6.8701049    760.84739  0.024786532  0.024458649            9 
 2559000   0.83615202   -6.8269952     762.8069  0.024840657  0.024451311            3 
 2560000   0.84627722   -6.9040831    759.39997  0.024720051  0.024443981            7 
 2561000    0.8577022   -6.8830576    759.93925  0.024727946  0.024436599            6 
 2562000   0.84377394   -6.8595189    760.74167  0.024744395  0.024429198            9 
 2563000    0.8386802   -6.8457844    760.69946  0.024733368  0.024421823            6 
 2564000   0.83247067   -6.8666512    762.41279  0.024779407  0.024414527            7 
 2565000   0.84723194   -6.8586033    760.10926  0.024694908   0.02440728            9 
 2566000   0.86003751   -6.8781124     759.7155  0.024672496  0.024399974            5 
 2567000   0.84900245   -6.8945192    760.73779  0.024696072  0.024392608            5 
 2568000   0.83383844   -6.9012312    759.45943  0.024644971  0.024385152            5 
 2569000   0.83951374   -6.8761735    760.31284  0.024663061  0.024377681            9 
 2570000   0.86342716   -6.9100211    761.36577  0.024687606  0.024370239           11 
 2571000   0.83877387   -6.9005817    758.81749  0.024595407  0.024362755            4 
 2572000    0.8192042   -6.8745297    759.28117  0.024600867  0.024355284           10 
 2573000    0.8299814   -6.9111575    757.89732  0.024546487  0.024347825            9 
 2574000   0.83390415   -6.8874913    763.04343  0.024703556  0.024340435            3 
 2575000   0.83700766   -6.8923625    759.62768   0.02458342  0.024333051            7 
 2576000   0.84008054   -6.8755255    759.17244   0.02455915  0.024325611            3 
 2577000   0.82751705   -6.8689102    762.27385  0.024649911  0.024318173           10 
 2578000    0.8478224   -6.8548253     762.4195  0.024645058  0.024310833           10 
 2579000   0.83701011   -6.8960849    761.38763  0.024602159  0.024303427            5 
 2580000   0.83714293   -6.8614852    761.29761  0.024589716  0.024296018            8 
 2581000   0.82966119   -6.8748282    760.28148  0.024547381  0.024288615            8 
 2582000   0.83809849   -6.8552939    761.25156  0.024569183  0.024281258           10 
 2583000   0.83553283   -6.8834577    760.52921  0.024536366  0.024273895            5 
 2584000   0.84846713   -6.8665593    762.42812   0.02458811  0.024266525           13 
 2585000   0.83749163   -6.8897014    762.89792  0.024593743  0.024259224            8 
 2586000   0.83660079   -6.8821038    759.70238  0.024481257  0.024251848            6 
 2587000   0.83866355   -6.9131294    760.63585  0.024501863  0.024244471           14 
 2588000   0.84412369   -6.8371898    762.73047  0.024559843  0.024237191            8 
 2589000   0.84654319    -6.871287    764.16585  0.024596558  0.024229901           15 
 2590000   0.85805288   -6.8617786    762.60471  0.024536831  0.024222575           38 
 2591000   0.84446026   -6.8788297    762.80688  0.024533863  0.024215264            7 
 2592000   0.84929582   -6.8869576    762.03043  0.024499435  0.024207871           13 
 2593000   0.83892108    -6.957725     760.8697  0.024452684  0.024200408            9 
 2594000   0.83616603   -6.9078906    761.14329  0.024452046  0.024192954           13 
 2595000   0.83845871   -6.9100307    759.60446  0.024393207  0.024185532            9 
 2596000   0.82690262   -6.9178761    760.25946  0.024404836  0.024178107           11 
 2597000   0.81708746   -6.8942267    761.40438  0.024432177  0.024170704            8 
 2598000   0.83672533   -6.9106148    761.09252   0.02441277  0.024163335           10 
 2599000   0.83058392   -6.9107505    761.01312  0.024400831  0.024155921            8 
 2600000   0.83522407   -6.9291747    760.04843  0.024360527  0.024148485           11 
 2601000   0.82279741   -6.9459673    761.26538  0.024390151   0.02414101           18 
 2602000    0.8413299   -6.9337829     760.2179   0.02434723  0.024133526           13 
 2603000   0.82312657   -6.8876277    761.30895  0.024372805  0.024126103           11 
 2604000   0.84679732   -6.8861022    763.90332  0.024446471  0.024118754            8 
 2605000   0.84475474   -6.9057711    761.75142  0.024368248  0.024111413            3 
 2606000   0.83888543   -6.9147384    762.28521  0.024375966  0.024104041            8 
 2607000    0.8182462   -6.9135395    764.05809  0.024423286   0.02409663           10 
 2608000   0.85199989   -6.9083249    763.77741  0.024404953  0.024089222           10 
 2609000   0.83803961   -6.9120684    762.29669  0.024348304  0.024081848            5 
 2610000   0.83103918   -6.9067205     763.3806  0.024373583  0.024074418            7 
 2611000    0.8254727   -6.9095357    764.58952  0.024402831   0.02406708           11 
 2612000   0.82358971   -6.8961224    763.53554  0.024359863  0.024059724            7 
 2613000   0.82958531   -6.9001037    763.32378  0.024343787  0.024052398            5 
 2614000   0.84191727   -6.9284819    763.31359  0.024334149  0.024045097           10 
 2615000    0.8211671   -6.8757832    764.54022  0.024363933  0.024037782            6 
 2616000   0.82639115   -6.9020477    764.65681  0.024358334  0.024030463            9 
 2617000   0.84255234   -6.8880951    766.27757  0.024400636  0.024023137            7 
 2618000   0.84063032   -6.9087714    763.82058  0.024313107  0.024015818            9 
 2619000   0.83742658   -6.8764648    766.17552  0.024378755  0.024008515            6 
 2620000   0.84069445   -6.8911671    764.77252  0.024324826  0.024001221            5 
 2621000   0.84376413   -6.9158739    761.86065  0.024222964  0.023993885           11 
 2622000   0.84199096   -6.9132676    764.63669  0.024301954  0.023986575           11 
 2623000   0.83792525     -6.91712    764.86373  0.024299903  0.023979289            6 
 2624000   0.83320679   -6.8780363    763.37431  0.024243341   0.02397199            5 
 2625000   0.82105348   -6.8857698    764.79276  0.024279135  0.023964658            7 
 2626000   0.81758085    -6.908124    765.70458  0.024298825  0.023957272            6 
 2627000   0.84177381   -6.8938146    765.09147  0.024270127  0.023949896           16 
 2628000   0.85671855   -6.8920313    765.96851  0.024288702  0.023942604            5 
 2629000   0.83409221   -6.9330984    764.94996  0.024247178  0.023935275            8 
 2630000   0.83618377   -6.8817756    765.88138  0.024267471  0.023928032            8 
 2631000   0.82018345   -6.9114475     763.7046  0.024189301  0.023920737            6 
 2632000   0.84103328   -6.8974453    764.28486  0.024198482  0.023913429           15 
 2633000   0.85016069   -6.8989239    764.97636  0.024211177  0.023906046            5 
 2634000   0.80936463   -6.9252303    766.34338  0.024245235  0.023898742            4 
 2635000   0.82956513   -6.8842172    766.14811  0.024229858   0.02389143            7 
 2636000    0.8345366   -6.8836453    766.02568  0.024216796  0.023884135            6 
 2637000   0.82785582   -6.9117643    763.81426  0.024137728  0.023876868            9 
 2638000   0.84271063   -6.9157633    764.80447  0.024159858  0.023869581            6 
 2639000   0.83046352   -6.9041942     766.8218  0.024214406  0.023862277            4 
 2640000   0.82867952   -6.9222836    764.03649  0.024117313  0.023854934           11 
 2641000   0.82077027   -6.9343803     765.5112  0.024154714   0.02384756            7 
 2642000    0.8239507   -6.9152022    764.60796  0.024117082  0.023840266            7 
 2643000    0.8192536   -6.9117842    764.44845  0.024102927  0.023832942            6 
 2644000   0.83488961   -6.9032015     764.8911  0.024107763  0.023825647            9 
 2645000   0.81682354   -6.8919815    766.92236  0.024162645  0.023818377           10 
 2646000   0.82224408   -6.8980921    765.65609  0.024113634  0.023811069            6 
 2647000   0.82649286   -6.9254321    767.26252  0.024155098  0.023803765            8 
 2648000   0.83751892   -6.9335702    765.87213   0.02410222  0.023796524            9 
 2649000   0.83413047   -6.9400494    767.19537  0.024134748  0.023789189            4 
 2650000   0.81768878   -6.9353967    765.77579     0.024081   0.02378186           10 
 2651000   0.84866185    -6.961262    765.48764  0.024062858  0.023774584           10 
 2652000   0.83819231   -6.9263242     767.9956  0.024132592  0.023767365           11 
 2653000   0.82649353   -6.9226287    768.47038  0.024138409  0.023760134           12 
 2654000   0.83808554   -6.9334221    768.56984  0.024132437  0.023752865           13 
 2655000   0.83459064   -6.9524927    766.90643  0.024071137  0.023745621            7 
 2656000   0.83046963   -6.9188619    767.63226  0.024084848  0.023738356            7 
 2657000   0.82369707   -6.9483695    766.01733  0.024025133  0.023731149            9 
 2658000   0.84478512    -6.920788    766.33616   0.02402609  0.023723897            5 
 2659000   0.81144141   -6.9176876    769.71816  0.024123046   0.02371665            7 
 2660000   0.82921693   -6.9477621    767.37984  0.024040722  0.023709406           14 
 2661000   0.82303605   -6.9638789    767.30248  0.024029265  0.023702183            4 
 2662000   0.82808526   -6.9493401    765.55417  0.023965507  0.023694949           16 
 2663000   0.81507768   -6.9484224    768.48853  0.024048333  0.023687687           19 
 2664000   0.82945511   -6.9691105    764.68588  0.023920354  0.023680428           11 
 2665000   0.85228937   -6.9549611    769.11426  0.024049852  0.023673103            9 
 2666000   0.82720305   -6.9093463    767.62413  0.023994253  0.023665812           12 
 2667000   0.82321677    -6.930838     768.8644  0.024024009  0.023658554            8 
 2668000   0.81157941   -6.9014736    768.17139  0.023993359  0.023651352            3 
 2669000   0.80113539   -6.9319082    767.61466  0.023966987   0.02364411            7 
 2670000   0.82408983   -6.9293927    770.19975  0.024038694  0.023636953            7 
 2671000   0.84006561   -6.9219499    769.35948  0.024003478  0.023629789            5 
 2672000   0.83355679   -6.9152632    769.22761  0.023990382  0.023622598            7 
 2673000   0.79870327   -6.9051866    770.44348  0.024019313  0.023615435            9 
 2674000   0.80960464   -6.9038464    770.14806  0.024001124  0.023608281            8 
 2675000   0.83119531    -6.936579    768.72947  0.023947958  0.023601104           16 
 2676000    0.8279684   -7.0077816    766.98054  0.023884546   0.02359385            9 
 2677000   0.82725846   -6.9702627    767.22798  0.023883327  0.023586548            5 
 2678000   0.80455272   -6.9705453    767.37288  0.023878917  0.023579221            8 
 2679000   0.83562844    -6.953029    768.51808  0.023905626  0.023571894           15 
 2680000   0.83264006   -6.9529102    768.72854  0.023903251  0.023564624           12 
 2681000   0.82175327   -6.9749419    766.98777  0.023840227  0.023557353            7 
 2682000   0.83384996   -6.9408978    768.51391  0.023878757  0.023550111           11 
 2683000    0.8159194   -6.9245296    770.03787  0.023917191   0.02354294           16 
 2684000   0.82673373   -6.9264912    769.38823  0.023888109  0.023535758            9 
 2685000   0.84059173   -6.9370827    771.64335  0.023949204   0.02352856           11 
 2686000   0.81671684   -6.9738679    768.31732  0.023837097  0.023521381            9 
 2687000   0.80204697   -6.9590815    770.73556  0.023903224  0.023514164            8 
 2688000   0.83367888   -6.9508487    770.95578  0.023901159  0.023506997           13 
 2689000   0.81064391   -6.9329015    772.74488  0.023947715  0.023499842           11 
 2690000   0.82905582   -6.9181134    771.51186  0.023900615  0.023492702            6 
 2691000   0.83162735   -6.9194275    773.23466  0.023945084  0.023485608            9 
 2692000   0.80775115    -6.960115     769.8628   0.02383181   0.02347845            7 
 2693000   0.81659336   -6.9584323    771.81974  0.023883517  0.023471276           12 
 2694000   0.82360078   -6.9561632    771.75173  0.023872548  0.023464157            9 
 2695000   0.82031364   -6.9363662     770.7542  0.023832845  0.023457014           19 
 2696000   0.82607619    -6.928572    772.13078  0.023866555  0.023449858            7 
 2697000   0.80974792   -6.9497801    771.71849  0.023844966  0.023442735            6 
 2698000   0.80810235   -6.9447908    771.73648  0.023836684  0.023435611           12 
 2699000   0.80852676   -6.9548377    772.64044  0.023855762  0.023428479            4 
 2700000   0.80937658   -6.9528226    772.34595  0.023837838  0.023421352            7 
 2701000   0.83037153   -6.9226696    771.40586  0.023800008  0.023414195            6 
 2702000   0.81539176   -6.9363507    769.63132   0.02373647  0.023407029           11 
 2703000   0.81389746   -6.9351837    769.71948  0.023730407  0.023399895           10 
 2704000   0.82193575   -6.9512452    771.34196  0.023771633   0.02339276           11 
 2705000   0.80557718   -6.9571736    771.81203  0.023777327  0.023385633           24 
 2706000   0.81434111    -6.975246    770.65259  0.023732834  0.023378444           11 
 2707000   0.81072781   -6.9518349    770.81789  0.023729155   0.02337122            8 
 2708000   0.81077072   -6.9705921    770.86218  0.023721756  0.023363997           10 
 2709000   0.82771859   -6.9510313    773.13321   0.02378286  0.023356874            6 
 2710000   0.82789836   -6.9582247    771.83961  0.023734305  0.023349759           13 
 2711000   0.81904746   -6.9255208    775.41067  0.023835321  0.023342647           11 
 2712000   0.83397923   -6.9411207    772.41651  0.023734529  0.023335588            6 
 2713000   0.81928984   -6.9468065    772.61952  0.023732016  0.023328518            7 
 2714000   0.81027328   -6.9432603    772.66908  0.023724794   0.02332145           15 
 2715000    0.7964179   -6.9663646    772.99835  0.023726162  0.023314371           19 
 2716000   0.81897659   -6.9465014    773.09082  0.023720263  0.023307249            5 
 2717000   0.81360283   -6.9433613    773.81669  0.023733796  0.023300177            7 
 2718000   0.81618399   -6.9390895    772.42486  0.023682391  0.023293076            5 
 2719000   0.81476188   -6.9550001    773.64635  0.023711118  0.023285962           14 
 2720000   0.82528601   -6.9726728     772.4507  0.023665769  0.023278837           13 
 2721000   0.81277171    -6.971445    771.01635  0.023613143  0.023271693           13 
 2722000   0.81706915   -6.9690757    772.87052  0.023661233  0.023264498           10 
 2723000   0.80530998   -6.9638777     771.6679  0.023615739  0.023257266           13 
 2724000   0.81938889   -6.9737891    770.52875  0.023572221   0.02325004           15 
 2725000   0.81470173   -6.9666224    772.30551  0.023617905  0.023242878            6 
 2726000   0.82024234   -6.9643007    772.99518  0.023630325  0.023235731            5 
 2727000   0.79217604   -6.9710177    771.98008  0.023590639   0.02322856           10 
 2728000   0.82624301   -7.0009442    770.91059  0.023549321  0.023221374           11 
 2729000    0.8225612   -6.9954179    771.96469  0.023572881  0.023214209           13 
 2730000   0.82555175   -6.9873261    771.36012  0.023545791  0.023207003            9 
 2731000   0.80632928   -6.9722252    772.82351  0.023581823  0.023199801           10 
 2732000   0.81047733   -6.9938867    771.27697  0.023526018  0.023192607            5 
 2733000   0.79769828     -6.96094    773.54951  0.023586703  0.023185423            8 
 2734000   0.81868056   -6.9768225     773.8279  0.023586561  0.023178253           16 
 2735000   0.81888172   -6.9970539    773.49248  0.023567717  0.023171094           11 
 2736000   0.81504286   -6.9878908    773.39036  0.023555993  0.023163907            5 
 2737000   0.80836479   -6.9703955    773.19374    0.0235414  0.023156719           10 
 2738000     0.829227   -6.9255518    775.02723  0.023588606   0.02314964            5 
 2739000   0.80587525   -6.9718481    773.90619  0.023545886  0.023142569           10 
 2740000   0.82344057   -6.9963475    774.74359  0.023562761  0.023135445            9 
 2741000   0.81778015   -6.9633983    774.58411  0.023549316  0.023128333            9 
 2742000   0.82385569    -7.003991    771.22221  0.023438555  0.023121217           11 
 2743000   0.83929666   -6.9682152    772.35192  0.023464331  0.023114098            9 
 2744000   0.81383166   -7.0012713    772.76186  0.023468229  0.023106967           10 
 2745000   0.80147759   -6.9992455    775.00683  0.023527833  0.023099816           15 
 2746000   0.80986908   -6.9298338    776.25537  0.023557155  0.023092686           12 
 2747000   0.79979395    -6.945406    773.84191  0.023475364  0.023085602            6 
 2748000   0.79167513   -6.9406462    774.53932  0.023487971  0.023078519            9 
 2749000   0.79351269   -6.9632885    773.30487  0.023442005  0.023071443            8 
 2750000   0.82113938   -6.9515211    774.85803  0.023480546  0.023064354            4 
 2751000   0.82713303   -6.9433859    775.72069  0.023498143  0.023057276           11 
 2752000   0.79656536   -6.9304334    776.54483   0.02351456  0.023050213            9 
 2753000   0.80766745   -6.9451705    773.86404  0.023424871  0.023043189            5 
 2754000   0.80878011   -6.9554948    774.24481  0.023427887  0.023036109            8 
 2755000   0.81376196   -6.9666555     772.9411  0.023379948  0.023029006            8 
 2756000   0.79703269   -6.9933093    773.85601  0.023399129  0.023021891            7 
 2757000   0.80432804   -6.9657952    775.65161  0.023444916  0.023014823           10 
 2758000   0.81011536   -6.9684912     775.9576  0.023445661  0.023007704           10 
 2759000   0.82930808   -7.0045069    773.54995  0.023364442  0.023000571           14 
 2760000   0.81950019   -6.9721234    775.40381  0.023411951  0.022993464            9 
 2761000   0.79716616    -6.963315    774.54657  0.023377598   0.02298634           11 
 2762000   0.81307369   -7.0177658    775.50706  0.023398113   0.02297919           14 
 2763000   0.80495082   -6.9644828    775.02288  0.023375042  0.022972085           21 
 2764000    0.8247972   -6.9640667    775.65937  0.023385775  0.022964938           21 
 2765000   0.80739452   -6.9951346    772.41393  0.023279504  0.022957802           11 
 2766000   0.81135781   -6.9585788    776.02531   0.02337989  0.022950638            8 
 2767000   0.83637899    -6.953205    777.19816  0.023406763  0.022943528           12 
 2768000    0.8054059   -7.0042672    773.08594  0.023274504  0.022936408           21 
 2769000   0.82343462   -6.9794344    774.43165  0.023306598  0.022929227           16 
 2770000   0.80268744   -6.9698071      773.986  0.023284777  0.022922061           16 
 2771000   0.81381844    -6.975701    773.86242  0.023272658  0.022914888           11 
 2772000   0.79798329   -6.9518868    776.35652  0.023339241  0.022907817           10 
 2773000   0.80671249   -6.9666309    773.95367  0.023258615   0.02290071           20 
 2774000   0.78802989   -6.9399132    774.97785  0.023280998  0.022893599           12 
 2775000   0.80917211   -6.9529947    774.64615  0.023262647  0.022886463           16 
 2776000   0.81457153   -6.9818678    776.11852  0.023298467   0.02287937           20 
 2777000   0.78991601   -6.9872361    774.51628  0.023241996  0.022872244            6 
 2778000   0.81324315   -6.9697891    775.75567  0.023270809  0.022865115           10 
 2779000   0.82205125   -6.9824521    776.42278  0.023282439  0.022858015            9 
 2780000   0.80780058   -6.9867142    776.51417  0.023276804  0.022850876            8 
 2781000   0.80362471    -6.985373    774.11332  0.023196492  0.022843704            3 
 2782000   0.79527731   -6.9944896    775.34212  0.023224962  0.022836538            7 
 2783000   0.80558967   -6.9922546    774.50838  0.023191651  0.022829372           10 
 2784000   0.80908919   -6.9934678    776.94764  0.023256335  0.022822232           11 
 2785000   0.78924662   -7.0048161    774.38572  0.023171326  0.022815051           11 
 2786000   0.78948708   -7.0178768    774.18238  0.023156927  0.022807862            8 
 2787000   0.81697561   -6.9993944    775.34456  0.023183368  0.022800719           16 
 2788000   0.80810473   -7.0082286     775.0241  0.023165474  0.022793566           15 
 2789000   0.80187352   -6.9792499    774.97292  0.023155639  0.022786438            5 
 2790000    0.7888029   -7.0287146     775.8613  0.023173874  0.022779303           11 
 2791000   0.79385068   -6.9755854     775.4074  0.023152018  0.022772187           14 
 2792000   0.81223203   -6.9933962    773.92578  0.023099504  0.022765084           12 
 2793000   0.81235086   -7.0048032    774.84474  0.023118652  0.022757967            6 
 2794000   0.82360819   -6.9920384     777.2063  0.023180813  0.022750795            6 
 2795000   0.81224999   -7.0065881    773.38817  0.023058681   0.02274367            8 
 2796000   0.81806863   -6.9902852    774.33543  0.023078667  0.022736522           14 
 2797000   0.80817973   -7.0444755    773.72359  0.023052187  0.022729352            6 
 2798000   0.81041374   -6.9740101    776.66321  0.023131499  0.022722208            9 
 2799000   0.78753199   -6.9717256    777.66296     0.023153  0.022715103            6 
 2800000   0.81349228   -7.0116671    775.92683   0.02309306  0.022707953           10 
 2801000    0.7889368    -6.982921    773.64279  0.023016863  0.022700786            9 
 2802000   0.81862179   -6.9896207    775.90325  0.023075876  0.022693642            8 
 2803000   0.79594033   -6.9799055    774.25192  0.023018549  0.022686449           10 
 2804000   0.79980233   -6.9942114    773.69976   0.02299393  0.022679216           13 
 2805000   0.80076327   -7.0069981    776.19444  0.023059847  0.022672032           22 
 2806000   0.80448536   -7.0084503    775.07504  0.023018384  0.022664809            7 
 2807000   0.79905671   -7.0078297    775.56157  0.023024628  0.022657624           19 
 2808000   0.81269082   -7.0042956    776.27255  0.023037528  0.022650484           20 
 2809000   0.81098812    -7.040641    774.79245  0.022985417  0.022643305           12 
 2810000   0.79224288    -7.021509     774.7012  0.022974532  0.022636118           22 
 2811000    0.8148334   -7.0107108    774.90605  0.022972431  0.022628917            6 
 2812000   0.81686467   -7.0030266    774.09666  0.022940276  0.022621688           11 
 2813000   0.80408374   -7.0353006    773.78557  0.022922905  0.022614522            8 
 2814000   0.78153257   -7.0089879    775.40705  0.022962777   0.02260731           10 
 2815000   0.78127721   -7.0199903    774.01293  0.022913349  0.022600071            5 
 2816000   0.80383735   -7.0270638    774.59914   0.02292256  0.022592862            7 
 2817000   0.80816404   -7.0070807    776.25074  0.022963281  0.022585683            3 
 2818000   0.79151974   -7.0179104    774.58918  0.022905997  0.022578515           18 
 2819000   0.81069073    -7.021893    775.13743  0.022914078  0.022571312           16 
 2820000   0.81327194    -7.012912    773.40116  0.022854644  0.022564101           14 
 2821000   0.80867319   -7.0362593    772.13124  0.022809029  0.022556877           13 
 2822000    0.7997595   -7.0130831    774.08757  0.022858716  0.022549676            9 
 2823000   0.79540527   -7.0222777    775.33007  0.022887297  0.022542438           11 
 2824000   0.79549943    -7.030324    775.38115    0.0228807  0.022535211           12 
 2825000   0.81584832   -6.9730013    776.64436  0.022909863  0.022528037           24 
 2826000   0.81597349   -6.9928401    776.12197  0.022886352  0.022520944           12 
 2827000   0.77319503   -7.0476928    774.97201  0.022844358  0.022513717           10 
 2828000   0.80459812   -7.0480951    774.39084  0.022819155  0.022506491           18 
 2829000   0.80334024    -7.020459    774.10778  0.022802751  0.022499273           16 
 2830000   0.78803053   -6.9966189    776.51579  0.022865601  0.022492068           22 
 2831000   0.79892376   -7.0481033    775.29273  0.022821521  0.022484852           23 
 2832000   0.79819585   -7.0053109    774.29656   0.02278415  0.022477628           13 
 2833000   0.80167987   -7.0365904    774.98054  0.022796227  0.022470396            6 
 2834000   0.79169708   -7.0191527    775.50749  0.022803678  0.022463167            7 
 2835000   0.81404453   -7.0170259    775.29738  0.022789459  0.022455947            6 
 2836000   0.79767585   -7.0257124    776.31731  0.022811392  0.022448741           16 
 2837000   0.79568019   -7.0136889    775.81503  0.022788598  0.022441518           13 
 2838000   0.79745193    -7.032381    777.55347  0.022831615  0.022434346            7 
 2839000    0.7895519   -6.9955945    776.43426   0.02279072  0.022427111            6 
 2840000   0.79007278   -7.0104051    776.07786  0.022772238  0.022419929            6 
 2841000     0.777572   -7.0362926    775.94943  0.022760455  0.022412704           10 
 2842000   0.79704242   -7.0228403    775.88091  0.022750437  0.022405467           11 
 2843000   0.78508818   -7.0046154    776.54754  0.022761975  0.022398271           12 
 2844000    0.8005323   -7.0143939    776.37292  0.022748855  0.022391081           12 
 2845000   0.79994652   -7.0403958     774.6409  0.022690126  0.022383858           10 
 2846000   0.80347442   -6.9934926    777.76606  0.022773661  0.022376685            9 
 2847000   0.79666652   -7.0349522    775.48385   0.02269886  0.022369531           19 
 2848000   0.78930501   -6.9932383    776.42623  0.022718464  0.022362366           21 
 2849000   0.80474759   -7.0496642    775.00989  0.022669062  0.022355167            9 
 2850000   0.78522256   -7.0120134    777.08641  0.022721825  0.022348025            9 
 2851000   0.79999398   -7.0128847    776.35265  0.022692408  0.022340836           17 
 2852000   0.80476598   -7.0459818    774.95223  0.022643532  0.022333591           13 
 2853000   0.81481439   -7.0269739    775.77487  0.022659623  0.022326385           19 
 2854000   0.80325513   -7.0362166    774.82644  0.022623991  0.022319217           14 
 2855000   0.79900176   -6.9854783    776.92092  0.022677201  0.022312019            9 
 2856000     0.768664   -6.9898256    777.09931  0.022674466  0.022304847           10 
 2857000   0.78818304   -7.0456864    775.55066  0.022621359  0.022297639            7 
 2858000   0.80417261   -6.9900897    776.39755  0.022638137  0.022290441            7 
 2859000   0.80186035   -7.0098089     777.4341  0.022660432   0.02228328            7 
 2860000   0.78646378   -7.0174721    776.92336  0.022637627  0.022276132           11 
 2861000   0.79402629   -7.0123583    775.40683  0.022585542  0.022268941           12 
 2862000    0.8062335   -7.0274718    775.76426  0.022588058  0.022261797           14 
 2863000   0.78712115    -7.046193    776.82609  0.022611075  0.022254595           15 
 2864000   0.79304764   -7.0226381    776.65774  0.022598282  0.022247441            6 
 2865000   0.79580727   -6.9986925    778.02557  0.022630179  0.022240285           16 
 2866000   0.78951765   -7.0026761    777.22127  0.022598897  0.022233126           13 
 2867000   0.78500517   -6.9964698    777.37248   0.02259541  0.022225985            6 
 2868000   0.79689319   -7.0046765    777.17586  0.022581818  0.022218823            5 
 2869000   0.79068138   -7.0272947    775.35856  0.022521162  0.022211661           18 
 2870000   0.79038348     -7.02258    777.88848  0.022586773  0.022204496           12 
 2871000   0.79801926   -7.0226728    777.33325   0.02256279  0.022197323           14 
 2872000   0.80088118   -7.0271899    778.17096  0.022579241  0.022190212           17 
 2873000     0.791426    -7.001809    778.54228  0.022582152  0.022183098            8 
 2874000   0.79624765   -7.0305463    776.11149  0.022503812  0.022176009           12 
 2875000   0.79134014   -7.0110662    777.16133  0.022526415  0.022168887           16 
 2876000   0.78691947   -7.0170865    777.25339   0.02252125  0.022161801           26 
 2877000   0.77643362    -7.043274    777.24545  0.022513192  0.022154689           12 
 2878000   0.79777458   -7.0336797    776.03399  0.022470292  0.022147553           11 
 2879000   0.78960905   -7.0185892    779.29053  0.022556748  0.022140409            9 
 2880000   0.80125036   -6.9781445    778.31017  0.022520549  0.022133313            9 
 2881000   0.77622499   -7.0222707    777.90371  0.022500975  0.022126193           20 
 2882000   0.77028826   -7.0411124    779.33678  0.022534605  0.022119066           10 
 2883000   0.79287263   -7.0038221    779.70478  0.022537426  0.022111936            8 
 2884000   0.80365064   -7.0299542    778.18479  0.022485691  0.022104818            4 
 2885000   0.79425268    -7.041632    777.50399  0.022458232  0.022097671           11 
 2886000   0.78020648   -7.0495505    777.08315  0.022438298  0.022090501            5 
 2887000   0.78421206    -7.055767    775.65508  0.022389305  0.022083303           13 
 2888000   0.79181282   -7.0352345    777.72081  0.022441159  0.022076132            8 
 2889000   0.78099479   -7.0363535      778.172  0.022446406  0.022068979           10 
 2890000   0.80132698   -7.0293859    777.19317  0.022410414  0.022061838            5 
 2891000   0.78399101    -7.037231    778.43429  0.022438438  0.022054701            8 
 2892000   0.79173928   -7.0278379    777.92924  0.022416126   0.02204756            6 
 2893000   0.80334281   -7.0011892    779.63067  0.022457388  0.022040481           11 
 2894000   0.78203267   -7.0340557    779.23064  0.022438109  0.022033423           17 
 2895000   0.77870205   -7.0150144    779.36494  0.022434224    0.0220263           11 
 2896000   0.80655367   -7.0395251    779.67254  0.022435329  0.022019165            6 
 2897000   0.79187347    -7.039444    777.25563  0.022358061  0.022011996            8 
 2898000   0.79871529   -7.0527309    778.15864  0.022376312  0.022004835           10 
 2899000   0.78654862   -7.0338148    776.86334   0.02233136   0.02199769            7 
 2900000   0.79131372   -7.0662616    776.38334  0.022309866   0.02199056            9 
 2901000   0.79084544   -7.0534129    777.94419  0.022347012  0.021983431           16 
 2902000   0.81331001   -7.0584948    776.37293  0.022294192  0.021976251           13 
 2903000   0.79348796   -7.0517193    777.88772  0.022329995  0.021969085           14 
 2904000    0.7874386   -7.0442022    779.22736  0.022360748  0.021961951            5 
 2905000   0.78562779   -7.0676767    777.61199  0.022306712  0.021954843           23 
 2906000   0.79223896   -7.0043821    779.66672  0.022357958  0.021947727           14 
 2907000   0.77604177   -7.0338649      776.915  0.022271385   0.02194063            8 
 2908000   0.77756196   -7.0163826    780.81099  0.022375372   0.02193357           11 
 2909000   0.80231004   -7.0296342    777.82331  0.022282093  0.021926502            9 
 2910000   0.79176738   -7.0218444    779.53027  0.022323318   0.02191948           14 
 2911000    0.7923668    -7.012572    779.66118  0.022319397  0.021912482            7 
 2912000   0.79198197   -7.0298508    780.67752  0.022340817  0.021905453            9 
 2913000   0.80933737   -7.0231646    780.64908  0.022332334  0.021898412           12 
 2914000   0.79229382   -7.0378012    780.19817  0.022311776  0.021891356           16 
 2915000   0.78001149   -7.0394734     779.6373  0.022288088  0.021884275            5 
 2916000   0.78977146   -7.0567401    777.90022  0.022230802  0.021877207           16 
 2917000   0.77128221   -7.0809737    778.72967  0.022246877  0.021870114           14 
 2918000    0.7699922   -7.0562322    778.16625  0.022223162  0.021862993           18 
 2919000   0.78089507   -7.0575653    777.93846  0.022209046  0.021855877           16 
 2920000   0.78086138   -7.0321639    779.47676  0.022245341  0.021848778           14 
 2921000   0.76558846   -7.0331739    779.24768   0.02223119  0.021841748            6 
 2922000   0.79705891   -7.0581908    778.13113  0.022191739  0.021834676           14 
 2923000   0.78693725   -7.0472058     779.4932  0.022222979  0.021827551            6 
 2924000   0.78266249     -7.07941    780.08472  0.022232237  0.021820407            9 
 2925000   0.80042949   -7.0484343    779.51616  0.022208438  0.021813281            9 
 2926000   0.79019857   -7.0641234    777.29876  0.022137695   0.02180621           17 
 2927000   0.78545715   -7.0589329    778.24848  0.022157171  0.021799106           11 
 2928000    0.7898963   -7.0356183    777.78208   0.02213633  0.021791999           10 
 2929000   0.77094544   -7.0559315    778.60942  0.022152311  0.021784893           11 
 2930000   0.79213713   -7.0581087    778.69114  0.022147074  0.021777792            7 
 2931000    0.7891818   -7.0665891    779.77162  0.022170238  0.021770686           12 
 2932000     0.776275   -7.0478542    778.48623  0.022126143  0.021763579            8 
 2933000   0.78370215   -7.0579022    779.72831   0.02215389  0.021756436            7 
 2934000   0.77407277    -7.062393    778.15617  0.022101686  0.021749281            9 
 2935000   0.80226287   -7.0601673     776.9494  0.022059892  0.021742131           11 
 2936000   0.77541786    -7.069643     779.2297  0.022117101  0.021734986            6 
 2937000   0.77854744   -7.0367677    780.90678  0.022157155  0.021727839           10 
 2938000   0.76929592   -7.0595955    778.00054  0.022067181  0.021720728           30 
 2939000   0.77652336   -7.0611805    778.19144  0.022065086  0.021713597           12 
 2940000   0.76572176   -7.0420045    780.78243  0.022131021  0.021706476           18 
 2941000   0.78262272    -7.034617    780.35096   0.02211127  0.021699396           15 
 2942000   0.78606631   -7.0424537    779.85706  0.022089765  0.021692322            8 
 2943000   0.77227747   -7.0435176    779.53326   0.02207309  0.021685234           10 
 2944000   0.78247231   -7.0625905    779.31808  0.022059502    0.0216781           12 
 2945000   0.79771101   -7.0687647    777.70422  0.022006345  0.021670937            8 
 2946000   0.78294065   -7.0885157    778.65412  0.022025744  0.021663739           13 
 2947000   0.79266078   -7.0816342    776.55933  0.021959035  0.021656541           11 
 2948000   0.79558993   -7.0818311    777.91241  0.021989835  0.021649355           21 
 2949000   0.77409552   -7.0407687    779.16258  0.022017706  0.021642199           12 
 2950000   0.78293551   -7.0790361    778.31477  0.021986293  0.021635027           10 
 2951000   0.79286419   -7.0409065    779.34195  0.022007849  0.021627923            9 
 2952000   0.77901847   -7.0566976    777.28349  0.021942285  0.021620835            8 
 2953000   0.76760482   -7.0424831       779.55  0.021998815  0.021613753           10 
 2954000   0.78416622    -7.099288    779.92927  0.022002067  0.021606625           16 
 2955000   0.78084641   -7.0732163    777.05122  0.021913458  0.021599503           28 
 2956000   0.79382407    -7.074952    778.29442  0.021941092  0.021592385           15 
 2957000   0.76725115   -7.0543149    779.16574  0.021958227  0.021585282           26 
 2958000   0.77952511   -7.0591096     778.5626  0.021933812  0.021578187           24 
 2959000   0.78390673    -7.049163    779.86785  0.021963159  0.021571069           24 
 2960000   0.78619735   -7.0833962    777.92723  0.021901105  0.021563986           12 
 2961000   0.77253295   -7.0747925     777.8309  0.021890997  0.021556848            8 
 2962000   0.78821449   -7.0860916    777.98384  0.021887909   0.02154974           20 
 2963000   0.78396942   -7.0522263    781.06383  0.021967146  0.021542641           13 
 2964000   0.76171534   -7.0919898    776.58786  0.021833892  0.021535537            8 
 2965000   0.77750227   -7.0960533    778.26178  0.021873575  0.021528417           10 
 2966000   0.78813585   -7.0928079    778.26086  0.021866174  0.021521318           16 
 2967000   0.77448819   -7.0791889    778.31868  0.021860428  0.021514169           17 
 2968000   0.78408924   -7.0704787    778.25826  0.021851366  0.021507063           18 
 2969000   0.76227088   -7.0432204     780.4826  0.021906439  0.021499948           15 
 2970000   0.78888925   -7.0659946     779.5306  0.021872351  0.021492853           11 
 2971000   0.78589281    -7.048577    781.57245  0.021922261  0.021485776            7 
 2972000   0.78773271   -7.0713025     779.1417  0.021846728  0.021478676           11 
 2973000   0.76855213   -7.0925409    778.99707  0.021835325   0.02147156           12 
 2974000   0.76993819   -7.1013164     779.0043  0.021828186  0.021464424           13 
 2975000   0.76124133   -7.0963145    777.34582  0.021774393   0.02145728           23 
 2976000   0.79476534   -7.0768333    779.23131  0.021819873  0.021450163           15 
 2977000   0.76890322    -7.082246    779.48598  0.021819673  0.021443033           19 
 2978000   0.79861786   -7.0476862    780.60115  0.021843551  0.021435912            6 
 2979000   0.77653309    -7.099309    780.50497  0.021833528  0.021428797           13 
 2980000   0.78029939   -7.0657813    780.28311  0.021819997  0.021421685           11 
 2981000   0.76168545   -7.0817803    778.58631  0.021765244  0.021414606           15 
 2982000   0.75837398   -7.0866039    780.05622  0.021799022  0.021407469           12 
 2983000   0.77367858   -7.0641927    780.94212  0.021816463  0.021400373            5 
 2984000   0.75935114   -7.0785411    781.28794   0.02181881  0.021393283            7 
 2985000   0.76973219   -7.0983795    778.95721  0.021746432  0.021386148            9 
 2986000   0.77409402   -7.0723968     779.1068  0.021743324  0.021379026           10 
 2987000   0.76286479   -7.0787592     779.2205  0.021739217  0.021371945            7 
 2988000   0.78008586   -7.0940484    780.52949  0.021768449  0.021364846           17 
 2989000   0.77853419   -7.1007589    778.77407  0.021712225  0.021357753           12 
 2990000    0.7789051   -7.1026023    780.42211  0.021750895  0.021350657           11 
 2991000   0.76500466   -7.0554266    780.49125  0.021745549  0.021343592           10 
 2992000   0.76185109    -7.079073    780.18045  0.021729625  0.021336506           18 
 2993000   0.77274611   -7.0744949    781.30063  0.021753554  0.021329448           16 
 2994000   0.75247117   -7.0565836    781.47468  0.021751132  0.021322402            5 
 2995000   0.77482724   -7.0761574    779.60222   0.02169177  0.021315354           12 
 2996000   0.77149524   -7.0782936      781.106  0.021726357  0.021308321           13 
 2997000     0.774842   -7.0907148    779.35002  0.021670282  0.021301278           15 
 2998000   0.78324474   -7.0381077    781.69028  0.021728104  0.021294254           40 
 2999000   0.75944625   -7.0541986    780.85349  0.021697607  0.021287233           33 
 3000000   0.76757852   -7.0483229    781.36789  0.021704664  0.021280208            6 
 3001000   0.76702063   -7.0716246    781.00491  0.021687352  0.021273167            8 
 3002000   0.77600048   -7.0953695    779.93081  0.021650311  0.021266133           12 
 3003000   0.77322612   -7.0761209    780.57752  0.021661048  0.021259059           22 
 3004000    0.7782015   -7.0746259     780.9782  0.021664952  0.021252015           26 
 3005000   0.75967699   -7.0651152    779.97832  0.021630014  0.021244954           12 
 3006000   0.78860735   -7.0729209    781.07068  0.021653102  0.021237918           15 
 3007000   0.77829005   -7.0976206    780.00195  0.021616283  0.021230896           10 
 3008000   0.77214919   -7.0886676    782.49869  0.021678266  0.021223887            6 
 3009000   0.78641559    -7.110487    780.94683  0.021628083  0.021216884           29 
 3010000   0.77986294   -7.0830899    779.26821  0.021574424  0.021209844           10 
 3011000   0.77774169   -7.0768543    779.75588  0.021580756   0.02120286            9 
 3012000    0.7715438   -7.1052715    781.22355  0.021614197  0.021195867           13 
 3013000   0.76794027   -7.0745482    782.33358  0.021637725  0.021188892           10 
 3014000   0.78571256   -7.1041567    782.69525  0.021640545  0.021181913           22 
 3015000   0.77619396   -7.0787035    780.00814  0.021559097  0.021174913           24 
 3016000    0.7592795   -7.0737933    780.14165  0.021555638  0.021167943           13 
 3017000   0.76682187   -7.0720382    782.09789  0.021602527  0.021160926           13 
 3018000   0.76488814   -7.1032919    781.91264  0.021590254  0.021153925           11 
 3019000   0.75888331   -7.0604957    784.51576  0.021654956  0.021146961           13 
 3020000   0.77825164   -7.1124197    782.70892  0.021597928  0.021140001           13 
 3021000   0.76895394   -7.0568344    782.73744  0.021591566  0.021133018            6 
 3022000   0.77110331   -7.0603383    784.15034  0.021623382  0.021126061           11 
 3023000   0.75905089    -7.105872     781.2602  0.021536558  0.021119121            7 
 3024000   0.74919571   -7.1280904    778.89477  0.021464252  0.021112122            8 
 3025000   0.76474116   -7.1362192    781.15926  0.021519539   0.02110511           16 
 3026000    0.7685574   -7.1151508    780.67519  0.021499097  0.021098104           14 
 3027000   0.75593412   -7.1202734    781.20973   0.02150671  0.021091116           14 
 3028000   0.78581834   -7.1029628    780.31854  0.021475081   0.02108409           17 
 3029000   0.77621484   -7.1240001     782.1879  0.021519421  0.021077131            7 
 3030000   0.78249338   -7.1295214       781.66    0.0214978  0.021070154           16 
 3031000   0.78453635   -7.1094061    782.21597  0.021505993  0.021063167            6 
 3032000   0.76505937   -7.0840127     784.2091   0.02155368  0.021056195           10 
 3033000   0.77398895   -7.1186816    783.44847  0.021525675  0.021049239            9 
 3034000   0.76916452   -7.0999302    782.86159  0.021502461  0.021042264           12 
 3035000   0.76770361   -7.1118258    782.59107  0.021487948  0.021035259           14 
 3036000   0.76124113   -7.0851339    783.51809  0.021506316  0.021028278           26 
 3037000   0.75948605   -7.0963295    783.37289   0.02149525  0.021021312           19 
 3038000   0.76828902   -7.1055863    782.56899  0.021466123  0.021014366           15 
 3039000   0.76689908   -7.0816783    782.18414  0.021448507  0.021007415           22 
 3040000    0.7724313   -7.1168107    781.63694  0.021426451  0.021000437           28 
 3041000   0.77419114   -7.1503748    781.63353  0.021419312  0.020993428           38 
 3042000   0.76087885   -7.1179528    780.88576  0.021391786  0.020986393           14 
 3043000   0.75617748    -7.114833    782.87184  0.021439146  0.020979427           36 
 3044000   0.76621192   -7.1167976    783.14017  0.021439448   0.02097245           20 
 3045000   0.76343589   -7.1394486    781.14631  0.021377841  0.020965448           47 
 3046000   0.76488978   -7.0995842    781.24789  0.021373602  0.020958474           41 
 3047000   0.77248813   -7.1376276    780.95596  0.021358603  0.020951488           17 
 3048000   0.76631468   -7.1171464    782.31976  0.021388882  0.020944484           10 
 3049000   0.75850065   -7.1068156    781.87036  0.021369585  0.020937526           19 
 3050000   0.76868781   -7.1388877    782.58775  0.021382179  0.020930567           13 
 3051000   0.77897001   -7.1086578    782.53334  0.021373685  0.020923584           12 
 3052000    0.7752047   -7.1070032    780.37555  0.021307764  0.020916588           10 
 3053000   0.76804218   -7.1358138     781.7368  0.021337941  0.020909627           12 
 3054000   0.77584482   -7.1086044    783.47658  0.021378427  0.020902644            7 
 3055000   0.75662012   -7.1181284    783.65044  0.021376171  0.020895669           18 
 3056000   0.75577227   -7.0969568    782.79792  0.021345929  0.020888721           28 
 3057000   0.74773415   -7.0991843    782.03211  0.021318071  0.020881778            8 
 3058000   0.75905496   -7.1247422    780.37065  0.021265823  0.020874807           16 
 3059000   0.76663007   -7.1293444    782.29293  0.021311238   0.02086783           11 
 3060000   0.75763612   -7.0992094    782.46088  0.021308847  0.020860918            9 
 3061000   0.74802095   -7.1229565    780.03039  0.021235718  0.020853973           14 
 3062000   0.76559175    -7.133307    782.45357   0.02129473   0.02084701            7 
 3063000    0.7534913   -7.1095261    780.80208  0.021242847  0.020840058           17 
 3064000   0.76445989   -7.1024951    784.05338  0.021324341  0.020833099           14 
 3065000   0.76848665   -7.1237387    782.43713   0.02127344  0.020826193           13 
 3066000   0.77129297   -7.1113162    782.89719  0.021279006   0.02081928           15 
 3067000   0.76290954   -7.0880507    782.28078  0.021255319  0.020812383           11 
 3068000   0.74711258   -7.1432189    782.61029  0.021257342  0.020805466            9 
 3069000    0.7634871   -7.1416361      782.289  0.021241691  0.020798531           15 
 3070000   0.76090653    -7.155447    780.84551  0.021195589  0.020791587           12 
 3071000   0.75645595   -7.1239069    781.70197  0.021211928  0.020784657           22 
 3072000    0.7591674   -7.1256181    782.28768  0.021220911  0.020777734           11 
 3073000    0.7454536   -7.1073817    782.65259  0.021223901  0.020770802           12 
 3074000   0.74298632   -7.1271202    782.32924  0.021208231   0.02076386           11 
 3075000   0.76119167   -7.1330691    784.25296  0.021253468  0.020756915           10 
 3076000   0.75394207   -7.1365301    782.59626  0.021201676  0.020750019            8 
 3077000   0.76258701   -7.1236734    782.91606  0.021203447  0.020743123            7 
 3078000   0.77411088   -7.1235695    783.10718  0.021201732  0.020736217            9 
 3079000   0.75688827   -7.1394509    782.86523  0.021188298  0.020729347           14 
 3080000   0.76562545     -7.15257    783.05568  0.021186571  0.020722461           16 
 3081000   0.77029877   -7.1025057    784.64628  0.021222717  0.020715594           15 
 3082000   0.74531847   -7.1640452    782.36157  0.021154055  0.020708718           17 
 3083000   0.76305293    -7.122707    783.49014  0.021177699  0.020701796            9 
 3084000   0.75091289   -7.1308232    785.33263  0.021220618  0.020694915           43 
 3085000   0.75684731   -7.1256757    783.30717  0.021159027  0.020688013           19 
 3086000   0.75049112   -7.1117851    784.76323  0.021191489  0.020681106            9 
 3087000   0.74727988   -7.1328606    785.45357   0.02120326  0.020674223            7 
 3088000   0.75176294   -7.1268605    783.93598   0.02115544   0.02066736            8 
 3089000   0.75805817   -7.1111808     783.6216   0.02114011   0.02066047           30 
 3090000   0.75600334   -7.1614456    783.37006  0.021126485  0.020653577           22 
 3091000   0.77483318   -7.1210843    783.11633   0.02111281  0.020646677           17 
 3092000   0.74971437   -7.1514514    783.57787  0.021118421  0.020639787           19 
 3093000   0.76294226   -7.1488318    783.29675  0.021104019  0.020632913           15 
 3094000   0.75446161   -7.1382481    782.78045  0.021083292  0.020626039           26 
 3095000   0.76030519   -7.1157439    785.07867  0.021138359  0.020619196           15 
 3096000   0.75973886   -7.1216137    785.16038  0.021133731  0.020612362           20 
 3097000   0.75562001   -7.1321024    784.29767  0.021103694  0.020605522            8 
 3098000   0.76010245   -7.1359113     783.1476  0.021065946  0.020598647            8 
 3099000   0.75723563   -7.1601114    782.59897  0.021044395  0.020591732            5 
 3100000   0.73915628   -7.1583283    782.76394  0.021042041  0.020584802           16 
 3101000   0.75750181   -7.1552272    784.35557  0.021078028  0.020577898           14 
 3102000   0.74764796   -7.1538551    784.27859  0.021069165  0.020571003           33 
 3103000   0.76320577   -7.1761507    783.33877  0.021037135  0.020564092           13 
 3104000   0.76101958   -7.1527309    783.07898  0.021023383  0.020557229           19 
 3105000   0.75772755   -7.1363913    781.75928  0.020981194   0.02055036           14 
 3106000   0.76697001   -7.1336951    784.24875  0.021041231  0.020543469           19 
 3107000   0.76425073    -7.173925    782.11054  0.020977109  0.020536587           23 
 3108000   0.74730058   -7.1771427      783.464   0.02100665  0.020529725           26 
 3109000   0.74908364   -7.1604737    784.09596  0.021016832  0.020522866           50 
 3110000   0.73188132   -7.1395282    784.72289  0.021026873  0.020516009           17 
 3111000   0.74923055    -7.124664    783.91351  0.020998433  0.020509141           23 
 3112000   0.76803554   -7.1465603    784.59714  0.021009992  0.020502281           14 
 3113000   0.74217504    -7.159381    782.22151  0.020939648  0.020495444           15 
 3114000   0.74539368   -7.1815596    784.19285  0.020985679  0.020488586           23 
 3115000   0.75739884    -7.166297    782.51717  0.020934114  0.020481688           30 
 3116000   0.76395031   -7.1901339    784.27328   0.02097436  0.020474842           17 
 3117000   0.74550438     -7.14958    782.95682  0.020932436  0.020467956           16 
 3118000   0.75730711   -7.1389421    782.69749  0.020918791    0.0204611           15 
 3119000   0.74113467   -7.1368113    785.30261  0.020981688  0.020454279           10 
 3120000   0.75522151   -7.1653922    783.87385  0.020936802  0.020447437           12 
 3121000   0.74411206   -7.1926102    782.82172     0.020902   0.02044058           10 
 3122000   0.77272743   -7.1288277    784.14068  0.020930511  0.020433753            8 
 3123000   0.74461116   -7.1310184      782.517  0.020880484  0.020426911            5 
 3124000    0.7635098   -7.1192662    783.72929  0.020906138  0.020420076           11 
 3125000   0.74797309   -7.1234411    783.84382  0.020902502  0.020413285           13 
 3126000   0.76023407   -7.1772537    784.00802  0.020900192  0.020406471           27 
 3127000   0.74944614   -7.1465003    785.32428  0.020928587  0.020399651           31 
 3128000   0.75782522   -7.1437223    784.96758  0.020912393  0.020392801           14 
 3129000   0.75713574   -7.1513772    784.03917  0.020880984  0.020385949           13 
 3130000   0.74123899   -7.1555503    783.93899  0.020871645  0.020379128           33 
 3131000   0.73399442   -7.1361873    783.78811  0.020860963  0.020372266           12 
 3132000   0.75438603   -7.1694454    783.22921  0.020839432  0.020365445           19 
 3133000   0.75519443   -7.1653956    784.52083  0.020867136  0.020358575            7 
 3134000   0.73071837   -7.1675964    783.75379  0.020840082  0.020351715            6 
 3135000    0.7349475    -7.168441    783.87822  0.020836742  0.020344871           10 
 3136000   0.74874689   -7.1810619    783.80519  0.020828157  0.020338007            8 
 3137000   0.74564444   -7.1731649    781.57522  0.020762279  0.020331161           12 
 3138000   0.75409384   -7.1756231    783.71202  0.020812407  0.020324315           16 
 3139000   0.75338332   -7.1592781    783.62689  0.020803517  0.020317502            9 
 3140000   0.74772314   -7.1525965    783.19182  0.020785346   0.02031067           18 
 3141000    0.7566974   -7.1792268    784.04041  0.020801242  0.020303836           40 
 3142000   0.74278304   -7.1683112    783.96897  0.020792727  0.020297046           16 
 3143000   0.74748929   -7.1590647    783.85196  0.020783009  0.020290225           17 
 3144000   0.74180735   -7.1677325    783.56316  0.020768744  0.020283418           14 
 3145000   0.72610658   -7.1719459    785.05949  0.020801788  0.020276565           22 
 3146000   0.74304869   -7.1420146    786.26804  0.020827189  0.020269735           31 
 3147000   0.74264703   -7.1180293    785.14516  0.020790837  0.020262934           18 
 3148000   0.74186523   -7.1883646    782.74659  0.020720738  0.020256139           31 
 3149000    0.7451052   -7.1559501    784.63193   0.02076405  0.020249353           43 
 3150000   0.76377047   -7.1523104    784.73554    0.0207602  0.020242558           64 
 3151000   0.74485998   -7.1603255    783.89242  0.020731313  0.020235745           43 
 3152000   0.74072113   -7.1432693    785.00487  0.020754147  0.020228956          106 
 3153000   0.74200756   -7.1854972    785.11352  0.020750436  0.020222169           67 
 3154000     0.739918   -7.1763599    783.71817   0.02070699  0.020215367           84 
 3155000   0.75312307   -7.1771163    784.83865  0.020730023   0.02020855           55 
 3156000   0.75128962   -7.1730658     782.2784  0.020655851  0.020201739           87 
 3157000   0.73985106   -7.2071088    783.25264  0.020675025  0.020194913           79 
 3158000   0.75286993   -7.1461826    784.96897  0.020713768  0.020188073           78 
 3159000   0.75068445   -7.1792903    784.32667  0.020690268  0.020181285           28 
 3160000    0.7539441   -7.1503301    785.18627  0.020706389  0.020174456           46 
 3161000    0.7499823   -7.1632482    785.08379  0.020697137  0.020167669           33 
 3162000   0.73951417   -7.1372381    785.67267  0.020706111  0.020160908           37 
 3163000    0.7265849   -7.1904418    783.44036  0.020640751  0.020154135           56 
 3164000   0.75478372   -7.1902472    782.90414  0.020620105  0.020147337           53 
 3165000   0.74509868   -7.1837757    784.89433  0.020665991  0.020140527           36 
 3166000   0.74668315   -7.2062142    783.35002  0.020618815  0.020133738           91 
 3167000   0.73027239   -7.1888756    784.26893  0.020636484  0.020126938          107 
 3168000   0.75052982   -7.1593155    784.91082  0.020646855  0.020120137           82 
 3169000   0.75166754   -7.1816912    785.08593  0.020644944  0.020113339           92 
 3170000   0.75672932    -7.197882    782.14512  0.020561123  0.020106514           79 
 3171000   0.74809663   -7.1721003    782.82049  0.020572388  0.020099684           60 
 3172000   0.73420915   -7.1822905    782.83094  0.020566177  0.020092893           14 
 3173000   0.74727878   -7.2164884    783.23174  0.020570221   0.02008611           30 
 3174000   0.73358355   -7.2004278     783.4493  0.020569452  0.020079308           44 
 3175000    0.7403896   -7.1928618    784.48543  0.020590169  0.020072536           40 
 3176000   0.74347206   -7.1882084    785.50911  0.020610545   0.02006575           40 
 3177000   0.75287934   -7.1765765    783.47236  0.020550634  0.020058993           65 
 3178000   0.73152013   -7.1973881    784.71881  0.020576851  0.020052197           74 
 3179000   0.74772334   -7.1761383    784.71956  0.020570398  0.020045415          104 
 3180000   0.75138678   -7.1706815    783.02672  0.020519568  0.020038625          123 
 3181000   0.75469157   -7.1856297    782.95247  0.020511172  0.020031819          146 
 3182000   0.74975265   -7.1890432    783.97123  0.020531406  0.020025032          135 
 3183000   0.72748812   -7.2187448      783.205  0.020504896  0.020018226          152 
 3184000   0.74198632   -7.2059252    784.16154  0.020523491  0.020011436           91 
 3185000   0.73971626   -7.1777625    783.86458  0.020509277  0.020004684           81 
 3186000   0.73490959   -7.1857405    784.17302  0.020510908  0.019997912           65 
 3187000   0.72880393   -7.1820936    785.15291  0.020530094  0.019991095           77 
 3188000    0.7364569   -7.2038987    782.57831  0.020456355  0.019984293          104 
 3189000   0.74188208   -7.2102502    785.11468  0.020516219  0.019977498           94 
 3190000   0.73338955   -7.1828158     784.6091   0.02049658  0.019970748           45 
 3191000   0.74752883   -7.2076583    783.34186  0.020457063  0.019963989           65 
 3192000   0.74603567   -7.1878972    784.29026  0.020475414  0.019957253          113 
 3193000   0.73444791   -7.2054982    785.70129  0.020505828  0.019950508           95 
 3194000   0.74498039   -7.1806952    785.71453  0.020499753  0.019943751          103 
 3195000   0.73546699   -7.1711661    784.49845  0.020461618   0.01993701          116 
 3196000   0.73925614   -7.2210923    783.17384  0.020420678  0.019930254           71 
 3197000   0.76248546   -7.1714234    784.73764  0.020455053  0.019923523           75 
 3198000   0.74874481   -7.1741448    784.65826  0.020446588  0.019916806          133 
 3199000   0.74621992   -7.1833984     785.3487  0.020458182  0.019910053          129 
 3200000   0.73504194   -7.1666022    784.11948  0.020419778  0.019903309          103 
 3201000   0.74169092    -7.169655    787.34688   0.02049742  0.019896587           79 
 3202000   0.73789658   -7.1805769    785.87051  0.020452595  0.019889901           57 
 3203000   0.74658239   -7.2057331    784.43701  0.020408914  0.019883208           60 
 3204000    0.7391438   -7.1864657    783.74243  0.020384479  0.019876464           77 
 3205000   0.72463376   -7.2337378    782.60675  0.020348589  0.019869681           63 
 3206000   0.74563844   -7.2164021    783.85743  0.020374751  0.019862881           60 
 3207000   0.73360413   -7.1886124    784.46757  0.020384253  0.019856102           60 
 3208000   0.75189654   -7.1903446    785.09413  0.020394174  0.019849347           59 
 3209000   0.73464791   -7.2082362    783.97498  0.020358756  0.019842588           60 
 3210000   0.71816934   -7.2225764    784.14192  0.020356748  0.019835848           48 
 3211000   0.72793288    -7.188193    783.46432  0.020332822  0.019829087           71 
 3212000   0.74444893   -7.2062696    786.43943   0.02040368  0.019822355          125 
 3213000   0.75253967   -7.2162042    784.65377  0.020351016  0.019815599           63 
 3214000   0.74429876   -7.2131935    783.31298   0.02030992  0.019808854           63 
 3215000   0.72714004   -7.1961424    784.43884  0.020332785  0.019802122           91 
 3216000     0.721088   -7.1929357    783.68721  0.020306986  0.019795407          109 
 3217000   0.76281899   -7.1794271    786.00429  0.020360696  0.019788701          106 
 3218000   0.73089226   -7.2147774    785.07566  0.020330321  0.019781993           57 
 3219000   0.73486559   -7.1876718    785.28232  0.020329355  0.019775299           94 
 3220000   0.73249491    -7.215682    784.03565  0.020290778  0.019768616          127 
 3221000   0.74505642   -7.2080854    785.26419  0.020316263  0.019761899          113 
 3222000   0.73372821   -7.2015028    784.42739  0.020288314  0.019755171           96 
 3223000   0.74904477   -7.1938156    783.88342  0.020267955  0.019748439           72 
 3224000   0.73293893   -7.2121466    785.03107  0.020291332  0.019741723           87 
 3225000   0.73526717   -7.2212389    784.29061  0.020265907  0.019734991          112 
 3226000   0.71148057    -7.202435    784.06572  0.020253816   0.01972826           97 
 3227000   0.72787654   -7.1980703    783.62568  0.020236176  0.019721528           98 
 3228000   0.71314859    -7.182981    786.25945    0.0202979  0.019714817           98 
 3229000   0.73271138   -7.2093385    784.24264  0.020239564  0.019708106           77 
 3230000   0.73700195    -7.199271    784.54025  0.020240977  0.019701415           89 
 3231000   0.76026118   -7.2290335    783.68923  0.020212763  0.019694691          108 
 3232000   0.72755425   -7.2406249    784.28346   0.02022183  0.019687978          199 
 3233000   0.74274598   -7.1965199    785.35098  0.020243092  0.019681259          136 
 3234000   0.73151022   -7.2370748     783.5099  0.020189391  0.019674536          118 
 3235000   0.73954947   -7.2159526    785.27757  0.020228685  0.019667804          197 
 3236000   0.75349137   -7.2631385    783.22505  0.020169578  0.019661077          116 
 3237000   0.72308293   -7.2331951    783.63573  0.020173919  0.019654326          152 
 3238000   0.72802228   -7.2249946    783.75845  0.020170848  0.019647573          156 
 3239000   0.73616905   -7.2334168    782.92298  0.020143125   0.01964082          151 
 3240000   0.72394432   -7.2272521    783.43997  0.020150205  0.019634102          190 
 3241000   0.73360366   -7.2471345    782.85672  0.020128991  0.019627346          216 
 3242000   0.73303469   -7.2434362    782.86952  0.020123111  0.019620584          194 
 3243000   0.74222662    -7.250195    783.84089  0.020141867  0.019613818          208 
 3244000   0.73248315   -7.2486852     783.3432  0.020122873  0.019607025          279 
 3245000   0.72694357   -7.2433463    782.56634  0.020096722  0.019600269          150 
 3246000   0.73524663   -7.2456287    784.31289  0.020135369  0.019593505          148 
 3247000   0.73968236   -7.2293874    783.52916  0.020109053  0.019586776          189 
 3248000   0.72765665   -7.2518745    783.96947  0.020114159  0.019580065          212 
 3249000   0.73838401   -7.2166447    784.95201  0.020133169  0.019573354          305 
 3250000   0.72028463   -7.2374166    785.41333  0.020138803  0.019566649          167 
 3251000   0.72010992   -7.2555261    783.90334  0.020093903  0.019559932          260 
 3252000   0.74358892   -7.2482367    783.47979   0.02007687   0.01955319          357 
 3253000   0.72281365   -7.2704702    783.77583  0.020078282  0.019546454          450 
 3254000   0.72276237    -7.281029    784.70801  0.020095985   0.01953971          432 
 3255000   0.73467705   -7.2518508    783.33484  0.020054655  0.019532947          391 
 3256000   0.74008083   -7.2482493    783.69896  0.020057815  0.019526209          334 
 3257000   0.71509029   -7.2694409    783.58131  0.020048647  0.019519467          377 
 3258000    0.7297615   -7.2514853    786.06222   0.02010595  0.019512736          403 
 3259000   0.71111737   -7.2485225    783.77126    0.0200412  0.019506008          327 
 3260000   0.74086959   -7.2567769    783.80998  0.020036042  0.019499265          395 
 3261000   0.74112328   -7.2741777    783.74622  0.020028269  0.019492536          317 
 3262000   0.72239083   -7.2525506    782.93389  0.020001377   0.01948581          424 
 3263000    0.7200241   -7.2353108    784.79505  0.020042779  0.019479084          359 
 3264000   0.72901168   -7.2681101     783.8242  0.020011851  0.019472374          399 
 3265000   0.72871925   -7.2742898    783.03374  0.019985547  0.019465613          399 
 3266000   0.73188026   -7.2871782    782.57719  0.019967779  0.019458859          398 
 3267000   0.73151886   -7.2826626    781.45339  0.019933001  0.019452102          372 
 3268000    0.7325192   -7.2696736    783.43334   0.01997739  0.019445377          403 
 3269000    0.7275383   -7.2711543    783.46319   0.01997204   0.01943869          293 
 3270000   0.71801198   -7.2554654    783.40957  0.019964566  0.019431991          369 
 3271000   0.73037633   -7.2488626    783.40676  0.019958391  0.019425298          331 
 3272000   0.72181803   -7.2569175    785.22801  0.019998676  0.019418611          296 
 3273000   0.72509312    -7.271508    784.09853  0.019963808  0.019411932          383 
 3274000   0.73796064   -7.2629085    784.00399  0.019955304  0.019405234          328 
 3275000   0.71768848   -7.2797647     783.1212  0.019926748  0.019398529          323 
 3276000    0.7174881   -7.2799257    783.97722  0.019942441  0.019391841          348 
 3277000   0.74196248   -7.2647055    786.40874  0.019998188  0.019385185          217 
 3278000   0.72353297   -7.2711056    785.68691  0.019973737  0.019378525          261 
 3279000   0.73486108   -7.2691366    785.83588  0.019971431  0.019371872          224 
 3280000   0.73851042    -7.281733    784.35034    0.0199276  0.019365184          240 
 3281000   0.74725836   -7.2866805    783.92632  0.019910757  0.019358514          291 
 3282000   0.72941429   -7.2849997    784.76981  0.019926107  0.019351808          283 
 3283000   0.72891137   -7.2585879    784.13784  0.019903996  0.019345096          294 
 3284000   0.73151129   -7.2562466     784.4411  0.019905631  0.019338438          290 
 3285000   0.72454436   -7.2795748    782.71113  0.019855686  0.019331756          289 
 3286000    0.7347521   -7.2840443    784.32792  0.019890645  0.019325073          375 
 3287000   0.72687276   -7.2836859    783.63923  0.019867134   0.01931838          303 
 3288000   0.71135483   -7.2720186    784.50412  0.019883012  0.019311666          303 
 3289000    0.7413333   -7.2700527    782.46583  0.019825323  0.019304977          340 
 3290000   0.71096405   -7.2731713     783.8573  0.019854541  0.019298262          351 
 3291000   0.73067609   -7.2760599    784.35337   0.01986107  0.019291558          376 
 3292000    0.7143215    -7.291267    782.62398  0.019811259  0.019284878          397 
 3293000   0.72310029   -7.2497571    785.86735   0.01988732  0.019278205          436 
 3294000   0.73642561   -7.2756577     784.0463  0.019835213  0.019271549          385 
 3295000   0.72237311    -7.248601    784.13386  0.019831408  0.019264874          415 
 3296000   0.71674086   -7.2811314    781.95264  0.019770243   0.01925818          403 
 3297000   0.71030394   -7.2928799    783.47025  0.019802605  0.019251449          488 
 3298000   0.72081484   -7.2938138    784.15889  0.019814001  0.019244725          402 
 3299000   0.72553555   -7.2940026    783.81821  0.019799389  0.019237993          405 
 3300000    0.7285883   -7.3063689    780.99381  0.019722066  0.019231275          442 
 3301000   0.71596288   -7.2898105    782.30765  0.019749259  0.019224544          477 
 3302000   0.73067287   -7.2704422    784.61607  0.019801536  0.019217857          373 
 3303000   0.73207918   -7.2967294    782.64236  0.019745745  0.019211157          469 
 3304000   0.72848553   -7.2565327    782.64802  0.019739912  0.019204468          491 
 3305000    0.7235257   -7.2717248    783.69993  0.019760462  0.019197798          424 
 3306000   0.72002346    -7.302515    782.59868  0.019726726  0.019191108          480 
 3307000   0.73046435   -7.3146945    782.78478  0.019725451  0.019184406          522 
 3308000    0.7305694   -7.3046852    782.03132  0.019700507  0.019177669          468 
 3309000   0.72128047   -7.2838593    783.43948  0.019730016  0.019170967          451 
 3310000    0.7306997   -7.2828946    783.77469  0.019732495  0.019164273          458 
 3311000    0.7128406   -7.2966887    783.47683  0.019719038  0.019157565          533 
 3312000   0.70997613   -7.2611141    783.02511  0.019701719  0.019150859          486 
 3313000   0.73061595   -7.2854666    784.10975  0.019723054  0.019144192          492 
 3314000   0.71425407   -7.2737796    782.88706  0.019686357  0.019137524          473 
 3315000   0.71404597   -7.2652777    782.34028  0.019666674   0.01913084          541 
 3316000   0.71478346   -7.2909015    782.95465  0.019676182  0.019124147          495 
 3317000   0.71302258    -7.301883    782.83231  0.019667177  0.019117471          467 
 3318000   0.72253107   -7.2812913    783.32301  0.019673574  0.019110788          441 
 3319000   0.72468663   -7.3024656    782.82837  0.019655227  0.019104103          624 
 3320000   0.71146556    -7.316647    782.61044  0.019643836  0.019097439          624 
 3321000   0.72728739    -7.277518    783.02315  0.019648277  0.019090773          481 
 3322000   0.73519036   -7.2779632     783.6291  0.019657563  0.019084098          526 
 3323000   0.72839361   -7.2980458    784.99681  0.019685947  0.019077412          617 
 3324000   0.72077348   -7.3057952    780.58008  0.019569296    0.0190707          583 
 3325000   0.72056656   -7.3191939    781.58076   0.01958849  0.019063989          596 
 3326000   0.73344516   -7.3297014    781.59458  0.019582947   0.01905729          599 
 3327000   0.73078388   -7.3330662    781.70597  0.019579851   0.01905059          563 
 3328000   0.70558056   -7.3319218     782.8458  0.019602509  0.019043893          571 
 3329000   0.72901106   -7.3267306    782.87598  0.019597376  0.019037196          557 
 3330000   0.69822795   -7.3238344    781.80834  0.019564773   0.01903049          647 
 3331000   0.71485872   -7.3375447    782.89624  0.019586116  0.019023773          670 
 3332000   0.73682744   -7.3145344    781.24452  0.019538929  0.019017046          602 
 3333000    0.7229895   -7.3158723    780.67528  0.019518834  0.019010331          661 
 3334000   0.70993712   -7.3219161    783.62097  0.019586607   0.01900362          612 
 3335000   0.71087948    -7.332733    780.19924  0.019495233  0.018996898          668 
 3336000   0.70881185   -7.3608105    781.84173  0.019530419   0.01899018          672 
 3337000   0.72172318   -7.3399285    779.51317  0.019466416  0.018983458          674 
 3338000   0.70748595   -7.3355145    782.13559  0.019526053  0.018976755          660 
 3339000   0.70812006   -7.3089231     783.4141  0.019552114  0.018970064          673 
 3340000   0.71090149   -7.3259082     781.5555  0.019499888  0.018963356          634 
 3341000   0.73094686   -7.3487367    780.24327  0.019461321   0.01895665          708 
 3342000   0.72073478   -7.3423531     780.9384  0.019472831  0.018949925          600 
 3343000   0.72533808   -7.3265512    780.88485  0.019465671  0.018943221          615 
 3344000   0.71917035   -7.3616323    778.95351   0.01941172  0.018936494          661 
 3345000   0.70036571   -7.3581979    780.95713  0.019455833  0.018929765          759 
 3346000   0.73475665   -7.3682379    780.84283  0.019447171  0.018923021          623 
 3347000   0.71455038   -7.3525596    780.59062  0.019435082  0.018916286          695 
 3348000   0.72108891   -7.3006693    782.61783  0.019479735  0.018909586          701 
 3349000    0.7218269   -7.3387303    781.70006  0.019451081  0.018902888          648 
 3350000   0.71685396   -7.3218853    781.94132  0.019451277   0.01889619          715 
 3351000   0.72145353   -7.3631853    780.54887  0.019410844  0.018889458          746 
 3352000   0.71182252    -7.312546    779.98604  0.019391061  0.018882738          725 
 3353000   0.72396847   -7.3584897     781.4051  0.019420546  0.018876008          729 
 3354000    0.7101836   -7.3610632    778.88747  0.019352203  0.018869277          686 
 3355000   0.73081389   -7.3307728    780.66659  0.019390626  0.018862543          808 
 3356000   0.72484368   -7.3586913    779.27327   0.01935025  0.018855836          817 
 3357000    0.7202389   -7.3557119    781.94623  0.019410839   0.01884912          858 
 3358000   0.71286724   -7.3388462    779.85807  0.019353238    0.0188424          888 
 3359000    0.7213038   -7.3666358    780.07979  0.019352977  0.018835671          808 
 3360000   0.71849848   -7.3727244    780.09557  0.019347609  0.018828929          930 
 3361000   0.71812173   -7.3541495    780.63781  0.019355296    0.0188222          903 
 3362000    0.7098502   -7.3678559    779.35031  0.019317626   0.01881547          833 
 3363000   0.71314881   -7.3553487    780.43307  0.019338712  0.018808775          842 
 3364000   0.72267407   -7.3748796    780.13523  0.019325585  0.018802086          866 
 3365000   0.70908454   -7.3306298    782.91925  0.019388788  0.018795391          856 
 3366000   0.71971584   -7.3361719    779.55376  0.019299707  0.018788695          857 
 3367000   0.71276492   -7.3501537    781.06033  0.019331262  0.018782023          852 
 3368000   0.72037051   -7.3593083    782.35721  0.019357611  0.018775347          835 
 3369000   0.72671711   -7.3580289    779.32614  0.019276891  0.018768658          902 
 3370000   0.70614261   -7.3364485    783.03048  0.019362772  0.018761975          974 
 3371000   0.69935912   -7.3579018    779.43834  0.019268228    0.0187553          988 
 3372000    0.7053094   -7.3575689    781.32959  0.019309252  0.018748609         1044 
 3373000   0.71436969    -7.393453    778.26463  0.019227805  0.018741902         1144 
 3374000   0.70720229    -7.360852    780.34582  0.019273509  0.018735167         1120 
 3375000   0.70755712   -7.3617432    779.54056  0.019247915  0.018728459         1080 
 3376000   0.71049359   -7.3594302    778.89869   0.01922637  0.018721719         1113 
 3377000   0.70770692   -7.4006491    779.68311  0.019240033  0.018714972         1163 
 3378000   0.71695656   -7.4064343    780.09797  0.019244572  0.018708236         1144 
 3379000   0.71827759   -7.3534738    779.13742  0.019215187  0.018701463         1173 
 3380000   0.70204486   -7.3958141    778.03763  0.019182387  0.018694689         1244 
 3381000   0.70796528   -7.4346933    777.03122  0.019151908  0.018687897         1280 
 3382000   0.71426124   -7.4198311    777.46874  0.019157026  0.018681107         1262 
 3383000   0.71226713   -7.4473189      776.449  0.019126244  0.018674303         1252 
 3384000   0.71020433   -7.4400397    777.31175  0.019141838  0.018667527         1396 
 3385000   0.70916957    -7.395596    779.15934  0.019181668  0.018660746         1317 
 3386000   0.70466211     -7.42959    778.67713  0.019164135  0.018653989         1258 
 3387000   0.70576892   -7.3990113    778.03724  0.019142733  0.018647191         1396 
 3388000   0.70864542   -7.4355867    776.66493  0.019103329  0.018640417         1430 
 3389000   0.71307241   -7.4182842    777.26521  0.019112452  0.018633635         1354 
 3390000   0.72365548   -7.4233886    777.99324  0.019124711  0.018626857         1433 
 3391000   0.71913885   -7.4231591    778.69848  0.019136402  0.018620062         1466 
 3392000   0.69661914   -7.4593437    776.44064  0.019075291   0.01861326         1468 
 3393000   0.71287365    -7.453692    776.55167  0.019072396  0.018606454         1453 
 3394000   0.70330142   -7.4198286     778.5695   0.01911632  0.018599653         1426 
 3395000   0.70106914   -7.4405804    775.41551  0.019033272  0.018592866         1414 
 3396000   0.70413913   -7.4310695    777.12587  0.019069637  0.018586067         1462 
 3397000   0.71750919   -7.4455085    777.74181  0.019079134  0.018579265         1464 
 3398000   0.70208304   -7.4645933    777.74926  0.019073702  0.018572465         1510 
 3399000   0.69653309   -7.4449571    775.43125   0.01901126   0.01856566         1548 
 3400000   0.71502604   -7.4743721    776.06948  0.019021311  0.018558862         1586 
 3401000   0.71557775   -7.4476315    777.00878  0.019038733  0.018552064         1601 
 3402000   0.71251009   -7.4627735    777.75916  0.019051518  0.018545261         1630 
 3403000   0.70850348    -7.443935    775.48523  0.018990235  0.018538445         1602 
 3404000   0.70146084   -7.4137535    777.13112  0.019024949   0.01853167         1525 
 3405000   0.70549826   -7.4422346    776.90955  0.019013939  0.018524877         1609 
 3406000    0.7092299   -7.4417264    775.03785  0.018962562  0.018518086         1624 
 3407000   0.69741918    -7.455709    774.97944  0.018955568  0.018511273         1602 
 3408000   0.70939002   -7.4489188    775.70629  0.018967779  0.018504473         1620 
 3409000   0.68535843   -7.4248128    776.26768  0.018975938  0.018497683         1690 
 3410000    0.6942223   -7.4687712    775.95063  0.018962625  0.018490876         1683 
 3411000   0.69468794   -7.4632076    775.95911  0.018957273  0.018484069         1745 
 3412000   0.69025625   -7.4670316    773.81062  0.018899243  0.018477259         1793 
 3413000   0.69170291   -7.4421801    777.42802   0.01898203  0.018470457         1805 
 3414000   0.70305083   -7.4628259    775.80163  0.018936771  0.018463665         1732 
 3415000   0.69818311   -7.4553958    777.44461  0.018971318  0.018456859         1755 
 3416000   0.70281505   -7.4850348    775.51353  0.018918656  0.018450052         1722 
 3417000   0.70730886   -7.4496312    777.11568  0.018952192  0.018443242         1725 
 3418000   0.70635918   -7.4849022    776.49557  0.018931528  0.018436422         1744 
 3419000   0.70537185   -7.5138096    773.83566   0.01886116  0.018429578         1903 
 3420000   0.71947987   -7.5014706    775.05514  0.018885359  0.018422754         1898 
 3421000   0.69210988   -7.4664428    772.60008  0.018820035  0.018415921         1897 
 3422000   0.70454442   -7.5008833     775.7776  0.018891915  0.018409091         1902 
 3423000   0.70329989   -7.4891992    773.81656  0.018838654  0.018402251         1959 
 3424000   0.69366606   -7.5235636    774.41237  0.018847653  0.018395401         1964 
 3425000   0.70302114   -7.4881772    773.72614  0.018825454  0.018388557         2034 
 3426000   0.70504521   -7.4786545    774.22507  0.018832095  0.018381716         2011 
 3427000   0.70868402   -7.5052289     772.5213  0.018785169   0.01837486         1920 
 3428000   0.70866069   -7.5172562    774.41701  0.018825773  0.018367986         2057 
 3429000   0.70192346   -7.5157772    773.95907  0.018809154  0.018361118         2135 
 3430000   0.69313423   -7.5358898    772.86872   0.01877718  0.018354257         2108 
 3431000   0.70221953   -7.5072112    773.56982  0.018788736  0.018347402         2093 
 3432000   0.71021489   -7.5283772      772.878  0.018766463  0.018340549         1945 
 3433000   0.69785522   -7.5366458    773.93255  0.018786595  0.018333691         2014 
 3434000   0.71835938   -7.5251713    773.64509  0.018774148  0.018326836         1966 
 3435000   0.69893005   -7.5101462    772.73814   0.01874668  0.018319989         2069 
 3436000    0.6911731   -7.5283386    774.59143  0.018786172  0.018313121         2091 
 3437000   0.68941797   -7.5028425    774.69135  0.018783128  0.018306281         2063 
 3438000   0.69938867   -7.5113718    773.55971  0.018750235  0.018299429         2032 
 3439000   0.69172898   -7.5118872    772.61911  0.018721991  0.018292587         2103 
 3440000   0.71638332   -7.5277196      772.411  0.018711507   0.01828574         2187 
 3441000   0.69934523   -7.5327394    774.03071  0.018745295  0.018278892         2147 
 3442000   0.71186957   -7.5275308    772.67537  0.018707035  0.018272046         2241 
 3443000   0.70320377   -7.5277355    773.79392  0.018728675  0.018265195         2208 
 3444000   0.70306996   -7.5476577    770.89225  0.018653026  0.018258334         2206 
 3445000   0.69028647    -7.521247    773.82866  0.018718642  0.018251474         2297 
 3446000    0.6979821   -7.5280162     772.0967  0.018671327  0.018244632         2200 
 3447000   0.70723052    -7.545134     771.0947  0.018641686  0.018237777         2203 
 3448000   0.70079521   -7.5441622    771.83076  0.018654069  0.018230922         2183 
 3449000   0.70943828   -7.5285721     772.6823  0.018669235  0.018224054         2214 
 3450000   0.70744452   -7.5625101    770.97953  0.018622694  0.018217196         2264 
 3451000   0.68408899   -7.5146528    772.51628  0.018654406  0.018210349         2310 
 3452000   0.69290742   -7.5518466    769.24106  0.018569937  0.018203482         2334 
 3453000   0.69613812    -7.540785    772.61509  0.018645986  0.018196629         2256 
 3454000   0.70598655   -7.5359461    772.42742   0.01863606  0.018189786         2350 
 3455000   0.70597773   -7.5454291    770.15747  0.018575916  0.018182935         2354 
 3456000   0.70003688   -7.5364493    772.81269  0.018634565  0.018176084         2370 
 3457000   0.70486353   -7.5629369    769.68347  0.018553743  0.018169229         2355 
 3458000    0.6979686   -7.5480179    770.74781  0.018574027  0.018162365         2409 
 3459000   0.68911524   -7.5467097    771.08002   0.01857666  0.018155504         2375 
 3460000   0.68419225   -7.5536367    772.12376   0.01859643  0.018148641         2407 
 3461000   0.70527337   -7.5532592    770.69778  0.018556722  0.018141792         2402 
 3462000   0.69962437   -7.5301908    772.15205  0.018586367  0.018134954         2369 
 3463000   0.71973275   -7.5482244     770.2747  0.018535824  0.018128099         2332 
 3464000   0.70611791   -7.5526584    772.18647  0.018576464  0.018121245         2459 
 3465000   0.70352102   -7.5790517    771.42297  0.018552741  0.018114398         2436 
 3466000    0.7047942   -7.5411013    771.46396  0.018548374  0.018107554         2415 
 3467000   0.71969377   -7.5494828    774.44303  0.018614629  0.018100718         2448 
 3468000    0.6914262   -7.5527451     772.3187  0.018558215  0.018093874         2405 
 3469000   0.69784253   -7.5553594    770.28032  0.018503899  0.018087015         2548 
 3470000   0.68161958   -7.5422796     770.8089  0.018511261  0.018080186         2529 
 3471000   0.69438723   -7.5797234    771.14506  0.018513998  0.018073342         2648 
 3472000   0.70402075   -7.5547114    769.03712  0.018458072  0.018066495         2547 
 3473000   0.70468997   -7.5732521    770.48219  0.018487431  0.018059646         2585 
 3474000   0.70055123   -7.5645358    770.45488  0.018481455  0.018052801         2549 
 3475000   0.68615202   -7.5693886    769.86618  0.018462019  0.018045949         2598 
 3476000   0.67647102   -7.5855692    769.96351  0.018459041  0.018039089         2560 
 3477000    0.6779852     -7.57141    770.75601  0.018472726  0.018032232         2613 
 3478000   0.71125205   -7.5620788    769.54783  0.018438466  0.018025388         2678 
 3479000   0.68794461   -7.5707009    770.60747  0.018458548  0.018018526         2695 
 3480000   0.68896934   -7.5821252    770.13955  0.018442039  0.018011661         2690 
 3481000   0.69519539   -7.5582357    770.03098  0.018434142  0.018004798         2922 
 3482000   0.68887706   -7.5925103     769.2804  0.018410885  0.017997916         2920 
 3483000    0.6818227    -7.568758    770.01678  0.018423217  0.017991046         2914 
 3484000   0.70181544   -7.6023256    768.76734  0.018388044  0.017984182         2956 
 3485000   0.70795854   -7.5938396    769.74748  0.018406205   0.01797731         2979 
 3486000   0.69558929   -7.5896876    767.96342  0.018358277  0.017970442         2903 
 3487000   0.68655054   -7.5929343    770.79216  0.018420614  0.017963574         3036 
 3488000   0.69810817    -7.609284    770.10431  0.018398899  0.017956708         3065 
 3489000   0.67628034   -7.5872443    770.31404  0.018398635  0.017949837         3179 
 3490000   0.68897793   -7.6181805    767.20226  0.018319061  0.017942971         3198 
 3491000   0.70834124   -7.5927183    767.12527  0.018311975  0.017936099         3056 
 3492000   0.70062897   -7.5912222    769.61502  0.018366147  0.017929227         3160 
 3493000   0.69009732   -7.5961285     769.5751  0.018359937  0.017922366         3113 
 3494000   0.70693141   -7.6095579    767.61638  0.018307965  0.017915504         3141 
 3495000   0.69930006   -7.5987008    769.10393  0.018338196  0.017908644         3131 
 3496000   0.69831599   -7.6287168    770.10737  0.018356869  0.017901779         3182 
 3497000   0.70965841   -7.6070229    769.26418  0.018331527  0.017894911         3264 
 3498000   0.69378686   -7.6120413    768.94867   0.01831877  0.017888042         3245 
 3499000   0.70731181   -7.6156368    767.72652  0.018284427  0.017881168         3252 
 3500000   0.68628923   -7.6015638    768.59174  0.018299803  0.017874304         3141 
 3501000   0.69714226   -7.6105722    768.99126  0.018304086   0.01786744         3239 
 3502000   0.66593799   -7.5905915    768.71854   0.01829237  0.017860579         3217 
 3503000   0.68322872   -7.6003653    769.79653  0.018312792  0.017853725         3159 
 3504000   0.68311497   -7.6163538    768.82613  0.018284487  0.017846867         3180 
 3505000   0.70685642   -7.5953629    767.47984  0.018247262  0.017839996         3250 
 3506000   0.69381127   -7.6219884    768.70184  0.018271103  0.017833143         3228 
 3507000   0.68176503   -7.6286917    768.23549  0.018254811  0.017826285         3324 
 3508000   0.69534482    -7.615252    770.45664  0.018302372  0.017819412         3264 
 3509000   0.68288219   -7.6070243    769.36985  0.018271346  0.017812557         3266 
 3510000   0.68669147   -7.6475152    766.20261  0.018190945  0.017805699         3225 
 3511000   0.68965394   -7.6427555    766.97982  0.018204211  0.017798846         3286 
 3512000   0.69878086   -7.6355904    769.02046  0.018247448  0.017791995         3264 
 3513000   0.69679177    -7.639865    766.71135  0.018187479  0.017785137         3358 
 3514000   0.68869986   -7.6083791    766.16806  0.018169419  0.017778289         3318 
 3515000   0.68758803   -7.6570239    767.46214   0.01819493  0.017771429         3386 
 3516000   0.69953623   -7.6285055    766.87327  0.018175798  0.017764581         3321 
 3517000   0.70380917   -7.6434681    767.34685  0.018181851  0.017757735         3358 
 3518000   0.68508343   -7.6153334    769.53473  0.018228509  0.017750893         3264 
 3519000   0.68261353   -7.6078988    768.23864  0.018192636  0.017744056         3352 
 3520000   0.69150406   -7.6564205    768.25725  0.018187908  0.017737222         3326 
 3521000   0.68478413   -7.6331478     768.7036  0.018193307   0.01773039         3242 
 3522000   0.70024318   -7.6697859    765.98263  0.018123761  0.017723552         3412 
 3523000   0.67822217   -7.6137673    767.84997  0.018162787  0.017716716         3299 
 3524000   0.68854466   -7.6192092    767.51112   0.01814962  0.017709881         3299 
 3525000   0.68394126   -7.6387993     766.7835  0.018127269  0.017703043         3362 
 3526000   0.67526488   -7.6331814    766.54436  0.018116477  0.017696201         3290 
 3527000   0.68249343   -7.6532334    767.74719   0.01813976   0.01768937         3423 
 3528000   0.69617544   -7.6410325    767.07858  0.018118825  0.017682535         3397 
 3529000   0.67163204   -7.6409504    766.80984  0.018107345  0.017675698         3333 
 3530000   0.66308471    -7.655356    766.13821   0.01808636  0.017668864         3356 
 3531000   0.70063431   -7.6139236     765.9602  0.018077037  0.017662039         3457 
 3532000   0.67346975   -7.6244503    767.41617  0.018106271  0.017655209         3248 
 3533000   0.68578789   -7.6447697    767.76019   0.01810926  0.017648394         3360 
 3534000   0.70255948   -7.6241773     767.3046  0.018093393  0.017641586         3382 
 3535000   0.68610411   -7.6449488    767.29921  0.018088147  0.017634767         3385 
 3536000   0.69641897   -7.6444577    766.45201  0.018063066  0.017627965         3466 
 3537000   0.68375196   -7.6413909    767.42177  0.018080807  0.017621148         3395 
 3538000   0.70569856   -7.6623802    768.50384  0.018101183  0.017614333         3489 
 3539000    0.6807548   -7.6497961    766.88231  0.018057886  0.017607511         3491 
 3540000   0.69759212   -7.6334339    766.82816   0.01805151  0.017600704         3484 
 3541000   0.69124949    -7.634119    767.97564  0.018073417    0.0175939         3443 
 3542000   0.68003225   -7.6466667    767.21038   0.01805031    0.0175871         3480 
 3543000   0.68056477   -7.6603028    767.34087  0.018048285  0.017580315         3494 
 3544000   0.68558015    -7.636288    765.95817  0.018010679  0.017573519         3448 
 3545000   0.68458506    -7.641127    767.26446  0.018036306  0.017566718         3446 
 3546000   0.68399525   -7.6364537    769.24749  0.018077822  0.017559926         3319 
 3547000   0.68694852   -7.6472104    767.98909  0.018043161  0.017553136         3333 
 3548000   0.68835349   -7.6475264     765.2283  0.017973231  0.017546341         3408 
 3549000   0.68368609   -7.6506623    766.34808   0.01799446  0.017539554         3379 
 3550000   0.70436247   -7.6635404    766.16081  0.017984996  0.017532772         3485 
 3551000   0.66569318   -7.6506471    766.92674  0.017997905  0.017525979         3441 
 3552000   0.68529364   -7.6504137    765.59928  0.017961695  0.017519202         3434 
 3553000   0.69272099   -7.6733761      766.098  0.017968337  0.017512414         3420 
 3554000   0.69673471   -7.6406939     767.4703  0.017995458  0.017505647         3403 
 3555000   0.68292523   -7.6600822    767.17795  0.017983543   0.01749888         3436 
 3556000   0.68433643   -7.6584423    767.72284  0.017991255  0.017492117         3416 
 3557000   0.66895941   -7.6506445    765.13949  0.017925675  0.017485351         3475 
 3558000   0.68191741   -7.6526483    766.43785  0.017951046  0.017478587         3522 
 3559000   0.68056868   -7.6377948    768.04349  0.017983598   0.01747183         3446 
 3560000    0.6801755   -7.6575421    765.12798  0.017910299   0.01746507         3555 
 3561000   0.67080142   -7.6629391     766.1933    0.0179302  0.017458318         3532 
 3562000   0.69146638   -7.6604093     767.5751  0.017957493  0.017451564         3461 
 3563000   0.69034036   -7.6554139    766.63731   0.01793052  0.017444812         3412 
 3564000   0.67546295   -7.6620827    767.20229  0.017938699  0.017438055         3446 
 3565000   0.67476624   -7.6573112    765.96279  0.017904694  0.017431295         3420 
 3566000   0.68544172   -7.6830189    764.74554  0.017871227  0.017424548         3527 
 3567000   0.67465434   -7.6595593    767.03062  0.017919601  0.017417797         3470 
 3568000   0.66611274   -7.6685739     767.1057  0.017916333  0.017411051         3495 
 3569000   0.67138697   -7.6708385    765.63386  0.017876946  0.017404312         3480 
 3570000   0.68668797   -7.6683691    767.08945  0.017905916  0.017397568         3517 
 3571000   0.66434386   -7.6589721    767.07121  0.017900476  0.017390834         3485 
 3572000   0.67604358   -7.6488301    766.25006  0.017876308  0.017384106         3542 
 3573000   0.68058449   -7.6555904      764.817  0.017837881  0.017377374         3424 
 3574000   0.67573986   -7.6590195    766.22993  0.017865835  0.017370645         3516 
 3575000   0.67310488   -7.6743876    767.21043  0.017883693  0.017363915         3490 
 3576000   0.67590802   -7.6637498    766.97073  0.017873106   0.01735719         3459 
 3577000   0.69281633   -7.6616947    766.39229  0.017854633  0.017350472         3451 
 3578000   0.67625483   -7.6534573    764.74361  0.017811245  0.017343746         3499 
 3579000   0.68421338   -7.6829992    765.78667  0.017830555  0.017337025         3510 
 3580000   0.67188182   -7.6450297    764.83359  0.017803389  0.017330317         3495 
 3581000   0.67155462   -7.6688393    765.31208  0.017809552  0.017323595         3466 
 3582000    0.6716232   -7.6970052    766.38562  0.017829556  0.017316885         3536 
 3583000   0.69283064     -7.65947    767.16284  0.017842656  0.017310177         3524 
 3584000    0.6629818   -7.6541316    765.74268  0.017804657  0.017303478         3538 
 3585000   0.68522496   -7.6752277    766.44029  0.017815906  0.017296769         3535 
 3586000   0.69607974   -7.6863531    765.66406    0.0177929  0.017290066         3469 
 3587000   0.66874962   -7.6631309    765.68594  0.017788448  0.017283365         3493 
 3588000   0.67606108   -7.6582041    766.63595  0.017805554  0.017276671         3406 
 3589000   0.68198138   -7.6676404    764.46211  0.017750119   0.01726998         3506 
 3590000   0.67254421   -7.6503043    766.15927   0.01778457  0.017263294         3553 
 3591000   0.68149336   -7.6729506    766.54561  0.017788583  0.017256588         3548 
 3592000   0.66447805    -7.666034    764.38122  0.017733417  0.017249898         3541 
 3593000   0.68442827   -7.6738991    767.03512  0.017790034   0.01724321         3585 
 3594000    0.6848131   -7.6733883    765.67248  0.017753489  0.017236523         3514 
 3595000   0.69141306   -7.6368901    766.74684  0.017773455  0.017229838         3532 
 3596000   0.67748991   -7.6712055    765.46558   0.01773882  0.017223162         3477 
 3597000   0.68743168   -7.6640031    767.04461  0.017770471  0.017216487         3571 
 3598000   0.66002334   -7.6630202    766.91533  0.017762538  0.017209808         3571 
 3599000   0.68191657   -7.6923151     765.6356  0.017727971   0.01720313         3560 
 3600000   0.67062344   -7.6792318    766.30471  0.017738535  0.017196462         3520 
 3601000    0.6525153   -7.6678161    764.66871  0.017695749  0.017189799         3579 
 3602000    0.6751629   -7.6698424    765.07694  0.017700281   0.01718314         3582 
 3603000   0.69889644   -7.6639959    766.51112  0.017728539  0.017176489         3456 
 3604000    0.6772737   -7.6744361    766.06665  0.017713343  0.017169832         3536 
 3605000   0.66915249   -7.6843784    765.67161  0.017699298  0.017163176         3436 
 3606000   0.68649301   -7.6682902    767.34479  0.017733056  0.017156524         3515 
 3607000   0.67880584   -7.6828434    766.07042  0.017698697  0.017149876         3454 
 3608000   0.67522421   -7.6842948    765.71183   0.01768551  0.017143224         3514 
 3609000    0.6578333   -7.6744406    763.89391  0.017638633  0.017136573         3505 
 3610000   0.68338886   -7.6809078    765.53092  0.017671536  0.017129922         3557 
 3611000     0.675372   -7.6755778    765.65458  0.017669495  0.017123276         3587 
 3612000   0.66116954   -7.6621292    765.24308   0.01765511  0.017116629         3588 
 3613000   0.67845166   -7.6535573    766.63713  0.017682377  0.017109992         3537 
 3614000    0.6795874   -7.6867691    765.38787  0.017648678  0.017103352         3602 
 3615000   0.67268572   -7.6653042    765.11553  0.017637518  0.017096716         3581 
 3616000   0.66585065   -7.6833003    765.32044  0.017637363  0.017090076         3555 
 3617000   0.68303775   -7.6979692    765.39031  0.017634096  0.017083445         3625 
 3618000   0.67557816   -7.6923395    763.59852  0.017587952  0.017076811         3572 
 3619000   0.66173908   -7.7002243    765.14978  0.017618812  0.017070176         3587 
 3620000   0.68095233   -7.7075733    764.12055  0.017590252  0.017063543         3602 
 3621000   0.67878353   -7.6942763    764.53441  0.017594919  0.017056914         3626 
 3622000   0.67872071   -7.6988475    765.87847  0.017620985  0.017050292         3651 
 3623000   0.68309517   -7.6785125    765.44031  0.017606043  0.017043662         3613 
 3624000   0.68485591   -7.6976832     765.8124  0.017609741  0.017037049         3600 
 3625000   0.66705904   -7.6982909    765.51881  0.017598134  0.017030425         3565 
 3626000   0.66264119   -7.6814447    765.51822  0.017593267  0.017023803         3585 
 3627000   0.66003452   -7.6898347    764.30086  0.017560446  0.017017195         3582 
 3628000   0.67099534   -7.6920546    766.28002  0.017601066  0.017010588         3636 
 3629000   0.66299996   -7.6902523    763.97029  0.017543177   0.01700398         3514 
 3630000   0.66303881   -7.6893164    764.91219  0.017559968  0.016997377         3589 
 3631000   0.66329335   -7.6994098    764.82608  0.017553155  0.016990785         3597 
 3632000   0.67816392   -7.7074162    764.31321  0.017536555  0.016984189         3610 
 3633000   0.67895327   -7.6832955    764.66794  0.017539865  0.016977601         3578 
 3634000   0.66602651    -7.695915     764.7433  0.017536766  0.016971013         3585 
 3635000   0.68189445    -7.689144     765.1724  0.017541779  0.016964423         3636 
 3636000   0.67953897   -7.6928999    764.07756  0.017511862  0.016957839         3629 
 3637000   0.67702588   -7.6829641    764.95118  0.017527064  0.016951252         3595 
 3638000   0.66561563   -7.6964153    764.71283  0.017516786  0.016944671         3646 
 3639000   0.66673698   -7.6869992    763.27007  0.017478934   0.01693809         3657 
 3640000   0.67209735   -7.7051502    764.72366   0.01750741   0.01693152         3617 
 3641000   0.67646095   -7.6900929    764.54484  0.017498509  0.016924938         3683 
 3642000   0.67185732   -7.6859098    764.76255  0.017498686   0.01691837         3649 
 3643000   0.66063272   -7.7269725    763.59765  0.017467235  0.016911798         3690 
 3644000   0.66217009   -7.6964212    764.55163  0.017484258  0.016905227         3614 
 3645000   0.66844504   -7.7058906    765.74395   0.01750672  0.016898654         3681 
 3646000   0.67211376   -7.7010478     765.8829  0.017505095  0.016892085         3632 
 3647000   0.67029662   -7.7060789    764.42323  0.017466942  0.016885532         3677 
 3648000    0.6650739   -7.7169607    766.33043  0.017505721  0.016878974         3689 
 3649000   0.67631623   -7.6821098    765.47163  0.017481311  0.016872413         3650 
 3650000   0.67094655   -7.7086901    764.87304  0.017462855  0.016865854         3637 
 3651000   0.67320518   -7.6962705    765.36649  0.017469335  0.016859306         3546 
 3652000   0.67167427   -7.7238988     764.0579  0.017434691  0.016852757         3574 
 3653000   0.66508391   -7.7096474    763.70945  0.017421969  0.016846218         3616 
 3654000   0.66204061   -7.7007858    764.96888  0.017445924  0.016839682         3649 
 3655000   0.67101315   -7.7151513    764.70731  0.017435187  0.016833151         3679 
 3656000   0.67079154   -7.7007551    763.02926   0.01739217  0.016826607         3649 
 3657000   0.65229492   -7.7016823     764.0339  0.017410307  0.016820073         3641 
 3658000   0.65492364   -7.6795429    765.49459  0.017438823  0.016813545         3586 
 3659000   0.67761846   -7.7116248    765.17994  0.017426891  0.016807018         3570 
 3660000   0.65646877   -7.7214336    765.03533  0.017418837  0.016800496         3614 
 3661000   0.65755982   -7.6809544    764.26488  0.017396542  0.016793974         3660 
 3662000   0.67278618   -7.6789501     765.9665  0.017430514   0.01678746         3600 
 3663000   0.68316438    -7.727607    763.91858  0.017379165  0.016780953         3574 
 3664000   0.66496594    -7.717304    765.09781  0.017401242  0.016774435         3702 
 3665000   0.65410058   -7.7036146    763.66151  0.017363836  0.016767922         3645 
 3666000   0.66415836   -7.7102054    764.70611  0.017382845  0.016761411         3587 
 3667000   0.67221588   -7.6890896    765.16372  0.017388504  0.016754898         3680 
 3668000   0.66409341   -7.7027253    764.84213  0.017376457  0.016748394         3585 
 3669000    0.6630921   -7.6992473    764.78956  0.017370527  0.016741896         3593 
 3670000   0.65881787   -7.7106477    763.29869  0.017331941  0.016735393         3637 
 3671000   0.66437536    -7.688012    763.74202  0.017337284  0.016728892         3641 
 3672000   0.66780891   -7.7072158    764.89623  0.017358756  0.016722388         3660 
 3673000   0.66071871   -7.7050338    764.58025  0.017346861   0.01671589         3665 
 3674000   0.67979944   -7.7118865    764.65627  0.017343864    0.0167094         3614 
 3675000   0.66023327   -7.7028476    763.87551   0.01732144  0.016702911         3602 
 3676000   0.65753645   -7.6990375    766.75058  0.017381905  0.016696423         3580 
 3677000    0.6626715   -7.7085828    763.78996   0.01731008  0.016689942         3645 
 3678000   0.66415168    -7.712927    762.16427   0.01726854   0.01668346         3682 
 3679000   0.66818003   -7.7086875    763.97692  0.017304904   0.01667698         3685 
 3680000   0.65648933    -7.704058    764.68667  0.017316274   0.01667051         3691 
 3681000   0.66517369   -7.7077345    763.68172  0.017288819  0.016664035         3547 
 3682000   0.65902519   -7.7188284    764.27478  0.017297546  0.016657562         3611 
 3683000   0.65818625   -7.7068305    762.25645  0.017247182  0.016651095         3599 
 3684000   0.66080873   -7.7185402    765.43721   0.01731445  0.016644632         3649 
 3685000   0.65676103   -7.6794208    762.90751  0.017252544  0.016638165         3656 
 3686000    0.6655589   -7.7066378    763.42406  0.017259542  0.016631707         3688 
 3687000   0.66138984   -7.7179078     763.5784  0.017258349  0.016625253         3679 
 3688000   0.67262979   -7.7291744    765.25917  0.017291648  0.016618805         3657 
 3689000   0.65144493   -7.7006592    764.37287  0.017266939  0.016612349         3676 
 3690000   0.65566071   -7.7030672    763.53251  0.017243282  0.016605903         3700 
 3691000   0.67851468   -7.7293121    763.35307  0.017234559  0.016599457         3683 
 3692000   0.65226247   -7.7098323    764.26237  0.017250415   0.01659301         3707 
 3693000   0.65760678   -7.7254066    762.90648  0.017215148  0.016586565         3645 
 3694000   0.65210707   -7.7148143    762.91768   0.01721074  0.016580126         3647 
 3695000   0.65580603   -7.7346074    764.09232  0.017232574   0.01657369         3596 
 3696000   0.66898551     -7.73795    763.56684  0.017216063   0.01656726         3616 
 3697000   0.65035367   -7.7181409    763.92734  0.017219532  0.016560832         3659 
 3698000   0.65571859   -7.7202015    762.65205  0.017186138  0.016554398         3670 
 3699000   0.65155678   -7.7235359    765.18435  0.017238541  0.016547966         3578 
 3700000    0.6455619   -7.7215386    763.03949  0.017185574  0.016541544         3689 
 3701000    0.6578019   -7.7020029    763.57913  0.017193081  0.016535126         3732 
 3702000   0.64604193   -7.7291316    762.62341  0.017166923    0.0165287         3674 
 3703000   0.65565793   -7.7193898    765.00484   0.01721588  0.016522285         3599 
 3704000   0.65120982   -7.7053392    764.29963  0.017195366  0.016515867         3627 
 3705000   0.65418081   -7.7155481    763.39652  0.017170412  0.016509445         3684 
 3706000   0.66169486    -7.732423    762.66197  0.017149262  0.016503037         3656 
 3707000   0.67199034   -7.7378555    765.75588  0.017214187  0.016496625         3616 
 3708000   0.66096393   -7.7167179     765.1681  0.017196334  0.016490222         3688 
 3709000    0.6594792   -7.7188834    765.08856  0.017189911  0.016483814         3677 
 3710000   0.65906601   -7.7338934    762.66298  0.017130795  0.016477411         3687 
 3711000   0.64533711   -7.7048728    764.86549  0.017175637  0.016471011         3632 
 3712000    0.6510151   -7.7317069    761.61066   0.01709794  0.016464617         3629 
 3713000    0.6562492    -7.722052    763.71158  0.017140488  0.016458222         3629 
 3714000   0.65856768   -7.7276665    763.22469  0.017124948  0.016451842         3661 
 3715000   0.66248364   -7.7420113     763.2075  0.017119953  0.016445456         3694 
 3716000   0.65599558   -7.7169472    763.49878  0.017121878  0.016439072         3648 
 3717000   0.64565866   -7.7339777    762.91534  0.017104191  0.016432686         3638 
 3718000   0.64909672    -7.708934    764.75281  0.017140775  0.016426301         3575 
 3719000   0.65699053    -7.723972     764.2059  0.017123911   0.01641993         3689 
 3720000   0.65652453   -7.7296932    762.72499  0.017086133  0.016413557         3664 
 3721000   0.65674995   -7.6984632    763.65176  0.017102297  0.016407192         3569 
 3722000   0.64589915    -7.728369    764.99143  0.017127696  0.016400832         3619 
 3723000   0.66971599   -7.7283837    763.23237  0.017083722  0.016394463         3655 
 3724000   0.65766181   -7.7254436     763.6225  0.017087865  0.016388103         3654 
 3725000   0.65461046   -7.7461027    762.67786  0.017062144  0.016381741         3619 
 3726000   0.66319448   -7.7309111    763.52709  0.017076559  0.016375382         3629 
 3727000   0.65255969   -7.7179563    763.15154   0.01706358  0.016369026         3632 
 3728000    0.6654148   -7.7215436    765.22344  0.017105316   0.01636268         3647 
 3729000   0.65529626   -7.7112552    764.30071  0.017080109   0.01635634         3695 
 3730000   0.66504379   -7.7292564    763.55991  0.017058979  0.016349996         3618 
 3731000   0.66368359   -7.7178518    763.94825  0.017063081  0.016343659         3685 
 3732000   0.65014884   -7.7249078    763.53076  0.017049186   0.01633732         3691 
 3733000   0.66450544   -7.7230096    764.86015  0.017074296  0.016330986         3723 
 3734000   0.65254122   -7.7277451    763.04314  0.017029172   0.01632465         3664 
 3735000   0.65251042   -7.7132445     763.5129  0.017035094  0.016318312         3667 
 3736000   0.64507389   -7.7295162    763.38564  0.017027695  0.016311982         3701 
 3737000    0.6599989   -7.7400064    763.26281    0.0170204  0.016305655         3638 
 3738000   0.65445703   -7.7311499    763.57521  0.017022811  0.016299334         3676 
 3739000   0.64428534    -7.728538    763.05831  0.017006738  0.016293007         3691 
 3740000   0.65409291   -7.7451665    762.96226   0.01700005   0.01628668         3701 
 3741000   0.66663908   -7.7445594    763.10289  0.016998639  0.016280364         3678 
 3742000   0.65527116   -7.7329637    762.93806  0.016990425  0.016274049         3652 
 3743000   0.64035965   -7.7396583    762.89729  0.016984978  0.016267735         3635 
 3744000   0.66692297   -7.7340227    763.14024  0.016985849  0.016261419         3693 
 3745000   0.63105368   -7.7509871    763.92762  0.016998834  0.016255111         3715 
 3746000   0.64819143   -7.7055777    764.61358  0.017009556  0.016248811         3596 
 3747000   0.65346306   -7.7328737    763.17339  0.016972987  0.016242512         3609 
 3748000   0.65369777   -7.7286314    763.48104  0.016975299  0.016236215         3645 
 3749000   0.66700959   -7.7510622     764.8729  0.017001709  0.016229916         3640 
 3750000   0.64877581   -7.7461371    763.05072  0.016956683  0.016223616         3700 
 3751000   0.64937618   -7.7553897    762.55589  0.016941169  0.016217333         3636 
 3752000   0.65826066   -7.7383961     764.0936  0.016970807  0.016211052         3688 
 3753000    0.6557032   -7.7407206    763.22796  0.016947064  0.016204767         3708 
 3754000   0.65290238   -7.7359403     761.9746  0.016914726  0.016198489         3697 
 3755000   0.64356606    -7.723777    763.65403  0.016947493  0.016192209         3690 
 3756000   0.64102138   -7.7451061    763.78053  0.016945787  0.016185928         3653 
 3757000   0.64795099   -7.7187463    764.43709   0.01695584  0.016179654         3729 
 3758000   0.65028564   -7.7453639    762.59849  0.016910557   0.01617338         3680 
 3759000   0.66094374   -7.7231555    762.42133  0.016902131  0.016167112         3586 
 3760000   0.64435344   -7.7297858     761.9714  0.016887664  0.016160848         3642 
 3761000   0.64875702   -7.7414554    763.32541  0.016913175   0.01615459         3653 
 3762000    0.6374656   -7.7213933    762.24229  0.016884687  0.016148333         3691 
 3763000   0.65488632   -7.7405263    763.11079  0.016899433  0.016142074         3687 
 3764000   0.65884769   -7.7554577    763.30648  0.016899276  0.016135821         3699 
 3765000   0.65068004   -7.7645538    761.38742  0.016852311  0.016129564         3665 
 3766000   0.64664475   -7.7364012    762.46972  0.016871785  0.016123326         3631 
 3767000   0.63584485   -7.7325108     763.5902  0.016892094  0.016117084         3675 
 3768000   0.65068308   -7.7532842    762.70416  0.016868015  0.016110846         3684 
 3769000    0.6501467   -7.7336548    763.37925  0.016878466  0.016104614         3636 
 3770000    0.6418784   -7.7220759    764.01143  0.016887963   0.01609839         3593 
 3771000   0.62454536   -7.7304383    763.69624  0.016876519  0.016092156         3595 
 3772000   0.62678043   -7.7374664     762.1365  0.016837586  0.016085919         3653 
 3773000   0.65780135   -7.7412365    764.45687  0.016884373  0.016079691         3635 
 3774000   0.65484927   -7.7417651    763.70837  0.016863371  0.016073459         3699 
 3775000    0.6633804   -7.7286076    763.36897  0.016851412  0.016067231         3688 
 3776000   0.65355718   -7.7513204    763.35617  0.016846667   0.01606101         3688 
 3777000    0.6432016   -7.7454983    762.13323  0.016815224  0.016054791         3645 
 3778000   0.65110846   -7.7493497    762.32984   0.01681511  0.016048577         3734 
 3779000   0.64039813   -7.7096516    763.76757  0.016842365  0.016042362         3615 
 3780000   0.63443555   -7.7439274    762.85418  0.016817773  0.016036158         3641 
 3781000   0.63897826   -7.7377549    764.01267  0.016838858  0.016029949         3637 
 3782000   0.65412155    -7.717937    764.62963     0.016848  0.016023751         3635 
 3783000   0.64237994   -7.7234672    764.08163  0.016831475  0.016017549         3672 
 3784000   0.65197689   -7.7470551    763.29016  0.016809597  0.016011348         3670 
 3785000    0.6504592    -7.750465    762.32742  0.016783959  0.016005148         3669 
 3786000   0.65055856    -7.713358    764.05489  0.016817549  0.015998947         3672 
 3787000   0.64398987   -7.7463489    761.99233  0.016767721  0.015992756         3704 
 3788000   0.64932954   -7.7590476     762.8936  0.016783122  0.015986558         3646 
 3789000   0.63313394   -7.7393517    762.39449  0.016767716  0.015980374         3566 
 3790000   0.66139404   -7.7630406    761.54733  0.016744664  0.015974187         3766 
 3791000   0.64866158   -7.7487659    762.93238  0.016770693   0.01596801         3671 
 3792000   0.63789121   -7.7466932    761.62699  0.016737583  0.015961831         3748 
 3793000   0.64267555   -7.7417147      763.026  0.016763907  0.015955649         3664 
 3794000   0.64403149    -7.762274    762.64788  0.016751183  0.015949471         3685 
 3795000   0.64403075    -7.742118    762.18478    0.0167366  0.015943298         3682 
 3796000   0.63594594   -7.7201957     763.9224  0.016770337  0.015937125         3683 
 3797000   0.64089554   -7.7258616    763.87836  0.016764954  0.015930957         3694 
 3798000   0.64306587   -7.7384497    763.46304  0.016751427  0.015924793         3608 
 3799000   0.62698059   -7.7394986    762.61235  0.016728357  0.015918626         3693 
 3800000   0.62631282   -7.7562784    760.89224  0.016686233   0.01591246         3680 
 3801000   0.62816138    -7.748487    762.72539  0.016722033  0.015906302         3698 
 3802000    0.6521151   -7.7495738    761.68914  0.016694922   0.01590015         3701 
 3803000   0.65883561   -7.7464918     763.3549  0.016727034  0.015893992         3648 
 3804000   0.63209689   -7.7224548    763.15055   0.01671816  0.015887849         3671 
 3805000   0.64654823   -7.7468747    762.46397  0.016698729  0.015881705         3673 
 3806000   0.63123969    -7.746251    761.98154  0.016683779  0.015875555         3691 
 3807000   0.64304207   -7.7471478    761.21763  0.016662675  0.015869405         3684 
 3808000   0.63818273   -7.7318079    763.57457  0.016709878  0.015863268         3631 
 3809000   0.63586553   -7.7509853    762.29641  0.016677527  0.015857136         3766 
 3810000   0.64833853   -7.7637086    763.80809  0.016706214  0.015851003         3656 
 3811000   0.64768806   -7.7558745    761.69802   0.01665569  0.015844869         3658 
 3812000   0.62732374   -7.7390186    762.67824  0.016672749  0.015838742         3687 
 3813000   0.63827623   -7.7501989    762.55433  0.016665669  0.015832617         3674 
 3814000   0.64563163   -7.7335045    762.82515  0.016667216  0.015826491         3626 
 3815000   0.65555508   -7.7776281    761.01199  0.016623241  0.015820376         3729 
 3816000   0.63739864    -7.741741    762.84055  0.016658817   0.01581426         3690 
 3817000   0.63170911    -7.750879    761.57101  0.016626736  0.015808141         3667 
 3818000    0.6440126   -7.7636896    762.39297  0.016640322  0.015802023         3705 
 3819000   0.63683814    -7.765438    762.42892  0.016636749  0.015795917         3719 
 3820000   0.64056825    -7.767276    762.44227  0.016632685  0.015789813         3644 
 3821000   0.64596312   -7.7504068    761.98418  0.016618341   0.01578371         3665 
 3822000   0.64445882   -7.7608644    762.66185  0.016628769  0.015777606         3638 
 3823000   0.64351579   -7.7494902    762.25619  0.016615577  0.015771507         3656 
 3824000   0.64153867   -7.7680915    759.73244  0.016556233  0.015765413         3688 
 3825000   0.64023465   -7.7521703     762.8961   0.01662083  0.015759316         3680 
 3826000   0.64704249   -7.7336531    763.96002  0.016639659  0.015753231         3647 
 3827000   0.63935014   -7.7413489    761.35776  0.016578647  0.015747148         3686 
 3828000   0.63278885   -7.7591301    763.12548  0.016612798  0.015741071         3709 
 3829000   0.62872742   -7.7707586    762.37154  0.016592051  0.015734988         3725 
 3830000   0.65720079   -7.7694121    761.26076   0.01656355  0.015728907         3729 
 3831000   0.64535686   -7.7613376    761.29485  0.016559968  0.015722825         3677 
 3832000   0.63572419   -7.7532612    763.12991  0.016595553  0.015716754         3669 
 3833000   0.64114151   -7.7532079    761.62101  0.016558418  0.015710687         3719 
 3834000   0.63845562   -7.7663168     763.3732  0.016592184  0.015704613         3692 
 3835000   0.63995562   -7.7670623    761.77883  0.016553212  0.015698541         3689 
 3836000   0.62725155   -7.7666101    761.40699  0.016540819  0.015692468         3708 
 3837000   0.62494142    -7.751693    760.84058  0.016524207  0.015686398         3707 
 3838000   0.64392034   -7.7570399    761.79625  0.016540652   0.01568033         3711 
 3839000   0.63197174   -7.7495475    762.24391   0.01654606  0.015674274         3728 
 3840000   0.62720282    -7.747943    761.61759  0.016528159  0.015668217         3683 
 3841000   0.63059606   -7.7451167    764.48607   0.01658609  0.015662169         3619 
 3842000     0.612784   -7.7444058    763.16416  0.016553101   0.01565612         3644 
 3843000   0.63466928   -7.7688708    761.38921  0.016510305  0.015650076         3661 
 3844000   0.63388157   -7.7670581    762.61231  0.016532525  0.015644032         3692 
 3845000   0.64027079   -7.7465357    763.17022  0.016540317  0.015637983         3682 
 3846000   0.63924138   -7.7504975    762.29809  0.016517119  0.015631945         3677 
 3847000   0.65531302   -7.7803204    762.60215  0.016519412  0.015625901         3658 
 3848000   0.64154172   -7.7590299    761.69605  0.016495497  0.015619868         3682 
 3849000    0.6435149   -7.7583293    761.17429  0.016479914  0.015613841         3688 
 3850000   0.63771367   -7.7521429    760.17403  0.016453983  0.015607815         3653 
 3851000   0.65267842   -7.7675235    761.61955  0.016480991    0.0156018         3704 
 3852000   0.63489527   -7.7620723    762.24507  0.016490245  0.015595776         3723 
 3853000   0.62869352   -7.7538621    761.73698  0.016474976  0.015589755         3685 
 3854000     0.626589   -7.7371489     761.8695  0.016473566  0.015583735         3652 
 3855000   0.62863691   -7.7579979    761.26892  0.016456311  0.015577723         3646 
 3856000   0.64595768   -7.7335016    762.06444  0.016469235  0.015571708         3694 
 3857000    0.6327488   -7.7633914    762.51408   0.01647468  0.015565703         3707 
 3858000   0.64246849   -7.7549947    761.70554  0.016452945    0.0155597         3637 
 3859000   0.61713018   -7.7606631    762.41689  0.016464043  0.015553699         3671 
 3860000   0.64380361   -7.7448534    762.93784  0.016471024  0.015547701         3753 
 3861000   0.63114042   -7.7552015    762.49847  0.016457275  0.015541708         3668 
 3862000   0.63268705   -7.7614619    761.21712  0.016425365  0.015535707         3718 
 3863000   0.64626485   -7.7607262    761.22675  0.016421321  0.015529706         3678 
 3864000   0.62425028   -7.7615451    762.18145  0.016437661  0.015523713         3716 
 3865000   0.64472799   -7.7610192    761.10651  0.016410231  0.015517727         3714 
 3866000   0.62267097   -7.7548997    761.56197  0.016415804  0.015511748         3684 
 3867000    0.6260285   -7.7677814    762.01959   0.01642142  0.015505764         3714 
 3868000   0.65127797   -7.7489251    762.12377  0.016419419  0.015499785         3651 
 3869000   0.62881784   -7.7676841    761.09459  0.016393008  0.015493815         3723 
 3870000   0.62771336   -7.7714977    760.83606  0.016383205  0.015487838         3741 
 3871000   0.63661076   -7.7578298     761.9446  0.016402837  0.015481867         3677 
 3872000   0.64163639    -7.763544    762.39618   0.01640832  0.015475899         3699 
 3873000   0.62512691   -7.7986906    760.85694  0.016370964  0.015469926         3744 
 3874000   0.64455967   -7.7517411    761.27329  0.016375695  0.015463963         3716 
 3875000   0.62471991   -7.7710194    761.95789  0.016386191  0.015458004         3712 
 3876000   0.63156536   -7.7793931     762.1573  0.016386251  0.015452044         3713 
 3877000   0.62284631   -7.7599185    761.91077  0.016376725  0.015446093         3730 
 3878000   0.63477171    -7.768535    763.49586  0.016406564   0.01544014         3680 
 3879000    0.6275077   -7.7519066    762.60768  0.016383254   0.01543419         3690 
 3880000   0.63696923   -7.7600156    760.89051   0.01634215  0.015428258         3647 
 3881000   0.62900518   -7.7458423    763.22662  0.016388101  0.015422319         3706 
 3882000   0.61908073   -7.7673976    761.68462  0.016350778  0.015416374         3707 
 3883000   0.62520403   -7.7595637    760.91298  0.016330006  0.015410437         3731 
 3884000   0.63597786   -7.7535501    761.07888  0.016329361  0.015404504         3714 
 3885000   0.62309867   -7.7640342    761.69954  0.016338471  0.015398572         3690 
 3886000   0.63395521   -7.7596481    761.09785  0.016321364  0.015392644         3720 
 3887000   0.63741555   -7.7736232    761.07209  0.016316613  0.015386711         3656 
 3888000   0.62713158   -7.7435128    762.68221  0.016346927  0.015380787         3717 
 3889000   0.64338497   -7.7942906    761.76042  0.016322971  0.015374859         3742 
 3890000   0.62352558   -7.7723717    761.45898  0.016312317  0.015368939         3758 
 3891000    0.6191654   -7.7685012    761.85265  0.016316556  0.015363021         3681 
 3892000   0.63518647   -7.7715541    762.59329  0.016328222  0.015357108         3647 
 3893000   0.62451295   -7.7627059    762.02142  0.016311787  0.015351194         3740 
 3894000   0.62839789   -7.7788748    761.43986  0.016295152  0.015345288         3691 
 3895000   0.62696513   -7.7569362    762.22288  0.016307721  0.015339387         3693 
 3896000   0.62440311   -7.7631617    760.12557  0.016258675  0.015333486         3709 
 3897000   0.62144654   -7.7697001     760.9567  0.016272276  0.015327582         3684 
 3898000   0.61646735   -7.7776195    762.48695  0.016300816  0.015321678         3657 
 3899000   0.64226083   -7.7766127    760.12522  0.016246158  0.015315779         3756 
 3900000   0.63077042   -7.7716762     760.0742  0.016240902  0.015309886         3777 
 3901000   0.61804589   -7.7785833    760.91338  0.016254665  0.015303996         3713 
 3902000   0.62291763   -7.7733497    760.64712  0.016244813  0.015298111         3758 
 3903000   0.61784085   -7.7524233    760.47079  0.016236886  0.015292223         3692 
 3904000   0.64589775   -7.7795546     762.4191  0.016274315   0.01528634         3727 
 3905000   0.62309387   -7.7873266    762.98813   0.01628229  0.015280459         3750 
 3906000   0.63658065   -7.7593444    759.77903  0.016209657  0.015274583         3715 
 3907000   0.61255072   -7.7621603    761.21046  0.016236039  0.015268706         3688 
 3908000   0.64485766   -7.7643386    760.20305  0.016210403  0.015262829         3702 
 3909000   0.61669183   -7.7788445    761.13439  0.016226111  0.015256966         3637 
 3910000    0.6125055   -7.7698774    760.87789  0.016216494  0.015251103         3738 
 3911000   0.64227738   -7.7939329    760.96141  0.016214127  0.015245236         3681 
 3912000    0.6344639   -7.7610589    760.19296  0.016193613  0.015239374         3734 
 3913000   0.62257158   -7.7679792    761.49182  0.016217136  0.015233509         3707 
 3914000    0.6164861   -7.7824166    761.07885    0.0162042  0.015227654         3719 
 3915000   0.63378157   -7.7757707    759.22572  0.016160616  0.015221794         3722 
 3916000   0.62909189   -7.7705607    762.31159  0.016222157  0.015215944         3716 
 3917000   0.62254533    -7.783512     761.7835   0.01620678  0.015210093         3679 
 3918000   0.62547126    -7.758645    763.29153  0.016234719  0.015204257         3675 
 3919000   0.62647441   -7.7796069    761.35036  0.016189299  0.015198411         3754 
 3920000   0.63286906   -7.7470927    761.25434  0.016183128  0.015192572         3711 
 3921000   0.61713269   -7.7977093    759.34344  0.016138388  0.015186731         3782 
 3922000    0.6208382    -7.771676     760.1644  0.016151717  0.015180888         3752 
 3923000   0.62804935   -7.7723007    759.45802  0.016132594  0.015175053         3718 
 3924000   0.61611551   -7.7586824    760.75333  0.016155992  0.015169226         3755 
 3925000   0.62470816   -7.7742466    760.66112  0.016149918  0.015163403         3728 
 3926000   0.63146749   -7.7781134     760.7716  0.016148149   0.01515757         3666 
 3927000   0.61852295   -7.7739228    761.81887  0.016166261  0.015151754         3717 
 3928000   0.62204713   -7.7793615     761.7159   0.01615996  0.015145931         3721 
 3929000   0.62720418   -7.7677699    761.68249  0.016155139   0.01514011         3647 
 3930000   0.62656846   -7.7849629    761.47546  0.016146638  0.015134294         3720 
 3931000   0.61331082   -7.7714217    759.40955  0.016098735  0.015128479         3728 
 3932000   0.63599019   -7.7719432    761.84154  0.016146184   0.01512267         3747 
 3933000   0.61564041   -7.7833493     761.0513  0.016125335  0.015116861         3692 
 3934000   0.63528203    -7.769423    761.85298  0.016138218  0.015111056         3761 
 3935000    0.6274826   -7.7723401    761.94889  0.016136148  0.015105256         3710 
 3936000   0.62734549   -7.7924927    760.86301  0.016109058  0.015099455         3743 
 3937000   0.62153448   -7.7907573    760.33698  0.016093832   0.01509366         3735 
 3938000   0.62213314   -7.7915132    760.14431  0.016085668   0.01508786         3707 
 3939000   0.61972289   -7.7805187    761.92959  0.016119353  0.015082064         3700 
 3940000   0.61177008   -7.7701563    761.26848  0.016101279  0.015076276         3702 
 3941000   0.61048925   -7.7841712      761.818  0.016108813  0.015070482         3722 
 3942000     0.641816   -7.7979162    760.18825  0.016070274    0.0150647         3734 
 3943000   0.62844911   -7.8020518    760.97596  0.016082846  0.015058914         3753 
 3944000   0.62611273   -7.7959937    760.40325  0.016066668  0.015053133         3742 
 3945000   0.63859641   -7.7794314    761.11366  0.016077602   0.01504736         3722 
 3946000   0.62280023   -7.7834009    761.01269  0.016071395  0.015041587         3746 
 3947000   0.61985845   -7.7910353    761.41274  0.016075769  0.015035811         3748 
 3948000   0.62621046   -7.7914101     760.5165   0.01605278  0.015030036         3739 
 3949000    0.6275732   -7.7944241    761.57262  0.016071001  0.015024268         3722 
 3950000   0.61827262   -7.7777406    761.56998  0.016066877  0.015018498         3731 
 3951000   0.61240724   -7.8082243    760.69346  0.016044323  0.015012728         3797 
 3952000   0.61647184   -7.7786398    760.71934  0.016040809  0.015006964         3690 
 3953000   0.62124582   -7.7751707    760.19095  0.016025612  0.015001208         3733 
 3954000   0.61935338   -7.8052815    760.63333  0.016030883  0.014995452         3799 
 3955000   0.60462416     -7.79847    760.05549  0.016014654   0.01498969         3744 
 3956000   0.60830777   -7.7819691    761.71204  0.016045501  0.014983942         3736 
 3957000   0.62748348   -7.7856169    761.32969  0.016033394  0.014978195         3754 
 3958000    0.6281659   -7.7655469    759.78022   0.01599672   0.01497245         3731 
 3959000   0.61071284   -7.7934363    759.58768  0.015988627  0.014966712         3756 
 3960000   0.61744991    -7.785563    760.31642  0.015999925  0.014960968         3764 
 3961000   0.60799659   -7.7988569    759.64443  0.015981748  0.014955226         3777 
 3962000   0.62082323   -7.7887891    761.72392  0.016021452  0.014949489         3781 
 3963000   0.61214938   -7.8030723    760.38552  0.015989266  0.014943754         3752 
 3964000   0.61466057   -7.7792698     762.6406   0.01603264  0.014938027         3714 
 3965000   0.61222259   -7.7883157    760.33839   0.01598021  0.014932304         3735 
 3966000   0.62266156   -7.7846147    762.21866  0.016015689   0.01492657         3738 
 3967000   0.61915654   -7.7993179    760.67704  0.015979267  0.014920853         3764 
 3968000   0.61502786     -7.79469     759.6924  0.015954562  0.014915144         3726 
 3969000   0.61205623   -7.8033164    760.97256   0.01597742  0.014909435         3719 
 3970000   0.62245828   -7.8000977    759.61462  0.015944891  0.014903721         3759 
 3971000   0.61694274   -7.7914319     758.9745  0.015927443  0.014898019         3758 
 3972000   0.61697958   -7.7919467     760.5347  0.015956166  0.014892304         3743 
 3973000   0.61557877   -7.8098004    760.05387  0.015942065  0.014886595         3728 
 3974000   0.63443513   -7.7843966    760.68249  0.015951235  0.014880891         3720 
 3975000   0.60655817   -7.7886858    760.39339  0.015941161  0.014875195         3763 
 3976000   0.61258687   -7.7889116    760.47785  0.015938922  0.014869491         3738 
 3977000   0.59851018   -7.7901364    759.93487  0.015923537  0.014863788         3777 
 3978000   0.61699196   -7.7916917    760.41113  0.015929511  0.014858091         3701 
 3979000   0.60031441   -7.8056945    758.43357  0.015884091  0.014852396         3785 
 3980000   0.62425517   -7.7807281    762.14114  0.015957729  0.014846703         3731 
 3981000    0.6229709   -7.7758785    760.43534  0.015918014  0.014841017         3769 
 3982000   0.61357881   -7.8217872    760.29523  0.015911084  0.014835338         3707 
 3983000   0.61782708   -7.7979348    759.93924  0.015899641   0.01482965         3706 
 3984000   0.61602442   -7.8050328     761.1519  0.015921015  0.014823976         3723 
 3985000   0.61428434    -7.783472    761.17892  0.015917585  0.014818296         3716 
 3986000   0.60741028   -7.7955131    758.84368   0.01586477  0.014812624         3780 
 3987000    0.6142282   -7.8083117    759.55708  0.015875702  0.014806953         3778 
 3988000   0.60625885   -7.7707332    760.86256     0.015899   0.01480129         3679 
 3989000   0.60295945    -7.820545    759.13003  0.015858821   0.01479562         3719 
 3990000   0.60604572   -7.7999422    761.93679  0.015913467   0.01478995         3705 
 3991000   0.62007563   -7.8013724    761.39801   0.01589823  0.014784292         3714 
 3992000   0.60572552   -7.8013598     760.6937  0.015879544  0.014778638         3755 
 3993000    0.6073379   -7.8107739    760.00749  0.015861246   0.01477298         3726 
 3994000   0.60669392   -7.7988235    760.07348  0.015858652  0.014767324         3799 
 3995000   0.61616781   -7.8060759      760.605   0.01586577   0.01476167         3753 
 3996000   0.60503572   -7.8126108    759.61176  0.015841086   0.01475602         3745 
 3997000   0.61967168   -7.7942438    760.30861  0.015851651  0.014750375         3774 
 3998000   0.62138702   -7.8181894    759.18882  0.015824346  0.014744736         3734 
 3999000    0.6069573    -7.819348    760.33087  0.015844188  0.014739093         3722 
 4000000   0.61288483   -7.8063882    760.69433  0.015847799  0.014733454         3720 
 4001000   0.61254541   -7.7968461    759.01552  0.015808871  0.014727814         3776 
 4002000   0.61017814   -7.8117563    760.38133  0.015833361  0.014722178         3724 
 4003000   0.61477265   -7.7943283    760.36999   0.01582917  0.014716542         3698 
 4004000   0.61135312   -7.8242797    760.21656  0.015822023  0.014710914         3750 
 4005000   0.60125381   -7.7917249    761.37202  0.015842114  0.014705289         3754 
 4006000   0.62322883   -7.8141614    758.86405  0.015785989  0.014699665         3783 
 4007000   0.60411942   -7.8053462    760.86809  0.015823727  0.014694043         3713 
 4008000    0.6046192   -7.8086954    759.51224  0.015791589  0.014688419         3734 
 4009000   0.61243684   -7.8098418    759.05423  0.015778129  0.014682811         3723 
 4010000   0.60319921   -7.8053731    759.73732   0.01578839  0.014677199         3771 
 4011000   0.60730654   -7.8052704    760.57397  0.015801836   0.01467158         3693 
 4012000   0.60850623   -7.8249123    759.26488  0.015770706  0.014665973         3798 
 4013000   0.59799235   -7.7949769    758.46637  0.015750195  0.014660366         3752 
 4014000   0.60556236   -7.8090992    760.98587  0.015798577  0.014654756         3753 
 4015000   0.62031431   -7.7808374    759.64162  0.015766742  0.014649157         3776 
 4016000   0.60948126   -7.7961744    760.26298  0.015775709  0.014643559         3781 
 4017000   0.61606584   -7.8000776     760.4367  0.015775386  0.014637959         3763 
 4018000   0.61295632   -7.8154497     758.6941  0.015735318   0.01463237         3691 
 4019000   0.62356443   -7.8058032    760.45048  0.015767821   0.01462678         3744 
 4020000   0.60028427   -7.8179578    759.35815  0.015741255   0.01462119         3746 
 4021000   0.60335239   -7.7998958    760.96141  0.015770567  0.014615604         3748 
 4022000   0.61197459   -7.8093892    760.52896  0.015757686  0.014610025         3713 
 4023000   0.61565431   -7.8055918    759.77267  0.015738103  0.014604446         3719 
 4024000    0.6067767   -7.8060604    760.41573  0.015747509  0.014598872         3763 
 4025000   0.59408814   -7.8128971    759.87813  0.015732467  0.014593299         3716 
 4026000   0.59199749   -7.8088184    759.75499   0.01572601  0.014587725         3752 
 4027000   0.59836478   -7.8253406    760.38048  0.015735048  0.014582152         3739 
 4028000   0.61378076   -7.8106786    759.85878  0.015720349   0.01457659         3743 
 4029000   0.61510277    -7.821381    759.26614  0.015704189  0.014571027         3756 
 4030000    0.6070193   -7.8109922    759.43965   0.01570388  0.014565461         3750 
 4031000   0.59359945   -7.8245253    759.31923  0.015697495  0.014559903         3714 
 4032000   0.61109651   -7.8086236    759.94596  0.015706555   0.01455434         3722 
 4033000   0.60766537   -7.8081154    759.99763  0.015703728  0.014548781         3720 
 4034000   0.61011199   -7.8137342    758.78431  0.015674771  0.014543219         3768 
 4035000   0.60775862    -7.821995    759.72759  0.015690367  0.014537664         3843 
 4036000   0.59632284     -7.83271    758.77075  0.015666723  0.014532108         3719 
 4037000   0.60534665   -7.8224418    759.23182   0.01567236   0.01452656         3774 
 4038000   0.60986139   -7.8181214    760.73384  0.015699477  0.014521012         3786 
 4039000   0.58977659   -7.8434105    757.71239  0.015633251  0.014515467         3755 
 4040000   0.60358851   -7.8047574    759.71959  0.015670784  0.014509926         3788 
 4041000   0.60176041   -7.8238832    759.93972  0.015671445  0.014504391         3783 
 4042000   0.59722486   -7.8224592     758.2412   0.01563255   0.01449885         3770 
 4043000   0.60226258   -7.8083974    760.64099  0.015678147   0.01449332         3732 
 4044000   0.60234101   -7.8225622    759.39457  0.015648586  0.014487785         3773 
 4045000      0.59198   -7.8166078    758.86487  0.015633804  0.014482256         3786 
 4046000   0.60183173   -7.8186205    760.93354  0.015672548   0.01447673         3773 
 4047000   0.61857957   -7.8424622    757.85697  0.015605324  0.014471201         3797 
 4048000     0.608654   -7.8095365    759.22135  0.015629557  0.014465679         3781 
 4049000   0.60874386   -7.8099041    757.42511  0.015588728  0.014460154         3737 
 4050000   0.59542657    -7.821177    760.36289  0.015645327  0.014454637         3800 
 4051000   0.60714342   -7.8434442    758.25912  0.015598188  0.014449121         3800 
 4052000   0.60697838     -7.82039    759.94226  0.015628954  0.014443608         3818 
 4053000   0.60450958   -7.8212908     758.7062  0.015599683  0.014438106         3823 
 4054000   0.59530043   -7.7972615    760.56101  0.015633962  0.014432597         3765 
 4055000   0.61288614    -7.809587     758.9652  0.015597312  0.014427096         3747 
 4056000   0.59301975   -7.8271166    759.60549  0.015606622  0.014421595         3782 
 4057000   0.60185451   -7.8295411    758.46059  0.015579258  0.014416093         3807 
 4058000   0.58835155    -7.825805    760.29832  0.015613158  0.014410595         3764 
 4059000   0.59404721   -7.8009744    759.54395  0.015593823   0.01440511         3741 
 4060000   0.59461754   -7.8300398    759.16812  0.015582268   0.01439962         3769 
 4061000   0.59017947   -7.8396089    758.33557  0.015561347  0.014394128         3766 
 4062000   0.60039545   -7.8216125    759.42109  0.015579786   0.01438864         3771 
 4063000   0.60187999   -7.8211922    760.18498  0.015591619  0.014383155         3774 
 4064000   0.59646859   -7.8282136    759.91265  0.015582198  0.014377673         3833 
 4065000   0.61078684   -7.8268412    759.59434   0.01557184  0.014372193         3783 
 4066000   0.60597641   -7.8051946    759.45651  0.015565185  0.014366718         3809 
 4067000   0.60711603   -7.8022712    761.19079  0.015596894  0.014361243         3791 
 4068000   0.60159317   -7.8228942    761.45018  0.015598373  0.014355772         3797 
 4069000   0.60923559    -7.828857    758.67732  0.015537751  0.014350301         3782 
 4070000   0.59703764   -7.8090953    759.30658  0.015546818  0.014344838         3748 
 4071000   0.59140757   -7.8465224    757.68617  0.015509829  0.014339369         3763 
 4072000   0.59402508   -7.8320785    756.94747  0.015490903  0.014333904         3773 
 4073000   0.59720565   -7.8352128    758.92472  0.015527554  0.014328448         3784 
 4074000   0.59260615   -7.8261511    760.09981  0.015547779  0.014322987         3817 
 4075000   0.61195747    -7.821353     758.2451  0.015506035   0.01431753         3792 
 4076000   0.58823255   -7.8151439     759.6349  0.015530645  0.014312078         3807 
 4077000   0.60531656   -7.8450396    760.15871  0.015537542  0.014306628         3848 
 4078000   0.59715804   -7.7998976    758.26365  0.015495007  0.014301178         3757 
 4079000   0.60658295   -7.8292976    757.94446  0.015484687  0.014295734         3853 
 4080000   0.59060414   -7.8219757     758.7895  0.015498152  0.014290295         3752 
 4081000   0.58472299   -7.8112791    759.17165  0.015502157  0.014284856         3802 
 4082000   0.60837107    -7.836252    759.00754  0.015495009  0.014279418         3777 
 4083000   0.60293013   -7.8191294    758.77695  0.015486508  0.014273978         3802 
 4084000   0.59430252   -7.8012287    759.57745   0.01549905  0.014268545         3766 
 4085000   0.60081274   -7.8374488    758.13923  0.015465917  0.014263115         3811 
 4086000   0.59889097    -7.833043    757.12267  0.015441399   0.01425769         3815 
 4087000   0.60838772   -7.8314229    758.90917  0.015474047  0.014252262         3768 
 4088000   0.59873226   -7.8575087    760.12303  0.015495006  0.014246845         3764 
 4089000   0.60018278   -7.8518116    758.04883  0.015448945  0.014241428         3827 
 4090000   0.59272027   -7.8315397    759.29885  0.015470637  0.014236013         3787 
 4091000    0.5916958   -7.8444551    758.01327  0.015440668  0.014230597         3797 
 4092000   0.61068704   -7.8359289    759.35135  0.015464144  0.014225179         3745 
 4093000    0.5858586   -7.8123163    757.72129  0.015427178  0.014219769         3822 
 4094000   0.60304061   -7.8517703    758.36746  0.015436563  0.014214359         3816 
 4095000   0.59275457   -7.8410208    759.19119  0.015449556  0.014208953         3774 
 4096000   0.59199151   -7.8416525    758.19856  0.015425589  0.014203545         3792 
 4097000   0.60601103   -7.8449882     759.5977  0.015450283  0.014198143         3795 
 4098000   0.60412694   -7.8296133    760.17248  0.015458201  0.014192747         3830 
 4099000   0.59488359   -7.8275062    761.39565  0.015479297  0.014187351         3754 
 4100000   0.59674826   -7.8375816    757.11021  0.015388419  0.014181951         3812 
 4101000   0.57894695   -7.8455138    759.17523  0.015426628  0.014176554         3775 
 4102000   0.60485397   -7.8235021    760.15031  0.015442677  0.014171162         3762 
 4103000   0.59168392   -7.8638642    758.61273  0.015407684  0.014165771         3807 
 4104000   0.58970729   -7.8266335    759.62452  0.015424475  0.014160383         3801 
 4105000   0.58505533   -7.8600226    757.93346  0.015386388  0.014154994         3836 
 4106000   0.59028594   -7.8338602    759.71654  0.015418829  0.014149606         3772 
 4107000   0.58812877   -7.8247594     760.0576  0.015421995  0.014144217         3765 
 4108000   0.58457599    -7.843754    758.96025   0.01539598  0.014138843         3798 
 4109000   0.59872631   -7.8367088    758.17283  0.015376264  0.014133467         3807 
 4110000   0.60014289   -7.8283707    758.89225   0.01538711  0.014128095         3757 
 4111000   0.58080283   -7.8279781    759.38702  0.015393396  0.014122723         3815 
 4112000   0.59148577   -7.8453342    759.21523  0.015386171  0.014117349         3810 
 4113000   0.59417181    -7.841044     757.9718  0.015357237  0.014111988         3792 
 4114000   0.59884552   -7.8421591    758.79896  0.015370259  0.014106632         3816 
 4115000   0.58845603   -7.8505829    758.75538  0.015365641  0.014101269         3816 
 4116000    0.5990958   -7.8296775    756.61683  0.015318611  0.014095914         3775 
 4117000   0.59453706   -7.8563433    758.11781  0.015345272  0.014090562         3797 
 4118000   0.58898659   -7.8699611    758.13516  0.015341897  0.014085207         3810 
 4119000   0.59822533   -7.8573049     757.6038  0.015327422  0.014079848         3787 
 4120000   0.60715489   -7.8521365    758.55281  0.015342897  0.014074493         3779 
 4121000    0.5811772   -7.8495982    758.07049   0.01532942  0.014069141         3761 
 4122000   0.59989549   -7.8301649    757.57253  0.015315634  0.014063803         3800 
 4123000    0.5785951   -7.8443421    757.77197  0.015315951  0.014058458         3796 
 4124000   0.59928998   -7.8319004    759.06507  0.015338366  0.014053124         3795 
 4125000   0.58627058   -7.8304492    759.98255  0.015353183  0.014047788         3772 
 4126000   0.60034398   -7.8403446    758.67653  0.015323084  0.014042451         3776 
 4127000   0.59835368    -7.838303    759.04246   0.01532676   0.01403712         3821 
 4128000   0.59418281   -7.8439035    757.80016  0.015297968  0.014031797         3812 
 4129000   0.60663341   -7.8361139    758.89534  0.015316367  0.014026473         3790 
 4130000   0.59905694   -7.8400193    758.26694  0.015299979  0.014021152         3857 
 4131000   0.59464576   -7.8531209    758.30108  0.015296964  0.014015826         3774 
 4132000   0.57756732   -7.8402674    758.09941  0.015289194  0.014010507         3762 
 4133000   0.59521792   -7.8482383    758.43597  0.015292281  0.014005185         3807 
 4134000   0.59352596   -7.8437594    759.49468  0.015309923  0.013999875         3822 
 4135000   0.59098255   -7.8499152     758.5675  0.015287535   0.01399456         3782 
 4136000   0.59077966   -7.8305493    758.28694  0.015278186  0.013989255         3773 
 4137000   0.58791539   -7.8350072    757.44305  0.015257494  0.013983948         3755 
 4138000   0.59966508   -7.8489466    757.35355  0.015252005  0.013978645         3785 
 4139000   0.60225011   -7.8496681    757.97966  0.015260926  0.013973346         3749 
 4140000    0.5829401   -7.8418739    757.64868  0.015250577  0.013968051         3765 
 4141000   0.59461807    -7.838554     757.3409  0.015240701   0.01396276         3738 
 4142000   0.58778671   -7.8615712    757.46915  0.015239601  0.013957463         3775 
 4143000   0.59340017   -7.8528812    757.64704  0.015239501   0.01395217         3817 
 4144000   0.59665011   -7.8592113    758.75635  0.015258131  0.013946884         3821 
 4145000   0.58465119   -7.8526547    758.68496  0.015253015  0.013941592         3774 
 4146000   0.59057127   -7.8524985    757.42575  0.015224026  0.013936303         3770 
 4147000    0.5846921   -7.8266049    759.20102  0.015256029  0.013931016         3794 
 4148000   0.58731535   -7.8628057    757.61598  0.015220508  0.013925732         3772 
 4149000   0.58486731   -7.8360693    759.35589  0.015251785  0.013920456         3793 
 4150000   0.58065129   -7.8531231    756.94639  0.015199727  0.013915176         3812 
 4151000   0.59192349   -7.8386518    758.48188  0.015226891  0.013909907         3761 
 4152000   0.58568146   -7.8576385    757.65795  0.015206687  0.013904633         3770 
 4153000   0.58148983   -7.8437172    758.81026  0.015226147  0.013899367         3744 
 4154000   0.58637591   -7.8474651    757.41146   0.01519442  0.013894098         3825 
 4155000   0.57562983   -7.8431048    757.58801  0.015194304  0.013888834         3771 
 4156000   0.58583233   -7.8530204    758.50075   0.01520895  0.013883575         3797 
 4157000   0.58429223   -7.8594798    758.04883  0.015196232  0.013878316         3785 
 4158000   0.59114084   -7.8396205    758.37311  0.015199076  0.013873057         3782 
 4159000   0.57864523   -7.8484026    758.48239  0.015197611  0.013867799         3796 
 4160000   0.57313821   -7.8438693    758.70993  0.015198516  0.013862553         3772 
 4161000   0.60171959   -7.8386868    757.73868  0.015175412  0.013857304         3830 
 4162000   0.58583918   -7.8520292    758.96047  0.015196229  0.013852054         3809 
 4163000   0.57719867   -7.8497571    757.95234  0.015172399  0.013846813         3752 
 4164000   0.58526986   -7.8587089    758.30726  0.015175858  0.013841573         3784 
 4165000   0.57685579   -7.8570977    756.15548  0.015129161  0.013836329         3774 
 4166000    0.5842363   -7.8469391    758.02788  0.015162984  0.013831091         3755 
 4167000   0.57865664   -7.8410268    757.72128  0.015153213  0.013825864         3781 
 4168000   0.57686523   -7.8516479    755.29666  0.015101101  0.013820632         3814 
 4169000   0.58181158   -7.8353199    758.32266  0.015157965  0.013815401         3812 
 4170000    0.5825071    -7.833747    757.12713  0.015130438  0.013810174         3790 
 4171000   0.59111093   -7.8516953    758.13607  0.015146969  0.013804949         3828 
 4172000    0.5867726   -7.8517784    758.00224  0.015140665  0.013799728         3803 
 4173000   0.59812159   -7.8602207     757.3351  0.015123714  0.013794512         3774 
 4174000   0.59034159   -7.8349181    758.54921   0.01514433  0.013789299         3822 
 4175000   0.58835017   -7.8578006     757.8255  0.015126258  0.013784089         3799 
 4176000   0.58761222    -7.861999    757.09976  0.015108153  0.013778884         3813 
 4177000   0.60050013   -7.8526389    758.58659  0.015134199  0.013773672         3814 
 4178000   0.59389258   -7.8516003    758.58892  0.015130623  0.013768462         3833 
 4179000    0.5819839   -7.8562896    756.89407  0.015093205  0.013763257         3767 
 4180000   0.58675198   -7.8652938    756.28671  0.015077486  0.013758056         3806 
 4181000   0.59141206   -7.8644329    758.46777  0.015117352  0.013752856         3800 
 4182000   0.58264571   -7.8630933    758.02643  0.015104942  0.013747663         3830 
 4183000   0.58527692   -7.8722608    757.77773  0.015096377  0.013742471         3788 
 4184000   0.58167811   -7.8523977     756.9431  0.015076145  0.013737278         3735 
 4185000   0.59821041   -7.8568823    758.43669  0.015102284  0.013732101         3773 
 4186000   0.57276774   -7.8812817    758.52101  0.015100355  0.013726907         3846 
 4187000   0.59403276   -7.8730414    757.66893  0.015079789  0.013721721         3799 
 4188000   0.57822534   -7.8624757    758.49106  0.015092547  0.013716541         3815 
 4189000   0.58108332   -7.8586109    758.94693  0.015098013  0.013711359         3771 
 4190000   0.58315656   -7.8806028    757.67628  0.015069138  0.013706176         3834 
 4191000   0.57627216   -7.8479267    757.05788  0.015053247  0.013701001         3778 
 4192000   0.57241356   -7.8366215    759.65485  0.015101281  0.013695828         3836 
 4193000   0.59154441   -7.8432281    757.30079  0.015050894  0.013690656         3776 
 4194000     0.581823   -7.8636318    756.70868   0.01503554  0.013685487         3799 
 4195000    0.5792182   -7.8489037    758.07501  0.015059098   0.01368032         3806 
 4196000   0.58380145   -7.8604815    757.52671   0.01504462  0.013675157         3823 
 4197000   0.58662926   -7.8764151    755.42003  0.014999206  0.013669991         3822 
 4198000   0.57491893   -7.8704351    758.49861  0.015056745  0.013664832         3822 
 4199000   0.58869988   -7.8529462    756.88877  0.015021211  0.013659674         3837 
 4200000   0.58596941   -7.8614105    757.98256  0.015039336  0.013654523         3771 
 4201000   0.58990901   -7.8542445    755.96378  0.014995711  0.013649368         3846 
 4202000   0.57985295   -7.8686872    756.02956  0.014993447  0.013644212         3812 
 4203000   0.59110379    -7.867763    756.49695  0.014999146  0.013639063         3841 
 4204000   0.57735878   -7.8621854    756.83958   0.01500237  0.013633921         3835 
 4205000   0.57745764    -7.870625    757.73376  0.015016523  0.013628778         3806 
 4206000    0.5922717   -7.8540617    757.03875  0.014999183  0.013623636         3832 
 4207000   0.57374386   -7.8485533    757.56934  0.015006127  0.013618496         3808 
 4208000   0.57488324   -7.8599396    757.69367  0.015005024  0.013613366         3818 
 4209000   0.57981264   -7.8448886     757.9125  0.015005791   0.01360823         3815 
 4210000   0.58214848   -7.8533716    758.15148  0.015006957  0.013603101         3792 
 4211000   0.57655016   -7.8616633    757.34018  0.014987338  0.013597972         3797 
 4212000   0.57476687   -7.8580157    757.07028   0.01497844  0.013592844         3821 
 4213000   0.57648171   -7.8713578    756.94652  0.014972437  0.013587724         3820 
 4214000   0.57696156   -7.8731239    757.23903  0.014974668  0.013582606         3747 
 4215000   0.56716469   -7.8756816    756.49872  0.014956479  0.013577489         3788 
 4216000   0.57261373    -7.870619    757.64835  0.014975655  0.013572372         3813 
 4217000   0.58022427   -7.8672291    757.63646  0.014971869   0.01356726         3766 
 4218000    0.5882841   -7.8662451      755.918  0.014934369  0.013562147         3822 
 4219000   0.57108003    -7.866407    756.09976  0.014934419  0.013557041         3788 
 4220000   0.57123536   -7.8639771    757.88911  0.014966215  0.013551936         3796 
 4221000   0.58497669   -7.8549893    758.58031  0.014976315   0.01354683         3782 
 4222000   0.57064681   -7.8600346    756.49459    0.0149316  0.013541727         3765 
 4223000   0.57690681   -7.8703713    757.28526  0.014943667  0.013536624         3803 
 4224000   0.57472485    -7.874071    757.54357  0.014945225  0.013531525         3809 
 4225000   0.56590015    -7.850396    757.97222  0.014950142  0.013526433         3792 
 4226000   0.57397739   -7.8598833    757.07588   0.01492893  0.013521339         3828 
 4227000   0.57586659   -7.8225042    758.13148  0.014946209   0.01351625         3791 
 4228000   0.58417949   -7.8494719    759.20105  0.014963754  0.013511166         3795 
 4229000   0.59117233   -7.8626246    757.34367  0.014923616  0.013506088         3819 
 4230000   0.57700303   -7.8911383     756.9894  0.014913109  0.013501006         3812 
 4231000   0.57447561   -7.8639054    755.25652  0.014875453  0.013495924         3809 
 4232000   0.57732147   -7.8697049    756.68362   0.01490004  0.013490842         3852 
 4233000   0.57086648   -7.8762691    756.81979  0.014899201  0.013485762         3780 
 4234000   0.56745305   -7.8805139    757.48346  0.014908744  0.013480688         3812 
 4235000   0.56563315   -7.8814903    755.65191  0.014869184  0.013475614         3813 
 4236000   0.58264473   -7.8741223    756.89483  0.014890125  0.013470547         3793 
 4237000   0.56246329   -7.8616874    757.48986  0.014898314  0.013465482         3800 
 4238000     0.569895   -7.8814592    755.95618  0.014864641  0.013460414         3810 
 4239000   0.57467647   -7.8737223    756.60397  0.014873869  0.013455349         3796 
 4240000   0.57289888   -7.8794563     757.9169  0.014896166  0.013450294         3712 
 4241000   0.58029811   -7.8640638    756.24354  0.014859772  0.013445235         3858 
 4242000   0.57200016   -7.8567234    757.97591  0.014890302   0.01344018         3826 
 4243000   0.57167614   -7.8641628    756.76403  0.014862991  0.013435129         3826 
 4244000   0.57704871   -7.8564391     755.6478  0.014837571  0.013430078         3774 
 4245000   0.56783961   -7.8847249    755.85084  0.014838061   0.01342503         3787 
 4246000   0.57216902   -7.8630671    756.01792  0.014837846  0.013419983         3815 
 4247000   0.55913163   -7.8469856    757.58834  0.014865166  0.013414941         3813 
 4248000   0.56476162   -7.8704653    757.10156  0.014852118    0.0134099         3796 
 4249000   0.57901988   -7.8781192    756.96208  0.014845887  0.013404863         3798 
 4250000   0.56756011    -7.872922    756.72538  0.014837753  0.013399828         3861 
 4251000   0.58068208   -7.8655817    756.46155   0.01482909  0.013394798         3802 
 4252000   0.55669602   -7.8915146    757.37938  0.014843591  0.013389766         3828 
 4253000   0.57273263   -7.8680724    755.87475  0.014810619  0.013384733         3845 
 4254000   0.57480177    -7.874559    757.72341  0.014843352  0.013379704         3830 
 4255000   0.56501294   -7.8472595    756.69099  0.014819643  0.013374683         3801 
 4256000   0.57364967   -7.8756323    758.11326   0.01484401  0.013369657         3812 
 4257000    0.5722699   -7.8957959    756.49462  0.014808837  0.013364635         3741 
 4258000   0.57723092   -7.8603765    755.61027  0.014788051  0.013359621         3785 
 4259000   0.57625524   -7.8777227    756.91266  0.014810062  0.013354613         3815 
 4260000   0.56305749   -7.8826913    756.79782  0.014804339  0.013349602         3802 
 4261000   0.57213409   -7.8783108     757.0917  0.014806612  0.013344586         3828 
 4262000   0.57035824   -7.8662027    757.09571  0.014803217  0.013339572         3771 
 4263000   0.56267575   -7.8614791    756.17368   0.01478172  0.013334568         3805 
 4264000   0.56352064   -7.8650464    757.65008  0.014807108  0.013329565         3831 
 4265000   0.57155178   -7.8922932    756.83733  0.014787755  0.013324564         3809 
 4266000   0.59364945   -7.8750205    756.69278  0.014781466  0.013319569         3821 
 4267000   0.57098513   -7.8825034    755.61783  0.014757008  0.013314574         3762 
 4268000   0.55513408   -7.8904642    756.18341  0.014764593  0.013309582         3834 
 4269000   0.57001902   -7.8862492    756.39981  0.014765359  0.013304589         3803 
 4270000   0.57617971   -7.8829445    756.70526  0.014767862  0.013299601         3818 
 4271000   0.56359782   -7.8787455    757.06192  0.014771364  0.013294616         3810 
 4272000   0.57381977    -7.890992    757.05371  0.014767746   0.01328963         3828 
 4273000   0.57141049   -7.8813285    754.92756  0.014722825  0.013284641         3822 
 4274000   0.56875164   -7.8939572    756.52544  0.014750535  0.013279662         3858 
 4275000   0.56930859   -7.8892008    757.76732  0.014771293  0.013274682         3855 
 4276000   0.57493781   -7.8823168    757.21126  0.014757002  0.013269711         3822 
 4277000   0.55819349   -7.8810378    756.83886  0.014746295  0.013264736         3824 
 4278000   0.56983533      -7.8802    756.11718   0.01472879  0.013259767         3862 
 4279000   0.57655351    -7.903513    756.72797  0.014737243  0.013254797         3856 
 4280000   0.56082706   -7.8785122    755.91347  0.014717941  0.013249838         3822 
 4281000   0.57858105   -7.8754512    757.45827  0.014744574  0.013244874         3822 
 4282000   0.56939913   -7.8852639    755.91588  0.014711114  0.013239913         3808 
 4283000   0.57542045    -7.905361    756.69516  0.014722841  0.013234953         3823 
 4284000   0.56206471   -7.8738555    756.45292  0.014714693  0.013229997         3854 
 4285000   0.54801536   -7.8936391    756.24998  0.014707312  0.013225041         3822 
 4286000   0.56413189   -7.8838776    756.71694   0.01471296  0.013220088         3840 
 4287000   0.55596505   -7.8647265    757.07409   0.01471647  0.013215138         3795 
 4288000   0.56810266   -7.8880115    755.61752  0.014684731  0.013210188         3798 
 4289000   0.57388578   -7.8843122    756.68666   0.01470208   0.01320524         3840 
 4290000   0.56062976   -7.8748833    756.24782  0.014690129  0.013200298         3810 
 4291000   0.56011311   -7.8931414    755.83214  0.014678632  0.013195357         3826 
 4292000   0.56790821   -7.8859981    756.13658  0.014681123  0.013190423         3831 
 4293000    0.5665453   -7.8683205    756.56265  0.014685974  0.013185489         3830 
 4294000   0.57428786   -7.8989869    756.82241  0.014687595  0.013180556         3833 
 4295000   0.58440121   -7.8917187     757.4439  0.014696234  0.013175628         3832 
 4296000    0.5424437   -7.8874966    756.10243  0.014666791  0.013170696         3764 
 4297000   0.55991276   -7.8889862    755.88458  0.014659153  0.013165766         3804 
 4298000   0.54774459   -7.9006964    757.15814  0.014680436  0.013160841         3822 
 4299000   0.55911847   -7.8972498    756.69377  0.014668019  0.013155919         3821 
 4300000   0.56599456   -7.8819807    757.63765    0.0146829  0.013150996         3819 
 4301000   0.57894467   -7.9124795    756.30738  0.014653712  0.013146079         3830 
 4302000   0.56927968     -7.89285    756.06604  0.014645631  0.013141166         3837 
 4303000    0.5663175    -7.887811    756.58613  0.014652299  0.013136254         3831 
 4304000   0.56224672   -7.9022848    755.74896  0.014632686  0.013131342         3836 
 4305000   0.54935979   -7.8817557    755.95263  0.014633229  0.013126431         3824 
 4306000   0.56614488   -7.8911231    754.71322  0.014605845  0.013121527         3815 
 4307000   0.55260778   -7.8974772    755.59321   0.01461948  0.013116617         3804 
 4308000   0.56493054    -7.912422    754.95679  0.014603776  0.013111716         3821 
 4309000   0.54603944   -7.8768142    756.71105  0.014634313  0.013106816         3832 
 4310000   0.55745664   -7.8962231    754.89396  0.014595784  0.013101921         3832 
 4311000   0.56251987   -7.8946337    756.55048   0.01462442  0.013097027         3835 
 4312000   0.56504714   -7.9032211    757.53827  0.014640118  0.013092131         3831 
 4313000   0.55131153   -7.9002816    756.46958  0.014616075  0.013087238         3834 
 4314000   0.55649623   -7.8942953    756.07617  0.014605087  0.013082351         3791 
 4315000   0.56343243   -7.8920979    756.83154  0.014616291  0.013077465         3805 
 4316000   0.54712124    -7.882717    757.39556  0.014623794  0.013072575         3812 
 4317000   0.55011201   -7.8771526    755.62261  0.014586183  0.013067693         3819 
 4318000   0.56639801   -7.8973004    756.42159  0.014598224  0.013062808         3770 
 4319000   0.56747258   -7.8891233    756.34329  0.014593333  0.013057928         3826 
 4320000   0.56701228   -7.8803322    756.43002  0.014591628  0.013053054         3846 
 4321000   0.55593052   -7.8870654    756.41863  0.014588032  0.013048187         3801 
 4322000   0.56512282   -7.8973938    756.01868  0.014576945  0.013043316         3860 
 4323000   0.54921829    -7.877938    757.27337  0.014597759  0.013038448         3806 
 4324000   0.56615527   -7.8985519    756.09648  0.014571702  0.013033585         3859 
 4325000   0.56070822   -7.8829839    757.20573  0.014589706   0.01302872         3808 
 4326000   0.55752598   -7.8893716    756.80218  0.014578559  0.013023861         3789 
 4327000   0.55964372   -7.9002325    755.47854  0.014549698  0.013019008         3830 
 4328000   0.55142065     -7.89155    756.30548  0.014562259  0.013014148         3831 
 4329000   0.56400922   -7.9060558    755.15917  0.014536829  0.013009291         3839 
 4330000   0.56487381   -7.9033733    755.90766  0.014547876  0.013004441         3821 
 4331000   0.56237311   -7.8931204    756.88441  0.014563311  0.012999591         3863 
 4332000   0.55259536   -7.8878795     756.1844  0.014546483  0.012994741         3848 
 4333000   0.55448317   -7.8829689    755.60194  0.014531924  0.012989897         3833 
 4334000   0.55440706   -7.8842763    754.67527  0.014510753  0.012985055         3825 
 4335000   0.55359493    -7.885315    756.48209  0.014542139  0.012980218         3819 
 4336000   0.57031953   -7.8756083    756.05685  0.014530613   0.01297538         3801 
 4337000    0.5504351   -7.9010724    756.84044  0.014542319  0.012970551         3816 
 4338000   0.56249869   -7.8921301    756.20299  0.014526721  0.012965715         3822 
 4339000   0.55208419   -7.8912615    755.85299  0.014516651  0.012960889         3831 
 4340000   0.56531567   -7.9010959    755.25411  0.014501807  0.012956063         3852 
 4341000   0.55318217   -7.8891926    756.33443  0.014519205  0.012951234         3818 
 4342000   0.55941871   -7.9066709    755.15365  0.014493199  0.012946412         3815 
 4343000   0.55752584   -7.8991319    755.48284  0.014496178  0.012941589         3847 
 4344000   0.55700218    -7.891944    756.83123  0.014518708  0.012936774         3838 
 4345000   0.55297646   -7.8907036    755.60448  0.014491839  0.012931953         3815 
 4346000   0.56683723   -7.8870719    756.83561  0.014512111  0.012927141         3803 
 4347000   0.56540648   -7.9074948    756.17735  0.014496153  0.012922332         3830 
 4348000   0.55691333   -7.9127263     755.7409  0.014484455  0.012917525         3835 
 4349000   0.55717924   -7.8961452     754.4768  0.014456902  0.012912721         3815 
 4350000   0.54962203   -7.8910678    756.36296  0.014489712  0.012907917         3802 
 4351000   0.55549389    -7.900581    755.68068  0.014473314  0.012903118         3792 
 4352000   0.55109504   -7.8915858    755.85497  0.014473326  0.012898319         3840 
 4353000   0.56227975   -7.9067257    755.77525  0.014468475  0.012893519         3812 
 4354000   0.54642706   -7.8872927    756.79115  0.014484596  0.012888721         3814 
 4355000   0.55345165   -7.8932023    755.57737  0.014458044  0.012883928         3798 
 4356000   0.55422248   -7.9009237    756.19595  0.014466559   0.01287913         3791 
 4357000   0.55231229   -7.9065714    755.16894  0.014443595  0.012874343         3799 
 4358000   0.54709679   -7.9213994    756.06206  0.014457359  0.012869556         3829 
 4359000   0.54450601   -7.8992534    756.29398  0.014458476  0.012864771         3805 
 4360000   0.55417034   -7.9107025    755.91484  0.014447914  0.012859991         3829 
 4361000   0.55530828   -7.9248546    756.46437  0.014455101  0.012855211         3826 
 4362000   0.54715774    -7.908237    756.23357  0.014447378  0.012850436         3822 
 4363000   0.54712057   -7.8893433    754.52162  0.014411369  0.012845663         3835 
 4364000   0.55957652   -7.9046051    755.71638  0.014430881  0.012840888         3835 
 4365000   0.55561113   -7.9018913    754.70379  0.014408243  0.012836109         3832 
 4366000   0.55095762    -7.912467     754.9612  0.014409856  0.012831339         3839 
 4367000   0.54284217   -7.9081434    755.54718  0.014417739  0.012826574         3825 
 4368000   0.55452855    -7.884083    754.94223  0.014402897  0.012821813         3824 
 4369000    0.5577092   -7.9009673    755.50179  0.014410273  0.012817047         3810 
 4370000   0.55405087   -7.9109705    756.02467  0.014416946  0.012812288         3850 
 4371000   0.55688027   -7.8900224    756.18323  0.014416671  0.012807531         3829 
 4372000   0.55825493   -7.9145025    754.85124  0.014387985  0.012802777         3822 
 4373000   0.53909512    -7.885703    755.92559  0.014405168  0.012798028         3800 
 4374000   0.55376496   -7.9158092    755.27924   0.01438956  0.012793276         3866 
 4375000   0.55247649   -7.9012123    756.59209  0.014411278  0.012788527         3803 
 4376000   0.55943628   -7.9164469    754.04315  0.014359444  0.012783781         3847 
 4377000   0.56376173   -7.9102975    753.82375  0.014351987  0.012779033         3861 
 4378000   0.54613458    -7.905813      755.211  0.014375114  0.012774287         3807 
 4379000    0.5540008   -7.8925553    755.04173   0.01436861  0.012769548         3793 
 4380000   0.56344823   -7.9016343    755.74092  0.014378632  0.012764805         3849 
 4381000   0.54000217   -7.9128283    756.90858  0.014397561  0.012760071         3820 
 4382000   0.55335863   -7.8998739    755.30385  0.014363758  0.012755333         3794 
 4383000   0.55860438   -7.9092121    754.13305  0.014338221  0.012750602         3809 
 4384000   0.54786572   -7.9119056    755.18797  0.014355003  0.012745876         3860 
 4385000   0.53874409   -7.9084113     754.8056  0.014344462  0.012741149         3843 
 4386000   0.55013139   -7.9215138      755.403  0.014352542  0.012736424         3850 
 4387000   0.55170865   -7.9132956    757.02336   0.01438005  0.012731701         3820 
 4388000   0.53727432   -7.9022065    755.52207  0.014348262  0.012726981         3768 
 4389000   0.54377389   -7.9103101    755.73703  0.014349074   0.01272226         3836 
 4390000   0.55350458   -7.9045437    755.91954   0.01434927  0.012717539         3847 
 4391000   0.54581034   -7.8825064    757.00769  0.014366653  0.012712826         3836 
 4392000   0.54995827   -7.9169774    754.74363  0.014320424  0.012708113         3866 
 4393000   0.54480561   -7.9256603    755.22171  0.014326233  0.012703404         3846 
 4394000   0.54369924   -7.8983769    755.64732  0.014331045  0.012698691         3811 
 4395000   0.56151816   -7.8817738    755.67161  0.014328244  0.012693984         3817 
 4396000   0.55010324    -7.902226    754.11943  0.014295561  0.012689284         3818 
 4397000   0.55230027   -7.9158283    755.59204  0.014320219  0.012684581         3835 
 4398000   0.54245039   -7.9325216    753.23743  0.014272348  0.012679879         3822 
 4399000     0.549372   -7.9137458    755.59885  0.014313837  0.012675179         3838 
 4400000   0.57421925   -7.9040561    757.33897  0.014343541  0.012670483         3816 
 4401000    0.5471146    -7.903881    755.51371   0.01430572  0.012665788         3836 
 4402000   0.54669534   -7.8939507    756.14058  0.014314338  0.012661097         3862 
 4403000   0.54776634   -7.9121551    755.57372  0.014300358   0.01265641         3823 
 4404000   0.55410026   -7.9053007     755.4056   0.01429393  0.012651723         3792 
 4405000   0.54793516   -7.9010611    755.10608  0.014285018  0.012647042         3822 
 4406000   0.53747371   -7.9123238    755.30227  0.014285487  0.012642354         3851 
 4407000   0.54468981   -7.9134611    756.70205  0.014308714  0.012637674         3821 
 4408000   0.55145546   -7.9031087    754.57157  0.014265192  0.012632995         3829 
 4409000   0.54402486   -7.9140359    755.02186  0.014270467   0.01262832         3830 
 4410000   0.54960884   -7.9058674    756.06307  0.014286906  0.012623646         3821 
 4411000   0.53634188   -7.8942478    755.01226  0.014263815  0.012618971         3841 
 4412000   0.54712904   -7.9087278    754.74613  0.014255556  0.012614306         3842 
 4413000   0.54811674   -7.9079825    754.00087  0.014238252  0.012609641         3827 
 4414000   0.55453686   -7.9281294    755.49527   0.01426324  0.012604975         3825 
 4415000   0.55765899    -7.909453    756.09376  0.014271305  0.012600308         3819 
 4416000   0.53528219   -7.9300828     753.9247  0.014227142  0.012595646         3840 
 4417000   0.54886804   -7.9100601    755.61472  0.014255806  0.012590984         3844 
 4418000   0.55880287   -7.9224423    752.88833  0.014201153  0.012586329         3830 
 4419000   0.53772231    -7.916682    755.89942  0.014254722  0.012581676         3825 
 4420000   0.53827668   -7.9108836    755.81573  0.014249919  0.012577028         3813 
 4421000   0.54423714   -7.9170599    755.56686  0.014242005  0.012572381         3864 
 4422000   0.54540628   -7.9090753    754.21382  0.014213286  0.012567733         3834 
 4423000    0.5364967   -7.9179388    755.12321  0.014227206  0.012563086         3832 
 4424000   0.56242423   -7.9224279    754.92558  0.014220268  0.012558442         3840 
 4425000    0.5381123   -7.9104492    756.21038   0.01424125  0.012553801         3850 
 4426000   0.55563463   -7.8953847    754.56742  0.014207099  0.012549164         3825 
 4427000   0.54270994   -7.9132052    754.61527   0.01420479  0.012544525         3860 
 4428000   0.54531211   -7.8973232    755.03739  0.014209526  0.012539887         3812 
 4429000   0.53954931   -7.9403958    754.27672  0.014192006  0.012535255         3820 
 4430000   0.54081297   -7.9228065    754.68183  0.014196423  0.012530627         3830 
 4431000   0.54952507   -7.9251033    754.40765  0.014188062  0.012525997         3839 
 4432000   0.55067348   -7.9398577    755.68406  0.014208861  0.012521374         3838 
 4433000   0.54033391   -7.9325534    754.61377  0.014185536  0.012516753         3849 
 4434000   0.52804396   -7.9274103    755.71401  0.014203015  0.012512133         3831 
 4435000   0.53890102   -7.9188207    754.19443  0.014171259  0.012507513         3815 
 4436000   0.54442041   -7.9244822    754.44102  0.014172697  0.012502899         3842 
 4437000   0.54355307   -7.9310367    754.18324  0.014164662  0.012498286         3822 
 4438000   0.54124767   -7.9202621    754.30817  0.014163816   0.01249367         3790 
 4439000   0.54136996   -7.9255454    754.65381  0.014167114   0.01248906         3828 
 4440000   0.54908454   -7.9143887    754.95777  0.014169628   0.01248445         3809 
 4441000   0.53983152   -7.9236978    754.05826  0.014149558  0.012479842         3852 
 4442000   0.53314475   -7.9149135     754.1553  0.014148193  0.012475238         3858 
 4443000   0.54187566   -7.9294099    754.48994  0.014151286  0.012470638         3861 
 4444000   0.54064932   -7.9067208    754.87596   0.01415534  0.012466038         3837 
 4445000   0.55051764   -7.9100595    754.09194  0.014137457  0.012461443         3850 
 4446000   0.55094858   -7.9205382     754.7724  0.014147031  0.012456843         3809 
 4447000    0.5451151   -7.9316191    754.34955  0.014135926  0.012452249         3840 
 4448000    0.5412192   -7.9234301    756.10213  0.014165582  0.012447657         3815 
 4449000   0.52775869   -7.9172531    756.18948  0.014164035  0.012443069         3784 
 4450000   0.54305803   -7.9196602    755.40474  0.014146156  0.012438482         3813 
 4451000   0.54656564   -7.9353933    755.37928  0.014142501  0.012433901         3843 
 4452000   0.54554779   -7.9161799    755.57288  0.014142948  0.012429317         3806 
 4453000   0.53720913     -7.92053    755.21741   0.01413312  0.012424739         3853 
 4454000   0.55950956   -7.9196689    755.28979  0.014131301  0.012420163         3815 
 4455000   0.53295701   -7.9368214    754.35374   0.01411062   0.01241559         3813 
 4456000   0.53263525   -7.9396217    754.68709  0.014113687  0.012411014         3847 
 4457000    0.5397805   -7.9388723    754.73487  0.014111414  0.012406437         3831 
 4458000   0.54251223   -7.9270891    753.35205    0.0140824  0.012401871         3827 
 4459000    0.5347825   -7.9423509    753.39721  0.014080085  0.012397302         3832 
 4460000   0.53400207   -7.9014639    754.86207  0.014104299  0.012392737         3850 
 4461000   0.52354911   -7.9206798    754.30968  0.014090818  0.012388174         3815 
 4462000   0.52459375   -7.9319998    753.86609  0.014079376  0.012383612         3809 
 4463000   0.54351518   -7.9188354    754.12424  0.014081041  0.012379056         3802 
 4464000   0.53125203   -7.9340953    753.22558  0.014061111  0.012374496         3800 
 4465000   0.53057001   -7.9231104    755.38503  0.014098265  0.012369938         3841 
 4466000   0.53955792   -7.9420479    753.61501   0.01406208  0.012365382         3821 
 4467000   0.53545339   -7.9282229    752.70015  0.014041865  0.012360831         3851 
 4468000   0.53909429   -7.9070961    755.16553  0.014084705  0.012356287         3810 
 4469000   0.52568945   -7.9285735    753.39912  0.014048615   0.01235174         3843 
 4470000   0.53177506   -7.9419743    753.49814  0.014047318  0.012347194         3821 
 4471000   0.51982527   -7.9348828    753.72138  0.014048337  0.012342649         3836 
 4472000   0.53440146   -7.9325446    753.80354  0.014046727  0.012338107         3833 
 4473000   0.53180319   -7.9179381    755.36482  0.014072673  0.012333571         3823 
 4474000   0.53175354   -7.9263738    754.50769  0.014053563  0.012329036         3836 
 4475000   0.53724835   -7.9094749    754.23329  0.014045313    0.0123245         3826 
 4476000   0.53918438   -7.9223315    754.08384  0.014039392  0.012319971         3853 
 4477000   0.54294853    -7.934655    754.09947  0.014036547  0.012315444         3855 
 4478000   0.54908635   -7.9262513     754.4914  0.014040706  0.012310916         3827 
 4479000   0.53966541   -7.9307589    755.43247   0.01405508  0.012306392         3832 
 4480000   0.53619461   -7.9294293    755.35974   0.01405059  0.012301869         3862 
 4481000   0.53190449   -7.9485162    754.04695  0.014023041  0.012297347         3849 
 4482000   0.53189348   -7.9295961    754.45501  0.014027499  0.012292825         3852 
 4483000   0.53776628   -7.9275371    755.31686  0.014040391  0.012288313         3821 
 4484000   0.52401833   -7.9202357    754.17803  0.014016095  0.012283797         3838 
 4485000   0.53982601   -7.9297048    755.91191  0.014045186  0.012279285         3813 
 4486000   0.54045715   -7.9342879    754.01419  0.014006803  0.012274778         3834 
 4487000   0.54513399    -7.926201    754.21098  0.014007336  0.012270268         3854 
 4488000   0.53177017   -7.9347371    755.29904  0.014024418  0.012265762         3847 
 4489000   0.51906187   -7.9297777    754.44233   0.01400539  0.012261262         3830 
 4490000   0.54477177   -7.9352041    756.01459  0.014031451  0.012256761         3851 
 4491000   0.53609149   -7.9230723    754.82036  0.014006167  0.012252264         3828 
 4492000   0.53496809   -7.9392583    753.09407  0.013971024  0.012247766         3813 
 4493000   0.53770808   -7.9461894    753.55171  0.013976402  0.012243272         3807 
 4494000   0.52407758   -7.9342129    755.14257  0.014002792  0.012238783         3799 
 4495000   0.54109602   -7.9362759    753.72672  0.013973428  0.012234294         3872 
 4496000   0.51938915   -7.9359705    754.61501  0.013986785  0.012229806         3843 
 4497000   0.53968724   -7.9378026     753.7637  0.013967899   0.01222532         3822 
 4498000   0.53093308   -7.9222817    754.50935  0.013978608  0.012220841         3816 
 4499000   0.53421979   -7.9419839    753.59963  0.013958651  0.012216357         3821 
 4500000    0.5331639   -7.9159498     754.3587  0.013969605  0.012211877         3839 
 4501000   0.53420035   -7.9258898    755.48705  0.013987393  0.012207397         3792 
 4502000   0.53764439     -7.93839    753.83944  0.013953788  0.012202917         3844 
 4503000   0.53981684   -7.9275426    753.97883  0.013953269  0.012198443         3841 
 4504000   0.53278116   -7.9216898    754.20605  0.013954375  0.012193973         3862 
 4505000   0.53562916   -7.9311969    754.26543  0.013952376  0.012189499         3827 
 4506000   0.53649264   -7.9469549    754.14219     0.013947   0.01218503         3836 
 4507000   0.54561233   -7.9557729    753.26247   0.01392764  0.012180572         3855 
 4508000   0.52351368   -7.9255412     753.8642  0.013935674  0.012176104         3829 
 4509000   0.53308568   -7.9219131    753.74013   0.01393029  0.012171644         3821 
 4510000   0.52961886   -7.9185845    754.62098  0.013943477  0.012167181         3826 
 4511000   0.52379734   -7.9419242    754.31797  0.013934789  0.012162726         3865 
 4512000   0.53932412   -7.9366493    754.04668   0.01392669  0.012158272         3861 
 4513000   0.52918164   -7.9388284    754.51154  0.013932187  0.012153819         3850 
 4514000   0.52656899   -7.9366933    752.62666  0.013894304   0.01214937         3832 
 4515000    0.5308145   -7.9416274    754.66474  0.013928843  0.012144918         3843 
 4516000   0.53018208   -7.9491087     754.2555  0.013918207  0.012140471         3805 
 4517000   0.54071458   -7.9340888     753.4761  0.013900747  0.012136021         3794 
 4518000    0.5157624   -7.9356916    753.44581  0.013897112  0.012131581         3824 
 4519000   0.53328097   -7.9454595    753.55303  0.013896014  0.012127138         3807 
 4520000   0.52003257   -7.9330451    753.61794  0.013894136  0.012122697         3843 
 4521000   0.53368183   -7.9332499     755.5644  0.013926941  0.012118261         3785 
 4522000   0.53336816   -7.9357824     754.9393  0.013912342  0.012113827         3857 
 4523000   0.52799292   -7.9413875    754.42017  0.013899701  0.012109395         3837 
 4524000   0.53149961   -7.9427386    753.70024  0.013883367  0.012104964         3853 
 4525000   0.53144187   -7.9248736     753.3621  0.013874072  0.012100535         3837 
 4526000   0.53193282   -7.9431877    754.38538  0.013889847  0.012096109         3805 
 4527000   0.53051873   -7.9494346    752.42744  0.013850737  0.012091683         3826 
 4528000   0.53490388   -7.9446331    754.74487  0.013890328  0.012087262         3836 
 4529000   0.51513909   -7.9447691     753.9788  0.013873166   0.01208284         3811 
 4530000   0.53716792   -7.9295636    754.08279  0.013872016  0.012078425         3771 
 4531000   0.52668308   -7.9381707    753.69277  0.013861781  0.012074013         3853 
 4532000   0.53798589   -7.9554964    752.63931  0.013839352  0.012069602         3827 
 4533000   0.52538939   -7.9394913    753.09513  0.013844678  0.012065192         3846 
 4534000    0.5180652   -7.9451425    754.54672  0.013868305  0.012060777         3849 
 4535000   0.52886643    -7.943026    753.55288  0.013846984  0.012056367         3832 
 4536000   0.51753895   -7.9476771     754.3216  0.013858054  0.012051965         3817 
 4537000   0.52106155   -7.9378632    752.91905  0.013829238  0.012047561         3832 
 4538000   0.52672766   -7.9498369    753.18841  0.013831137  0.012043157         3847 
 4539000   0.52150364   -7.9426854    752.94926  0.013823699   0.01203876         3856 
 4540000   0.52225175   -7.9616255    754.41264  0.013847515   0.01203436         3880 
 4541000   0.52344396   -7.9397415    753.73656  0.013832059  0.012029966         3820 
 4542000   0.52341184     -7.94688    754.33678  0.013840026  0.012025569         3849 
 4543000    0.5234612   -7.9471463    754.15426  0.013833632  0.012021176         3834 
 4544000   0.51697065    -7.949902    753.79227  0.013823949  0.012016785         3834 
 4545000   0.54079109   -7.9365411    753.66574  0.013818587  0.012012397         3855 
 4546000   0.51911841   -7.9609548    752.72355  0.013798276  0.012008011         3872 
 4547000   0.53143696   -7.9372476    754.15658  0.013821505  0.012003625         3833 
 4548000   0.52992922     -7.94714     753.2386  0.013801645  0.011999249         3858 
 4549000   0.52450909   -7.9337881    753.98193  0.013812229  0.011994867         3831 
 4550000   0.53511875   -7.9452409    753.77076  0.013805325  0.011990491         3865 
 4551000   0.53319987   -7.9552227    754.54732  0.013816511  0.011986113         3824 
 4552000    0.5216678   -7.9424536    753.74578  0.013798802  0.011981741         3846 
 4553000   0.51294722   -7.9431352     753.7013  0.013794958  0.011977371         3839 
 4554000   0.52732091   -7.9624927    753.34668  0.013785439  0.011973002         3838 
 4555000    0.5234263   -7.9443634    753.55044   0.01378614  0.011968636         3838 
 4556000    0.5191155    -7.951859     755.1256  0.013811926   0.01196427         3829 
 4557000   0.52371856    -7.936528    753.24208  0.013774451  0.011959903         3848 
 4558000   0.51999998      -7.9398    753.30269  0.013772537  0.011955542         3856 
 4559000   0.52059867   -7.9551849    752.56669  0.013756063  0.011951184         3852 
 4560000   0.51828473   -7.9760733    754.02619  0.013779718  0.011946824         3867 
 4561000   0.52028099   -7.9454585    753.79534  0.013772479  0.011942464         3830 
 4562000   0.52173081   -7.9476041    751.99159  0.013736512  0.011938114         3864 
 4563000   0.51645826   -7.9368039     754.3757  0.013777042   0.01193376         3828 
 4564000   0.52212894   -7.9600063    752.83343  0.013745863   0.01192941         3863 
 4565000   0.52743917   -7.9448122    753.55339  0.013755995  0.011925063         3843 
 4566000   0.52173593   -7.9568207    754.97325  0.013778896  0.011920723         3834 
 4567000   0.52287197   -7.9546705    753.83923  0.013755186  0.011916381         3821 
 4568000   0.51050746   -7.9605499    754.07761  0.013756524  0.011912039         3808 
 4569000   0.52350699   -7.9480265    753.58785   0.01374458    0.0119077         3838 
 4570000   0.52089033   -7.9387842    751.49296  0.013703373  0.011903365         3838 
 4571000   0.52586743   -7.9498302    752.85843  0.013725269  0.011899026         3798 
 4572000   0.51640587   -7.9439608    752.87016   0.01372248  0.011894694         3832 
 4573000   0.52822393    -7.967365    753.63087  0.013733342  0.011890362         3851 
 4574000    0.5109146   -7.9549378    753.15637  0.013721694  0.011886033         3816 
 4575000   0.51687177    -7.953593    754.72559  0.013747279  0.011881706         3826 
 4576000   0.53688708   -7.9580696    753.35385  0.013719294  0.011877382         3861 
 4577000   0.51543982   -7.9606055     752.6111  0.013702773  0.011873059         3841 
 4578000   0.51495577   -7.9627993    753.50242  0.013716004  0.011868736         3839 
 4579000   0.52725135   -7.9469564    753.34114  0.013710074  0.011864419         3855 
 4580000   0.51325309   -7.9525986     751.8986  0.013680833  0.011860103         3842 
 4581000   0.51764544   -7.9425352    752.59451  0.013690506  0.011855786         3823 
 4582000   0.51960935   -7.9461587    753.58279  0.013705492  0.011851477         3828 
 4583000   0.51668452   -7.9600584     753.1694  0.013694985  0.011847169         3835 
 4584000   0.51864728   -7.9675992    753.31885  0.013694714  0.011842863         3831 
 4585000   0.51495986   -7.9590853    752.06283  0.013668899  0.011838558         3848 
 4586000   0.52462413   -7.9572792    752.46782  0.013673278  0.011834254         3843 
 4587000   0.50968365   -7.9654575    754.78279  0.013712354  0.011829953         3833 
 4588000   0.52369144   -7.9632958    753.47687  0.013685645   0.01182565         3840 
 4589000   0.52028372   -7.9455337    753.50771  0.013683223  0.011821348         3859 
 4590000   0.51227402   -7.9659486    752.94782  0.013670077  0.011817052         3850 
 4591000   0.51819307   -7.9574788    753.39027   0.01367513  0.011812756         3889 
 4592000   0.52936877   -7.9650189    753.62947  0.013676493  0.011808463         3850 
 4593000   0.50874458   -7.9497698    753.86625  0.013677811  0.011804173         3863 
 4594000   0.51008634   -7.9646856    752.16031  0.013643889  0.011799881         3872 
 4595000   0.52396311   -7.9488289    753.49602  0.013665144  0.011795597         3831 
 4596000   0.51171665   -7.9766447    752.81606  0.013649842  0.011791311         3842 
 4597000   0.51509141   -7.9621541    753.99037   0.01366816  0.011787026         3837 
 4598000   0.51807852   -7.9578916    752.36889    0.0136358  0.011782746         3873 
 4599000   0.52521831   -7.9487747    754.14819  0.013665076  0.011778467         3806 
 4600000   0.50760003   -7.9511537    752.63869  0.013634759  0.011774192         3847 
 4601000   0.52267888   -7.9509274    752.47653  0.013628858  0.011769914         3843 
 4602000   0.51161465    -7.974578    752.89051  0.013633393  0.011765639         3830 
 4603000   0.51130294   -7.9584323    754.03378  0.013651129  0.011761369         3819 
 4604000   0.51746642   -7.9567867    752.49756  0.013620358  0.011757098         3845 
 4605000   0.50212536   -7.9653382    752.74569  0.013621891  0.011752833         3847 
 4606000   0.51659159   -7.9466795    753.30907  0.013629126  0.011748565         3857 
 4607000   0.51497316   -7.9661035    753.65629  0.013632449  0.011744305         3858 
 4608000   0.53117006   -7.9651205    751.55082  0.013591414   0.01174004         3844 
 4609000   0.51038082   -7.9439705     753.0409  0.013615406  0.011735781         3824 
 4610000   0.52515554   -7.9411054    753.24779  0.013616193  0.011731525         3827 
 4611000   0.51408249   -7.9810537    752.42668    0.0135984  0.011727272         3828 
 4612000   0.52000714   -7.9472962    753.57802  0.013616255  0.011723019         3856 
 4613000   0.51621483   -7.9744952    752.73639  0.013598099  0.011718768         3863 
 4614000   0.51909736   -7.9778483    753.15454  0.013602704  0.011714516         3828 
 4615000   0.51176038   -7.9716494    752.59805  0.013589708   0.01171027         3846 
 4616000   0.49991181   -7.9668638    753.62463  0.013605297  0.011706025         3836 
 4617000   0.50964984   -7.9611447    752.90395  0.013589343  0.011701784         3855 
 4618000   0.50666262   -7.9574829    752.01148  0.013570295   0.01169754         3864 
 4619000   0.50393385   -7.9453108    752.02788  0.013567653  0.011693301         3861 
 4620000   0.51083274   -7.9558992    753.49133  0.013591113  0.011689063         3842 
 4621000   0.49917682   -7.9621236    753.12149  0.013581503  0.011684828         3835 
 4622000   0.51884023   -7.9606709    754.23861  0.013598706  0.011680594         3840 
 4623000   0.51226935   -7.9745985    752.92319  0.013572053  0.011676362         3873 
 4624000   0.51286393   -7.9445485    752.70432  0.013565173  0.011672138         3839 
 4625000   0.49959255   -7.9600775    751.36556  0.013538118   0.01166791         3853 
 4626000   0.51663109    -7.972438    753.00552  0.013564734  0.011663685         3842 
 4627000   0.51393935   -7.9666247    754.06282  0.013580845  0.011659461         3828 
 4628000   0.51492594    -7.986533    752.65525  0.013552565   0.01165524         3844 
 4629000   0.50728507   -7.9688766    753.71992  0.013568804  0.011651023         3855 
 4630000   0.51776873   -7.9483379    753.46471   0.01356128  0.011646802         3834 
 4631000   0.51718165   -7.9653998    752.99664  0.013549929  0.011642591         3770 
 4632000   0.50481465   -7.9627613    753.03796  0.013547747  0.011638379         3838 
 4633000    0.5162929   -7.9805382    753.41928  0.013551681   0.01163417         3859 
 4634000   0.50188442   -7.9677456    752.91948  0.013539769  0.011629955         3860 
 4635000   0.50604804    -7.973641    753.07412  0.013539628  0.011625748         3825 
 4636000   0.51642471   -7.9659194    754.06475  0.013554515  0.011621541         3842 
 4637000   0.50085624   -7.9546697    752.51898  0.013523812  0.011617334         3855 
 4638000   0.51693677    -7.966134    752.74243  0.013524911  0.011613132         3833 
 4639000   0.51283898   -7.9694014    753.10512   0.01352851  0.011608931         3867 
 4640000   0.51995736   -7.9565505    752.81417  0.013520369  0.011604735         3862 
 4641000   0.50722074   -7.9648399    752.59856  0.013513585  0.011600536         3842 
 4642000   0.51331799   -7.9593774    753.83214  0.013532819  0.011596343         3840 
 4643000   0.50081538    -7.987333    753.19604  0.013518487  0.011592151         3845 
 4644000   0.50839787   -7.9760419     752.8823  0.013509946  0.011587956         3842 
 4645000   0.51839504   -7.9729411    751.95268   0.01349036  0.011583766         3842 
 4646000   0.51396747   -7.9697723     751.6313  0.013481692  0.011579582         3866 
 4647000   0.51171015   -7.9846634    752.19818  0.013488957  0.011575398         3819 
 4648000   0.50283291   -7.9929158    753.27269  0.013505319  0.011571214         3877 
 4649000   0.49757365   -7.9737009    752.96612  0.013496919   0.01156703         3844 
 4650000   0.50623562   -7.9893066    752.09611  0.013478425  0.011562849         3857 
 4651000   0.51551036   -7.9800389    753.39185  0.013498743  0.011558671         3848 
 4652000    0.5115285   -7.9736558    753.78604  0.013502903  0.011554499         3877 
 4653000   0.51456541   -7.9911647    752.15586  0.013470805  0.011550326         3874 
 4654000   0.50868763   -7.9713968    752.55988  0.013475145  0.011546154         3840 
 4655000   0.49726642   -7.9646941    752.42564  0.013469847  0.011541987         3860 
 4656000    0.5033657   -7.9831518    753.42537  0.013484847  0.011537821         3831 
 4657000   0.51209283    -7.971652    752.82059  0.013471129  0.011533657         3887 
 4658000   0.52086848   -7.9699508     751.8526   0.01345092  0.011529492         3851 
 4659000   0.49670764   -7.9633576    752.36364  0.013457173  0.011525332         3827 
 4660000   0.49633036   -7.9608432    752.63441  0.013459127   0.01152117         3819 
 4661000   0.49501999   -7.9834518     752.1946  0.013448377  0.011517014         3819 
 4662000   0.51932797   -7.9687349    753.11682  0.013461977   0.01151286         3876 
 4663000   0.51227297   -7.9809029    753.91358  0.013473329  0.011508707         3854 
 4664000   0.50750163   -7.9667896    751.69085  0.013430726  0.011504556         3831 
 4665000   0.49773413   -7.9774171    752.49547   0.01344222  0.011500409         3884 
 4666000   0.50199206    -7.983618    752.47112  0.013438904  0.011496262         3848 
 4667000    0.5096611    -7.972745    751.86763  0.013425249  0.011492117         3840 
 4668000   0.51530536   -7.9768886    751.84427  0.013421956  0.011487973         3849 
 4669000   0.50513083   -7.9633251    752.70074  0.013434368  0.011483831         3835 
 4670000   0.50710019    -7.983295    753.03161  0.013437395  0.011479693         3843 
 4671000   0.51043295   -7.9713172    752.49715  0.013424983  0.011475557         3856 
 4672000   0.50678273   -7.9772506    751.24795  0.013399828   0.01147142         3840 
 4673000   0.50426108   -7.9787759    752.54968  0.013420174  0.011467286         3852 
 4674000    0.5099717   -7.9826572    751.76732  0.013403354  0.011463155         3860 
 4675000   0.50507433   -7.9762732    752.20275  0.013408249  0.011459026         3845 
 4676000   0.51318069   -7.9895058    752.08814  0.013403339  0.011454895         3826 
 4677000   0.50103476   -7.9822877    752.06887   0.01340013  0.011450767         3836 
 4678000   0.50111918   -7.9786815    752.37899  0.013402789  0.011446643         3850 
 4679000   0.50595359   -7.9597505     753.1896  0.013414362   0.01144252         3848 
 4680000   0.50100907   -7.9666577    751.40528  0.013379724  0.011438401         3862 
 4681000   0.49999268   -7.9953049    751.65299  0.013381275  0.011434279         3883 
 4682000   0.49222746   -7.9694697    751.27244  0.013371644  0.011430163         3884 
 4683000   0.49716318   -7.9710594    751.86052  0.013379253  0.011426047         3873 
 4684000   0.50114813   -7.9718279    752.31893  0.013384553  0.011421932         3850 
 4685000   0.50387061   -7.9810948    752.70232  0.013388515  0.011417822         3832 
 4686000   0.50998533   -7.9731795    753.62086  0.013401993  0.011413713         3828 
 4687000   0.50610637   -7.9792939    752.18933  0.013373681  0.011409603         3860 
 4688000   0.50827898   -7.9723041    752.73807  0.013380583  0.011405496         3807 
 4689000   0.49975462   -7.9736297    752.87143  0.013380099  0.011401393         3836 
 4690000   0.50205323   -7.9778742      752.727   0.01337468  0.011397291         3853 
 4691000   0.50191676   -7.9808201    753.26783  0.013381437  0.011393191         3856 
 4692000   0.50780406   -7.9866166    752.80034  0.013370282  0.011389094         3853 
 4693000   0.49821017   -7.9852649    752.07386  0.013354533     0.011385         3836 
 4694000   0.50349571   -7.9778617     752.0151  0.013350644  0.011380909         3845 
 4695000   0.49973028   -7.9886159    752.68552    0.0133597  0.011376816         3867 
 4696000   0.49854424   -7.9920816    752.13945  0.013347165  0.011372723         3843 
 4697000   0.50075225   -7.9746591    752.22298  0.013345805  0.011368637         3853 
 4698000   0.50243111    -7.979599    753.67488  0.013368719  0.011364552         3857 
 4699000   0.49695996   -7.9778367    753.12177  0.013356065  0.011360467         3828 
 4700000   0.48720569   -7.9844173    751.31028  0.013321104  0.011356386         3844 
 4701000   0.50198077   -7.9690255    750.81646  0.013309517  0.011352305         3822 
 4702000     0.490857   -7.9819309    750.62489  0.013303291  0.011348227         3870 
 4703000   0.49190268   -7.9763435    752.54216  0.013334435  0.011344148         3857 
 4704000   0.50001852   -7.9768804    752.10753    0.0133239  0.011340072         3874 
 4705000   0.49784504   -7.9850553    752.14755  0.013321777     0.011336         3891 
 4706000   0.50031255   -7.9861642    751.15732  0.013301412  0.011331928         3847 
 4707000   0.50065513   -7.9751665    751.81203  0.013310177   0.01132786         3824 
 4708000    0.4997248   -7.9899899    751.51709  0.013302129  0.011323792         3829 
 4709000   0.49711014   -7.9725179    751.63564  0.013301402  0.011319727         3851 
 4710000    0.4925507   -7.9959653    751.63404   0.01329855  0.011315661         3865 
 4711000   0.49816206   -7.9800114     753.2254  0.013323877  0.011311598         3864 
 4712000   0.49728922   -7.9910822    751.37417  0.013288309  0.011307536         3857 
 4713000   0.49590947   -7.9838255    751.73247  0.013291825  0.011303476         3859 
 4714000   0.50886491   -7.9947653    751.67169  0.013287931  0.011299426         3883 
 4715000   0.49797463   -7.9746628    753.24968  0.013313002  0.011295372         3854 
 4716000   0.49827963   -7.9757822    752.08925  0.013289674  0.011291319         3870 
 4717000   0.49036101   -7.9919603    752.52582   0.01329457  0.011287267         3856 
 4718000    0.5011356   -7.9856177    751.36767  0.013271296  0.011283215         3850 
 4719000   0.49585272   -7.9845955    752.29077  0.013284784  0.011279171         3865 
 4720000   0.50580656   -7.9623015    752.80294  0.013291012  0.011275125         3822 
 4721000   0.49664557   -7.9799032    750.73664  0.013251723  0.011271082         3818 
 4722000   0.49573577   -7.9804616     750.8969  0.013251745  0.011267043         3845 
 4723000   0.49599245   -8.0008229    751.40269  0.013257864  0.011263004         3860 
 4724000   0.49565139   -7.9878871    751.04267  0.013248706  0.011258964         3827 
 4725000   0.49500211   -7.9762892    753.11177  0.013282394  0.011254928         3883 
 4726000   0.50082018   -7.9807598    752.39201  0.013266893  0.011250896         3803 
 4727000   0.50325139   -7.9802992    751.13936  0.013242003  0.011246866         3833 
 4728000   0.49944061    -8.001299    750.73026  0.013231991  0.011242837         3846 
 4729000   0.50282876   -7.9886586    751.76078  0.013247353  0.011238809         3837 
 4730000   0.48285553   -7.9827173    751.54602  0.013240768  0.011234782         3867 
 4731000    0.4827245   -8.0001427    752.17361  0.013249024  0.011230753         3855 
 4732000   0.50015935   -7.9771168    751.22629  0.013229542  0.011226731         3847 
 4733000   0.49785204   -7.9864226    751.81943   0.01323719  0.011222711         3817 
 4734000   0.50645195   -7.9794255    752.07208  0.013238841  0.011218692         3886 
 4735000   0.50142357   -7.9967621    752.85413  0.013249809  0.011214675         3851 
 4736000   0.50604968   -7.9821726    750.07098  0.013198039  0.011210657         3870 
 4737000   0.49283433   -8.0012752    751.09583  0.013213283  0.011206643         3865 
 4738000   0.48975029   -8.0073295    752.01727    0.0132267   0.01120263         3862 
 4739000   0.49464265   -7.9851144    750.93912   0.01320495  0.011198619         3851 
 4740000   0.50240348   -7.9778835    752.24475  0.013225119  0.011194613         3816 
 4741000   0.48857026   -7.9924343    751.82771  0.013214999  0.011190606         3851 
 4742000    0.4927462   -7.9941427    750.93179  0.013196468  0.011186599         3883 
 4743000   0.49837249   -7.9982741    752.07889   0.01321384  0.011182596         3863 
 4744000   0.49833436   -7.9848417    751.67053  0.013203881  0.011178596         3830 
 4745000   0.50116254   -7.9866561    752.35181  0.013213063  0.011174599         3831 
 4746000   0.49197706    -8.001205    751.24523  0.013190849  0.011170606         3862 
 4747000   0.48950519   -7.9839143    752.38593  0.013208095  0.011166609         3822 
 4748000   0.49743537    -7.995731    750.84868  0.013178333  0.011162617         3802 
 4749000   0.48342767    -7.986019    752.19411  0.013199167  0.011158626         3858 
 4750000   0.49012176   -7.9799728     752.0463  0.013193795   0.01115464         3840 
 4751000   0.49522858   -7.9877374    753.19114  0.013211098  0.011150652         3849 
 4752000      0.49321   -7.9864631    751.57705  0.013180013  0.011146664         3862 
 4753000   0.49403568   -8.0112429     750.6368  0.013160755   0.01114268         3878 
 4754000   0.48901554   -7.9838199    751.76922  0.013177837  0.011138695         3876 
 4755000   0.48052352   -7.9926464    751.36056  0.013167903  0.011134715         3861 
 4756000   0.48557614   -7.9913954     751.9179    0.0131749  0.011130736         3854 
 4757000    0.5041209    -7.996486    751.13343  0.013158388  0.011126761         3859 
 4758000    0.4866339    -7.988856    751.11124  0.013155234  0.011122785         3899 
 4759000   0.49010336    -7.998095    750.12731   0.01313524   0.01111881         3842 
 4760000   0.49335573   -7.9982539    752.14717  0.013167843   0.01111484         3870 
 4761000   0.49582727   -7.9835246    751.32697  0.013150721  0.011110872         3858 
 4762000   0.48072703   -7.9959537    751.97659  0.013159327  0.011106907         3858 
 4763000   0.48332866   -7.9799275    752.12317  0.013159129  0.011102942         3863 
 4764000   0.49122701   -7.9920847    751.56858  0.013146666  0.011098978         3848 
 4765000   0.47703009   -7.9961188    752.08252  0.013152895  0.011095017         3866 
 4766000   0.49784613   -7.9929052    751.22351  0.013135115  0.011091057         3858 
 4767000   0.49027358   -8.0040517     752.5838  0.013156139  0.011087101         3845 
 4768000    0.4888043   -7.9907398    751.65544  0.013137155  0.011083143         3884 
 4769000   0.49159534   -8.0028868    751.30545  0.013128284  0.011079187         3872 
 4770000   0.48221576   -7.9988046    751.49521  0.013128847  0.011075233         3886 
 4771000   0.49298762   -8.0078843    751.01328  0.013117678  0.011071284         3896 
 4772000   0.48808138   -7.9926842     750.8625  0.013112296  0.011067337         3871 
 4773000   0.48808248   -7.9933814    751.75251  0.013125087  0.011063392         3862 
 4774000   0.49800571   -8.0050261    751.92225  0.013125301  0.011059446         3861 
 4775000   0.48967636   -7.9916201    750.76965  0.013102437  0.011055502         3871 
 4776000   0.48749115   -7.9874154    751.49157   0.01311229  0.011051561         3858 
 4777000   0.48405346   -7.9948394    750.73559  0.013096357  0.011047624         3825 
 4778000    0.4874348   -7.9912943    752.00107  0.013115688  0.011043686         3872 
 4779000   0.49062509   -7.9928155    751.01847  0.013095809  0.011039748         3842 
 4780000   0.48663906   -7.9977822    751.35317  0.013098905  0.011035811         3869 
 4781000   0.48348364   -8.0038637    750.04474  0.013073359  0.011031879         3852 
 4782000   0.49387085   -8.0067359    750.73253  0.013082611   0.01102795         3829 
 4783000   0.48202654   -8.0034961    751.47042  0.013092731   0.01102402         3850 
 4784000   0.48695308   -7.9875827    751.22447  0.013085711  0.011020094         3861 
 4785000    0.4780774   -8.0011312     750.4889  0.013070165  0.011016169         3839 
 4786000   0.47775652   -7.9962147    751.30856  0.013081706  0.011012248         3813 
 4787000   0.47949174   -8.0047777    751.73128  0.013086332  0.011008327         3846 
 4788000   0.48767451   -8.0069765    750.65327  0.013064837  0.011004407         3840 
 4789000    0.4808502   -7.9988543    752.26047  0.013090076  0.011000489         3858 
 4790000   0.47803058   -8.0126207    750.47021  0.013056197  0.010996571         3855 
 4791000   0.47300573    -8.007827    751.75165  0.013075761  0.010992657         3836 
 4792000   0.48680479   -7.9928065    751.35135  0.013066071  0.010988744         3855 
 4793000   0.48798761   -7.9914002    751.37216  0.013063707  0.010984836         3861 
 4794000   0.48786732   -8.0041123    751.50851  0.013063352  0.010980927         3856 
 4795000   0.49113732   -8.0040316    751.97209  0.013068684  0.010977019         3885 
 4796000   0.48037947   -8.0038148    751.73624  0.013061861  0.010973113         3858 
 4797000   0.47447048   -7.9945648    751.46525  0.013054431  0.010969208         3889 
 4798000   0.49312525   -8.0026014    750.52712  0.013035416  0.010965308         3836 
 4799000   0.48067855   -8.0022278    751.89606  0.013056471  0.010961409         3862 
 4800000   0.49259958   -8.0023344    750.67778    0.0130326  0.010957512         3873 
 4801000   0.48618695   -8.0139992    752.21054  0.013056491  0.010953614         3845 
 4802000   0.48667866    -8.004095     751.7763  0.013046236  0.010949717         3844 
 4803000   0.47864021   -8.0037121    750.58138  0.013022788  0.010945823         3839 
 4804000   0.48216384   -8.0035198    751.49093  0.013035854  0.010941935         3874 
 4805000   0.48565591   -8.0004199    751.53267  0.013033865  0.010938045         3861 
 4806000   0.48434232   -7.9802843    750.99958   0.01302191  0.010934157         3842 
 4807000   0.49462543   -7.9966568    751.90882  0.013034963  0.010930274         3814 
 4808000   0.48526341   -7.9982788    750.52868  0.013008331  0.010926392         3875 
 4809000   0.47478009   -8.0157825    750.05531  0.012997423   0.01092251         3865 
 4810000   0.49448157   -8.0170684    751.40335  0.013018076  0.010918629         3878 
 4811000   0.48029016   -7.9973903    751.21744   0.01301215  0.010914748         3809 
 4812000   0.48768831   -8.0025141    751.06234   0.01300676  0.010910873         3813 
 4813000   0.48089232   -8.0176341    750.79049  0.012999351  0.010906999         3845 
 4814000   0.47882048   -8.0169749    750.48329  0.012991332  0.010903127         3868 
 4815000   0.47253828   -8.0059288    750.03561  0.012980886  0.010899252         3851 
 4816000   0.47197377   -8.0095677     751.0657  0.012996015  0.010895383         3874 
 4817000   0.48489232   -8.0093158    750.31827  0.012980387  0.010891515         3854 
 4818000   0.47568241   -8.0162589    751.54404  0.012998894  0.010887647         3852 
 4819000   0.48083377   -7.9914694    750.81088  0.012983518  0.010883783         3798 
 4820000   0.48050382   -8.0120725    750.79657  0.012980577   0.01087992         3860 
 4821000   0.48020792   -8.0085951    750.85775  0.012978942  0.010876057         3848 
 4822000   0.48849731   -8.0094414    750.63016  0.012972317  0.010872197         3846 
 4823000   0.48695543   -8.0251254    751.49789   0.01298462  0.010868337         3882 
 4824000   0.48885591   -8.0087664    752.00101   0.01299062   0.01086448         3874 
 4825000    0.4804303   -8.0036206    751.49097  0.012979119  0.010860627         3854 
 4826000   0.47204755   -8.0035138    751.49658  0.012976526  0.010856776         3868 
 4827000   0.47595356   -8.0190802    750.91736  0.012963838  0.010852924         3867 
 4828000   0.47840919   -8.0050232    750.45209  0.012953122  0.010849073         3867 
 4829000   0.48928885    -8.004044     749.6093  0.012935896  0.010845225         3838 
 4830000   0.49033431   -8.0169836    750.20625  0.012943517  0.010841379         3860 
 4831000   0.48423047   -8.0070585    750.11693  0.012939297  0.010837537         3854 
 4832000   0.47516008   -8.0063464    750.93837  0.012950786  0.010833694         3842 
 4833000   0.48245472   -8.0223731    750.61875  0.012942595  0.010829854         3866 
 4834000   0.47894115   -8.0320502    751.71375  0.012958795  0.010826015         3904 
 4835000   0.47501939   -8.0288136    750.91083  0.012942276  0.010822175         3872 
 4836000    0.4767807   -7.9934049    750.69146  0.012935819  0.010818341         3859 
 4837000   0.47490911   -8.0232353      750.448   0.01292895  0.010814508         3867 
 4838000   0.48890788   -8.0089026    750.01669  0.012918849  0.010810678         3891 
 4839000   0.46753167   -8.0131897    750.32156  0.012921429  0.010806848         3852 
 4840000   0.47380102   -7.9950462    750.07161  0.012914456   0.01080302         3863 
 4841000   0.46345133   -8.0139419    750.32534  0.012916156  0.010799193         3840 
 4842000   0.47661316   -8.0159381    752.22604  0.012946201   0.01079537         3883 
 4843000   0.47951125   -8.0158495    749.56447   0.01289773  0.010791548         3880 
 4844000   0.47762979   -7.9878921    751.79209   0.01293339  0.010787729         3862 
 4845000   0.47086694   -8.0216092    749.33353  0.012888434  0.010783912         3868 
 4846000   0.47303789   -8.0126848    750.54867   0.01290667  0.010780092         3868 
 4847000   0.47578558   -8.0086784    749.89458  0.012892762  0.010776277         3843 
 4848000   0.47761122   -8.0056671    749.88881  0.012890003  0.010772461         3885 
 4849000   0.47378672   -8.0190455    750.72417  0.012901701  0.010768651         3861 
 4850000   0.47541887   -8.0229787    750.14529  0.012889094  0.010764842         3862 
 4851000   0.47921951   -8.0071861    751.59755  0.012911385  0.010761035         3862 
 4852000   0.48313142   -8.0189447    749.92064  0.012879923   0.01075723         3838 
 4853000   0.46638352   -8.0120513    752.08821  0.012914489  0.010753428         3878 
 4854000   0.46947947   -8.0062312    751.12642  0.012895317  0.010749626         3863 
 4855000   0.47895803   -8.0097518    750.13304   0.01287561  0.010745823         3836 
 4856000   0.47257563   -8.0320557    750.22401   0.01287452  0.010742023         3883 
 4857000   0.47697573   -8.0123249    751.21657  0.012888899  0.010738226         3858 
 4858000   0.46316401   -8.0181733    750.40895  0.012872392   0.01073443         3891 
 4859000    0.4692378   -8.0183891    750.38107  0.012869264  0.010730637         3847 
 4860000   0.47624098    -8.013489    750.07777  0.012861416  0.010726845         3886 
 4861000   0.47557807   -8.0123033    751.20599  0.012878111  0.010723056         3871 
 4862000   0.48268826   -8.0131944    750.71862  0.012867109  0.010719267         3832 
 4863000   0.47089713   -7.9953393    751.25222  0.012873607  0.010715478         3866 
 4864000   0.47677714   -8.0310406    750.79672  0.012863156  0.010711695         3812 
 4865000   0.47153084   -8.0237207    750.12844  0.012849065  0.010707912         3860 
 4866000   0.47765433   -8.0052688    750.40791  0.012851211   0.01070413         3840 
 4867000   0.46873878   -8.0195673     750.8708  0.012856496  0.010700348         3822 
 4868000   0.47771879   -8.0242547    751.15419  0.012858706  0.010696571         3865 
 4869000   0.47101617   -8.0135998    751.52385  0.012862392  0.010692795         3854 
 4870000   0.46717725   -8.0097989    751.17419  0.012853768   0.01068902         3839 
 4871000   0.46943057   -8.0314666    750.08711  0.012832531  0.010685245         3900 
 4872000   0.46189806   -8.0088772    750.84141  0.012842799  0.010681472         3867 
 4873000   0.46881492   -8.0067716    751.07628   0.01284418  0.010677705         3876 
 4874000   0.47695426   -8.0166154     750.3277  0.012828746  0.010673939         3861 
 4875000   0.46300357   -8.0242785    750.45386  0.012828271   0.01067017         3837 
 4876000   0.46521135   -8.0314192     749.7787  0.012814101  0.010666407         3873 
 4877000   0.48171951   -8.0132818    748.90203  0.012796494  0.010662644         3861 
 4878000   0.47757435   -8.0268822    749.79907  0.012809196  0.010658881         3879 
 4879000   0.48342732   -8.0021084    750.93378  0.012825951  0.010655123         3870 
 4880000   0.46854784   -8.0185099    752.22661    0.0128454  0.010651363         3845 
 4881000   0.47382726   -8.0227165    749.10495  0.012789472  0.010647608         3852 
 4882000   0.46174621   -8.0329039    749.99813  0.012802098  0.010643853         3838 
 4883000   0.47117105   -8.0114395    749.60972  0.012792848  0.010640101         3854 
 4884000   0.46711044   -8.0206396    749.87912  0.012794825   0.01063635         3867 
 4885000   0.47588731   -8.0319622    749.80151  0.012790882  0.010632602         3862 
 4886000   0.47158869   -8.0160111    749.81919  0.012788566  0.010628854         3839 
 4887000   0.46328997   -8.0287468    750.18172  0.012792131  0.010625109         3866 
 4888000   0.46772355   -8.0303696    749.65239  0.012780489  0.010621361         3843 
 4889000   0.46737909   -8.0331092    751.54092  0.012810066  0.010617616         3895 
 4890000   0.47361975   -8.0259456    751.07962  0.012799585  0.010613876         3883 
 4891000   0.46003703   -8.0230645    750.54741    0.0127879  0.010610135         3841 
 4892000   0.46973631   -8.0385157    750.44455  0.012783534  0.010606398         3858 
 4893000   0.47261104   -8.0249941    750.32719  0.012778922  0.010602664         3881 
 4894000   0.48365014   -8.0303893    751.18918  0.012790989  0.010598932         3854 
 4895000   0.47762634   -8.0346818    751.33933  0.012790932  0.010595203         3877 
 4896000   0.46669672   -8.0241674    749.62318  0.012759109  0.010591472         3873 
 4897000   0.46111954   -8.0083196    750.76926  0.012776007  0.010587742         3874 
 4898000   0.46714519   -8.0276706    750.57015  0.012770011  0.010584016         3851 
 4899000   0.46605517   -8.0218731    749.70782  0.012752736   0.01058029         3846 
 4900000   0.46382444   -8.0245453    750.08513   0.01275655  0.010576567         3881 
 4901000   0.45628851   -8.0192726    750.42641   0.01275975  0.010572845         3874 
 4902000   0.46768132   -8.0439488    749.56518  0.012742506  0.010569126         3860 
 4903000   0.47105363   -8.0290126    749.93991  0.012746276   0.01056541         3867 
 4904000   0.45858514   -8.0253135    749.93607  0.012743612  0.010561694         3850 
 4905000   0.46332901   -8.0319079    750.22543   0.01274593  0.010557979         3895 
 4906000   0.47154985   -8.0254958     750.2405  0.012743588  0.010554263         3880 
 4907000   0.46902992   -8.0357664    751.59389  0.012763975  0.010550551         3867 
 4908000   0.47240142   -8.0349402    750.90272  0.012749639  0.010546841         3841 
 4909000   0.46287742   -8.0347684    749.89793  0.012729985  0.010543131         3874 
 4910000   0.46245605   -8.0229337    749.18487   0.01271529  0.010539424         3871 
 4911000   0.47062288   -8.0253002    749.79835   0.01272311  0.010535721         3850 
 4912000   0.46865332   -8.0154354     749.8173  0.012720842  0.010532017         3854 
 4913000   0.45937504   -8.0449305    750.10699  0.012723166  0.010528314         3853 
 4914000    0.4623462   -8.0286418    749.81945  0.012715701  0.010524612         3865 
 4915000   0.46422502   -8.0242313    750.40048  0.012722965  0.010520915         3836 
 4916000   0.46917388   -8.0286353    750.51623  0.012722339  0.010517219         3854 
 4917000   0.46274213   -8.0385761    749.13046  0.012696266  0.010513524         3885 
 4918000   0.46008135   -8.0337335    749.81337  0.012705256  0.010509833         3868 
 4919000   0.46052823   -8.0395602    748.72286  0.012684198   0.01050614         3889 
 4920000   0.45355815   -8.0317321    749.64782  0.012697287   0.01050245         3877 
 4921000   0.46177588   -8.0156888    749.81193  0.012697486  0.010498761         3863 
 4922000   0.47428977   -8.0339594    750.27489  0.012702744  0.010495074         3844 
 4923000   0.45912007   -8.0372756    749.41115  0.012685543   0.01049139         3863 
 4924000   0.46847555   -8.0233177    749.61409  0.012686402  0.010487707         3836 
 4925000   0.46972114   -8.0255538    749.74495   0.01268604  0.010484025         3872 
 4926000   0.46892825    -8.032593    749.41259  0.012677842  0.010480344         3873 
 4927000     0.462717    -8.021915    749.64036  0.012679121  0.010476665         3850 
 4928000   0.46971671   -8.0350946    750.61067  0.012692956  0.010472991         3871 
 4929000   0.45490748   -8.0252377     748.5106  0.012654876  0.010469316         3858 
 4930000   0.46636824   -8.0496431    749.56941  0.012670206  0.010465643         3867 
 4931000   0.46662405   -8.0394852    748.94135  0.012657023  0.010461973         3823 
 4932000   0.46119103   -8.0218192    749.80618  0.012669069  0.010458304         3849 
 4933000   0.46945947   -8.0280983    748.66359  0.012647199  0.010454635         3892 
 4934000   0.47005931   -8.0371825    749.26394  0.012654775  0.010450966         3892 
 4935000   0.47023368   -8.0498644     750.1357  0.012666932  0.010447301         3906 
 4936000   0.46093009   -8.0297322    748.69205  0.012639993  0.010443634         3892 
 4937000   0.46225156   -8.0523584    749.21239  0.012646215   0.01043997         3851 
 4938000    0.4559538   -8.0380035    749.35958  0.012646138  0.010436308         3846 
 4939000    0.4681313   -8.0440695    750.98723  0.012671041  0.010432648         3864 
 4940000   0.45942377   -8.0289573    750.01702  0.012652109  0.010428988         3890 
 4941000   0.44836122   -8.0472287    750.28258  0.012654027   0.01042533         3848 
 4942000   0.45172809   -8.0365338    749.26278  0.012634271  0.010421676         3866 
 4943000   0.46396483   -8.0405025    749.55738  0.012636681  0.010418023         3884 
 4944000   0.46558785   -8.0327706     749.5935  0.012634734  0.010414372         3894 
 4945000   0.45500242   -8.0290041    750.39786  0.012645734  0.010410723         3858 
 4946000   0.46159502   -8.0359592    749.53006  0.012628556  0.010407076         3858 
 4947000   0.45976361    -8.043703    749.16542  0.012619861  0.010403431         3875 
 4948000   0.46401479   -8.0390141     749.4997   0.01262294  0.010399786         3864 
 4949000   0.47016637   -8.0423316    749.54135  0.012621091  0.010396141         3895 
 4950000   0.45563425   -8.0390439    749.28004  0.012614142    0.0103925         3910 
 4951000   0.46383594   -8.0407299    751.08336  0.012641947  0.010388862         3886 
 4952000   0.46720701   -8.0407804    749.29705  0.012609334  0.010385223         3881 
 4953000   0.45885473   -8.0485284    749.15855  0.012604458  0.010381588         3870 
 4954000   0.45542398   -8.0444714    749.15422  0.012601841  0.010377952         3889 
 4955000   0.46689929   -8.0334236    749.25952  0.012601068  0.010374321         3870 
 4956000   0.45921144   -8.0375764    749.54614  0.012603345  0.010370688         3868 
 4957000    0.4465807    -8.049146    748.94868  0.012590758  0.010367058         3875 
 4958000   0.45954174   -8.0448738    747.73086   0.01256775  0.010363428         3880 
 4959000   0.46661674   -8.0427034    749.68973  0.012598134  0.010359803         3859 
 4960000   0.46549676   -8.0557992     750.3302  0.012606354  0.010356181         3849 
 4961000   0.46720387   -8.0347708    749.32849  0.012586987  0.010352559         3871 
 4962000   0.46855117   -8.0436455    749.87253  0.012593587   0.01034894         3887 
 4963000   0.46089691   -8.0462541    749.82722  0.012590288   0.01034532         3862 
 4964000    0.4597316   -8.0446138    750.08405  0.012592064  0.010341701         3812 
 4965000   0.44948576   -8.0487403    750.30726  0.012593274  0.010338085         3845 
 4966000   0.45891667   -8.0411971    749.82438  0.012582635  0.010334469         3878 
 4967000   0.45777677   -8.0631612    749.13396  0.012568518  0.010330855         3868 
 4968000   0.46469811   -8.0395715    748.97019  0.012563241  0.010327243         3845 
 4969000   0.45814317   -8.0559145    749.56599  0.012570705  0.010323634         3876 
 4970000   0.45479239   -8.0345986    749.79755  0.012572058  0.010320024         3854 
 4971000   0.46270384   -8.0447179    749.64378  0.012566951  0.010316418         3879 
 4972000    0.4510244   -8.0391131    749.93481  0.012569302  0.010312814         3865 
 4973000   0.45279637   -8.0565795    747.66225  0.012528692  0.010309209         3876 
 4974000   0.45894426   -8.0454082    749.43731  0.012555913  0.010305607         3890 
 4975000   0.45255309   -8.0392575    749.45594  0.012553701  0.010302004         3863 
 4976000   0.46521582   -8.0364146    749.03571   0.01254414   0.01029841         3887 
 4977000     0.459324   -8.0588969    748.95727  0.012540307  0.010294814         3875 
 4978000   0.45393285   -8.0512736    749.54973  0.012547705   0.01029122         3870 
 4979000   0.45742889   -8.0532531    749.22559   0.01253976  0.010287628         3880 
 4980000    0.4616468   -8.0517707    749.81554  0.012547114  0.010284035         3874 
 4981000    0.4489756   -8.0460311    748.61013  0.012524428  0.010280443         3874 
 4982000   0.45830555   -8.0481567    749.13702  0.012530728  0.010276853         3860 
 4983000   0.46005646   -8.0496673    748.39041  0.012515727  0.010273266         3871 
 4984000   0.44555985   -8.0398344    748.87906  0.012521386   0.01026968         3880 
 4985000    0.4566533   -8.0420981    749.89454   0.01253585  0.010266095         3898 
 4986000   0.45819124   -8.0312348    749.08929  0.012519877  0.010262513         3877 
 4987000   0.45755473   -8.0542987    748.15079  0.012501684  0.010258935         3870 
 4988000   0.44708374   -8.0459806    750.02644  0.012530514  0.010255355         3873 
 4989000   0.45736626   -8.0446158    748.50452  0.012502581  0.010251775         3884 
 4990000   0.45433193    -8.043448    750.13516  0.012527307  0.010248198         3883 
 4991000    0.4554912   -8.0421338    748.98446  0.012505584  0.010244626         3874 
 4992000   0.45220295   -8.0507407    748.21096  0.012490167  0.010241054         3882 
 4993000   0.44585343   -8.0424244    748.93495  0.012499749  0.010237482         3902 
 4994000   0.45221744   -8.0424012     747.6896  0.012476465  0.010233913         3874 
 4995000   0.45070802   -8.0691782    749.62602  0.012506273  0.010230345         3870 
 4996000   0.46003232   -8.0416755    748.34273  0.012482365   0.01022678         3874 
 4997000   0.43501074   -8.0516087    748.81564  0.012487753  0.010223216         3868 
 4998000   0.43890716   -8.0587293    749.10964  0.012490157  0.010219651         3875 
 4999000   0.44811073   -8.0478123    749.18988  0.012488996  0.010216091         3894 
 5000000   0.44743344   -8.0455834    750.40826  0.012506804  0.010212529         3884 
 5001000   0.44312745   -8.0519147    749.56335  0.012490224   0.01020897         3858 
 5002000   0.44542789   -8.0385795    749.18381  0.012481404  0.010205412         3883 
 5003000   0.45799142    -8.049767    748.83926   0.01247317  0.010201856         3894 
 5004000   0.45233078   -8.0497874    748.63495  0.012467275  0.010198304         3905 
 5005000   0.45957069     -8.04988    750.71677  0.012499447  0.010194751         3900 
 5006000   0.44374855   -8.0384325    748.72498  0.012463793  0.010191199         3876 
 5007000   0.44434991   -8.0413068    748.86954   0.01246371  0.010187651         3862 
 5008000   0.46200635   -8.0527085    749.56702  0.012472827  0.010184104         3870 
 5009000   0.45102296    -8.042398     748.9662  0.012460341  0.010180559         3890 
 5010000   0.44533056   -8.0556824     749.2208  0.012462089  0.010177017         3867 
 5011000   0.45453766    -8.060404    748.16745  0.012442085  0.010173477         3884 
 5012000   0.45050303   -8.0695736     749.0065  0.012453553  0.010169937         3878 
Loop time of 13147.5 on 48 procs for 5000000 steps with 4000 atoms

Performance: 65715.761 tau/day, 380.300 timesteps/s
99.4% CPU use with 48 MPI tasks x no OpenMP threads

MPI task timing breakdown:
Section |  min time  |  avg time  |  max time  |%varavg| %total
---------------------------------------------------------------
Pair    | 997.6      | 1090.5     | 1199.3     | 156.8 |  8.29
Neigh   | 92.939     | 96.368     | 100.89     |  20.3 |  0.73
Comm    | 814.53     | 930.22     | 1023.2     | 168.0 |  7.08
Output  | 17.551     | 17.556     | 17.662     |   0.4 |  0.13
Modify  | 10857      | 10894      | 10931      |  16.0 | 82.86
Other   |            | 118.5      |            |       |  0.90

Nlocal:        83.3333 ave          89 max          79 min
Histogram: 1 8 7 3 5 8 5 4 5 2
Nghost:        2452.88 ave        2471 max        2438 min
Histogram: 1 1 8 14 11 3 3 2 2 3
Neighs:        17044.9 ave       19201 max       14814 min
Histogram: 4 6 5 3 4 4 6 6 6 4
FullNghs:      34090.8 ave       36373 max       32191 min
Histogram: 4 8 5 4 6 5 5 5 4 2

Total # of neighbors = 1636360
Ave neighs/atom = 409.09000
Neighbor list builds = 266964
Dangerous builds = 0

#clear
#
#next RN
#
#jump SELF
Total wall time: 3:39:11
